# el_label, x, y, sXX, sYY, sZZ, sXY
1.000000000000000000e+00 5.528823852539062500e+01 3.520693588256835938e+01 -1.161275482177734375e+01 -1.293161034584045410e+00 -3.871774673461914062e+00 -5.868548750877380371e-01
2.000000000000000000e+00 5.509254837036132812e+01 3.524332427978515625e+01 -3.532097101211547852e+00 3.174575567245483398e-01 -9.643918275833129883e-01 1.485990643501281738e+00
3.000000000000000000e+00 5.489686203002929688e+01 3.527970886230468750e+01 -3.828538656234741211e+00 -4.251676797866821289e-01 -1.276111960411071777e+00 6.034686565399169922e-01
4.000000000000000000e+00 5.470117187500000000e+01 3.531609344482421875e+01 -3.044758796691894531e+00 1.148243099451065063e-01 -8.789803385734558105e-01 6.514524221420288086e-01
5.000000000000000000e+00 5.528322982788085938e+01 3.514881134033203125e+01 4.633161067962646484e+00 -2.161647319793701172e+00 7.414540648460388184e-01 -1.692762494087219238e+00
6.000000000000000000e+00 5.508419799804687500e+01 3.514644241333007812e+01 1.574231982231140137e-01 -7.215087115764617920e-02 2.558170072734355927e-02 9.143221378326416016e-02
7.000000000000000000e+00 5.488517379760742188e+01 3.514407730102539062e+01 1.482838988304138184e+00 1.491757780313491821e-01 4.896044135093688965e-01 6.636554002761840820e-01
8.000000000000000000e+00 5.468614196777343750e+01 3.514171218872070312e+01 6.176494359970092773e-01 9.766513109207153320e-02 2.145943641662597656e-01 5.260299518704414368e-02
9.000000000000000000e+00 5.528961944580078125e+01 3.509081649780273438e+01 1.357684040069580078e+01 -1.045483469963073730e+00 3.759407043457031250e+00 3.246250391006469727e+00
1.000000000000000000e+01 5.509484863281250000e+01 3.504978942871093750e+01 7.561039924621582031e+00 -4.535426795482635498e-01 2.132249116897583008e+00 1.503014802932739258e+00
1.100000000000000000e+01 5.490008163452148438e+01 3.500876235961914062e+01 5.016245841979980469e+00 4.316778481006622314e-01 1.634377002716064453e+00 1.349201917648315430e+00
1.200000000000000000e+01 5.470531082153320312e+01 3.496773529052734375e+01 4.655529499053955078e+00 5.573682785034179688e-01 1.563869357109069824e+00 1.291595101356506348e+00
1.300000000000000000e+01 5.530716705322265625e+01 3.503517532348632812e+01 1.887259674072265625e+01 2.257350206375122070e+00 6.338984012603759766e+00 8.503337860107421875e+00
1.400000000000000000e+01 5.512409591674804688e+01 3.495705413818359375e+01 1.166938591003417969e+01 1.312542438507080078e+00 3.894578456878662109e+00 5.238875865936279297e+00
1.500000000000000000e+01 5.494102478027343750e+01 3.487893295288085938e+01 9.037848472595214844e+00 1.485026955604553223e+00 3.156862735748291016e+00 3.731515884399414062e+00
1.600000000000000000e+01 5.475794982910156250e+01 3.480080795288085938e+01 7.032215118408203125e+00 1.427382826805114746e+00 2.537879467010498047e+00 3.062140703201293945e+00
1.700000000000000000e+01 5.533519744873046875e+01 3.498400878906250000e+01 2.008730506896972656e+01 7.842411041259765625e+00 8.378914833068847656e+00 1.374056243896484375e+01
1.800000000000000000e+01 5.517081451416015625e+01 3.487177276611328125e+01 1.395415973663330078e+01 4.885756492614746094e+00 5.651975154876708984e+00 8.994467735290527344e+00
1.900000000000000000e+01 5.500643157958984375e+01 3.475954055786132812e+01 1.066081047058105469e+01 4.156493186950683594e+00 4.445190906524658203e+00 6.854484558105468750e+00
2.000000000000000000e+01 5.484204864501953125e+01 3.464730834960937500e+01 8.887837409973144531e+00 3.678298950195312500e+00 3.769840717315673828e+00 5.685912609100341797e+00
2.100000000000000000e+01 5.537264633178710938e+01 3.493927001953125000e+01 1.903113174438476562e+01 1.504394245147705078e+01 1.022252178192138672e+01 1.738185882568359375e+01
2.200000000000000000e+01 5.523323059082031250e+01 3.479721069335937500e+01 1.371102333068847656e+01 1.007745265960693359e+01 7.136542797088623047e+00 1.204306221008300781e+01
2.300000000000000000e+01 5.509381103515625000e+01 3.465515136718750000e+01 1.107800483703613281e+01 8.067124366760253906e+00 5.743538856506347656e+00 9.677143096923828125e+00
2.400000000000000000e+01 5.495439529418945312e+01 3.451308822631835938e+01 9.184355735778808594e+00 7.254731178283691406e+00 4.931726455688476562e+00 8.133540153503417969e+00
2.500000000000000000e+01 5.541807937622070312e+01 3.490266799926757812e+01 1.606942367553710938e+01 2.317259597778320312e+01 1.177260589599609375e+01 1.883526611328125000e+01
2.600000000000000000e+01 5.530895233154296875e+01 3.473620986938476562e+01 1.237418174743652344e+01 1.604749488830566406e+01 8.526502609252929688e+00 1.373749351501464844e+01
2.700000000000000000e+01 5.519982528686523438e+01 3.456974792480468750e+01 9.986556053161621094e+00 1.294986820220947266e+01 6.880927085876464844e+00 1.132539844512939453e+01
2.800000000000000000e+01 5.509069442749023438e+01 3.440328598022460938e+01 8.552664756774902344e+00 1.138202285766601562e+01 5.980406284332275391e+00 9.854308128356933594e+00
2.900000000000000000e+01 5.546976470947265625e+01 3.487560272216796875e+01 1.295628356933593750e+01 3.099915122985839844e+01 1.318663024902343750e+01 1.790166282653808594e+01
3.000000000000000000e+01 5.539509582519531250e+01 3.469109725952148438e+01 1.018806743621826172e+01 2.215599250793457031e+01 9.703217506408691406e+00 1.372823333740234375e+01
3.100000000000000000e+01 5.532042312622070312e+01 3.450659179687500000e+01 8.460390090942382812e+00 1.814149856567382812e+01 7.980566501617431641e+00 1.160482120513916016e+01
3.200000000000000000e+01 5.524575042724609375e+01 3.432208251953125000e+01 6.977396011352539062e+00 1.569868946075439453e+01 6.802825450897216797e+00 1.015045833587646484e+01
3.300000000000000000e+01 5.552572631835937500e+01 3.485910034179687500e+01 1.036957168579101562e+01 3.753046035766601562e+01 1.437000942230224609e+01 1.483320426940917969e+01
3.400000000000000000e+01 5.548836517333984375e+01 3.466359710693359375e+01 8.343480110168457031e+00 2.763764190673828125e+01 1.079433631896972656e+01 1.219418716430664062e+01
3.500000000000000000e+01 5.545100021362304688e+01 3.446809387207031250e+01 6.713649272918701172e+00 2.297251129150390625e+01 8.905848503112792969e+00 1.038911342620849609e+01
3.600000000000000000e+01 5.541363525390625000e+01 3.427258682250976562e+01 5.543153762817382812e+00 2.006079864501953125e+01 7.681185722351074219e+00 9.262266159057617188e+00
3.700000000000000000e+01 5.558382797241210938e+01 3.485380172729492188e+01 9.379310607910156250e+00 4.205079650878906250e+01 1.542903232574462891e+01 1.052191257476806641e+01
3.800000000000000000e+01 5.558520126342773438e+01 3.465476226806640625e+01 7.175795078277587891e+00 3.186771392822265625e+01 1.171305274963378906e+01 9.341311454772949219e+00
3.900000000000000000e+01 5.558657073974609375e+01 3.445572662353515625e+01 5.609364986419677734e+00 2.689687728881835938e+01 9.751873016357421875e+00 8.183189392089843750e+00
4.000000000000000000e+01 5.558794403076171875e+01 3.425668716430664062e+01 4.623867034912109375e+00 2.378297424316406250e+01 8.522051811218261719e+00 7.320190906524658203e+00
4.100000000000000000e+01 5.564185333251953125e+01 3.485990142822265625e+01 1.009784698486328125e+01 4.425490188598632812e+01 1.630582427978515625e+01 5.770641326904296875e+00
4.200000000000000000e+01 5.568190765380859375e+01 3.466492843627929688e+01 7.234910964965820312e+00 3.453333282470703125e+01 1.253047275543212891e+01 5.895080566406250000e+00
4.300000000000000000e+01 5.572195816040039062e+01 3.446995925903320312e+01 5.485048294067382812e+00 2.940715980529785156e+01 1.046766281127929688e+01 5.308457374572753906e+00
4.400000000000000000e+01 5.576201248168945312e+01 3.427498626708984375e+01 4.519818305969238281e+00 2.624077033996582031e+01 9.228176116943359375e+00 4.886509895324707031e+00
4.500000000000000000e+01 5.569758224487304688e+01 3.487716674804687500e+01 1.241882896423339844e+01 4.441635894775390625e+01 1.705055618286132812e+01 1.609976768493652344e+00
4.600000000000000000e+01 5.577478790283203125e+01 3.469371032714843750e+01 8.560990333557128906e+00 3.546726226806640625e+01 1.320847511291503906e+01 2.387973070144653320e+00
4.700000000000000000e+01 5.585199356079101562e+01 3.451025390625000000e+01 6.558885574340820312e+00 3.044881820678710938e+01 1.110231113433837891e+01 2.404970407485961914e+00
4.800000000000000000e+01 5.592919921875000000e+01 3.432679367065429688e+01 5.316746234893798828e+00 2.704141807556152344e+01 9.707448959350585938e+00 2.266217470169067383e+00
4.900000000000000000e+01 5.574888992309570312e+01 3.490494537353515625e+01 1.590792655944824219e+01 4.299652099609375000e+01 1.767133331298828125e+01 -1.439597487449645996e+00
5.000000000000000000e+01 5.586029815673828125e+01 3.474000549316406250e+01 1.091439342498779297e+01 3.493035125732421875e+01 1.375342273712158203e+01 -4.409412741661071777e-01
5.100000000000000000e+01 5.597171020507812500e+01 3.457506179809570312e+01 8.689843177795410156e+00 3.008492851257324219e+01 1.163243103027343750e+01 -1.078875586390495300e-01
5.200000000000000000e+01 5.608312225341796875e+01 3.441012191772460938e+01 7.028016090393066406e+00 2.676113510131835938e+01 1.013674545288085938e+01 -4.537367448210716248e-02
5.300000000000000000e+01 5.579381179809570312e+01 3.494217300415039062e+01 1.961845016479492188e+01 4.070490646362304688e+01 1.809700584411621094e+01 -3.032379388809204102e+00
5.400000000000000000e+01 5.593517684936523438e+01 3.480204391479492188e+01 1.413635253906250000e+01 3.333415603637695312e+01 1.424115276336669922e+01 -2.167904138565063477e+00
5.500000000000000000e+01 5.607653808593750000e+01 3.466191864013671875e+01 1.124861335754394531e+01 2.874304771423339844e+01 1.199749851226806641e+01 -1.762781977653503418e+00
5.600000000000000000e+01 5.621789550781250000e+01 3.452179336547851562e+01 9.519035339355468750e+00 2.584236907958984375e+01 1.060842132568359375e+01 -1.535560965538024902e+00
5.700000000000000000e+01 5.583064270019531250e+01 3.498741912841796875e+01 2.337046813964843750e+01 3.830381774902343750e+01 1.850228691101074219e+01 -3.084962129592895508e+00
5.800000000000000000e+01 5.599655532836914062e+01 3.487746047973632812e+01 1.722026062011718750e+01 3.116115760803222656e+01 1.451442527770996094e+01 -2.665893793106079102e+00
5.900000000000000000e+01 5.616246795654296875e+01 3.476750183105468750e+01 1.414358329772949219e+01 2.705457687377929688e+01 1.235944843292236328e+01 -2.197104930877685547e+00
6.000000000000000000e+01 5.632838058471679688e+01 3.465754699707031250e+01 1.190552806854248047e+01 2.434877967834472656e+01 1.087629222869873047e+01 -1.963733077049255371e+00
6.100000000000000000e+01 5.585796737670898438e+01 3.503897094726562500e+01 2.614136314392089844e+01 3.607325744628906250e+01 1.866438674926757812e+01 -2.009414672851562500e+00
6.200000000000000000e+01 5.604209518432617188e+01 3.496337509155273438e+01 2.005088806152343750e+01 2.925638961791992188e+01 1.479218292236328125e+01 -1.777530074119567871e+00
6.300000000000000000e+01 5.622622680664062500e+01 3.488778305053710938e+01 1.638208770751953125e+01 2.530426979064941406e+01 1.250590705871582031e+01 -1.572381973266601562e+00
6.400000000000000000e+01 5.641035842895507812e+01 3.481219100952148438e+01 1.416304206848144531e+01 2.286001396179199219e+01 1.110691642761230469e+01 -1.267464637756347656e+00
6.500000000000000000e+01 5.587474441528320312e+01 3.509484863281250000e+01 2.804980278015136719e+01 3.477190780639648438e+01 1.884651374816894531e+01 9.768815338611602783e-02
6.600000000000000000e+01 5.607006072998046875e+01 3.505650711059570312e+01 2.164742279052734375e+01 2.778521919250488281e+01 1.482979297637939453e+01 -2.687302790582180023e-02
6.700000000000000000e+01 5.626537704467773438e+01 3.501816940307617188e+01 1.795774459838867188e+01 2.424163246154785156e+01 1.265981292724609375e+01 9.981144964694976807e-02
6.800000000000000000e+01 5.646068954467773438e+01 3.497982788085937500e+01 1.537822532653808594e+01 2.167174720764160156e+01 1.111499214172363281e+01 6.730389595031738281e-02
6.900000000000000000e+01 5.588033676147460938e+01 3.515292358398437500e+01 2.843783569335937500e+01 3.413838195800781250e+01 1.877286529541015625e+01 2.556430578231811523e+00
7.000000000000000000e+01 5.607938003540039062e+01 3.515329742431640625e+01 2.208345603942871094e+01 2.754952430725097656e+01 1.488989353179931641e+01 2.402098417282104492e+00
7.100000000000000000e+01 5.627842330932617188e+01 3.515367507934570312e+01 1.815001106262207031e+01 2.378081321716308594e+01 1.257924747467041016e+01 2.085695266723632812e+00
7.200000000000000000e+01 5.647746276855468750e+01 3.515404891967773438e+01 1.566871643066406250e+01 2.149430274963378906e+01 1.114890575408935547e+01 1.978910803794860840e+00
7.300000000000000000e+01 5.587452697753906250e+01 3.521097564697265625e+01 2.753467369079589844e+01 3.494049835205078125e+01 1.874255180358886719e+01 5.205130100250244141e+00
7.400000000000000000e+01 5.606969451904296875e+01 3.525005340576171875e+01 2.090350151062011719e+01 2.805067443847656250e+01 1.468625259399414062e+01 4.644324302673339844e+00
7.500000000000000000e+01 5.626486587524414062e+01 3.528913116455078125e+01 1.716793251037597656e+01 2.458662986755371094e+01 1.252636909484863281e+01 4.164938449859619141e+00
7.600000000000000000e+01 5.646003341674804688e+01 3.532820892333984375e+01 1.466417598724365234e+01 2.195201683044433594e+01 1.098485755920410156e+01 3.660434007644653320e+00
7.700000000000000000e+01 5.585753631591796875e+01 3.526679229736328125e+01 2.506920433044433594e+01 3.633801651000976562e+01 1.842216682434082031e+01 7.311830043792724609e+00
7.800000000000000000e+01 5.604137802124023438e+01 3.534307861328125000e+01 1.848514175415039062e+01 2.993966674804687500e+01 1.452744293212890625e+01 6.382555484771728516e+00
7.900000000000000000e+01 5.622522354125976562e+01 3.541936492919921875e+01 1.492421722412109375e+01 2.579602241516113281e+01 1.221607208251953125e+01 5.523959636688232422e+00
8.000000000000000000e+01 5.640906524658203125e+01 3.549565505981445312e+01 1.265491294860839844e+01 2.351133155822753906e+01 1.084987354278564453e+01 4.976534366607666016e+00
8.100000000000000000e+01 5.583001708984375000e+01 3.531823730468750000e+01 2.143512535095214844e+01 3.909306335449218750e+01 1.815845680236816406e+01 8.480943679809570312e+00
8.200000000000000000e+01 5.599551391601562500e+01 3.542882156372070312e+01 1.503203487396240234e+01 3.188771247863769531e+01 1.407592391967773438e+01 6.994870662689208984e+00
8.300000000000000000e+01 5.616101074218750000e+01 3.553940200805664062e+01 1.187167930603027344e+01 2.798310661315917969e+01 1.195643520355224609e+01 5.958064079284667969e+00
8.400000000000000000e+01 5.632650756835937500e+01 3.564999008178710938e+01 9.878618240356445312e+00 2.492948913574218750e+01 1.044243240356445312e+01 5.267236232757568359e+00
8.500000000000000000e+01 5.579301834106445312e+01 3.536334609985351562e+01 1.686486244201660156e+01 4.178936386108398438e+01 1.759626770019531250e+01 8.273868560791015625e+00
8.600000000000000000e+01 5.593384933471679688e+01 3.550400543212890625e+01 1.117710971832275391e+01 3.433871459960937500e+01 1.365474700927734375e+01 6.175734996795654297e+00
8.700000000000000000e+01 5.607468032836914062e+01 3.564466476440429688e+01 8.508447647094726562e+00 2.956814765930175781e+01 1.142297840118408203e+01 5.218601226806640625e+00
8.800000000000000000e+01 5.621551132202148438e+01 3.578532028198242188e+01 6.827624320983886719e+00 2.683590698242187500e+01 1.009906005859375000e+01 4.507604598999023438e+00
8.900000000000000000e+01 5.574795150756835938e+01 3.540040206909179688e+01 1.211923599243164062e+01 4.456966400146484375e+01 1.700666999816894531e+01 6.271231651306152344e+00
9.000000000000000000e+01 5.585873794555664062e+01 3.556576156616210938e+01 7.499921798706054688e+00 3.580408859252929688e+01 1.299120330810546875e+01 4.044885635375976562e+00
9.100000000000000000e+01 5.596952819824218750e+01 3.573112487792968750e+01 5.358342170715332031e+00 3.089064598083496094e+01 1.087469673156738281e+01 3.177419185638427734e+00
9.200000000000000000e+01 5.608031463623046875e+01 3.589648437500000000e+01 4.168601036071777344e+00 2.754608917236328125e+01 9.514407157897949219e+00 2.779314994812011719e+00
9.300000000000000000e+01 5.569654083251953125e+01 3.542798233032226562e+01 7.989923000335693359e+00 4.598458480834960938e+01 1.619235229492187500e+01 2.681822776794433594e+00
9.400000000000000000e+01 5.577305221557617188e+01 3.561173248291015625e+01 4.527358055114746094e+00 3.632024002075195312e+01 1.225428009033203125e+01 7.037074565887451172e-01
9.500000000000000000e+01 5.584956741333007812e+01 3.579548263549804688e+01 3.068959474563598633e+00 3.079441452026367188e+01 1.015901184082031250e+01 2.849275767803192139e-01
9.600000000000000000e+01 5.592607879638671875e+01 3.597923278808593750e+01 1.994137167930603027e+00 2.738012504577636719e+01 8.812278747558593750e+00 5.200907588005065918e-02
9.700000000000000000e+01 5.564074707031250000e+01 3.544504165649414062e+01 5.121760845184326172e+00 4.572043609619140625e+01 1.525265979766845703e+01 -2.339963674545288086e+00
9.800000000000000000e+01 5.568006515502929688e+01 3.564016342163085938e+01 2.895307302474975586e+00 3.485619354248046875e+01 1.132544994354248047e+01 -3.065002918243408203e+00
9.900000000000000000e+01 5.571938323974609375e+01 3.583528137207031250e+01 1.669677734375000000e+00 2.951644325256347656e+01 9.355835914611816406e+00 -3.165036678314208984e+00
1.000000000000000000e+02 5.575869750976562500e+01 3.603040695190429688e+01 1.024518966674804688e+00 2.581276512145996094e+01 8.051184654235839844e+00 -2.882645368576049805e+00
1.010000000000000000e+02 5.558270263671875000e+01 3.545092391967773438e+01 4.139862060546875000e+00 4.284197235107421875e+01 1.409455013275146484e+01 -7.572361469268798828e+00
1.020000000000000000e+02 5.558332061767578125e+01 3.564996337890625000e+01 2.629023075103759766e+00 3.162738800048828125e+01 1.027692317962646484e+01 -7.013147830963134766e+00
1.030000000000000000e+02 5.558394241333007812e+01 3.584900665283203125e+01 1.561159610748291016e+00 2.632403182983398438e+01 8.365557670593261719e+00 -6.037826538085937500e+00
1.040000000000000000e+02 5.558456039428710938e+01 3.604804992675781250e+01 9.533150792121887207e-01 2.341044044494628906e+01 7.309126377105712891e+00 -5.640352249145507812e+00
1.050000000000000000e+02 5.552462005615234375e+01 3.544540405273437500e+01 5.053191661834716797e+00 3.729476928710937500e+01 1.270438861846923828e+01 -1.246230697631835938e+01
1.060000000000000000e+02 5.548651885986328125e+01 3.564076232910156250e+01 3.678961038589477539e+00 2.656517410278320312e+01 9.073240280151367188e+00 -9.808166503906250000e+00
1.070000000000000000e+02 5.544841766357421875e+01 3.583612823486328125e+01 2.464241743087768555e+00 2.175165367126464844e+01 7.264768600463867188e+00 -8.379464149475097656e+00
1.080000000000000000e+02 5.541031265258789062e+01 3.603149032592773438e+01 1.837417721748352051e+00 1.910653686523437500e+01 6.283186435699462891e+00 -6.980824470520019531e+00
1.090000000000000000e+02 5.546871948242187500e+01 3.542869186401367188e+01 7.630561351776123047e+00 2.962368965148925781e+01 1.117627525329589844e+01 -1.534803676605224609e+01
1.100000000000000000e+02 5.539335250854492188e+01 3.561291503906250000e+01 5.329682826995849609e+00 1.999194145202636719e+01 7.596487045288085938e+00 -1.143553638458251953e+01
1.110000000000000000e+02 5.531798553466796875e+01 3.579713439941406250e+01 4.104336261749267578e+00 1.630611419677734375e+01 6.123135089874267578e+00 -8.917044639587402344e+00
1.120000000000000000e+02 5.524261856079101562e+01 3.598135757446289062e+01 2.960909366607666016e+00 1.381785869598388672e+01 5.033630371093750000e+00 -7.820835113525390625e+00
1.130000000000000000e+02 5.541713714599609375e+01 3.540142822265625000e+01 1.057657146453857422e+01 1.995709037780761719e+01 9.160099029541015625e+00 -1.608165359497070312e+01
1.140000000000000000e+02 5.530738067626953125e+01 3.556747817993164062e+01 7.079295635223388672e+00 1.322879505157470703e+01 6.092427253723144531e+00 -1.055753421783447266e+01
1.150000000000000000e+02 5.519762802124023438e+01 3.573352432250976562e+01 5.280476570129394531e+00 1.045132255554199219e+01 4.719539642333984375e+00 -8.425622940063476562e+00
1.160000000000000000e+02 5.508787155151367188e+01 3.589957427978515625e+01 4.026192188262939453e+00 9.239349365234375000e+00 3.979662418365478516e+00 -6.898396968841552734e+00
1.170000000000000000e+02 5.537184524536132812e+01 3.536465835571289062e+01 1.246519756317138672e+01 1.064462089538574219e+01 6.932945251464843750e+00 -1.331679725646972656e+01
1.180000000000000000e+02 5.523189163208007812e+01 3.550619125366210938e+01 7.774221420288085938e+00 6.411488533020019531e+00 4.255712985992431641e+00 -8.159519195556640625e+00
1.190000000000000000e+02 5.509193801879882812e+01 3.564772033691406250e+01 5.243244647979736328e+00 5.981066226959228516e+00 3.367293357849121094e+00 -5.877284049987792969e+00
1.200000000000000000e+02 5.495198440551757812e+01 3.578925323486328125e+01 3.997673034667968750e+00 5.335364341735839844e+00 2.799911260604858398e+00 -5.410107135772705078e+00
1.210000000000000000e+02 5.533456420898437500e+01 3.531977844238281250e+01 1.224423694610595703e+01 1.044133663177490234e+00 3.986511230468750000e+00 -7.675919532775878906e+00
1.220000000000000000e+02 5.516975784301757812e+01 3.543138885498046875e+01 5.151235580444335938e+00 2.684514522552490234e+00 2.350725173950195312e+00 -3.646399736404418945e+00
1.230000000000000000e+02 5.500495147705078125e+01 3.554300308227539062e+01 4.002062320709228516e+00 2.871775388717651367e+00 2.062151432037353516e+00 -3.845059633255004883e+00
1.240000000000000000e+02 5.484014892578125000e+01 3.565461349487304688e+01 2.920515775680541992e+00 2.106945991516113281e+00 1.508238554000854492e+00 -2.636563539505004883e+00
1.250000000000000000e+02 5.530672454833984375e+01 3.526850509643554688e+01 2.318087577819824219e+00 -3.203469514846801758e+00 -2.656145095825195312e-01 5.116741061210632324e-01
1.260000000000000000e+02 5.512335968017578125e+01 3.534593582153320312e+01 2.646614551544189453e+00 1.893280506134033203e+00 1.361968517303466797e+00 -1.654159903526306152e+00
1.270000000000000000e+02 5.493999481201171875e+01 3.542336654663085938e+01 8.253348469734191895e-01 -9.581534564495086670e-02 2.188558429479598999e-01 -7.402187585830688477e-01
1.280000000000000000e+02 5.475662994384765625e+01 3.550079345703125000e+01 1.264234483242034912e-01 5.640308856964111328e-01 2.071362882852554321e-01 -2.532090842723846436e-01
1.290000000000000000e+02 5.344128799438476562e+01 3.472198486328125000e+01 5.048819184303283691e-01 -3.872120380401611328e-01 3.530097007751464844e-02 -7.116896100342273712e-03
1.300000000000000000e+02 5.395528030395507812e+01 3.419330978393554688e+01 4.104823112487792969e+00 2.254455804824829102e+00 1.907783627510070801e+00 3.124324798583984375e+00
1.310000000000000000e+02 5.374227523803710938e+01 3.512762832641601562e+01 -1.800422966480255127e-01 7.453726232051849365e-02 -3.165150806307792664e-02 -5.400944352149963379e-01
1.320000000000000000e+02 5.634457397460937500e+01 3.438050842285156250e+01 8.127234458923339844e+00 2.384352874755859375e+01 9.591228485107421875e+00 -1.354174852371215820e+00
1.330000000000000000e+02 5.682741546630859375e+01 3.487009048461914062e+01 1.224292659759521484e+01 1.889391708374023438e+01 9.341053009033203125e+00 -8.647130429744720459e-02
1.340000000000000000e+02 5.635180282592773438e+01 3.595994567871093750e+01 5.380204200744628906e+00 2.434511947631835938e+01 8.917596817016601562e+00 3.952791690826416016e+00
1.350000000000000000e+02 5.446997070312500000e+01 3.513010025024414062e+01 6.805619001388549805e-01 3.337168693542480469e-01 3.042836189270019531e-01 1.118263974785804749e-02
1.360000000000000000e+02 5.458200073242187500e+01 3.425405502319335938e+01 6.690638065338134766e+00 5.146683692932128906e+00 3.551196575164794922e+00 5.924704551696777344e+00
1.370000000000000000e+02 5.494004058837890625e+01 3.421208190917968750e+01 7.124166965484619141e+00 9.641257286071777344e+00 5.029627323150634766e+00 8.347250938415527344e+00
1.380000000000000000e+02 5.579494476318359375e+01 3.406369018554687500e+01 3.711545467376708984e+00 2.343005561828613281e+01 8.142479896545410156e+00 4.598630428314208984e+00
1.390000000000000000e+02 5.600057601928710938e+01 3.415147018432617188e+01 4.503096103668212891e+00 2.480035209655761719e+01 8.791034698486328125e+00 2.111450195312500000e+00
1.400000000000000000e+02 5.646979141235351562e+01 3.403975677490234375e+01 5.510739326477050781e+00 2.181028747558593750e+01 8.196308135986328125e+00 -4.011221528053283691e-01
1.410000000000000000e+02 5.659978485107421875e+01 3.470494079589843750e+01 1.209550762176513672e+01 2.088444328308105469e+01 9.893985748291015625e+00 -1.217924833297729492e+00
1.420000000000000000e+02 5.663420104980468750e+01 3.553736114501953125e+01 1.116677284240722656e+01 2.108412551879882812e+01 9.675269126892089844e+00 4.324551105499267578e+00
1.430000000000000000e+02 5.518684005737304688e+01 3.640789794921875000e+01 1.377220392227172852e+00 1.363465785980224609e+01 4.503563404083251953e+00 -6.116725444793701172e+00
1.440000000000000000e+02 5.495092010498046875e+01 3.612084960937500000e+01 2.831589937210083008e+00 8.545565605163574219e+00 3.413146734237670898e+00 -5.931916713714599609e+00
1.450000000000000000e+02 5.439566421508789062e+01 3.694496154785156250e+01 9.438545107841491699e-01 6.744789123535156250e+00 2.306592941284179688e+00 -3.783640384674072266e+00
1.460000000000000000e+02 5.401367187500000000e+01 3.702460098266601562e+01 1.559811979532241821e-01 4.543927669525146484e+00 1.409972667694091797e+00 -1.904767751693725586e+00
1.470000000000000000e+02 5.382662582397460938e+01 3.706066894531250000e+01 4.827961325645446777e-02 3.449240922927856445e+00 1.049256205558776855e+00 -6.215575933456420898e-01
1.480000000000000000e+02 5.440843200683593750e+01 3.589797210693359375e+01 1.354649424552917480e+00 1.461541056632995605e+00 8.448571562767028809e-01 -1.228371739387512207e+00
1.490000000000000000e+02 5.436565780639648438e+01 3.565842437744140625e+01 -4.588479101657867432e-01 2.936342358589172363e-01 -4.956410080194473267e-02 1.014908775687217712e-01
1.500000000000000000e+02 5.456404113769531250e+01 3.558425903320312500e+01 -2.929267585277557373e-01 -7.061965763568878174e-02 -1.090639233589172363e-01 -1.397341489791870117e-01
1.510000000000000000e+02 5.665654754638671875e+01 3.491311264038085938e+01 1.347085666656494141e+01 2.006272888183593750e+01 1.006007575988769531e+01 -1.068313866853713989e-01
1.520000000000000000e+02 5.650977706909179688e+01 3.615596771240234375e+01 4.377655029296875000e+00 2.291315078735351562e+01 8.187241554260253906e+00 3.306973218917846680e+00
1.530000000000000000e+02 5.573321914672851562e+01 3.656753540039062500e+01 -4.620612040162086487e-02 2.014381408691406250e+01 6.029282569885253906e+00 -3.503726243972778320e+00
1.540000000000000000e+02 5.535016632080078125e+01 3.624890136718750000e+01 1.288939833641052246e+00 1.683138465881347656e+01 5.436097145080566406e+00 -6.604444503784179688e+00
1.550000000000000000e+02 5.476362609863281250e+01 3.598573303222656250e+01 3.000283479690551758e+00 4.525027751922607422e+00 2.257593393325805664e+00 -3.927325487136840820e+00
1.560000000000000000e+02 5.450109100341796875e+01 3.534896850585937500e+01 -2.523854970932006836e+00 -4.092202708125114441e-02 -7.694330811500549316e-01 2.935832142829895020e-01
1.570000000000000000e+02 5.388401031494140625e+01 3.545812606811523438e+01 -8.859885931015014648e-01 1.459107398986816406e-01 -2.220233529806137085e-01 -2.939741313457489014e-01
1.580000000000000000e+02 5.420861816406250000e+01 3.486828231811523438e+01 2.712845563888549805e+00 8.752456903457641602e-01 1.076427340507507324e+00 5.982428193092346191e-01
1.590000000000000000e+02 5.478390884399414062e+01 3.435783767700195312e+01 7.754558563232421875e+00 6.176595687866210938e+00 4.179346561431884766e+00 7.037090778350830078e+00
1.600000000000000000e+02 5.617467498779296875e+01 3.427058029174804688e+01 6.215605735778808594e+00 2.501126480102539062e+01 9.368061065673828125e+00 -4.180963337421417236e-02
1.610000000000000000e+02 5.367596817016601562e+01 3.484734725952148438e+01 6.605678796768188477e-01 1.704692095518112183e-01 2.493111342191696167e-01 1.268980056047439575e-01
1.620000000000000000e+02 5.358693313598632812e+01 3.431597518920898438e+01 2.551497936248779297e+00 8.767021894454956055e-01 1.028460025787353516e+00 1.700261235237121582e+00
1.630000000000000000e+02 5.368983078002929688e+01 3.550363540649414062e+01 -3.659130632877349854e-01 -2.840229868888854980e-01 -1.949808150529861450e-01 -3.225502669811248779e-01
1.640000000000000000e+02 5.306907272338867188e+01 3.452482986450195312e+01 6.876672618091106415e-03 -6.752811670303344727e-01 -2.005213499069213867e-01 -2.664733529090881348e-01
1.650000000000000000e+02 5.475773620605468750e+01 3.398181152343750000e+01 6.003563880920410156e+00 8.351714134216308594e+00 4.306583404541015625e+00 7.346958160400390625e+00
1.660000000000000000e+02 5.536692810058593750e+01 3.409244155883789062e+01 4.819828033447265625e+00 1.816993904113769531e+01 6.896930217742919922e+00 8.560338020324707031e+00
1.670000000000000000e+02 5.447607421875000000e+01 3.490648269653320312e+01 3.606178998947143555e+00 6.199669837951660156e-01 1.267843842506408691e+00 8.420833349227905273e-01
1.680000000000000000e+02 5.417042922973632812e+01 3.572176742553710938e+01 -3.750711083412170410e-01 -1.335077583789825439e-01 -1.525736600160598755e-01 2.465365380048751831e-01
1.690000000000000000e+02 5.648542785644531250e+01 3.581618118286132812e+01 7.861193180084228516e+00 2.335994148254394531e+01 9.366339683532714844e+00 4.682580471038818359e+00
1.700000000000000000e+02 5.509945678710937500e+01 3.673900604248046875e+01 7.116798162460327148e-01 1.276019573211669922e+01 4.041562557220458984e+00 -5.394871711730957031e+00
1.710000000000000000e+02 5.664808273315429688e+01 3.572513198852539062e+01 9.167153358459472656e+00 2.137680816650390625e+01 9.163188934326171875e+00 4.422854900360107422e+00
1.720000000000000000e+02 5.590332031250000000e+01 3.654125976562500000e+01 2.451255768537521362e-01 2.106958007812500000e+01 6.394412040710449219e+00 -2.049436092376708984e+00
1.730000000000000000e+02 5.510668945312500000e+01 3.396255874633789062e+01 5.317635536193847656e+00 1.315719223022460938e+01 5.542448520660400391e+00 8.344072341918945312e+00
1.740000000000000000e+02 5.387402343750000000e+01 3.445034408569335938e+01 3.345005273818969727e+00 1.226528525352478027e+00 1.371460080146789551e+00 1.872352957725524902e+00
1.750000000000000000e+02 5.602668762207031250e+01 3.383805084228515625e+01 3.230084180831909180e+00 2.208572578430175781e+01 7.594743251800537109e+00 2.791696548461914062e+00
1.760000000000000000e+02 5.492993927001953125e+01 3.388734817504882812e+01 5.514406681060791016e+00 1.091798973083496094e+01 4.929718971252441406e+00 8.014093399047851562e+00
1.770000000000000000e+02 5.649369812011718750e+01 3.452244567871093750e+01 1.015412044525146484e+01 2.242905616760253906e+01 9.774952888488769531e+00 -1.657546401023864746e+00
1.780000000000000000e+02 5.668120574951171875e+01 3.534544372558593750e+01 1.297362804412841797e+01 2.009447479248046875e+01 9.920431137084960938e+00 3.224957466125488281e+00
1.790000000000000000e+02 5.454817962646484375e+01 3.470305633544921875e+01 5.976810932159423828e+00 1.677897095680236816e+00 2.296412467956542969e+00 2.744258165359497070e+00
1.800000000000000000e+02 5.680047607421875000e+01 3.454300308227539062e+01 1.016779613494873047e+01 1.954746246337890625e+01 8.914577484130859375e+00 -1.298655033111572266e+00
1.810000000000000000e+02 5.698101425170898438e+01 3.518539428710937500e+01 1.185571002960205078e+01 1.804657173156738281e+01 8.970684051513671875e+00 1.930990457534790039e+00
1.820000000000000000e+02 5.544848251342773438e+01 3.374101257324218750e+01 3.354726552963256836e+00 1.738017272949218750e+01 6.220469951629638672e+00 6.841771125793457031e+00
1.830000000000000000e+02 5.526924514770507812e+01 3.377588272094726562e+01 3.946853637695312500e+00 1.542561244964599609e+01 5.811739921569824219e+00 7.604594230651855469e+00
1.840000000000000000e+02 5.668847274780273438e+01 3.436314010620117188e+01 8.674875259399414062e+00 2.059262084960937500e+01 8.780248641967773438e+00 -1.530366897583007812e+00
1.850000000000000000e+02 5.664885711669921875e+01 3.601612854003906250e+01 5.924695491790771484e+00 2.127379608154296875e+01 8.159546852111816406e+00 3.884466171264648438e+00
1.860000000000000000e+02 5.621696472167968750e+01 3.625351715087890625e+01 2.509003877639770508e+00 2.364989471435546875e+01 7.847669601440429688e+00 1.553479313850402832e+00
1.870000000000000000e+02 5.638043212890625000e+01 3.629904174804687500e+01 2.903373479843139648e+00 2.289333534240722656e+01 7.739012241363525391e+00 2.282552719116210938e+00
1.880000000000000000e+02 5.619814300537109375e+01 3.385704421997070312e+01 3.728945255279541016e+00 2.186361312866210938e+01 7.677767276763916016e+00 1.404340863227844238e+00
1.890000000000000000e+02 5.634088134765625000e+01 3.392482757568359375e+01 4.515607357025146484e+00 2.175062179565429688e+01 7.879868984222412109e+00 3.514751493930816650e-01
1.900000000000000000e+02 5.676980209350585938e+01 3.588528060913085938e+01 7.305710792541503906e+00 2.056163597106933594e+01 8.360204696655273438e+00 4.397210597991943359e+00
1.910000000000000000e+02 5.607897186279296875e+01 3.647464752197265625e+01 6.210772991180419922e-01 2.192659568786621094e+01 6.764301776885986328e+00 -5.869736075401306152e-01
1.920000000000000000e+02 5.684778594970703125e+01 3.573968124389648438e+01 9.050065994262695312e+00 1.949322319030761719e+01 8.562986373901367188e+00 4.167893409729003906e+00
1.930000000000000000e+02 5.689014434814453125e+01 3.556591415405273438e+01 1.023895835876464844e+01 1.888512039184570312e+01 8.737223625183105469e+00 3.769252061843872070e+00
1.940000000000000000e+02 5.557519149780273438e+01 3.405662155151367188e+01 3.880029916763305664e+00 2.132848739624023438e+01 7.562555313110351562e+00 6.915030479431152344e+00
1.950000000000000000e+02 5.398345565795898438e+01 3.577246093750000000e+01 -1.681530773639678955e-01 -6.381566822528839111e-02 -6.959062069654464722e-02 2.167944014072418213e-01
1.960000000000000000e+02 5.358320999145507812e+01 3.462144851684570312e+01 1.400760173797607422e+00 3.536723554134368896e-01 5.263297557830810547e-01 5.920165777206420898e-01
1.970000000000000000e+02 5.508582305908203125e+01 3.381644821166992188e+01 4.640929698944091797e+00 1.329139137268066406e+01 5.379696369171142578e+00 7.822755813598632812e+00
1.980000000000000000e+02 5.420158004760742188e+01 3.699055099487304688e+01 6.596410274505615234e-01 5.592591285705566406e+00 1.875669717788696289e+00 -3.016514301300048828e+00
1.990000000000000000e+02 5.553188323974609375e+01 3.658174133300781250e+01 1.365857273340225220e-01 1.776969909667968750e+01 5.371885299682617188e+00 -4.834757328033447266e+00
2.000000000000000000e+02 5.458773803710937500e+01 3.690116500854492188e+01 1.039096117019653320e+00 7.875235557556152344e+00 2.674299478530883789e+00 -4.148658275604248047e+00
2.010000000000000000e+02 5.492644119262695312e+01 3.682712554931640625e+01 9.898754954338073730e-01 1.060309219360351562e+01 3.477890491485595703e+00 -5.027097225189208984e+00
2.020000000000000000e+02 5.405704879760742188e+01 3.440353393554687500e+01 4.225827217102050781e+00 1.799385786056518555e+00 1.807563900947570801e+00 2.677449226379394531e+00
2.030000000000000000e+02 5.414155960083007812e+01 3.413481140136718750e+01 4.753467559814453125e+00 3.038080930709838867e+00 2.337464570999145508e+00 3.970479726791381836e+00
2.040000000000000000e+02 5.440100860595703125e+01 3.426799392700195312e+01 5.785662174224853516e+00 3.536863327026367188e+00 2.796757698059082031e+00 4.616331577301025391e+00
2.050000000000000000e+02 5.341027069091796875e+01 3.438568115234375000e+01 1.645293116569519043e+00 3.281502127647399902e-01 5.920330286026000977e-01 1.168043255805969238e+00
2.060000000000000000e+02 5.530404663085937500e+01 3.664759826660156250e+01 5.450123548507690430e-01 1.497311973571777344e+01 4.655439853668212891e+00 -5.410123825073242188e+00
2.070000000000000000e+02 5.442147064208984375e+01 3.668546295166015625e+01 1.041377305984497070e+00 5.907793998718261719e+00 2.084751367568969727e+00 -3.458430528640747070e+00
2.080000000000000000e+02 5.454380035400390625e+01 3.625824737548828125e+01 1.816256761550903320e+00 4.389736175537109375e+00 1.861797928810119629e+00 -3.285179615020751953e+00
2.090000000000000000e+02 5.429614639282226562e+01 3.538164901733398438e+01 -1.947200894355773926e+00 1.717249006032943726e-01 -5.326427817344665527e-01 1.500296145677566528e-01
2.100000000000000000e+02 5.395885467529296875e+01 3.602047729492187500e+01 2.089773714542388916e-01 -2.291256934404373169e-01 -6.044497713446617126e-03 8.453910797834396362e-02
2.110000000000000000e+02 5.380506515502929688e+01 3.586035537719726562e+01 -1.567699201405048370e-02 -1.813721209764480591e-01 -5.911473557353019714e-02 5.249323695898056030e-02
2.120000000000000000e+02 5.405128097534179688e+01 3.670004272460937500e+01 2.690168023109436035e-01 3.065850496292114258e+00 1.000460267066955566e+00 -1.666852951049804688e+00
2.130000000000000000e+02 5.435839843750000000e+01 3.454250717163085938e+01 5.276713371276855469e+00 1.923886895179748535e+00 2.160180091857910156e+00 2.857598066329956055e+00
2.140000000000000000e+02 5.329744720458984375e+01 3.483152008056640625e+01 -3.616644144058227539e-01 -1.092523574829101562e+00 -4.362564086914062500e-01 -6.541779041290283203e-01
2.150000000000000000e+02 5.351504135131835938e+01 3.515814590454101562e+01 -4.602311253547668457e-01 -9.126519560813903809e-01 -4.118649065494537354e-01 -7.472510337829589844e-01
2.160000000000000000e+02 5.392138290405273438e+01 3.463920974731445312e+01 2.429425716400146484e+00 8.675141334533691406e-01 9.890819787979125977e-01 1.129838466644287109e+00
2.170000000000000000e+02 5.393671035766601562e+01 3.485824203491210938e+01 1.449737071990966797e+00 6.029352545738220215e-01 6.158016920089721680e-01 2.495528608560562134e-01
2.180000000000000000e+02 5.388989257812500000e+01 3.633061218261718750e+01 1.840728223323822021e-01 -8.885622024536132812e-02 2.856498211622238159e-02 -2.544286847114562988e-01
2.190000000000000000e+02 5.408961486816406250e+01 3.541866302490234375e+01 -1.432712793350219727e+00 2.228761464357376099e-01 -3.629509806632995605e-01 -1.055384725332260132e-01
2.200000000000000000e+02 5.423460388183593750e+01 3.512177658081054688e+01 5.417379736900329590e-01 4.039393365383148193e-01 2.837031781673431396e-01 -2.996469140052795410e-01
2.210000000000000000e+02 5.434998321533203125e+01 3.650131988525390625e+01 1.240444660186767578e+00 4.563446521759033203e+00 1.741167306900024414e+00 -2.757424592971801758e+00
2.220000000000000000e+02 5.399411392211914062e+01 3.512664794921875000e+01 2.643440961837768555e-01 5.531167387962341309e-01 2.452382594347000122e-01 -4.092296957969665527e-01
2.230000000000000000e+02 5.415005111694335938e+01 3.639608383178710938e+01 7.245432138442993164e-01 2.406822681427001953e+00 9.394097924232482910e-01 -1.497213840484619141e+00
2.240000000000000000e+02 5.384358596801757812e+01 3.669329071044921875e+01 -1.863097422756254673e-03 1.103199958801269531e+00 3.304010629653930664e-01 -5.294843912124633789e-01
2.250000000000000000e+02 5.323770141601562500e+01 3.445650482177734375e+01 7.114344239234924316e-01 -3.326621949672698975e-01 1.136316582560539246e-01 3.996875584125518799e-01
2.260000000000000000e+02 5.376768493652343750e+01 3.425131225585937500e+01 3.415645837783813477e+00 1.463442564010620117e+00 1.463726520538330078e+00 2.405549764633178711e+00
2.270000000000000000e+02 5.372981262207031250e+01 3.453078842163085938e+01 2.223474502563476562e+00 6.891984343528747559e-01 8.738018870353698730e-01 1.145511031150817871e+00
2.280000000000000000e+02 5.433065032958984375e+01 3.407829284667968750e+01 5.394991397857666016e+00 4.100482463836669922e+00 2.848642110824584961e+00 4.952332973480224609e+00
2.290000000000000000e+02 5.453936004638671875e+01 3.403865814208984375e+01 6.043526649475097656e+00 5.849387645721435547e+00 3.567874431610107422e+00 6.267948627471923828e+00
2.300000000000000000e+02 5.423655319213867188e+01 3.433910369873046875e+01 5.015362262725830078e+00 2.596123933792114258e+00 2.283445835113525391e+00 3.569142341613769531e+00
2.310000000000000000e+02 5.515238952636718750e+01 3.413326644897460938e+01 6.129718303680419922e+00 1.392778968811035156e+01 6.017252445220947266e+00 9.096008300781250000e+00
2.320000000000000000e+02 5.531569671630859375e+01 3.393404769897460938e+01 4.470743179321289062e+00 1.689471817016601562e+01 6.409637928009033203e+00 8.181035041809082031e+00
2.330000000000000000e+02 5.561980438232421875e+01 3.375828552246093750e+01 2.983905076980590820e+00 1.961819267272949219e+01 6.780629158020019531e+00 5.927286624908447266e+00
2.340000000000000000e+02 5.550972366333007812e+01 3.388786315917968750e+01 3.550940275192260742e+00 1.927213096618652344e+01 6.846921443939208984e+00 6.807407379150390625e+00
2.350000000000000000e+02 5.581880569458007812e+01 3.381307220458984375e+01 2.982458114624023438e+00 2.127925872802734375e+01 7.278514862060546875e+00 4.407309532165527344e+00
2.360000000000000000e+02 5.610569381713867188e+01 3.403516769409179688e+01 4.310675621032714844e+00 2.348558616638183594e+01 8.338878631591796875e+00 1.698089122772216797e+00
2.370000000000000000e+02 5.624414062500000000e+01 3.416870880126953125e+01 5.851429462432861328e+00 2.417060661315917969e+01 9.006610870361328125e+00 -4.626740887761116028e-02
2.380000000000000000e+02 5.657968902587890625e+01 3.418988800048828125e+01 7.154690742492675781e+00 2.154269599914550781e+01 8.609215736389160156e+00 -1.133924007415771484e+00
2.390000000000000000e+02 5.639610671997070312e+01 3.423472595214843750e+01 7.050277709960937500e+00 2.287536048889160156e+01 8.977691650390625000e+00 -1.005890965461730957e+00
2.400000000000000000e+02 5.697024917602539062e+01 3.484560012817382812e+01 1.120809841156005859e+01 1.797762489318847656e+01 8.755717277526855469e+00 3.055703267455101013e-02
2.410000000000000000e+02 5.690237808227539062e+01 3.469732284545898438e+01 1.101147174835205078e+01 1.865669822692871094e+01 8.900451660156250000e+00 -8.768049478530883789e-01
2.420000000000000000e+02 5.699908447265625000e+01 3.501750946044921875e+01 1.144180870056152344e+01 1.780173492431640625e+01 8.773062705993652344e+00 6.657522320747375488e-01
2.430000000000000000e+02 5.693133163452148438e+01 3.537174224853515625e+01 1.130742168426513672e+01 1.840726089477539062e+01 8.914404869079589844e+00 2.882907867431640625e+00
2.440000000000000000e+02 5.685930252075195312e+01 3.506992340087890625e+01 1.261669063568115234e+01 1.862587738037109375e+01 9.372770309448242188e+00 1.202889204025268555e+00
2.450000000000000000e+02 5.668459320068359375e+01 3.513446044921875000e+01 1.375950908660888672e+01 1.960623931884765625e+01 1.000972461700439453e+01 1.715263128280639648e+00
2.460000000000000000e+02 5.624777603149414062e+01 3.640567016601562500e+01 1.280087709426879883e+00 2.240694427490234375e+01 7.106109142303466797e+00 8.111009597778320312e-01
2.470000000000000000e+02 5.617885208129882812e+01 3.607463073730468750e+01 3.108635902404785156e+00 2.529333305358886719e+01 8.520590782165527344e+00 2.253186941146850586e+00
2.480000000000000000e+02 5.583896636962890625e+01 3.640817642211914062e+01 3.132142722606658936e-01 2.170384788513183594e+01 6.605118751525878906e+00 -2.569109201431274414e+00
2.490000000000000000e+02 5.555718612670898438e+01 3.628913497924804688e+01 6.714724898338317871e-01 2.006741142272949219e+01 6.221665382385253906e+00 -5.114621162414550781e+00
2.500000000000000000e+02 5.423368453979492188e+01 3.672164535522460938e+01 4.734719395637512207e-01 4.504767417907714844e+00 1.493471860885620117e+00 -2.520813703536987305e+00
2.510000000000000000e+02 5.463164901733398438e+01 3.665421676635742188e+01 1.243635773658752441e+00 7.234462738037109375e+00 2.543429613113403320e+00 -4.294022560119628906e+00
2.520000000000000000e+02 5.476461791992187500e+01 3.687709045410156250e+01 1.032535076141357422e+00 8.811016082763671875e+00 2.953065395355224609e+00 -4.711273670196533203e+00
2.530000000000000000e+02 5.481555557250976562e+01 3.670973205566406250e+01 1.281917333602905273e+00 9.200119972229003906e+00 3.144611358642578125e+00 -4.941014766693115234e+00
2.540000000000000000e+02 5.419546890258789062e+01 3.596903228759765625e+01 5.254253745079040527e-01 6.341462731361389160e-01 3.478714823722839355e-01 -2.145640254020690918e-01
2.550000000000000000e+02 5.496726989746093750e+01 3.653764343261718750e+01 1.538050651550292969e+00 1.055223751068115234e+01 3.627086400985717773e+00 -5.543079376220703125e+00
2.560000000000000000e+02 5.515661621093750000e+01 3.619218444824218750e+01 2.265892505645751953e+00 1.252779865264892578e+01 4.438107490539550781e+00 -6.702065944671630859e+00
2.570000000000000000e+02 5.463594436645507812e+01 3.580070495605468750e+01 2.045345067977905273e+00 1.765492558479309082e+00 1.143251299858093262e+00 -2.114595174789428711e+00
2.580000000000000000e+02 5.476658630371093750e+01 3.639278793334960938e+01 2.051132440567016602e+00 7.678420066833496094e+00 2.918865680694580078e+00 -4.821837902069091797e+00
2.590000000000000000e+02 5.415592193603515625e+01 3.462691879272460938e+01 3.700008630752563477e+00 1.304494023323059082e+00 1.501350879669189453e+00 1.694290757179260254e+00
2.600000000000000000e+02 5.466785812377929688e+01 3.453021240234375000e+01 7.452858448028564453e+00 3.354440212249755859e+00 3.242189645767211914e+00 4.967000961303710938e+00
2.610000000000000000e+02 5.578350830078125000e+01 3.623977661132812500e+01 4.856316447257995605e-01 2.328989219665527344e+01 7.132657051086425781e+00 -2.945833921432495117e+00
2.620000000000000000e+02 5.598599624633789062e+01 3.615674591064453125e+01 1.521669864654541016e+00 2.505502891540527344e+01 7.973009586334228516e+00 -1.057242453098297119e-01
2.630000000000000000e+02 5.624201965332031250e+01 3.398429489135742188e+01 4.497200012207031250e+00 2.245708847045898438e+01 8.086286544799804688e+00 7.728799581527709961e-01
2.640000000000000000e+02 5.450249481201171875e+01 3.441159057617187500e+01 6.655003070831298828e+00 3.424412488937377930e+00 3.023824691772460938e+00 4.631352901458740234e+00
2.650000000000000000e+02 5.634137344360351562e+01 3.410270309448242188e+01 5.583445549011230469e+00 2.267260169982910156e+01 8.476814270019531250e+00 -1.748322099447250366e-01
2.660000000000000000e+02 5.603027343750000000e+01 3.631848907470703125e+01 9.740110635757446289e-01 2.372529029846191406e+01 7.409790515899658203e+00 -4.977350831031799316e-01
2.670000000000000000e+02 5.432402801513671875e+01 3.613318252563476562e+01 1.441309452056884766e+00 2.057583332061767578e+00 1.049667835235595703e+00 -1.518848180770874023e+00
2.680000000000000000e+02 5.177661132812500000e+01 3.168432998657226562e+01 2.375224590301513672e+00 3.148713827133178711e+00 1.657181501388549805e+00 2.717191696166992188e+00
2.690000000000000000e+02 5.243431854248046875e+01 3.350015258789062500e+01 1.254941225051879883e+00 1.547746419906616211e+00 8.408063054084777832e-01 1.456143260002136230e+00
2.700000000000000000e+02 4.916743850708007812e+01 2.990164375305175781e+01 1.758664011955261230e+00 1.840663194656372070e+00 1.079798221588134766e+00 1.794123172760009766e+00
2.710000000000000000e+02 4.712109375000000000e+01 2.800793075561523438e+01 1.140889167785644531e+00 1.075158953666687012e+00 6.648144125938415527e-01 1.110308051109313965e+00
2.720000000000000000e+02 6.011529159545898438e+01 1.853715515136718750e+01 -1.031984210014343262e+00 7.844429492950439453e+00 2.043733596801757812e+00 -8.891826868057250977e-02
2.730000000000000000e+02 6.721032714843750000e+01 1.092092990875244141e+01 -5.741387009620666504e-01 7.723866462707519531e+00 2.144918203353881836e+00 -5.559443831443786621e-01
2.740000000000000000e+02 7.186217498779296875e+01 4.180527687072753906e+00 -2.044463604688644409e-01 8.147633552551269531e+00 2.382956027984619141e+00 -2.801635265350341797e-01
2.750000000000000000e+02 7.801729583740234375e+01 -3.013387441635131836e+00 -9.617998264729976654e-03 9.289066314697265625e+00 2.783834457397460938e+00 -2.367147430777549744e-02
2.760000000000000000e+02 7.934083557128906250e+01 2.722479104995727539e+00 -5.734517239034175873e-03 9.454730033874511719e+00 2.834698438644409180e+00 -4.375804215669631958e-02
2.770000000000000000e+02 7.806310272216796875e+01 4.004170417785644531e+00 -1.913894340395927429e-02 9.141327857971191406e+00 2.736656665802001953e+00 -1.083087101578712463e-01
2.780000000000000000e+02 7.939453887939453125e+01 8.298525810241699219e+00 -5.761113017797470093e-03 9.122668266296386719e+00 2.735072135925292969e+00 -7.451064884662628174e-02
2.790000000000000000e+02 7.294478607177734375e+01 1.575916385650634766e+01 -2.716412544250488281e-01 7.932167053222656250e+00 2.298157691955566406e+00 -8.826394677162170410e-01
2.800000000000000000e+02 6.756939697265625000e+01 2.466113090515136719e+01 -2.627758979797363281e-01 8.440592765808105469e+00 2.453345060348510742e+00 -1.520445227622985840e+00
2.810000000000000000e+02 5.304604339599609375e+01 2.742451667785644531e+01 5.008555650711059570e-01 6.264432907104492188e+00 2.029586553573608398e+00 2.582955121994018555e+00
2.820000000000000000e+02 3.278070449829101562e+01 -1.420404434204101562e+01 -1.104156747460365295e-01 -1.267668753862380981e-01 -7.115476578474044800e-02 1.208294257521629333e-01
2.830000000000000000e+02 3.314077758789062500e+01 -1.051603031158447266e+01 -1.018241643905639648e-01 1.813364028930664062e-01 2.385367266833782196e-02 6.266618520021438599e-02
2.840000000000000000e+02 3.967147827148437500e+01 -1.000918388366699219e+01 -1.420283913612365723e-01 1.658176422119140625e+00 4.548443853855133057e-01 -8.681683242321014404e-02
2.850000000000000000e+02 4.682965087890625000e+01 -1.242554569244384766e+01 -3.036070764064788818e-01 3.471325874328613281e+00 9.503156542778015137e-01 -5.699392035603523254e-02
2.860000000000000000e+02 6.765422821044921875e+01 -1.093231678009033203e+01 -1.700365841388702393e-01 7.397221565246582031e+00 2.168155431747436523e+00 1.820414811372756958e-01
2.870000000000000000e+02 7.320191955566406250e+01 -1.175030422210693359e+01 -5.995955318212509155e-02 8.330282211303710938e+00 2.481096744537353516e+00 1.385015696287155151e-01
2.880000000000000000e+02 7.938327789306640625e+01 -1.258086490631103516e+01 2.630132948979735374e-03 9.422484397888183594e+00 2.827534437179565430e+00 9.472516365349292755e-03
2.890000000000000000e+02 7.813201141357421875e+01 -9.916021347045898438e+00 -1.097549311816692352e-02 9.250376701354980469e+00 2.771820545196533203e+00 2.997570298612117767e-02
2.900000000000000000e+02 7.935902404785156250e+01 -5.645137310028076172e+00 -4.870735108852386475e-03 9.563066482543945312e+00 2.867458581924438477e+00 -9.947008453309535980e-03
2.910000000000000000e+02 7.150764465332031250e+01 -2.938385725021362305e+00 -1.417138427495956421e-01 8.108116149902343750e+00 2.389920711517333984e+00 -3.671149164438247681e-02
2.920000000000000000e+02 6.690139770507812500e+01 -2.732818841934204102e+00 -2.848783135414123535e-01 7.353420734405517578e+00 2.120562791824340820e+00 -8.736160583794116974e-03
2.930000000000000000e+02 5.992272567749023438e+01 -4.203747212886810303e-01 -4.620125889778137207e-01 6.201207160949707031e+00 1.721758365631103516e+00 6.841847300529479980e-02
2.940000000000000000e+02 4.669549560546875000e+01 -4.691089630126953125e+00 -2.789080142974853516e-01 3.297093152999877930e+00 9.054555892944335938e-01 9.494384378194808960e-02
2.950000000000000000e+02 4.146540832519531250e+01 -6.729672908782958984e+00 -1.596979796886444092e-01 2.081542015075683594e+00 5.765532255172729492e-01 -1.159883663058280945e-02
2.960000000000000000e+02 3.496899795532226562e+01 -7.504060745239257812e+00 -7.846638560295104980e-02 6.449757218360900879e-01 1.699527949094772339e-01 -1.206593774259090424e-02
2.970000000000000000e+02 2.745072555541992188e+01 -6.289532661437988281e+00 -2.236248850822448730e-01 -2.913744449615478516e-01 -1.544997990131378174e-01 2.594652771949768066e-01
2.980000000000000000e+02 2.561234664916992188e+01 -4.121046066284179688e+00 -2.254309058189392090e-01 -2.617926895618438721e-01 -1.461670845746994019e-01 2.154611647129058838e-01
2.990000000000000000e+02 2.843014907836914062e+01 -5.748300075531005859e+00 -1.444062292575836182e-01 -2.737693786621093750e-01 -1.254526823759078979e-01 2.011050581932067871e-01
3.000000000000000000e+02 3.222925567626953125e+01 -1.121452140808105469e+01 -1.041524633765220642e-01 -3.296535462141036987e-02 -4.113534465432167053e-02 1.247275844216346741e-01
3.010000000000000000e+02 3.128722572326660156e+01 -1.190327548980712891e+01 -1.238748952746391296e-01 -2.551708817481994629e-01 -1.137137264013290405e-01 1.824043542146682739e-01
3.020000000000000000e+02 3.237055587768554688e+01 1.292589092254638672e+01 -5.524479746818542480e-01 -5.615177154541015625e-01 -3.341896831989288330e-01 -5.722139477729797363e-01
3.030000000000000000e+02 3.154997253417968750e+01 1.205950736999511719e+01 -7.065731883049011230e-01 -6.948482394218444824e-01 -4.204264283180236816e-01 -6.749701499938964844e-01
3.040000000000000000e+02 3.209761428833007812e+01 1.263583946228027344e+01 -5.819038152694702148e-01 -6.119254827499389648e-01 -3.581487834453582764e-01 -5.908957123756408691e-01
3.050000000000000000e+02 3.097825050354003906e+01 1.151137256622314453e+01 -8.345392346382141113e-01 -6.788107752799987793e-01 -4.540050029754638672e-01 -7.264249324798583984e-01
3.060000000000000000e+02 3.069489479064941406e+01 1.123576068878173828e+01 -8.330267667770385742e-01 -6.450099349021911621e-01 -4.434110224246978760e-01 -7.429795265197753906e-01
3.070000000000000000e+02 3.070274543762207031e+01 7.446458339691162109e+00 1.515117194503545761e-02 -3.030515313148498535e-01 -8.637011051177978516e-02 -1.799118518829345703e-01
3.080000000000000000e+02 2.953673744201660156e+01 5.792510032653808594e+00 -3.119421005249023438e-01 -1.656331494450569153e-02 -9.855162352323532104e-02 -3.607627749443054199e-01
3.090000000000000000e+02 3.045258140563964844e+01 6.234288692474365234e+00 -5.878869071602821350e-02 -1.078453958034515381e-01 -4.999022558331489563e-02 -3.864937722682952881e-01
3.100000000000000000e+02 2.285376167297363281e+01 1.597093820571899414e+00 -5.873945355415344238e-01 -1.835162639617919922e-01 -2.312732338905334473e-01 -2.901461422443389893e-01
3.110000000000000000e+02 2.264819717407226562e+01 1.506973862648010254e+00 -6.002426147460937500e-01 -1.747031062841415405e-01 -2.324837148189544678e-01 -2.846417725086212158e-01
3.120000000000000000e+02 2.246446418762207031e+01 1.426557540893554688e+00 -6.371048092842102051e-01 -1.743016093969345093e-01 -2.434219270944595337e-01 -2.921248376369476318e-01
3.130000000000000000e+02 2.216228103637695312e+01 1.162403106689453125e+00 -7.155710458755493164e-01 -1.774189770221710205e-01 -2.678970098495483398e-01 -2.964336574077606201e-01
3.140000000000000000e+02 1.954618072509765625e+01 -4.277949333190917969e-01 -1.872247219085693359e+00 4.585357308387756348e-01 -4.241134524345397949e-01 -2.360960692167282104e-01
3.150000000000000000e+02 2.054571342468261719e+01 -7.595029473304748535e-02 -1.538776159286499023e+00 -4.369533956050872803e-01 -5.927188396453857422e-01 -9.527379274368286133e-02
3.160000000000000000e+02 1.584096813201904297e+01 -2.455691337585449219e+00 -7.123277783393859863e-01 -5.405019521713256836e-01 -3.758489191532135010e-01 -5.137426853179931641e-01
3.170000000000000000e+02 1.172200584411621094e+01 -2.223074674606323242e+00 -5.411712527275085449e-01 -2.295260317623615265e-02 -1.692371517419815063e-01 -2.424790561199188232e-01
3.180000000000000000e+02 1.098203563690185547e+01 -2.117951154708862305e+00 -4.679625928401947021e-01 -5.559298209846019745e-03 -1.420565694570541382e-01 -1.988621950149536133e-01
3.190000000000000000e+02 9.967559814453125000e+00 -6.892300128936767578e+00 -2.333968505263328552e-02 -1.595906764268875122e-01 -5.487911030650138855e-02 -2.995908260345458984e-01
3.200000000000000000e+02 7.195309638977050781e+00 -1.948504066467285156e+01 3.502804040908813477e-02 -2.841215431690216064e-01 -7.472804933786392212e-02 -9.715052694082260132e-02
3.210000000000000000e+02 7.159936904907226562e+00 -2.691600990295410156e+01 1.807213015854358673e-02 -3.336184024810791016e-01 -9.466388821601867676e-02 -5.911809206008911133e-02
3.220000000000000000e+02 7.574540138244628906e+00 -4.104113388061523438e+01 1.074849441647529602e-02 -3.750307261943817139e-01 -1.092846691608428955e-01 -7.030361797660589218e-03
3.230000000000000000e+02 1.210151290893554688e+01 -3.749722290039062500e+01 3.607795760035514832e-02 -1.746624410152435303e-01 -4.157534241676330566e-02 -3.397446125745773315e-02
3.240000000000000000e+02 2.015563392639160156e+01 -3.904339599609375000e+01 7.036977261304855347e-02 1.086689010262489319e-01 5.371160432696342468e-02 -3.554333001375198364e-02
3.250000000000000000e+02 1.675805854797363281e+01 -4.058135604858398438e+01 7.913353294134140015e-02 1.550602819770574570e-02 2.839186787605285645e-02 -2.706001140177249908e-02
3.260000000000000000e+02 1.390030860900878906e+01 -2.927712821960449219e+01 3.869591280817985535e-02 -6.628675758838653564e-02 -8.277252316474914551e-03 -8.044717460870742798e-02
3.270000000000000000e+02 1.716865348815917969e+01 -2.551539611816406250e+01 8.502297848463058472e-02 1.050841584801673889e-01 5.703214183449745178e-02 -1.277274787425994873e-01
3.280000000000000000e+02 1.876479530334472656e+01 -1.772140312194824219e+01 1.139833778142929077e-01 2.675756514072418213e-01 1.144677102565765381e-01 -1.764400601387023926e-01
3.290000000000000000e+02 2.215031242370605469e+01 -1.318133258819580078e+01 1.739738881587982178e-01 5.294163227081298828e-01 2.110170722007751465e-01 -2.983168959617614746e-01
3.300000000000000000e+02 1.980945014953613281e+01 -8.135478019714355469e+00 1.093155220150947571e-01 7.457387447357177734e-01 2.565162777900695801e-01 -2.350881844758987427e-01
3.310000000000000000e+02 1.917841529846191406e+01 -9.784173965454101562e+00 1.453035622835159302e-01 5.170295238494873047e-01 1.986999213695526123e-01 -1.859205514192581177e-01
3.320000000000000000e+02 1.943336105346679688e+01 -6.795123577117919922e+00 6.085489690303802490e-02 7.991899251937866211e-01 2.580134570598602295e-01 -1.819689273834228516e-01
3.330000000000000000e+02 1.901083183288574219e+01 -4.021410465240478516e+00 5.360891669988632202e-02 1.281032681465148926e+00 4.003924727439880371e-01 5.215834081172943115e-02
3.340000000000000000e+02 1.888512802124023438e+01 -7.677127718925476074e-01 -1.384317040443420410e+00 2.828136384487152100e-01 -3.304510414600372314e-01 -4.411027431488037109e-01
3.350000000000000000e+02 1.024435234069824219e+01 -2.014772891998291016e+00 -3.918557167053222656e-01 6.514835637062788010e-03 -1.156022697687149048e-01 -1.570771038532257080e-01
3.360000000000000000e+02 3.766667366027832031e+00 -1.989904165267944336e+00 -5.446365475654602051e-02 -1.806528866291046143e-02 -2.175868302583694458e-02 -4.796348884701728821e-02
3.370000000000000000e+02 1.537806749343872070e+00 -1.064057445526123047e+01 6.739640142768621445e-03 -2.902106940746307373e-01 -8.504131436347961426e-02 -6.592276692390441895e-02
3.380000000000000000e+02 1.832030296325683594e+00 -1.752331542968750000e+01 4.230446938890963793e-04 -4.849052429199218750e-01 -1.453446596860885620e-01 -4.072782397270202637e-02
3.390000000000000000e+02 6.425711512565612793e-01 -2.472040748596191406e+01 -3.427669638767838478e-03 -6.551645398139953613e-01 -1.975776553153991699e-01 -6.325489375740289688e-03
3.400000000000000000e+02 7.986665368080139160e-01 -3.175378227233886719e+01 5.018983967602252960e-03 -6.903495192527770996e-01 -2.055991590023040771e-01 -8.827847195789217949e-04
3.410000000000000000e+02 4.023207187652587891e+00 -3.898020172119140625e+01 1.771555095911026001e-02 -5.508338212966918945e-01 -1.599354892969131470e-01 -1.424180250614881516e-02
3.420000000000000000e+02 1.238118052482604980e+00 -3.749812316894531250e+01 5.344635341316461563e-03 -6.936971545219421387e-01 -2.065057605504989624e-01 2.528418262954801321e-04
3.430000000000000000e+02 2.334897804260253906e+01 -4.085208511352539062e+01 1.491291671991348267e-01 1.980874240398406982e-01 1.041649803519248962e-01 -5.351869855076074600e-03
3.440000000000000000e+02 2.225534820556640625e+01 -3.651259613037109375e+01 1.462262868881225586e-01 2.097405344247817993e-01 1.067900434136390686e-01 -8.371111750602722168e-02
3.450000000000000000e+02 2.635025787353515625e+01 -3.284782791137695312e+01 1.914967745542526245e-01 3.519011139869689941e-01 1.630193740129470825e-01 -1.878840327262878418e-01
3.460000000000000000e+02 2.630270195007324219e+01 -2.034336280822753906e+01 1.191455796360969543e-01 4.938400983810424805e-01 1.838957071304321289e-01 -2.578602433204650879e-01
3.470000000000000000e+02 2.561347007751464844e+01 -2.223730278015136719e+01 1.091732829809188843e-01 4.569402337074279785e-01 1.698340475559234619e-01 -2.467664331197738647e-01
3.480000000000000000e+02 2.359639358520507812e+01 -1.555496692657470703e+01 1.720905452966690063e-01 4.702949523925781250e-01 1.927156448364257812e-01 -2.892828881740570068e-01
3.490000000000000000e+02 2.304855155944824219e+01 -1.740421104431152344e+01 1.200346425175666809e-01 4.361881315708160400e-01 1.668668389320373535e-01 -2.555032670497894287e-01
3.500000000000000000e+02 3.098378372192382812e+01 -3.454285812377929688e+01 2.663551867008209229e-01 3.904680311679840088e-01 1.970469653606414795e-01 -2.483135908842086792e-01
3.510000000000000000e+02 3.737334060668945312e+01 -3.764339828491210938e+01 7.867269515991210938e-01 4.286586046218872070e-01 3.646156489849090576e-01 -2.003000229597091675e-01
3.520000000000000000e+02 3.279851913452148438e+01 -3.257210922241210938e+01 2.360116839408874512e-01 4.455708265304565430e-01 2.044747471809387207e-01 -3.880836069583892822e-01
3.530000000000000000e+02 3.193414306640625000e+01 -3.149943351745605469e+01 3.164960145950317383e-01 5.544381737709045410e-01 2.612802684307098389e-01 -3.166341781616210938e-01
3.540000000000000000e+02 3.170149612426757812e+01 -3.340808486938476562e+01 2.777119278907775879e-01 4.519330859184265137e-01 2.188934981822967529e-01 -2.353411167860031128e-01
3.550000000000000000e+02 2.993603515625000000e+01 -2.779325866699218750e+01 1.207045391201972961e-01 5.402006506919860840e-01 1.982715427875518799e-01 -2.846330106258392334e-01
3.560000000000000000e+02 2.811708450317382812e+01 -2.405117034912109375e+01 1.499813348054885864e-01 5.391583442687988281e-01 2.067418992519378662e-01 -2.592400610446929932e-01
3.570000000000000000e+02 4.604197311401367188e+01 -4.008887863159179688e+01 2.116141617298126221e-01 5.554343700408935547e+00 1.729787349700927734e+00 -1.189510989934206009e-02
3.580000000000000000e+02 4.491138076782226562e+01 -3.919083023071289062e+01 3.694880604743957520e-01 6.002264499664306641e+00 1.911525845527648926e+00 1.837657392024993896e-01
3.590000000000000000e+02 4.450764083862304688e+01 -3.764427185058593750e+01 1.330705881118774414e+00 6.838239669799804688e+00 2.450683832168579102e+00 1.377661108970642090e+00
3.600000000000000000e+02 5.398217773437500000e+01 -3.694372558593750000e+01 6.598379611968994141e-01 5.697968006134033203e+00 1.907341837882995605e+00 3.008671104907989502e-02
3.610000000000000000e+02 5.413185501098632812e+01 -3.380928802490234375e+01 5.997891426086425781e-01 5.652364730834960938e+00 1.875646233558654785e+00 2.385859042406082153e-01
3.620000000000000000e+02 5.377283477783203125e+01 -2.244157409667968750e+01 -2.172392010688781738e-01 5.304636955261230469e+00 1.526219248771667480e+00 2.374760359525680542e-01
3.630000000000000000e+02 5.459685897827148438e+01 -2.108986282348632812e+01 -2.127882242202758789e-01 5.389539718627929688e+00 1.553025364875793457e+00 2.254096120595932007e-01
3.640000000000000000e+02 5.353086853027343750e+01 -2.045848464965820312e+01 -2.650918662548065186e-01 5.191763877868652344e+00 1.478001594543457031e+00 1.911693662405014038e-01
3.650000000000000000e+02 4.827083206176757812e+01 -1.929563140869140625e+01 -3.092903792858123779e-01 4.070036888122558594e+00 1.128223896026611328e+00 -8.177138864994049072e-02
3.660000000000000000e+02 5.009185028076171875e+01 -1.989445877075195312e+01 -3.103922605514526367e-01 4.525232791900634766e+00 1.264452219009399414e+00 1.976701617240905762e-02
3.670000000000000000e+02 4.753382110595703125e+01 -3.011761283874511719e+01 1.453552842140197754e-01 5.087790966033935547e+00 1.569943785667419434e+00 -1.037220191210508347e-02
3.680000000000000000e+02 4.686930084228515625e+01 -3.255330276489257812e+01 6.098017096519470215e-01 5.698534965515136719e+00 1.892500996589660645e+00 1.480124797672033310e-02
3.690000000000000000e+02 5.579945373535156250e+01 -2.856287002563476562e+01 1.638227552175521851e-01 5.744870185852050781e+00 1.772607922554016113e+00 3.519630730152130127e-01
3.700000000000000000e+02 5.787712860107421875e+01 -4.040839385986328125e+01 5.311048030853271484e-01 6.093080043792724609e+00 1.987255454063415527e+00 5.954252928495407104e-02
3.710000000000000000e+02 6.280998992919921875e+01 -4.049309539794921875e+01 3.896124660968780518e-01 6.573021411895751953e+00 2.088790178298950195e+00 7.094659656286239624e-02
3.720000000000000000e+02 6.683239746093750000e+01 -3.084612083435058594e+01 1.205442473292350769e-01 7.147157192230224609e+00 2.180310487747192383e+00 3.088005781173706055e-01
3.730000000000000000e+02 6.547787475585937500e+01 -2.606765365600585938e+01 3.215793520212173462e-02 7.000878334045410156e+00 2.109910726547241211e+00 3.647571504116058350e-01
3.740000000000000000e+02 6.309107589721679688e+01 -2.214818763732910156e+01 -7.280776649713516235e-02 6.701092243194580078e+00 1.988485336303710938e+00 3.653417825698852539e-01
3.750000000000000000e+02 6.467939758300781250e+01 -1.854471778869628906e+01 -1.319711953401565552e-01 6.924567222595214844e+00 2.037778854370117188e+00 3.201777040958404541e-01
3.760000000000000000e+02 5.778527832031250000e+01 -3.653981399536132812e+01 4.903268814086914062e-01 6.056805610656738281e+00 1.964139699935913086e+00 1.759622395038604736e-01
3.770000000000000000e+02 6.764128875732421875e+01 -4.086137390136718750e+01 2.259351164102554321e-01 7.162661075592041016e+00 2.216578960418701172e+00 4.031901806592941284e-02
3.780000000000000000e+02 7.124486541748046875e+01 -2.498809623718261719e+01 4.921445157378911972e-03 7.794565677642822266e+00 2.339846134185791016e+00 3.032757639884948730e-01
3.790000000000000000e+02 7.217327117919921875e+01 -1.673860740661621094e+01 -5.879139900207519531e-02 8.079893112182617188e+00 2.406330585479736328e+00 2.249695360660552979e-01
3.800000000000000000e+02 7.313239288330078125e+01 -1.810069274902343750e+01 -4.222753643989562988e-02 8.200073242187500000e+00 2.447353601455688477e+00 2.202113866806030273e-01
3.810000000000000000e+02 7.870195007324218750e+01 -4.037871932983398438e+01 -8.589494973421096802e-03 8.275539398193359375e+00 2.480084896087646484e+00 4.963599145412445068e-02
3.820000000000000000e+02 7.692777252197265625e+01 -3.755199050903320312e+01 1.220505312085151672e-02 8.184536933898925781e+00 2.459022521972656250e+00 7.436329871416091919e-02
3.830000000000000000e+02 7.919520568847656250e+01 -3.343278503417968750e+01 -4.493938293308019638e-03 8.488451957702636719e+00 2.545187473297119141e+00 2.779239602386951447e-02
3.840000000000000000e+02 7.795938110351562500e+01 -3.061609268188476562e+01 6.407867185771465302e-03 8.464609146118164062e+00 2.541305065155029297e+00 8.085858821868896484e-02
3.850000000000000000e+02 7.934712982177734375e+01 -2.648586845397949219e+01 2.374846953898668289e-03 8.802116394042968750e+00 2.641347408294677734e+00 2.883666008710861206e-02
3.860000000000000000e+02 7.802580261230468750e+01 -2.373442649841308594e+01 -4.411691799759864807e-03 8.752480506896972656e+00 2.624420642852783203e+00 8.695070445537567139e-02
3.870000000000000000e+02 7.811573791503906250e+01 -1.679307365417480469e+01 -1.440005144104361534e-03 9.046515464782714844e+00 2.713522672653198242e+00 6.819883733987808228e-02
3.880000000000000000e+02 7.934545898437500000e+01 -2.231115722656250000e+01 -3.633281914517283440e-03 9.007627487182617188e+00 2.701198339462280273e+00 2.622526884078979492e-02
3.890000000000000000e+02 7.820256805419921875e+01 1.095016670227050781e+01 -1.928243786096572876e-02 8.667293548583984375e+00 2.594403266906738281e+00 -2.241762280464172363e-01
3.900000000000000000e+02 7.937953948974609375e+01 1.664730072021484375e+01 -7.249942049384117126e-03 7.964697360992431641e+00 2.387234210968017578e+00 -1.431089490652084351e-01
3.910000000000000000e+02 7.327104949951171875e+01 2.301514244079589844e+01 -1.238716170191764832e-01 7.386647224426269531e+00 2.178832769393920898e+00 -1.267932057380676270e+00
3.920000000000000000e+02 5.649661636352539062e+01 3.373252105712890625e+01 3.989105463027954102e+00 2.037811088562011719e+01 7.310164928436279297e+00 2.657485306262969971e-01
3.930000000000000000e+02 7.812342834472656250e+01 1.788300323486328125e+01 -2.577278017997741699e-02 7.677004814147949219e+00 2.295369625091552734e+00 -3.992208838462829590e-01
3.940000000000000000e+02 7.938087463378906250e+01 2.360854148864746094e+01 -2.271962439408525825e-04 6.300142765045166016e+00 1.889974713325500488e+00 -1.877676695585250854e-01
3.950000000000000000e+02 7.365533447265625000e+01 3.207915115356445312e+01 3.092007637023925781e-01 6.334319114685058594e+00 1.993056058883666992e+00 -9.974818229675292969e-01
3.960000000000000000e+02 6.289845275878906250e+01 3.894192123413085938e+01 1.034132719039916992e+00 1.155777072906494141e+01 3.777570962905883789e+00 8.993477225303649902e-01
3.970000000000000000e+02 5.711214447021484375e+01 3.602895355224609375e+01 6.562583923339843750e+00 1.885611915588378906e+01 7.625610828399658203e+00 4.024001121520996094e+00
3.980000000000000000e+02 7.690605163574218750e+01 2.331430435180664062e+01 -2.545299567282199860e-02 6.734883785247802734e+00 2.012829065322875977e+00 -7.561280131340026855e-01
3.990000000000000000e+02 7.935851287841796875e+01 2.917381668090820312e+01 3.026889637112617493e-03 4.747961044311523438e+00 1.425296425819396973e+00 -1.820756793022155762e-01
4.000000000000000000e+02 6.792488861083984375e+01 3.732613372802734375e+01 1.116652011871337891e+00 8.735488891601562500e+00 2.955642223358154297e+00 -3.770087957382202148e-01
4.010000000000000000e+02 5.945192337036132812e+01 4.077156829833984375e+01 -1.051269888877868652e+00 1.427305030822753906e+01 3.966534137725830078e+00 5.820384025573730469e-01
4.020000000000000000e+02 7.928681182861328125e+01 3.197306251525878906e+01 4.248989745974540710e-03 4.056013584136962891e+00 1.218078851699829102e+00 -1.694924533367156982e-01
4.030000000000000000e+02 7.897434997558593750e+01 3.884949493408203125e+01 8.704482764005661011e-02 3.283263444900512695e+00 1.011092424392700195e+00 7.306411117315292358e-02
4.040000000000000000e+02 7.119474792480468750e+01 3.727338790893554688e+01 6.134435534477233887e-01 6.993371486663818359e+00 2.282044649124145508e+00 -5.471765398979187012e-01
4.050000000000000000e+02 7.582290649414062500e+01 3.836569976806640625e+01 3.362571001052856445e-01 4.969752311706542969e+00 1.591802716255187988e+00 -3.211458027362823486e-01
4.060000000000000000e+02 5.440026473999023438e+01 3.722195434570312500e+01 9.232821464538574219e-01 7.469090461730957031e+00 2.517711877822875977e+00 -3.874302864074707031e+00
4.070000000000000000e+02 5.382631301879882812e+01 3.743404769897460938e+01 2.942731678485870361e-01 7.297562122344970703e+00 2.277550458908081055e+00 -1.330370187759399414e+00
4.080000000000000000e+02 4.531632232666015625e+01 3.495365905761718750e+01 5.470341816544532776e-02 1.943078637123107910e-02 2.224026061594486237e-02 7.941796630620956421e-02
4.090000000000000000e+02 4.157956695556640625e+01 3.610290527343750000e+01 1.024946346879005432e-01 3.873797506093978882e-02 4.236978292465209961e-02 7.840637117624282837e-02
4.100000000000000000e+02 4.557232284545898438e+01 3.524151611328125000e+01 7.891597598791122437e-02 5.929300561547279358e-02 4.146269336342811584e-02 3.966064751148223877e-02
4.110000000000000000e+02 4.145425796508789062e+01 3.911006164550781250e+01 1.360446363687515259e-01 3.881103545427322388e-02 5.245670303702354431e-02 2.300462871789932251e-02
4.120000000000000000e+02 3.720335769653320312e+01 2.774011802673339844e+01 8.862178772687911987e-02 1.044273078441619873e-01 5.791473016142845154e-02 8.550675958395004272e-02
4.130000000000000000e+02 3.537257385253906250e+01 2.559868431091308594e+01 7.338067144155502319e-02 9.723801165819168091e-02 5.118560418486595154e-02 8.830504864454269409e-02
4.140000000000000000e+02 3.572638702392578125e+01 3.915198516845703125e+01 6.316131353378295898e-02 7.630951702594757080e-02 4.184124991297721863e-02 2.229752019047737122e-02
4.150000000000000000e+02 3.229509353637695312e+01 3.879089736938476562e+01 5.361170694231987000e-02 7.494588941335678101e-02 3.856727853417396545e-02 3.266042843461036682e-02
4.160000000000000000e+02 2.621616744995117188e+01 1.610404396057128906e+01 1.265903413295745850e-01 1.399428695440292358e-01 7.995996624231338501e-02 1.316303014755249023e-01
4.170000000000000000e+02 1.749295234680175781e+01 1.318974590301513672e+01 8.018428087234497070e-02 1.957056224346160889e-01 8.276697248220443726e-02 1.197444647550582886e-01
4.180000000000000000e+02 6.403030395507812500e+00 1.784177780151367188e+01 3.913860302418470383e-03 -6.402172148227691650e-02 -1.803235895931720734e-02 -2.166503854095935822e-02
4.190000000000000000e+02 1.741909503936767578e+00 1.886428642272949219e+01 1.050124643370509148e-03 -1.980008631944656372e-01 -5.908522009849548340e-02 -1.337543874979019165e-02
4.200000000000000000e+02 5.135391354560852051e-01 1.344781303405761719e+01 -1.825184735935181379e-04 -2.723828256130218506e-01 -8.176960796117782593e-02 -1.806248794309794903e-03
4.210000000000000000e+02 1.382281780242919922e+00 9.213578224182128906e+00 6.604102905839681625e-03 -2.160333395004272461e-01 -6.282877177000045776e-02 2.180542983114719391e-02
4.220000000000000000e+02 4.435531497001647949e-01 6.464527130126953125e+00 1.615604734979569912e-03 -1.773512363433837891e-01 -5.272068828344345093e-02 1.654643006622791290e-02
4.230000000000000000e+02 1.275258183479309082e+00 3.649136543273925781e+00 -6.420706398785114288e-03 -7.428514957427978516e-02 -2.421175502240657806e-02 4.717718809843063354e-02
4.240000000000000000e+02 2.240397644042968750e+01 4.119256210327148438e+01 5.063540767878293991e-03 6.575766205787658691e-02 2.124636061489582062e-02 1.940623915288597345e-04
4.250000000000000000e+02 2.634520721435546875e+01 2.851159286499023438e+01 2.842135541141033173e-02 9.897346794605255127e-02 3.821844980120658875e-02 6.270548701286315918e-02
4.260000000000000000e+02 2.701358222961425781e+01 2.311314010620117188e+01 5.982578918337821960e-02 1.159620210528373718e-01 5.273634195327758789e-02 8.928918838500976562e-02
4.270000000000000000e+02 1.752433776855468750e+01 4.101788330078125000e+01 -3.852474736049771309e-03 3.465431183576583862e-02 9.240550920367240906e-03 4.456998314708471298e-03
4.280000000000000000e+02 2.223425865173339844e+01 3.850662612915039062e+01 9.641224518418312073e-03 6.569401919841766357e-02 2.260057255625724792e-02 1.474134344607591629e-02
4.290000000000000000e+02 1.813994789123535156e+01 3.001308059692382812e+01 -1.313382992520928383e-03 6.590495258569717407e-02 1.937747187912464142e-02 2.163986675441265106e-02
4.300000000000000000e+02 1.308459854125976562e+01 2.287891006469726562e+01 -3.417438827455043793e-03 5.169228836894035339e-02 1.448245532810688019e-02 9.869263507425785065e-03
4.310000000000000000e+02 1.361170768737792969e+01 2.453175544738769531e+01 -5.020562093704938889e-03 4.833129048347473145e-02 1.299321837723255157e-02 1.043228153139352798e-02
4.320000000000000000e+02 1.262831115722656250e+01 4.107310485839843750e+01 -7.991353981196880341e-03 -7.147419732064008713e-03 -4.541632253676652908e-03 -1.589909777976572514e-03
4.330000000000000000e+02 1.212939739227294922e+01 3.833917999267578125e+01 -5.011025816202163696e-03 -1.101472415030002594e-02 -4.807725083082914352e-03 2.144787140423431993e-04
4.340000000000000000e+02 8.235482215881347656e+00 3.063659286499023438e+01 -5.392097402364015579e-03 -4.993505775928497314e-02 -1.659814640879631042e-02 -1.081145554780960083e-02
4.350000000000000000e+02 6.755997657775878906e+00 2.602216911315917969e+01 -6.671916227787733078e-03 -6.809146702289581299e-02 -2.242901548743247986e-02 -1.669738814234733582e-02
4.360000000000000000e+02 2.053221225738525391e+00 4.166862869262695312e+01 -6.204960402101278305e-03 -1.297976821660995483e-01 -4.080079123377799988e-02 -1.779071288183331490e-03
4.370000000000000000e+02 6.034559249877929688e+00 3.698367691040039062e+01 -4.024813883006572723e-03 -8.490107208490371704e-02 -2.667776495218276978e-02 -3.684419672936201096e-03
4.380000000000000000e+02 2.530408143997192383e+00 3.562490081787109375e+01 1.023775315843522549e-03 -1.289192736148834229e-01 -3.836864605545997620e-02 -4.780638962984085083e-03
4.390000000000000000e+02 1.879391193389892578e+00 2.865577316284179688e+01 -2.595562022179365158e-03 -1.498949974775314331e-01 -4.574716463685035706e-02 -7.035770453512668610e-03
4.400000000000000000e+02 1.776018738746643066e+00 2.027392196655273438e+01 -1.786174718290567398e-03 -1.895559430122375488e-01 -5.740263313055038452e-02 -1.226030383259057999e-02
4.410000000000000000e+02 5.495753765106201172e+00 1.864888548851013184e+00 -1.479520499706268311e-01 -3.826668113470077515e-02 -5.586561933159828186e-02 1.386579275131225586e-01
4.420000000000000000e+02 7.768293380737304688e+00 2.452181816101074219e+00 -1.420360058546066284e-01 -1.387969553470611572e-01 -8.424989134073257446e-02 2.740983664989471436e-01
4.430000000000000000e+02 5.666041374206542969e+00 1.110401344299316406e+01 4.943292960524559021e-02 -9.582798182964324951e-02 -1.391851529479026794e-02 7.558039389550685883e-03
4.440000000000000000e+02 7.537742137908935547e+00 1.737810707092285156e+01 4.308818373829126358e-03 -3.284397348761558533e-02 -8.560546673834323883e-03 -1.705757714807987213e-02
4.450000000000000000e+02 1.372962856292724609e+01 2.124656915664672852e+00 6.256498098373413086e-01 3.092863082885742188e+00 1.115553855895996094e+00 -9.862189292907714844e-01
4.460000000000000000e+02 1.411663913726806641e+01 1.340626358985900879e+00 2.799996137619018555e+00 2.859134674072265625e+00 1.697739362716674805e+00 -2.094768047332763672e+00
4.470000000000000000e+02 1.541033458709716797e+01 8.580543398857116699e-01 6.919999122619628906e+00 1.734208464622497559e-01 2.128026008605957031e+00 -6.969631314277648926e-01
4.480000000000000000e+02 1.382759952545166016e+01 1.702471971511840820e+00 1.651168346405029297e+00 3.087814092636108398e+00 1.421694755554199219e+00 -1.537594556808471680e+00
4.490000000000000000e+02 1.058119869232177734e+01 1.687587380409240723e+00 -1.998927742242813110e-01 -3.921588063240051270e-01 -1.776154637336730957e-01 5.033878087997436523e-01
4.500000000000000000e+02 1.134029388427734375e+01 1.553306341171264648e+00 -6.818827241659164429e-02 -4.325480461120605469e-01 -1.502209007740020752e-01 5.153394341468811035e-01
4.510000000000000000e+02 1.390420341491699219e+01 3.430511236190795898e+00 3.429903388023376465e-01 1.773220419883728027e+00 6.348632574081420898e-01 4.923320412635803223e-01
4.520000000000000000e+02 1.607770347595214844e+01 5.851229667663574219e+00 2.726535797119140625e-01 3.793544173240661621e-01 1.956024020910263062e-01 3.005503416061401367e-01
4.530000000000000000e+02 2.142751312255859375e+01 1.128637981414794922e+01 1.690002083778381348e-01 1.788795590400695801e-01 1.043639257550239563e-01 1.741167306900024414e-01
4.540000000000000000e+02 2.479373931884765625e+01 1.469179248809814453e+01 1.412544101476669312e-01 1.280398517847061157e-01 8.078828454017639160e-02 1.371910870075225830e-01
4.550000000000000000e+02 2.503765869140625000e+01 1.554250335693359375e+01 1.260247677564620972e-01 1.343217641115188599e-01 7.810395956039428711e-02 1.338446289300918579e-01
4.560000000000000000e+02 4.990133666992187500e+01 3.762038040161132812e+01 -4.357395172119140625e-01 4.478791356086730957e-02 -1.172854825854301453e-01 -1.972801387310028076e-01
4.570000000000000000e+02 4.891687774658203125e+01 3.773419570922851562e+01 -3.095782399177551270e-01 6.198463030159473419e-03 -9.101393073797225952e-02 3.027484565973281860e-02
4.580000000000000000e+02 5.199316406250000000e+01 3.877038955688476562e+01 -2.344921350479125977e+00 -3.796011507511138916e-01 -8.173567652702331543e-01 -4.695530533790588379e-01
4.590000000000000000e+02 5.237177276611328125e+01 3.893016433715820312e+01 -1.978065252304077148e+00 8.369246497750282288e-03 -5.909087657928466797e-01 -6.326074600219726562e-01
4.600000000000000000e+02 5.264826202392578125e+01 3.877602005004882812e+01 -2.576092958450317383e+00 7.767248153686523438e-02 -7.495261430740356445e-01 -6.839979290962219238e-01
4.610000000000000000e+02 5.318150711059570312e+01 3.907408142089843750e+01 -2.088829278945922852e-01 4.212780475616455078e+00 1.201169252395629883e+00 -2.967984199523925781e+00
4.620000000000000000e+02 5.264994049072265625e+01 3.933669662475585938e+01 -1.644350886344909668e-01 1.541436195373535156e+00 4.131003320217132568e-01 -1.840583682060241699e+00
4.630000000000000000e+02 5.366138458251953125e+01 3.810254287719726562e+01 2.820348262786865234e+00 8.831499099731445312e+00 3.495554208755493164e+00 -4.439608573913574219e+00
4.640000000000000000e+02 5.615697479248046875e+01 3.675894546508789062e+01 4.995029885321855545e-03 2.006829643249511719e+01 6.021987438201904297e+00 -7.034107446670532227e-01
4.650000000000000000e+02 5.116116333007812500e+01 3.838744735717773438e+01 -1.395264267921447754e+00 -3.267410397529602051e-02 -4.283815026283264160e-01 -3.865014314651489258e-01
4.660000000000000000e+02 3.598724365234375000e+01 -1.695032691955566406e+01 -5.441060289740562439e-02 5.300183296203613281e-01 1.426823139190673828e-01 -9.889562427997589111e-02
4.670000000000000000e+02 4.016622161865234375e+01 -2.410985755920410156e+01 1.086238697171211243e-01 1.565694928169250488e+00 5.022956132888793945e-01 -5.355106592178344727e-01
4.680000000000000000e+02 4.046710205078125000e+01 -2.724095916748046875e+01 3.861926496028900146e-01 1.531250476837158203e+00 5.752329230308532715e-01 -7.570943832397460938e-01
4.690000000000000000e+02 3.957862091064453125e+01 -1.778972625732421875e+01 -1.062845140695571899e-01 1.558272242546081543e+00 4.355963170528411865e-01 -2.611621022224426270e-01
4.700000000000000000e+02 4.096712875366210938e+01 -1.507860755920410156e+01 -1.691134721040725708e-01 1.990855216979980469e+00 5.465224981307983398e-01 -1.949459910392761230e-01
4.710000000000000000e+02 3.563831329345703125e+01 -1.891616249084472656e+01 9.028255008161067963e-03 3.018582463264465332e-01 9.326595067977905273e-02 -1.027550175786018372e-01
4.720000000000000000e+02 3.422752380371093750e+01 -1.654698562622070312e+01 -5.365152284502983093e-02 6.422192603349685669e-02 3.171121003106236458e-03 1.923110894858837128e-02
4.730000000000000000e+02 4.324491119384765625e+01 -2.684657669067382812e+01 5.468253046274185181e-02 3.052033185958862305e+00 9.320147037506103516e-01 -7.343523502349853516e-01
4.740000000000000000e+02 4.151741409301757812e+01 -2.646826744079589844e+01 1.983406096696853638e-01 2.113028764724731445e+00 6.934108138084411621e-01 -7.709352374076843262e-01
4.750000000000000000e+02 4.514116287231445312e+01 -3.473786163330078125e+01 1.061521530151367188e+00 7.089559078216552734e+00 2.445324182510375977e+00 -6.800414919853210449e-01
4.760000000000000000e+02 3.831511688232421875e+01 -4.150620269775390625e+01 8.836125731468200684e-01 7.048017531633377075e-02 2.862278223037719727e-01 -3.362170755863189697e-01
4.770000000000000000e+02 3.581160354614257812e+01 -4.017900466918945312e+01 5.598587989807128906e-01 8.972332626581192017e-02 1.948746293783187866e-01 -1.291729509830474854e-01
4.780000000000000000e+02 6.658591461181640625e+01 2.691324615478515625e+01 4.762483388185501099e-02 8.770941734313964844e+00 2.645569801330566406e+00 -1.581532478332519531e+00
4.790000000000000000e+02 7.323669433593750000e+01 2.443780326843261719e+01 -5.988284945487976074e-02 7.238620758056640625e+00 2.153621435165405273e+00 -1.318737983703613281e+00
4.800000000000000000e+02 7.299713134765625000e+01 3.354577255249023438e+01 4.280147850513458252e-01 6.422949314117431641e+00 2.055289268493652344e+00 -9.027950763702392578e-01
4.810000000000000000e+02 5.971818161010742188e+01 3.399376296997070312e+01 4.581644535064697266e+00 1.235240840911865234e+01 5.080215930938720703e+00 -5.601835846900939941e-01
4.820000000000000000e+02 4.589709472656250000e+01 2.636429595947265625e+01 7.321221828460693359e-01 9.976503252983093262e-01 5.189317464828491211e-01 8.811617493629455566e-01
4.830000000000000000e+02 4.915869522094726562e+01 2.230346298217773438e+01 7.218533754348754883e-02 3.602537631988525391e+00 1.102416872978210449e+00 1.432043552398681641e+00
4.840000000000000000e+02 4.873896789550781250e+01 1.503095149993896484e+01 -4.040029346942901611e-01 3.744446992874145508e+00 1.002133250236511230e+00 8.472789525985717773e-01
4.850000000000000000e+02 4.903061676025390625e+01 -1.288265466690063477e+00 -3.507564961910247803e-01 3.806030988693237305e+00 1.036582350730895996e+00 1.896716654300689697e-01
4.860000000000000000e+02 4.748366165161132812e+01 1.067219734191894531e+00 -3.287285864353179932e-01 3.443737030029296875e+00 9.345025420188903809e-01 2.525148391723632812e-01
4.870000000000000000e+02 6.086991882324218750e+01 1.759228825569152832e+00 -5.067606568336486816e-01 6.422812461853027344e+00 1.774815440177917480e+00 1.992036774754524231e-02
4.880000000000000000e+02 5.809316253662109375e+01 2.844577789306640625e+00 -5.559876561164855957e-01 5.941539287567138672e+00 1.615665555000305176e+00 1.030276119709014893e-01
4.890000000000000000e+02 5.960037994384765625e+01 8.670620918273925781e+00 -7.400884628295898438e-01 6.546989440917968750e+00 1.742070317268371582e+00 1.531493943184614182e-02
4.900000000000000000e+02 6.092423248291015625e+01 1.848011207580566406e+01 -1.016457796096801758e+00 7.944487571716308594e+00 2.078408956527709961e+00 -2.366013228893280029e-01
4.910000000000000000e+02 4.869590759277343750e+01 2.289600372314453125e+01 1.943612396717071533e-01 3.282852649688720703e+00 1.043164253234863281e+00 1.439749956130981445e+00
4.920000000000000000e+02 4.015707015991210938e+01 2.146129798889160156e+01 -4.890822619199752808e-02 5.427310243248939514e-03 -1.304427441209554672e-02 -2.045611850917339325e-02
4.930000000000000000e+02 4.567662429809570312e+01 2.664934921264648438e+01 7.224159836769104004e-01 8.123389482498168945e-01 4.604264795780181885e-01 7.750849723815917969e-01
4.940000000000000000e+02 3.348645401000976562e+01 1.351678466796875000e+01 -5.132933259010314941e-01 -4.654695391654968262e-01 -2.936288714408874512e-01 -4.809930920600891113e-01
4.950000000000000000e+02 3.321630859375000000e+01 1.378202819824218750e+01 -5.634643435478210449e-01 -5.524769425392150879e-01 -3.347823917865753174e-01 -5.462585687637329102e-01
4.960000000000000000e+02 3.367243194580078125e+01 5.903441429138183594e+00 -1.039826348423957825e-01 2.084507197141647339e-01 3.134042769670486450e-02 -5.733920261263847351e-02
4.970000000000000000e+02 3.313704299926757812e+01 5.320747375488281250e+00 -9.051465988159179688e-02 1.751213669776916504e-01 2.538201212882995605e-02 -9.028477966785430908e-02
4.980000000000000000e+02 4.202510452270507812e+01 -9.721787571907043457e-01 -1.609484404325485229e-01 2.132386445999145508e+00 5.914313793182373047e-01 1.327198594808578491e-01
4.990000000000000000e+02 4.151271820068359375e+01 6.630356907844543457e-01 -1.516396403312683105e-01 1.991948604583740234e+00 5.520926713943481445e-01 1.596550494432449341e-01
5.000000000000000000e+02 3.953849792480468750e+01 1.981730270385742188e+01 -8.155313134193420410e-02 1.057192832231521606e-01 7.249845191836357117e-03 -5.578234326094388962e-03
5.010000000000000000e+02 4.004565429687500000e+01 1.980771446228027344e+01 -5.714610591530799866e-02 2.450564950704574585e-01 5.637311935424804688e-02 7.159993052482604980e-02
5.020000000000000000e+02 6.763795471191406250e+01 1.598148536682128906e+01 -6.381611824035644531e-01 7.979772090911865234e+00 2.202483177185058594e+00 -8.921244144439697266e-01
5.030000000000000000e+02 6.782845306396484375e+01 1.738395690917968750e+01 -6.200661063194274902e-01 8.051010131835937500e+00 2.229283094406127930e+00 -1.011998891830444336e+00
5.040000000000000000e+02 7.291725158691406250e+01 1.727570152282714844e+01 -2.709341049194335938e-01 7.853426933288574219e+00 2.274747848510742188e+00 -9.763597846031188965e-01
5.050000000000000000e+02 3.944025039672851562e+01 1.242626571655273438e+01 -2.320448756217956543e-01 9.660542011260986328e-01 2.202027887105941772e-01 2.163693159818649292e-01
5.060000000000000000e+02 3.875780868530273438e+01 2.006743621826171875e+01 -1.142222434282302856e-01 -1.182916834950447083e-01 -6.975417584180831909e-02 -1.205921843647956848e-01
5.070000000000000000e+02 5.955455780029296875e+01 6.325790405273437500e+00 -6.578379869461059570e-01 6.399146080017089844e+00 1.722392439842224121e+00 2.926693856716156006e-02
5.080000000000000000e+02 4.827709960937500000e+01 1.543503379821777344e+01 -3.687733709812164307e-01 3.586103916168212891e+00 9.651991724967956543e-01 8.643413782119750977e-01
5.090000000000000000e+02 7.352272033691406250e+01 1.043257522583007812e+01 -1.978163868188858032e-01 8.198667526245117188e+00 2.400255441665649414e+00 -5.387995243072509766e-01
5.100000000000000000e+02 7.235253143310546875e+01 1.151807117462158203e+01 -2.725416421890258789e-01 8.074889183044433594e+00 2.340704202651977539e+00 -6.388075351715087891e-01
5.110000000000000000e+02 6.717810058593750000e+01 9.065516471862792969e+00 -5.266617536544799805e-01 7.648105144500732422e+00 2.136432886123657227e+00 -4.575939178466796875e-01
5.120000000000000000e+02 6.658244323730468750e+01 5.343859672546386719e+00 -4.545209109783172607e-01 7.457852840423583984e+00 2.100999593734741211e+00 -2.712807059288024902e-01
5.130000000000000000e+02 6.556444549560546875e+01 2.639192104339599609e+00 -4.181511104106903076e-01 7.241803169250488281e+00 2.047095775604248047e+00 -1.504787802696228027e-01
5.140000000000000000e+02 1.347512435913085938e+01 -1.007577228546142578e+01 1.561237126588821411e-01 -7.604171335697174072e-02 2.402459830045700073e-02 -1.875729858875274658e-01
5.150000000000000000e+02 1.983119010925292969e+01 -1.912995719909667969e+01 1.052839830517768860e-01 2.874814569950103760e-01 1.178296357393264771e-01 -1.870568692684173584e-01
5.160000000000000000e+02 6.858955383300781250e+00 -1.666473007202148438e+01 4.411153122782707214e-02 -2.756585478782653809e-01 -6.946410983800888062e-02 -1.224756911396980286e-01
5.170000000000000000e+02 5.083910226821899414e-01 -1.067754364013671875e+01 -4.647108260542154312e-03 -3.124867677688598633e-01 -9.514016658067703247e-02 -2.236740477383136749e-02
5.180000000000000000e+02 1.633496284484863281e+01 -2.411669349670410156e+01 5.627971887588500977e-02 8.303731679916381836e-02 4.179511219263076782e-02 -1.318844407796859741e-01
5.190000000000000000e+02 7.508601188659667969e+00 -2.389082717895507812e+01 3.296524658799171448e-02 -3.034483194351196289e-01 -8.114491403102874756e-02 -7.457491010427474976e-02
5.200000000000000000e+02 6.077870130538940430e-01 -1.768414497375488281e+01 5.088505800813436508e-03 -5.496903657913208008e-01 -1.633805632591247559e-01 -1.346170157194137573e-02
5.210000000000000000e+02 1.846338462829589844e+01 -3.602798843383789062e+01 9.020102769136428833e-02 7.174976915121078491e-02 4.858523979783058167e-02 -6.430139392614364624e-02
5.220000000000000000e+02 2.420304870605468750e+01 -2.622146224975585938e+01 9.703812748193740845e-02 3.658947050571441650e-01 1.388798505067825317e-01 -2.061134874820709229e-01
5.230000000000000000e+02 6.424125432968139648e-01 -2.331587028503417969e+01 4.263894166797399521e-03 -6.404398083686828613e-01 -1.908527761697769165e-01 -6.628798786550760269e-03
5.240000000000000000e+02 2.465070533752441406e+01 -3.087489318847656250e+01 1.470596939325332642e-01 3.386707603931427002e-01 1.457191407680511475e-01 -1.992586106061935425e-01
5.250000000000000000e+02 7.273218035697937012e-01 -3.034157180786132812e+01 -4.756663460284471512e-03 -6.874734163284301758e-01 -2.076690346002578735e-01 -2.339023631066083908e-03
5.260000000000000000e+02 7.425619506835937500e+01 -3.077668380737304688e+01 3.243090212345123291e-02 8.049839019775390625e+00 2.424680948257446289e+00 1.823949813842773438e-01
5.270000000000000000e+02 6.567787170410156250e+01 -3.350090789794921875e+01 2.136112004518508911e-01 6.952847480773925781e+00 2.149937629699707031e+00 2.718004286289215088e-01
5.280000000000000000e+02 7.295490264892578125e+01 -2.377277755737304688e+01 -6.438876036554574966e-03 8.047551155090332031e+00 2.412333726882934570e+00 2.438313364982604980e-01
5.290000000000000000e+02 4.656830978393554688e+01 -2.537247467041015625e+01 -1.935150176286697388e-01 4.130509853363037109e+00 1.181098461151123047e+00 -2.538735866546630859e-01
5.300000000000000000e+02 5.634299850463867188e+01 -1.988520050048828125e+01 -2.099976241588592529e-01 5.648413181304931641e+00 1.631524682044982910e+00 2.529194056987762451e-01
5.310000000000000000e+02 4.511450958251953125e+01 -3.321520233154296875e+01 8.236119747161865234e-01 5.990756034851074219e+00 2.044310331344604492e+00 -9.832198619842529297e-01
5.320000000000000000e+02 7.291168212890625000e+01 -5.214445590972900391e+00 -9.759479016065597534e-02 8.338227272033691406e+00 2.472189664840698242e+00 1.533761806786060333e-02
5.330000000000000000e+02 6.584736633300781250e+01 -1.192849874496459961e+00 -3.308055996894836426e-01 7.207538127899169922e+00 2.063019752502441406e+00 -3.784468770027160645e-02
5.340000000000000000e+02 6.689688873291015625e+01 -1.161819553375244141e+01 -1.861655414104461670e-01 7.285121440887451172e+00 2.129686832427978516e+00 1.905462890863418579e-01
5.350000000000000000e+02 6.112783813476562500e+01 -3.657400846481323242e+00 -3.889421522617340088e-01 6.355501651763916016e+00 1.789967775344848633e+00 8.477145433425903320e-02
5.360000000000000000e+02 5.295429611206054688e+01 -1.141584014892578125e+01 -3.617890179157257080e-01 4.818439483642578125e+00 1.336995124816894531e+00 1.015404835343360901e-01
5.370000000000000000e+02 4.799748229980468750e+01 -4.602562904357910156e+00 -3.081863522529602051e-01 3.606024026870727539e+00 9.893512725830078125e-01 1.104049682617187500e-01
5.380000000000000000e+02 4.676243591308593750e+01 -1.085416507720947266e+01 -2.895686030387878418e-01 3.419526338577270508e+00 9.389873147010803223e-01 -3.144365921616554260e-02
5.390000000000000000e+02 4.013221359252929688e+01 -6.267220973968505859e+00 -1.267423480749130249e-01 1.783532500267028809e+00 4.970370233058929443e-01 -8.613564074039459229e-03
5.400000000000000000e+02 3.575185775756835938e+01 -6.918195724487304688e+00 -7.613109797239303589e-02 8.168197870254516602e-01 2.222066074609756470e-01 -2.037010155618190765e-02
5.410000000000000000e+02 7.434881210327148438e+00 3.295213317871093750e+01 -3.547068685293197632e-03 -6.321868300437927246e-02 -2.002972550690174103e-02 -8.767859078943729401e-03
5.420000000000000000e+02 1.749336242675781250e+01 3.207191848754882812e+01 -2.991272136569023132e-03 5.392673984169960022e-02 1.528064068406820297e-02 1.757650263607501984e-02
5.430000000000000000e+02 2.521232604980468750e+01 2.895249748229980469e+01 3.046125732362270355e-02 9.882544726133346558e-02 3.878601267933845520e-02 5.274011939764022827e-02
5.440000000000000000e+02 3.343252563476562500e+01 2.957525444030761719e+01 6.498569995164871216e-02 9.614539146423339844e-02 4.833932965993881226e-02 6.704356521368026733e-02
5.450000000000000000e+02 2.130855798721313477e+00 3.144648170471191406e+01 -2.551671350374817848e-03 -1.389071345329284668e-01 -4.243764281272888184e-02 -5.728118121623992920e-03
5.460000000000000000e+02 1.693005561828613281e+01 6.707311630249023438e+00 2.322231531143188477e-01 2.427158355712890625e-01 1.424816995859146118e-01 2.446536719799041748e-01
5.470000000000000000e+02 1.930810165405273438e+01 1.440530967712402344e+01 8.793354779481887817e-02 1.760680079460144043e-01 7.920046895742416382e-02 1.224013566970825195e-01
5.480000000000000000e+02 5.431735038757324219e+00 9.825153350830078125e+00 6.289249658584594727e-02 -1.087951138615608215e-01 -1.377078332006931305e-02 2.269275486469268799e-02
5.490000000000000000e+02 1.664298629760742188e+01 6.426926612854003906e+00 2.635441422462463379e-01 2.773131132125854492e-01 1.622571796178817749e-01 2.627182304859161377e-01
5.500000000000000000e+02 9.829427719116210938e+00 1.771173596382141113e+00 -2.678991258144378662e-01 -2.987018227577209473e-01 -1.699802875518798828e-01 4.295426011085510254e-01
5.510000000000000000e+02 5.287240600585937500e+01 3.419155502319335938e+01 6.167511940002441406e-01 1.242966055870056152e-01 2.223143428564071655e-01 4.485051035881042480e-01
5.520000000000000000e+02 5.176945495605468750e+01 3.246418380737304688e+01 2.105771541595458984e+00 2.772582530975341797e+00 1.463506221771240234e+00 2.387506484985351562e+00
5.530000000000000000e+02 5.150053787231445312e+01 3.212087249755859375e+01 2.189869403839111328e+00 2.820145606994628906e+00 1.503004550933837891e+00 2.471638202667236328e+00
5.540000000000000000e+02 5.119054412841796875e+01 3.183407211303710938e+01 2.233424186706542969e+00 2.784049510955810547e+00 1.505242109298706055e+00 2.454943180084228516e+00
5.550000000000000000e+02 5.089405822753906250e+01 3.155601692199707031e+01 2.224418878555297852e+00 2.633851289749145508e+00 1.457481026649475098e+00 2.392792224884033203e+00
5.560000000000000000e+02 5.060194396972656250e+01 3.128041076660156250e+01 2.176835298538208008e+00 2.469294071197509766e+00 1.393838763236999512e+00 2.298166513442993164e+00
5.570000000000000000e+02 5.031272888183593750e+01 3.100544738769531250e+01 2.101563453674316406e+00 2.308407306671142578e+00 1.322991251945495605e+00 2.191610336303710938e+00
5.580000000000000000e+02 4.945308685302734375e+01 3.017826843261718750e+01 1.831698179244995117e+00 1.939194917678833008e+00 1.131267905235290527e+00 1.880694746971130371e+00
5.590000000000000000e+02 4.859180068969726562e+01 2.935123634338378906e+01 1.623374938964843750e+00 1.621664524078369141e+00 9.735118150711059570e-01 1.613424658775329590e+00
5.600000000000000000e+02 4.830035781860351562e+01 2.907909202575683594e+01 1.542166829109191895e+00 1.498507380485534668e+00 9.122022390365600586e-01 1.511346340179443359e+00
5.610000000000000000e+02 4.800672149658203125e+01 2.880925941467285156e+01 1.447409272193908691e+00 1.374838829040527344e+00 8.466744422912597656e-01 1.406526923179626465e+00
5.620000000000000000e+02 4.682712554931640625e+01 2.774061012268066406e+01 1.041984915733337402e+00 9.994622468948364258e-01 6.124341487884521484e-01 1.026468276977539062e+00
5.630000000000000000e+02 4.653507614135742188e+01 2.747181892395019531e+01 9.497755765914916992e-01 9.375659227371215820e-01 5.662024617195129395e-01 9.501891732215881348e-01
5.640000000000000000e+02 4.624563217163085938e+01 2.720074272155761719e+01 8.647307753562927246e-01 8.856055140495300293e-01 5.251008868217468262e-01 8.836682438850402832e-01
5.650000000000000000e+02 4.595935058593750000e+01 2.692674255371093750e+01 7.890592813491821289e-01 8.450588583946228027e-01 4.902354478836059570e-01 8.248465061187744141e-01
5.660000000000000000e+02 4.539765167236328125e+01 2.636819076538085938e+01 6.685249805450439453e-01 7.895069718360900879e-01 4.374095797538757324e-01 7.336456775665283203e-01
5.670000000000000000e+02 4.512182235717773438e+01 2.608359146118164062e+01 6.307418346405029297e-01 7.710562348365783691e-01 4.205394089221954346e-01 7.008935809135437012e-01
5.680000000000000000e+02 4.311797714233398438e+01 2.414002418518066406e+01 3.462775945663452148e-01 3.640991747379302979e-01 2.131130248308181763e-01 3.568405210971832275e-01
5.690000000000000000e+02 4.252661132812500000e+01 2.360361671447753906e+01 2.388317435979843140e-01 2.724691331386566162e-01 1.533902585506439209e-01 2.587442100048065186e-01
5.700000000000000000e+02 4.223354339599609375e+01 2.333250617980957031e+01 1.934225857257843018e-01 2.360735684633255005e-01 1.288488507270812988e-01 2.173702269792556763e-01
5.710000000000000000e+02 4.194269561767578125e+01 2.305873298645019531e+01 1.536701023578643799e-01 2.026897817850112915e-01 1.069079637527465820e-01 1.799026429653167725e-01
5.720000000000000000e+02 4.135867691040039062e+01 2.251065254211425781e+01 8.032800257205963135e-02 1.326784044504165649e-01 6.390192359685897827e-02 1.079501956701278687e-01
5.730000000000000000e+02 4.106090164184570312e+01 2.224215316772460938e+01 4.344421252608299255e-02 9.612440317869186401e-02 4.187058657407760620e-02 7.138679921627044678e-02
5.740000000000000000e+02 4.045703887939453125e+01 2.172033691406250000e+01 -2.380363829433917999e-02 3.242956101894378662e-02 2.587776863947510719e-03 6.018823012709617615e-03
5.750000000000000000e+02 3.986214065551757812e+01 2.119800949096679688e+01 -6.767904013395309448e-02 -1.842739433050155640e-02 -2.583193033933639526e-02 -4.456700384616851807e-02
5.760000000000000000e+02 3.957363128662109375e+01 2.092771148681640625e+01 -8.282144367694854736e-02 -4.311382398009300232e-02 -3.778057917952537537e-02 -6.525672227144241333e-02
5.770000000000000000e+02 3.929256439208984375e+01 2.064912414550781250e+01 -9.376937150955200195e-02 -6.710094958543777466e-02 -4.826109856367111206e-02 -8.486984670162200928e-02
5.780000000000000000e+02 3.902251052856445312e+01 1.980280303955078125e+01 -1.065045818686485291e-01 -2.215269021689891815e-02 -3.859718143939971924e-02 -7.570131868124008179e-02
5.790000000000000000e+02 3.850251007080078125e+01 1.976620292663574219e+01 -1.275949776172637939e-01 -1.463860422372817993e-01 -8.219430595636367798e-02 -1.384357810020446777e-01
5.800000000000000000e+02 3.825154876708984375e+01 1.946014976501464844e+01 -1.416743695735931396e-01 -1.739935129880905151e-01 -9.470036625862121582e-02 -1.598339229822158813e-01
5.810000000000000000e+02 3.876988220214843750e+01 1.951038932800292969e+01 -1.226209253072738647e-01 -4.626248031854629517e-02 -5.066502094268798828e-02 -9.711069613695144653e-02
5.820000000000000000e+02 3.750121307373046875e+01 1.853233909606933594e+01 -2.088266611099243164e-01 -2.616083323955535889e-01 -1.411304920911788940e-01 -2.310574054718017578e-01
5.830000000000000000e+02 3.724565124511718750e+01 1.822556304931640625e+01 -2.352801263332366943e-01 -2.845010161399841309e-01 -1.559343487024307251e-01 -2.574758231639862061e-01
5.840000000000000000e+02 3.672161102294921875e+01 1.762237358093261719e+01 -2.846267223358154297e-01 -3.206132352352142334e-01 -1.815719902515411377e-01 -3.018114566802978516e-01
5.850000000000000000e+02 3.645529174804687500e+01 1.732477188110351562e+01 -3.064651787281036377e-01 -3.382906317710876465e-01 -1.934267431497573853e-01 -3.195861876010894775e-01
5.860000000000000000e+02 3.698552703857421875e+01 1.792229652404785156e+01 -2.630162835121154785e-01 -3.048387765884399414e-01 -1.703565120697021484e-01 -2.795644998550415039e-01
5.870000000000000000e+02 3.537960815429687500e+01 1.614435195922851562e+01 -3.752485513687133789e-01 -4.084821045398712158e-01 -2.351191937923431396e-01 -3.894196748733520508e-01
5.880000000000000000e+02 3.484036636352539062e+01 1.555553817749023438e+01 -3.998881280422210693e-01 -4.437517523765563965e-01 -2.530919611454010010e-01 -4.201930761337280273e-01
5.890000000000000000e+02 3.457224273681640625e+01 1.525947952270507812e+01 -4.080805182456970215e-01 -4.635180532932281494e-01 -2.614795565605163574e-01 -4.402834177017211914e-01
5.900000000000000000e+02 3.430552291870117188e+01 1.496141815185546875e+01 -4.288002550601959229e-01 -4.940361678600311279e-01 -2.768509089946746826e-01 -4.584423303604125977e-01
5.910000000000000000e+02 3.377027130126953125e+01 1.436404514312744141e+01 -4.954171776771545410e-01 -5.487105250358581543e-01 -3.132382929325103760e-01 -5.113729238510131836e-01
5.920000000000000000e+02 3.349629211425781250e+01 1.407022285461425781e+01 -5.314005613327026367e-01 -5.550256967544555664e-01 -3.259278535842895508e-01 -5.382490754127502441e-01
5.930000000000000000e+02 3.264908981323242188e+01 1.321280956268310547e+01 -5.632057785987854004e-01 -5.452279448509216309e-01 -3.325301110744476318e-01 -5.531700253486633301e-01
5.940000000000000000e+02 3.293242645263671875e+01 1.349736976623535156e+01 -5.639628171920776367e-01 -5.379133224487304688e-01 -3.305628299713134766e-01 -5.554499626159667969e-01
5.950000000000000000e+02 3.097569847106933594e+01 1.100825405120849609e+01 -8.621640801429748535e-01 -5.769914984703063965e-01 -4.317466914653778076e-01 -6.719095110893249512e-01
5.960000000000000000e+02 3.047516632080078125e+01 9.026682853698730469e+00 -8.194208741188049316e-01 -2.165575027465820312e-01 -3.107935190200805664e-01 -2.738616168498992920e-01
5.970000000000000000e+02 3.005858421325683594e+01 9.616799354553222656e+00 -1.024620056152343750e+00 -3.648752868175506592e-01 -4.168486297130584717e-01 -5.972571372985839844e-01
5.980000000000000000e+02 2.930899620056152344e+01 9.670119285583496094e+00 -1.485558867454528809e+00 -6.008711457252502441e-01 -6.259289979934692383e-01 -1.027863621711730957e+00
5.990000000000000000e+02 2.895150375366210938e+01 9.638308525085449219e+00 -1.454573750495910645e+00 -1.096009492874145508e+00 -7.651749849319458008e-01 -1.212435007095336914e+00
6.000000000000000000e+02 2.942015457153320312e+01 1.007018089294433594e+01 -1.124064207077026367e+00 -6.035514473915100098e-01 -5.182846784591674805e-01 -1.011134505271911621e+00
6.010000000000000000e+02 2.954647827148437500e+01 9.173290252685546875e+00 -1.321934223175048828e+00 -2.462339550256729126e-01 -4.704504609107971191e-01 -5.049648284912109375e-01
6.020000000000000000e+02 2.844163894653320312e+01 9.054432868957519531e+00 -2.340698242187500000e+00 -1.302804112434387207e+00 -1.093050718307495117e+00 -1.482001900672912598e+00
6.030000000000000000e+02 2.870701408386230469e+01 9.345312118530273438e+00 -1.516904115676879883e+00 -1.166930198669433594e+00 -8.051502704620361328e-01 -1.373831748962402344e+00
6.040000000000000000e+02 2.809104347229003906e+01 8.767459869384765625e+00 -2.842752933502197266e+00 -1.296707868576049805e+00 -1.241838216781616211e+00 -1.864554405212402344e+00
6.050000000000000000e+02 2.771314430236816406e+01 8.554718017578125000e+00 -3.195908546447753906e+00 -1.632553815841674805e+00 -1.448538661003112793e+00 -2.632920026779174805e+00
6.060000000000000000e+02 2.727041435241699219e+01 8.159408569335937500e+00 -3.354027509689331055e+00 -2.213061571121215820e+00 -1.670126795768737793e+00 -2.665153503417968750e+00
6.070000000000000000e+02 2.679916191101074219e+01 7.842544555664062500e+00 -3.618723869323730469e+00 -2.289383649826049805e+00 -1.772432208061218262e+00 -3.328809022903442383e+00
6.080000000000000000e+02 2.632360839843750000e+01 7.528376579284667969e+00 -4.835381984710693359e+00 -2.663269281387329102e+00 -2.249595403671264648e+00 -3.511199235916137695e+00
6.090000000000000000e+02 2.597977066040039062e+01 7.298040390014648438e+00 -5.322206974029541016e+00 -2.784819364547729492e+00 -2.432107925415039062e+00 -3.623669862747192383e+00
6.100000000000000000e+02 2.616590690612792969e+01 7.424558162689208984e+00 -4.684383869171142578e+00 -3.080887317657470703e+00 -2.329581260681152344e+00 -3.756923913955688477e+00
6.110000000000000000e+02 2.648073196411132812e+01 7.650238037109375000e+00 -4.429918289184570312e+00 -2.937075138092041016e+00 -2.210098028182983398e+00 -3.693106651306152344e+00
6.120000000000000000e+02 2.664261054992675781e+01 7.755420207977294922e+00 -4.585824966430664062e+00 -2.992883205413818359e+00 -2.273612499237060547e+00 -3.336381912231445312e+00
6.130000000000000000e+02 2.673066902160644531e+01 7.884767055511474609e+00 -4.166465759277343750e+00 -2.928705215454101562e+00 -2.128551244735717773e+00 -3.627379179000854492e+00
6.140000000000000000e+02 2.691510009765625000e+01 7.947913169860839844e+00 -4.218108177185058594e+00 -2.665592908859252930e+00 -2.065110206604003906e+00 -3.041256666183471680e+00
6.150000000000000000e+02 2.707943534851074219e+01 8.053480148315429688e+00 -3.707723617553710938e+00 -2.407598495483398438e+00 -1.834596633911132812e+00 -3.065790176391601562e+00
6.160000000000000000e+02 2.733045387268066406e+01 8.364109039306640625e+00 -3.789042472839355469e+00 -2.651711702346801758e+00 -1.932226300239562988e+00 -3.087601423263549805e+00
6.170000000000000000e+02 2.755171966552734375e+01 8.395728111267089844e+00 -3.589720964431762695e+00 -1.960207700729370117e+00 -1.664978623390197754e+00 -2.498376131057739258e+00
6.180000000000000000e+02 2.883595085144042969e+01 5.291690349578857422e+00 -3.413351476192474365e-01 -1.757556647062301636e-01 -1.551272422075271606e-01 -2.597037553787231445e-01
6.190000000000000000e+02 2.901130867004394531e+01 5.416995048522949219e+00 -3.394722938537597656e-01 -1.415923088788986206e-01 -1.443193852901458740e-01 -2.709941565990447998e-01
6.200000000000000000e+02 2.655863571166992188e+01 3.945927381515502930e+00 -3.861409723758697510e-01 -2.628768980503082275e-01 -1.947053670883178711e-01 -3.033784627914428711e-01
6.210000000000000000e+02 2.691564941406250000e+01 4.162765026092529297e+00 -3.751099109649658203e-01 -2.725931107997894287e-01 -1.943109035491943359e-01 -3.018734455108642578e-01
6.220000000000000000e+02 2.486302566528320312e+01 2.916853666305541992e+00 -4.266074299812316895e-01 -2.172173410654067993e-01 -1.931474357843399048e-01 -2.869818806648254395e-01
6.230000000000000000e+02 2.315908813476562500e+01 1.850751638412475586e+00 -5.409148335456848145e-01 -1.823144406080245972e-01 -2.169687747955322266e-01 -2.925003767013549805e-01
6.240000000000000000e+02 2.196230888366699219e+01 1.036430835723876953e+00 -7.239410281181335449e-01 -1.810163408517837524e-01 -2.714872062206268311e-01 -2.888166904449462891e-01
6.250000000000000000e+02 2.074055480957031250e+01 3.835499584674835205e-01 -1.163505673408508301e+00 -2.960322201251983643e-01 -4.378613531589508057e-01 -1.910036206245422363e-01
6.260000000000000000e+02 2.029172515869140625e+01 7.704788446426391602e-02 -1.309660434722900391e+00 -3.852559998631477356e-02 -4.044558107852935791e-01 2.824324881657958031e-03
6.270000000000000000e+02 1.998403739929199219e+01 -1.797831952571868896e-01 -1.474690437316894531e+00 1.050000190734863281e-01 -4.109071195125579834e-01 5.435945931822061539e-03
6.280000000000000000e+02 1.915790748596191406e+01 -7.252848148345947266e-01 -1.243505120277404785e+00 4.654265642166137695e-01 -2.334235608577728271e-01 -4.304329752922058105e-01
6.290000000000000000e+02 1.856748962402343750e+01 -9.992609620094299316e-01 -1.364778161048889160e+00 4.185984730720520020e-01 -2.838539183139801025e-01 -4.755742847919464111e-01
6.300000000000000000e+02 1.822769165039062500e+01 -1.208891987800598145e+00 -1.142976403236389160e+00 6.911870837211608887e-02 -3.221572935581207275e-01 -4.901282787322998047e-01
6.310000000000000000e+02 1.840163803100585938e+01 -1.109688758850097656e+00 -1.134943604469299316e+00 3.542354404926300049e-01 -2.342124730348587036e-01 -5.862855911254882812e-01
6.320000000000000000e+02 1.735355758666992188e+01 -1.828240275382995605e+00 -8.311783075332641602e-01 -2.400567233562469482e-01 -3.213705122470855713e-01 -4.411864578723907471e-01
6.330000000000000000e+02 1.758695793151855469e+01 -1.746434330940246582e+00 -9.342197775840759277e-01 -1.146819144487380981e-01 -3.146705031394958496e-01 -4.388812482357025146e-01
6.340000000000000000e+02 1.699548339843750000e+01 -1.977021455764770508e+00 -8.002388477325439453e-01 -3.966749310493469238e-01 -3.590741157531738281e-01 -3.590303957462310791e-01
6.350000000000000000e+02 1.663442993164062500e+01 -2.270627021789550781e+00 -6.657968163490295410e-01 -5.066987276077270508e-01 -3.517486751079559326e-01 -3.712614774703979492e-01
6.360000000000000000e+02 1.717077255249023438e+01 -2.150756597518920898e+00 -6.198368072509765625e-01 -3.547497689723968506e-01 -2.923759818077087402e-01 -3.713287115097045898e-01
6.370000000000000000e+02 1.638723182678222656e+01 -2.400674581527709961e+00 -6.289224028587341309e-01 -5.782788991928100586e-01 -3.621603846549987793e-01 -4.310913085937500000e-01
6.380000000000000000e+02 1.246623229980468750e+01 -2.321269512176513672e+00 -6.217916607856750488e-01 -6.817235797643661499e-02 -2.069891989231109619e-01 -3.016809523105621338e-01
6.390000000000000000e+02 1.327289676666259766e+01 -2.386865615844726562e+00 -7.100903987884521484e-01 -1.022691354155540466e-01 -2.437078505754470825e-01 -3.586818575859069824e-01
6.400000000000000000e+02 1.414019298553466797e+01 -2.421507835388183594e+00 -8.056938052177429199e-01 -2.038147300481796265e-01 -3.028525710105895996e-01 -4.817701876163482666e-01
6.410000000000000000e+02 1.103584480285644531e+01 -2.959538698196411133e+00 -3.920393586158752441e-01 -4.262199252843856812e-02 -1.303984075784683228e-01 -2.753198146820068359e-01
6.420000000000000000e+02 9.475107192993164062e+00 -1.954491972923278809e+00 -3.212584257125854492e-01 1.814288087189197540e-03 -9.583323448896408081e-02 -1.355227530002593994e-01
6.430000000000000000e+02 8.668264389038085938e+00 -1.941016674041748047e+00 -2.623597979545593262e-01 -2.171003026887774467e-03 -7.935924082994461060e-02 -1.180365011096000671e-01
6.440000000000000000e+02 7.854314804077148438e+00 -1.938425898551940918e+00 -2.078844904899597168e-01 -1.009862497448921204e-02 -6.539493799209594727e-02 -1.075650304555892944e-01
6.450000000000000000e+02 7.037903308868408203e+00 -1.942122101783752441e+00 -1.689434051513671875e-01 -1.301725022494792938e-02 -5.458819493651390076e-02 -9.716147929430007935e-02
6.460000000000000000e+02 5.403015613555908203e+00 -1.959072470664978027e+00 -1.023696959018707275e-01 -1.649015583097934723e-02 -3.565795347094535828e-02 -7.366305589675903320e-02
6.470000000000000000e+02 2.944466114044189453e+00 -2.021140098571777344e+00 -3.406707197427749634e-02 -2.016200125217437744e-02 -1.626872271299362183e-02 -3.585593402385711670e-02
6.480000000000000000e+02 3.103009223937988281e+00 -3.022967338562011719e+00 -4.284858331084251404e-02 -3.671968355774879456e-02 -2.387047931551933289e-02 -5.812746286392211914e-02
6.490000000000000000e+02 2.113819599151611328e+00 -2.074313640594482422e+00 -2.016294747591018677e-02 -2.023791521787643433e-02 -1.212025899440050125e-02 -2.256890572607517242e-02
6.500000000000000000e+02 1.276809334754943848e+00 -2.148032426834106445e+00 -7.152745034545660019e-03 -1.478411257266998291e-02 -6.581057328730821609e-03 -9.785768575966358185e-03
6.510000000000000000e+02 4.290827810764312744e-01 -2.197625160217285156e+00 -4.243453964591026306e-03 -1.499228645116090775e-03 -1.722804736346006393e-03 -3.290010150521993637e-03
6.520000000000000000e+02 1.921529889106750488e+00 -4.176570892333984375e+01 -2.941513806581497192e-02 -6.571304202079772949e-01 -2.059636712074279785e-01 8.450438268482685089e-03
6.530000000000000000e+02 1.369623541831970215e+00 -4.036468887329101562e+01 7.921622134745121002e-03 -6.722936630249023438e-01 -1.993116140365600586e-01 2.062717825174331665e-02
6.540000000000000000e+02 1.351261258125305176e+00 -3.896816635131835938e+01 1.262480020523071289e-02 -6.877973079681396484e-01 -2.025517523288726807e-01 1.054663956165313721e-02
6.550000000000000000e+02 9.953247904777526855e-01 -3.459039306640625000e+01 2.950792899355292320e-03 -6.921964883804321289e-01 -2.067736983299255371e-01 -3.181431675329804420e-04
6.560000000000000000e+02 8.894277215003967285e-01 -3.316801452636718750e+01 -3.392397891730070114e-03 -6.916120648384094238e-01 -2.085013389587402344e-01 -3.984494833275675774e-04
6.570000000000000000e+02 6.788983345031738281e-01 -2.893003654479980469e+01 5.535569973289966583e-03 -6.828934550285339355e-01 -2.032073587179183960e-01 -1.668934943154454231e-03
6.580000000000000000e+02 6.538708806037902832e-01 -2.752449798583984375e+01 -4.103158134967088699e-03 -6.766084432601928711e-01 -2.042134851217269897e-01 -4.538208246231079102e-03
6.590000000000000000e+02 6.444036960601806641e-01 -2.612249565124511719e+01 4.702830687165260315e-03 -6.665875315666198730e-01 -1.985654085874557495e-01 -4.123162012547254562e-03
6.600000000000000000e+02 6.401268839836120605e-01 -2.190889930725097656e+01 -2.988384803757071495e-03 -6.236930489540100098e-01 -1.880044341087341309e-01 -8.498455397784709930e-03
6.610000000000000000e+02 6.335733532905578613e-01 -2.050055122375488281e+01 4.502657335251569748e-03 -6.031244397163391113e-01 -1.795865297317504883e-01 -9.715719148516654968e-03
6.620000000000000000e+02 1.910568118095397949e+00 -2.032288551330566406e+01 -2.775831671897321939e-04 -5.320286750793457031e-01 -1.596918851137161255e-01 -3.007038682699203491e-02
6.630000000000000000e+02 5.902624726295471191e-01 -1.627830886840820312e+01 -3.598411334678530693e-03 -5.151467323303222656e-01 -1.556235402822494507e-01 -1.566632464528083801e-02
6.640000000000000000e+02 5.706539750099182129e-01 -1.487535285949707031e+01 5.574253387749195099e-03 -4.742271006107330322e-01 -1.405958533287048340e-01 -1.765374094247817993e-02
6.650000000000000000e+02 5.500879883766174316e-01 -1.347395896911621094e+01 -4.163742531090974808e-03 -4.268139004707336426e-01 -1.292932927608489990e-01 -1.969575509428977966e-02
6.660000000000000000e+02 1.660931229591369629e+00 -1.337298774719238281e+01 9.319625794887542725e-03 -3.830072879791259766e-01 -1.121062934398651123e-01 -5.877951905131340027e-02
6.670000000000000000e+02 4.902310371398925781e-01 -9.284525871276855469e+00 4.676917102187871933e-03 -2.479171156883239746e-01 -7.297205924987792969e-02 -2.292489074170589447e-02
6.680000000000000000e+02 4.777634143829345703e-01 -7.896030426025390625e+00 -4.917185287922620773e-03 -1.824254244565963745e-01 -5.620278045535087585e-02 -2.151419408619403839e-02
6.690000000000000000e+02 3.909127712249755859e+00 -2.953800678253173828e+00 -5.640297010540962219e-02 -3.785148262977600098e-02 -2.827633544802665710e-02 -7.361453026533126831e-02
6.700000000000000000e+02 4.054345607757568359e+00 -3.898752689361572266e+00 -5.853296443819999695e-02 -5.929185822606086731e-02 -3.534744679927825928e-02 -9.973238408565521240e-02
6.710000000000000000e+02 6.815968322753906250e+01 -3.752123641967773438e+01 2.015112787485122681e-01 7.230447292327880859e+00 2.229587554931640625e+00 1.340371817350387573e-01
6.720000000000000000e+02 1.223317718505859375e+01 -4.081282424926757812e+01 2.854711562395095825e-02 -1.794832795858383179e-01 -4.528085142374038696e-02 -4.666659981012344360e-03
6.730000000000000000e+02 7.607003784179687500e+01 4.055186462402343750e+01 1.526587754487991333e-01 4.375725746154785156e+00 1.358515381813049316e+00 -3.265047967433929443e-01
6.740000000000000000e+02 7.809487152099609375e+01 4.172988128662109375e+01 -2.581985592842102051e-01 3.577442169189453125e+00 9.957730770111083984e-01 7.199802249670028687e-02
6.750000000000000000e+02 7.773476409912109375e+01 3.789797973632812500e+01 2.163740098476409912e-01 3.917855501174926758e+00 1.240268826484680176e+00 -2.024069875478744507e-01
6.760000000000000000e+02 7.751787567138671875e+01 3.631275939941406250e+01 1.374830603599548340e-01 4.305617332458496094e+00 1.332930207252502441e+00 -3.424040079116821289e-01
6.770000000000000000e+02 7.918595123291015625e+01 3.481153488159179688e+01 -5.575411487370729446e-03 3.494977235794067383e+00 1.046820521354675293e+00 -1.574246436357498169e-01
6.780000000000000000e+02 7.773622894287109375e+01 3.324181365966796875e+01 4.359617456793785095e-02 4.568993091583251953e+00 1.383776664733886719e+00 -4.530046582221984863e-01
6.790000000000000000e+02 7.923388671875000000e+01 3.338747024536132812e+01 7.888299413025379181e-03 3.761389493942260742e+00 1.130783319473266602e+00 -1.582192778587341309e-01
6.800000000000000000e+02 7.933023071289062500e+01 3.056894493103027344e+01 3.133598482236266136e-03 4.387582778930664062e+00 1.317214965820312500e+00 -1.763166338205337524e-01
6.810000000000000000e+02 7.808834838867187500e+01 2.898802566528320312e+01 2.177891880273818970e-02 5.244975566864013672e+00 1.580026388168334961e+00 -5.014287829399108887e-01
6.820000000000000000e+02 7.938187408447265625e+01 2.639109611511230469e+01 7.750008371658623219e-04 5.519653797149658203e+00 1.656128644943237305e+00 -1.891025900840759277e-01
6.830000000000000000e+02 7.692398071289062500e+01 2.606390953063964844e+01 4.968839231878519058e-03 6.200512886047363281e+00 1.861644506454467773e+00 -7.800327539443969727e-01
6.840000000000000000e+02 7.938317871093750000e+01 2.500013732910156250e+01 1.351459650322794914e-04 5.912553787231445312e+00 1.773806691169738770e+00 -1.889975219964981079e-01
6.850000000000000000e+02 7.937529754638671875e+01 2.082174873352050781e+01 -1.555799506604671478e-03 7.032731533050537109e+00 2.109352827072143555e+00 -1.753816008567810059e-01
6.860000000000000000e+02 7.937464904785156250e+01 1.942906188964843750e+01 -6.081782281398773193e-03 7.368429660797119141e+00 2.208704233169555664e+00 -1.662905067205429077e-01
6.870000000000000000e+02 7.812371826171875000e+01 2.066548347473144531e+01 -1.968824863433837891e-02 7.134099483489990234e+00 2.134323358535766602e+00 -4.598401486873626709e-01
6.880000000000000000e+02 7.937604522705078125e+01 1.803767013549804688e+01 -2.825757488608360291e-03 7.679799556732177734e+00 2.303092002868652344e+00 -1.548537462949752808e-01
6.890000000000000000e+02 7.939136505126953125e+01 1.386502075195312500e+01 -7.262949831783771515e-03 8.453706741333007812e+00 2.533932924270629883e+00 -1.179100871086120605e-01
6.900000000000000000e+02 7.939720153808593750e+01 1.247336769104003906e+01 -2.656976226717233658e-03 8.658394813537597656e+00 2.596721172332763672e+00 -1.051638200879096985e-01
6.910000000000000000e+02 7.940070343017578125e+01 1.108156204223632812e+01 -6.577615160495042801e-03 8.837141990661621094e+00 2.649169206619262695e+00 -9.425219893455505371e-02
6.920000000000000000e+02 7.938404846191406250e+01 6.905954837799072266e+00 -1.077136141248047352e-03 9.233005523681640625e+00 2.769578456878662109e+00 -6.571897864341735840e-02
6.930000000000000000e+02 7.937014007568359375e+01 5.512125968933105469e+00 -5.811853799968957901e-03 9.323905944824218750e+00 2.795428276062011719e+00 -5.818569287657737732e-02
6.940000000000000000e+02 7.811143493652343750e+01 5.401774883270263672e+00 -1.513475552201271057e-02 9.082127571105957031e+00 2.720097780227661133e+00 -1.282429248094558716e-01
6.950000000000000000e+02 7.935478973388671875e+01 4.117413520812988281e+00 -6.481727468781173229e-04 9.397202491760253906e+00 2.818966388702392578e+00 -5.022953450679779053e-02
6.960000000000000000e+02 7.932836151123046875e+01 -6.705906987190246582e-02 -4.922431893646717072e-03 9.531057357788085938e+00 2.857840299606323242e+00 -3.167592734098434448e-02
6.970000000000000000e+02 7.933139038085937500e+01 -1.463197946548461914e+00 -5.991365178488194942e-04 9.553591728210449219e+00 2.865897893905639648e+00 -2.525304816663265228e-02
6.980000000000000000e+02 7.934900665283203125e+01 -4.254259586334228516e+00 -4.239368990965886042e-06 9.569169998168945312e+00 2.870749950408935547e+00 -1.457775197923183441e-02
6.990000000000000000e+02 7.937363433837890625e+01 -8.420780181884765625e+00 -5.365520250052213669e-03 9.527200698852539062e+00 2.856550455093383789e+00 -1.968043856322765350e-03
7.000000000000000000e+02 7.938181304931640625e+01 -1.119378280639648438e+01 -5.599376279860734940e-03 9.463705062866210938e+00 2.837431907653808594e+00 5.337761715054512024e-03
7.010000000000000000e+02 7.937794494628906250e+01 -1.535739326477050781e+01 2.555391751229763031e-03 9.323333740234375000e+00 2.797766685485839844e+00 1.588150300085544586e-02
7.020000000000000000e+02 7.936437225341796875e+01 -1.813798522949218750e+01 2.396162832155823708e-03 9.205477714538574219e+00 2.762362003326416016e+00 2.160759083926677704e-02
7.030000000000000000e+02 7.934325408935546875e+01 -2.370405960083007812e+01 2.611238043755292892e-03 8.939510345458984375e+00 2.682636499404907227e+00 2.771932445466518402e-02
7.040000000000000000e+02 7.934442138671875000e+01 -2.509626960754394531e+01 -3.050873754546046257e-03 8.870903968811035156e+00 2.660355806350708008e+00 2.772421389818191528e-02
7.050000000000000000e+02 7.934090423583984375e+01 -2.926048851013183594e+01 1.844751182943582535e-03 8.666766166687011719e+00 2.600583314895629883e+00 2.842594869434833527e-02
7.060000000000000000e+02 7.926699829101562500e+01 -3.203987121582031250e+01 3.532634582370519638e-03 8.542157173156738281e+00 2.563706874847412109e+00 2.711183018982410431e-02
7.070000000000000000e+02 7.902507019042968750e+01 -3.622424697875976562e+01 7.922238000901415944e-05 8.390796661376953125e+00 2.517262697219848633e+00 2.939630113542079926e-02
7.080000000000000000e+02 7.893959045410156250e+01 -3.762288284301757812e+01 1.051160972565412521e-02 8.353885650634765625e+00 2.509319067001342773e+00 2.230347879230976105e-02
7.090000000000000000e+02 7.879724884033203125e+01 -3.901947784423828125e+01 -2.525499276816844940e-02 8.319404602050781250e+00 2.488244771957397461e+00 3.111927397549152374e-02
7.100000000000000000e+02 7.810175323486328125e+01 -4.177204513549804688e+01 6.173589080572128296e-02 8.239365577697753906e+00 2.490330457687377930e+00 1.721871457993984222e-02
7.110000000000000000e+02 8.465451240539550781e+00 3.670624160766601562e+01 -3.251846414059400558e-03 -4.986536875367164612e-02 -1.593516394495964050e-02 -3.221531631425023079e-03
7.120000000000000000e+02 2.728007125854492188e+01 4.111217498779296875e+01 3.137106820940971375e-02 7.722714543342590332e-02 3.257946297526359558e-02 1.250566076487302780e-02
7.130000000000000000e+02 6.972955322265625000e+01 3.961617660522460938e+01 7.232503294944763184e-01 7.885385990142822266e+00 2.582590818405151367e+00 -2.325701117515563965e-01
7.140000000000000000e+02 3.817026913166046143e-01 2.210613965988159180e+00 -2.525155898183584213e-03 -2.124708704650402069e-02 -7.131672929972410202e-03 9.007607586681842804e-03
7.150000000000000000e+02 2.849667549133300781e+00 3.141431570053100586e+00 -3.018999285995960236e-02 -6.298647820949554443e-02 -2.795294113457202911e-02 8.806186169385910034e-02
7.160000000000000000e+02 4.954544544219970703e+00 2.670138597488403320e+00 -8.229533582925796509e-02 -6.068367883563041687e-02 -4.289370402693748474e-02 1.447066515684127808e-01
7.170000000000000000e+02 1.331150174140930176e+00 6.503816604614257812e+00 5.406628828495740891e-03 -1.617779135704040527e-01 -4.691138491034507751e-02 4.506700485944747925e-02
7.180000000000000000e+02 4.584588706493377686e-01 9.257527351379394531e+00 1.882513635791838169e-03 -2.535238564014434814e-01 -7.549239695072174072e-02 7.231152616441249847e-03
7.190000000000000000e+02 4.940594136714935303e-01 1.204901599884033203e+01 1.679584034718573093e-03 -2.748512029647827148e-01 -8.195148408412933350e-02 8.381625229958444834e-05
7.200000000000000000e+02 1.493112683296203613e+00 1.192580127716064453e+01 3.985154442489147186e-03 -2.313666343688964844e-01 -6.821444630622863770e-02 2.718040253967046738e-03
7.210000000000000000e+02 5.499956011772155762e-01 1.625479316711425781e+01 -8.400314836762845516e-04 -2.543523311614990234e-01 -7.655771076679229736e-02 -4.209874197840690613e-03
7.220000000000000000e+02 5.989034771919250488e-01 2.189770317077636719e+01 -1.801022444851696491e-03 -2.081939578056335449e-01 -6.299849599599838257e-02 -4.131885245442390442e-03
7.230000000000000000e+02 6.023280620574951172e-01 2.331009292602539062e+01 1.601827796548604965e-03 -1.981110721826553345e-01 -5.895277485251426697e-02 -4.432474263012409210e-03
7.240000000000000000e+02 1.815290689468383789e+00 2.310259437561035156e+01 -2.462656702846288681e-03 -1.738269329071044922e-01 -5.288687720894813538e-02 -1.082546357065439224e-02
7.250000000000000000e+02 6.018016934394836426e-01 2.471872711181640625e+01 -2.116091083735227585e-03 -1.893751919269561768e-01 -5.744738504290580750e-02 -3.232371993362903595e-03
7.260000000000000000e+02 6.284267902374267578e-01 2.893565750122070312e+01 1.740444451570510864e-03 -1.679291427135467529e-01 -4.985661059617996216e-02 -2.962195547297596931e-03
7.270000000000000000e+02 6.641474366188049316e-01 3.034744262695312500e+01 -1.806025742553174496e-03 -1.623999029397964478e-01 -4.926177859306335449e-02 -2.224125200882554054e-03
7.280000000000000000e+02 1.986846446990966797e+00 3.005281829833984375e+01 1.014709938317537308e-03 -1.444060504436492920e-01 -4.301740229129791260e-02 -6.548047997057437897e-03
7.290000000000000000e+02 7.107306718826293945e-01 3.175715637207031250e+01 1.390736666508018970e-03 -1.576585620641708374e-01 -4.688034951686859131e-02 -2.355011180043220520e-03
7.300000000000000000e+02 8.497387170791625977e-01 3.596919250488281250e+01 -1.000870834104716778e-03 -1.457580327987670898e-01 -4.402767121791839600e-02 -2.177782123908400536e-03
7.310000000000000000e+02 3.122647523880004883e+00 3.805847930908203125e+01 2.140360185876488686e-03 -1.194954812526702881e-01 -3.520653769373893738e-02 -5.060648079961538315e-03
7.320000000000000000e+02 1.108889222145080566e+00 3.872643280029296875e+01 2.110308705596253276e-04 -1.373373717069625854e-01 -4.113790020346641541e-02 -3.407201031222939491e-03
7.330000000000000000e+02 1.422253489494323730e+00 4.011827087402343750e+01 1.838925178162753582e-03 -1.322999000549316406e-01 -3.913829475641250610e-02 -4.870054777711629868e-03
7.340000000000000000e+02 9.095021247863769531e+00 1.793471574783325195e+00 -2.925826013088226318e-01 -2.256510853767395020e-01 -1.554701030254364014e-01 3.904428482055664062e-01
7.350000000000000000e+02 8.371611595153808594e+00 1.806661844253540039e+00 -3.079447448253631592e-01 -1.337406188249588013e-01 -1.325056105852127075e-01 3.164133727550506592e-01
7.360000000000000000e+02 7.652688026428222656e+00 1.816253185272216797e+00 -2.694243490695953369e-01 -9.578941017389297485e-02 -1.095641255378723145e-01 2.520397007465362549e-01
7.370000000000000000e+02 6.933634757995605469e+00 1.827134370803833008e+00 -2.266421914100646973e-01 -6.375694274902343750e-02 -8.711973577737808228e-02 2.039729356765747070e-01
7.380000000000000000e+02 4.779480934143066406e+00 1.895581841468811035e+00 -1.146455332636833191e-01 -3.636100143194198608e-02 -4.530196264386177063e-02 1.159337237477302551e-01
7.390000000000000000e+02 4.063116550445556641e+00 1.937779903411865234e+00 -8.630794286727905273e-02 -3.008625470101833344e-02 -3.491825982928276062e-02 9.509235620498657227e-02
7.400000000000000000e+02 3.343283891677856445e+00 1.994449973106384277e+00 -6.203527003526687622e-02 -3.202285617589950562e-02 -2.821743674576282501e-02 7.759419083595275879e-02
7.410000000000000000e+02 1.879050612449645996e+00 2.149888515472412109e+00 -2.402679435908794403e-02 -3.395035862922668457e-02 -1.739314571022987366e-02 4.132268950343132019e-02
7.420000000000000000e+02 1.136257767677307129e+00 2.202612876892089844e+00 -1.101887319236993790e-02 -2.960870414972305298e-02 -1.218827348202466965e-02 2.470351755619049072e-02
7.430000000000000000e+02 1.189213657379150391e+01 3.178944826126098633e+00 6.348964571952819824e-01 1.371986418962478638e-01 2.316285222768783569e-01 -2.019090503454208374e-01
7.440000000000000000e+02 1.365643119812011719e+01 2.576326370239257812e+00 5.617454648017883301e-01 2.805848360061645508e+00 1.010278224945068359e+00 -4.070533514022827148e-01
7.450000000000000000e+02 1.457793998718261719e+01 1.086032748222351074e+00 4.749600887298583984e+00 2.317620515823364258e+00 2.120166301727294922e+00 -2.836311817169189453e+00
7.460000000000000000e+02 1.507556247711181641e+01 8.762233257293701172e-01 7.839234352111816406e+00 8.813558220863342285e-01 2.616177082061767578e+00 -2.204889774322509766e+00
7.470000000000000000e+02 1.370923709869384766e+01 3.027400732040405273e+00 3.593790531158447266e-01 2.363649129867553711e+00 8.169084191322326660e-01 1.238567084074020386e-01
7.480000000000000000e+02 1.413628578186035156e+01 3.789122343063354492e+00 4.278194308280944824e-01 1.262527942657470703e+00 5.071042180061340332e-01 5.914726853370666504e-01
7.490000000000000000e+02 1.530246353149414062e+01 4.936867713928222656e+00 2.304363101720809937e-01 3.204727768898010254e-01 1.652727276086807251e-01 2.951317727565765381e-01
7.500000000000000000e+02 1.468765258789062500e+01 4.993508338928222656e+00 2.166998982429504395e-01 5.584200024604797363e-01 2.325359731912612915e-01 3.668818473815917969e-01
7.510000000000000000e+02 1.581799793243408203e+01 5.544350624084472656e+00 2.329048514366149902e-01 3.806158304214477539e-01 1.840562075376510620e-01 2.950772643089294434e-01
7.520000000000000000e+02 1.556652164459228516e+01 5.234062671661376953e+00 2.151731699705123901e-01 3.498429656028747559e-01 1.695048362016677856e-01 2.785301804542541504e-01
7.530000000000000000e+02 1.720943641662597656e+01 6.993026256561279297e+00 2.149567753076553345e-01 2.383934557437896729e-01 1.360050737857818604e-01 2.262655198574066162e-01
7.540000000000000000e+02 1.775023269653320312e+01 7.581192493438720703e+00 1.969865113496780396e-01 2.418231964111328125e-01 1.316429078578948975e-01 2.162884920835494995e-01
7.550000000000000000e+02 1.829499435424804688e+01 8.174786567687988281e+00 2.038361281156539917e-01 2.484895735979080200e-01 1.356977075338363647e-01 2.196003645658493042e-01
7.560000000000000000e+02 1.891973876953125000e+01 9.285938262939453125e+00 1.865998506546020508e-01 2.172207683324813843e-01 1.211461871862411499e-01 1.932969838380813599e-01
7.570000000000000000e+02 1.858263778686523438e+01 8.456645965576171875e+00 2.119421958923339844e-01 2.408816665410995483e-01 1.358471512794494629e-01 2.233329415321350098e-01
7.580000000000000000e+02 1.916391181945800781e+01 9.015462875366210938e+00 2.158423811197280884e-01 2.009120136499404907e-01 1.250263154506683350e-01 2.075981944799423218e-01
7.590000000000000000e+02 1.908761596679687500e+01 1.021007156372070312e+01 1.534508019685745239e-01 2.046097368001937866e-01 1.074181646108627319e-01 1.839777976274490356e-01
7.600000000000000000e+02 1.973892402648925781e+01 9.571982383728027344e+00 1.787264198064804077e-01 1.698398739099502563e-01 1.045698896050453186e-01 1.804083734750747681e-01
7.610000000000000000e+02 2.030172538757324219e+01 1.013855457305908203e+01 1.575860679149627686e-01 1.799870878458023071e-01 1.012719497084617615e-01 1.731472015380859375e-01
7.620000000000000000e+02 2.058114624023437500e+01 1.042808151245117188e+01 1.610793322324752808e-01 1.915590316057205200e-01 1.057915091514587402e-01 1.746129095554351807e-01
7.630000000000000000e+02 2.002138137817382812e+01 9.852996826171875000e+00 1.648251414299011230e-01 1.730544567108154297e-01 1.013638749718666077e-01 1.721266508102416992e-01
7.640000000000000000e+02 1.971017646789550781e+01 1.019073104858398438e+01 1.620098650455474854e-01 1.861912757158279419e-01 1.044603362679481506e-01 1.843705326318740845e-01
7.650000000000000000e+02 2.086078834533691406e+01 1.071770000457763672e+01 1.668068766593933105e-01 1.940110027790069580e-01 1.082453578710556030e-01 1.789603829383850098e-01
7.660000000000000000e+02 2.199281692504882812e+01 1.184887504577636719e+01 1.547672152519226074e-01 1.681853234767913818e-01 9.688576310873031616e-02 1.639775037765502930e-01
7.670000000000000000e+02 2.254150581359863281e+01 1.242383861541748047e+01 1.507123708724975586e-01 1.740508526563644409e-01 9.742897003889083862e-02 1.632169485092163086e-01
7.680000000000000000e+02 2.281299018859863281e+01 1.271542930603027344e+01 1.549744904041290283e-01 1.770989447832107544e-01 9.962203353643417358e-02 1.637743413448333740e-01
7.690000000000000000e+02 2.308606529235839844e+01 1.300688552856445312e+01 1.584294140338897705e-01 1.746827512979507446e-01 9.993365406990051270e-02 1.656953841447830200e-01
7.700000000000000000e+02 2.336240196228027344e+01 1.329630279541015625e+01 1.630978286266326904e-01 1.706300675868988037e-01 1.001183614134788513e-01 1.638138592243194580e-01
7.710000000000000000e+02 2.364245796203613281e+01 1.358269977569580078e+01 1.641660183668136597e-01 1.622694283723831177e-01 9.793063253164291382e-02 1.620775163173675537e-01
7.720000000000000000e+02 2.392630004882812500e+01 1.386564922332763672e+01 1.648547351360321045e-01 1.540393084287643433e-01 9.566821157932281494e-02 1.563668698072433472e-01
7.730000000000000000e+02 2.421361732482910156e+01 1.414447402954101562e+01 1.595565229654312134e-01 1.429665982723236084e-01 9.075693786144256592e-02 1.508696675300598145e-01
7.740000000000000000e+02 2.508362960815429688e+01 1.496636962890625000e+01 1.331002563238143921e-01 1.274037808179855347e-01 7.815121114253997803e-02 1.315571069717407227e-01
7.750000000000000000e+02 2.565489959716796875e+01 1.552926349639892578e+01 1.244863420724868774e-01 1.339993327856063843e-01 7.754570245742797852e-02 1.294891089200973511e-01
7.760000000000000000e+02 2.593608856201171875e+01 1.581605720520019531e+01 1.235874891281127930e-01 1.368537843227386475e-01 7.813238352537155151e-02 1.316254436969757080e-01
7.770000000000000000e+02 2.649665641784667969e+01 1.639161109924316406e+01 1.276751160621643066e-01 1.388761401176452637e-01 7.996537536382675171e-02 1.334574967622756958e-01
7.780000000000000000e+02 2.706303405761718750e+01 1.696135711669921875e+01 1.314107626676559448e-01 1.332782655954360962e-01 7.940670847892761230e-02 1.321836858987808228e-01
7.790000000000000000e+02 2.735036087036132812e+01 1.724188041687011719e+01 1.327728480100631714e-01 1.291635483503341675e-01 7.858092337846755981e-02 1.285409778356552124e-01
7.800000000000000000e+02 2.764001083374023438e+01 1.751964950561523438e+01 1.295528709888458252e-01 1.223889514803886414e-01 7.558254897594451904e-02 1.264694780111312866e-01
7.810000000000000000e+02 2.822200965881347656e+01 1.807098007202148438e+01 1.223592162132263184e-01 1.134598031640052795e-01 7.074570655822753906e-02 1.194192618131637573e-01
7.820000000000000000e+02 2.793091964721679688e+01 1.779561233520507812e+01 1.277649551630020142e-01 1.184895485639572144e-01 7.387635111808776855e-02 1.213882565498352051e-01
7.830000000000000000e+02 2.851247596740722656e+01 1.834679412841796875e+01 1.206567957997322083e-01 1.120613515377044678e-01 6.981544196605682373e-02 1.148252263665199280e-01
7.840000000000000000e+02 2.937460708618164062e+01 1.918151855468750000e+01 1.088104471564292908e-01 1.050180941820144653e-01 6.414856016635894775e-02 1.098664849996566772e-01
7.850000000000000000e+02 2.965650939941406250e+01 1.946831130981445312e+01 1.089005097746849060e-01 1.058074608445167542e-01 6.441239267587661743e-02 1.050412729382514954e-01
7.860000000000000000e+02 2.993575286865234375e+01 1.976283645629882812e+01 1.028943359851837158e-01 1.025984287261962891e-01 6.164782866835594177e-02 1.063312068581581116e-01
7.870000000000000000e+02 3.079335594177246094e+01 2.066382026672363281e+01 1.037240847945213318e-01 1.037193909287452698e-01 6.223304197192192078e-02 9.950614720582962036e-02
7.880000000000000000e+02 3.174304389953613281e+01 2.200622940063476562e+01 7.885284721851348877e-02 9.069527685642242432e-02 5.086443573236465454e-02 9.175217151641845703e-02
7.890000000000000000e+02 3.256918716430664062e+01 2.225741195678710938e+01 7.150253653526306152e-02 8.977033197879791260e-02 4.838186129927635193e-02 8.025104552507400513e-02
7.900000000000000000e+02 3.283337402343750000e+01 2.255322456359863281e+01 6.925756484270095825e-02 9.546585381031036377e-02 4.941702634096145630e-02 8.496129512786865234e-02
7.910000000000000000e+02 3.309430694580078125e+01 2.285194206237792969e+01 7.592087239027023315e-02 1.036761105060577393e-01 5.387909337878227234e-02 8.498820662498474121e-02
7.920000000000000000e+02 3.229606628417968750e+01 2.255265235900878906e+01 7.466128468513488770e-02 9.009400755167007446e-02 4.942658916115760803e-02 8.954493701457977295e-02
7.930000000000000000e+02 3.362252044677734375e+01 2.344114875793457031e+01 7.999172061681747437e-02 1.016915962100028992e-01 5.450499430298805237e-02 8.527802675962448120e-02
7.940000000000000000e+02 3.388387298583984375e+01 2.373408889770507812e+01 7.122582197189331055e-02 9.542348980903625488e-02 4.999479278922080994e-02 8.806072920560836792e-02
7.950000000000000000e+02 3.420722961425781250e+01 2.487758827209472656e+01 7.088928669691085815e-02 9.787930548191070557e-02 5.063057690858840942e-02 8.791293203830718994e-02
7.960000000000000000e+02 3.443399810791015625e+01 2.521133804321289062e+01 7.657565921545028687e-02 1.017838418483734131e-01 5.350784957408905029e-02 8.264199644327163696e-02
7.970000000000000000e+02 3.470352935791015625e+01 2.553521728515625000e+01 7.006129622459411621e-02 1.001749187707901001e-01 5.107086151838302612e-02 8.577230572700500488e-02
7.980000000000000000e+02 3.510267257690429688e+01 2.529350662231445312e+01 8.056479692459106445e-02 1.041504517197608948e-01 5.541457235813140869e-02 8.637362718582153320e-02
7.990000000000000000e+02 3.590448760986328125e+01 2.620766258239746094e+01 6.528273969888687134e-02 9.276463836431503296e-02 4.741421341896057129e-02 8.481042087078094482e-02
8.000000000000000000e+02 3.666672134399414062e+01 2.713341140747070312e+01 8.047572523355484009e-02 1.075899526476860046e-01 5.641970410943031311e-02 8.347520977258682251e-02
8.010000000000000000e+02 3.693251037597656250e+01 2.743809509277343750e+01 7.390117645263671875e-02 1.023110747337341309e-01 5.286367610096931458e-02 9.365554153919219971e-02
8.020000000000000000e+02 3.747480392456054688e+01 2.804071426391601562e+01 8.009938150644302368e-02 9.326214343309402466e-02 5.200845748186111450e-02 9.307884424924850464e-02
8.030000000000000000e+02 3.885816574096679688e+01 2.950996971130371094e+01 8.611071109771728516e-02 8.515723049640655518e-02 5.138038098812103271e-02 7.427805662155151367e-02
8.040000000000000000e+02 3.801758193969726562e+01 2.862879180908203125e+01 7.898342609405517578e-02 8.421108126640319824e-02 4.895835369825363159e-02 8.866865932941436768e-02
8.050000000000000000e+02 3.774522018432617188e+01 2.833779144287109375e+01 8.982218056917190552e-02 9.479349106550216675e-02 5.538469925522804260e-02 8.303475379943847656e-02
8.060000000000000000e+02 3.971538543701171875e+01 3.040353393554687500e+01 7.818507403135299683e-02 6.987948715686798096e-02 4.441937059164047241e-02 8.750201761722564697e-02
8.070000000000000000e+02 4.034534072875976562e+01 3.094159507751464844e+01 8.026643842458724976e-02 6.385301798582077026e-02 4.323583841323852539e-02 8.428964018821716309e-02
8.080000000000000000e+02 4.001950836181640625e+01 3.068530464172363281e+01 9.077818691730499268e-02 8.428677916526794434e-02 5.251948907971382141e-02 7.191412895917892456e-02
8.090000000000000000e+02 4.099845123291015625e+01 3.142778015136718750e+01 7.857877016067504883e-02 5.670307949185371399e-02 4.058455303311347961e-02 8.134097605943679810e-02
8.100000000000000000e+02 4.074929428100585938e+01 3.181055259704589844e+01 8.360678702592849731e-02 8.008111268281936646e-02 4.910637065768241882e-02 6.878522038459777832e-02
8.110000000000000000e+02 4.161528396606445312e+01 3.193676376342773438e+01 7.764197140932083130e-02 5.406652018427848816e-02 3.951254859566688538e-02 8.074407279491424561e-02
8.120000000000000000e+02 4.191183471679687500e+01 3.220741271972656250e+01 8.749230206012725830e-02 7.511983066797256470e-02 4.878364130854606628e-02 6.481914222240447998e-02
8.130000000000000000e+02 4.220994567871093750e+01 3.248328018188476562e+01 7.960049062967300415e-02 5.208916589617729187e-02 3.950689733028411865e-02 7.937597483396530151e-02
8.140000000000000000e+02 4.251929855346679688e+01 3.274308395385742188e+01 8.962994813919067383e-02 7.279338687658309937e-02 4.872700199484825134e-02 6.429935246706008911e-02
8.150000000000000000e+02 4.284101104736328125e+01 3.298294067382812500e+01 8.135689795017242432e-02 4.859926924109458923e-02 3.898685052990913391e-02 7.899180799722671509e-02
8.160000000000000000e+02 4.347448730468750000e+01 3.347848129272460938e+01 7.956950366497039795e-02 4.284826666116714478e-02 3.672533109784126282e-02 7.581007480621337891e-02
8.170000000000000000e+02 4.408208084106445312e+01 3.398447799682617188e+01 7.322826981544494629e-02 3.984781727194786072e-02 3.392282500863075256e-02 7.508023083209991455e-02
8.180000000000000000e+02 4.502168655395507812e+01 3.474150466918945312e+01 9.442271292209625244e-02 7.017596065998077393e-02 4.937960207462310791e-02 3.886982053518295288e-02
8.190000000000000000e+02 4.758238983154296875e+01 3.679365539550781250e+01 -2.340626157820224762e-02 6.573377549648284912e-02 1.269825361669063568e-02 3.510650247335433960e-03
8.200000000000000000e+02 4.835358810424804688e+01 3.716838455200195312e+01 -1.741719841957092285e-01 8.537087589502334595e-02 -2.664033509790897369e-02 -3.057674691081047058e-02
8.210000000000000000e+02 5.026850509643554688e+01 3.770708465576171875e+01 -6.432688832283020020e-01 -2.445134371519088745e-01 -2.663346827030181885e-01 -1.064464300870895386e-01
8.220000000000000000e+02 4.994058227539062500e+01 3.793436050415039062e+01 -5.749354362487792969e-01 -4.475065320730209351e-02 -1.859058290719985962e-01 -3.756045550107955933e-02
8.230000000000000000e+02 5.057182312011718750e+01 3.811585998535156250e+01 -8.469529747962951660e-01 4.912824556231498718e-02 -2.393474280834197998e-01 -2.226636856794357300e-01
8.240000000000000000e+02 5.084015274047851562e+01 3.825261306762695312e+01 -1.152204990386962891e+00 -2.426872551441192627e-01 -4.184677004814147949e-01 -1.289359033107757568e-01
8.250000000000000000e+02 5.089458465576171875e+01 3.799327087402343750e+01 -1.047693967819213867e+00 -2.607883810997009277e-01 -3.925447165966033936e-01 -3.016850054264068604e-01
8.260000000000000000e+02 5.377693176269531250e+01 3.779879760742187500e+01 1.663580536842346191e+00 1.021973705291748047e+01 3.564995288848876953e+00 -3.278384447097778320e+00
8.270000000000000000e+02 5.585686111450195312e+01 3.713515853881835938e+01 -3.518652021884918213e-01 1.718731498718261719e+01 5.050634860992431641e+00 -2.597735404968261719e+00
8.280000000000000000e+02 5.573512649536132812e+01 3.684424591064453125e+01 -4.315016865730285645e-01 1.791300582885742188e+01 5.244451045989990234e+00 -3.577462196350097656e+00
8.290000000000000000e+02 5.501973724365234375e+01 3.702415466308593750e+01 7.365234494209289551e-01 1.187380218505859375e+01 3.783097743988037109e+00 -4.935031414031982422e+00
8.300000000000000000e+02 5.523589324951171875e+01 3.351332473754882812e+01 3.334623813629150391e+00 1.449481678009033203e+01 5.348832130432128906e+00 6.865607738494873047e+00
8.310000000000000000e+02 5.609278106689453125e+01 3.354535293579101562e+01 2.407060146331787109e+00 2.000240135192871094e+01 6.722838401794433594e+00 2.798906564712524414e+00
8.320000000000000000e+02 5.629512786865234375e+01 3.364289474487304688e+01 3.131349563598632812e+00 2.058421325683593750e+01 7.114668846130371094e+00 1.287100553512573242e+00
8.330000000000000000e+02 5.686520385742187500e+01 3.401582336425781250e+01 6.177919864654541016e+00 1.930402374267578125e+01 7.644582748413085938e+00 -1.229629039764404297e+00
8.340000000000000000e+02 5.708494186401367188e+01 3.461573410034179688e+01 1.015423107147216797e+01 1.781691932678222656e+01 8.391345024108886719e+00 -8.620722293853759766e-01
8.350000000000000000e+02 5.716582870483398438e+01 3.499934768676757812e+01 1.074537849426269531e+01 1.720914459228515625e+01 8.386357307434082031e+00 7.635908126831054688e-01
8.360000000000000000e+02 5.718768310546875000e+01 3.519765472412109375e+01 1.070626735687255859e+01 1.709220504760742188e+01 8.339541435241699219e+00 1.729345560073852539e+00
8.370000000000000000e+02 5.743643188476562500e+01 3.665512084960937500e+01 3.464218854904174805e+00 1.753304290771484375e+01 6.299178600311279297e+00 3.263402938842773438e+00
8.380000000000000000e+02 5.274011611938476562e+01 3.285429382324218750e+01 2.635776758193969727e+00 2.649013757705688477e+00 1.585437178611755371e+00 2.955270767211914062e+00
8.390000000000000000e+02 2.449004173278808594e+01 -3.104982137680053711e+00 -2.450081259012222290e-01 -2.213827967643737793e-01 -1.399172842502593994e-01 2.369514107704162598e-01
8.400000000000000000e+02 2.834926223754882812e+01 -7.305473804473876953e+00 -2.649779319763183594e-01 -3.710208237171173096e-01 -1.907996386289596558e-01 2.970950603485107422e-01
8.410000000000000000e+02 3.000731468200683594e+01 -7.843544006347656250e+00 -1.765705347061157227e-01 -2.346290796995162964e-01 -1.233598887920379639e-01 1.719921827316284180e-01
8.420000000000000000e+02 2.918310356140136719e+01 -8.386290550231933594e+00 -2.277286201715469360e-01 -4.377030730247497559e-01 -1.996295005083084106e-01 2.941397428512573242e-01
8.430000000000000000e+02 3.149535369873046875e+01 -1.009093666076660156e+01 -1.234690919518470764e-01 -1.157911643385887146e-01 -7.177807390689849854e-02 1.504002064466476440e-01
8.440000000000000000e+02 3.351427841186523438e+01 -1.536962223052978516e+01 -7.111402601003646851e-02 -3.029443323612213135e-02 -3.042253851890563965e-02 8.174602687358856201e-02
8.450000000000000000e+02 3.493174743652343750e+01 -1.773022651672363281e+01 -1.012426801025867462e-02 1.813418418169021606e-01 5.136527121067047119e-02 -2.873082272708415985e-02
8.460000000000000000e+02 3.633209991455078125e+01 -2.011239433288574219e+01 5.908242240548133850e-02 4.488542973995208740e-01 1.523810178041458130e-01 -1.604643762111663818e-01
8.470000000000000000e+02 3.766982269287109375e+01 -2.252154350280761719e+01 1.239408105611801147e-01 7.021129727363586426e-01 2.478161305189132690e-01 -3.002048134803771973e-01
8.480000000000000000e+02 3.907416534423828125e+01 -2.488132476806640625e+01 2.531704902648925781e-01 1.090910553932189941e+00 4.032243192195892334e-01 -5.110645890235900879e-01
8.490000000000000000e+02 4.058582305908203125e+01 -2.214196586608886719e+01 -1.567110605537891388e-02 1.794866800308227539e+00 5.337586998939514160e-01 -4.477515220642089844e-01
8.500000000000000000e+02 4.219604873657226562e+01 -2.762104988098144531e+01 2.491946518421173096e-01 2.527702331542968750e+00 8.330690860748291016e-01 -8.801085948944091797e-01
8.510000000000000000e+02 4.191636276245117188e+01 -2.955518531799316406e+01 6.372382044792175293e-01 2.373624324798583984e+00 9.032588005065917969e-01 -1.175141096115112305e+00
8.520000000000000000e+02 4.332476043701171875e+01 -3.184739685058593750e+01 8.195199966430664062e-01 3.883440017700195312e+00 1.410887956619262695e+00 -1.720145940780639648e+00
8.530000000000000000e+02 4.393437194824218750e+01 -3.291080856323242188e+01 9.003967046737670898e-01 5.703938484191894531e+00 1.981300592422485352e+00 -1.781747221946716309e+00
8.540000000000000000e+02 4.506936645507812500e+01 -3.626905059814453125e+01 7.109669446945190430e-01 7.564009666442871094e+00 2.482492923736572266e+00 2.016327530145645142e-01
8.550000000000000000e+02 3.820709609985351562e+01 -3.876095581054687500e+01 5.148467421531677246e-01 2.273535579442977905e-01 2.226600944995880127e-01 -5.948430895805358887e-01
8.560000000000000000e+02 3.650506591796875000e+01 -3.671973037719726562e+01 1.628478020429611206e-01 2.968955934047698975e-01 1.379230171442031860e-01 -4.482466280460357666e-01
8.570000000000000000e+02 3.450130844116210938e+01 -3.474116516113281250e+01 3.102640211582183838e-01 3.208167254924774170e-01 1.893242299556732178e-01 -3.541003465652465820e-01
8.580000000000000000e+02 3.366204071044921875e+01 -3.363488006591796875e+01 3.507115542888641357e-01 4.208824634552001953e-01 2.314781993627548218e-01 -2.843004763126373291e-01
8.590000000000000000e+02 3.053190803527832031e+01 -2.907517814636230469e+01 1.867935061454772949e-01 5.710406303405761719e-01 2.273502498865127563e-01 -2.793567180633544922e-01
8.600000000000000000e+02 3.117965316772460938e+01 -3.032966232299804688e+01 1.712360680103302002e-01 5.668641924858093262e-01 2.214300781488418579e-01 -3.333355188369750977e-01
8.610000000000000000e+02 2.690989494323730469e+01 -2.157755851745605469e+01 1.355374455451965332e-01 5.135715603828430176e-01 1.947327107191085815e-01 -2.532271444797515869e-01
8.620000000000000000e+02 2.500811004638671875e+01 -2.100191497802734375e+01 1.297966241836547852e-01 4.486559331417083740e-01 1.735357791185379028e-01 -2.428554892539978027e-01
8.630000000000000000e+02 2.751573753356933594e+01 -2.281254959106445312e+01 1.145272627472877502e-01 5.213195085525512695e-01 1.907540261745452881e-01 -2.634467482566833496e-01
8.640000000000000000e+02 2.502974700927734375e+01 -1.791093254089355469e+01 1.320316046476364136e-01 4.619461894035339355e-01 1.781933456659317017e-01 -2.616775631904602051e-01
8.650000000000000000e+02 2.285449790954589844e+01 -1.438515949249267578e+01 1.887138187885284424e-01 5.085724592208862305e-01 2.091858834028244019e-01 -2.970220446586608887e-01
8.660000000000000000e+02 2.085386466979980469e+01 -1.071331214904785156e+01 1.668881028890609741e-01 5.875130295753479004e-01 2.263203412294387817e-01 -2.972598671913146973e-01
8.670000000000000000e+02 2.027758407592773438e+01 -9.447555541992187500e+00 1.550229191780090332e-01 6.821980476379394531e-01 2.511662840843200684e-01 -2.877814173698425293e-01
8.680000000000000000e+02 1.779364395141601562e+01 -2.830528259277343750e+00 -1.761123836040496826e-01 9.300088137388229370e-02 -2.493344992399215698e-02 -1.416694670915603638e-01
8.690000000000000000e+02 4.457013320922851562e+01 2.551091957092285156e+01 5.876352190971374512e-01 7.038983106613159180e-01 3.874600529670715332e-01 6.374024748802185059e-01
8.700000000000000000e+02 4.428843307495117188e+01 2.522792625427246094e+01 5.607282519340515137e-01 6.402969956398010254e-01 3.603075742721557617e-01 5.923481583595275879e-01
8.710000000000000000e+02 4.370900726318359375e+01 2.467723846435546875e+01 4.644106626510620117e-01 4.889622032642364502e-01 2.860118448734283447e-01 4.743929207324981689e-01
8.720000000000000000e+02 4.400100326538085938e+01 2.495011711120605469e+01 5.184115171432495117e-01 5.639028549194335938e-01 3.246943056583404541e-01 5.359068512916564941e-01
8.730000000000000000e+02 4.282178115844726562e+01 2.387243080139160156e+01 2.902403473854064941e-01 3.147626221179962158e-01 1.815008968114852905e-01 3.051261305809020996e-01
8.740000000000000000e+02 3.126626014709472656e+01 1.178127861022949219e+01 -7.703830599784851074e-01 -6.874378323554992676e-01 -4.373462796211242676e-01 -7.215738296508789062e-01
8.750000000000000000e+02 5.587922286987304688e+01 3.347779464721679688e+01 2.284066915512084961e+00 1.900375556945800781e+01 6.386346340179443359e+00 3.954813718795776367e+00
8.760000000000000000e+02 5.705434036254882812e+01 3.442123031616210938e+01 8.770501136779785156e+00 1.823063468933105469e+01 8.100340843200683594e+00 -1.328537464141845703e+00
8.770000000000000000e+02 5.744677734375000000e+01 3.579487228393554688e+01 7.870996952056884766e+00 1.728661155700683594e+01 7.547282695770263672e+00 3.283581018447875977e+00
8.780000000000000000e+02 5.422692871093750000e+01 3.811294937133789062e+01 1.879859566688537598e+00 8.441189765930175781e+00 3.096314907073974609e+00 -3.123639583587646484e+00
8.790000000000000000e+02 5.698274230957031250e+01 3.422139739990234375e+01 7.643444538116455078e+00 1.869376182556152344e+01 7.901162147521972656e+00 -1.381689786911010742e+00
8.800000000000000000e+02 5.637575531005859375e+01 3.705686187744140625e+01 4.995205998420715332e-02 1.890346527099609375e+01 5.686025619506835938e+00 -6.087537854909896851e-02
8.810000000000000000e+02 5.712476730346679688e+01 3.579955673217773438e+01 8.236023902893066406e+00 1.831040000915527344e+01 7.963927268981933594e+00 3.997146606445312500e+00
8.820000000000000000e+02 5.715347290039062500e+01 3.559601211547851562e+01 9.283424377441406250e+00 1.786104393005371094e+01 8.143340110778808594e+00 3.443974494934082031e+00
8.830000000000000000e+02 5.670393371582031250e+01 3.384491729736328125e+01 5.024056911468505859e+00 1.994413566589355469e+01 7.490457534790039062e+00 -6.662566661834716797e-01
8.840000000000000000e+02 5.712784194946289062e+01 3.480551147460937500e+01 1.056436157226562500e+01 1.748169136047363281e+01 8.413815498352050781e+00 -8.064439892768859863e-02
8.850000000000000000e+02 5.717991256713867188e+01 3.539676666259765625e+01 9.968001365661621094e+00 1.744619750976562500e+01 8.224259376525878906e+00 2.682758092880249023e+00
8.860000000000000000e+02 5.503104782104492188e+01 3.356620788574218750e+01 3.937585592269897461e+00 1.260029506683349609e+01 4.961364269256591797e+00 7.318891048431396484e+00
8.870000000000000000e+02 5.403488922119140625e+01 3.387430191040039062e+01 4.400796890258789062e+00 3.642559528350830078e+00 2.413006782531738281e+00 4.392083168029785156e+00
8.880000000000000000e+02 5.442429351806640625e+01 3.373554992675781250e+01 4.935709953308105469e+00 6.338457107543945312e+00 3.382250308990478516e+00 6.106928348541259766e+00
8.890000000000000000e+02 5.522108078002929688e+01 3.744165039062500000e+01 2.728869318962097168e-01 1.296455097198486328e+01 3.971231460571289062e+00 -4.014492988586425781e+00
8.900000000000000000e+02 5.518275833129882812e+01 3.694283676147460938e+01 4.740133583545684814e-01 1.374190711975097656e+01 4.264776229858398438e+00 -5.084651947021484375e+00
8.910000000000000000e+02 5.460564804077148438e+01 3.718868255615234375e+01 9.815957546234130859e-01 8.488865852355957031e+00 2.841138362884521484e+00 -4.287096977233886719e+00
8.920000000000000000e+02 5.198670196533203125e+01 3.283264923095703125e+01 1.874851346015930176e+00 2.544432163238525391e+00 1.325785040855407715e+00 2.183677673339843750e+00
8.930000000000000000e+02 5.422733306884765625e+01 3.379928588867187500e+01 4.887393474578857422e+00 4.778381824493408203e+00 2.899732589721679688e+00 5.318792819976806641e+00
8.940000000000000000e+02 5.421768569946289062e+01 3.725674057006835938e+01 8.390963673591613770e-01 6.634895801544189453e+00 2.242197751998901367e+00 -3.477530479431152344e+00
8.950000000000000000e+02 5.347899246215820312e+01 3.412332153320312500e+01 2.530690670013427734e+00 9.841147065162658691e-01 1.054441571235656738e+00 2.115040063858032227e+00
8.960000000000000000e+02 5.220800781250000000e+01 3.317019653320312500e+01 1.582573413848876953e+00 2.132765531539916992e+00 1.114601612091064453e+00 1.846140503883361816e+00
8.970000000000000000e+02 5.364210510253906250e+01 3.403357696533203125e+01 3.169626474380493164e+00 1.724947094917297363e+00 1.468372106552124023e+00 2.786663770675659180e+00
8.980000000000000000e+02 2.936516189575195312e+01 5.367628574371337891e+00 -3.142583370208740234e-01 -8.808662742376327515e-02 -1.207034885883331299e-01 -2.828826904296875000e-01
8.990000000000000000e+02 2.810076332092285156e+01 4.914896488189697266e+00 -3.509258031845092773e-01 -2.751761376857757568e-01 -1.878305971622467041e-01 -2.789445221424102783e-01
9.000000000000000000e+02 2.841363334655761719e+01 4.750402450561523438e+00 -3.259677886962890625e-01 -2.246092259883880615e-01 -1.651731133460998535e-01 -2.520082890987396240e-01
9.010000000000000000e+02 2.775418853759765625e+01 4.723653316497802734e+00 -3.616417646408081055e-01 -2.852510213851928711e-01 -1.940678358078002930e-01 -2.939003407955169678e-01
9.020000000000000000e+02 2.620027542114257812e+01 3.787313461303710938e+00 -3.980213105678558350e-01 -2.505070269107818604e-01 -1.945585012435913086e-01 -2.983668744564056396e-01
9.030000000000000000e+02 2.092765808105468750e+01 4.449495971202850342e-01 -1.057010293006896973e+00 -2.275957018136978149e-01 -3.853817880153656006e-01 -2.621514499187469482e-01
9.040000000000000000e+02 2.176435470581054688e+01 9.613614082336425781e-01 -8.075811266899108887e-01 -2.027465403079986572e-01 -3.030982911586761475e-01 -2.697054147720336914e-01
9.050000000000000000e+02 2.119950866699218750e+01 -8.760837912559509277e-01 -1.951546311378479004e+00 -2.445962280035018921e-01 -6.588428020477294922e-01 3.784488737583160400e-01
9.060000000000000000e+02 1.934747505187988281e+01 -4.937041103839874268e-01 -1.400223851203918457e+00 4.823619425296783447e-01 -2.753585577011108398e-01 -3.907974064350128174e-01
9.070000000000000000e+02 1.979375839233398438e+01 -3.311472833156585693e-01 -1.795378446578979492e+00 1.763069480657577515e-01 -4.857214391231536865e-01 -2.545240335166454315e-02
9.080000000000000000e+02 1.956970787048339844e+01 -7.556527853012084961e-01 -1.183721184730529785e+00 6.802995800971984863e-01 -1.510265022516250610e-01 -3.509739935398101807e-01
9.090000000000000000e+02 1.996327400207519531e+01 -7.067492008209228516e-01 -1.713186621665954590e+00 1.620090901851654053e-01 -4.653532505035400391e-01 -3.141995370388031006e-01
9.100000000000000000e+02 1.846912574768066406e+01 -1.336036324501037598e+00 -1.045985937118530273e+00 3.448651731014251709e-01 -2.103362381458282471e-01 -5.469718575477600098e-01
9.110000000000000000e+02 1.919313049316406250e+01 -2.742939233779907227e+00 1.949980705976486206e-01 1.346908688545227051e+00 4.625720381736755371e-01 3.211760222911834717e-01
9.120000000000000000e+02 1.715612602233886719e+01 -1.884367704391479492e+00 -8.962702155113220215e-01 -3.176469802856445312e-01 -3.641751706600189209e-01 -3.931597471237182617e-01
9.130000000000000000e+02 2.742258644104003906e+01 4.509244441986083984e+00 -3.689767122268676758e-01 -2.820587456226348877e-01 -1.953106373548507690e-01 -2.996694147586822510e-01
9.140000000000000000e+02 2.231865119934082031e+01 1.306599378585815430e+00 -6.611902713775634766e-01 -1.798048168420791626e-01 -2.522985339164733887e-01 -2.924310564994812012e-01
9.150000000000000000e+02 2.194960975646972656e+01 4.907587766647338867e-01 -9.071378707885742188e-01 -1.869094818830490112e-01 -3.282141983509063721e-01 -2.162561863660812378e-01
9.160000000000000000e+02 2.159198379516601562e+01 8.944826126098632812e-01 -8.312425017356872559e-01 -1.802501827478408813e-01 -3.034478127956390381e-01 -2.844627797603607178e-01
9.170000000000000000e+02 2.337865066528320312e+01 -2.212267160415649414e+00 -3.920141458511352539e-01 -2.390810847282409668e-01 -1.893285661935806274e-01 2.469863593578338623e-01
9.180000000000000000e+02 2.934043121337890625e+01 5.675166606903076172e+00 -3.139767348766326904e-01 -7.025036215782165527e-02 -1.152681261301040649e-01 -3.190908432006835938e-01
9.190000000000000000e+02 2.863971900939941406e+01 5.200817584991455078e+00 -3.500121533870697021e-01 -2.138605266809463501e-01 -1.691618114709854126e-01 -2.668071091175079346e-01
9.200000000000000000e+02 2.903217697143554688e+01 4.953129291534423828e+00 -3.120874166488647461e-01 -1.409200578927993774e-01 -1.359022408723831177e-01 -2.500300109386444092e-01
9.210000000000000000e+02 2.827477073669433594e+01 5.012493133544921875e+00 -3.525936901569366455e-01 -2.650040090084075928e-01 -1.852793097496032715e-01 -2.767539024353027344e-01
9.220000000000000000e+02 2.861958122253417969e+01 4.583708763122558594e+00 -2.969899773597717285e-01 -1.947543770074844360e-01 -1.475233137607574463e-01 -2.324636429548263550e-01
9.230000000000000000e+02 2.673959922790527344e+01 4.048495769500732422e+00 -3.800106644630432129e-01 -2.659821808338165283e-01 -1.937978565692901611e-01 -3.004003167152404785e-01
9.240000000000000000e+02 2.707981300354003906e+01 3.528128862380981445e+00 -3.346311151981353760e-01 -2.445074021816253662e-01 -1.737415641546249390e-01 -2.561144828796386719e-01
9.250000000000000000e+02 2.594032859802246094e+01 3.533691644668579102e+00 -3.907456398010253906e-01 -2.447004467248916626e-01 -1.906338334083557129e-01 -2.943388521671295166e-01
9.260000000000000000e+02 2.619474792480468750e+01 3.406407356262207031e+00 -3.868951201438903809e-01 -2.428697794675827026e-01 -1.889294683933258057e-01 -2.831389904022216797e-01
9.270000000000000000e+02 2.535503768920898438e+01 3.228726387023925781e+00 -4.065300822257995605e-01 -2.280436754226684570e-01 -1.903721243143081665e-01 -2.890537679195404053e-01
9.280000000000000000e+02 2.514937400817871094e+01 2.867536306381225586e+00 -4.129566252231597900e-01 -2.178408652544021606e-01 -1.892392486333847046e-01 -2.785387635231018066e-01
9.290000000000000000e+02 2.403105354309082031e+01 2.322818994522094727e+00 -4.686165153980255127e-01 -1.965681165456771851e-01 -1.995553970336914062e-01 -2.777912616729736328e-01
9.300000000000000000e+02 2.350161361694335938e+01 1.684200286865234375e+00 -5.424734354019165039e-01 -1.860116273164749146e-01 -2.185455262660980225e-01 -2.772347033023834229e-01
9.310000000000000000e+02 2.150053215026855469e+01 5.816451311111450195e-01 -9.086831808090209961e-01 -1.853228956460952759e-01 -3.282018303871154785e-01 -2.502028346061706543e-01
9.320000000000000000e+02 2.112878227233886719e+01 5.398262739181518555e-01 -1.054353833198547363e+00 -2.295043319463729858e-01 -3.851574361324310303e-01 -2.469758093357086182e-01
9.330000000000000000e+02 1.807903480529785156e+01 -1.338942050933837891e+00 -1.118007302284240723e+00 9.850201010704040527e-02 -3.058516085147857666e-01 -4.756546318531036377e-01
9.340000000000000000e+02 1.790499877929687500e+01 -1.453426122665405273e+00 -1.129270911216735840e+00 -7.295389659702777863e-03 -3.409698903560638428e-01 -4.960854947566986084e-01
9.350000000000000000e+02 1.703527259826660156e+01 -2.420073270797729492e+00 -5.225128531455993652e-01 -3.303161859512329102e-01 -2.558487057685852051e-01 -2.879074811935424805e-01
9.360000000000000000e+02 1.829102516174316406e+01 -2.142438173294067383e+00 -4.287381470203399658e-01 3.225780427455902100e-01 -3.184802457690238953e-02 -2.702383399009704590e-01
9.370000000000000000e+02 1.779220962524414062e+01 -2.229920387268066406e+00 -4.202149808406829834e-01 4.280496854335069656e-03 -1.247803419828414917e-01 -2.972730398178100586e-01
9.380000000000000000e+02 2.501984596252441406e+01 3.035450220108032227e+00 -4.158683419227600098e-01 -2.230037301778793335e-01 -1.916616261005401611e-01 -2.875499427318572998e-01
9.390000000000000000e+02 2.470157623291015625e+01 2.797832250595092773e+00 -4.299799203872680664e-01 -2.110793739557266235e-01 -1.923177838325500488e-01 -2.790178358554840088e-01
9.400000000000000000e+02 2.788000106811523438e+01 4.521604537963867188e+00 -3.388885259628295898e-01 -2.674704194068908691e-01 -1.819076836109161377e-01 -2.733454406261444092e-01
9.410000000000000000e+02 1.818121719360351562e+01 -3.887479305267333984e+00 1.891832500696182251e-01 4.804377555847167969e-01 2.008862942457199097e-01 1.080879345536231995e-01
9.420000000000000000e+02 5.306782913208007812e+01 3.874025726318359375e+01 8.333086967468261719e-02 2.330749988555908203e+00 7.242242693901062012e-01 -1.934931516647338867e+00
9.430000000000000000e+02 5.373119735717773438e+01 3.829912948608398438e+01 2.273155927658081055e+00 7.793341636657714844e+00 3.019949197769165039e+00 -3.629839420318603516e+00
9.440000000000000000e+02 5.407497787475585938e+01 3.841619110107421875e+01 1.520839691162109375e+00 8.240691184997558594e+00 2.928459167480468750e+00 -2.576941728591918945e+00
9.450000000000000000e+02 5.343598175048828125e+01 3.854376983642578125e+01 2.121607542037963867e+00 5.125985145568847656e+00 2.174277782440185547e+00 -3.026805877685546875e+00
9.460000000000000000e+02 5.386420822143554688e+01 3.871532821655273438e+01 5.175625681877136230e-01 7.603743076324462891e+00 2.436391592025756836e+00 -2.510273456573486328e+00
9.470000000000000000e+02 5.402673339843750000e+01 3.735438156127929688e+01 7.820400595664978027e-01 6.695363044738769531e+00 2.243221044540405273e+00 -2.773874759674072266e+00
9.480000000000000000e+02 3.182610321044921875e+01 1.234554004669189453e+01 -6.217767000198364258e-01 -6.511080265045166016e-01 -3.818654119968414307e-01 -6.411160826683044434e-01
9.490000000000000000e+02 3.320352172851562500e+01 1.322516822814941406e+01 -5.297719240188598633e-01 -4.767352938652038574e-01 -3.019521534442901611e-01 -4.950452446937561035e-01
9.500000000000000000e+02 3.238158798217773438e+01 1.233926296234130859e+01 -5.982438921928405762e-01 -4.993839859962463379e-01 -3.292883634567260742e-01 -5.573832392692565918e-01
9.510000000000000000e+02 3.210525512695312500e+01 1.205265522003173828e+01 -6.561935544013977051e-01 -5.231617093086242676e-01 -3.538065850734710693e-01 -5.630922913551330566e-01
9.520000000000000000e+02 3.902046585083007812e+01 2.036213684082031250e+01 -1.045429483056068420e-01 -9.281169623136520386e-02 -5.920639261603355408e-02 -1.020410284399986267e-01
9.530000000000000000e+02 3.955356216430664062e+01 2.036470222473144531e+01 -7.559964060783386230e-02 3.209490329027175903e-02 -1.305142045021057129e-02 -3.202634677290916443e-02
9.540000000000000000e+02 5.142668151855468750e+01 3.144486999511718750e+01 2.258228778839111328e+00 3.034777641296386719e+00 1.587901949882507324e+00 2.566326856613159180e+00
9.550000000000000000e+02 3.983586502075195312e+01 2.063216590881347656e+01 -5.901754274964332581e-02 6.211295723915100098e-02 9.286243584938347340e-04 -7.297289092093706131e-03
9.560000000000000000e+02 2.976250457763671875e+01 1.026121807098388672e+01 -1.080123305320739746e+00 -6.649292707443237305e-01 -5.235157608985900879e-01 -8.182789683341979980e-01
9.570000000000000000e+02 3.013403320312500000e+01 1.056793022155761719e+01 -9.836480021476745605e-01 -6.095295548439025879e-01 -4.779532551765441895e-01 -7.757595777511596680e-01
9.580000000000000000e+02 5.334474563598632812e+01 3.400138092041015625e+01 2.427561998367309570e+00 9.926127791404724121e-01 1.026052355766296387e+00 2.031175136566162109e+00
9.590000000000000000e+02 4.422297286987304688e+01 2.468906593322753906e+01 4.830686748027801514e-01 7.204165458679199219e-01 3.610455691814422607e-01 5.889274477958679199e-01
9.600000000000000000e+02 4.012494277954101562e+01 2.089138221740722656e+01 -4.246224835515022278e-02 9.207699447870254517e-02 1.488442346453666687e-02 2.084203064441680908e-02
9.610000000000000000e+02 4.075935745239257812e+01 2.197933769226074219e+01 6.911967881023883820e-03 6.135790795087814331e-02 2.048096247017383575e-02 3.759526833891868591e-02
9.620000000000000000e+02 3.800242233276367188e+01 1.915126800537109375e+01 -1.609956026077270508e-01 -2.043133080005645752e-01 -1.095926761627197266e-01 -1.813192069530487061e-01
9.630000000000000000e+02 5.110152435302734375e+01 3.119673538208007812e+01 2.177894592285156250e+00 2.916191339492797852e+00 1.528225779533386230e+00 2.473155975341796875e+00
9.640000000000000000e+02 4.101377105712890625e+01 2.166446304321289062e+01 2.669419534504413605e-02 1.952920407056808472e-01 6.659587472677230835e-02 1.147403791546821594e-01
9.650000000000000000e+02 3.292449188232421875e+01 1.293021297454833984e+01 -5.346850752830505371e-01 -4.784881174564361572e-01 -3.039519786834716797e-01 -5.216239094734191895e-01
9.660000000000000000e+02 3.375724029541015625e+01 1.325277805328369141e+01 -4.958488643169403076e-01 -3.795548975467681885e-01 -2.626211345195770264e-01 -4.199888706207275391e-01
9.670000000000000000e+02 2.997431564331054688e+01 8.510807037353515625e+00 -7.163097858428955078e-01 -1.634271144866943359e-01 -2.639210820198059082e-01 -5.863403901457786560e-02
9.680000000000000000e+02 4.341412734985351562e+01 2.440774726867675781e+01 4.053440392017364502e-01 4.219375848770141602e-01 2.481844872236251831e-01 4.136280417442321777e-01
9.690000000000000000e+02 4.393379592895507812e+01 2.441298103332519531e+01 4.333725869655609131e-01 6.542236804962158203e-01 3.262788653373718262e-01 5.382156372070312500e-01
9.700000000000000000e+02 4.160883331298828125e+01 2.221024322509765625e+01 8.988722413778305054e-02 2.717462182044982910e-01 1.084900349378585815e-01 1.832665205001831055e-01
9.710000000000000000e+02 4.165198516845703125e+01 2.278381919860839844e+01 1.171795651316642761e-01 1.688258647918701172e-01 8.580162376165390015e-02 1.438403427600860596e-01
9.720000000000000000e+02 3.851954269409179688e+01 1.921203422546386719e+01 -1.417408585548400879e-01 -7.263401150703430176e-02 -6.431245803833007812e-02 -1.171389222145080566e-01
9.730000000000000000e+02 4.506952667236328125e+01 2.553051948547363281e+01 6.116831898689270020e-01 8.777282238006591797e-01 4.468234181404113770e-01 7.339960932731628418e-01
9.740000000000000000e+02 5.353458023071289062e+01 3.369200515747070312e+01 3.383105516433715820e+00 2.221943616867065430e+00 1.681514739990234375e+00 3.432217359542846680e+00
9.750000000000000000e+02 4.534540176391601562e+01 2.581041908264160156e+01 6.473613977432250977e-01 9.170101284980773926e-01 4.693114757537841797e-01 7.821516990661621094e-01
9.760000000000000000e+02 3.458852005004882812e+01 1.470763015747070312e+01 -4.248543083667755127e-01 -3.930464088916778564e-01 -2.453702092170715332e-01 -4.163160324096679688e-01
9.770000000000000000e+02 4.584288024902343750e+01 2.581068420410156250e+01 6.818349957466125488e-01 1.128979206085205078e+00 5.432443022727966309e-01 9.124299883842468262e-01
9.780000000000000000e+02 5.079178619384765625e+01 3.094179725646972656e+01 2.100201606750488281e+00 2.755908489227294922e+00 1.456833004951477051e+00 2.376192808151245117e+00
9.790000000000000000e+02 3.618755722045898438e+01 1.702855300903320312e+01 -3.229949474334716797e-01 -3.542896509170532227e-01 -2.031853795051574707e-01 -3.395403623580932617e-01
9.800000000000000000e+02 3.698339462280273438e+01 1.739114189147949219e+01 -2.718976736068725586e-01 -2.232219576835632324e-01 -1.485358923673629761e-01 -2.458361983299255371e-01
9.810000000000000000e+02 4.702655792236328125e+01 2.744748306274414062e+01 1.005033493041992188e+00 1.232075572013854980e+00 6.711327433586120605e-01 1.135706424713134766e+00
9.820000000000000000e+02 3.826910781860351562e+01 1.890980911254882812e+01 -1.605060696601867676e-01 -9.828526526689529419e-02 -7.763739675283432007e-02 -1.392673552036285400e-01
9.830000000000000000e+02 3.928214645385742188e+01 2.008788299560546875e+01 -8.971271663904190063e-02 4.489948041737079620e-03 -2.556683123111724854e-02 -5.584225803613662720e-02
9.840000000000000000e+02 4.276772308349609375e+01 2.332179450988769531e+01 2.415378391742706299e-01 4.279522895812988281e-01 2.008470445871353149e-01 3.417978584766387939e-01
9.850000000000000000e+02 4.364273452758789062e+01 2.413931465148925781e+01 3.828713595867156982e-01 5.895954966545104980e-01 2.917400598526000977e-01 4.867108464241027832e-01
9.860000000000000000e+02 4.617547988891601562e+01 2.663803291320800781e+01 7.882892489433288574e-01 1.043525338172912598e+00 5.495443344116210938e-01 9.357652068138122559e-01
9.870000000000000000e+02 5.002518844604492188e+01 3.073027801513671875e+01 2.011860609054565430e+00 2.165953636169433594e+00 1.253344178199768066e+00 2.080501794815063477e+00
9.880000000000000000e+02 5.049367904663085938e+01 3.068138694763183594e+01 2.020248651504516602e+00 2.600284576416015625e+00 1.386160016059875488e+00 2.273858547210693359e+00
9.890000000000000000e+02 2.914486885070800781e+01 9.917121887207031250e+00 -1.169044971466064453e+00 -1.104017972946166992e+00 -6.819189190864562988e-01 -1.097135066986083984e+00
9.900000000000000000e+02 5.270542526245117188e+01 3.333246231079101562e+01 2.134035348892211914e+00 1.786411404609680176e+00 1.176133990287780762e+00 2.256921768188476562e+00
9.910000000000000000e+02 3.591883087158203125e+01 1.673324394226074219e+01 -3.427110910415649414e-01 -3.736340999603271484e-01 -2.149035483598709106e-01 -3.558019697666168213e-01
9.920000000000000000e+02 3.671960449218750000e+01 1.709134674072265625e+01 -2.890443503856658936e-01 -2.419990003108978271e-01 -1.593130081892013550e-01 -2.677257955074310303e-01
9.930000000000000000e+02 4.247804260253906250e+01 2.304685783386230469e+01 2.007213830947875977e-01 3.847988545894622803e-01 1.756560802459716797e-01 2.987717688083648682e-01
9.940000000000000000e+02 3.485550308227539062e+01 1.500811767578125000e+01 -4.054276645183563232e-01 -3.758692443370819092e-01 -2.343890815973281860e-01 -3.942045271396636963e-01
9.950000000000000000e+02 3.775294494628906250e+01 1.884145736694335938e+01 -1.817934662103652954e-01 -2.329217195510864258e-01 -1.244145557284355164e-01 -2.066040784120559692e-01
9.960000000000000000e+02 4.771173477172851562e+01 2.854127311706542969e+01 1.346669435501098633e+00 1.263479113578796387e+00 7.830445170402526855e-01 1.301838517189025879e+00
9.970000000000000000e+02 4.741623687744140625e+01 2.827452468872070312e+01 1.242887258529663086e+00 1.161975026130676270e+00 7.214586734771728516e-01 1.203212857246398926e+00
9.980000000000000000e+02 3.403913879394531250e+01 1.466210746765136719e+01 -4.531115293502807617e-01 -5.215080976486206055e-01 -2.923858761787414551e-01 -4.875553250312805176e-01
9.990000000000000000e+02 4.190071105957031250e+01 2.248975944519042969e+01 1.249961182475090027e-01 3.090618252754211426e-01 1.302173882722854614e-01 2.197444587945938110e-01
1.000000000000000000e+03 3.265210342407226562e+01 1.263367366790771484e+01 -5.692307353019714355e-01 -4.918746948242187500e-01 -3.183316290378570557e-01 -5.343794822692871094e-01
1.001000000000000000e+03 3.181892967224121094e+01 1.177761077880859375e+01 -6.921172142028808594e-01 -5.390906929969787598e-01 -3.693623840808868408e-01 -5.912751555442810059e-01
1.002000000000000000e+03 4.484699630737304688e+01 2.579706954956054688e+01 6.068578362464904785e-01 7.464725971221923828e-01 4.059991240501403809e-01 6.712275743484497070e-01
1.003000000000000000e+03 4.973873901367187500e+01 3.045458030700683594e+01 1.916601538658142090e+00 2.041095972061157227e+00 1.187309265136718750e+00 1.976559162139892578e+00
1.004000000000000000e+03 5.020254516601562500e+01 3.041641235351562500e+01 1.936239361763000488e+00 2.451250314712524414e+00 1.316246867179870605e+00 2.172681331634521484e+00
1.005000000000000000e+03 4.041839218139648438e+01 2.114651107788085938e+01 -2.224978990852832794e-02 1.246691942214965820e-01 3.072582185268402100e-02 5.047487840056419373e-02
1.006000000000000000e+03 4.818912124633789062e+01 2.851816177368164062e+01 1.361793160438537598e+00 1.621060729026794434e+00 8.948561549186706543e-01 1.483842015266418457e+00
1.007000000000000000e+03 4.562073898315429688e+01 2.608839988708496094e+01 6.860281825065612793e-01 9.556315541267395020e-01 4.924979209899902344e-01 8.310478925704956055e-01
1.008000000000000000e+03 4.479125213623046875e+01 2.524942398071289062e+01 5.737661123275756836e-01 8.340787887573242188e-01 4.223534762859344482e-01 6.857969760894775391e-01
1.009000000000000000e+03 4.335089874267578125e+01 2.386706352233886719e+01 3.331907093524932861e-01 5.298910737037658691e-01 2.589245438575744629e-01 4.359965622425079346e-01
1.010000000000000000e+03 3.510966873168945312e+01 1.585021209716796875e+01 -3.855256736278533936e-01 -4.232995808124542236e-01 -2.426475733518600464e-01 -4.073298871517181396e-01
1.011000000000000000e+03 3.376832962036132812e+01 1.380861282348632812e+01 -5.059304237365722656e-01 -4.551143050193786621e-01 -2.883134186267852783e-01 -4.590552151203155518e-01
1.012000000000000000e+03 3.404636001586914062e+01 1.410513019561767578e+01 -4.787380099296569824e-01 -4.341561794281005859e-01 -2.738682627677917480e-01 -4.486490190029144287e-01
1.013000000000000000e+03 3.564943313598632812e+01 1.643858718872070312e+01 -3.572792410850524902e-01 -3.897714912891387939e-01 -2.241152077913284302e-01 -3.750989437103271484e-01
1.014000000000000000e+03 3.645461654663085938e+01 1.679268455505371094e+01 -3.091020286083221436e-01 -2.620651125907897949e-01 -1.713501363992691040e-01 -2.856713831424713135e-01
1.015000000000000000e+03 4.888066864013671875e+01 2.962565231323242188e+01 1.693183422088623047e+00 1.738485455513000488e+00 1.029500722885131836e+00 1.705931305885314941e+00
1.016000000000000000e+03 4.674020385742187500e+01 2.717926216125488281e+01 9.257495403289794922e-01 1.159501433372497559e+00 6.255753040313720703e-01 1.062998056411743164e+00
1.017000000000000000e+03 4.760562515258789062e+01 2.798191642761230469e+01 1.178591251373291016e+00 1.407091379165649414e+00 7.757047414779663086e-01 1.300275325775146484e+00
1.018000000000000000e+03 4.991523361206054688e+01 3.014791870117187500e+01 1.855835080146789551e+00 2.316907167434692383e+00 1.251822710037231445e+00 2.071024656295776367e+00
1.019000000000000000e+03 5.266482162475585938e+01 3.383763504028320312e+01 9.612280726432800293e-01 8.297330141067504883e-01 5.372883081436157227e-01 9.978103041648864746e-01
1.020000000000000000e+03 3.043505287170410156e+01 1.090893936157226562e+01 -9.307748079299926758e-01 -6.465140581130981445e-01 -4.731866717338562012e-01 -7.175356149673461914e-01
1.021000000000000000e+03 4.645646286010742188e+01 2.690958976745605469e+01 8.534543514251708984e-01 1.097800731658935547e+00 5.853765606880187988e-01 9.959025979042053223e-01
1.022000000000000000e+03 3.618854522705078125e+01 1.649493408203125000e+01 -3.239238560199737549e-01 -2.800022661685943604e-01 -1.811778247356414795e-01 -3.059054613113403320e-01
1.023000000000000000e+03 3.592178726196289062e+01 1.619778633117675781e+01 -3.424735367298126221e-01 -3.003558218479156494e-01 -1.928488165140151978e-01 -3.219513297080993652e-01
1.024000000000000000e+03 3.565489959716796875e+01 1.590099239349365234e+01 -3.545507192611694336e-01 -3.179920315742492676e-01 -2.017628252506256104e-01 -3.415347039699554443e-01
1.025000000000000000e+03 3.512187957763671875e+01 1.530681800842285156e+01 -3.835673034191131592e-01 -3.551451563835144043e-01 -2.216137349605560303e-01 -3.778602480888366699e-01
1.026000000000000000e+03 3.538822937011718750e+01 1.560420417785644531e+01 -3.719140589237213135e-01 -3.381948173046112061e-01 -2.130326628684997559e-01 -3.570477366447448730e-01
1.027000000000000000e+03 4.877051162719726562e+01 2.905996513366699219e+01 1.540408730506896973e+00 1.852815628051757812e+00 1.017967343330383301e+00 1.674431204795837402e+00
1.028000000000000000e+03 4.934469604492187500e+01 2.960493850708007812e+01 1.701919555664062500e+00 2.078246116638183594e+00 1.134049654006958008e+00 1.870223641395568848e+00
1.029000000000000000e+03 4.666783142089843750e+01 2.662209320068359375e+01 8.334370255470275879e-01 1.304144382476806641e+00 6.412743926048278809e-01 1.092140793800354004e+00
1.030000000000000000e+03 4.305902099609375000e+01 2.359493446350097656e+01 2.857280373573303223e-01 4.760036766529083252e-01 2.285195142030715942e-01 3.875471949577331543e-01
1.031000000000000000e+03 2.897348403930664062e+01 8.916272163391113281e+00 -1.865661501884460449e+00 -6.663504987955093384e-02 -5.796889662742614746e-01 -6.779822111129760742e-01
1.032000000000000000e+03 1.289317512512207031e+01 1.263405561447143555e+00 7.483731508255004883e-01 -1.507304906845092773e-01 1.792927980422973633e-01 3.691582381725311279e-01
1.033000000000000000e+03 1.310109043121337891e+01 2.129346609115600586e+00 1.199855208396911621e+00 1.277670741081237793e+00 7.432577610015869141e-01 -5.999965667724609375e-01
1.034000000000000000e+03 8.596837997436523438e+00 3.073013067245483398e+00 3.458205983042716980e-02 -2.193147391080856323e-01 -5.541980266571044922e-02 2.648035585880279541e-01
1.035000000000000000e+03 1.440835857391357422e+01 4.108630180358886719e+00 4.673528671264648438e-01 8.224036097526550293e-01 3.869269192218780518e-01 5.385488867759704590e-01
1.036000000000000000e+03 1.377222442626953125e+01 4.074225425720214844e+00 2.418723851442337036e-01 1.216032385826110840e+00 4.373714327812194824e-01 2.295660972595214844e-01
1.037000000000000000e+03 1.470827960968017578e+01 4.393117904663085938e+00 3.995051681995391846e-01 5.144242048263549805e-01 2.741788029670715332e-01 4.346983432769775391e-01
1.038000000000000000e+03 1.407763195037841797e+01 4.401223659515380859e+00 2.240654230117797852e-01 9.615470767021179199e-01 3.556837439537048340e-01 3.340150415897369385e-01
1.039000000000000000e+03 1.635488319396972656e+01 6.144591808319091797e+00 2.777953743934631348e-01 3.236953318119049072e-01 1.804472059011459351e-01 2.937366962432861328e-01
1.040000000000000000e+03 1.525306797027587891e+01 5.563547134399414062e+00 2.338007539510726929e-01 3.888611495494842529e-01 1.867985725402832031e-01 3.137905597686767578e-01
1.041000000000000000e+03 4.873644638061523438e+01 3.730124282836914062e+01 -2.362483441829681396e-01 -7.483527064323425293e-02 -9.332508593797683716e-02 -3.069282509386539459e-02
1.042000000000000000e+03 4.796334075927734375e+01 3.700096130371093750e+01 -8.212959766387939453e-02 -4.048179835081100464e-02 -3.678341954946517944e-02 3.543499857187271118e-02
1.043000000000000000e+03 1.501364898681640625e+01 4.660702705383300781e+00 3.067513406276702881e-01 3.671209514141082764e-01 2.021616846323013306e-01 3.373988270759582520e-01
1.044000000000000000e+03 3.229694747924804688e+01 2.196980285644531250e+01 7.385528832674026489e-02 8.154081553220748901e-02 4.661883041262626648e-02 8.240025490522384644e-02
1.045000000000000000e+03 1.609332084655761719e+01 6.430115222930908203e+00 2.279289662837982178e-01 3.459964096546173096e-01 1.721776127815246582e-01 2.549030184745788574e-01
1.046000000000000000e+03 1.438629245758056641e+01 4.705254077911376953e+00 2.226542681455612183e-01 7.333483695983886719e-01 2.868008017539978027e-01 3.637707233428955078e-01
1.047000000000000000e+03 1.917911720275878906e+01 9.586021423339843750e+00 1.733577400445938110e-01 2.029005885124206543e-01 1.128774955868721008e-01 1.912905275821685791e-01
1.048000000000000000e+03 1.769569206237792969e+01 8.223212242126464844e+00 1.919369250535964966e-01 2.444104999303817749e-01 1.309042274951934814e-01 2.112093567848205566e-01
1.049000000000000000e+03 1.887322425842285156e+01 8.736648559570312500e+00 2.222338914871215820e-01 2.277659326791763306e-01 1.349999457597732544e-01 2.167727053165435791e-01
1.050000000000000000e+03 4.620250320434570312e+01 3.581546020507812500e+01 6.218099221587181091e-02 5.633436143398284912e-02 3.555460646748542786e-02 3.512193262577056885e-02
1.051000000000000000e+03 3.335724258422851562e+01 2.314863777160644531e+01 7.488507777452468872e-02 1.014769002795219421e-01 5.290859192609786987e-02 9.028735756874084473e-02
1.052000000000000000e+03 1.497537136077880859e+01 5.277021884918212891e+00 2.281776070594787598e-01 4.551610350608825684e-01 2.050015926361083984e-01 3.393247425556182861e-01
1.053000000000000000e+03 3.615820693969726562e+01 2.651670265197753906e+01 7.233238965272903442e-02 9.953464567661285400e-02 5.156011134386062622e-02 7.971126586198806763e-02
1.054000000000000000e+03 3.549969100952148438e+01 2.648163604736328125e+01 7.424730807542800903e-02 9.958100318908691406e-02 5.214849486947059631e-02 8.233733475208282471e-02
1.055000000000000000e+03 3.140937805175781250e+01 2.118752288818359375e+01 1.002565100789070129e-01 9.374605119228363037e-02 5.820076912641525269e-02 9.355819970369338989e-02
1.056000000000000000e+03 1.945305061340332031e+01 9.293380737304687500e+00 2.009029686450958252e-01 1.829901039600372314e-01 1.151679232716560364e-01 1.902711838483810425e-01
1.057000000000000000e+03 4.949587249755859375e+01 3.752153396606445312e+01 -4.149620234966278076e-01 -5.978740006685256958e-02 -1.424248218536376953e-01 -9.581743925809860229e-02
1.058000000000000000e+03 1.664814567565917969e+01 7.006708145141601562e+00 2.074199020862579346e-01 2.883419990539550781e-01 1.487285643815994263e-01 2.434682399034500122e-01
1.059000000000000000e+03 1.748160171508789062e+01 7.284665107727050781e+00 1.987777799367904663e-01 2.342375665903091431e-01 1.299045979976654053e-01 2.231323719024658203e-01
1.060000000000000000e+03 2.537099838256835938e+01 1.524551010131835938e+01 1.257775872945785522e-01 1.287637799978256226e-01 7.636240869760513306e-02 1.306805461645126343e-01
1.061000000000000000e+03 2.410613822937011719e+01 1.528236293792724609e+01 1.232027560472488403e-01 1.462816596031188965e-01 8.084532618522644043e-02 1.381978839635848999e-01
1.062000000000000000e+03 1.716644287109375000e+01 7.607656002044677734e+00 1.956025213003158569e-01 2.564772367477416992e-01 1.356239318847656250e-01 2.260962277650833130e-01
1.063000000000000000e+03 3.413288116455078125e+01 2.403605079650878906e+01 7.407759875059127808e-02 9.932039678096771240e-02 5.201939865946769714e-02 8.170171827077865601e-02
1.064000000000000000e+03 3.362750244140625000e+01 2.392777633666992188e+01 7.484460622072219849e-02 1.013068780303001404e-01 5.284544453024864197e-02 8.401092141866683960e-02
1.065000000000000000e+03 3.564204025268554688e+01 2.590183639526367188e+01 7.609868049621582031e-02 9.621518850326538086e-02 5.169416218996047974e-02 8.142978698015213013e-02
1.066000000000000000e+03 3.498168945312500000e+01 2.585066795349121094e+01 7.449367642402648926e-02 1.022694557905197144e-01 5.302894115447998047e-02 8.190484344959259033e-02
1.067000000000000000e+03 2.000824356079101562e+01 1.046861171722412109e+01 1.618872731924057007e-01 1.845564097166061401e-01 1.039331033825874329e-01 1.774308681488037109e-01
1.068000000000000000e+03 3.202784729003906250e+01 2.285499382019042969e+01 7.697160542011260986e-02 9.548252075910568237e-02 5.173623934388160706e-02 8.899515867233276367e-02
1.069000000000000000e+03 3.733393096923828125e+01 2.863011169433593750e+01 7.381741702556610107e-02 8.977293223142623901e-02 4.907710477709770203e-02 8.679848164319992065e-02
1.070000000000000000e+03 2.114287376403808594e+01 1.100406074523925781e+01 1.720758229494094849e-01 1.901421546936035156e-01 1.086653918027877808e-01 1.773773282766342163e-01
1.071000000000000000e+03 2.031232833862304688e+01 1.074181270599365234e+01 1.613485366106033325e-01 1.829703301191329956e-01 1.032956615090370178e-01 1.736800968647003174e-01
1.072000000000000000e+03 2.171182060241699219e+01 1.156695079803466797e+01 1.631643921136856079e-01 1.723171919584274292e-01 1.006444767117500305e-01 1.672241687774658203e-01
1.073000000000000000e+03 2.119323158264160156e+01 1.156182193756103516e+01 1.562961786985397339e-01 1.836600005626678467e-01 1.019868552684783936e-01 1.668038219213485718e-01
1.074000000000000000e+03 2.533143043518066406e+01 1.581959247589111328e+01 1.236804574728012085e-01 1.327568739652633667e-01 7.693120092153549194e-02 1.325670033693313599e-01
1.075000000000000000e+03 3.076258087158203125e+01 2.142730331420898438e+01 8.813181519508361816e-02 1.037911027669906616e-01 5.757687613368034363e-02 9.334665536880493164e-02
1.076000000000000000e+03 1.801840209960937500e+01 7.881999492645263672e+00 1.949011981487274170e-01 2.422983944416046143e-01 1.311598867177963257e-01 2.205653637647628784e-01
1.077000000000000000e+03 1.743045234680175781e+01 7.904672622680664062e+00 1.895771175622940063e-01 2.465419620275497437e-01 1.308357268571853638e-01 2.229264974594116211e-01
1.078000000000000000e+03 3.626902770996093750e+01 2.740804290771484375e+01 7.105831056833267212e-02 9.601186215877532959e-02 5.012105032801628113e-02 8.742114156484603882e-02
1.079000000000000000e+03 3.640937805175781250e+01 2.682590675354003906e+01 6.472995132207870483e-02 1.002315729856491089e-01 4.948845505714416504e-02 8.795244991779327393e-02
1.080000000000000000e+03 2.226900863647460938e+01 1.213441181182861328e+01 1.515240371227264404e-01 1.714324653148651123e-01 9.688695520162582397e-02 1.613419800996780396e-01
1.081000000000000000e+03 2.147637367248535156e+01 1.183617973327636719e+01 1.522745490074157715e-01 1.772868782281875610e-01 9.886842966079711914e-02 1.667578667402267456e-01
1.082000000000000000e+03 2.364331436157226562e+01 1.411787223815917969e+01 1.480731964111328125e-01 1.564344316720962524e-01 9.135229140520095825e-02 1.488575339317321777e-01
1.083000000000000000e+03 3.201446151733398438e+01 2.169379425048828125e+01 8.368615806102752686e-02 8.226343244314193726e-02 4.978487640619277954e-02 8.342031389474868774e-02
1.084000000000000000e+03 3.116361999511718750e+01 2.158949470520019531e+01 8.733393251895904541e-02 9.649955481290817261e-02 5.515004694461822510e-02 9.330577403306961060e-02
1.085000000000000000e+03 2.256694984436035156e+01 1.295366573333740234e+01 1.511755436658859253e-01 1.700944155454635620e-01 9.638098627328872681e-02 1.592736542224884033e-01
1.086000000000000000e+03 4.373878860473632812e+01 3.479025268554687500e+01 8.845327049493789673e-02 6.546656787395477295e-02 4.617595300078392029e-02 6.594640761613845825e-02
1.087000000000000000e+03 4.435375976562500000e+01 3.483374023437500000e+01 1.028103679418563843e-01 5.799877643585205078e-02 4.824274405837059021e-02 6.462271511554718018e-02
1.088000000000000000e+03 2.202759361267089844e+01 1.238868713378906250e+01 1.494667828083038330e-01 1.707527339458465576e-01 9.606584906578063965e-02 1.630363911390304565e-01
1.089000000000000000e+03 2.450321578979492188e+01 1.441910552978515625e+01 1.525091826915740967e-01 1.348380148410797119e-01 8.620415627956390381e-02 1.425280719995498657e-01
1.090000000000000000e+03 2.474451446533203125e+01 1.526527214050292969e+01 1.274952292442321777e-01 1.359547525644302368e-01 7.903499156236648560e-02 1.376897096633911133e-01
1.091000000000000000e+03 3.256990814208984375e+01 2.283083915710449219e+01 7.720304280519485474e-02 9.472904354333877563e-02 5.157962813973426819e-02 8.534821122884750366e-02
1.092000000000000000e+03 3.284119796752929688e+01 2.310903739929199219e+01 7.421785593032836914e-02 9.599911421537399292e-02 5.106509104371070862e-02 8.719243109226226807e-02
1.093000000000000000e+03 1.690901947021484375e+01 7.305532932281494141e+00 1.965475380420684814e-01 2.634892463684082031e-01 1.380110383033752441e-01 2.381756603717803955e-01
1.094000000000000000e+03 3.573883438110351562e+01 2.680263710021972656e+01 6.698749959468841553e-02 9.511532634496688843e-02 4.863084852695465088e-02 8.787408471107482910e-02
1.095000000000000000e+03 3.402202224731445312e+01 2.454092407226562500e+01 7.490105181932449341e-02 1.011763140559196472e-01 5.282321199774742126e-02 8.396741747856140137e-02
1.096000000000000000e+03 3.460005187988281250e+01 2.466685485839843750e+01 7.469914853572845459e-02 1.057239770889282227e-01 5.412693694233894348e-02 8.452304452657699585e-02
1.097000000000000000e+03 3.829573059082031250e+01 2.891746330261230469e+01 8.821354061365127563e-02 8.671922981739044189e-02 5.247982963919639587e-02 7.847884297370910645e-02
1.098000000000000000e+03 2.986681175231933594e+01 2.039486503601074219e+01 9.731242805719375610e-02 1.041974946856498718e-01 6.045297905802726746e-02 1.048715412616729736e-01
1.099000000000000000e+03 3.050759887695312500e+01 2.035970687866210938e+01 1.009652838110923767e-01 1.016246452927589417e-01 6.077697873115539551e-02 1.041516140103340149e-01
1.100000000000000000e+03 2.418231964111328125e+01 1.470271301269531250e+01 1.364596486091613770e-01 1.453747898340225220e-01 8.455033600330352783e-02 1.424532383680343628e-01
1.101000000000000000e+03 2.562303543090820312e+01 1.609768867492675781e+01 1.241925507783889771e-01 1.346563547849655151e-01 7.765466719865798950e-02 1.294515430927276611e-01
1.102000000000000000e+03 1.833906555175781250e+01 8.750212669372558594e+00 1.983083337545394897e-01 2.351178228855133057e-01 1.300278455018997192e-01 2.020983994007110596e-01
1.103000000000000000e+03 1.659208106994628906e+01 7.601219654083251953e+00 1.806724816560745239e-01 2.903384864330291748e-01 1.413032859563827515e-01 2.268483936786651611e-01
1.104000000000000000e+03 4.910775756835937500e+01 3.738388442993164062e+01 -3.407894074916839600e-01 5.682272464036941528e-02 -8.519000560045242310e-02 -7.289212942123413086e-02
1.105000000000000000e+03 4.316244506835937500e+01 3.322450637817382812e+01 8.937899023294448853e-02 7.019724696874618530e-02 4.787287116050720215e-02 6.200963631272315979e-02
1.106000000000000000e+03 1.637617111206054688e+01 6.715960979461669922e+00 2.131720781326293945e-01 3.122601211071014404e-01 1.576296538114547729e-01 2.559987604618072510e-01
1.107000000000000000e+03 2.677863502502441406e+01 1.667769813537597656e+01 1.310421526432037354e-01 1.379445791244506836e-01 8.069602400064468384e-02 1.321403831243515015e-01
1.108000000000000000e+03 2.501719474792480469e+01 1.611406517028808594e+01 1.203924790024757385e-01 1.362179070711135864e-01 7.698311656713485718e-02 1.305145025253295898e-01
1.109000000000000000e+03 3.864429855346679688e+01 3.024581909179687500e+01 8.844758570194244385e-02 8.609265089035034180e-02 5.236207321286201477e-02 7.162316143512725830e-02
1.110000000000000000e+03 4.296757125854492188e+01 3.352392578125000000e+01 8.047560602426528931e-02 4.720440879464149475e-02 3.830400481820106506e-02 7.625784724950790405e-02
1.111000000000000000e+03 3.363964462280273438e+01 2.468321037292480469e+01 6.860619783401489258e-02 9.883621335029602051e-02 5.023272335529327393e-02 8.788330852985382080e-02
1.112000000000000000e+03 4.410278320312500000e+01 3.454745483398437500e+01 7.078047096729278564e-02 4.017556831240653992e-02 3.328680992126464844e-02 7.135716825723648071e-02
1.113000000000000000e+03 4.351985168457031250e+01 3.409627151489257812e+01 7.177552580833435059e-02 4.556520655751228333e-02 3.520222008228302002e-02 7.550414651632308960e-02
1.114000000000000000e+03 4.164517974853515625e+01 3.254013061523437500e+01 7.774041593074798584e-02 5.512608215212821960e-02 3.985995054244995117e-02 8.116523176431655884e-02
1.115000000000000000e+03 2.229796981811523438e+01 1.266915416717529297e+01 1.508184671401977539e-01 1.712800115346908569e-01 9.662954509258270264e-02 1.599274575710296631e-01
1.116000000000000000e+03 3.375822448730468750e+01 2.507129096984863281e+01 7.509897649288177490e-02 1.003304049372673035e-01 5.262881517410278320e-02 8.274015784263610840e-02
1.117000000000000000e+03 4.137104797363281250e+01 3.226203918457031250e+01 8.698380738496780396e-02 7.647581398487091064e-02 4.903788492083549500e-02 6.519903987646102905e-02
1.118000000000000000e+03 2.733811187744140625e+01 1.831620216369628906e+01 1.117526739835739136e-01 1.253582686185836792e-01 7.113327831029891968e-02 1.157573461532592773e-01
1.119000000000000000e+03 2.175421905517578125e+01 1.211152076721191406e+01 1.509342044591903687e-01 1.743747293949127197e-01 9.759267419576644897e-02 1.640001237392425537e-01
1.120000000000000000e+03 4.377746963500976562e+01 3.373848342895507812e+01 8.819592744112014771e-02 6.633166223764419556e-02 4.635827615857124329e-02 5.799223482608795166e-02
1.121000000000000000e+03 3.524845123291015625e+01 2.616348838806152344e+01 6.635890156030654907e-02 9.865396469831466675e-02 4.950385913252830505e-02 8.710366487503051758e-02
1.122000000000000000e+03 3.021993637084960938e+01 2.005915451049804688e+01 1.041929945349693298e-01 1.050909236073493958e-01 6.278517842292785645e-02 1.019083932042121887e-01
1.123000000000000000e+03 2.957637405395507812e+01 2.007193183898925781e+01 1.022842526435852051e-01 1.076880320906639099e-01 6.299168616533279419e-02 1.028983891010284424e-01
1.124000000000000000e+03 3.857759094238281250e+01 2.920965957641601562e+01 7.385028898715972900e-02 7.812178134918212891e-02 4.559162259101867676e-02 8.611129224300384521e-02
1.125000000000000000e+03 2.591219902038574219e+01 1.637713813781738281e+01 1.232800632715225220e-01 1.345714479684829712e-01 7.735545188188552856e-02 1.294289231300354004e-01
1.126000000000000000e+03 1.943518447875976562e+01 9.895020484924316406e+00 1.664413958787918091e-01 1.956358402967453003e-01 1.086231693625450134e-01 1.861298680305480957e-01
1.127000000000000000e+03 4.325890350341796875e+01 3.377478790283203125e+01 8.653751015663146973e-02 7.109144330024719238e-02 4.728868603706359863e-02 6.031624972820281982e-02
1.128000000000000000e+03 2.932031059265136719e+01 1.974200057983398438e+01 1.006695851683616638e-01 1.073183938860893250e-01 6.239639222621917725e-02 1.081419363617897034e-01
1.129000000000000000e+03 4.107854461669921875e+01 3.201855087280273438e+01 7.931091636419296265e-02 5.654404684901237488e-02 4.075648635625839233e-02 8.003623038530349731e-02
1.130000000000000000e+03 3.016244125366210938e+01 2.071486091613769531e+01 9.819800406694412231e-02 1.057212278246879578e-01 6.117577105760574341e-02 9.790743142366409302e-02
1.131000000000000000e+03 4.694593048095703125e+01 3.673744583129882812e+01 1.490630861371755600e-02 5.032543838024139404e-02 1.956952363252639771e-02 4.354064539074897766e-02
1.132000000000000000e+03 2.821028900146484375e+01 1.861069488525390625e+01 1.120127737522125244e-01 1.149862185120582581e-01 6.809969991445541382e-02 1.156859546899795532e-01
1.133000000000000000e+03 2.908952522277832031e+01 1.890103340148925781e+01 1.148415133357048035e-01 1.083888784050941467e-01 6.696911901235580444e-02 1.096286624670028687e-01
1.134000000000000000e+03 4.131232833862304688e+01 3.167690658569335938e+01 8.736407756805419922e-02 7.591793686151504517e-02 4.898460209369659424e-02 6.600321084260940552e-02
1.135000000000000000e+03 2.792359542846679688e+01 1.833291053771972656e+01 1.166052371263504028e-01 1.192523315548896790e-01 7.075726985931396484e-02 1.163972839713096619e-01
1.136000000000000000e+03 2.880186271667480469e+01 1.862336158752441406e+01 1.152814179658889771e-01 1.086048930883407593e-01 6.716588884592056274e-02 1.140735819935798645e-01
1.137000000000000000e+03 2.873425674438476562e+01 1.970299911499023438e+01 9.840318560600280762e-02 1.119071543216705322e-01 6.309310346841812134e-02 1.086510866880416870e-01
1.138000000000000000e+03 2.445831298828125000e+01 1.498632907867431641e+01 1.323520839214324951e-01 1.411050260066986084e-01 8.203713595867156982e-02 1.388022452592849731e-01
1.139000000000000000e+03 4.381940841674804688e+01 3.433935546875000000e+01 7.982507348060607910e-02 7.044498622417449951e-02 4.508101567625999451e-02 5.567118525505065918e-02
1.140000000000000000e+03 2.763621330261230469e+01 1.805536079406738281e+01 1.174433529376983643e-01 1.218034327030181885e-01 7.177403569221496582e-02 1.203087866306304932e-01
1.141000000000000000e+03 4.067543029785156250e+01 3.118554115295410156e+01 8.867602050304412842e-02 7.848408073186874390e-02 5.014803260564804077e-02 6.851180642843246460e-02
1.142000000000000000e+03 4.469001770019531250e+01 3.451537322998046875e+01 6.451350450515747070e-02 3.849085047841072083e-02 3.090130537748336792e-02 7.406712323427200317e-02
1.143000000000000000e+03 4.438608932495117188e+01 3.423323059082031250e+01 8.620821684598922729e-02 6.506759673357009888e-02 4.538274183869361877e-02 5.422965809702873230e-02
1.144000000000000000e+03 2.905322837829589844e+01 1.944732666015625000e+01 1.072098240256309509e-01 1.099400967359542847e-01 6.514497846364974976e-02 1.069878116250038147e-01
1.145000000000000000e+03 5.226869964599609375e+01 3.927432250976562500e+01 -2.560065686702728271e-01 -3.513984978199005127e-01 -1.822215169668197632e-01 -5.370295643806457520e-01
1.146000000000000000e+03 5.173785400390625000e+01 3.929622650146484375e+01 -3.504056334495544434e-01 2.404141575098037720e-01 -3.299744054675102234e-02 -2.068413048982620239e-01
1.147000000000000000e+03 5.156162643432617188e+01 3.859716033935546875e+01 -1.607034444808959961e+00 -1.047079190611839294e-01 -5.135226845741271973e-01 -6.298771500587463379e-01
1.148000000000000000e+03 5.036777114868164062e+01 3.855435562133789062e+01 -8.064414858818054199e-01 2.338738143444061279e-01 -1.717703044414520264e-01 1.138807684183120728e-01
1.149000000000000000e+03 9.199968338012695312e+00 2.379917383193969727e+00 -8.664725720882415771e-02 -2.503792047500610352e-01 -1.011079400777816772e-01 3.410536646842956543e-01
1.150000000000000000e+03 7.058916568756103516e+00 2.480680465698242188e+00 -1.367591917514801025e-01 -1.118045076727867126e-01 -7.456911355257034302e-02 2.334154397249221802e-01
1.151000000000000000e+03 6.351080894470214844e+00 2.523894309997558594e+00 -1.222883462905883789e-01 -8.235662430524826050e-02 -6.139348819851875305e-02 1.976214051246643066e-01
1.152000000000000000e+03 6.214039325714111328e+00 1.842729449272155762e+00 -1.849088072776794434e-01 -5.360789224505424500e-02 -7.155501097440719604e-02 1.680654883384704590e-01
1.153000000000000000e+03 2.528173208236694336e+00 4.433603286743164062e+00 -4.053901415318250656e-03 -9.944215416908264160e-02 -3.104881756007671356e-02 8.526539057493209839e-02
1.154000000000000000e+03 5.162153720855712891e+00 3.412539958953857422e+00 -4.137003421783447266e-02 -9.324064105749130249e-02 -4.038320481777191162e-02 1.612975299358367920e-01
1.155000000000000000e+03 1.345040440559387207e+00 7.863011837005615234e+00 7.998718880116939545e-03 -1.934851706027984619e-01 -5.564593523740768433e-02 3.358440101146697998e-02
1.156000000000000000e+03 2.615500450134277344e+00 2.067822694778442383e+00 -4.083427414298057556e-02 -3.239449113607406616e-02 -2.196862921118736267e-02 5.964174866676330566e-02
1.157000000000000000e+03 2.095481872558593750e+00 3.454066753387451172e+00 -1.561222691088914871e-02 -6.980714201927185059e-02 -2.562581188976764679e-02 6.915204972028732300e-02
1.158000000000000000e+03 8.479264259338378906e+00 2.426168680191040039e+00 -1.237477883696556091e-01 -2.056510597467422485e-01 -9.881965816020965576e-02 3.205146789550781250e-01
1.159000000000000000e+03 1.033946228027343750e+01 -3.726869821548461914e+00 -2.782523036003112793e-01 -6.368074566125869751e-02 -1.025799140334129333e-01 -2.846647799015045166e-01
1.160000000000000000e+03 1.179967498779296875e+01 -3.032490015029907227e+00 -4.387900233268737793e-01 -7.814324647188186646e-02 -1.550799906253814697e-01 -3.278200626373291016e-01
1.161000000000000000e+03 9.515596389770507812e+00 -2.842594861984252930e+00 -2.976821362972259521e-01 -1.947132125496864319e-02 -9.514603763818740845e-02 -2.022275626659393311e-01
1.162000000000000000e+03 1.367667007446289062e+01 1.102214813232421875e+00 1.776382565498352051e+00 1.110174536705017090e+00 8.659671545028686523e-01 -3.428649306297302246e-01
1.163000000000000000e+03 1.209772777557373047e+01 1.411913990974426270e+00 1.160493940114974976e-01 -3.530885279178619385e-01 -7.111173868179321289e-02 5.646709203720092773e-01
1.164000000000000000e+03 1.342675399780273438e+01 5.046188831329345703e+00 1.191432327032089233e-01 8.061901330947875977e-01 2.775999903678894043e-01 6.003430113196372986e-02
1.165000000000000000e+03 1.227549934387207031e+01 1.885904788970947266e+00 6.818537712097167969e-01 -2.609976828098297119e-01 1.262568086385726929e-01 2.377527952194213867e-01
1.166000000000000000e+03 1.374610805511474609e+01 4.715894222259521484e+00 1.457056105136871338e-01 9.211690425872802734e-01 3.200623989105224609e-01 1.630264073610305786e-01
1.167000000000000000e+03 1.255436229705810547e+01 2.307355642318725586e+00 1.077507972717285156e+00 1.089691668748855591e-01 3.559431433677673340e-01 -3.169444799423217773e-01
1.168000000000000000e+03 3.032765769958496094e+01 7.871714115142822266e+00 -8.471664041280746460e-02 -2.865382730960845947e-01 -1.113764792680740356e-01 -6.294146925210952759e-02
1.169000000000000000e+03 3.144031524658203125e+01 7.900991916656494141e+00 -2.380543053150177002e-01 -2.232091873884201050e-01 -1.383790522813796997e-01 -1.111000254750251770e-01
1.170000000000000000e+03 3.047889137268066406e+01 6.830663681030273438e+00 4.283364117145538330e-02 -2.266244590282440186e-01 -5.513724684715270996e-02 -3.341957330703735352e-01
1.171000000000000000e+03 2.988164710998535156e+01 6.051883220672607422e+00 -1.721676141023635864e-01 -6.125227734446525574e-02 -7.002596557140350342e-02 -4.185216426849365234e-01
1.172000000000000000e+03 3.086346626281738281e+01 8.040021896362304688e+00 -2.751033306121826172e-01 -2.296118587255477905e-01 -1.514145582914352417e-01 -6.221567094326019287e-02
1.173000000000000000e+03 3.118731880187988281e+01 6.726084709167480469e+00 -5.952282994985580444e-02 -1.619208008050918579e-01 -6.643309444189071655e-02 -2.238903790712356567e-01
1.174000000000000000e+03 8.731282234191894531e+00 -2.819858551025390625e+00 -2.459400594234466553e-01 -2.258146926760673523e-02 -8.055645972490310669e-02 -1.776906996965408325e-01
1.175000000000000000e+03 7.934899806976318359e+00 -2.818308115005493164e+00 -2.053941488265991211e-01 -2.349234372377395630e-02 -6.866594403982162476e-02 -1.558775007724761963e-01
1.176000000000000000e+03 6.220621585845947266e+00 -1.949370145797729492e+00 -1.304116994142532349e-01 -1.565897651016712189e-02 -4.382120445370674133e-02 -8.578065782785415649e-02
1.177000000000000000e+03 9.574087142944335938e+00 -3.696705341339111328e+00 -2.453047335147857666e-01 -5.573805049061775208e-02 -9.031283110380172729e-02 -2.550806403160095215e-01
1.178000000000000000e+03 4.585387229919433594e+00 -1.971469163894653320e+00 -7.342848181724548340e-02 -1.820738427340984344e-02 -2.749075926840305328e-02 -6.089748442173004150e-02
1.179000000000000000e+03 6.326866149902343750e+00 -2.853750467300415039e+00 -1.340176016092300415e-01 -3.084617294371128082e-02 -4.945913329720497131e-02 -1.231044530868530273e-01
1.180000000000000000e+03 4.164324760437011719e+00 -4.854120254516601562e+00 -4.574368894100189209e-02 -8.711955696344375610e-02 -3.985897451639175415e-02 -1.221869513392448425e-01
1.181000000000000000e+03 7.132417678833007812e+00 -2.831707000732421875e+00 -1.631103157997131348e-01 -2.905980311334133148e-02 -5.765103548765182495e-02 -1.390569359064102173e-01
1.182000000000000000e+03 1.484227061271667480e+00 -9.292584419250488281e+00 -3.403646638616919518e-03 -2.384211719036102295e-01 -7.254745066165924072e-02 -6.582812219858169556e-02
1.183000000000000000e+03 4.804171621799468994e-01 -6.508663177490234375e+00 3.331700805574655533e-03 -1.195588037371635437e-01 -3.486812859773635864e-02 -2.056346088647842407e-02
1.184000000000000000e+03 2.540474414825439453e+00 -4.047832965850830078e+00 -2.807117253541946411e-02 -5.716577172279357910e-02 -2.557108364999294281e-02 -6.352677196264266968e-02
1.185000000000000000e+03 5.094625949859619141e-01 -3.627991437911987305e+00 -1.120119122788310051e-03 -2.667754888534545898e-02 -8.339299820363521576e-03 -1.234020385891199112e-02
1.186000000000000000e+03 1.500370502471923828e+01 -2.444785594940185547e+00 -7.806119918823242188e-01 -3.893886208534240723e-01 -3.510001599788665771e-01 -5.508606433868408203e-01
1.187000000000000000e+03 1.504976177215576172e+01 -3.097438573837280273e+00 -4.572227299213409424e-01 -3.956638276576995850e-01 -2.558659613132476807e-01 -4.959247708320617676e-01
1.188000000000000000e+03 1.435789394378662109e+01 -3.911603689193725586e+00 -2.437410950660705566e-01 -3.077906668186187744e-01 -1.654595285654067993e-01 -4.399813711643218994e-01
1.189000000000000000e+03 1.257523250579833984e+01 -3.094381093978881836e+00 -4.747032225131988525e-01 -1.143872216343879700e-01 -1.767271310091018677e-01 -3.706136345863342285e-01
1.190000000000000000e+03 1.338462543487548828e+01 -3.127094268798828125e+00 -5.108273625373840332e-01 -1.844899356365203857e-01 -2.085951864719390869e-01 -4.418563842773437500e-01
1.191000000000000000e+03 1.931806182861328125e+01 -1.355432033538818359e+00 -1.160749316215515137e+00 4.505437314510345459e-01 -2.130616903305053711e-01 -3.034560680389404297e-01
1.192000000000000000e+03 1.905488967895507812e+01 -9.274899959564208984e-01 -1.294588327407836914e+00 4.522973299026489258e-01 -2.526873052120208740e-01 -3.369771838188171387e-01
1.193000000000000000e+03 2.228746032714843750e+01 -1.442393302917480469e+00 -6.668615341186523438e-01 -2.202327400445938110e-01 -2.661282718181610107e-01 4.210338294506072998e-01
1.194000000000000000e+03 2.085373497009277344e+01 -2.794088125228881836e-01 -1.614911794662475586e+00 -3.879847228527069092e-01 -6.008689403533935547e-01 -6.658269558101892471e-03
1.195000000000000000e+03 1.807510185241699219e+01 -1.727022290229797363e+00 -7.899211645126342773e-01 9.542431682348251343e-02 -2.083490639925003052e-01 -3.931629955768585205e-01
1.196000000000000000e+03 4.370073699951171875e+01 -3.862051773071289062e+01 1.618732094764709473e+00 3.187147378921508789e+00 1.441763877868652344e+00 1.500414609909057617e+00
1.197000000000000000e+03 4.215884399414062500e+01 -4.163819122314453125e+01 8.916444182395935059e-01 1.831314563751220703e+00 8.168877363204956055e-01 4.005165100097656250e-01
1.198000000000000000e+03 4.263370132446289062e+01 -3.070994567871093750e+01 7.021076083183288574e-01 3.016037464141845703e+00 1.115443468093872070e+00 -1.421235084533691406e+00
1.199000000000000000e+03 3.972990798950195312e+01 -3.959469604492187500e+01 5.130214691162109375e-01 3.938699364662170410e-01 2.720674276351928711e-01 -3.517107963562011719e-01
1.200000000000000000e+03 4.729711532592773438e+01 -3.412450027465820312e+01 1.073861002922058105e+00 5.499479770660400391e+00 1.972002148628234863e+00 8.595371246337890625e-02
1.201000000000000000e+03 3.058520126342773438e+01 -1.073554897308349609e+01 -1.237645223736763000e-01 -3.190214633941650391e-01 -1.328357905149459839e-01 2.109855860471725464e-01
1.202000000000000000e+03 3.014689826965332031e+01 -6.216995239257812500e+00 -1.121079772710800171e-01 -1.286036372184753418e-01 -7.221347838640213013e-02 1.148030087351799011e-01
1.203000000000000000e+03 1.911831665039062500e+01 -5.420400142669677734e+00 6.852184981107711792e-02 9.465850591659545898e-01 3.045320808887481689e-01 -8.725982159376144409e-02
1.204000000000000000e+03 3.836308670043945312e+01 -2.370495605468750000e+01 1.672765612602233887e-01 8.568585515022277832e-01 3.072405457496643066e-01 -4.102804958820343018e-01
1.205000000000000000e+03 3.700671005249023438e+01 -2.131728553771972656e+01 7.771009951829910278e-02 5.823668837547302246e-01 1.980230957269668579e-01 -2.374911755323410034e-01
1.206000000000000000e+03 2.774775314331054688e+01 -3.057362174987792969e+01 2.122410535812377930e-01 4.132871627807617188e-01 1.876584589481353760e-01 -2.143036425113677979e-01
1.207000000000000000e+03 2.148510932922363281e+01 -1.195203590393066406e+01 1.672272086143493652e-01 5.417017936706542969e-01 2.126787006855010986e-01 -2.946660816669464111e-01
1.208000000000000000e+03 2.850896263122558594e+01 -3.465701103210449219e+00 -1.215463578701019287e-01 -1.555227935314178467e-01 -8.312074840068817139e-02 1.255479753017425537e-01
1.209000000000000000e+03 2.434080123901367188e+01 -1.443124532699584961e+00 -3.984600901603698730e-01 -1.860986053943634033e-01 -1.753676086664199829e-01 1.780236959457397461e-01
1.210000000000000000e+03 3.238987731933593750e+01 -3.440301132202148438e+01 2.168259471654891968e-01 3.993633389472961426e-01 1.848567873239517212e-01 -3.114920258522033691e-01
1.211000000000000000e+03 1.878747367858886719e+01 -8.423273086547851562e+00 1.300441920757293701e-01 5.483146905899047852e-01 2.035076618194580078e-01 -1.656133830547332764e-01
1.212000000000000000e+03 3.552566909790039062e+01 -3.816396331787109375e+01 5.563030242919921875e-01 2.625465989112854004e-01 2.456548959016799927e-01 -1.816774308681488037e-01
1.213000000000000000e+03 3.202791213989257812e+01 -1.305346775054931641e+01 -1.157519742846488953e-01 -1.891597509384155273e-01 -9.147351980209350586e-02 1.644484549760818481e-01
1.214000000000000000e+03 2.983190155029296875e+01 -3.126332092285156250e+01 2.576251626014709473e-01 4.704958200454711914e-01 2.184363007545471191e-01 -2.494481354951858521e-01
1.215000000000000000e+03 2.658645820617675781e+01 -5.208755493164062500e+00 -1.919037997722625732e-01 -2.809280157089233398e-01 -1.418495476245880127e-01 2.393659204244613647e-01
1.216000000000000000e+03 2.375386047363281250e+01 -1.858633041381835938e+01 1.286562234163284302e-01 4.305133521556854248e-01 1.677508801221847534e-01 -2.480109483003616333e-01
1.217000000000000000e+03 2.433897018432617188e+01 -1.671959114074707031e+01 1.515224874019622803e-01 4.494432508945465088e-01 1.802897155284881592e-01 -2.676868438720703125e-01
1.218000000000000000e+03 2.622455215454101562e+01 -2.347224235534667969e+01 1.393460929393768311e-01 4.702688753604888916e-01 1.828844845294952393e-01 -2.414150238037109375e-01
1.219000000000000000e+03 2.934442901611328125e+01 -2.652514266967773438e+01 1.516593545675277710e-01 5.322381258010864258e-01 2.051692456007003784e-01 -2.570627033710479736e-01
1.220000000000000000e+03 2.183005714416503906e+01 1.087250038981437683e-01 -1.064762711524963379e+00 -1.538115292787551880e-01 -3.655722737312316895e-01 -1.506046801805496216e-01
1.221000000000000000e+03 2.918138122558593750e+01 -2.987162780761718750e+01 1.502063125371932983e-01 4.709993302822113037e-01 1.863617002964019775e-01 -2.731420993804931641e-01
1.222000000000000000e+03 2.083732223510742188e+01 -1.378432846069335938e+01 1.539030522108078003e-01 4.423795640468597412e-01 1.788847893476486206e-01 -2.392247021198272705e-01
1.223000000000000000e+03 2.862593269348144531e+01 -2.848400306701660156e+01 1.792681962251663208e-01 4.862216413021087646e-01 1.996469497680664062e-01 -2.465019375085830688e-01
1.224000000000000000e+03 2.638217735290527344e+01 -3.349694490432739258e+00 -1.777422279119491577e-01 -2.396771162748336792e-01 -1.252257972955703735e-01 1.879182159900665283e-01
1.225000000000000000e+03 2.567994880676269531e+01 -1.912012481689453125e+01 1.355836838483810425e-01 4.798727929592132568e-01 1.846369504928588867e-01 -2.533658146858215332e-01
1.226000000000000000e+03 3.947295761108398438e+01 -2.292351341247558594e+01 8.306778222322463989e-02 1.368154048919677734e+00 4.353665709495544434e-01 -4.365756213665008545e-01
1.227000000000000000e+03 3.976792526245117188e+01 -2.606577491760253906e+01 2.877288162708282471e-01 1.277420043945312500e+00 4.695446491241455078e-01 -6.375977993011474609e-01
1.228000000000000000e+03 2.873198318481445312e+01 -2.528410720825195312e+01 1.181582063436508179e-01 5.289303064346313477e-01 1.941265463829040527e-01 -2.755396664142608643e-01
1.229000000000000000e+03 2.806173324584960938e+01 -2.716980171203613281e+01 1.086514592170715332e-01 4.893366694450378418e-01 1.793964356184005737e-01 -2.639740407466888428e-01
1.230000000000000000e+03 4.289916992187500000e+01 -2.875198364257812500e+01 2.726601362228393555e-01 3.020975351333618164e+00 9.880906343460083008e-01 -9.781274199485778809e-01
1.231000000000000000e+03 4.362207794189453125e+01 -2.986361885070800781e+01 3.425869643688201904e-01 3.649857759475708008e+00 1.197733402252197266e+00 -1.088495969772338867e+00
1.232000000000000000e+03 2.773511505126953125e+01 -4.687930107116699219e+00 -1.549165248870849609e-01 -2.357769906520843506e-01 -1.172080561518669128e-01 1.926451921463012695e-01
1.233000000000000000e+03 4.434173202514648438e+01 -3.094315528869628906e+01 2.855854034423828125e-01 4.643899440765380859e+00 1.478845357894897461e+00 -1.011077761650085449e+00
1.234000000000000000e+03 4.497365951538085938e+01 -3.197793579101562500e+01 4.615898132324218750e-01 4.960970401763916016e+00 1.626767992973327637e+00 -6.530955433845520020e-01
1.235000000000000000e+03 4.118190002441406250e+01 -2.840395736694335938e+01 4.638708531856536865e-01 1.823862552642822266e+00 6.863200068473815918e-01 -9.616395831108093262e-01
1.236000000000000000e+03 1.962460899353027344e+01 -1.114313793182373047e+01 1.432498693466186523e-01 4.973543882369995117e-01 1.921812891960144043e-01 -2.139448225498199463e-01
1.237000000000000000e+03 2.017915725708007812e+01 -1.247675418853759766e+01 1.433933824300765991e-01 4.676757156848907471e-01 1.833207309246063232e-01 -2.341063320636749268e-01
1.238000000000000000e+03 3.525886154174804688e+01 -1.577570915222167969e+01 -6.370729953050613403e-02 4.012736976146697998e-01 1.012699156999588013e-01 -3.840478137135505676e-02
1.239000000000000000e+03 2.595359802246093750e+01 -2.568283796310424805e+00 -2.437323182821273804e-01 -2.095869779586791992e-01 -1.359957903623580933e-01 1.870393753051757812e-01
1.240000000000000000e+03 2.098100471496582031e+01 -1.699452400207519531e+01 1.128756627440452576e-01 3.726678788661956787e-01 1.456630676984786987e-01 -2.176590710878372192e-01
1.241000000000000000e+03 2.228207588195800781e+01 -1.623900032043457031e+01 1.343364864587783813e-01 4.413006305694580078e-01 1.726911365985870361e-01 -2.412513792514801025e-01
1.242000000000000000e+03 3.670420074462890625e+01 -1.814167594909667969e+01 -2.077862806618213654e-02 6.790679097175598145e-01 1.974867880344390869e-01 -1.459486037492752075e-01
1.243000000000000000e+03 3.451401138305664062e+01 -1.461727809906005859e+01 -9.113001078367233276e-02 2.714820504188537598e-01 5.410561338067054749e-02 8.868987206369638443e-04
1.244000000000000000e+03 3.543314743041992188e+01 -3.582454681396484375e+01 4.300301373004913330e-01 3.568888306617736816e-01 2.360756993293762207e-01 -3.128419816493988037e-01
1.245000000000000000e+03 3.375147628784179688e+01 -1.347296142578125000e+01 -9.377354383468627930e-02 1.630598008632659912e-01 2.078587561845779419e-02 4.949748888611793518e-02
1.246000000000000000e+03 1.842882347106933594e+01 -7.088768005371093750e+00 1.058864220976829529e-01 5.904961228370666504e-01 2.089147567749023438e-01 -9.495753049850463867e-02
1.247000000000000000e+03 3.777603912353515625e+01 -1.735755729675292969e+01 -7.192344218492507935e-02 1.031058549880981445e+00 2.877405285835266113e-01 -1.892910152673721313e-01
1.248000000000000000e+03 2.990361022949218750e+01 -9.553148269653320312e+00 -1.542948037385940552e-01 -3.965360522270202637e-01 -1.652492582798004150e-01 2.417175024747848511e-01
1.249000000000000000e+03 3.382810592651367188e+01 -3.732151794433593750e+01 2.550754249095916748e-01 2.525027096271514893e-01 1.522734463214874268e-01 -2.551644444465637207e-01
1.250000000000000000e+03 3.076487159729003906e+01 -8.962460517883300781e+00 -1.562399268150329590e-01 -1.779985278844833374e-01 -1.002715378999710083e-01 1.774496734142303467e-01
1.251000000000000000e+03 2.683983802795410156e+01 -2.470292472839355469e+01 1.088974475860595703e-01 4.740852713584899902e-01 1.748948097229003906e-01 -2.468096017837524414e-01
1.252000000000000000e+03 7.707419586181640625e+01 -3.617115020751953125e+01 1.227185036987066269e-02 8.239082336425781250e+00 2.475406169891357422e+00 6.957964599132537842e-02
1.253000000000000000e+03 7.910962677001953125e+01 -3.482952499389648438e+01 1.273412955924868584e-03 8.437610626220703125e+00 2.531665325164794922e+00 3.068074211478233337e-02
1.254000000000000000e+03 7.802384948730468750e+01 -2.925093650817871094e+01 2.931102353613823652e-04 8.522574424743652344e+00 2.556860208511352539e+00 8.351233601570129395e-02
1.255000000000000000e+03 7.934832763671875000e+01 -2.787338256835937500e+01 -1.958040986210107803e-03 8.733639717102050781e+00 2.619504451751708984e+00 2.799373120069503784e-02
1.256000000000000000e+03 7.916716766357421875e+01 3.623516464233398438e+01 8.705800026655197144e-02 3.296995878219604492e+00 1.015216112136840820e+00 -8.877256512641906738e-02
1.257000000000000000e+03 7.935058593750000000e+01 -2.091961288452148438e+01 2.488423138856887817e-03 9.075198173522949219e+00 2.723306179046630859e+00 2.547005563974380493e-02
1.258000000000000000e+03 7.802645874023437500e+01 -2.512778472900390625e+01 1.975631574168801308e-03 8.694030761718750000e+00 2.608801841735839844e+00 8.941762149333953857e-02
1.259000000000000000e+03 7.803325653076171875e+01 -2.651112365722656250e+01 -2.900695195421576500e-03 8.637135505676269531e+00 2.590270519256591797e+00 8.738165348768234253e-02
1.260000000000000000e+03 7.781883239746093750e+01 -3.197990798950195312e+01 4.354036413133144379e-03 8.398978233337402344e+00 2.520999670028686523e+00 7.950214296579360962e-02
1.261000000000000000e+03 7.931571960449218750e+01 -3.064955902099609375e+01 -2.059240825474262238e-03 8.601709365844726562e+00 2.579895019531250000e+00 2.833568677306175232e-02
1.262000000000000000e+03 7.760488128662109375e+01 -3.335222244262695312e+01 9.472700767219066620e-03 8.332615852355957031e+00 2.502626657485961914e+00 7.465254515409469604e-02
1.263000000000000000e+03 7.508651733398437500e+01 -3.607473373413085938e+01 3.358577191829681396e-02 8.004196166992187500e+00 2.411334514617919922e+00 8.409233391284942627e-02
1.264000000000000000e+03 7.502285766601562500e+01 -3.784272766113281250e+01 3.722923994064331055e-02 8.026896476745605469e+00 2.419237852096557617e+00 5.428963899612426758e-02
1.265000000000000000e+03 7.604806518554687500e+01 -4.066465759277343750e+01 3.632665425539016724e-02 8.151670455932617188e+00 2.456399202346801758e+00 -7.089644204825162888e-03
1.266000000000000000e+03 7.815144348144531250e+01 1.511016082763671875e+01 -2.648350037634372711e-02 8.135498046875000000e+00 2.432704448699951172e+00 -3.272106647491455078e-01
1.267000000000000000e+03 7.938493347167968750e+01 1.525654029846191406e+01 -3.073803381994366646e-03 8.222715377807617188e+00 2.465892553329467773e+00 -1.300207674503326416e-01
1.268000000000000000e+03 7.937765502929687500e+01 2.221551704406738281e+01 -3.632903797551989555e-03 6.675465106964111328e+00 2.001549720764160156e+00 -1.826235353946685791e-01
1.269000000000000000e+03 7.789234161376953125e+01 3.179117774963378906e+01 4.206436127424240112e-02 4.748437881469726562e+00 1.437150597572326660e+00 -4.708042442798614502e-01
1.270000000000000000e+03 7.812999725341796875e+01 2.760572624206542969e+01 8.172577247023582458e-03 5.549316883087158203e+00 1.667246818542480469e+00 -5.084485411643981934e-01
1.271000000000000000e+03 7.937448883056640625e+01 2.778207015991210938e+01 2.076757606118917465e-03 5.127973079681396484e+00 1.539014935493469238e+00 -1.867852210998535156e-01
1.272000000000000000e+03 7.815017700195312500e+01 2.484107017517089844e+01 -2.498687012121081352e-03 6.194814205169677734e+00 1.857694745063781738e+00 -5.088602304458618164e-01
1.273000000000000000e+03 7.814241027832031250e+01 2.345419502258300781e+01 -1.002177782356739044e-02 6.519119262695312500e+00 1.952729225158691406e+00 -4.972690045833587646e-01
1.274000000000000000e+03 7.687766265869140625e+01 1.634055519104003906e+01 -6.476721167564392090e-02 7.895891666412353516e+00 2.349337339401245117e+00 -5.470945239067077637e-01
1.275000000000000000e+03 7.813403320312500000e+01 1.649694824218750000e+01 -2.346621640026569366e-02 7.916595458984375000e+00 2.367938756942749023e+00 -3.636074662208557129e-01
1.276000000000000000e+03 7.695248413085937500e+01 1.357120323181152344e+01 -6.140556931495666504e-02 8.243020057678222656e+00 2.454484224319458008e+00 -4.350006878376007080e-01
1.277000000000000000e+03 7.698886871337890625e+01 1.219270992279052734e+01 -5.481492355465888977e-02 8.392372131347656250e+00 2.501266956329345703e+00 -3.819979429244995117e-01
1.278000000000000000e+03 7.820104217529296875e+01 9.565954208374023438e+00 -2.157187275588512421e-02 8.801293373107910156e+00 2.633916616439819336e+00 -1.964591890573501587e-01
1.279000000000000000e+03 7.940016174316406250e+01 9.690031051635742188e+00 -1.811909722164273262e-03 8.991496086120605469e+00 2.696905136108398438e+00 -8.331499248743057251e-02
1.280000000000000000e+03 7.797975158691406250e+01 -2.019590586423873901e-01 -1.090733613818883896e-02 9.251371383666992188e+00 2.772139072418212891e+00 -5.408706143498420715e-02
1.281000000000000000e+03 7.933139801025390625e+01 1.327905297279357910e+00 -2.527953183744102716e-04 9.498657226562500000e+00 2.849521160125732422e+00 -3.664371371269226074e-02
1.282000000000000000e+03 7.818491363525390625e+01 8.181533813476562500e+00 -1.634817756712436676e-02 8.914444923400878906e+00 2.669429063796997070e+00 -1.711037307977676392e-01
1.283000000000000000e+03 7.813420104980468750e+01 -1.541138935089111328e+01 -9.341088123619556427e-03 9.097903251647949219e+00 2.726568698883056641e+00 6.000924110412597656e-02
1.284000000000000000e+03 7.938194274902343750e+01 -1.396867275238037109e+01 -5.476344376802444458e-03 9.375444412231445312e+00 2.810990333557128906e+00 1.196448970586061478e-02
1.285000000000000000e+03 7.811787414550781250e+01 -8.544942855834960938e+00 -4.325909074395895004e-03 9.272842407226562500e+00 2.780555009841918945e+00 2.160977013409137726e-02
1.286000000000000000e+03 7.936733245849609375e+01 -7.033715248107910156e+00 1.523446408100426197e-03 9.548753738403320312e+00 2.865082979202270508e+00 -5.385096184909343719e-03
1.287000000000000000e+03 7.935700225830078125e+01 -1.952885246276855469e+01 -4.259691108018159866e-03 9.141298294067382812e+00 2.741111516952514648e+00 2.311376295983791351e-02
1.288000000000000000e+03 7.803360748291015625e+01 -2.233958816528320312e+01 1.422513741999864578e-03 8.812519073486328125e+00 2.644182443618774414e+00 8.654829114675521851e-02
1.289000000000000000e+03 7.868589782714843750e+01 4.021567153930664062e+01 1.191945374011993408e-01 3.444936275482177734e+00 1.069239258766174316e+00 1.887126863002777100e-01
1.290000000000000000e+03 7.338726806640625000e+01 3.822345352172851562e+01 4.113941788673400879e-01 6.123134613037109375e+00 1.960358619689941406e+00 -4.323039650917053223e-01
1.291000000000000000e+03 7.921784210205078125e+01 3.758575820922851562e+01 -3.880544099956750870e-03 3.213202238082885742e+00 9.627965092658996582e-01 -1.697442121803760529e-02
1.292000000000000000e+03 7.798772430419921875e+01 1.200935959815979004e+00 -1.635918021202087402e-02 9.222751617431640625e+00 2.761917829513549805e+00 -7.204025238752365112e-02
1.293000000000000000e+03 7.801792144775390625e+01 2.602957487106323242e+00 -1.327815465629100800e-02 9.186652183532714844e+00 2.752012252807617188e+00 -8.876600116491317749e-02
1.294000000000000000e+03 7.661462402343750000e+01 -3.420894443988800049e-01 -3.501871228218078613e-02 8.985931396484375000e+00 2.685273647308349609e+00 -7.575410604476928711e-02
1.295000000000000000e+03 7.804759216308593750e+01 -4.410136222839355469e+00 -1.348672434687614441e-02 9.296214103698730469e+00 2.784818172454833984e+00 -9.831889532506465912e-03
1.296000000000000000e+03 7.933899688720703125e+01 -2.859827041625976562e+00 -4.620578140020370483e-03 9.565952301025390625e+00 2.868399620056152344e+00 -2.023090235888957977e-02
1.297000000000000000e+03 7.807624053955078125e+01 -5.795413017272949219e+00 -5.859601311385631561e-03 9.296136856079101562e+00 2.787083148956298828e+00 1.596062094904482365e-03
1.298000000000000000e+03 7.814273834228515625e+01 -1.128753566741943359e+01 -3.187282709404826164e-03 9.221446037292480469e+00 2.765477657318115234e+00 3.907210379838943481e-02
1.299000000000000000e+03 7.937849426269531250e+01 -9.807182312011718750e+00 2.254785271361470222e-03 9.498784065246582031e+00 2.850311756134033203e+00 2.398924436420202255e-03
1.300000000000000000e+03 7.814809417724609375e+01 -1.266003513336181641e+01 -1.012049708515405655e-02 9.186330795288085938e+00 2.752863168716430664e+00 4.596905410289764404e-02
1.301000000000000000e+03 7.809275054931640625e+01 -1.817852020263671875e+01 -8.220394141972064972e-03 8.990739822387695312e+00 2.694756031036376953e+00 7.309849560260772705e-02
1.302000000000000000e+03 7.937194061279296875e+01 -1.674723625183105469e+01 -5.094377789646387100e-03 9.266366958618164062e+00 2.778381586074829102e+00 1.810617744922637939e-02
1.303000000000000000e+03 7.806960296630859375e+01 -1.956474876403808594e+01 2.198683941969648004e-04 8.932752609252929688e+00 2.679891586303710938e+00 7.994196563959121704e-02
1.304000000000000000e+03 9.269891381263732910e-01 3.736034774780273438e+01 1.076496206223964691e-03 -1.418256908655166626e-01 -4.222475737333297729e-02 -2.581752836704254150e-03
1.305000000000000000e+03 8.052932024002075195e-01 3.457001876831054688e+01 1.224146806634962559e-03 -1.495847404003143311e-01 -4.450817778706550598e-02 -2.339509781450033188e-03
1.306000000000000000e+03 7.606253027915954590e-01 3.316484832763671875e+01 -1.294996007345616817e-03 -1.535553932189941406e-01 -4.645511507987976074e-02 -2.003098372370004654e-03
1.307000000000000000e+03 6.083080172538757324e-01 2.752741432189941406e+01 -2.048309892416000366e-03 -1.743688583374023438e-01 -5.292515084147453308e-02 -2.572152297943830490e-03
1.308000000000000000e+03 6.016452908515930176e-01 2.612344360351562500e+01 1.820848556235432625e-03 -1.813365668058395386e-01 -5.385471880435943604e-02 -3.565183607861399651e-03
1.309000000000000000e+03 1.110362529754638672e+00 -3.603062438964843750e+01 -3.546824911609292030e-03 -6.933261156082153320e-01 -2.090618908405303955e-01 -1.005702186375856400e-03
1.310000000000000000e+03 2.612540006637573242e+00 -3.281546783447265625e+01 8.001376874744892120e-03 -6.015863418579101562e-01 -1.780754923820495605e-01 -8.925461210310459137e-03
1.311000000000000000e+03 3.030104398727416992e+00 2.701446533203125000e+01 -3.564723767340183258e-03 -1.354722529649734497e-01 -4.171109199523925781e-02 -1.170989498496055603e-02
1.312000000000000000e+03 3.035434007644653320e+00 2.567137718200683594e+01 -1.811405672924593091e-04 -1.393596380949020386e-01 -4.186223447322845459e-02 -1.366915553808212280e-02
1.313000000000000000e+03 2.423570156097412109e+00 3.424239730834960938e+01 -1.382330781780183315e-03 -1.312623322010040283e-01 -3.979340195655822754e-02 -4.931608680635690689e-03
1.314000000000000000e+03 2.286149024963378906e+00 3.284276580810546875e+01 9.830034105107188225e-04 -1.344772428274154663e-01 -4.004827514290809631e-02 -5.115171428769826889e-03
1.315000000000000000e+03 3.818801403045654297e+00 3.928789138793945312e+01 -1.025552628561854362e-03 -1.215067356824874878e-01 -3.675968572497367859e-02 -3.329958999529480934e-04
1.316000000000000000e+03 2.018210649490356445e+00 -2.863482093811035156e+01 -2.166597871109843254e-03 -6.111474037170410156e-01 -1.839942038059234619e-01 -1.165102235972881317e-02
1.317000000000000000e+03 1.940113902091979980e+00 -2.588458251953125000e+01 -2.164767123758792877e-03 -5.954296588897705078e-01 -1.792783290147781372e-01 -1.616217195987701416e-02
1.318000000000000000e+03 3.234239816665649414e+00 -3.572953414916992188e+01 6.642650812864303589e-03 -5.775805115699768066e-01 -1.712813675403594971e-01 -7.864360697567462921e-03
1.319000000000000000e+03 1.700233221054077148e+00 1.746061897277832031e+01 -7.632878259755671024e-04 -2.074613124132156372e-01 -6.246738135814666748e-02 -1.220194250345230103e-02
1.320000000000000000e+03 5.324535369873046875e-01 1.484953880310058594e+01 1.456974656321108341e-03 -2.646730244159698486e-01 -7.896481454372406006e-02 -3.745726076886057854e-03
1.321000000000000000e+03 4.469664990901947021e-01 7.862725734710693359e+00 1.195259043015539646e-03 -2.233064323663711548e-01 -6.663335114717483521e-02 1.204195432364940643e-02
1.322000000000000000e+03 5.908884406089782715e-01 2.048462867736816406e+01 1.418369240127503872e-03 -2.189133316278457642e-01 -6.524848937988281250e-02 -5.097932647913694382e-03
1.323000000000000000e+03 5.794448852539062500e-01 1.907308197021484375e+01 -1.369609264656901360e-03 -2.306580245494842529e-01 -6.960828602313995361e-02 -4.592803306877613068e-03
1.324000000000000000e+03 1.780126094818115234e+00 -1.613172912597656250e+01 9.849825873970985413e-03 -4.556560814380645752e-01 -1.337418705224990845e-01 -4.767629876732826233e-02
1.325000000000000000e+03 4.024809837341308594e+00 -4.079523849487304688e+01 1.643849187530577183e-03 -5.918405652046203613e-01 -1.770590096712112427e-01 -2.177835442125797272e-02
1.326000000000000000e+03 5.192653656005859375e+00 -3.528523254394531250e+01 -3.595771500840783119e-03 -4.773389995098114014e-01 -1.442804336547851562e-01 -1.250802632421255112e-02
1.327000000000000000e+03 2.925741910934448242e+00 -3.424784469604492188e+01 -4.893023520708084106e-03 -5.925323963165283203e-01 -1.792276352643966675e-01 -9.297390468418598175e-03
1.328000000000000000e+03 2.349378108978271484e+00 -3.141409111022949219e+01 -4.109432920813560486e-03 -6.081811189651489258e-01 -1.836871653795242310e-01 -9.103355929255485535e-03
1.329000000000000000e+03 1.957918286323547363e+00 -2.725773239135742188e+01 6.906856782734394073e-03 -6.042379140853881836e-01 -1.791993230581283569e-01 -1.276150718331336975e-02
1.330000000000000000e+03 3.249302864074707031e+00 -2.699902153015136719e+01 6.477278657257556915e-04 -5.365905761718750000e-01 -1.607828438282012939e-01 -2.397539094090461731e-02
1.331000000000000000e+03 1.931466817855834961e+00 -2.172405433654785156e+01 7.715793792158365250e-03 -5.507099032402038574e-01 -1.628982424736022949e-01 -2.630804851651191711e-02
1.332000000000000000e+03 1.939630150794982910e+00 -2.450680351257324219e+01 6.620168220251798630e-03 -5.819932818412780762e-01 -1.726119369268417358e-01 -1.845754124224185944e-02
1.333000000000000000e+03 1.876293420791625977e+00 -1.892171859741210938e+01 9.046874940395355225e-03 -5.100663304328918457e-01 -1.503058224916458130e-01 -3.621998801827430725e-02
1.334000000000000000e+03 6.224539279937744141e-01 -1.909206390380859375e+01 -3.128494601696729660e-03 -5.789117217063903809e-01 -1.746120750904083252e-01 -1.168498117476701736e-02
1.335000000000000000e+03 2.790147781372070312e+00 -1.324324607849121094e+01 7.249119691550731659e-03 -3.448069095611572266e-01 -1.012673377990722656e-01 -9.151835739612579346e-02
1.336000000000000000e+03 5.287838578224182129e-01 -1.207447910308837891e+01 5.526630673557519913e-03 -3.726032674312591553e-01 -1.101229861378669739e-01 -2.137945778667926788e-02
1.337000000000000000e+03 1.598120808601379395e+00 -1.200223445892333984e+01 -6.445257458835840225e-04 -3.389983773231506348e-01 -1.018928736448287964e-01 -6.235225498676300049e-02
1.338000000000000000e+03 1.448084115982055664e+00 -6.657189369201660156e+00 -7.097362540662288666e-03 -1.345077455043792725e-01 -4.248153045773506165e-02 -5.870044231414794922e-02
1.339000000000000000e+03 1.445481896400451660e+00 -3.443114280700683594e+00 -1.226816046983003616e-02 -3.977993875741958618e-02 -1.561443042010068893e-02 -3.018177673220634460e-02
1.340000000000000000e+03 5.294879078865051270e-01 -5.087674617767333984e+00 -3.924846183508634567e-03 -6.385815143585205078e-02 -2.033489756286144257e-02 -1.797591894865036011e-02
1.341000000000000000e+03 4.450939893722534180e-01 5.057550907135009766e+00 -1.075226609827950597e-04 -1.209039092063903809e-01 -3.630343079566955566e-02 1.882931403815746307e-02
1.342000000000000000e+03 1.434740185737609863e+00 1.056639003753662109e+01 6.745697464793920517e-03 -2.272981107234954834e-01 -6.616572290658950806e-02 1.056807208806276321e-02
1.343000000000000000e+03 4.749286472797393799e-01 1.065253734588623047e+01 6.102724582888185978e-04 -2.698265016078948975e-01 -8.076486736536026001e-02 3.508799010887742043e-03
1.344000000000000000e+03 1.551081657409667969e+00 1.329379081726074219e+01 4.317775368690490723e-03 -2.292101979255676270e-01 -6.746772676706314087e-02 -4.343619104474782944e-03
1.345000000000000000e+03 1.604392647743225098e+00 1.467267131805419922e+01 1.293599256314337254e-03 -2.239485085010528564e-01 -6.679647415876388550e-02 -8.095446042716503143e-03
1.346000000000000000e+03 5.655840039253234863e-01 1.766308212280273438e+01 1.291107735596597195e-03 -2.424474954605102539e-01 -7.234691828489303589e-02 -5.110951140522956848e-03
1.347000000000000000e+03 1.815859436988830566e+00 2.450398445129394531e+01 7.979008951224386692e-04 -1.671151816844940186e-01 -4.989518597722053528e-02 -1.045901421457529068e-02
1.348000000000000000e+03 5.313145828247070312e+01 3.389860534667968750e+01 1.973484396934509277e+00 9.596229195594787598e-01 8.799321651458740234e-01 1.855220317840576172e+00
1.349000000000000000e+03 5.383417129516601562e+01 3.394811248779296875e+01 3.811382055282592773e+00 2.535461425781250000e+00 1.904053092002868652e+00 3.548815011978149414e+00
1.350000000000000000e+03 5.431921768188476562e+01 3.744680786132812500e+01 1.166236996650695801e+00 7.527880191802978516e+00 2.608235120773315430e+00 -3.827302694320678711e+00
1.351000000000000000e+03 5.436679458618164062e+01 3.865199661254882812e+01 6.267413496971130371e-01 8.657613754272460938e+00 2.785306453704833984e+00 -2.318593978881835938e+00
1.352000000000000000e+03 5.492154312133789062e+01 3.743071365356445312e+01 6.311471462249755859e-01 1.092854881286621094e+01 3.467908859252929688e+00 -4.305385589599609375e+00
1.353000000000000000e+03 5.482890701293945312e+01 3.362385177612304688e+01 4.554909706115722656e+00 1.015930652618408203e+01 4.414265155792236328e+00 7.339945316314697266e+00
1.354000000000000000e+03 5.462650680541992188e+01 3.368019485473632812e+01 4.801833629608154297e+00 7.987159729003906250e+00 3.836698055267333984e+00 6.710493087768554688e+00
1.355000000000000000e+03 5.369837570190429688e+01 3.333264541625976562e+01 3.610553026199340820e+00 3.813228130340576172e+00 2.227134466171264648e+00 4.379589080810546875e+00
1.356000000000000000e+03 5.664592742919921875e+01 3.663594436645507812e+01 1.654486417770385742e+00 2.034481811523437500e+01 6.599791526794433594e+00 2.121947526931762695e+00
1.357000000000000000e+03 2.757487487792968750e+01 4.313735008239746094e+00 -3.427690267562866211e-01 -2.669475376605987549e-01 -1.829149723052978516e-01 -2.780525982379913330e-01
1.358000000000000000e+03 2.858566093444824219e+01 4.841825962066650391e+00 -3.257312774658203125e-01 -2.075950801372528076e-01 -1.599979102611541748e-01 -2.493914961814880371e-01
1.359000000000000000e+03 2.453201675415039062e+01 2.689041376113891602e+00 -4.396859705448150635e-01 -2.115648388862609863e-01 -1.953752487897872925e-01 -2.877091765403747559e-01
1.360000000000000000e+03 2.348530769348144531e+01 2.062996387481689453e+00 -5.067887902259826660e-01 -1.933530569076538086e-01 -2.100425660610198975e-01 -2.839523851871490479e-01
1.361000000000000000e+03 2.325544929504394531e+01 1.609143853187561035e+00 -5.405457019805908203e-01 -1.725326627492904663e-01 -2.139235138893127441e-01 -2.686327099800109863e-01
1.362000000000000000e+03 1.683358192443847656e+01 -2.122047424316406250e+00 -7.332855463027954102e-01 -4.945272803306579590e-01 -3.683438599109649658e-01 -4.251551926136016846e-01
1.363000000000000000e+03 2.637467956542968750e+01 3.860561609268188477e+00 -3.846565485000610352e-01 -2.571422457695007324e-01 -1.925396323204040527e-01 -3.000003099441528320e-01
1.364000000000000000e+03 2.555240821838378906e+01 3.296482563018798828e+00 -4.056104123592376709e-01 -2.336654067039489746e-01 -1.917827427387237549e-01 -2.868960201740264893e-01
1.365000000000000000e+03 2.436192321777343750e+01 2.581712722778320312e+00 -4.467257261276245117e-01 -2.033962458372116089e-01 -1.950365900993347168e-01 -2.784738838672637939e-01
1.366000000000000000e+03 2.365767097473144531e+01 1.883622646331787109e+00 -5.227441191673278809e-01 -1.881777495145797729e-01 -2.132765501737594604e-01 -2.715314328670501709e-01
1.367000000000000000e+03 2.384249496459960938e+01 2.205189466476440430e+00 -4.883143305778503418e-01 -1.947830170392990112e-01 -2.049292176961898804e-01 -2.841062247753143311e-01
1.368000000000000000e+03 2.725759887695312500e+01 4.393120765686035156e+00 -3.695287704467773438e-01 -2.818968594074249268e-01 -1.954276859760284424e-01 -3.015266954898834229e-01
1.369000000000000000e+03 2.391946411132812500e+01 1.815150856971740723e+00 -4.905751645565032959e-01 -1.779605299234390259e-01 -2.005607038736343384e-01 -2.592314183712005615e-01
1.370000000000000000e+03 2.419516754150390625e+01 2.465973377227783203e+00 -4.520003497600555420e-01 -2.047842442989349365e-01 -1.970353871583938599e-01 -2.827984690666198730e-01
1.371000000000000000e+03 1.735038948059082031e+01 -2.661290645599365234e+00 -3.078978359699249268e-01 -2.352046370506286621e-01 -1.629307419061660767e-01 -2.607933878898620605e-01
1.372000000000000000e+03 2.332946777343750000e+01 1.945483684539794922e+00 -5.148206353187561035e-01 -1.816390901803970337e-01 -2.089379131793975830e-01 -2.793891429901123047e-01
1.373000000000000000e+03 2.667369270324707031e+01 3.653481245040893555e+00 -3.559037148952484131e-01 -2.501582503318786621e-01 -1.818185895681381226e-01 -2.759626507759094238e-01
1.374000000000000000e+03 5.569561004638671875e+01 3.307521820068359375e+01 1.785965919494628906e+00 1.636261558532714844e+01 5.444574356079101562e+00 4.693767070770263672e+00
1.375000000000000000e+03 5.544663619995117188e+01 3.309839630126953125e+01 2.113305330276489258e+00 1.524350929260253906e+01 5.207044601440429688e+00 5.496313571929931641e+00
1.376000000000000000e+03 5.700548171997070312e+01 3.624536514282226562e+01 5.070145130157470703e+00 1.922307777404785156e+01 7.287966728210449219e+00 3.708125352859497070e+00
1.377000000000000000e+03 5.681920242309570312e+01 3.721239471435546875e+01 5.873100757598876953e-01 1.844318771362304688e+01 5.709149360656738281e+00 1.485613703727722168e+00
1.378000000000000000e+03 5.730061340332031250e+01 3.478027343750000000e+01 9.902718544006347656e+00 1.678997993469238281e+01 8.007809638977050781e+00 -2.180919051170349121e-02
1.379000000000000000e+03 5.565942382812500000e+01 3.346505355834960938e+01 2.351493597030639648e+00 1.807076263427734375e+01 6.126677036285400391e+00 5.193040847778320312e+00
1.380000000000000000e+03 5.742254638671875000e+01 3.558720016479492188e+01 8.401276588439941406e+00 1.694790267944335938e+01 7.604753971099853516e+00 2.997662544250488281e+00
1.381000000000000000e+03 5.522357940673828125e+01 3.790222549438476562e+01 2.005191743373870850e-01 1.217298984527587891e+01 3.712052822113037109e+00 -3.368886709213256836e+00
1.382000000000000000e+03 2.049918746948242188e+01 -5.216981172561645508e-01 -2.296205759048461914e+00 -3.511037528514862061e-01 -7.941928505897521973e-01 -4.612150415778160095e-02
1.383000000000000000e+03 2.028849792480468750e+01 -2.446704208850860596e-01 -1.384170651435852051e+00 -1.607572585344314575e-01 -4.634783864021301270e-01 5.723399575799703598e-03
1.384000000000000000e+03 1.882755661010742188e+01 -1.068757653236389160e+00 -1.411015868186950684e+00 3.514106571674346924e-01 -3.178815543651580811e-01 -3.823105096817016602e-01
1.385000000000000000e+03 2.063706398010253906e+01 1.253409832715988159e-01 -1.331816911697387695e+00 -3.736534416675567627e-01 -5.116410851478576660e-01 -7.602117955684661865e-02
1.386000000000000000e+03 1.466778278350830078e+01 5.608153820037841797e+00 1.770732849836349487e-01 5.179890394210815430e-01 2.085186988115310669e-01 2.994797527790069580e-01
1.387000000000000000e+03 1.552892112731933594e+01 5.854308128356933594e+00 2.436902970075607300e-01 3.698489367961883545e-01 1.840617656707763672e-01 2.788412570953369141e-01
1.388000000000000000e+03 3.174345588684082031e+01 2.258268737792968750e+01 7.535123825073242188e-02 9.415937215089797974e-02 5.085318163037300110e-02 9.316670149564743042e-02
1.389000000000000000e+03 3.146113777160644531e+01 2.229938507080078125e+01 7.852800935506820679e-02 9.857260435819625854e-02 5.313018336892127991e-02 9.205387532711029053e-02
1.390000000000000000e+03 3.171986770629882812e+01 2.143020057678222656e+01 9.198649972677230835e-02 8.304149657487869263e-02 5.250839889049530029e-02 9.019968658685684204e-02
1.391000000000000000e+03 1.973415565490722656e+01 1.080962753295898438e+01 1.531918644905090332e-01 1.879161596298217773e-01 1.023324057459831238e-01 1.755431592464447021e-01
1.392000000000000000e+03 4.954204177856445312e+01 3.837627792358398438e+01 -4.198651313781738281e-01 8.144404739141464233e-02 -1.015263274312019348e-01 1.482436954975128174e-01
1.393000000000000000e+03 4.009122848510742188e+01 2.033588027954101562e+01 -4.596277326345443726e-02 1.731984913349151611e-01 3.817071393132209778e-02 4.991123080253601074e-02
1.394000000000000000e+03 3.928626251220703125e+01 1.953990554809570312e+01 -9.993343055248260498e-02 8.059978485107421875e-02 -5.800093989819288254e-03 -2.926573716104030609e-02
1.395000000000000000e+03 4.038533020019531250e+01 2.057954025268554688e+01 -2.579475753009319305e-02 2.110368013381958008e-01 5.557261407375335693e-02 8.324372023344039917e-02
1.396000000000000000e+03 4.071504974365234375e+01 2.140262794494628906e+01 6.548398523591458797e-04 1.579060554504394531e-01 4.756826907396316528e-02 8.264380693435668945e-02
1.397000000000000000e+03 3.460235977172851562e+01 1.415125560760498047e+01 -4.376606643199920654e-01 -3.164331614971160889e-01 -2.262281626462936401e-01 -3.785531520843505859e-01
1.398000000000000000e+03 3.152704429626464844e+01 1.151176643371582031e+01 -7.461633682250976562e-01 -5.723218321800231934e-01 -3.955455720424652100e-01 -6.023124456405639648e-01
1.399000000000000000e+03 3.267877578735351562e+01 1.203550529479980469e+01 -6.010639071464538574e-01 -4.053864479064941406e-01 -3.019351065158843994e-01 -4.826374053955078125e-01
1.400000000000000000e+03 3.311135864257812500e+01 2.338562965393066406e+01 7.696779072284698486e-02 1.008286327123641968e-01 5.333892628550529480e-02 8.390262722969055176e-02
1.401000000000000000e+03 3.801723098754882812e+01 1.860549926757812500e+01 -1.837451457977294922e-01 -1.259857416152954102e-01 -9.291926771402359009e-02 -1.596953421831130981e-01
1.402000000000000000e+03 3.903815460205078125e+01 1.925372505187988281e+01 -1.194840297102928162e-01 5.564027279615402222e-02 -1.915312744677066803e-02 -5.002873018383979797e-02
1.403000000000000000e+03 3.354454040527343750e+01 2.436075782775878906e+01 7.472495734691619873e-02 1.005593538284301758e-01 5.258529260754585266e-02 8.431206643581390381e-02
1.404000000000000000e+03 4.660720443725585938e+01 2.607213401794433594e+01 7.546783685684204102e-01 1.434915661811828613e+00 6.568782329559326172e-01 1.109594941139221191e+00
1.405000000000000000e+03 4.131274795532226562e+01 2.193409156799316406e+01 5.584167689085006714e-02 2.337752431631088257e-01 8.688507229089736938e-02 1.490411460399627686e-01
1.406000000000000000e+03 4.639158248901367188e+01 2.635275459289550781e+01 7.765550017356872559e-01 1.240779757499694824e+00 6.052004098892211914e-01 1.029394388198852539e+00
1.407000000000000000e+03 3.337752151489257812e+01 2.365715026855468750e+01 7.150170207023620605e-02 9.956949204206466675e-02 5.132135748863220215e-02 8.776263892650604248e-02
1.408000000000000000e+03 1.800366020202636719e+01 8.511339187622070312e+00 1.934958994388580322e-01 2.358010709285736084e-01 1.287890970706939697e-01 2.083390951156616211e-01
1.409000000000000000e+03 2.151672744750976562e+01 1.237534332275390625e+01 1.447085291147232056e-01 1.747722178697586060e-01 9.584422409534454346e-02 1.619221568107604980e-01
1.410000000000000000e+03 4.556882858276367188e+01 2.553734207153320312e+01 6.403229236602783203e-01 1.078680753707885742e+00 5.157011151313781738e-01 8.559445142745971680e-01
1.411000000000000000e+03 2.531744384765625000e+01 1.638476943969726562e+01 1.193903088569641113e-01 1.338447481393814087e-01 7.597051560878753662e-02 1.293152421712875366e-01
1.412000000000000000e+03 3.776300430297851562e+01 1.830033683776855469e+01 -2.059164047241210938e-01 -1.516026705503463745e-01 -1.072557196021080017e-01 -1.823687702417373657e-01
1.413000000000000000e+03 3.878816223144531250e+01 1.896121597290039062e+01 -1.371733099222183228e-01 3.199042007327079773e-02 -3.155486658215522766e-02 -7.209572196006774902e-02
1.414000000000000000e+03 4.218979644775390625e+01 2.276936721801757812e+01 1.623597294092178345e-01 3.459317684173583984e-01 1.524874567985534668e-01 2.581089138984680176e-01
1.415000000000000000e+03 4.301385498046875000e+01 2.304716873168945312e+01 2.392287701368331909e-01 5.818108320236206055e-01 2.463118880987167358e-01 4.160661995410919189e-01
1.416000000000000000e+03 4.687897872924804688e+01 2.633917427062988281e+01 8.056786656379699707e-01 1.507164120674133301e+00 6.938528418540954590e-01 1.173754572868347168e+00
1.417000000000000000e+03 3.513980484008789062e+01 1.476104164123535156e+01 -3.922278583049774170e-01 -2.815764248371124268e-01 -2.021412700414657593e-01 -3.475212454795837402e-01
1.418000000000000000e+03 3.431951904296875000e+01 1.440587043762207031e+01 -4.559639394283294678e-01 -4.161658585071563721e-01 -2.616389393806457520e-01 -4.300535321235656738e-01
1.419000000000000000e+03 2.090486907958984375e+01 1.128784751892089844e+01 1.586526632308959961e-01 1.854960471391677856e-01 1.032446101307868958e-01 1.687022596597671509e-01
1.420000000000000000e+03 1.495734310150146484e+01 5.895801067352294922e+00 1.977255046367645264e-01 4.486237764358520508e-01 1.939047873020172119e-01 2.817454338073730469e-01
1.421000000000000000e+03 4.244407272338867188e+01 2.248554992675781250e+01 1.650696545839309692e-01 4.932602643966674805e-01 1.974989771842956543e-01 3.326210677623748779e-01
1.422000000000000000e+03 2.061157226562500000e+01 1.101439762115478516e+01 1.615329384803771973e-01 1.868881434202194214e-01 1.045263260602951050e-01 1.689402759075164795e-01
1.423000000000000000e+03 2.006524276733398438e+01 1.106330490112304688e+01 1.542032957077026367e-01 1.868317574262619019e-01 1.023105159401893616e-01 1.694846004247665405e-01
1.424000000000000000e+03 3.123989295959472656e+01 1.125645065307617188e+01 -7.712951302528381348e-01 -5.693422555923461914e-01 -4.021912217140197754e-01 -6.424710750579833984e-01
1.425000000000000000e+03 4.731518554687500000e+01 2.771485328674316406e+01 1.089445590972900391e+00 1.313596487045288086e+00 7.209126353263854980e-01 1.215453267097473145e+00
1.426000000000000000e+03 3.540491485595703125e+01 1.506187915802001953e+01 -3.763030469417572021e-01 -2.653022110462188721e-01 -1.924815773963928223e-01 -3.272355198860168457e-01
1.427000000000000000e+03 3.320012283325195312e+01 1.266174125671386719e+01 -5.311251282691955566e-01 -3.997540771961212158e-01 -2.792637646198272705e-01 -4.614546597003936768e-01
1.428000000000000000e+03 1.635710716247558594e+01 7.289980888366699219e+00 1.814070194959640503e-01 3.047183752059936523e-01 1.458376199007034302e-01 2.370952069759368896e-01
1.429000000000000000e+03 1.600654411315917969e+01 8.203782081604003906e+00 1.439663618803024292e-01 3.057448863983154297e-01 1.349133849143981934e-01 1.979324221611022949e-01
1.430000000000000000e+03 3.655710220336914062e+01 2.770000267028808594e+01 8.192341774702072144e-02 1.013877913355827332e-01 5.499336495995521545e-02 7.896421849727630615e-02
1.431000000000000000e+03 3.750582504272460938e+01 1.799562072753906250e+01 -2.300395816564559937e-01 -1.779866218566894531e-01 -1.224078610539436340e-01 -2.028704732656478882e-01
1.432000000000000000e+03 3.979094696044921875e+01 1.955488204956054688e+01 -7.655949890613555908e-02 2.103269249200820923e-01 4.013023152947425842e-02 4.007194191217422485e-02
1.433000000000000000e+03 4.694641876220703125e+01 2.689006423950195312e+01 8.966096639633178711e-01 1.375886917114257812e+00 6.817489862442016602e-01 1.158714771270751953e+00
1.434000000000000000e+03 3.913525390625000000e+01 2.981468963623046875e+01 7.230745255947113037e-02 7.503943145275115967e-02 4.420406371355056763e-02 8.644007891416549683e-02
1.435000000000000000e+03 2.391218566894531250e+01 1.441212081909179688e+01 1.437554806470870972e-01 1.516955047845840454e-01 8.863529562950134277e-02 1.442078948020935059e-01
1.436000000000000000e+03 3.239485931396484375e+01 1.173680305480957031e+01 -6.290113925933837891e-01 -4.138735234737396240e-01 -3.128654956817626953e-01 -4.967530667781829834e-01
1.437000000000000000e+03 2.205313682556152344e+01 1.291614055633544922e+01 1.452497243881225586e-01 1.693789809942245483e-01 9.438861161470413208e-02 1.574451178312301636e-01
1.438000000000000000e+03 4.330134963989257812e+01 2.332380676269531250e+01 2.790354788303375244e-01 6.336101293563842773e-01 2.737936973571777344e-01 4.608250558376312256e-01
1.439000000000000000e+03 2.619953536987304688e+01 1.665763092041015625e+01 1.245996206998825073e-01 1.359200924634933472e-01 7.815591245889663696e-02 1.271625012159347534e-01
1.440000000000000000e+03 2.561269760131835938e+01 1.665654945373535156e+01 1.198327541351318359e-01 1.345872133970260620e-01 7.632599025964736938e-02 1.256802827119827271e-01
1.441000000000000000e+03 2.920192909240722656e+01 2.029187393188476562e+01 9.262526035308837891e-02 1.093178018927574158e-01 6.058291718363761902e-02 1.048164442181587219e-01
1.442000000000000000e+03 4.450911712646484375e+01 2.496825790405273438e+01 5.303971767425537109e-01 7.815479636192321777e-01 3.935835361480712891e-01 6.376041173934936523e-01
1.443000000000000000e+03 4.529359436035156250e+01 2.526207160949707031e+01 5.985143780708312988e-01 1.031055927276611328e+00 4.888710677623748779e-01 8.005554676055908203e-01
1.444000000000000000e+03 5.009068298339843750e+01 2.983764076232910156e+01 1.781398057937622070e+00 2.585462808609008789e+00 1.310058236122131348e+00 2.150681257247924805e+00
1.445000000000000000e+03 4.962983703613281250e+01 2.987711906433105469e+01 1.777941584587097168e+00 2.191993951797485352e+00 1.190980672836303711e+00 1.970824122428894043e+00
1.446000000000000000e+03 1.437320423126220703e+01 5.317627429962158203e+00 1.607223600149154663e-01 6.326016187667846680e-01 2.379972040653228760e-01 2.891221642494201660e-01
1.447000000000000000e+03 4.789720535278320312e+01 2.824939155578613281e+01 1.269601583480834961e+00 1.509009122848510742e+00 8.335832357406616211e-01 1.390771150588989258e+00
1.448000000000000000e+03 4.905850601196289062e+01 2.933228111267089844e+01 1.623315572738647461e+00 1.965175032615661621e+00 1.076547145843505859e+00 1.772306799888610840e+00
1.449000000000000000e+03 3.566901397705078125e+01 1.536117267608642578e+01 -3.554370105266571045e-01 -2.458126395940780640e-01 -1.803748905658721924e-01 -3.111388385295867920e-01
1.450000000000000000e+03 3.399086761474609375e+01 2.545398139953613281e+01 6.922049075365066528e-02 9.767006337642669678e-02 5.006716772913932800e-02 8.612865209579467773e-02
1.451000000000000000e+03 5.037622070312500000e+01 3.009915351867675781e+01 1.861058115959167480e+00 2.728879690170288086e+00 1.376981377601623535e+00 2.254573583602905273e+00
1.452000000000000000e+03 2.818750572204589844e+01 1.915524291992187500e+01 1.031953990459442139e-01 1.157820299267768860e-01 6.569322943687438965e-02 1.119929105043411255e-01
1.453000000000000000e+03 4.722761535644531250e+01 2.715704154968261719e+01 9.652940034866333008e-01 1.454931855201721191e+00 7.260677814483642578e-01 1.230534672737121582e+00
1.454000000000000000e+03 4.848052978515625000e+01 2.878845596313476562e+01 1.452068328857421875e+00 1.735974431037902832e+00 9.564128518104553223e-01 1.579151630401611328e+00
1.455000000000000000e+03 3.593272781372070312e+01 1.566003894805908203e+01 -3.430204391479492188e-01 -2.277347743511199951e-01 -1.712265610694885254e-01 -2.908016443252563477e-01
1.456000000000000000e+03 3.619657135009765625e+01 1.595924282073974609e+01 -3.247822523117065430e-01 -2.068722546100616455e-01 -1.594963520765304565e-01 -2.743976414203643799e-01
1.457000000000000000e+03 3.646034622192382812e+01 1.625881195068359375e+01 -3.117990493774414062e-01 -1.874948441982269287e-01 -1.497881710529327393e-01 -2.541390359401702881e-01
1.458000000000000000e+03 4.952341079711914062e+01 2.930416297912597656e+01 1.624028444290161133e+00 2.327555418014526367e+00 1.185475111007690430e+00 1.943168520927429199e+00
1.459000000000000000e+03 4.215871810913085938e+01 2.219894409179687500e+01 1.303453296422958374e-01 4.540221691131591797e-01 1.753102540969848633e-01 2.940438091754913330e-01
1.460000000000000000e+03 2.790575981140136719e+01 1.887535667419433594e+01 1.077107861638069153e-01 1.193610653281211853e-01 6.812155991792678833e-02 1.121738925576210022e-01
1.461000000000000000e+03 3.724571228027343750e+01 1.769244766235351562e+01 -2.501350939273834229e-01 -2.008667588233947754e-01 -1.353005617856979370e-01 -2.257643342018127441e-01
1.462000000000000000e+03 4.358946990966796875e+01 2.359916496276855469e+01 3.210643529891967773e-01 6.897212862968444824e-01 3.032357096672058105e-01 5.070559382438659668e-01
1.463000000000000000e+03 2.849551010131835938e+01 1.888863372802734375e+01 1.117912754416465759e-01 1.136253029108047485e-01 6.762497127056121826e-02 1.114752814173698425e-01
1.464000000000000000e+03 2.877740097045898438e+01 1.916641616821289062e+01 1.062855273485183716e-01 1.104857549071311951e-01 6.503138691186904907e-02 1.113701760768890381e-01
1.465000000000000000e+03 2.898687171936035156e+01 1.997965049743652344e+01 1.012924909591674805e-01 1.105313822627067566e-01 6.354716420173645020e-02 1.044046357274055481e-01
1.466000000000000000e+03 3.672363281250000000e+01 1.655864143371582031e+01 -2.930333316326141357e-01 -1.661197543144226074e-01 -1.377459317445755005e-01 -2.365669459104537964e-01
1.467000000000000000e+03 1.316840934753417969e+01 3.341671705245971680e+00 4.627026915550231934e-01 1.451453208923339844e+00 5.742467641830444336e-01 -3.528865575790405273e-01
1.468000000000000000e+03 3.120010185241699219e+01 9.867847442626953125e+00 -7.666628360748291016e-01 -3.283063173294067383e-01 -3.284907639026641846e-01 -3.983760476112365723e-01
1.469000000000000000e+03 3.049242210388183594e+01 1.000086212158203125e+01 -9.121251702308654785e-01 -4.410495162010192871e-01 -4.059523940086364746e-01 -5.395580530166625977e-01
1.470000000000000000e+03 3.146340751647949219e+01 2.289999771118164062e+01 7.557284832000732422e-02 9.941791743040084839e-02 5.249723047018051147e-02 9.090395271778106689e-02
1.471000000000000000e+03 3.109304428100585938e+01 2.094408607482910156e+01 1.016404554247856140e-01 9.608768671751022339e-02 5.931844189763069153e-02 1.002891734242439270e-01
1.472000000000000000e+03 2.983756828308105469e+01 2.097958946228027344e+01 8.989458531141281128e-02 1.048839539289474487e-01 5.843356251716613770e-02 1.005476042628288269e-01
1.473000000000000000e+03 2.734847068786621094e+01 1.777744102478027344e+01 1.213165819644927979e-01 1.267630755901336670e-01 7.442389428615570068e-02 1.208968758583068848e-01
1.474000000000000000e+03 4.751140975952148438e+01 2.742352294921875000e+01 1.039434790611267090e+00 1.543960809707641602e+00 7.750186920166015625e-01 1.306481838226318359e+00
1.475000000000000000e+03 4.837457656860351562e+01 2.822561836242675781e+01 1.283919930458068848e+00 1.857767820358276367e+00 9.425063133239746094e-01 1.559944868087768555e+00
1.476000000000000000e+03 3.870308685302734375e+01 3.108698844909667969e+01 7.017604261636734009e-02 8.420436084270477295e-02 4.631412029266357422e-02 7.413353025913238525e-02
1.477000000000000000e+03 3.942179107666015625e+01 3.011044120788574219e+01 8.976865559816360474e-02 8.692126721143722534e-02 5.300697684288024902e-02 7.169661670923233032e-02
1.478000000000000000e+03 2.706061553955078125e+01 1.749881935119628906e+01 1.219571605324745178e-01 1.292150318622589111e-01 7.535165548324584961e-02 1.242047473788261414e-01
1.479000000000000000e+03 5.248404312133789062e+01 3.300596237182617188e+01 2.247627496719360352e+00 2.278727293014526367e+00 1.357906460762023926e+00 2.417905092239379883e+00
1.480000000000000000e+03 5.229837799072265625e+01 3.266234970092773438e+01 2.336403369903564453e+00 2.605116128921508789e+00 1.482455849647521973e+00 2.563651561737060547e+00
1.481000000000000000e+03 4.192192840576171875e+01 3.286551284790039062e+01 8.697273582220077515e-02 7.585603743791580200e-02 4.884863272309303284e-02 6.215682998299598694e-02
1.482000000000000000e+03 2.124239540100097656e+01 1.210757637023925781e+01 1.461712867021560669e-01 1.799393147230148315e-01 9.783317893743515015e-02 1.620318889617919922e-01
1.483000000000000000e+03 3.258584976196289062e+01 2.338809204101562500e+01 7.621309161186218262e-02 9.766695648431777954e-02 5.216401442885398865e-02 8.530621975660324097e-02
1.484000000000000000e+03 2.143243408203125000e+01 2.653314471244812012e-01 -1.102892518043518066e+00 -1.910812854766845703e-01 -3.881921470165252686e-01 -1.841866523027420044e-01
1.485000000000000000e+03 2.137624740600585938e+01 -4.498157501220703125e-01 -1.311027169227600098e+00 -1.650469303131103516e-01 -4.428222179412841797e-01 4.039191454648971558e-02
1.486000000000000000e+03 1.833635902404785156e+01 -1.572871923446655273e+00 -9.047215580940246582e-01 1.393379420042037964e-01 -2.296150773763656616e-01 -4.783231317996978760e-01
1.487000000000000000e+03 2.012121963500976562e+01 -4.050065577030181885e-02 -1.581844687461853027e+00 -1.668345555663108826e-02 -4.795584380626678467e-01 -4.871882125735282898e-02
1.488000000000000000e+03 1.871590423583984375e+01 -8.772502541542053223e-01 -1.297310471534729004e+00 2.724126875400543213e-01 -3.074693083763122559e-01 -3.863570094108581543e-01
1.489000000000000000e+03 2.258640289306640625e+01 9.136810302734375000e-01 -7.366570234298706055e-01 -1.657128483057022095e-01 -2.707109749317169189e-01 -2.599180638790130615e-01
1.490000000000000000e+03 2.648614692687988281e+01 1.693859100341796875e+01 1.237785071134567261e-01 1.339355558156967163e-01 7.731422036886215210e-02 1.273376792669296265e-01
1.491000000000000000e+03 2.471147918701171875e+01 1.584249973297119141e+01 1.199638545513153076e-01 1.377376765012741089e-01 7.731045782566070557e-02 1.343167275190353394e-01
1.492000000000000000e+03 2.283583450317382812e+01 1.324173355102539062e+01 1.531239151954650879e-01 1.699865609407424927e-01 9.693314135074615479e-02 1.564804017543792725e-01
1.493000000000000000e+03 5.066610336303710938e+01 3.035445976257324219e+01 1.941946268081665039e+00 2.880543470382690430e+00 1.446746945381164551e+00 2.359034776687622070e+00
1.494000000000000000e+03 3.812934112548828125e+01 2.954804992675781250e+01 8.553791046142578125e-02 8.814930170774459839e-02 5.210616439580917358e-02 7.596755772829055786e-02
1.495000000000000000e+03 2.762235260009765625e+01 1.859539604187011719e+01 1.079105362296104431e-01 1.212410479784011841e-01 6.874547153711318970e-02 1.157369613647460938e-01
1.496000000000000000e+03 1.864146804809570312e+01 9.006328582763671875e+00 1.940754950046539307e-01 2.251793444156646729e-01 1.257764548063278198e-01 2.007693797349929810e-01
1.497000000000000000e+03 3.432624816894531250e+01 1.384429550170898438e+01 -4.635415971279144287e-01 -3.403298556804656982e-01 -2.411614358425140381e-01 -3.881496191024780273e-01
1.498000000000000000e+03 3.924360656738281250e+01 3.088339614868164062e+01 8.565417677164077759e-02 8.617517352104187012e-02 5.154880136251449585e-02 6.676477193832397461e-02
1.499000000000000000e+03 4.507301330566406250e+01 3.557114028930664062e+01 4.903363063931465149e-02 5.018251389265060425e-02 2.976484410464763641e-02 7.573271542787551880e-02
1.500000000000000000e+03 4.443947982788085938e+01 3.716730117797851562e+01 5.924499034881591797e-02 4.773595184087753296e-02 3.209428116679191589e-02 9.724777191877365112e-02
1.501000000000000000e+03 3.698617553710937500e+01 1.685880088806152344e+01 -2.781736850738525391e-01 -1.458330452442169189e-01 -1.272020190954208374e-01 -2.152463346719741821e-01
1.502000000000000000e+03 4.611688613891601562e+01 2.608228111267089844e+01 7.266637682914733887e-01 1.182092189788818359e+00 5.726267695426940918e-01 9.701914787292480469e-01
1.503000000000000000e+03 3.894823837280273438e+01 3.056331634521484375e+01 7.465741783380508423e-02 7.460466027259826660e-02 4.477862268686294556e-02 8.552893996238708496e-02
1.504000000000000000e+03 4.586647796630859375e+01 3.554143524169921875e+01 4.672086611390113831e-02 2.772395499050617218e-02 2.233344689011573792e-02 6.395220011472702026e-02
1.505000000000000000e+03 5.096443557739257812e+01 3.060141754150390625e+01 2.027244567871093750e+00 3.042130708694458008e+00 1.520812630653381348e+00 2.466506958007812500e+00
1.506000000000000000e+03 2.471310997009277344e+01 1.641392707824707031e+01 1.140048652887344360e-01 1.374660730361938477e-01 7.544127851724624634e-02 1.293767839670181274e-01
1.507000000000000000e+03 4.187044143676757812e+01 2.191005706787109375e+01 9.671446681022644043e-02 4.154908955097198486e-01 1.536616086959838867e-01 2.570748627185821533e-01
1.508000000000000000e+03 4.068287277221679688e+01 2.082386016845703125e+01 -5.910215899348258972e-03 2.491673678159713745e-01 7.297714799642562866e-02 1.170422434806823730e-01
1.509000000000000000e+03 4.127919006347656250e+01 2.134347152709960938e+01 3.951677307486534119e-02 3.328467309474945068e-01 1.117090582847595215e-01 1.871128678321838379e-01
1.510000000000000000e+03 5.215508651733398438e+01 3.226918029785156250e+01 2.425705671310424805e+00 2.956797122955322266e+00 1.614750862121582031e+00 2.733080625534057617e+00
1.511000000000000000e+03 4.225756072998046875e+01 3.314156341552734375e+01 8.258666098117828369e-02 4.969673231244087219e-02 3.968501836061477661e-02 7.685454934835433960e-02
1.512000000000000000e+03 3.041949844360351562e+01 2.109430503845214844e+01 9.172450751066207886e-02 1.008708328008651733e-01 5.777860060334205627e-02 9.853890538215637207e-02
1.513000000000000000e+03 4.387759399414062500e+01 2.387433624267578125e+01 3.652851283550262451e-01 7.498525381088256836e-01 3.345412909984588623e-01 5.539400577545166016e-01
1.514000000000000000e+03 4.416511917114257812e+01 2.415028762817382812e+01 4.114162921905517578e-01 8.120176792144775391e-01 3.670302033424377441e-01 6.013029813766479492e-01
1.515000000000000000e+03 3.709434509277343750e+01 2.830834960937500000e+01 8.346305787563323975e-02 9.974583983421325684e-02 5.496266856789588928e-02 7.836022228002548218e-02
1.516000000000000000e+03 3.724783325195312500e+01 1.715940666198730469e+01 -2.585921585559844971e-01 -1.229208633303642273e-01 -1.144539043307304382e-01 -1.960299015045166016e-01
1.517000000000000000e+03 3.750854110717773438e+01 1.746057128906250000e+01 -2.418950200080871582e-01 -9.989345818758010864e-02 -1.025365442037582397e-01 -1.740072965621948242e-01
1.518000000000000000e+03 4.263184356689453125e+01 3.332735061645507812e+01 8.364401012659072876e-02 7.413740456104278564e-02 4.733442515134811401e-02 6.418130546808242798e-02
1.519000000000000000e+03 3.599034881591796875e+01 2.711213684082031250e+01 7.903005927801132202e-02 9.850586950778961182e-02 5.326077714562416077e-02 8.112833648920059204e-02
1.520000000000000000e+03 1.937914466857910156e+01 1.054639720916748047e+01 1.522911190986633301e-01 1.983903348445892334e-01 1.052044332027435303e-01 1.785259246826171875e-01
1.521000000000000000e+03 4.303990173339843750e+01 3.399530792236328125e+01 7.313375920057296753e-02 4.991948604583740234e-02 3.691597282886505127e-02 7.391236722469329834e-02
1.522000000000000000e+03 4.249363708496093750e+01 3.369842910766601562e+01 8.380416780710220337e-02 5.335385352373123169e-02 4.114740341901779175e-02 6.960109621286392212e-02
1.523000000000000000e+03 2.310513877868652344e+01 1.353227901458740234e+01 1.525206267833709717e-01 1.663379818201065063e-01 9.565757960081100464e-02 1.554830670356750488e-01
1.524000000000000000e+03 2.178649902343750000e+01 1.264437770843505859e+01 1.454664915800094604e-01 1.727745980024337769e-01 9.547232836484909058e-02 1.588830351829528809e-01
1.525000000000000000e+03 3.208897399902343750e+01 1.147092819213867188e+01 -6.740865111351013184e-01 -4.346229434013366699e-01 -3.326128423213958740e-01 -4.979513883590698242e-01
1.526000000000000000e+03 3.326545715332031250e+01 2.513488006591796875e+01 6.653621792793273926e-02 9.981083869934082031e-02 4.990411922335624695e-02 8.485997468233108521e-02
1.527000000000000000e+03 4.493865966796875000e+01 3.512956237792968750e+01 8.071096986532211304e-02 5.269538983702659607e-02 4.002190753817558289e-02 6.205899268388748169e-02
1.528000000000000000e+03 4.445127105712890625e+01 2.442765617370605469e+01 4.590449929237365723e-01 8.730046153068542480e-01 3.996148705482482910e-01 6.484530568122863770e-01
1.529000000000000000e+03 3.338591384887695312e+01 2.411915397644042969e+01 7.003664225339889526e-02 9.944497793912887573e-02 5.084448680281639099e-02 8.823418617248535156e-02
1.530000000000000000e+03 2.096186447143554688e+01 1.184142017364501953e+01 1.474839001893997192e-01 1.818843483924865723e-01 9.881047904491424561e-02 1.636520475149154663e-01
1.531000000000000000e+03 3.784922409057617188e+01 2.924256515502929688e+01 7.150926440954208374e-02 8.550558239221572876e-02 4.710445553064346313e-02 8.573631197214126587e-02
1.532000000000000000e+03 2.337445640563964844e+01 1.382434654235839844e+01 1.524598747491836548e-01 1.627485156059265137e-01 9.456251561641693115e-02 1.514420509338378906e-01
1.533000000000000000e+03 3.325220108032226562e+01 1.208436775207519531e+01 -5.454030632972717285e-01 -3.111255764961242676e-01 -2.569585740566253662e-01 -4.098554849624633789e-01
1.534000000000000000e+03 2.309589958190917969e+01 1.405954837799072266e+01 1.407065093517303467e-01 1.620233803987503052e-01 9.081897139549255371e-02 1.463034749031066895e-01
1.535000000000000000e+03 5.127671813964843750e+01 3.083645820617675781e+01 2.118079900741577148e+00 3.205718994140625000e+00 1.597139596939086914e+00 2.583581209182739258e+00
1.536000000000000000e+03 5.216918563842773438e+01 3.182596206665039062e+01 2.516942501068115234e+00 3.371401309967041016e+00 1.766503095626831055e+00 2.954573154449462891e+00
1.537000000000000000e+03 2.359302711486816406e+01 1.466871261596679688e+01 1.313828676939010620e-01 1.547015011310577393e-01 8.582530915737152100e-02 1.412677317857742310e-01
1.538000000000000000e+03 2.334615325927734375e+01 1.435961341857910156e+01 1.377469003200531006e-01 1.594302207231521606e-01 8.915314078330993652e-02 1.424074769020080566e-01
1.539000000000000000e+03 3.347216796875000000e+01 1.296337413787841797e+01 -5.010213255882263184e-01 -3.903386592864990234e-01 -2.674080133438110352e-01 -4.481627047061920166e-01
1.540000000000000000e+03 3.683587265014648438e+01 2.799677467346191406e+01 7.434788346290588379e-02 9.548103064298629761e-02 5.094867199659347534e-02 8.795557171106338501e-02
1.541000000000000000e+03 3.119069671630859375e+01 2.197823524475097656e+01 7.886238396167755127e-02 9.827312827110290527e-02 5.314065515995025635e-02 9.417302906513214111e-02
1.542000000000000000e+03 3.086502265930175781e+01 2.226224517822265625e+01 7.780711352825164795e-02 1.040080115199089050e-01 5.454453825950622559e-02 9.313492476940155029e-02
1.543000000000000000e+03 3.313604354858398438e+01 2.389805412292480469e+01 7.413369417190551758e-02 1.006036549806594849e-01 5.242120474576950073e-02 8.435187488794326782e-02
1.544000000000000000e+03 5.160621261596679688e+01 3.105331802368164062e+01 2.230938196182250977e+00 3.379930734634399414e+00 1.683260679244995117e+00 2.741023063659667969e+00
1.545000000000000000e+03 3.091321945190429688e+01 1.027029228210449219e+01 -8.299216628074645996e-01 -4.154730439186096191e-01 -3.736184239387512207e-01 -5.467717647552490234e-01
1.546000000000000000e+03 3.116909217834472656e+01 1.077190399169921875e+01 -7.935320138931274414e-01 -4.512957036495208740e-01 -3.734483122825622559e-01 -5.581898689270019531e-01
1.547000000000000000e+03 2.067368316650390625e+01 1.157796382904052734e+01 1.507985740900039673e-01 1.852853596210479736e-01 1.008251830935478210e-01 1.634066700935363770e-01
1.548000000000000000e+03 3.688665771484375000e+01 2.890615272521972656e+01 8.096878230571746826e-02 9.726253151893615723e-02 5.346939340233802795e-02 7.480923831462860107e-02
1.549000000000000000e+03 3.294171142578125000e+01 1.234912586212158203e+01 -5.524032711982727051e-01 -3.971841037273406982e-01 -2.848761975765228271e-01 -4.806647896766662598e-01
1.550000000000000000e+03 1.580896472930908203e+01 6.144302845001220703e+00 2.340443581342697144e-01 3.580150902271270752e-01 1.776178330183029175e-01 2.649276256561279297e-01
1.551000000000000000e+03 1.888113594055175781e+01 9.839426994323730469e+00 1.618166863918304443e-01 2.152495384216308594e-01 1.131198704242706299e-01 1.851864308118820190e-01
1.552000000000000000e+03 1.867303466796875000e+01 9.524206161499023438e+00 1.687398552894592285e-01 2.204699367284774780e-01 1.167629361152648926e-01 1.898845583200454712e-01
1.553000000000000000e+03 3.029580307006835938e+01 5.450969696044921875e+00 -1.924653053283691406e-01 -3.409636393189430237e-02 -6.796850264072418213e-02 -3.099268376827239990e-01
1.554000000000000000e+03 2.953498268127441406e+01 5.462922096252441406e+00 -2.906217575073242188e-01 -5.347763374447822571e-02 -1.032298132777214050e-01 -3.016029596328735352e-01
1.555000000000000000e+03 4.561892700195312500e+01 3.828577423095703125e+01 7.877461612224578857e-02 7.390089333057403564e-02 4.580265283584594727e-02 1.208792179822921753e-01
1.556000000000000000e+03 4.848365402221679688e+01 3.812129974365234375e+01 -1.937120109796524048e-01 8.825421333312988281e-02 -3.163733705878257751e-02 1.168988719582557678e-01
1.557000000000000000e+03 1.610708999633789062e+01 6.999698162078857422e+00 1.904499679803848267e-01 3.318256437778472900e-01 1.566826850175857544e-01 2.356311082839965820e-01
1.558000000000000000e+03 1.582884407043457031e+01 6.728582382202148438e+00 1.940820068120956421e-01 3.502662181854248047e-01 1.633044630289077759e-01 2.435276359319686890e-01
1.559000000000000000e+03 1.406631278991699219e+01 5.021502017974853516e+00 1.405596286058425903e-01 7.686629295349121094e-01 2.727667689323425293e-01 2.573686838150024414e-01
1.560000000000000000e+03 5.392078399658203125e+01 3.808129119873046875e+01 2.286996364593505859e+00 8.610085487365722656e+00 3.269124507904052734e+00 -2.654608011245727539e+00
1.561000000000000000e+03 1.234614181518554688e+01 3.457870483398437500e+00 5.707792639732360840e-01 4.891301989555358887e-01 3.179728388786315918e-01 -3.095982670783996582e-01
1.562000000000000000e+03 5.380306625366210938e+01 3.910510253906250000e+01 -3.979000821709632874e-02 6.541833877563476562e+00 1.950613260269165039e+00 -2.659405946731567383e+00
1.563000000000000000e+03 1.151531982421875000e+01 2.051457405090332031e+00 3.709967136383056641e-01 -3.590738177299499512e-01 3.576871939003467560e-03 2.947161197662353516e-01
1.564000000000000000e+03 1.347368717193603516e+01 3.722208499908447266e+00 2.618360519409179688e-01 1.484397768974304199e+00 5.238701701164245605e-01 2.669631876051425934e-02
1.565000000000000000e+03 5.398308563232421875e+01 3.781149673461914062e+01 1.935884475708007812e+00 8.071146011352539062e+00 3.002109050750732422e+00 -3.064766407012939453e+00
1.566000000000000000e+03 5.468925476074218750e+01 3.750112152099609375e+01 1.145729064941406250e+00 9.041459083557128906e+00 3.056156396865844727e+00 -4.214108943939208984e+00
1.567000000000000000e+03 1.303470706939697266e+01 2.557803392410278320e+00 8.120930194854736328e-01 1.346825003623962402e+00 6.476753950119018555e-01 -5.141369104385375977e-01
1.568000000000000000e+03 5.271295166015625000e+01 3.904758453369140625e+01 -1.457984298467636108e-01 4.741372168064117432e-01 9.850163757801055908e-02 -1.243036150932312012e+00
1.569000000000000000e+03 5.115988540649414062e+01 3.914490890502929688e+01 -8.177378773689270020e-01 5.612186789512634277e-01 -7.695575058460235596e-02 2.034527659416198730e-01
1.570000000000000000e+03 4.942441177368164062e+01 3.793288040161132812e+01 -3.403650224208831787e-01 1.083853691816329956e-01 -6.959389895200729370e-02 -2.135179750621318817e-02
1.571000000000000000e+03 1.028013229370117188e+01 -2.891410827636718750e+00 -3.446062207221984863e-01 -2.999177388846874237e-02 -1.123794019222259521e-01 -2.394125312566757202e-01
1.572000000000000000e+03 5.189614868164062500e+01 3.983781051635742188e+01 3.271140456199645996e-01 4.861422479152679443e-01 2.439768761396408081e-01 -4.345526993274688721e-01
1.573000000000000000e+03 4.657576751708984375e+01 3.607346725463867188e+01 3.012216091156005859e-02 1.855649985373020172e-02 1.460359804332256317e-02 6.386618316173553467e-02
1.574000000000000000e+03 4.726057815551757812e+01 3.647592163085937500e+01 6.540879840031266212e-04 -2.174289710819721222e-02 -6.326642818748950958e-03 5.683288723230361938e-02
1.575000000000000000e+03 7.879892826080322266e+00 3.092116117477416992e+00 -2.054631710052490234e-02 -1.844270378351211548e-01 -6.149200350046157837e-02 2.584235668182373047e-01
1.576000000000000000e+03 6.498747348785400391e+00 3.195100545883178711e+00 -5.161971226334571838e-02 -1.207358241081237793e-01 -5.170666053891181946e-02 2.078469395637512207e-01
1.577000000000000000e+03 5.383586406707763672e+00 4.133906841278076172e+00 1.149690127931535244e-03 -1.134249940514564514e-01 -3.368258848786354065e-02 1.601581275463104248e-01
1.578000000000000000e+03 5.648806571960449219e+00 2.586143732070922852e+00 -1.018637791275978088e-01 -7.356189191341400146e-02 -5.262770131230354309e-02 1.701792925596237183e-01
1.579000000000000000e+03 3.563323736190795898e+00 2.934458971023559570e+00 -4.560972377657890320e-02 -5.758313834667205811e-02 -3.095785900950431824e-02 1.049135774374008179e-01
1.580000000000000000e+03 4.262308120727539062e+00 2.782793045043945312e+00 -6.308756023645401001e-02 -6.031963229179382324e-02 -3.702215850353240967e-02 1.248089373111724854e-01
1.581000000000000000e+03 5.823503971099853516e+00 3.289825916290283203e+00 -4.935973882675170898e-02 -9.863036870956420898e-02 -4.439703375101089478e-02 1.812239587306976318e-01
1.582000000000000000e+03 9.963650703430175781e+00 2.325800657272338867e+00 9.739468805491924286e-03 -3.404270708560943604e-01 -9.920628368854522705e-02 3.679656088352203369e-01
1.583000000000000000e+03 4.150367259979248047e+00 4.522910118103027344e+00 3.505021566525101662e-03 -1.066531166434288025e-01 -3.094442933797836304e-02 1.272700428962707520e-01
1.584000000000000000e+03 1.074335193634033203e+01 2.200075864791870117e+00 1.348803639411926270e-01 -3.782702386379241943e-01 -7.301696389913558960e-02 3.495063781738281250e-01
1.585000000000000000e+03 9.310862541198730469e+00 2.976929664611816406e+00 9.150256961584091187e-02 -2.849506139755249023e-01 -5.803441628813743591e-02 2.858516275882720947e-01
1.586000000000000000e+03 1.110722351074218750e+01 -3.775639772415161133e+00 -3.026407361030578613e-01 -9.072185307741165161e-02 -1.180087774991989136e-01 -3.278061449527740479e-01
1.587000000000000000e+03 1.422209453582763672e+01 -3.128326892852783203e+00 -4.939568042755126953e-01 -2.803676128387451172e-01 -2.322973310947418213e-01 -4.838168621063232422e-01
1.588000000000000000e+03 1.346034717559814453e+01 5.668082714080810547e+00 1.028819903731346130e-01 6.483425498008728027e-01 2.253673672676086426e-01 8.082917332649230957e-02
1.589000000000000000e+03 3.101800918579101562e+01 8.646060943603515625e+00 -5.488294363021850586e-01 -2.092338353395462036e-01 -2.274189740419387817e-01 -1.315445303916931152e-01
1.590000000000000000e+03 3.129259872436523438e+01 7.321746349334716797e+00 -9.121597558259963989e-02 -2.030605822801589966e-01 -8.828296512365341187e-02 -1.686217337846755981e-01
1.591000000000000000e+03 3.109480476379394531e+01 6.151970386505126953e+00 -5.658829212188720703e-02 -1.136568188667297363e-01 -5.107353255152702332e-02 -2.687855958938598633e-01
1.592000000000000000e+03 4.448167419433593750e+01 3.574396133422851562e+01 7.640767842531204224e-02 5.377370864152908325e-02 3.905441612005233765e-02 6.076380610466003418e-02
1.593000000000000000e+03 1.582333660125732422e+01 -3.027298688888549805e+00 -4.000399112701416016e-01 -4.427030086517333984e-01 -2.528228759765625000e-01 -4.347665011882781982e-01
1.594000000000000000e+03 8.800579071044921875e+00 -3.689951181411743164e+00 -2.159387171268463135e-01 -4.707106575369834900e-02 -7.890293002128601074e-02 -2.233867198228836060e-01
1.595000000000000000e+03 5.520453929901123047e+00 -2.880509853363037109e+00 -1.019674018025398254e-01 -3.435693681240081787e-02 -4.089730232954025269e-02 -1.066573336720466614e-01
1.596000000000000000e+03 7.232470989227294922e+00 -3.731636762619018555e+00 -1.522782146930694580e-01 -4.895385354757308960e-02 -6.036962196230888367e-02 -1.773470640182495117e-01
1.597000000000000000e+03 4.714613437652587891e+00 -2.911523818969726562e+00 -8.133739233016967773e-02 -3.508874028921127319e-02 -3.492783755064010620e-02 -9.054414927959442139e-02
1.598000000000000000e+03 6.439425468444824219e+00 -3.770283222198486328e+00 -1.198725029826164246e-01 -5.349293723702430725e-02 -5.200963094830513000e-02 -1.573631912469863892e-01
1.599000000000000000e+03 5.643530368804931641e+00 -3.812157154083251953e+00 -9.976404905319213867e-02 -5.490512028336524963e-02 -4.640074819326400757e-02 -1.384142637252807617e-01
1.600000000000000000e+03 2.285805702209472656e+00 -3.158835887908935547e+00 -2.449838258326053619e-02 -4.055855050683021545e-02 -1.951707899570465088e-02 -4.502462968230247498e-02
1.601000000000000000e+03 3.425639390945434570e+00 -8.028759956359863281e+00 -3.060174174606800079e-03 -1.818762123584747314e-01 -5.548091605305671692e-02 -1.334964185953140259e-01
1.602000000000000000e+03 1.541722655296325684e+00 -5.370218276977539062e+00 -4.896247759461402893e-03 -9.022762626409530640e-02 -2.853716164827346802e-02 -5.288868024945259094e-02
1.603000000000000000e+03 1.001654815673828125e+01 2.873673677444458008e+00 1.991383284330368042e-01 -3.135549128055572510e-01 -3.432497754693031311e-02 2.574030756950378418e-01
1.604000000000000000e+03 1.365763092041015625e+01 -4.777521133422851562e+00 -1.146571040153503418e-01 -2.482808381319046021e-01 -1.088813841342926025e-01 -3.912400007247924805e-01
1.605000000000000000e+03 1.351981353759765625e+01 -3.925182580947875977e+00 -2.873505651950836182e-01 -2.332394719123840332e-01 -1.561770141124725342e-01 -4.291071593761444092e-01
1.606000000000000000e+03 1.189011096954345703e+01 -3.835466146469116211e+00 -3.148120045661926270e-01 -1.191994696855545044e-01 -1.302034407854080200e-01 -3.612440824508666992e-01
1.607000000000000000e+03 1.269292545318603516e+01 -3.893526792526245117e+00 -3.194353580474853516e-01 -1.727189123630523682e-01 -1.476462781429290771e-01 -4.098342061042785645e-01
1.608000000000000000e+03 1.806546211242675781e+01 -5.788404941558837891e+00 1.090643703937530518e-01 5.210092067718505859e-01 1.890220791101455688e-01 -6.090114358812570572e-03
1.609000000000000000e+03 2.261426162719726562e+01 -8.597776889801025391e-01 -9.780297279357910156e-01 -1.051814854145050049e-01 -3.249633610248565674e-01 1.806564033031463623e-01
1.610000000000000000e+03 1.869472503662109375e+01 -1.835594177246093750e+00 -4.413170814514160156e-01 6.929074525833129883e-01 7.547710835933685303e-02 -2.639656364917755127e-01
1.611000000000000000e+03 3.471680831909179688e+01 -1.271146106719970703e+01 -9.623304009437561035e-02 4.230823814868927002e-01 9.805479645729064941e-02 -1.007863599807024002e-02
1.612000000000000000e+03 3.989240264892578125e+01 -2.095727920532226562e+01 -1.781796850264072418e-02 1.584465026855468750e+00 4.699941277503967285e-01 -3.664710521697998047e-01
1.613000000000000000e+03 2.313152503967285156e+01 -2.043607139587402344e+01 1.196090653538703918e-01 3.946864902973175049e-01 1.542886644601821899e-01 -2.292445898056030273e-01
1.614000000000000000e+03 2.921330070495605469e+01 -6.773944377899169922e+00 -1.599473357200622559e-01 -2.710147798061370850e-01 -1.292886286973953247e-01 1.850108802318572998e-01
1.615000000000000000e+03 2.974107933044433594e+01 -3.927779674530029297e+00 -8.818095922470092773e-02 -7.786300033330917358e-02 -4.981318861246109009e-02 8.906493335962295532e-02
1.616000000000000000e+03 2.439660644531250000e+01 -1.978325843811035156e+01 1.141759529709815979e-01 4.373363256454467773e-01 1.654536873102188110e-01 -2.494490295648574829e-01
1.617000000000000000e+03 2.371174240112304688e+01 -2.166158294677734375e+01 1.003456637263298035e-01 3.987762928009033203e-01 1.497365832328796387e-01 -2.310003340244293213e-01
1.618000000000000000e+03 3.298312377929687500e+01 -1.233978652954101562e+01 -1.014845967292785645e-01 4.916052147746086121e-02 -1.569722220301628113e-02 8.188508450984954834e-02
1.619000000000000000e+03 3.551801300048828125e+01 -1.382628440856933594e+01 -9.224555641412734985e-02 5.729874968528747559e-01 1.442225873470306396e-01 -4.426685348153114319e-02
1.620000000000000000e+03 3.289464187622070312e+01 -3.574108505249023438e+01 3.612816333770751953e-01 3.747691214084625244e-01 2.208152264356613159e-01 -2.104635834693908691e-01
1.621000000000000000e+03 2.239344406127929688e+01 -2.231439590454101562e+01 1.149043068289756775e-01 3.442382812500000000e-01 1.377427726984024048e-01 -2.081491351127624512e-01
1.622000000000000000e+03 2.356948089599609375e+01 -2.493680572509765625e+01 1.225143522024154663e-01 3.591111004352569580e-01 1.444876343011856079e-01 -2.055440992116928101e-01
1.623000000000000000e+03 2.186027717590332031e+01 -1.809627723693847656e+01 1.148536130785942078e-01 3.898360133171081543e-01 1.514068841934204102e-01 -2.208497226238250732e-01
1.624000000000000000e+03 4.237671196460723877e-01 3.636190891265869141e+00 -1.517201657406985760e-03 -6.540858000516891479e-02 -2.007773518562316895e-02 1.617905125021934509e-02
1.625000000000000000e+03 2.503349876403808594e+01 -2.238007068634033203e+00 -3.346273005008697510e-01 -2.126900851726531982e-01 -1.641952246427536011e-01 1.760680973529815674e-01
1.626000000000000000e+03 2.746065711975097656e+01 -3.650976181030273438e+00 -1.611115187406539917e-01 -2.226012349128723145e-01 -1.151138246059417725e-01 1.531949341297149658e-01
1.627000000000000000e+03 2.733172225952148438e+01 -2.907513809204101562e+01 1.136722639203071594e-01 4.334833323955535889e-01 1.641466766595840454e-01 -2.393960356712341309e-01
1.628000000000000000e+03 4.128589630126953125e+01 -2.333360099792480469e+01 1.282196398824453354e-02 2.066920518875122070e+00 6.239227056503295898e-01 -5.152381658554077148e-01
1.629000000000000000e+03 3.165122604370117188e+01 -8.326468467712402344e+00 -1.261522024869918823e-01 1.052244752645492554e-02 -3.468892723321914673e-02 1.001663133502006531e-01
1.630000000000000000e+03 2.682046508789062500e+01 -2.777690696716308594e+01 1.670877635478973389e-01 4.291905462741851807e-01 1.788834929466247559e-01 -2.220522910356521606e-01
1.631000000000000000e+03 2.745799255371093750e+01 -2.592528915405273438e+01 1.491258740425109863e-01 4.843938946723937988e-01 1.900559365749359131e-01 -2.376124858856201172e-01
1.632000000000000000e+03 4.391198730468750000e+01 -2.793035125732421875e+01 8.468098193407058716e-02 3.467412233352661133e+00 1.065627932548522949e+00 -7.771683931350708008e-01
1.633000000000000000e+03 3.704574203491210938e+01 -1.615313529968261719e+01 -7.368454337120056152e-02 8.714948892593383789e-01 2.393431067466735840e-01 -1.323198080062866211e-01
1.634000000000000000e+03 4.260753631591796875e+01 -2.571527099609375000e+01 5.316784232854843140e-02 2.656222820281982422e+00 8.128172159194946289e-01 -6.702930927276611328e-01
1.635000000000000000e+03 4.084789276123046875e+01 -2.529515838623046875e+01 1.730228662490844727e-01 1.835050225257873535e+00 6.024219393730163574e-01 -6.403793692588806152e-01
1.636000000000000000e+03 4.375598526000976562e+01 -2.502645301818847656e+01 -8.711507916450500488e-02 3.081054687500000000e+00 8.981819152832031250e-01 -5.435280203819274902e-01
1.637000000000000000e+03 3.740949630737304688e+01 -1.934388351440429688e+01 -8.132054470479488373e-03 8.261396288871765137e-01 2.454022616147994995e-01 -2.145641148090362549e-01
1.638000000000000000e+03 1.881391716003417969e+01 -1.297968387603759766e+01 1.431129276752471924e-01 3.547087609767913818e-01 1.493465155363082886e-01 -1.777216345071792603e-01
1.639000000000000000e+03 3.030262374877929688e+01 -4.736194133758544922e+00 -7.671578973531723022e-02 -5.261912941932678223e-02 -3.880047425627708435e-02 8.153907209634780884e-02
1.640000000000000000e+03 1.501390838623046875e+01 -6.779524803161621094e+00 1.437961608171463013e-01 -1.065568700432777405e-01 1.117178890854120255e-02 -1.945228427648544312e-01
1.641000000000000000e+03 3.878496932983398438e+01 -2.173912239074707031e+01 4.502639919519424438e-02 1.158097147941589355e+00 3.609370589256286621e-01 -3.717821836471557617e-01
1.642000000000000000e+03 3.810199737548828125e+01 -2.054601669311523438e+01 3.479070961475372314e-02 9.828371405601501465e-01 3.052883446216583252e-01 -2.763451337814331055e-01
1.643000000000000000e+03 7.282217407226562500e+01 -3.556624603271484375e+01 7.863529026508331299e-02 7.764194488525390625e+00 2.352849006652832031e+00 1.554458290338516235e-01
1.644000000000000000e+03 7.541500091552734375e+01 -3.048387145996093750e+01 2.452007308602333069e-02 8.197270393371582031e+00 2.466537237167358398e+00 1.610524654388427734e-01
1.645000000000000000e+03 7.733724212646484375e+01 -3.475304794311523438e+01 2.856445207726210356e-04 8.279383659362792969e+00 2.483900785446166992e+00 6.972924619913101196e-02
1.646000000000000000e+03 7.542098236083984375e+01 -2.097837257385253906e+01 -1.305135898292064667e-02 8.476011276245117188e+00 2.538887977600097656e+00 1.779357641935348511e-01
1.647000000000000000e+03 7.803893280029296875e+01 -2.788469505310058594e+01 3.963808994740247726e-03 8.580994606018066406e+00 2.575487613677978516e+00 8.799580484628677368e-02
1.648000000000000000e+03 7.812023925781250000e+01 1.927207946777343750e+01 -2.070212736725807190e-02 7.416025161743164062e+00 2.218596935272216797e+00 -4.319958090782165527e-01
1.649000000000000000e+03 7.560511016845703125e+01 1.617366027832031250e+01 -1.173763796687126160e-01 7.895675182342529297e+00 2.333489656448364258e+00 -6.944241523742675781e-01
1.650000000000000000e+03 7.758382415771484375e+01 3.474439620971679688e+01 7.156350463628768921e-02 4.475633621215820312e+00 1.364159107208251953e+00 -3.771868646144866943e-01
1.651000000000000000e+03 7.630432891845703125e+01 3.300940704345703125e+01 1.243604719638824463e-01 5.273220062255859375e+00 1.619274139404296875e+00 -6.438339352607727051e-01
1.652000000000000000e+03 7.671722412109375000e+01 -2.235838508605957031e+01 -7.589982822537422180e-03 8.618894577026367188e+00 2.583391427993774414e+00 1.363488286733627319e-01
1.653000000000000000e+03 7.671452331542968750e+01 -2.924227905273437500e+01 1.040401495993137360e-02 8.378180503845214844e+00 2.516575336456298828e+00 1.330825686454772949e-01
1.654000000000000000e+03 7.560614013671875000e+01 -3.453106689453125000e+01 2.757534198462963104e-02 8.084939002990722656e+00 2.433754444122314453e+00 1.123606488108634949e-01
1.655000000000000000e+03 7.671714019775390625e+01 -2.790982437133789062e+01 1.385879004374146461e-03 8.421735763549804688e+00 2.526936531066894531e+00 1.343154907226562500e-01
1.656000000000000000e+03 7.538098144531250000e+01 -2.377618598937988281e+01 -8.992585353553295135e-03 8.378430366516113281e+00 2.510831356048583984e+00 1.835765391588211060e-01
1.657000000000000000e+03 7.670056915283203125e+01 -2.654915428161621094e+01 3.708395641297101974e-03 8.466214179992675781e+00 2.540976762771606445e+00 1.404111534357070923e-01
1.658000000000000000e+03 7.670168304443359375e+01 -2.376100540161132812e+01 6.626003887504339218e-04 8.565198898315429688e+00 2.569758653640747070e+00 1.414467543363571167e-01
1.659000000000000000e+03 7.641918945312500000e+01 -3.183700370788574219e+01 1.997130922973155975e-02 8.257182121276855469e+00 2.483145952224731445e+00 1.215628385543823242e-01
1.660000000000000000e+03 7.537208557128906250e+01 -2.797562217712402344e+01 7.907547056674957275e-03 8.253005027770996094e+00 2.478273868560791016e+00 1.779817789793014526e-01
1.661000000000000000e+03 7.664285278320312500e+01 -3.055010795593261719e+01 9.228971786797046661e-03 8.319466590881347656e+00 2.498608827590942383e+00 1.271213442087173462e-01
1.662000000000000000e+03 7.639559936523437500e+01 -3.890594100952148438e+01 8.998532779514789581e-03 8.117888450622558594e+00 2.438066005706787109e+00 4.449020326137542725e-02
1.663000000000000000e+03 7.813204193115234375e+01 2.206133460998535156e+01 -1.313699223101139069e-02 6.832954406738281250e+00 2.045945167541503906e+00 -4.827296733856201172e-01
1.664000000000000000e+03 7.687002563476562500e+01 2.051747512817382812e+01 -4.868469014763832092e-02 7.250343799591064453e+00 2.160497665405273438e+00 -6.966214776039123535e-01
1.665000000000000000e+03 7.567727661132812500e+01 2.319557380676269531e+01 -4.876815155148506165e-02 6.949025630950927734e+00 2.070077180862426758e+00 -9.646779298782348633e-01
1.666000000000000000e+03 7.688753509521484375e+01 2.191952705383300781e+01 -3.882824629545211792e-02 6.999112129211425781e+00 2.088085174560546875e+00 -7.302149534225463867e-01
1.667000000000000000e+03 7.819161224365234375e+01 1.233573436737060547e+01 -2.451151795685291290e-02 8.511294364929199219e+00 2.546034812927246094e+00 -2.562913894653320312e-01
1.668000000000000000e+03 7.453557586669921875e+01 1.322030925750732422e+01 -1.686532646417617798e-01 8.121000289916992188e+00 2.385704278945922852e+00 -6.323548555374145508e-01
1.669000000000000000e+03 7.817260742187500000e+01 1.372259712219238281e+01 -2.233081310987472534e-02 8.334101676940917969e+00 2.493531227111816406e+00 -2.904688417911529541e-01
1.670000000000000000e+03 7.691130828857421875e+01 1.495524883270263672e+01 -6.150051578879356384e-02 8.077225685119628906e+00 2.404717445373535156e+00 -4.908267259597778320e-01
1.671000000000000000e+03 7.692087554931640625e+01 2.469508361816406250e+01 -1.317923143506050110e-02 6.469288349151611328e+00 1.936832785606384277e+00 -7.687838673591613770e-01
1.672000000000000000e+03 7.814849090576171875e+01 2.622358131408691406e+01 5.221671424806118011e-03 5.867430210113525391e+00 1.761795639991760254e+00 -5.089250206947326660e-01
1.673000000000000000e+03 7.804923248291015625e+01 -2.095059967041015625e+01 -5.915586370974779129e-03 8.872688293457031250e+00 2.660031795501708984e+00 8.238181471824645996e-02
1.674000000000000000e+03 7.674182891845703125e+01 -2.097067070007324219e+01 -1.103020273149013519e-03 8.673401832580566406e+00 2.601689577102661133e+00 1.349124759435653687e-01
1.675000000000000000e+03 7.801296997070312500e+01 3.037687110900878906e+01 2.624904550611972809e-02 4.972000598907470703e+00 1.499474883079528809e+00 -4.903133809566497803e-01
1.676000000000000000e+03 7.684564208984375000e+01 2.879410552978515625e+01 3.536243736743927002e-02 5.699301242828369141e+00 1.720399141311645508e+00 -7.616563439369201660e-01
1.677000000000000000e+03 7.698139953613281250e+01 8.081185340881347656e+00 -4.752935841679573059e-02 8.729251861572265625e+00 2.604516744613647461e+00 -2.539744377136230469e-01
1.678000000000000000e+03 7.521860504150390625e+01 -4.951581060886383057e-01 -5.915855616331100464e-02 8.733653068542480469e+00 2.602348327636718750e+00 -8.816093951463699341e-02
1.679000000000000000e+03 7.809967803955078125e+01 -7.172540187835693359e+00 -1.163856778293848038e-02 9.288598060607910156e+00 2.783087730407714844e+00 1.174390409141778946e-02
1.680000000000000000e+03 7.549083709716796875e+01 3.882006168365478516e+00 -7.600271701812744141e-02 8.686985015869140625e+00 2.583294630050659180e+00 -1.998330652713775635e-01
1.681000000000000000e+03 7.554901885986328125e+01 -7.487576007843017578e+00 -3.964408114552497864e-02 8.797945022583007812e+00 2.627490282058715820e+00 4.222285002470016479e-02
1.682000000000000000e+03 7.814524078369140625e+01 -1.403422164916992188e+01 -1.993930432945489883e-03 9.144943237304687500e+00 2.742884635925292969e+00 5.438273400068283081e-02
1.683000000000000000e+03 7.568870544433593750e+01 -1.414757347106933594e+01 -1.939610950648784637e-02 8.708190917968750000e+00 2.606638431549072266e+00 1.228022724390029907e-01
1.684000000000000000e+03 7.577854919433593750e+01 3.634555435180664062e+01 2.202618420124053955e-01 5.206785202026367188e+00 1.628114104270935059e+00 -4.218247532844543457e-01
1.685000000000000000e+03 7.815399169921875000e+01 6.794125080108642578e+00 -1.951456815004348755e-02 9.007077217102050781e+00 2.696268796920776367e+00 -1.490065008401870728e-01
1.686000000000000000e+03 7.693099212646484375e+01 6.706462383270263672e+00 -4.153992980718612671e-02 8.804588317871093750e+00 2.628914356231689453e+00 -2.193827033042907715e-01
1.687000000000000000e+03 7.799202728271484375e+01 -1.607823967933654785e+00 -1.476274803280830383e-02 9.272841453552246094e+00 2.777423620223999023e+00 -3.948060795664787292e-02
1.688000000000000000e+03 7.664720153808593750e+01 -1.767309308052062988e+00 -2.936382219195365906e-02 9.010131835937500000e+00 2.694230318069458008e+00 -4.916419833898544312e-02
1.689000000000000000e+03 7.685588836669921875e+01 -8.677752494812011719e+00 -2.210534177720546722e-02 9.027855873107910156e+00 2.701725244522094727e+00 4.165958613157272339e-02
1.690000000000000000e+03 7.689588165283203125e+01 -1.545396614074707031e+01 -8.293984457850456238e-03 8.880499839782714844e+00 2.661661624908447266e+00 1.009696424007415771e-01
1.691000000000000000e+03 7.600922393798828125e+01 3.458262634277343750e+01 1.793724298477172852e-01 5.202944755554199219e+00 1.614695191383361816e+00 -5.626599788665771484e-01
1.692000000000000000e+03 7.532089996337890625e+01 3.124411392211914062e+01 1.681682914495468140e-01 5.863638401031494141e+00 1.809542059898376465e+00 -8.886935114860534668e-01
1.693000000000000000e+03 7.656607055664062500e+01 3.154928016662597656e+01 8.846001327037811279e-02 5.334195613861083984e+00 1.626796722412109375e+00 -7.075330615043640137e-01
1.694000000000000000e+03 7.685859680175781250e+01 1.911773872375488281e+01 -5.912709236145019531e-02 7.485238075256347656e+00 2.227833271026611328e+00 -6.514915227890014648e-01
1.695000000000000000e+03 7.700919342041015625e+01 1.081998920440673828e+01 -5.382038280367851257e-02 8.523281097412109375e+00 2.540838241577148438e+00 -3.344538807868957520e-01
1.696000000000000000e+03 7.691142272949218750e+01 -1.409368610382080078e+01 -1.709353923797607422e-02 8.922237396240234375e+00 2.671543121337890625e+00 8.967270702123641968e-02
1.697000000000000000e+03 7.682690429687500000e+01 -7.323578357696533203e+00 -1.678378321230411530e-02 9.038234710693359375e+00 2.706435203552246094e+00 2.764633670449256897e-02
1.698000000000000000e+03 7.562146759033203125e+01 5.278778553009033203e+00 -7.402961701154708862e-02 8.662890434265136719e+00 2.576658248901367188e+00 -2.370235621929168701e-01
1.699000000000000000e+03 7.662532806396484375e+01 1.082424044609069824e+00 -3.305201604962348938e-02 8.962279319763183594e+00 2.678768157958984375e+00 -9.965288639068603516e-02
1.700000000000000000e+03 7.685852813720703125e+01 5.321024894714355469e+00 -4.384806007146835327e-02 8.861678123474121094e+00 2.645349025726318359e+00 -1.882948279380798340e-01
1.701000000000000000e+03 7.679227447509765625e+01 -5.961717605590820312e+00 -2.498423494398593903e-02 9.042361259460449219e+00 2.705213308334350586e+00 1.157500315457582474e-02
1.702000000000000000e+03 7.669792938232421875e+01 -3.186124563217163086e+00 -3.195881471037864685e-02 9.026091575622558594e+00 2.698240041732788086e+00 -2.533611655235290527e-02
1.703000000000000000e+03 7.530017852783203125e+01 -1.953652739524841309e+00 -6.150922551751136780e-02 8.754570007324218750e+00 2.607918024063110352e+00 -5.485146865248680115e-02
1.704000000000000000e+03 7.690147399902343750e+01 -1.138428306579589844e+01 -1.980644837021827698e-02 8.987513542175292969e+00 2.690312147140502930e+00 6.764373928308486938e-02
1.705000000000000000e+03 7.691262054443359375e+01 -1.273850154876708984e+01 -1.113375648856163025e-02 8.957923889160156250e+00 2.684036970138549805e+00 8.036042749881744385e-02
1.706000000000000000e+03 7.688100433349609375e+01 -1.003065109252929688e+01 -1.416498702019453049e-02 9.010450363159179688e+00 2.698885679244995117e+00 5.590184032917022705e-02
1.707000000000000000e+03 7.677873992919921875e+01 -1.958851051330566406e+01 -1.178946439176797867e-02 8.727846145629882812e+00 2.614817142486572266e+00 1.270941048860549927e-01
1.708000000000000000e+03 7.686466979980468750e+01 -1.682469367980957031e+01 -1.582707464694976807e-02 8.833323478698730469e+00 2.645249128341674805e+00 1.088402420282363892e-01
1.709000000000000000e+03 7.567150878906250000e+01 -1.548309707641601562e+01 -2.558208070695400238e-02 8.672091484069824219e+00 2.593952894210815430e+00 1.338242441415786743e-01
1.710000000000000000e+03 2.253838348388671875e+01 -1.924922943115234375e+01 1.041255518794059753e-01 3.940507471561431885e-01 1.494528949260711670e-01 -2.329734116792678833e-01
1.711000000000000000e+03 2.153453826904296875e+01 -1.504654312133789062e+01 1.417361050844192505e-01 4.388112127780914307e-01 1.741641908884048462e-01 -2.406103461980819702e-01
1.712000000000000000e+03 2.016766738891601562e+01 -1.576120662689208984e+01 1.280781477689743042e-01 3.649952113628387451e-01 1.479220092296600342e-01 -2.005312144756317139e-01
1.713000000000000000e+03 3.070253562927246094e+01 -3.247625732421875000e+01 1.851151287555694580e-01 4.687146246433258057e-01 1.961489170789718628e-01 -2.781964242458343506e-01
1.714000000000000000e+03 4.140725612640380859e+00 3.687569046020507812e+01 3.390927449800074100e-04 -1.096441075205802917e-01 -3.279150649905204773e-02 -3.297934075817465782e-03
1.715000000000000000e+03 1.825096726417541504e+00 2.726786613464355469e+01 1.238893601112067699e-03 -1.556515544652938843e-01 -4.632379859685897827e-02 -8.292000740766525269e-03
1.716000000000000000e+03 3.541914224624633789e+00 3.106686782836914062e+01 -9.398972906637936831e-05 -1.196799203753471375e-01 -3.593217208981513977e-02 -8.510981686413288116e-03
1.717000000000000000e+03 1.812224149703979492e+00 2.588922119140625000e+01 -2.621759893372654915e-03 -1.612761467695236206e-01 -4.916937276721000671e-02 -8.626294322311878204e-03
1.718000000000000000e+03 5.745567798614501953e+00 3.350135803222656250e+01 -5.639990326017141342e-03 -8.605730533599853516e-02 -2.750919014215469360e-02 -7.989932782948017120e-03
1.719000000000000000e+03 3.820196390151977539e+00 3.245809936523437500e+01 -3.698173444718122482e-03 -1.137369200587272644e-01 -3.523052856326103210e-02 -7.671132218092679977e-03
1.720000000000000000e+03 3.052354097366333008e+00 2.430167961120605469e+01 -3.833729773759841919e-03 -1.429835110902786255e-01 -4.404517263174057007e-02 -1.455094199627637863e-02
1.721000000000000000e+03 3.286408662796020508e+00 2.970991897583007812e+01 -4.137591924518346786e-03 -1.250970065593719482e-01 -3.877037763595581055e-02 -9.469481185078620911e-03
1.722000000000000000e+03 5.915030002593994141e+00 3.884560012817382812e+01 -3.503261366859078407e-03 -8.079011738300323486e-02 -2.528801374137401581e-02 -1.369646633975207806e-04
1.723000000000000000e+03 2.629694938659667969e+00 3.693545913696289062e+01 -1.131272525526583195e-03 -1.259971261024475098e-01 -3.813851997256278992e-02 -4.800654016435146332e-03
1.724000000000000000e+03 4.065752029418945312e+00 3.389711761474609375e+01 2.375815238337963820e-04 -1.093761697411537170e-01 -3.274157643318176270e-02 -5.922600161284208298e-03
1.725000000000000000e+03 6.261432647705078125e+00 2.998649978637695312e+01 -3.302810713648796082e-03 -7.987175881862640381e-02 -2.495237067341804504e-02 -1.234916597604751587e-02
1.726000000000000000e+03 4.789805889129638672e+00 -3.376663970947265625e+01 1.213119551539421082e-02 -4.937033057212829590e-01 -1.444716304540634155e-01 -1.312716957181692123e-02
1.727000000000000000e+03 3.608850955963134766e+00 -3.729873657226562500e+01 3.422738052904605865e-03 -5.521439909934997559e-01 -1.646163761615753174e-01 -3.416943596675992012e-03
1.728000000000000000e+03 4.198396205902099609e+00 -3.233152770996093750e+01 -2.195771550759673119e-03 -5.217859148979187012e-01 -1.571945101022720337e-01 -1.740456558763980865e-02
1.729000000000000000e+03 2.148423671722412109e+00 -3.002432632446289062e+01 6.955103017389774323e-03 -6.124516725540161133e-01 -1.816489696502685547e-01 -8.983225561678409576e-03
1.730000000000000000e+03 3.309411048889160156e+00 -2.832352447509765625e+01 1.056645344942808151e-02 -5.421062111854553223e-01 -1.594619154930114746e-01 -2.047727070748806000e-02
1.731000000000000000e+03 3.249311447143554688e+00 -2.566038513183593750e+01 9.935260750353336334e-03 -5.244366526603698730e-01 -1.543504148721694946e-01 -2.785928547382354736e-02
1.732000000000000000e+03 1.801411509513854980e+00 2.168895721435546875e+01 8.221099269576370716e-04 -1.811116188764572144e-01 -5.408685281872749329e-02 -1.259096898138523102e-02
1.733000000000000000e+03 2.587428331375122070e+00 -1.057653617858886719e+01 2.279167063534259796e-03 -2.702821493148803711e-01 -8.040089160203933716e-02 -1.026162579655647278e-01
1.734000000000000000e+03 3.072400569915771484e+00 -1.733953857421875000e+01 1.770552061498165131e-02 -4.265296161174774170e-01 -1.226472333073616028e-01 -6.789567321538925171e-02
1.735000000000000000e+03 1.721880674362182617e+00 -1.474977970123291016e+01 4.145971033722162247e-04 -4.219020605087280273e-01 -1.264462321996688843e-01 -5.238924920558929443e-02
1.736000000000000000e+03 2.908488273620605469e+00 1.863628578186035156e+01 -1.305062905885279179e-03 -1.653323322534561157e-01 -4.999122023582458496e-02 -1.777627877891063690e-02
1.737000000000000000e+03 2.605040311813354492e+00 1.311079120635986328e+01 8.083087392151355743e-03 -1.901519894599914551e-01 -5.462067201733589172e-02 -3.694756189361214638e-03
1.738000000000000000e+03 3.010527849197387695e+00 2.147120285034179688e+01 -2.722100121900439262e-03 -1.527568995952606201e-01 -4.664370045065879822e-02 -1.685888320207595825e-02
1.739000000000000000e+03 3.207818508148193359e+00 -2.013382530212402344e+01 1.521444879472255707e-02 -4.651870727539062500e-01 -1.349917799234390259e-01 -5.172799155116081238e-02
1.740000000000000000e+03 2.685998201370239258e+00 -1.190140151977539062e+01 1.405239850282669067e-02 -3.098435699939727783e-01 -8.873734623193740845e-02 -9.925989806652069092e-02
1.741000000000000000e+03 1.446924448013305664e+00 -7.962980270385742188e+00 1.815659808926284313e-03 -1.850246042013168335e-01 -5.496268346905708313e-02 -6.403298676013946533e-02
1.742000000000000000e+03 3.372237205505371094e+00 -4.863112449645996094e+00 -3.729982674121856689e-02 -8.649848401546478271e-02 -3.713949397206306458e-02 -1.013485491275787354e-01
1.743000000000000000e+03 3.373201131820678711e+00 5.859197139739990234e+00 2.319059893488883972e-02 -1.312559545040130615e-01 -3.241960331797599792e-02 9.588681906461715698e-02
1.744000000000000000e+03 2.317017555236816406e+00 9.152733802795410156e+00 1.818477921187877655e-02 -1.860406845808029175e-01 -5.035676807165145874e-02 3.231484442949295044e-02
1.745000000000000000e+03 1.654009819030761719e+00 1.606239700317382812e+01 2.269285963848233223e-03 -2.159138768911361694e-01 -6.409337371587753296e-02 -1.154159381985664368e-02
1.746000000000000000e+03 2.839533567428588867e+00 1.723545837402343750e+01 2.356982789933681488e-03 -1.716017872095108032e-01 -5.077344179153442383e-02 -1.789288409054279327e-02
1.747000000000000000e+03 2.411545991897583008e+00 1.045387554168701172e+01 1.466292515397071838e-02 -1.927233338356018066e-01 -5.341812223196029663e-02 1.813626289367675781e-02
1.748000000000000000e+03 2.438058376312255859e+00 -8.015150070190429688e+00 -7.166115567088127136e-03 -1.848585754632949829e-01 -5.760740488767623901e-02 -1.009069010615348816e-01
1.749000000000000000e+03 1.904016137123107910e+00 -4.420193672180175781e+00 -1.489865221083164215e-02 -6.776262819766998291e-02 -2.479838393628597260e-02 -5.006083101034164429e-02
1.750000000000000000e+03 3.247172832489013672e+00 -2.153516197204589844e+01 4.340945277363061905e-03 -4.825652837753295898e-01 -1.434673070907592773e-01 -4.277363047003746033e-02
1.751000000000000000e+03 5.715990543365478516e+00 -3.678250885009765625e+01 1.969042979180812836e-02 -4.615040123462677002e-01 -1.325440704822540283e-01 -9.546807035803794861e-03
1.752000000000000000e+03 2.500268459320068359e+00 -9.278054237365722656e+00 5.287360865622758865e-03 -2.281171381473541260e-01 -6.684893369674682617e-02 -1.040494963526725769e-01
1.753000000000000000e+03 2.987428665161132812e+00 -1.595876407623291016e+01 8.280199021100997925e-03 -4.026912450790405273e-01 -1.183233186602592468e-01 -7.484240829944610596e-02
1.754000000000000000e+03 2.892302751541137695e+00 -1.459534835815429688e+01 1.773144118487834930e-02 -3.759896457195281982e-01 -1.074774637818336487e-01 -8.508565276861190796e-02
1.755000000000000000e+03 1.939584136009216309e+00 -2.311975288391113281e+01 -1.232193782925605774e-03 -5.682089924812316895e-01 -1.708323508501052856e-01 -2.177567407488822937e-02
1.756000000000000000e+03 6.255005836486816406e+00 -3.293514633178710938e+01 7.179016713052988052e-03 -4.309868216514587402e-01 -1.271423399448394775e-01 -2.875692024827003479e-02
1.757000000000000000e+03 4.618249893188476562e+00 -2.412092399597167969e+01 1.688207313418388367e-02 -4.424519538879394531e-01 -1.276709586381912231e-01 -4.750438407063484192e-02
1.758000000000000000e+03 3.147330522537231445e+00 -1.873316955566406250e+01 6.879772990942001343e-03 -4.470889568328857422e-01 -1.320627480745315552e-01 -5.739168450236320496e-02
1.759000000000000000e+03 2.511141538619995117e+00 1.177286434173583984e+01 1.293421536684036255e-02 -1.927377879619598389e-01 -5.394107475876808167e-02 4.784258082509040833e-03
1.760000000000000000e+03 3.667853593826293945e+00 1.290134429931640625e+01 1.778026483952999115e-02 -1.535818874835968018e-01 -4.074048623442649841e-02 -4.556912928819656372e-03
1.761000000000000000e+03 3.772752046585083008e+00 1.424317741394042969e+01 1.028366107493638992e-02 -1.482249051332473755e-01 -4.138237237930297852e-02 -1.150688063353300095e-02
1.762000000000000000e+03 2.964955091476440430e+00 2.004819869995117188e+01 2.670171961653977633e-04 -1.583682149648666382e-01 -4.743035882711410522e-02 -1.866949535906314850e-02
1.763000000000000000e+03 3.043495655059814453e+00 2.289600372314453125e+01 -3.686530108097940683e-04 -1.474270820617675781e-01 -4.433872178196907043e-02 -1.684492826461791992e-02
1.764000000000000000e+03 1.600918769836425781e+01 -6.554652214050292969e+00 1.644171476364135742e-01 -6.397956516593694687e-03 4.740575700998306274e-02 -1.355621814727783203e-01
1.765000000000000000e+03 3.919862365722656250e+01 -1.976767921447753906e+01 -4.436901211738586426e-02 1.382635951042175293e+00 4.014800786972045898e-01 -3.129861652851104736e-01
1.766000000000000000e+03 3.391675186157226562e+01 -1.160977554321289062e+01 -9.376465529203414917e-02 3.007447123527526855e-01 6.209401413798332214e-02 3.481348231434822083e-02
1.767000000000000000e+03 1.801306915283203125e+01 -1.003996181488037109e+01 1.524460017681121826e-01 3.685670793056488037e-01 1.563039273023605347e-01 -1.440012603998184204e-01
1.768000000000000000e+03 4.463471221923828125e+01 -2.898573493957519531e+01 5.818394199013710022e-02 4.115991592407226562e+00 1.252252578735351562e+00 -7.104485034942626953e-01
1.769000000000000000e+03 2.421869087219238281e+01 1.789193034172058105e+00 -5.004448890686035156e-01 -1.865310817956924438e-01 -2.060927897691726685e-01 -2.520339488983154297e-01
1.770000000000000000e+03 2.884883308410644531e+01 -4.331890583038330078e+00 -1.034328266978263855e-01 -1.775977611541748047e-01 -8.430917561054229736e-02 1.279129683971405029e-01
1.771000000000000000e+03 2.938620376586914062e+01 -3.383320999145507812e+01 2.364560812711715698e-01 3.871862292289733887e-01 1.870926916599273682e-01 -1.728215366601943970e-01
1.772000000000000000e+03 2.824966621398925781e+01 -3.234074401855468750e+01 1.483785808086395264e-01 3.899650275707244873e-01 1.615030765533447266e-01 -2.042252868413925171e-01
1.773000000000000000e+03 1.754845619201660156e+01 -4.762710571289062500e+00 1.501564085483551025e-01 2.858651280403137207e-01 1.308064609766006470e-01 3.958576172590255737e-02
1.774000000000000000e+03 1.662204360961914062e+01 -5.259604930877685547e+00 1.500667184591293335e-01 -7.875991985201835632e-03 4.265721887350082397e-02 -1.013881042599678040e-01
1.775000000000000000e+03 4.544236755371093750e+01 -3.002539825439453125e+01 1.725222617387771606e-01 4.525255203247070312e+00 1.409333229064941406e+00 -5.104156136512756348e-01
1.776000000000000000e+03 1.771126937866210938e+01 -8.677666664123535156e+00 1.484702378511428833e-01 3.706977665424346924e-01 1.557503938674926758e-01 -1.075052022933959961e-01
1.777000000000000000e+03 2.942205619812011719e+01 -5.255288124084472656e+00 -1.057081595063209534e-01 -1.585862785577774048e-01 -7.928833365440368652e-02 1.285852193832397461e-01
1.778000000000000000e+03 4.920201110839843750e+01 -3.350775909423828125e+01 7.813573479652404785e-01 5.380035877227783203e+00 1.848417997360229492e+00 1.354724168777465820e-01
1.779000000000000000e+03 4.863103866577148438e+01 -2.874564933776855469e+01 8.987689763307571411e-02 4.953088283538818359e+00 1.512889504432678223e+00 2.836078777909278870e-02
1.780000000000000000e+03 4.694128417968750000e+01 -3.703058242797851562e+01 1.242091298103332520e+00 5.801198959350585938e+00 2.112987041473388672e+00 -3.660699129104614258e-01
1.781000000000000000e+03 4.997878074645996094e+00 4.064302444458007812e+01 -2.750158077105879784e-03 -9.727958589792251587e-02 -3.000892326235771179e-02 1.366354408673942089e-03
1.782000000000000000e+03 5.291676712036132812e+01 3.366506195068359375e+01 2.015045404434204102e+00 1.314268231391906738e+00 9.987941384315490723e-01 1.959560275077819824e+00
1.783000000000000000e+03 5.431441879272460938e+01 3.336645889282226562e+01 4.125229835510253906e+00 6.579803466796875000e+00 3.211509943008422852e+00 5.901983737945556641e+00
1.784000000000000000e+03 5.389856719970703125e+01 3.357826614379882812e+01 4.026850700378417969e+00 3.905001401901245117e+00 2.379555702209472656e+00 4.625260353088378906e+00
1.785000000000000000e+03 2.452725410461425781e+01 2.345731258392333984e+00 -4.430671930313110352e-01 -2.057545781135559082e-01 -1.946465224027633667e-01 -2.687145173549652100e-01
1.786000000000000000e+03 2.488364791870117188e+01 2.548361778259277344e+00 -4.241994321346282959e-01 -2.130895704030990601e-01 -1.911867111921310425e-01 -2.753241956233978271e-01
1.787000000000000000e+03 2.301914787292480469e+01 1.261112928390502930e+00 -6.238437294960021973e-01 -1.507419049739837646e-01 -2.323756963014602661e-01 -2.538197636604309082e-01
1.788000000000000000e+03 2.576946830749511719e+01 3.383162498474121094e+00 -3.918868303298950195e-01 -2.383771538734436035e-01 -1.890791952610015869e-01 -2.870534956455230713e-01
1.789000000000000000e+03 2.629034805297851562e+01 3.146967172622680664e+00 -3.567105829715728760e-01 -2.372539937496185303e-01 -1.781893819570541382e-01 -2.601678967475891113e-01
1.790000000000000000e+03 2.682972145080566406e+01 3.039925098419189453e+00 -3.243515491485595703e-01 -2.294930815696716309e-01 -1.661533862352371216e-01 -2.342299669981002808e-01
1.791000000000000000e+03 2.333928489685058594e+01 1.248528003692626953e+00 -6.159222722053527832e-01 -1.682929545640945435e-01 -2.352645844221115112e-01 -2.438827306032180786e-01
1.792000000000000000e+03 2.823196029663085938e+01 4.654971122741699219e+00 -3.332378566265106201e-01 -2.464480400085449219e-01 -1.739057749509811401e-01 -2.609570324420928955e-01
1.793000000000000000e+03 2.845267677307128906e+01 5.110035419464111328e+00 -3.474244475364685059e-01 -2.376763820648193359e-01 -1.755302399396896362e-01 -2.665092349052429199e-01
1.794000000000000000e+03 2.889619064331054688e+01 4.573922157287597656e+00 -2.988506853580474854e-01 -1.576845645904541016e-01 -1.369605809450149536e-01 -2.317180782556533813e-01
1.795000000000000000e+03 5.372418212890625000e+01 3.369334030151367188e+01 3.648515939712524414e+00 2.865619897842407227e+00 1.954240798950195312e+00 3.839070796966552734e+00
1.796000000000000000e+03 5.600396728515625000e+01 3.271237564086914062e+01 1.287710428237915039e+00 1.622538375854492188e+01 5.253928661346435547e+00 3.382754325866699219e+00
1.797000000000000000e+03 5.644845199584960938e+01 3.336897277832031250e+01 2.464410543441772461e+00 1.921234130859375000e+01 6.503025531768798828e+00 1.230209469795227051e+00
1.798000000000000000e+03 5.624310302734375000e+01 3.328895568847656250e+01 2.113871335983276367e+00 1.865257072448730469e+01 6.229932785034179688e+00 2.098948955535888672e+00
1.799000000000000000e+03 5.595924377441406250e+01 3.308251190185546875e+01 1.680260539054870605e+00 1.735850715637207031e+01 5.711630344390869141e+00 3.582124233245849609e+00
1.800000000000000000e+03 5.722017669677734375e+01 3.387649917602539062e+01 5.845457077026367188e+00 1.767667961120605469e+01 7.056641101837158203e+00 -1.236558556556701660e+00
1.801000000000000000e+03 5.730011749267578125e+01 3.444488525390625000e+01 8.584968566894531250e+00 1.710912704467773438e+01 7.708228588104248047e+00 -8.994226455688476562e-01
1.802000000000000000e+03 5.752722549438476562e+01 3.489024353027343750e+01 9.349242210388183594e+00 1.586288547515869141e+01 7.563638210296630859e+00 5.237479805946350098e-01
1.803000000000000000e+03 5.743595123291015625e+01 3.538716888427734375e+01 9.068291664123535156e+00 1.641730880737304688e+01 7.645679950714111328e+00 2.090133428573608398e+00
1.804000000000000000e+03 5.736491394042968750e+01 3.822350311279296875e+01 -3.613220453262329102e-01 1.602699279785156250e+01 4.699701309204101562e+00 1.379713416099548340e+00
1.805000000000000000e+03 2.279914093017578125e+01 6.243418455123901367e-01 -7.763472199440002441e-01 -1.269609332084655762e-01 -2.709924280643463135e-01 -1.952240914106369019e-01
1.806000000000000000e+03 2.236407089233398438e+01 8.165109157562255859e-01 -7.480227351188659668e-01 -1.533202230930328369e-01 -2.704028785228729248e-01 -2.525719404220581055e-01
1.807000000000000000e+03 2.387121200561523438e+01 -7.004251480102539062e-01 -6.861778497695922852e-01 -8.823006600141525269e-02 -2.323223799467086792e-01 9.077945351600646973e-02
1.808000000000000000e+03 2.981614875793457031e+01 5.124359130859375000e+00 -2.433197498321533203e-01 -4.689486697316169739e-02 -8.706438541412353516e-02 -2.771491110324859619e-01
1.809000000000000000e+03 2.927868270874023438e+01 4.991528987884521484e+00 -2.939473688602447510e-01 -1.029592975974082947e-01 -1.190719977021217346e-01 -2.475318461656570435e-01
1.810000000000000000e+03 5.333944320678710938e+01 3.359942245483398438e+01 3.103824377059936523e+00 2.158516645431518555e+00 1.578702330589294434e+00 3.182490825653076172e+00
1.811000000000000000e+03 3.201976013183593750e+01 2.227701568603515625e+01 7.777357101440429688e-02 9.171019494533538818e-02 5.084512755274772644e-02 8.872945606708526611e-02
1.812000000000000000e+03 3.176168632507324219e+01 2.374938774108886719e+01 7.110384106636047363e-02 9.692076593637466431e-02 5.040737986564636230e-02 9.017652273178100586e-02
1.813000000000000000e+03 5.445718765258789062e+01 3.766899490356445312e+01 1.558106780052185059e+00 8.483208656311035156e+00 3.012394428253173828e+00 -4.004396915435791016e+00
1.814000000000000000e+03 3.116819572448730469e+01 2.260734558105468750e+01 7.478436827659606934e-02 9.878429025411605835e-02 5.207059904932975769e-02 9.369209408760070801e-02
1.815000000000000000e+03 1.842638397216796875e+01 9.265078544616699219e+00 1.774434298276901245e-01 2.297329157590866089e-01 1.221529021859169006e-01 1.900852620601654053e-01
1.816000000000000000e+03 3.980633926391601562e+01 2.008333969116210938e+01 -6.217485666275024414e-02 1.371987760066986084e-01 2.250717394053936005e-02 1.871111430227756500e-02
1.817000000000000000e+03 4.033517837524414062e+01 2.003412818908691406e+01 -3.417582437396049500e-02 2.844898998737335205e-01 7.509422302246093750e-02 1.042734757065773010e-01
1.818000000000000000e+03 4.064152526855468750e+01 2.025296020507812500e+01 -1.838273741304874420e-02 3.331600427627563477e-01 9.443318843841552734e-02 1.398871541023254395e-01
1.819000000000000000e+03 1.682956123352050781e+01 7.940097808837890625e+00 1.749004721641540527e-01 2.691895663738250732e-01 1.332270205020904541e-01 2.218971103429794312e-01
1.820000000000000000e+03 4.098086929321289062e+01 2.107682991027832031e+01 1.510439440608024597e-02 2.912889122962951660e-01 9.191799908876419067e-02 1.509421765804290771e-01
1.821000000000000000e+03 3.529272079467773438e+01 2.708699417114257812e+01 7.662826031446456909e-02 9.865044802427291870e-02 5.258361250162124634e-02 8.035333454608917236e-02
1.822000000000000000e+03 3.517902755737304688e+01 1.366318893432617188e+01 -4.006547629833221436e-01 -1.371441334486007690e-01 -1.613396704196929932e-01 -2.738714814186096191e-01
1.823000000000000000e+03 2.037629508972167969e+01 1.131846523284912109e+01 1.527643799781799316e-01 1.840249598026275635e-01 1.010368019342422485e-01 1.667471528053283691e-01
1.824000000000000000e+03 1.950563240051269531e+01 1.116858482360839844e+01 1.436161994934082031e-01 1.941390931606292725e-01 1.013265848159790039e-01 1.692104190587997437e-01
1.825000000000000000e+03 3.853608703613281250e+01 1.866452407836914062e+01 -1.587160974740982056e-01 5.464318208396434784e-03 -4.597553238272666931e-02 -9.178189933300018311e-02
1.826000000000000000e+03 3.955596160888671875e+01 1.928001022338867188e+01 -9.630719572305679321e-02 1.840378344058990479e-01 2.631919085979461670e-02 2.114219591021537781e-02
1.827000000000000000e+03 2.590385055541992188e+01 1.693017005920410156e+01 1.185277029871940613e-01 1.331497430801391602e-01 7.550323754549026489e-02 1.250774711370468140e-01
1.828000000000000000e+03 4.157692337036132812e+01 2.162295722961425781e+01 6.746964156627655029e-02 3.740669786930084229e-01 1.324609816074371338e-01 2.213512957096099854e-01
1.829000000000000000e+03 3.322117614746093750e+01 2.472146987915039062e+01 7.399668544530868530e-02 9.960310161113739014e-02 5.207993462681770325e-02 8.565630018711090088e-02
1.830000000000000000e+03 3.620453262329101562e+01 2.797955322265625000e+01 7.267393916845321655e-02 9.343374520540237427e-02 4.983230307698249817e-02 8.513296395540237427e-02
1.831000000000000000e+03 4.655459594726562500e+01 2.553264617919921875e+01 6.795157790184020996e-01 1.554314970970153809e+00 6.701492071151733398e-01 1.114625096321105957e+00
1.832000000000000000e+03 3.828215408325195312e+01 1.836504745483398438e+01 -1.793281286954879761e-01 -2.019308134913444519e-02 -5.985636264085769653e-02 -1.133334711194038391e-01
1.833000000000000000e+03 3.931080627441406250e+01 1.899645805358886719e+01 -1.132121160626411438e-01 1.637853533029556274e-01 1.517197024077177048e-02 -1.607960206456482410e-03
1.834000000000000000e+03 4.606479263305664062e+01 2.553660583496093750e+01 6.637430191040039062e-01 1.306251287460327148e+00 5.909982919692993164e-01 9.854146838188171387e-01
1.835000000000000000e+03 2.127925682067871094e+01 1.264040279388427734e+01 1.392523348331451416e-01 1.764935851097106934e-01 9.472377598285675049e-02 1.565214991569519043e-01
1.836000000000000000e+03 3.147789382934570312e+01 1.097657299041748047e+01 -7.634336352348327637e-01 -4.745128750801086426e-01 -3.713839650154113770e-01 -5.374564528465270996e-01
1.837000000000000000e+03 3.300454711914062500e+01 1.173236942291259766e+01 -5.603515505790710449e-01 -3.051956892013549805e-01 -2.596641778945922852e-01 -4.140334725379943848e-01
1.838000000000000000e+03 2.383957290649414062e+01 1.498183441162109375e+01 1.278454065322875977e-01 1.512534320354461670e-01 8.372965455055236816e-02 1.382764130830764771e-01
1.839000000000000000e+03 3.431393051147460938e+01 2.578724670410156250e+01 7.300021499395370483e-02 1.017558053135871887e-01 5.242680758237838745e-02 8.078420162200927734e-02
1.840000000000000000e+03 1.781273269653320312e+01 8.877334594726562500e+00 1.803113222122192383e-01 2.400938421487808228e-01 1.261215507984161377e-01 1.980732977390289307e-01
1.841000000000000000e+03 1.710631370544433594e+01 8.220685958862304688e+00 1.791114509105682373e-01 2.603880167007446289e-01 1.318498402833938599e-01 2.115591019392013550e-01
1.842000000000000000e+03 2.231756591796875000e+01 1.319279479980468750e+01 1.462333053350448608e-01 1.689089983701705933e-01 9.454268962144851685e-02 1.535469442605972290e-01
1.843000000000000000e+03 2.154459190368652344e+01 1.290113830566406250e+01 1.387557387351989746e-01 1.721202135086059570e-01 9.326278418302536011e-02 1.556548178195953369e-01
1.844000000000000000e+03 2.501888465881347656e+01 1.667678833007812500e+01 1.144174262881278992e-01 1.364967674016952515e-01 7.527425885200500488e-02 1.256066709756851196e-01
1.845000000000000000e+03 2.531692504882812500e+01 1.694117546081542969e+01 1.135368049144744873e-01 1.339119970798492432e-01 7.423464208841323853e-02 1.246188133955001831e-01
1.846000000000000000e+03 3.204628372192382812e+01 2.343212509155273438e+01 7.480046898126602173e-02 9.824417531490325928e-02 5.191339179873466492e-02 8.770588040351867676e-02
1.847000000000000000e+03 4.326706695556640625e+01 2.278028106689453125e+01 2.339218407869338989e-01 7.353556752204895020e-01 2.907832562923431396e-01 4.844223558902740479e-01
1.848000000000000000e+03 4.272829818725585938e+01 2.276817703247070312e+01 2.014956176280975342e-01 5.353938341140747070e-01 2.210668325424194336e-01 3.731041848659515381e-01
1.849000000000000000e+03 4.354974365234375000e+01 2.305944633483886719e+01 2.705197036266326904e-01 7.887325286865234375e-01 3.177756667137145996e-01 5.281913280487060547e-01
1.850000000000000000e+03 4.735816955566406250e+01 2.632463836669921875e+01 8.219001889228820801e-01 1.789748907089233398e+00 7.834947109222412109e-01 1.311451554298400879e+00
1.851000000000000000e+03 3.542674636840820312e+01 1.451833438873291016e+01 -3.842040002346038818e-01 -1.901396363973617554e-01 -1.723030954599380493e-01 -2.941516041755676270e-01
1.852000000000000000e+03 3.487288284301757812e+01 1.445765113830566406e+01 -4.189316034317016602e-01 -3.000202775001525879e-01 -2.156855762004852295e-01 -3.605363070964813232e-01
1.853000000000000000e+03 3.802614593505859375e+01 1.806396484375000000e+01 -2.016972750425338745e-01 -4.789670556783676147e-02 -7.487819343805313110e-02 -1.328007727861404419e-01
1.854000000000000000e+03 4.501596832275390625e+01 2.498519325256347656e+01 5.542520284652709961e-01 9.822723865509033203e-01 4.609573185443878174e-01 7.472860813140869141e-01
1.855000000000000000e+03 4.579307556152343750e+01 2.526675415039062500e+01 6.206676363945007324e-01 1.249029040336608887e+00 5.609089732170104980e-01 9.254809021949768066e-01
1.856000000000000000e+03 2.925937652587890625e+01 2.065799331665039062e+01 9.562643617391586304e-02 1.080238446593284607e-01 6.109508499503135681e-02 1.018738225102424622e-01
1.857000000000000000e+03 3.047238159179687500e+01 2.197447586059570312e+01 8.158286660909652710e-02 1.026507839560508728e-01 5.527009442448616028e-02 9.458341449499130249e-02
1.858000000000000000e+03 4.715270233154296875e+01 2.660500335693359375e+01 8.618109226226806641e-01 1.585174322128295898e+00 7.340955734252929688e-01 1.241180062294006348e+00
1.859000000000000000e+03 4.779754638671875000e+01 2.769008255004882812e+01 1.117511034011840820e+00 1.640636444091796875e+00 8.274442553520202637e-01 1.387405753135681152e+00
1.860000000000000000e+03 3.404401397705078125e+01 1.354332542419433594e+01 -4.740933477878570557e-01 -3.598720133304595947e-01 -2.501896023750305176e-01 -4.059573709964752197e-01
1.861000000000000000e+03 3.569036483764648438e+01 1.482016944885253906e+01 -3.608693778514862061e-01 -1.717669963836669922e-01 -1.597909182310104370e-01 -2.798754870891571045e-01
1.862000000000000000e+03 3.840018081665039062e+01 2.987334251403808594e+01 6.989457458257675171e-02 8.091323822736740112e-02 4.524234309792518616e-02 8.625110983848571777e-02
1.863000000000000000e+03 3.765296936035156250e+01 3.049394416809082031e+01 7.173410058021545410e-02 8.340493589639663696e-02 4.654171317815780640e-02 7.705575972795486450e-02
1.864000000000000000e+03 2.960461044311523438e+01 2.072528266906738281e+01 9.334380179643630981e-02 1.083202734589576721e-01 6.049922108650207520e-02 9.877812862396240234e-02
1.865000000000000000e+03 2.887173271179199219e+01 2.043570899963378906e+01 9.489342570304870605e-02 1.117746084928512573e-01 6.200040876865386963e-02 1.022481694817543030e-01
1.866000000000000000e+03 4.270827484130859375e+01 2.220965194702148438e+01 1.651131063699722290e-01 6.429476141929626465e-01 2.424182146787643433e-01 4.029283523559570312e-01
1.867000000000000000e+03 4.742912292480468750e+01 2.687001228332519531e+01 9.227264523506164551e-01 1.671613216400146484e+00 7.783018946647644043e-01 1.311638236045837402e+00
1.868000000000000000e+03 3.178205299377441406e+01 1.121836376190185547e+01 -7.025688290596008301e-01 -4.472194015979766846e-01 -3.449364900588989258e-01 -5.269052386283874512e-01
1.869000000000000000e+03 2.951632118225097656e+01 2.107015991210937500e+01 9.051628410816192627e-02 1.081155091524124146e-01 5.958953872323036194e-02 9.971802681684494019e-02
1.870000000000000000e+03 2.787702751159667969e+01 1.942742919921875000e+01 9.979613870382308960e-02 1.192623004317283630e-01 6.571753323078155518e-02 1.084365844726562500e-01
1.871000000000000000e+03 2.258016204833984375e+01 1.347575664520263672e+01 1.450505703687667847e-01 1.665122061967849731e-01 9.346883744001388550e-02 1.518879681825637817e-01
1.872000000000000000e+03 2.180661964416503906e+01 1.316344451904296875e+01 1.394482702016830444e-01 1.705801188945770264e-01 9.300851821899414062e-02 1.520568877458572388e-01
1.873000000000000000e+03 1.866954612731933594e+01 1.040617561340332031e+01 1.450734138488769531e-01 2.137456983327865601e-01 1.076457351446151733e-01 1.763042360544204712e-01
1.874000000000000000e+03 2.759894371032714844e+01 1.914170455932617188e+01 9.965258836746215820e-02 1.207155436277389526e-01 6.611043959856033325e-02 1.117306500673294067e-01
1.875000000000000000e+03 2.560963821411132812e+01 1.720815086364746094e+01 1.133564561605453491e-01 1.342467516660690308e-01 7.428096234798431396e-02 1.209398582577705383e-01
1.876000000000000000e+03 2.846507644653320312e+01 1.943161010742187500e+01 1.040644943714141846e-01 1.144314408302307129e-01 6.554877758026123047e-02 1.082367599010467529e-01
1.877000000000000000e+03 2.842018699645996094e+01 1.997210311889648438e+01 9.710426628589630127e-02 1.147021949291229248e-01 6.354194134473800659e-02 1.050120219588279724e-01
1.878000000000000000e+03 2.867239379882812500e+01 2.021167373657226562e+01 9.187009185552597046e-02 1.128510534763336182e-01 6.141634285449981689e-02 1.055504903197288513e-01
1.879000000000000000e+03 4.383398437500000000e+01 2.333689689636230469e+01 3.091538548469543457e-01 8.464057445526123047e-01 3.466678559780120850e-01 5.727456808090209961e-01
1.880000000000000000e+03 4.895205688476562500e+01 2.876494598388671875e+01 1.456606745719909668e+00 2.090347528457641602e+00 1.064086198806762695e+00 1.744740724563598633e+00
1.881000000000000000e+03 4.808551406860351562e+01 2.795730400085449219e+01 1.199672102928161621e+00 1.746648430824279785e+00 8.838961720466613770e-01 1.471827864646911621e+00
1.882000000000000000e+03 4.980701828002929688e+01 2.957207107543945312e+01 1.703551292419433594e+00 2.453176736831665039e+00 1.247018456459045410e+00 2.046125173568725586e+00
1.883000000000000000e+03 5.054837036132812500e+01 2.978083610534667969e+01 1.772604823112487793e+00 3.006545066833496094e+00 1.433744907379150391e+00 2.329236507415771484e+00
1.884000000000000000e+03 4.039002227783203125e+01 3.162255287170410156e+01 8.054730296134948730e-02 6.101138889789581299e-02 4.246760904788970947e-02 8.009224385023117065e-02
1.885000000000000000e+03 3.999786758422851562e+01 3.143229293823242188e+01 8.114103227853775024e-02 8.547488600015640259e-02 4.998477548360824585e-02 6.865897774696350098e-02
1.886000000000000000e+03 4.998565292358398438e+01 2.926437568664550781e+01 1.614797949790954590e+00 2.717360258102416992e+00 1.299647450447082520e+00 2.115462779998779297e+00
1.887000000000000000e+03 3.957016754150390625e+01 3.121046257019042969e+01 7.650068402290344238e-02 6.750377267599105835e-02 4.320133849978446960e-02 8.155532181262969971e-02
1.888000000000000000e+03 3.595207595825195312e+01 1.512079334259033203e+01 -3.467958867549896240e-01 -1.539485752582550049e-01 -1.502233445644378662e-01 -2.605904638767242432e-01
1.889000000000000000e+03 4.285561370849609375e+01 3.440128326416015625e+01 8.890746533870697021e-02 5.045443028211593628e-02 4.180856794118881226e-02 7.275401055812835693e-02
1.890000000000000000e+03 3.347539138793945312e+01 1.241926002502441406e+01 -5.065590739250183105e-01 -3.125547170639038086e-01 -2.457341402769088745e-01 -4.110254943370819092e-01
1.891000000000000000e+03 3.461099243164062500e+01 1.358411407470703125e+01 -4.377658367156982422e-01 -2.430581450462341309e-01 -2.042471915483474731e-01 -3.385187387466430664e-01
1.892000000000000000e+03 3.647326278686523438e+01 1.572340679168701172e+01 -3.147625625133514404e-01 -1.137422621250152588e-01 -1.285514533519744873e-01 -2.244907766580581665e-01
1.893000000000000000e+03 3.673361206054687500e+01 1.602525901794433594e+01 -2.965810894966125488e-01 -9.208346903324127197e-02 -1.165993735194206238e-01 -2.072408646345138550e-01
1.894000000000000000e+03 1.984516143798828125e+01 1.139044666290283203e+01 1.449119299650192261e-01 1.872547268867492676e-01 9.964999556541442871e-02 1.664069592952728271e-01
1.895000000000000000e+03 3.770304489135742188e+01 2.986988067626953125e+01 6.879619508981704712e-02 8.339246362447738647e-02 4.565659910440444946e-02 8.210799843072891235e-02
1.896000000000000000e+03 4.088474655151367188e+01 3.233679580688476562e+01 8.477220684289932251e-02 7.628916203975677490e-02 4.831841215491294861e-02 6.870619207620620728e-02
1.897000000000000000e+03 5.556363677978515625e+01 3.735807037353515625e+01 -1.770385950803756714e-01 1.525108909606933594e+01 4.522215366363525391e+00 -3.521308660507202148e+00
1.898000000000000000e+03 3.699384689331054688e+01 1.632664680480957031e+01 -2.833639681339263916e-01 -7.096818089485168457e-02 -1.062996461987495422e-01 -1.864600628614425659e-01
1.899000000000000000e+03 3.649167251586914062e+01 2.824320602416992188e+01 7.958982139825820923e-02 9.921502321958541870e-02 5.364145338535308838e-02 7.532297819852828979e-02
1.900000000000000000e+03 4.770855712890625000e+01 2.713473510742187500e+01 9.880634546279907227e-01 1.765176892280578613e+00 8.259720802307128906e-01 1.386230587959289551e+00
1.901000000000000000e+03 4.856247711181640625e+01 2.793224334716796875e+01 1.209375381469726562e+00 2.091866970062255859e+00 9.903727173805236816e-01 1.631393671035766602e+00
1.902000000000000000e+03 1.840566253662109375e+01 -2.867980241775512695e+00 -6.729258224368095398e-03 4.358786344528198242e-01 1.287448108196258545e-01 -8.963808417320251465e-02
1.903000000000000000e+03 4.529557037353515625e+01 3.606832122802734375e+01 6.544117629528045654e-02 7.088676840066909790e-02 4.089838266372680664e-02 5.240748450160026550e-02
1.904000000000000000e+03 2.677303886413574219e+01 1.721923446655273438e+01 1.244399845600128174e-01 1.330795139074325562e-01 7.725585252046585083e-02 1.245208233594894409e-01
1.905000000000000000e+03 3.488906860351562500e+01 1.390194702148437500e+01 -4.247472882270812988e-01 -2.251608222723007202e-01 -1.949724256992340088e-01 -3.211737573146820068e-01
1.906000000000000000e+03 3.797351455688476562e+01 3.016420745849609375e+01 8.788645267486572266e-02 8.460664749145507812e-02 5.174792930483818054e-02 7.361505925655364990e-02
1.907000000000000000e+03 3.813120651245117188e+01 3.052523612976074219e+01 6.388320773839950562e-02 8.425453305244445801e-02 4.444132372736930847e-02 7.834812998771667480e-02
1.908000000000000000e+03 4.056426239013671875e+01 3.219729232788085938e+01 8.116665482521057129e-02 6.098284944891929626e-02 4.264485090970993042e-02 7.360084354877471924e-02
1.909000000000000000e+03 4.111651229858398438e+01 3.255966186523437500e+01 7.603040337562561035e-02 5.937642231583595276e-02 4.062204807996749878e-02 8.027952909469604492e-02
1.910000000000000000e+03 4.473516082763671875e+01 2.470657730102539062e+01 5.073010921478271484e-01 9.302863478660583496e-01 4.312762320041656494e-01 6.969507336616516113e-01
1.911000000000000000e+03 4.551991271972656250e+01 2.499506378173828125e+01 5.770169496536254883e-01 1.193872690200805664e+00 5.312669277191162109e-01 8.673210144042968750e-01
1.912000000000000000e+03 4.411843872070312500e+01 2.361363601684570312e+01 3.499766588211059570e-01 9.065503478050231934e-01 3.769581019878387451e-01 6.181915998458862305e-01
1.913000000000000000e+03 4.095296859741210938e+01 2.048256492614746094e+01 5.121753783896565437e-04 3.863952159881591797e-01 1.160722225904464722e-01 1.802453249692916870e-01
1.914000000000000000e+03 3.776813507080078125e+01 1.776223373413085938e+01 -2.209690809249877930e-01 -7.373297214508056641e-02 -8.841061592102050781e-02 -1.543416976928710938e-01
1.915000000000000000e+03 2.950049972534179688e+01 2.145155525207519531e+01 8.043682575225830078e-02 1.094907224178314209e-01 5.697826296091079712e-02 9.703499078750610352e-02
1.916000000000000000e+03 5.083364105224609375e+01 3.002843666076660156e+01 1.854584336280822754e+00 3.164202690124511719e+00 1.505636096000671387e+00 2.439643859863281250e+00
1.917000000000000000e+03 4.923859786987304688e+01 2.903476333618164062e+01 1.541820645332336426e+00 2.208574533462524414e+00 1.125118613243103027e+00 1.841702222824096680e+00
1.918000000000000000e+03 2.619272613525390625e+01 1.720559883117675781e+01 1.185421571135520935e-01 1.337080448865890503e-01 7.567506283521652222e-02 1.219471618533134460e-01
1.919000000000000000e+03 4.242875671386718750e+01 2.191500473022460938e+01 1.322763115167617798e-01 6.021376252174377441e-01 2.203241735696792603e-01 3.651349544525146484e-01
1.920000000000000000e+03 4.866381072998046875e+01 2.849510955810546875e+01 1.370364427566528320e+00 1.973950266838073730e+00 1.003294348716735840e+00 1.650556445121765137e+00
1.921000000000000000e+03 3.460924148559570312e+01 2.609874725341796875e+01 6.723955273628234863e-02 9.866768866777420044e-02 4.977217316627502441e-02 8.502750843763351440e-02
1.922000000000000000e+03 3.361334228515625000e+01 2.576805877685546875e+01 6.879212707281112671e-02 1.020920351147651672e-01 5.126524716615676880e-02 8.132337033748626709e-02
1.923000000000000000e+03 4.281641006469726562e+01 3.379701232910156250e+01 8.292063325643539429e-02 7.165950536727905273e-02 4.637404158711433411e-02 6.580573320388793945e-02
1.924000000000000000e+03 3.269950485229492188e+01 1.137878131866455078e+01 -6.051445603370666504e-01 -3.157291114330291748e-01 -2.762621045112609863e-01 -4.069817662239074707e-01
1.925000000000000000e+03 5.411694717407226562e+01 3.759481048583984375e+01 1.660101413726806641e+00 7.749434471130371094e+00 2.822860717773437500e+00 -3.414370536804199219e+00
1.926000000000000000e+03 3.510417175292968750e+01 2.672521018981933594e+01 6.499042361974716187e-02 9.817259758710861206e-02 4.894890636205673218e-02 8.649627864360809326e-02
1.927000000000000000e+03 3.725387191772460938e+01 1.662731552124023438e+01 -2.649424672126770020e-01 -4.778462275862693787e-02 -9.381812810897827148e-02 -1.678305566310882568e-01
1.928000000000000000e+03 5.250222396850585938e+01 3.222342681884765625e+01 2.659241676330566406e+00 3.242065906524658203e+00 1.770392298698425293e+00 3.126375436782836914e+00
1.929000000000000000e+03 3.740368652343750000e+01 2.957255172729492188e+01 8.020497113466262817e-02 9.310567378997802734e-02 5.199319496750831604e-02 7.309810817241668701e-02
1.930000000000000000e+03 3.757923889160156250e+01 2.894145584106445312e+01 8.437549322843551636e-02 9.445780515670776367e-02 5.364999175071716309e-02 7.749804109334945679e-02
1.931000000000000000e+03 3.286360168457031250e+01 2.364703941345214844e+01 7.289186120033264160e-02 9.739831089973449707e-02 5.108705163002014160e-02 8.705044537782669067e-02
1.932000000000000000e+03 2.284022331237792969e+01 1.376503467559814453e+01 1.445345729589462280e-01 1.653962284326553345e-01 9.297923743724822998e-02 1.480455547571182251e-01
1.933000000000000000e+03 2.676724243164062500e+01 1.775965118408203125e+01 1.157311648130416870e-01 1.306632459163665771e-01 7.391832023859024048e-02 1.188149303197860718e-01
1.934000000000000000e+03 5.112601852416992188e+01 3.026490402221679688e+01 1.938518285751342773e+00 3.333104848861694336e+00 1.581486940383911133e+00 2.555820226669311523e+00
1.935000000000000000e+03 2.673619461059570312e+01 1.884315490722656250e+01 9.950406849384307861e-02 1.277931928634643555e-01 6.818917393684387207e-02 1.103620827198028564e-01
1.936000000000000000e+03 2.472616004943847656e+01 1.697373962402343750e+01 1.078244224190711975e-01 1.368336081504821777e-01 7.339741289615631104e-02 1.240875050425529480e-01
1.937000000000000000e+03 2.100940513610839844e+01 1.238067913055419922e+01 1.392607539892196655e-01 1.784952282905578613e-01 9.532679617404937744e-02 1.588836759328842163e-01
1.938000000000000000e+03 3.156037521362304688e+01 9.586256027221679688e+00 -6.476287841796875000e-01 -2.516137659549713135e-01 -2.697727680206298828e-01 -3.013092875480651855e-01
1.939000000000000000e+03 4.116674041748046875e+01 3.317187500000000000e+01 8.403033018112182617e-02 5.950658023357391357e-02 4.306107386946678162e-02 6.724673509597778320e-02
1.940000000000000000e+03 3.905805587768554688e+01 1.870781135559082031e+01 -1.336231976747512817e-01 1.371515691280364990e-01 1.058511901646852493e-03 -2.274343371391296387e-02
1.941000000000000000e+03 2.705311203002929688e+01 1.803759765625000000e+01 1.124415025115013123e-01 1.271729767322540283e-01 7.188434153795242310e-02 1.188811138272285461e-01
1.942000000000000000e+03 2.703774833679199219e+01 1.857870292663574219e+01 1.038490608334541321e-01 1.258215308189392090e-01 6.890118122100830078e-02 1.146478503942489624e-01
1.943000000000000000e+03 4.209059143066406250e+01 3.412280654907226562e+01 8.546888828277587891e-02 6.409248709678649902e-02 4.486841335892677307e-02 6.558999419212341309e-02
1.944000000000000000e+03 3.751356124877929688e+01 1.692735099792480469e+01 -2.502807080745697021e-01 -2.453318610787391663e-02 -8.244416862726211548e-02 -1.463139355182647705e-01
1.945000000000000000e+03 3.777277755737304688e+01 1.722690773010253906e+01 -2.311934232711791992e-01 1.307580154389142990e-03 -6.896575540304183960e-02 -1.270148456096649170e-01
1.946000000000000000e+03 1.553952503204345703e+01 6.460103988647460938e+00 2.055049985647201538e-01 3.730030059814453125e-01 1.735523939132690430e-01 2.474771291017532349e-01
1.947000000000000000e+03 4.209441757202148438e+01 3.361560440063476562e+01 7.799198478460311890e-02 7.245253771543502808e-02 4.513335600495338440e-02 7.347591966390609741e-02
1.948000000000000000e+03 5.143017959594726562e+01 3.048474311828613281e+01 2.028074264526367188e+00 3.516176939010620117e+00 1.663275361061096191e+00 2.691234827041625977e+00
1.949000000000000000e+03 1.643169975280761719e+01 8.211643218994140625e+00 1.592264473438262939e-01 2.852752208709716797e-01 1.333505064249038696e-01 2.047334313392639160e-01
1.950000000000000000e+03 3.402304077148437500e+01 1.298298263549804688e+01 -4.670777320861816406e-01 -2.923678457736968994e-01 -2.278336733579635620e-01 -3.740143775939941406e-01
1.951000000000000000e+03 3.059305381774902344e+01 2.265011978149414062e+01 7.430268824100494385e-02 1.023627221584320068e-01 5.299962311983108521e-02 9.298034012317657471e-02
1.952000000000000000e+03 5.195224761962890625e+01 3.124089241027832031e+01 2.331468582153320312e+00 3.635140419006347656e+00 1.789982676506042480e+00 2.942023038864135742e+00
1.953000000000000000e+03 4.633604812622070312e+01 2.580468177795410156e+01 7.074964046478271484e-01 1.368966817855834961e+00 6.229389905929565430e-01 1.046819567680358887e+00
1.954000000000000000e+03 4.125900268554687500e+01 2.073534202575683594e+01 2.373230084776878357e-02 4.318209290504455566e-01 1.366659700870513916e-01 2.197256386280059814e-01
1.955000000000000000e+03 4.185564422607421875e+01 2.131196975708007812e+01 7.203266769647598267e-02 5.230746865272521973e-01 1.785322129726409912e-01 2.907043695449829102e-01
1.956000000000000000e+03 3.372920608520507812e+01 1.271449375152587891e+01 -4.935842454433441162e-01 -3.089561462402343750e-01 -2.407621145248413086e-01 -3.892640769481658936e-01
1.957000000000000000e+03 4.440243530273437500e+01 2.389042091369628906e+01 3.930792510509490967e-01 9.676089882850646973e-01 4.082064628601074219e-01 6.638647913932800293e-01
1.958000000000000000e+03 4.468531417846679688e+01 2.416768074035644531e+01 4.384180307388305664e-01 1.027716755867004395e+00 4.398404359817504883e-01 7.111085653305053711e-01
1.959000000000000000e+03 2.206563568115234375e+01 1.343045043945312500e+01 1.385541260242462158e-01 1.674752533435821533e-01 9.180881083011627197e-02 1.503218263387680054e-01
1.960000000000000000e+03 5.231848526000976562e+01 3.138771629333496094e+01 2.403052330017089844e+00 3.895323991775512695e+00 1.889512896537780762e+00 3.173228979110717773e+00
1.961000000000000000e+03 2.345690727233886719e+01 1.525492191314697266e+01 1.175478920340538025e-01 1.535470932722091675e-01 8.132849633693695068e-02 1.356628090143203735e-01
1.962000000000000000e+03 2.325854301452636719e+01 1.489944362640380859e+01 1.247043684124946594e-01 1.576204001903533936e-01 8.469743281602859497e-02 1.365264505147933960e-01
1.963000000000000000e+03 2.303854942321777344e+01 1.458462524414062500e+01 1.277686953544616699e-01 1.600143164396286011e-01 8.633489906787872314e-02 1.397193670272827148e-01
1.964000000000000000e+03 4.496623611450195312e+01 2.444535827636718750e+01 4.850825071334838867e-01 1.084947466850280762e+00 4.710090160369873047e-01 7.598760128021240234e-01
1.965000000000000000e+03 3.672098159790039062e+01 2.854263496398925781e+01 7.127993553876876831e-02 9.238721430301666260e-02 4.910014569759368896e-02 8.455516397953033447e-02
1.966000000000000000e+03 3.266440963745117188e+01 2.442915153503417969e+01 7.205355912446975708e-02 1.010809168219566345e-01 5.194034054875373840e-02 8.529126644134521484e-02
1.967000000000000000e+03 3.027760124206542969e+01 2.247698402404785156e+01 7.217016071081161499e-02 1.070980280637741089e-01 5.378045514225959778e-02 9.390418976545333862e-02
1.968000000000000000e+03 2.997268295288085938e+01 2.137876701354980469e+01 8.963945508003234863e-02 1.066653653979301453e-01 5.889144539833068848e-02 9.518667310476303101e-02
1.969000000000000000e+03 5.428895950317382812e+01 3.303380584716796875e+01 3.510658740997314453e+00 7.032239913940429688e+00 3.162869691848754883e+00 5.805688858032226562e+00
1.970000000000000000e+03 2.073320770263671875e+01 1.212362957000732422e+01 1.410692632198333740e-01 1.827485263347625732e-01 9.714533388614654541e-02 1.589009314775466919e-01
1.971000000000000000e+03 2.044891357421875000e+01 1.187133502960205078e+01 1.425344198942184448e-01 1.832832247018814087e-01 9.774529188871383667e-02 1.612086594104766846e-01
1.972000000000000000e+03 3.396815490722656250e+01 2.606469345092773438e+01 6.899283081293106079e-02 9.625069051980972290e-02 4.957305639982223511e-02 8.408119529485702515e-02
1.973000000000000000e+03 3.487259292602539062e+01 2.640490531921386719e+01 7.366878539323806763e-02 1.006299778819084167e-01 5.228963121771812439e-02 8.145127445459365845e-02
1.974000000000000000e+03 5.175038146972656250e+01 3.067968750000000000e+01 2.104799509048461914e+00 3.750517368316650391e+00 1.756595134735107422e+00 2.857175111770629883e+00
1.975000000000000000e+03 5.209161376953125000e+01 3.084167098999023438e+01 2.180428981781005859e+00 4.028798580169677734e+00 1.862768292427062988e+00 3.044006586074829102e+00
1.976000000000000000e+03 3.709963607788085938e+01 2.926522445678710938e+01 6.820291280746459961e-02 8.885174244642257690e-02 4.711639508605003357e-02 8.274746686220169067e-02
1.977000000000000000e+03 1.855223464965820312e+01 1.001152706146240234e+01 1.519153118133544922e-01 2.196387201547622681e-01 1.114662066102027893e-01 1.825868934392929077e-01
1.978000000000000000e+03 1.813562202453613281e+01 9.055235862731933594e+00 1.799283772706985474e-01 2.323195785284042358e-01 1.236743852496147156e-01 1.957059651613235474e-01
1.979000000000000000e+03 5.386437225341796875e+01 3.310354232788085938e+01 3.633697509765625000e+00 5.030185699462890625e+00 2.599164962768554688e+00 5.008525848388671875e+00
1.980000000000000000e+03 5.255783081054687500e+01 3.190287971496582031e+01 2.656198263168334961e+00 3.713290452957153320e+00 1.910846590995788574e+00 3.340700626373291016e+00
1.981000000000000000e+03 3.588248443603515625e+01 2.771693420410156250e+01 7.751767337322235107e-02 9.786356240510940552e-02 5.261437222361564636e-02 7.737186551094055176e-02
1.982000000000000000e+03 1.764222717285156250e+01 9.213780403137207031e+00 1.604251563549041748e-01 2.402619868516921997e-01 1.202061399817466736e-01 1.891023218631744385e-01
1.983000000000000000e+03 1.524771499633789062e+01 6.181428432464599609e+00 2.026116847991943359e-01 3.962382674217224121e-01 1.796549856662750244e-01 2.666706144809722900e-01
1.984000000000000000e+03 3.131914901733398438e+01 1.045742607116699219e+01 -7.534415125846862793e-01 -4.199075996875762939e-01 -3.520047366619110107e-01 -4.791128039360046387e-01
1.985000000000000000e+03 1.843185424804687500e+01 9.703942298889160156e+00 1.608059108257293701e-01 2.254971563816070557e-01 1.158909276127815247e-01 1.835451424121856689e-01
1.986000000000000000e+03 1.824559974670410156e+01 9.502308845520019531e+00 1.636672914028167725e-01 2.285370081663131714e-01 1.176612898707389832e-01 1.870166510343551636e-01
1.987000000000000000e+03 1.375630092620849609e+01 5.344287872314453125e+00 1.132327020168304443e-01 7.288613319396972656e-01 2.526282072067260742e-01 1.473609656095504761e-01
1.988000000000000000e+03 1.585180282592773438e+01 7.273080348968505859e+00 1.677275896072387695e-01 3.384313881397247314e-01 1.518476903438568115e-01 2.272344976663589478e-01
1.989000000000000000e+03 1.527309799194335938e+01 6.799623012542724609e+00 1.680507361888885498e-01 3.824994564056396484e-01 1.651650518178939819e-01 2.298624515533447266e-01
1.990000000000000000e+03 5.614702224731445312e+01 3.745252609252929688e+01 -3.941102623939514160e-01 1.703649139404296875e+01 4.992714405059814453e+00 -1.259092926979064941e+00
1.991000000000000000e+03 5.572366714477539062e+01 3.783071517944335938e+01 -3.128079175949096680e-01 1.434493255615234375e+01 4.209637641906738281e+00 -2.552172422409057617e+00
1.992000000000000000e+03 1.273813819885253906e+01 3.759099721908569336e+00 4.547468125820159912e-01 7.769687175750732422e-01 3.695146739482879639e-01 -3.212799727916717529e-01
1.993000000000000000e+03 1.218170547485351562e+01 2.715257406234741211e+00 7.719855308532714844e-01 9.932083636522293091e-02 2.613919079303741455e-01 -1.959574073553085327e-01
1.994000000000000000e+03 2.977555084228515625e+01 5.565224170684814453e+00 -2.454677075147628784e-01 -4.176226630806922913e-02 -8.616898953914642334e-02 -3.488477468490600586e-01
1.995000000000000000e+03 3.146977424621582031e+01 5.459728240966796875e+00 -9.846427291631698608e-02 -1.459022704511880875e-02 -3.391635045409202576e-02 -2.238493263721466064e-01
1.996000000000000000e+03 2.224805450439453125e+01 3.767564892768859863e-01 -8.525012135505676270e-01 -1.402118802070617676e-01 -2.978139221668243408e-01 -1.902946531772613525e-01
1.997000000000000000e+03 1.099918365478515625e+01 2.653423786163330078e+00 3.846862316131591797e-01 -3.448510468006134033e-01 1.195055805146694183e-02 2.070789784193038940e-01
1.998000000000000000e+03 1.341765308380126953e+01 4.399991035461425781e+00 1.662264913320541382e-01 1.051727414131164551e+00 3.653861880302429199e-01 2.933345176279544830e-02
1.999000000000000000e+03 1.661205291748046875e+01 -3.450697183609008789e+00 -1.522751152515411377e-01 -3.091484904289245605e-01 -1.384270936250686646e-01 -2.599817514419555664e-01
2.000000000000000000e+03 3.170236396789550781e+01 1.065479469299316406e+01 -6.972027420997619629e-01 -3.676804900169372559e-01 -3.194649815559387207e-01 -4.602264463901519775e-01
2.001000000000000000e+03 5.460354232788085938e+01 3.799573516845703125e+01 1.347559571266174316e+00 9.124353408813476562e+00 3.141573905944824219e+00 -3.434648513793945312e+00
2.002000000000000000e+03 3.086314582824707031e+01 9.507040977478027344e+00 -7.689899206161499023e-01 -2.993904948234558105e-01 -3.205141127109527588e-01 -3.902052044868469238e-01
2.003000000000000000e+03 4.622175979614257812e+01 3.662231445312500000e+01 5.272092670202255249e-02 7.926989346742630005e-02 3.959724679589271545e-02 2.827969193458557129e-02
2.004000000000000000e+03 1.040913677215576172e+01 -4.537752628326416016e+00 -2.031335085630416870e-01 -1.038827821612358093e-01 -9.210488945245742798e-02 -3.169177174568176270e-01
2.005000000000000000e+03 1.048386573791503906e+01 -5.326896667480468750e+00 -1.332747936248779297e-01 -1.292183399200439453e-01 -7.874794304370880127e-02 -3.207461237907409668e-01
2.006000000000000000e+03 3.178368568420410156e+01 6.708443641662597656e+00 -9.104956686496734619e-02 -1.031241640448570251e-01 -5.825211852788925171e-02 -1.767119914293289185e-01
2.007000000000000000e+03 2.946457290649414062e+01 5.074032783508300781e+00 -2.750194370746612549e-01 -8.429459482431411743e-02 -1.077942103147506714e-01 -2.614499032497406006e-01
2.008000000000000000e+03 2.917606735229492188e+01 4.624346733093261719e+00 -2.759321033954620361e-01 -1.166169121861457825e-01 -1.177647113800048828e-01 -2.225400507450103760e-01
2.009000000000000000e+03 2.115350151062011719e+01 -3.073228709399700165e-02 -1.301349878311157227e+00 -2.023485451936721802e-01 -4.511094987392425537e-01 -1.887029558420181274e-01
2.010000000000000000e+03 2.258057403564453125e+01 4.175989925861358643e-01 -8.446263074874877930e-01 -1.252636015415191650e-01 -2.909669578075408936e-01 -2.069769650697708130e-01
2.011000000000000000e+03 5.289517211914062500e+01 3.991004562377929688e+01 1.811462193727493286e-01 3.588189363479614258e+00 1.130800604820251465e+00 -1.919081330299377441e+00
2.012000000000000000e+03 1.118003749847412109e+01 -4.573651790618896484e+00 -2.090375721454620361e-01 -1.226151585578918457e-01 -9.949582070112228394e-02 -3.412784039974212646e-01
2.013000000000000000e+03 8.883853912353515625e+00 -4.547387599945068359e+00 -1.663508266210556030e-01 -8.099497854709625244e-02 -7.420374453067779541e-02 -2.582798302173614502e-01
2.014000000000000000e+03 7.300795555114746094e+00 3.769159793853759766e+00 3.463429957628250122e-02 -1.672140359878540039e-01 -3.977391868829727173e-02 2.122189849615097046e-01
2.015000000000000000e+03 7.185204982757568359e+00 3.129747629165649414e+00 -4.673698171973228455e-02 -1.392055600881576538e-01 -5.578276515007019043e-02 2.314315587282180786e-01
2.016000000000000000e+03 5.311248016357421875e+01 3.947637557983398438e+01 -1.447190195322036743e-01 4.104499340057373047e+00 1.187934041023254395e+00 -2.366187810897827148e+00
2.017000000000000000e+03 5.356732559204101562e+01 4.079291915893554688e+01 2.370472103357315063e-01 5.118906021118164062e+00 1.606786012649536133e+00 -1.872771859169006348e+00
2.018000000000000000e+03 9.647611618041992188e+00 -4.528181552886962891e+00 -1.907661259174346924e-01 -8.494205772876739502e-02 -8.271245658397674561e-02 -2.827287912368774414e-01
2.019000000000000000e+03 6.796961307525634766e+00 4.501576900482177734e+00 6.649705022573471069e-02 -1.565600484609603882e-01 -2.701890096068382263e-02 1.738087683916091919e-01
2.020000000000000000e+03 6.647322177886962891e+00 3.855604410171508789e+00 1.268100738525390625e-02 -1.386858522891998291e-01 -3.780145570635795593e-02 1.938453167676925659e-01
2.021000000000000000e+03 4.765356540679931641e+00 4.311070442199707031e+00 1.352307503111660480e-03 -1.114363297820091248e-01 -3.302520886063575745e-02 1.454145312309265137e-01
2.022000000000000000e+03 7.961201667785644531e+00 3.728660106658935547e+00 7.162442803382873535e-02 -1.907515823841094971e-01 -3.573814406991004944e-02 2.142620980739593506e-01
2.023000000000000000e+03 3.137964248657226562e+00 6.721456050872802734e+00 2.639588713645935059e-02 -1.444190591573715210e-01 -3.540695086121559143e-02 8.082499355077743530e-02
2.024000000000000000e+03 4.506749629974365234e+00 3.568275451660156250e+00 -3.215739876031875610e-02 -8.445219695568084717e-02 -3.498287871479988098e-02 1.398157179355621338e-01
2.025000000000000000e+03 2.224983215332031250e+00 5.287165641784667969e+00 5.200899206101894379e-03 -1.208524629473686218e-01 -3.469546884298324585e-02 7.704474031925201416e-02
2.026000000000000000e+03 3.190050363540649414e+00 4.041539669036865234e+00 -1.258911192417144775e-02 -8.820022642612457275e-02 -3.023680113255977631e-02 1.030062064528465271e-01
2.027000000000000000e+03 5.224473476409912109e+00 5.798388481140136719e+00 6.004385277628898621e-02 -1.375301480293273926e-01 -2.324588596820831299e-02 1.198734119534492493e-01
2.028000000000000000e+03 2.943420410156250000e+00 5.201103210449218750e+00 9.378897026181221008e-03 -1.205121725797653198e-01 -3.333998098969459534e-02 9.542907029390335083e-02
2.029000000000000000e+03 1.346546053886413574e+00 5.106842517852783203e+00 2.095149131491780281e-03 -1.196143031120300293e-01 -3.525574505329132080e-02 5.213800072669982910e-02
2.030000000000000000e+03 1.158211612701416016e+01 2.531780004501342773e+00 5.608455538749694824e-01 -2.206502109766006470e-01 1.020586043596267700e-01 8.730767667293548584e-02
2.031000000000000000e+03 1.063677215576171875e+01 3.019415616989135742e+00 3.527537882328033447e-01 -2.952955961227416992e-01 1.723746210336685181e-02 1.569970697164535522e-01
2.032000000000000000e+03 4.896992492675781250e+01 3.862197113037109375e+01 -2.395211011171340942e-01 8.936837315559387207e-02 -4.504581913352012634e-02 1.779156923294067383e-01
2.033000000000000000e+03 4.966036319732666016e+00 -4.816268444061279297e+00 -6.779364496469497681e-02 -8.345028758049011230e-02 -4.537317901849746704e-02 -1.447209119796752930e-01
2.034000000000000000e+03 5.765275001525878906e+00 -4.762997627258300781e+00 -8.045908063650131226e-02 -8.189567178487777710e-02 -4.870642349123954773e-02 -1.654139906167984009e-01
2.035000000000000000e+03 6.557476043701171875e+00 -4.701984882354736328e+00 -1.055670678615570068e-01 -7.746250927448272705e-02 -5.490887165069580078e-02 -1.871210187673568726e-01
2.036000000000000000e+03 8.019701957702636719e+00 -3.702908515930175781e+00 -1.787425130605697632e-01 -4.930993914604187012e-02 -6.841573864221572876e-02 -1.998145729303359985e-01
2.037000000000000000e+03 7.341214656829833984e+00 -4.640565872192382812e+00 -1.217556521296501160e-01 -7.743477076292037964e-02 -5.975712463259696960e-02 -2.091236263513565063e-01
2.038000000000000000e+03 3.278328418731689453e+00 -3.952680587768554688e+00 -3.626609966158866882e-02 -6.185306236147880554e-02 -2.943574823439121246e-02 -7.956442981958389282e-02
2.039000000000000000e+03 3.377459287643432617e+00 -5.828690528869628906e+00 -2.362683601677417755e-02 -1.156390458345413208e-01 -4.177976399660110474e-02 -1.149962991476058960e-01
2.040000000000000000e+03 2.608684301376342773e+00 -4.804228305816650391e+00 -1.831619627773761749e-02 -8.603674918413162231e-02 -3.130588307976722717e-02 -7.813294231891632080e-02
2.041000000000000000e+03 2.484182119369506836e+00 -5.700829982757568359e+00 -2.029864490032196045e-02 -1.101501807570457458e-01 -3.913464769721031189e-02 -8.750015497207641602e-02
2.042000000000000000e+03 1.596375083923339844e+01 -3.693283557891845703e+00 -1.279090642929077148e-01 -3.647358417510986328e-01 -1.477934718132019043e-01 -3.391597270965576172e-01
2.043000000000000000e+03 4.447808074951171875e+01 3.521533203125000000e+01 5.386638268828392029e-02 6.901726871728897095e-02 3.686509653925895691e-02 6.383315473794937134e-02
2.044000000000000000e+03 6.201838016510009766e+00 4.668209075927734375e+00 5.170877277851104736e-02 -1.393010169267654419e-01 -2.627767249941825867e-02 1.597951352596282959e-01
2.045000000000000000e+03 1.002466583251953125e+01 3.341411113739013672e+00 2.771256566047668457e-01 -2.656509280204772949e-01 3.442417597398161888e-03 1.657377630472183228e-01
2.046000000000000000e+03 8.608604431152343750e+00 4.345276832580566406e+00 1.879286170005798340e-01 -1.931329220533370972e-01 -1.561291399411857128e-03 1.399579644203186035e-01
2.047000000000000000e+03 5.053140640258789062e+01 3.962749481201171875e+01 -6.453157402575016022e-03 4.021598994731903076e-01 1.187120229005813599e-01 6.282179951667785645e-01
2.048000000000000000e+03 2.357222175598144531e+01 -1.382353186607360840e+00 -5.273497700691223145e-01 -1.421693712472915649e-01 -2.008557319641113281e-01 2.165546566247940063e-01
2.049000000000000000e+03 4.856372451782226562e+01 3.916061782836914062e+01 4.512290470302104950e-03 1.214294880628585815e-01 3.778253495693206787e-02 2.585954964160919189e-01
2.050000000000000000e+03 4.805723571777343750e+01 3.755791473388671875e+01 -1.540883183479309082e-01 7.529740780591964722e-02 -2.363727241754531860e-02 7.786790281534194946e-02
2.051000000000000000e+03 1.197130680084228516e+01 -4.634000301361083984e+00 -2.023719400167465210e-01 -1.609615534543991089e-01 -1.090000495314598083e-01 -3.768708407878875732e-01
2.052000000000000000e+03 1.279471492767333984e+01 -4.711957931518554688e+00 -1.635810434818267822e-01 -1.991722732782363892e-01 -1.088259965181350708e-01 -3.868978321552276611e-01
2.053000000000000000e+03 5.230293655395507812e+01 4.038397216796875000e+01 3.765730261802673340e-01 2.550342082977294922e+00 8.780745267868041992e-01 -1.053823947906494141e+00
2.054000000000000000e+03 4.542321395874023438e+01 3.724348449707031250e+01 4.501059651374816895e-02 9.910116344690322876e-02 4.323352500796318054e-02 8.744723349809646606e-02
2.055000000000000000e+03 4.750799179077148438e+01 3.786515808105468750e+01 -6.691073626279830933e-02 5.258385837078094482e-02 -4.298062995076179504e-03 1.059852465987205505e-01
2.056000000000000000e+03 1.624337577819824219e+01 -4.432587623596191406e+00 6.786797940731048584e-02 -1.890307366847991943e-01 -3.634882718324661255e-02 -1.904730647802352905e-01
2.057000000000000000e+03 1.518493652343750000e+01 -3.839609146118164062e+00 -1.777977049350738525e-01 -3.446558713912963867e-01 -1.567360758781433105e-01 -3.958060741424560547e-01
2.058000000000000000e+03 1.698820304870605469e+01 -4.059543609619140625e+00 1.074868589639663696e-01 -1.212204992771148682e-01 -4.120093770325183868e-03 -1.040785387158393860e-01
2.059000000000000000e+03 2.672295951843261719e+01 -2.639708518981933594e+00 -2.064753025770187378e-01 -2.054568976163864136e-01 -1.235796585679054260e-01 1.357947736978530884e-01
2.060000000000000000e+03 2.612708663940429688e+01 -1.799804687500000000e+00 -3.052361607551574707e-01 -1.852666735649108887e-01 -1.471508443355560303e-01 1.060780361294746399e-01
2.061000000000000000e+03 1.872275733947753906e+01 -1.628052902221679688e+01 1.057669147849082947e-01 2.878437340259552002e-01 1.180831938982009888e-01 -1.756752729415893555e-01
2.062000000000000000e+03 2.004590988159179688e+01 -1.797158813476562500e+01 1.004301160573959351e-01 3.209618031978607178e-01 1.264175772666931152e-01 -1.890293061733245850e-01
2.063000000000000000e+03 2.134190940856933594e+01 -1.986980056762695312e+01 1.080737337470054626e-01 3.465283513069152832e-01 1.363806277513504028e-01 -2.064946591854095459e-01
2.064000000000000000e+03 3.652435684204101562e+01 -1.298296737670898438e+01 -1.063798516988754272e-01 8.516655564308166504e-01 2.235857099294662476e-01 -8.636269718408584595e-02
2.065000000000000000e+03 3.481312942504882812e+01 -1.086066341400146484e+01 -9.746599197387695312e-02 5.213044881820678711e-01 1.271515488624572754e-01 -1.029278524219989777e-02
2.066000000000000000e+03 3.629572296142578125e+01 -1.497154808044433594e+01 -9.377119690179824829e-02 7.142970561981201172e-01 1.861577630043029785e-01 -9.530226886272430420e-02
2.067000000000000000e+03 3.734866714477539062e+01 -1.412783336639404297e+01 -1.067559570074081421e-01 1.022392034530639648e+00 2.746908366680145264e-01 -1.166958957910537720e-01
2.068000000000000000e+03 3.401848602294921875e+01 -9.813420295715332031e+00 -9.791429340839385986e-02 3.997032046318054199e-01 9.053666889667510986e-02 2.673328854143619537e-02
2.069000000000000000e+03 2.753612136840820312e+01 -1.991128325462341309e+00 -1.926500052213668823e-01 -1.652640253305435181e-01 -1.073742061853408813e-01 8.087168633937835693e-02
2.070000000000000000e+03 3.327080917358398438e+01 -8.759772300720214844e+00 -9.895658493041992188e-02 2.823098599910736084e-01 5.500598251819610596e-02 3.879715502262115479e-02
2.071000000000000000e+03 3.238975524902343750e+01 -9.424736976623535156e+00 -1.149163097143173218e-01 9.712209552526473999e-02 -5.338264163583517075e-03 9.544878453016281128e-02
2.072000000000000000e+03 4.100496292114257812e+01 -2.016771888732910156e+01 -9.947164356708526611e-02 1.972818136215209961e+00 5.620039701461791992e-01 -3.670249581336975098e-01
2.073000000000000000e+03 2.184564781188964844e+01 -2.106514930725097656e+01 9.009855985641479492e-02 3.453510999679565430e-01 1.306348890066146851e-01 -2.086028158664703369e-01
2.074000000000000000e+03 4.557464599609375000e+01 -2.809254837036132812e+01 -1.528743375092744827e-02 4.204988002777099609e+00 1.256910204887390137e+00 -4.502794146537780762e-01
2.075000000000000000e+03 4.435834503173828125e+01 -2.608928298950195312e+01 -5.928129702806472778e-02 3.473095417022705078e+00 1.024144172668457031e+00 -5.587542653083801270e-01
2.076000000000000000e+03 4.241006469726562500e+01 -2.255028343200683594e+01 -9.374752640724182129e-02 2.467737674713134766e+00 7.121970057487487793e-01 -4.633475244045257568e-01
2.077000000000000000e+03 2.104983520507812500e+01 -2.296169471740722656e+01 7.872433215379714966e-02 2.914894223213195801e-01 1.110641285777091980e-01 -1.863503158092498779e-01
2.078000000000000000e+03 2.430445861816406250e+01 -2.291905212402343750e+01 1.261699050664901733e-01 4.063203632831573486e-01 1.597470790147781372e-01 -2.259337007999420166e-01
2.079000000000000000e+03 4.317977142333984375e+01 -2.377809333801269531e+01 -9.010232239961624146e-02 2.817240715026855469e+00 8.181415200233459473e-01 -5.123672485351562500e-01
2.080000000000000000e+03 4.197230148315429688e+01 -2.452916908264160156e+01 1.156723313033580780e-02 2.324681520462036133e+00 7.008745670318603516e-01 -6.015120148658752441e-01
2.081000000000000000e+03 3.884940338134765625e+01 -1.657567214965820312e+01 -1.004976332187652588e-01 1.378090739250183105e+00 3.832779228687286377e-01 -2.033805996179580688e-01
2.082000000000000000e+03 2.084330940246582031e+01 -1.877459716796875000e+01 9.959333389997482300e-02 3.449485301971435547e-01 1.333625614643096924e-01 -2.073476314544677734e-01
2.083000000000000000e+03 2.554220199584960938e+01 -2.541133880615234375e+01 1.395645290613174438e-01 4.243895113468170166e-01 1.691862046718597412e-01 -2.237240672111511230e-01
2.084000000000000000e+03 2.751705169677734375e+01 -2.753380775451660156e+00 -1.616859734058380127e-01 -1.803728193044662476e-01 -1.026176363229751587e-01 1.326324641704559326e-01
2.085000000000000000e+03 7.566559600830078125e+01 1.478691864013671875e+01 -1.163205355405807495e-01 8.040153503417968750e+00 2.377149820327758789e+00 -6.215856671333312988e-01
2.086000000000000000e+03 7.700729370117187500e+01 9.450654983520507812e+00 -4.673537239432334900e-02 8.635829925537109375e+00 2.576728343963623047e+00 -2.917215526103973389e-01
2.087000000000000000e+03 7.579152679443359375e+01 8.000842094421386719e+00 -8.100630342960357666e-02 8.564727783203125000e+00 2.545116424560546875e+00 -3.215866684913635254e-01
2.088000000000000000e+03 7.579550170898437500e+01 1.204162788391113281e+01 -1.028654500842094421e-01 8.294648170471191406e+00 2.457534790039062500e+00 -4.824771583080291748e-01
2.089000000000000000e+03 7.572297668457031250e+01 6.648242473602294922e+00 -8.102647215127944946e-02 8.621809959411621094e+00 2.562235116958618164e+00 -2.780291438102722168e-01
2.090000000000000000e+03 7.668520355224609375e+01 2.506070852279663086e+00 -4.197278246283531189e-02 8.938337326049804688e+00 2.668909549713134766e+00 -1.287768781185150146e-01
2.091000000000000000e+03 7.522886657714843750e+01 9.791436195373535156e-01 -6.840410083532333374e-02 8.715937614440917969e+00 2.594259977340698242e+00 -1.248330697417259216e-01
2.092000000000000000e+03 7.582776641845703125e+01 1.069059181213378906e+01 -9.267371147871017456e-02 8.400688171386718750e+00 2.492404460906982422e+00 -4.231000840663909912e-01
2.093000000000000000e+03 7.376422119140625000e+01 -6.820738315582275391e-01 -1.025739908218383789e-01 8.474465370178222656e+00 2.511567592620849609e+00 -9.798101335763931274e-02
2.094000000000000000e+03 7.573667907714843750e+01 1.340649318695068359e+01 -1.086869910359382629e-01 8.174302101135253906e+00 2.419684410095214844e+00 -5.495467782020568848e-01
2.095000000000000000e+03 7.685958862304687500e+01 1.772593879699707031e+01 -6.128001585602760315e-02 7.699352264404296875e+00 2.291421651840209961e+00 -6.012352108955383301e-01
2.096000000000000000e+03 7.426009368896484375e+01 -7.666667938232421875e+00 -5.333572998642921448e-02 8.562903404235839844e+00 2.552870273590087891e+00 5.716271325945854187e-02
2.097000000000000000e+03 7.677159881591796875e+01 3.920933008193969727e+00 -4.009132832288742065e-02 8.905043601989746094e+00 2.659485816955566406e+00 -1.587191224098205566e-01
2.098000000000000000e+03 7.538832092285156250e+01 -3.385977983474731445e+00 -4.619636386632919312e-02 8.779430389404296875e+00 2.619970083236694336e+00 -2.552905678749084473e-02
2.099000000000000000e+03 7.674903106689453125e+01 -4.584502220153808594e+00 -2.119621820747852325e-02 9.038046836853027344e+00 2.705055236816406250e+00 -5.565866827964782715e-03
2.100000000000000000e+03 7.545732879638671875e+01 -4.780848026275634766e+00 -4.659928381443023682e-02 8.794321060180664062e+00 2.624316692352294922e+00 -1.396123552694916725e-03
2.101000000000000000e+03 7.393997955322265625e+01 3.603434753417968750e+01 3.931711614131927490e-01 5.916187763214111328e+00 1.892807722091674805e+00 -5.613371133804321289e-01
2.102000000000000000e+03 7.494152832031250000e+01 3.264669799804687500e+01 2.141343802213668823e-01 5.807885169982910156e+00 1.806605815887451172e+00 -8.292995691299438477e-01
2.103000000000000000e+03 7.446941375732421875e+01 -1.549849319458007812e+01 -2.791815437376499176e-02 8.471885681152343750e+00 2.533190250396728516e+00 1.641343533992767334e-01
2.104000000000000000e+03 7.559192657470703125e+01 1.897024154663085938e+01 -1.089109778404235840e-01 7.568559169769287109e+00 2.237894535064697266e+00 -8.280026912689208984e-01
2.105000000000000000e+03 7.427326202392578125e+01 1.740658187866210938e+01 -1.844195425510406494e-01 7.794121742248535156e+00 2.282910585403442383e+00 -8.865020275115966797e-01
2.106000000000000000e+03 7.565361022949218750e+01 2.179720115661621094e+01 -7.225053012371063232e-02 7.167434692382812500e+00 2.128555297851562500e+00 -9.356452822685241699e-01
2.107000000000000000e+03 7.562283325195312500e+01 2.038459205627441406e+01 -9.645202755928039551e-02 7.378902435302734375e+00 2.184735059738159180e+00 -8.859658837318420410e-01
2.108000000000000000e+03 7.562692260742187500e+01 -1.015470218658447266e+01 -3.519269451498985291e-02 8.778584480285644531e+00 2.623017549514770508e+00 7.757484912872314453e-02
2.109000000000000000e+03 7.566233062744140625e+01 -1.148789596557617188e+01 -2.601120434701442719e-02 8.761415481567382812e+00 2.620621204376220703e+00 9.502770006656646729e-02
2.110000000000000000e+03 7.558763885498046875e+01 -8.821383476257324219e+00 -3.065852262079715729e-02 8.789690971374511719e+00 2.627709865570068359e+00 6.135796755552291870e-02
2.111000000000000000e+03 7.562863922119140625e+01 -1.683714294433593750e+01 -1.563002914190292358e-02 8.627518653869628906e+00 2.583566427230834961e+00 1.475249677896499634e-01
2.112000000000000000e+03 7.682295227050781250e+01 -1.820516014099121094e+01 -6.704985164105892181e-03 8.782365798950195312e+00 2.632698297500610352e+00 1.206714510917663574e-01
2.113000000000000000e+03 7.556114959716796875e+01 -1.821150970458984375e+01 -2.352293953299522400e-02 8.578349113464355469e+00 2.566447734832763672e+00 1.569570302963256836e-01
2.114000000000000000e+03 7.405610656738281250e+01 -2.237104415893554688e+01 -1.487432699650526047e-02 8.243364334106445312e+00 2.468546867370605469e+00 2.215654850006103516e-01
2.115000000000000000e+03 7.397136688232421875e+01 -2.522243690490722656e+01 2.332429168745875359e-03 8.136952400207519531e+00 2.441785335540771484e+00 2.223597317934036255e-01
2.116000000000000000e+03 7.669329833984375000e+01 -2.516537475585937500e+01 -3.767685964703559875e-03 8.513467788696289062e+00 2.552910089492797852e+00 1.391457766294479370e-01
2.117000000000000000e+03 7.539534759521484375e+01 -2.236445617675781250e+01 -1.031376305036246777e-03 8.427075386047363281e+00 2.527813196182250977e+00 1.843843311071395874e-01
2.118000000000000000e+03 7.439667510986328125e+01 2.846219444274902344e+01 1.024575680494308472e-01 6.494836330413818359e+00 1.979188203811645508e+00 -1.158584237098693848e+00
2.119000000000000000e+03 7.452855682373046875e+01 2.582467842102050781e+01 -5.050415638834238052e-03 6.794396877288818359e+00 2.036803960800170898e+00 -1.162203788757324219e+00
2.120000000000000000e+03 7.690197753906250000e+01 2.743132400512695312e+01 2.534038573503494263e-02 5.935827732086181641e+00 1.788350462913513184e+00 -7.693351507186889648e-01
2.121000000000000000e+03 7.569921875000000000e+01 2.727201843261718750e+01 3.710344061255455017e-02 6.302136898040771484e+00 1.901772022247314453e+00 -9.959703683853149414e-01
2.122000000000000000e+03 7.402986907958984375e+01 -3.402666473388671875e+01 4.580486193299293518e-02 7.937166213989257812e+00 2.394891500473022461e+00 1.602710336446762085e-01
2.123000000000000000e+03 7.407051849365234375e+01 -2.947517395019531250e+01 2.608010172843933105e-02 8.050247192382812500e+00 2.422898292541503906e+00 1.939366459846496582e-01
2.124000000000000000e+03 7.674442291259765625e+01 3.015476799011230469e+01 7.303045690059661865e-02 5.495092868804931641e+00 1.670436978340148926e+00 -7.378067970275878906e-01
2.125000000000000000e+03 7.552722930908203125e+01 2.992104530334472656e+01 1.036045029759407043e-01 5.949406623840332031e+00 1.815903425216674805e+00 -9.410161375999450684e-01
2.126000000000000000e+03 7.562707519531250000e+01 2.861080360412597656e+01 7.236805558204650879e-02 6.101811408996582031e+00 1.852253913879394531e+00 -9.653728008270263672e-01
2.127000000000000000e+03 7.540114593505859375e+01 -2.928750228881835938e+01 1.384668797254562378e-02 8.219733238220214844e+00 2.470074176788330078e+00 1.686975210905075073e-01
2.128000000000000000e+03 7.607292175292968750e+01 -3.314091491699218750e+01 1.838045939803123474e-02 8.187687873840332031e+00 2.461820363998413086e+00 1.200928911566734314e-01
2.129000000000000000e+03 7.507239532470703125e+01 -3.157535171508789062e+01 2.387312240898609161e-02 8.116119384765625000e+00 2.441997528076171875e+00 1.627040654420852661e-01
2.130000000000000000e+03 7.446430969238281250e+01 3.420957183837890625e+01 3.020421862602233887e-01 5.874328136444091797e+00 1.852911114692687988e+00 -7.225761413574218750e-01
2.131000000000000000e+03 2.491443443298339844e+01 -2.417755699157714844e+01 1.009456589818000793e-01 4.128081202507019043e-01 1.541261374950408936e-01 -2.275805175304412842e-01
2.132000000000000000e+03 3.849345397949218750e+01 -1.856668663024902344e+01 -4.628432169556617737e-02 1.204251170158386230e+00 3.473900854587554932e-01 -2.395158410072326660e-01
2.133000000000000000e+03 2.618963241577148438e+01 -2.659828376770019531e+01 9.939764440059661865e-02 4.356252253055572510e-01 1.605068594217300415e-01 -2.336085289716720581e-01
2.134000000000000000e+03 4.210581302642822266e+00 -1.575990581512451172e+01 2.930512465536594391e-02 -3.554389476776123047e-01 -9.784014523029327393e-02 -1.017369255423545837e-01
2.135000000000000000e+03 4.280007839202880859e+00 2.269063949584960938e+01 -4.267361946403980255e-03 -1.195037737488746643e-01 -3.713133931159973145e-02 -1.872018352150917053e-02
2.136000000000000000e+03 4.215419769287109375e+00 2.124353218078613281e+01 -9.909512009471654892e-04 -1.230913028120994568e-01 -3.722467646002769470e-02 -2.111803553998470306e-02
2.137000000000000000e+03 4.327448844909667969e+00 -1.713250350952148438e+01 1.808592118322849274e-02 -3.726885616779327393e-01 -1.063807904720306396e-01 -8.849824965000152588e-02
2.138000000000000000e+03 4.591799259185791016e+00 -2.134584617614746094e+01 2.186995372176170349e-02 -4.155516624450683594e-01 -1.181045174598693848e-01 -6.217950955033302307e-02
2.139000000000000000e+03 4.073520660400390625e+00 1.839050865173339844e+01 1.460503088310360909e-03 -1.314341276884078979e-01 -3.899208828806877136e-02 -2.178712934255599976e-02
2.140000000000000000e+03 4.150764465332031250e+00 1.980842018127441406e+01 -2.578530227765440941e-03 -1.275854259729385376e-01 -3.904918581247329712e-02 -2.064569666981697083e-02
2.141000000000000000e+03 2.763867378234863281e+00 1.584555721282958984e+01 2.332087839022278786e-03 -1.789900958538055420e-01 -5.299740284681320190e-02 -1.474087499082088470e-02
2.142000000000000000e+03 2.687142133712768555e+00 1.446932315826416016e+01 6.943957414478063583e-03 -1.848233193159103394e-01 -5.336380749940872192e-02 -1.133834850043058395e-02
2.143000000000000000e+03 4.850153923034667969e+00 1.400178432464599609e+01 1.828411966562271118e-02 -1.122761145234107971e-01 -2.819759771227836609e-02 -1.347240991890430450e-02
2.144000000000000000e+03 4.529350280761718750e+00 -2.804297447204589844e+01 4.235309548676013947e-03 -4.794701635837554932e-01 -1.425704658031463623e-01 -3.006828390061855316e-02
2.145000000000000000e+03 3.263769388198852539e+00 -2.292583656311035156e+01 1.225623581558465958e-02 -4.971471130847930908e-01 -1.454672664403915405e-01 -3.834392502903938293e-02
2.146000000000000000e+03 4.623523712158203125e+00 -2.274135398864746094e+01 9.465068578720092773e-03 -4.302657842636108398e-01 -1.262402087450027466e-01 -5.147670954465866089e-02
2.147000000000000000e+03 4.271244525909423828e+00 2.550902748107910156e+01 -5.222536623477935791e-03 -1.160938218235969543e-01 -3.639490529894828796e-02 -1.592589542269706726e-02
2.148000000000000000e+03 3.103837966918945312e+00 2.835865592956542969e+01 1.952548773260787129e-04 -1.310983598232269287e-01 -3.927092999219894409e-02 -1.098238304257392883e-02
2.149000000000000000e+03 4.542174339294433594e+00 2.930622291564941406e+01 -1.270697219297289848e-03 -1.068778410553932190e-01 -3.244456276297569275e-02 -1.179148722440004349e-02
2.150000000000000000e+03 5.592888832092285156e+00 -1.690469551086425781e+01 4.226990044116973877e-02 -3.238592445850372314e-01 -8.447679877281188965e-02 -1.098710671067237854e-01
2.151000000000000000e+03 4.433322429656982422e+00 -1.852645874023437500e+01 2.728821709752082825e-02 -3.888235092163085938e-01 -1.084605902433395386e-01 -8.042524755001068115e-02
2.152000000000000000e+03 6.031157970428466797e+00 -2.398248481750488281e+01 1.462937891483306885e-02 -3.745150268077850342e-01 -1.079657003283500671e-01 -5.710249766707420349e-02
2.153000000000000000e+03 3.261717557907104492e+00 -2.430169486999511719e+01 1.886224723421037197e-03 -5.129544138908386230e-01 -1.533204466104507446e-01 -3.166201710700988770e-02
2.154000000000000000e+03 4.579281330108642578e+00 -2.548052787780761719e+01 5.740471184253692627e-03 -4.585890769958496094e-01 -1.358545869588851929e-01 -3.885373100638389587e-02
2.155000000000000000e+03 3.642439126968383789e+00 -1.048075294494628906e+01 1.524274330586194992e-02 -2.524887919425964355e-01 -7.117381691932678223e-02 -1.355060487985610962e-01
2.156000000000000000e+03 3.518826723098754883e+00 -9.231513977050781250e+00 -6.923790788277983665e-04 -2.172789722681045532e-01 -6.539140641689300537e-02 -1.365582048892974854e-01
2.157000000000000000e+03 5.499234199523925781e+00 2.247227668762207031e+01 -2.621114021167159081e-03 -9.182769060134887695e-02 -2.833464182913303375e-02 -2.102588489651679993e-02
2.158000000000000000e+03 4.190755367279052734e+00 2.680965232849121094e+01 -6.551638944074511528e-04 -1.151537522673606873e-01 -3.474267572164535522e-02 -1.506787072867155075e-02
2.159000000000000000e+03 4.319715976715087891e+00 2.412676811218261719e+01 -2.121721627190709114e-03 -1.174967810511589050e-01 -3.588555008172988892e-02 -1.818311586976051331e-02
2.160000000000000000e+03 4.592259407043457031e+00 1.136425685882568359e+01 3.602347522974014282e-02 -1.271489858627319336e-01 -2.733765356242656708e-02 7.659831084311008453e-03
2.161000000000000000e+03 3.491819858551025391e+00 -2.965317153930664062e+01 9.417061846761498600e-06 -5.417050123214721680e-01 -1.625086814165115356e-01 -1.878582499921321869e-02
2.162000000000000000e+03 4.723764419555664062e+00 -2.925259017944335938e+01 1.408536173403263092e-02 -4.779869914054870605e-01 -1.391704827547073364e-01 -2.836767025291919708e-02
2.163000000000000000e+03 4.212617874145507812e+00 3.537419891357421875e+01 -2.027935581281781197e-03 -1.073478236794471741e-01 -3.281272575259208679e-02 -5.349753890186548233e-03
2.164000000000000000e+03 3.544027805328369141e+00 1.158704471588134766e+01 2.182302437722682953e-02 -1.592404842376708984e-01 -4.122523590922355652e-02 8.345075882971286774e-03
2.165000000000000000e+03 3.783235073089599609e+00 -1.176831245422363281e+01 1.314042694866657257e-02 -2.833715379238128662e-01 -8.106933534145355225e-02 -1.293386518955230713e-01
2.166000000000000000e+03 3.932563066482543945e+00 -1.308256244659423828e+01 2.630597725510597229e-02 -3.118044734001159668e-01 -8.564954996109008789e-02 -1.221864148974418640e-01
2.167000000000000000e+03 4.234524726867675781e+00 -5.845687866210937500e+00 -4.067403450608253479e-02 -1.144766211509704590e-01 -4.654519632458686829e-02 -1.414271146059036255e-01
2.168000000000000000e+03 8.324834823608398438e+00 -3.209247589111328125e+01 2.165338769555091858e-02 -3.057575523853302002e-01 -8.523124456405639648e-02 -4.795806482434272766e-02
2.169000000000000000e+03 6.286122798919677734e+00 -2.975411987304687500e+01 1.699148863554000854e-02 -4.092217087745666504e-01 -1.176690682768821716e-01 -4.395359754562377930e-02
2.170000000000000000e+03 6.887731552124023438e+00 -3.167167472839355469e+01 1.715728268027305603e-02 -3.899808526039123535e-01 -1.118470728397369385e-01 -3.612030297517776489e-02
2.171000000000000000e+03 3.800220251083374023e+00 -3.097938919067382812e+01 9.472243487834930420e-03 -5.353601574897766113e-01 -1.577663719654083252e-01 -1.667080819606781006e-02
2.172000000000000000e+03 5.347921371459960938e+00 3.198553085327148438e+01 -1.584307639859616756e-03 -9.270444512367248535e-02 -2.828662656247615814e-02 -9.361027739942073822e-03
2.173000000000000000e+03 4.926597118377685547e+00 3.059511947631835938e+01 -5.762420594692230225e-03 -9.941527992486953735e-02 -3.155330941081047058e-02 -1.048144698143005371e-02
2.174000000000000000e+03 2.247914314270019531e+00 7.864450454711914062e+00 1.769729331135749817e-02 -1.739013791084289551e-01 -4.686122760176658630e-02 4.988198727369308472e-02
2.175000000000000000e+03 3.259040117263793945e+00 9.065734863281250000e+00 3.124846145510673523e-02 -1.635832041501998901e-01 -3.970042243599891663e-02 4.097163304686546326e-02
2.176000000000000000e+03 2.239614725112915039e+00 6.563420295715332031e+00 1.466672308743000031e-02 -1.496842652559280396e-01 -4.050526395440101624e-02 6.580787897109985352e-02
2.177000000000000000e+03 3.855310201644897461e+00 5.444302082061767578e+00 2.254294045269489288e-02 -1.232383549213409424e-01 -3.020862303674221039e-02 1.106674000620841980e-01
2.178000000000000000e+03 2.424051761627197266e+00 -6.806559562683105469e+00 -6.755358073860406876e-03 -1.435136497020721436e-01 -4.508070275187492371e-02 -9.490349143743515015e-02
2.179000000000000000e+03 2.607862854003906250e+01 -2.948442649841308594e+01 1.778642535209655762e-01 3.850534558296203613e-01 1.688753068447113037e-01 -2.110467553138732910e-01
2.180000000000000000e+03 1.759973335266113281e+01 -1.368336677551269531e+01 1.302962303161621094e-01 2.582493722438812256e-01 1.165636777877807617e-01 -1.565237194299697876e-01
2.181000000000000000e+03 1.829232597351074219e+01 -1.150449085235595703e+01 1.430217325687408447e-01 3.564679324626922607e-01 1.498469114303588867e-01 -1.583800464868545532e-01
2.182000000000000000e+03 3.256050109863281250e+01 -7.684362888336181641e+00 -9.722372889518737793e-02 1.992133557796478271e-01 3.059688769280910492e-02 5.522787198424339294e-02
2.183000000000000000e+03 2.576858329772949219e+01 -9.243983030319213867e-01 -3.795073926448822021e-01 -1.569308042526245117e-01 -1.609314531087875366e-01 6.196501478552818298e-02
2.184000000000000000e+03 4.649525451660156250e+01 -2.896990966796875000e+01 2.928713895380496979e-02 4.658033370971679688e+00 1.406196117401123047e+00 -3.874304890632629395e-01
2.185000000000000000e+03 4.623881912231445312e+01 -3.118446922302246094e+01 3.002701401710510254e-01 5.184695720672607422e+00 1.645489811897277832e+00 -4.795104861259460449e-01
2.186000000000000000e+03 1.682367134094238281e+01 -1.015645885467529297e+01 1.623197048902511597e-01 2.316156029701232910e-01 1.181805953383445740e-01 -1.200793012976646423e-01
2.187000000000000000e+03 1.738453483581542969e+01 -7.400031089782714844e+00 1.552581042051315308e-01 3.123482167720794678e-01 1.402819007635116577e-01 -7.002305239439010620e-02
2.188000000000000000e+03 7.280201721191406250e+01 4.096152877807617188e+01 3.915028870105743408e-01 6.562680721282958984e+00 2.086255073547363281e+00 -1.399400532245635986e-01
2.189000000000000000e+03 1.662062835693359375e+01 -8.869211196899414062e+00 1.734067052602767944e-01 1.921578049659729004e-01 1.096693500876426697e-01 -1.093031242489814758e-01
2.190000000000000000e+03 3.090797805786132812e+01 -7.240759849548339844e+00 -1.252213269472122192e-01 -6.490703672170639038e-02 -5.703851208090782166e-02 1.102440655231475830e-01
2.191000000000000000e+03 3.187309455871582031e+01 -6.577273845672607422e+00 -8.814750611782073975e-02 1.115543395280838013e-01 7.022049278020858765e-03 5.509118735790252686e-02
2.192000000000000000e+03 3.565721511840820312e+01 -1.191275405883789062e+01 -9.681015461683273315e-02 6.883043646812438965e-01 1.774482578039169312e-01 -3.899116069078445435e-02
2.193000000000000000e+03 3.212259292602539062e+01 -4.105319976806640625e+01 3.713955581188201904e-01 3.005569875240325928e-01 2.015857696533203125e-01 -2.826325409114360809e-02
2.194000000000000000e+03 3.086441040039062500e+01 -3.622922897338867188e+01 1.936095654964447021e-01 3.708895444869995117e-01 1.693497300148010254e-01 -1.752297580242156982e-01
2.195000000000000000e+03 3.133658218383789062e+01 -3.840986633300781250e+01 3.420757353305816650e-01 3.169143199920654297e-01 1.976970136165618896e-01 -1.791983544826507568e-01
2.196000000000000000e+03 4.844734191894531250e+01 -3.557338714599609375e+01 1.059373021125793457e+00 5.430724143981933594e+00 1.947029113769531250e+00 -6.008101254701614380e-02
2.197000000000000000e+03 4.709919357299804688e+01 -4.154244995117187500e+01 1.588625162839889526e-01 5.543098926544189453e+00 1.710588455200195312e+00 -6.833560019731521606e-02
2.198000000000000000e+03 4.958126449584960938e+01 -3.966389083862304688e+01 5.220453739166259766e-01 5.683815002441406250e+00 1.861758112907409668e+00 -2.042746096849441528e-01
2.199000000000000000e+03 2.491686630249023438e+01 -2.740484619140625000e+01 1.515661329030990601e-01 3.716799616813659668e-01 1.569738239049911499e-01 -2.064388394355773926e-01
2.200000000000000000e+03 1.953026962280273438e+01 -1.437670230865478516e+01 1.254975944757461548e-01 3.642804324626922607e-01 1.469334065914154053e-01 -1.975429356098175049e-01
2.201000000000000000e+03 5.146787261962890625e+01 -3.363502502441406250e+01 6.729302406311035156e-01 5.431284904479980469e+00 1.831264615058898926e+00 1.849857866764068604e-01
2.202000000000000000e+03 4.736492538452148438e+01 -2.766769409179687500e+01 -9.088747948408126831e-02 4.611891746520996094e+00 1.356301307678222656e+00 -1.301681995391845703e-01
2.203000000000000000e+03 5.295923995971679688e+01 3.313012695312500000e+01 2.752797842025756836e+00 2.435770034790039062e+00 1.556570291519165039e+00 3.041781425476074219e+00
2.204000000000000000e+03 2.847092247009277344e+01 4.041098594665527344e+00 -2.787350416183471680e-01 -1.880314946174621582e-01 -1.400299668312072754e-01 -2.174687832593917847e-01
2.205000000000000000e+03 2.832991790771484375e+01 3.871001720428466797e+00 -2.786825299263000488e-01 -1.933804899454116821e-01 -1.416189074516296387e-01 -2.110792100429534912e-01
2.206000000000000000e+03 2.725101280212402344e+01 4.039584159851074219e+00 -3.459507822990417480e-01 -2.650907635688781738e-01 -1.833124607801437378e-01 -2.810308337211608887e-01
2.207000000000000000e+03 2.671119308471679688e+01 3.332466125488281250e+00 -3.493355214595794678e-01 -2.451166361570358276e-01 -1.783356517553329468e-01 -2.642101049423217773e-01
2.208000000000000000e+03 2.518146514892578125e+01 3.140292406082153320e+00 -4.176819324493408203e-01 -2.252632230520248413e-01 -1.928835511207580566e-01 -2.884072959423065186e-01
2.209000000000000000e+03 2.443827056884765625e+01 2.031693696975708008e+00 -4.776512086391448975e-01 -2.000658661127090454e-01 -2.033151239156723022e-01 -2.767046988010406494e-01
2.210000000000000000e+03 2.567996788024902344e+01 2.644797801971435547e+00 -3.811109066009521484e-01 -2.219052463769912720e-01 -1.809048354625701904e-01 -2.603613138198852539e-01
2.211000000000000000e+03 2.582071495056152344e+01 2.888350009918212891e+00 -3.834103345870971680e-01 -2.300263196229934692e-01 -1.840309947729110718e-01 -2.646782696247100830e-01
2.212000000000000000e+03 2.775609207153320312e+01 4.013209819793701172e+00 -3.062290251255035400e-01 -2.455324828624725342e-01 -1.655284613370895386e-01 -2.523450255393981934e-01
2.213000000000000000e+03 2.724814414978027344e+01 3.673946857452392578e+00 -3.298963308334350586e-01 -2.470374554395675659e-01 -1.730801463127136230e-01 -2.606886327266693115e-01
2.214000000000000000e+03 2.805342864990234375e+01 4.402962207794189453e+00 -3.311176300048828125e-01 -2.465200275182723999e-01 -1.732912957668304443e-01 -2.575674057006835938e-01
2.215000000000000000e+03 5.498075866699218750e+01 3.321749496459960938e+01 3.151840925216674805e+00 1.177618217468261719e+01 4.478406906127929688e+00 6.630171298980712891e+00
2.216000000000000000e+03 5.751129150390625000e+01 3.390906524658203125e+01 6.067901134490966797e+00 1.635062599182128906e+01 6.725557804107666016e+00 -1.256536483764648438e+00
2.217000000000000000e+03 5.491328430175781250e+01 3.288353347778320312e+01 2.631560802459716797e+00 1.126052761077880859e+01 4.167626380920410156e+00 6.094645500183105469e+00
2.218000000000000000e+03 5.726827621459960938e+01 3.460802078247070312e+01 9.485186576843261719e+00 1.713042831420898438e+01 7.984683990478515625e+00 -6.605604290962219238e-01
2.219000000000000000e+03 5.571722793579101562e+01 3.265989685058593750e+01 1.381939530372619629e+00 1.513745021820068359e+01 4.955816745758056641e+00 4.230842113494873047e+00
2.220000000000000000e+03 5.697720336914062500e+01 3.349124908447265625e+01 3.974650621414184570e+00 1.816970062255859375e+01 6.643305301666259766e+00 -6.034802198410034180e-01
2.221000000000000000e+03 5.742495346069335938e+01 3.457947540283203125e+01 8.906365394592285156e+00 1.635085868835449219e+01 7.577167034149169922e+00 -4.394287467002868652e-01
2.222000000000000000e+03 5.801226043701171875e+01 3.499387359619140625e+01 7.863941192626953125e+00 1.452658462524414062e+01 6.717157840728759766e+00 7.729542851448059082e-01
2.223000000000000000e+03 5.749343872070312500e+01 3.429914855957031250e+01 7.701774120330810547e+00 1.643857192993164062e+01 7.242103576660156250e+00 -1.002337455749511719e+00
2.224000000000000000e+03 5.787802886962890625e+01 3.528223800659179688e+01 8.110807418823242188e+00 1.492059516906738281e+01 6.909420967102050781e+00 1.534479618072509766e+00
2.225000000000000000e+03 5.814310836791992188e+01 3.589320755004882812e+01 6.198618888854980469e+00 1.471593666076660156e+01 6.274366378784179688e+00 2.365661859512329102e+00
2.226000000000000000e+03 5.793262863159179688e+01 3.637896347045898438e+01 4.550158977508544922e+00 1.604247665405273438e+01 6.177790641784667969e+00 3.000661611557006836e+00
2.227000000000000000e+03 2.337431526184082031e+01 -7.298529148101806641e-03 -7.338044047355651855e-01 -1.131238043308258057e-01 -2.540784776210784912e-01 -9.025964885950088501e-02
2.228000000000000000e+03 2.947331237792968750e+01 4.692268848419189453e+00 -2.717472016811370850e-01 -8.568476885557174683e-02 -1.072295904159545898e-01 -2.360004931688308716e-01
2.229000000000000000e+03 2.866528701782226562e+01 2.064905738830566406e+01 8.930721879005432129e-02 1.126500591635704041e-01 6.058718264102935791e-02 1.023091375827789307e-01
2.230000000000000000e+03 1.933216476440429688e+01 1.153004837036132812e+01 1.342670023441314697e-01 1.941038817167282104e-01 9.851126372814178467e-02 1.632280647754669189e-01
2.231000000000000000e+03 1.898087692260742188e+01 1.140540409088134766e+01 1.291738152503967285e-01 2.015257626771926880e-01 9.920987486839294434e-02 1.628969311714172363e-01
2.232000000000000000e+03 1.624283790588378906e+01 7.859412670135498047e+00 1.591621488332748413e-01 3.028222024440765381e-01 1.385953128337860107e-01 2.174136042594909668e-01
2.233000000000000000e+03 4.155932617187500000e+01 2.101487350463867188e+01 4.733248800039291382e-02 4.760965704917907715e-01 1.570287197828292847e-01 2.538546323776245117e-01
2.234000000000000000e+03 2.886828804016113281e+01 2.098753166198730469e+01 8.755403757095336914e-02 1.118216887116432190e-01 5.981271713972091675e-02 9.987600892782211304e-02
2.235000000000000000e+03 3.484222793579101562e+01 2.722863578796386719e+01 6.384999305009841919e-02 9.768003225326538086e-02 4.845900833606719971e-02 8.134254068136215210e-02
2.236000000000000000e+03 3.234416198730468750e+01 1.113054752349853516e+01 -6.251733899116516113e-01 -3.326849341392517090e-01 -2.873574793338775635e-01 -4.316560924053192139e-01
2.237000000000000000e+03 3.880305480957031250e+01 1.841579055786132812e+01 -1.538670510053634644e-01 1.108176037669181824e-01 -1.291483361274003983e-02 -4.510812833905220032e-02
2.238000000000000000e+03 3.958793258666992188e+01 1.873724937438964844e+01 -1.094681024551391602e-01 2.745055854320526123e-01 4.951124265789985657e-02 4.910622537136077881e-02
2.239000000000000000e+03 2.406625175476074219e+01 1.588116073608398438e+01 1.141120195388793945e-01 1.446619331836700439e-01 7.763218879699707031e-02 1.329438239336013794e-01
2.240000000000000000e+03 3.281872558593750000e+01 2.506813430786132812e+01 7.277960330247879028e-02 9.750691801309585571e-02 5.108595639467239380e-02 8.520256727933883667e-02
2.241000000000000000e+03 1.697586441040039062e+01 8.592355728149414062e+00 1.648718416690826416e-01 2.617445886135101318e-01 1.279849261045455933e-01 2.020212411880493164e-01
2.242000000000000000e+03 3.322930526733398438e+01 2.436842727661132812e+01 7.010295242071151733e-02 1.001339852809906006e-01 5.107108131051063538e-02 8.545944094657897949e-02
2.243000000000000000e+03 4.703556060791015625e+01 2.552855873107910156e+01 6.872015595436096191e-01 1.816828727722167969e+00 7.512090802192687988e-01 1.239464998245239258e+00
2.244000000000000000e+03 4.214551162719726562e+01 2.161458206176757812e+01 1.015757843852043152e-01 5.635152459144592285e-01 1.995273083448410034e-01 3.285976648330688477e-01
2.245000000000000000e+03 4.708931732177734375e+01 2.606141471862792969e+01 7.712735533714294434e-01 1.705269336700439453e+00 7.429628372192382812e-01 1.244258761405944824e+00
2.246000000000000000e+03 2.103952407836914062e+01 1.290739536285400391e+01 1.321701258420944214e-01 1.753631234169006348e-01 9.225997328758239746e-02 1.528658121824264526e-01
2.247000000000000000e+03 2.015488815307617188e+01 1.162604713439941406e+01 1.444779932498931885e-01 1.868308186531066895e-01 9.939264506101608276e-02 1.624549627304077148e-01
2.248000000000000000e+03 1.964834594726562500e+01 1.171822166442871094e+01 1.359095275402069092e-01 1.912353932857513428e-01 9.814348071813583374e-02 1.610975861549377441e-01
2.249000000000000000e+03 3.854703903198242188e+01 1.812092971801757812e+01 -1.750700324773788452e-01 8.252492547035217285e-02 -2.776353061199188232e-02 -6.512968242168426514e-02
2.250000000000000000e+03 3.932726669311523438e+01 1.845150756835937500e+01 -1.296941190958023071e-01 2.444237023591995239e-01 3.441887721419334412e-02 2.482794784009456635e-02
2.251000000000000000e+03 4.628699111938476562e+01 2.526725387573242188e+01 6.363873481750488281e-01 1.486793756484985352e+00 6.369543075561523438e-01 1.051978945732116699e+00
2.252000000000000000e+03 2.077560043334960938e+01 1.265558624267578125e+01 1.330304890871047974e-01 1.795929074287414551e-01 9.378702193498611450e-02 1.534821242094039917e-01
2.253000000000000000e+03 4.298696899414062500e+01 2.249770164489746094e+01 1.986976265907287598e-01 6.866706013679504395e-01 2.656104862689971924e-01 4.428369402885437012e-01
2.254000000000000000e+03 4.380533599853515625e+01 2.280224227905273438e+01 2.605381906032562256e-01 9.433628916740417480e-01 3.611703217029571533e-01 5.911553502082824707e-01
2.255000000000000000e+03 1.796630668640136719e+01 9.364575386047363281e+00 1.638569086790084839e-01 2.358623594045639038e-01 1.199157759547233582e-01 1.859675645828247070e-01
2.256000000000000000e+03 4.782931518554687500e+01 2.630752372741699219e+01 8.265796303749084473e-01 2.084264755249023438e+00 8.732532858848571777e-01 1.440981030464172363e+00
2.257000000000000000e+03 4.799093627929687500e+01 2.739974784851074219e+01 1.058123111724853516e+00 1.867583513259887695e+00 8.777120113372802734e-01 1.464184641838073730e+00
2.258000000000000000e+03 2.372255134582519531e+01 1.559540367126464844e+01 1.157496646046638489e-01 1.504498720169067383e-01 7.985986024141311646e-02 1.326001584529876709e-01
2.259000000000000000e+03 3.571751785278320312e+01 1.427925014495849609e+01 -3.661234974861145020e-01 -9.781242161989212036e-02 -1.391807794570922852e-01 -2.456170320510864258e-01
2.260000000000000000e+03 3.516021728515625000e+01 1.421321582794189453e+01 -3.995779156684875488e-01 -2.073738723993301392e-01 -1.820855438709259033e-01 -3.113865256309509277e-01
2.261000000000000000e+03 3.361025619506835938e+01 1.186545085906982422e+01 -5.019606351852416992e-01 -2.212848365306854248e-01 -2.169736474752426147e-01 -3.464627563953399658e-01
2.262000000000000000e+03 3.432304382324218750e+01 1.326991844177246094e+01 -4.617772102355957031e-01 -2.700338363647460938e-01 -2.195433080196380615e-01 -3.511272668838500977e-01
2.263000000000000000e+03 3.597960662841796875e+01 1.458068466186523438e+01 -3.520253002643585205e-01 -7.949313521385192871e-02 -1.294555366039276123e-01 -2.286626696586608887e-01
2.264000000000000000e+03 4.408483505249023438e+01 2.308059883117675781e+01 2.965627908706665039e-01 1.001716852188110352e+00 3.894838988780975342e-01 6.351901292800903320e-01
2.265000000000000000e+03 2.155785179138183594e+01 1.341224956512451172e+01 1.318926215171813965e-01 1.698447316884994507e-01 9.052120149135589600e-02 1.487019956111907959e-01
2.266000000000000000e+03 2.502442550659179688e+01 1.723035240173339844e+01 1.077243164181709290e-01 1.362557262182235718e-01 7.319401204586029053e-02 1.204480156302452087e-01
2.267000000000000000e+03 4.325510787963867188e+01 2.223675155639648438e+01 1.938117295503616333e-01 8.392170667648315430e-01 3.099086582660675049e-01 5.081298351287841797e-01
2.268000000000000000e+03 3.808098602294921875e+01 3.106035041809082031e+01 8.310545980930328369e-02 7.829810678958892822e-02 4.842106997966766357e-02 7.415457814931869507e-02
2.269000000000000000e+03 4.763000106811523438e+01 2.658683013916015625e+01 8.764629960060119629e-01 1.880725979804992676e+00 8.271566629409790039e-01 1.381702661514282227e+00
2.270000000000000000e+03 2.892929077148437500e+01 2.068869400024414062e+01 8.740016072988510132e-02 1.115152090787887573e-01 5.967460945248603821e-02 1.022365763783454895e-01
2.271000000000000000e+03 3.621281051635742188e+01 1.542170906066894531e+01 -3.272366523742675781e-01 -1.335624158382415771e-01 -1.382397264242172241e-01 -2.445158064365386963e-01
2.272000000000000000e+03 4.942138290405273438e+01 2.873439216613769531e+01 1.453750967979431152e+00 2.456556081771850586e+00 1.173092126846313477e+00 1.910295724868774414e+00
2.273000000000000000e+03 1.604491806030273438e+01 7.547383308410644531e+00 1.660347133874893188e-01 3.204771578311920166e-01 1.459535658359527588e-01 2.181042283773422241e-01
2.274000000000000000e+03 3.731752014160156250e+01 3.022524833679199219e+01 7.782958447933197021e-02 9.521827101707458496e-02 5.191435664892196655e-02 7.286279648542404175e-02
2.275000000000000000e+03 4.913649368286132812e+01 2.846737289428710938e+01 1.371480584144592285e+00 2.332910776138305664e+00 1.111317396163940430e+00 1.813155055046081543e+00
2.276000000000000000e+03 4.827582550048828125e+01 2.766551208496093750e+01 1.131665587425231934e+00 1.976382374763488770e+00 9.324143528938293457e-01 1.546108603477478027e+00
2.277000000000000000e+03 2.815152359008789062e+01 1.970915412902832031e+01 9.538399428129196167e-02 1.162168458104133606e-01 6.348025053739547729e-02 1.083525344729423523e-01
2.278000000000000000e+03 4.220517349243164062e+01 3.462625885009765625e+01 7.337298989295959473e-02 6.134249269962310791e-02 4.041464254260063171e-02 7.795563340187072754e-02
2.279000000000000000e+03 4.324674606323242188e+01 3.487469482421875000e+01 7.588385790586471558e-02 6.361532211303710938e-02 4.184975475072860718e-02 7.057637721300125122e-02
2.280000000000000000e+03 2.756422042846679688e+01 1.970159721374511719e+01 9.209521859884262085e-02 1.200717315077781677e-01 6.365008652210235596e-02 1.078982725739479065e-01
2.281000000000000000e+03 2.729114913940429688e+01 1.940688896179199219e+01 9.591997414827346802e-02 1.236079037189483643e-01 6.585836410522460938e-02 1.076017767190933228e-01
2.282000000000000000e+03 2.731901168823242188e+01 1.885888862609863281e+01 1.034556627273559570e-01 1.243521571159362793e-01 6.834235042333602905e-02 1.115008741617202759e-01
2.283000000000000000e+03 4.524446868896484375e+01 2.472150039672851562e+01 5.316761136054992676e-01 1.140147566795349121e+00 5.015470981597900391e-01 8.120968341827392578e-01
2.284000000000000000e+03 4.601874923706054688e+01 2.500028038024902344e+01 5.939109325408935547e-01 1.422332763671875000e+00 6.048731207847595215e-01 9.907682538032531738e-01
2.285000000000000000e+03 3.490105438232421875e+01 1.333461666107177734e+01 -4.230167269706726074e-01 -1.526297181844711304e-01 -1.726939231157302856e-01 -2.827290594577789307e-01
2.286000000000000000e+03 3.623819732666015625e+01 1.488262081146240234e+01 -3.315298557281494141e-01 -5.939872562885284424e-02 -1.172785758972167969e-01 -2.141404598951339722e-01
2.287000000000000000e+03 3.262278366088867188e+01 2.392738723754882812e+01 7.285401225090026855e-02 9.983460605144500732e-02 5.180658772587776184e-02 8.513434231281280518e-02
2.288000000000000000e+03 5.072156524658203125e+01 2.946375846862792969e+01 1.670773506164550781e+00 3.288906097412109375e+00 1.487903952598571777e+00 2.395755290985107422e+00
2.289000000000000000e+03 5.026649475097656250e+01 2.952523612976074219e+01 1.693928718566894531e+00 2.857720613479614258e+00 1.365494728088378906e+00 2.221491575241088867e+00
2.290000000000000000e+03 4.046518325805664062e+01 3.257556915283203125e+01 8.286094665527343750e-02 7.422114163637161255e-02 4.712462797760963440e-02 7.659343630075454712e-02
2.291000000000000000e+03 3.649500274658203125e+01 1.518623256683349609e+01 -3.187743723392486572e-01 -3.959655016660690308e-02 -1.075112745165824890e-01 -1.952997893095016479e-01
2.292000000000000000e+03 5.100030899047851562e+01 2.970699691772460938e+01 1.749104261398315430e+00 3.455233335494995117e+00 1.561301231384277344e+00 2.510792970657348633e+00
2.293000000000000000e+03 4.790549850463867188e+01 2.684883689880371094e+01 9.349652528762817383e-01 1.980391502380371094e+00 8.746070265769958496e-01 1.454762220382690430e+00
2.294000000000000000e+03 4.884984207153320312e+01 2.819985580444335938e+01 1.289433836936950684e+00 2.210562229156494141e+00 1.049998760223388672e+00 1.720479846000671387e+00
2.295000000000000000e+03 4.011045455932617188e+01 3.255860137939453125e+01 8.581881970167160034e-02 6.972748041152954102e-02 4.666389152407646179e-02 6.360926479101181030e-02
2.296000000000000000e+03 3.675124740600585938e+01 1.549098300933837891e+01 -3.003443777561187744e-01 -1.854205131530761719e-02 -9.566593170166015625e-02 -1.788782924413681030e-01
2.297000000000000000e+03 3.700757980346679688e+01 1.579511165618896484e+01 -2.880891561508178711e-01 2.643339801579713821e-03 -8.563373982906341553e-02 -1.589419245719909668e-01
2.298000000000000000e+03 4.298347091674804688e+01 2.194436645507812500e+01 1.620904505252838135e-01 7.938454747200012207e-01 2.867807745933532715e-01 4.694783389568328857e-01
2.299000000000000000e+03 3.828982543945312500e+01 1.782406806945800781e+01 -1.941082328557968140e-01 5.542602017521858215e-02 -4.160466417670249939e-02 -8.626069128513336182e-02
2.300000000000000000e+03 3.985268020629882812e+01 1.902492141723632812e+01 -9.112960845232009888e-02 3.035787940025329590e-01 6.373475492000579834e-02 7.458455115556716919e-02
2.301000000000000000e+03 4.134863662719726562e+01 3.282816314697265625e+01 9.034945070743560791e-02 7.308508455753326416e-02 4.903035983443260193e-02 6.442781537771224976e-02
2.302000000000000000e+03 2.648042297363281250e+01 1.748232078552246094e+01 1.163225695490837097e-01 1.313990801572799683e-01 7.431649416685104370e-02 1.217829287052154541e-01
2.303000000000000000e+03 4.436531066894531250e+01 2.335785675048828125e+01 3.347935378551483154e-01 1.062510848045349121e+00 4.191913306713104248e-01 6.796808838844299316e-01
2.304000000000000000e+03 3.726433944702148438e+01 1.609727859497070312e+01 -2.704169452190399170e-01 2.548275887966156006e-02 -7.348025590181350708e-02 -1.408992558717727661e-01
2.305000000000000000e+03 2.232094192504882812e+01 1.370596313476562500e+01 1.381885707378387451e-01 1.666009724140167236e-01 9.143686294555664062e-02 1.462572813034057617e-01
2.306000000000000000e+03 2.104944992065429688e+01 1.342588138580322266e+01 1.248221397399902344e-01 1.727426648139953613e-01 8.926944434642791748e-02 1.461089402437210083e-01
2.307000000000000000e+03 4.161978912353515625e+01 3.362232589721679688e+01 9.047020971775054932e-02 6.008133292198181152e-02 4.516546428203582764e-02 6.258547306060791016e-02
2.308000000000000000e+03 4.031439208984375000e+01 3.291379547119140625e+01 7.730547338724136353e-02 6.008206680417060852e-02 4.121626168489456177e-02 7.404013723134994507e-02
2.309000000000000000e+03 3.130524253845214844e+01 9.167786598205566406e+00 -6.603438258171081543e-01 -2.069534510374069214e-01 -2.601891756057739258e-01 -2.518417239189147949e-01
2.310000000000000000e+03 3.202748107910156250e+01 1.090409469604492188e+01 -6.825712323188781738e-01 -3.648830056190490723e-01 -3.142362833023071289e-01 -4.360348284244537354e-01
2.311000000000000000e+03 2.675544166564941406e+01 1.830038070678710938e+01 1.072809100151062012e-01 1.290717869997024536e-01 7.090581208467483521e-02 1.143132597208023071e-01
2.312000000000000000e+03 3.803158950805664062e+01 1.752590942382812500e+01 -2.146203815937042236e-01 2.735188044607639313e-02 -5.618055164813995361e-02 -1.056862771511077881e-01
2.313000000000000000e+03 1.703449630737304688e+01 9.048848152160644531e+00 1.501758992671966553e-01 2.562350332736968994e-01 1.219232827425003052e-01 1.892937123775482178e-01
2.314000000000000000e+03 2.280970191955566406e+01 1.428546810150146484e+01 1.330318599939346313e-01 1.626758277416229248e-01 8.871230483055114746e-02 1.408847421407699585e-01
2.315000000000000000e+03 4.970428848266601562e+01 2.900044631958007812e+01 1.535200715065002441e+00 2.584569454193115234e+00 1.235931038856506348e+00 2.010876893997192383e+00
2.316000000000000000e+03 5.128301620483398438e+01 2.993749618530273438e+01 1.830972671508789062e+00 3.630757331848144531e+00 1.638519048690795898e+00 2.634471893310546875e+00
2.317000000000000000e+03 2.618653869628906250e+01 1.775001525878906250e+01 1.108420491218566895e-01 1.323773115873336792e-01 7.296580821275711060e-02 1.172076165676116943e-01
2.318000000000000000e+03 2.473499107360839844e+01 1.752368354797363281e+01 1.011823415756225586e-01 1.360888034105300903e-01 7.118134200572967529e-02 1.189648807048797607e-01
2.319000000000000000e+03 4.278753280639648438e+01 3.407729721069335938e+01 7.682598382234573364e-02 6.854399293661117554e-02 4.361099377274513245e-02 6.781932711601257324e-02
2.320000000000000000e+03 3.374499511718750000e+01 1.223181152343750000e+01 -5.003291964530944824e-01 -2.433420419692993164e-01 -2.231013774871826172e-01 -3.576813936233520508e-01
2.321000000000000000e+03 5.286672592163085938e+01 3.244959640502929688e+01 2.890702247619628906e+00 3.480744123458862305e+00 1.911433935165405273e+00 3.546356916427612305e+00
2.322000000000000000e+03 2.907228851318359375e+01 2.141476631164550781e+01 8.432145416736602783e-02 1.103068739175796509e-01 5.838849768042564392e-02 9.915450215339660645e-02
2.323000000000000000e+03 3.427347183227539062e+01 1.268287849426269531e+01 -4.606075286865234375e-01 -2.007179111242294312e-01 -1.983976364135742188e-01 -3.186537921428680420e-01
2.324000000000000000e+03 4.074682998657226562e+01 3.307209777832031250e+01 7.809787988662719727e-02 7.879030704498291016e-02 4.706645384430885315e-02 7.160149514675140381e-02
2.325000000000000000e+03 4.156412506103515625e+01 3.314365386962890625e+01 7.278816401958465576e-02 6.436415761709213257e-02 4.114569723606109619e-02 8.051239699125289917e-02
2.326000000000000000e+03 4.682192230224609375e+01 2.579718589782714844e+01 7.236945033073425293e-01 1.627941966056823730e+00 7.054909467697143555e-01 1.178632974624633789e+00
2.327000000000000000e+03 1.994239616394042969e+01 1.193512630462646484e+01 1.356967538595199585e-01 1.862157881259918213e-01 9.657376259565353394e-02 1.593759953975677490e-01
2.328000000000000000e+03 3.752160644531250000e+01 1.639715766906738281e+01 -2.572084665298461914e-01 4.866715520620346069e-02 -6.256239116191864014e-02 -1.199442222714424133e-01
2.329000000000000000e+03 4.155809402465820312e+01 2.036995887756347656e+01 2.333770319819450378e-02 5.824925303459167480e-01 1.817490756511688232e-01 2.818294465541839600e-01
2.330000000000000000e+03 5.157252883911132812e+01 3.014872932434082031e+01 1.906971335411071777e+00 3.833917379379272461e+00 1.722266554832458496e+00 2.771024227142333984e+00
2.331000000000000000e+03 2.257019805908203125e+01 1.399169445037841797e+01 1.351956129074096680e-01 1.639506965875625610e-01 8.974389731884002686e-02 1.444605141878128052e-01
2.332000000000000000e+03 4.162794876098632812e+01 3.418765258789062500e+01 7.815594226121902466e-02 6.329238414764404297e-02 4.243449866771697998e-02 7.785728573799133301e-02
2.333000000000000000e+03 5.606841278076171875e+01 3.841345214843750000e+01 -6.577192544937133789e-01 1.412117099761962891e+01 4.039035320281982422e+00 -1.425967335700988770e+00
2.334000000000000000e+03 5.685438537597656250e+01 3.647097396850585938e+01 2.901995182037353516e+00 1.952791023254394531e+01 6.728971481323242188e+00 2.719936132431030273e+00
2.335000000000000000e+03 3.906868362426757812e+01 1.816384315490722656e+01 -1.497533321380615234e-01 2.146075069904327393e-01 1.945625059306621552e-02 2.866724506020545959e-03
2.336000000000000000e+03 3.777926254272460938e+01 1.669512176513671875e+01 -2.392152994871139526e-01 7.423687726259231567e-02 -4.949352517724037170e-02 -1.010131463408470154e-01
2.337000000000000000e+03 3.803708648681640625e+01 1.699164390563964844e+01 -2.246181070804595947e-01 1.003973707556724548e-01 -3.726622089743614197e-02 -7.975336909294128418e-02
2.338000000000000000e+03 4.464553451538085938e+01 2.363441848754882812e+01 3.753233850002288818e-01 1.123989343643188477e+00 4.497938454151153564e-01 7.257601022720336914e-01
2.339000000000000000e+03 2.589918708801269531e+01 1.747777748107910156e+01 1.115356236696243286e-01 1.322283893823623657e-01 7.312920689582824707e-02 1.204020678997039795e-01
2.340000000000000000e+03 3.426542282104492188e+01 2.635435295104980469e+01 7.103578001260757446e-02 1.016888767480850220e-01 5.181739851832389832e-02 8.085886389017105103e-02
2.341000000000000000e+03 3.291683959960937500e+01 2.418191719055175781e+01 7.158970832824707031e-02 9.797031432390213013e-02 5.086800456047058105e-02 8.656097203493118286e-02
2.342000000000000000e+03 3.474283599853515625e+01 2.691058921813964844e+01 7.534289360046386719e-02 9.771372377872467041e-02 5.191698670387268066e-02 8.129296451807022095e-02
2.343000000000000000e+03 3.452236938476562500e+01 2.663563537597656250e+01 6.571932137012481689e-02 9.768540412187576294e-02 4.902141913771629333e-02 8.352242410182952881e-02
2.344000000000000000e+03 4.215293884277343750e+01 2.100844955444335938e+01 7.498913258314132690e-02 6.771443486213684082e-01 2.256400436162948608e-01 3.607913851737976074e-01
2.345000000000000000e+03 2.050540924072265625e+01 1.240797901153564453e+01 1.335505396127700806e-01 1.810343861579895020e-01 9.437547624111175537e-02 1.558668613433837891e-01
2.346000000000000000e+03 3.646429443359375000e+01 2.902850914001464844e+01 6.911084055900573730e-02 9.089656919240951538e-02 4.800222441554069519e-02 7.890237867832183838e-02
2.347000000000000000e+03 2.181260108947753906e+01 1.366611480712890625e+01 1.318039149045944214e-01 1.686277687549591064e-01 9.012950956821441650e-02 1.450754106044769287e-01
2.348000000000000000e+03 2.996122550964355469e+01 2.189718246459960938e+01 7.708459347486495972e-02 1.084873750805854797e-01 5.567159131169319153e-02 9.553209692239761353e-02
2.349000000000000000e+03 2.983627700805664062e+01 2.246280479431152344e+01 7.703880965709686279e-02 1.068514585494995117e-01 5.516708269715309143e-02 9.282176196575164795e-02
2.350000000000000000e+03 3.027760505676269531e+01 2.290570068359375000e+01 7.369121909141540527e-02 1.070281714200973511e-01 5.421581864356994629e-02 9.149799495935440063e-02
2.351000000000000000e+03 3.306427001953125000e+01 1.104896163940429688e+01 -5.506047010421752930e-01 -2.136961519718170166e-01 -2.292902618646621704e-01 -3.325798511505126953e-01
2.352000000000000000e+03 3.240234375000000000e+01 2.421394538879394531e+01 7.271393388509750366e-02 9.691725671291351318e-02 5.088935792446136475e-02 8.805041760206222534e-02
2.353000000000000000e+03 3.232716751098632812e+01 2.368925285339355469e+01 7.317529618740081787e-02 9.617806971073150635e-02 5.080601200461387634e-02 8.892156183719635010e-02
2.354000000000000000e+03 2.303710174560546875e+01 1.539731311798095703e+01 1.137553304433822632e-01 1.555556505918502808e-01 8.079329133033752441e-02 1.314123719930648804e-01
2.355000000000000000e+03 2.272179412841796875e+01 1.479619407653808594e+01 1.219912171363830566e-01 1.605175286531448364e-01 8.475262671709060669e-02 1.351883411407470703e-01
2.356000000000000000e+03 4.492483139038085938e+01 2.391070938110351562e+01 4.178467988967895508e-01 1.184818148612976074e+00 4.807994961738586426e-01 7.729175686836242676e-01
2.357000000000000000e+03 4.520227813720703125e+01 2.418661689758300781e+01 4.620119333267211914e-01 1.244754076004028320e+00 5.120297670364379883e-01 8.231277465820312500e-01
2.358000000000000000e+03 5.245487594604492188e+01 3.097034263610839844e+01 2.261112689971923828e+00 4.413668155670166016e+00 2.002434253692626953e+00 3.318377494812011719e+00
2.359000000000000000e+03 5.271253585815429688e+01 3.152786445617675781e+01 2.522617101669311523e+00 4.321501255035400391e+00 2.053235530853271484e+00 3.525983572006225586e+00
2.360000000000000000e+03 3.150442886352539062e+01 1.014486408233642578e+01 -7.151395082473754883e-01 -3.344592452049255371e-01 -3.148796260356903076e-01 -4.294054508209228516e-01
2.361000000000000000e+03 3.394891357421875000e+01 1.247918891906738281e+01 -4.736079871654510498e-01 -2.395571172237396240e-01 -2.139495313167572021e-01 -3.536762893199920654e-01
2.362000000000000000e+03 1.867942810058593750e+01 1.087463951110839844e+01 1.345146894454956055e-01 2.104239463806152344e-01 1.034815907478332520e-01 1.703870296478271484e-01
2.363000000000000000e+03 1.406822586059570312e+01 5.642104625701904297e+00 1.202530637383460999e-01 6.283604502677917480e-01 2.245840579271316528e-01 2.117159366607666016e-01
2.364000000000000000e+03 5.187216567993164062e+01 3.033161926269531250e+01 1.973461508750915527e+00 4.060066223144531250e+00 1.810058355331420898e+00 2.917617321014404297e+00
2.365000000000000000e+03 5.219417953491210938e+01 3.047327423095703125e+01 2.019040346145629883e+00 4.358871936798095703e+00 1.913373708724975586e+00 3.105527877807617188e+00
2.366000000000000000e+03 1.734819602966308594e+01 8.504029273986816406e+00 1.764919459819793701e-01 2.469270378351211548e-01 1.270256936550140381e-01 2.072746455669403076e-01
2.367000000000000000e+03 3.316532516479492188e+01 2.555101776123046875e+01 7.238739728927612305e-02 9.635994583368301392e-02 5.062420293688774109e-02 8.469423651695251465e-02
2.368000000000000000e+03 3.554462051391601562e+01 2.743234252929687500e+01 6.849195808172225952e-02 9.454074501991271973e-02 4.890980944037437439e-02 8.591812103986740112e-02
2.369000000000000000e+03 3.183681106567382812e+01 1.029843139648437500e+01 -6.674436330795288086e-01 -3.210515081882476807e-01 -2.965485453605651855e-01 -3.848479688167572021e-01
2.370000000000000000e+03 3.660693740844726562e+01 2.966653442382812500e+01 7.678619772195816040e-02 9.552498906850814819e-02 5.169335752725601196e-02 7.128292322158813477e-02
2.371000000000000000e+03 5.343953704833984375e+01 3.211297988891601562e+01 2.838207721710205078e+00 5.224802970886230469e+00 2.418903350830078125e+00 4.389674663543701172e+00
2.372000000000000000e+03 5.318967819213867188e+01 3.332608795166015625e+01 2.969930648803710938e+00 2.426151990890502930e+00 1.618824839591979980e+00 3.197795629501342773e+00
2.373000000000000000e+03 5.309609985351562500e+01 3.205525588989257812e+01 2.821024894714355469e+00 4.420661449432373047e+00 2.172505855560302734e+00 3.929542303085327148e+00
2.374000000000000000e+03 3.096894454956054688e+01 5.619466781616210938e+00 -1.208036318421363831e-01 -3.297099843621253967e-02 -4.613238945603370667e-02 -2.890713214874267578e-01
2.375000000000000000e+03 3.048042869567871094e+01 5.753225326538085938e+00 -1.612452566623687744e-01 -5.042512714862823486e-02 -6.350111961364746094e-02 -3.127365112304687500e-01
2.376000000000000000e+03 1.823216819763183594e+01 1.045271587371826172e+01 1.358597725629806519e-01 2.218351364135742188e-01 1.073084697127342224e-01 1.723060309886932373e-01
2.377000000000000000e+03 1.817068672180175781e+01 9.757235527038574219e+00 1.540184020996093750e-01 2.290759384632110596e-01 1.149282976984977722e-01 1.818182170391082764e-01
2.378000000000000000e+03 1.496994876861572266e+01 6.521955490112304688e+00 1.672592014074325562e-01 4.232622087001800537e-01 1.771564185619354248e-01 2.331485152244567871e-01
2.379000000000000000e+03 1.557161521911621094e+01 7.051209449768066406e+00 1.721561998128890991e-01 3.596255779266357422e-01 1.595345288515090942e-01 2.243351787328720093e-01
2.380000000000000000e+03 1.785657882690429688e+01 9.696305274963378906e+00 1.513550877571105957e-01 2.326976805925369263e-01 1.152158305048942566e-01 1.798529922962188721e-01
2.381000000000000000e+03 5.526600265502929688e+01 3.888117980957031250e+01 -3.929066658020019531e-01 1.151408958435058594e+01 3.336354732513427734e+00 -2.188555240631103516e+00
2.382000000000000000e+03 1.466729831695556641e+01 6.231977462768554688e+00 1.541493237018585205e-01 4.693059027194976807e-01 1.870365738868713379e-01 2.407154291868209839e-01
2.383000000000000000e+03 1.534141540527343750e+01 7.416482448577880859e+00 1.445226818323135376e-01 3.585535585880279541e-01 1.509228646755218506e-01 2.041812539100646973e-01
2.384000000000000000e+03 1.501167583465576172e+01 7.165604114532470703e+00 1.419218927621841431e-01 3.903284966945648193e-01 1.596751213073730469e-01 2.004757225513458252e-01
2.385000000000000000e+03 2.195493125915527344e+01 -3.672770559787750244e-01 -1.187725067138671875e+00 -1.312863230705261230e-01 -3.957034051418304443e-01 -1.454343553632497787e-02
2.386000000000000000e+03 1.272327518463134766e+01 4.454988479614257812e+00 2.797934114933013916e-01 7.022854089736938477e-01 2.946236431598663330e-01 -1.961214095354080200e-01
2.387000000000000000e+03 2.970377731323242188e+01 4.864762783050537109e+00 -2.633056640625000000e-01 -5.685330182313919067e-02 -9.604769200086593628e-02 -2.473748028278350830e-01
2.388000000000000000e+03 1.047814083099365234e+01 4.046185493469238281e+00 3.739797174930572510e-01 -1.235526800155639648e-01 7.512811571359634399e-02 -7.163301575928926468e-03
2.389000000000000000e+03 3.160583496093750000e+01 8.452825546264648438e+00 -3.727082014083862305e-01 -1.747767478227615356e-01 -1.642454862594604492e-01 -1.178499013185501099e-01
2.390000000000000000e+03 3.237020874023437500e+01 1.073199844360351562e+01 -6.200480461120605469e-01 -2.891457974910736084e-01 -2.727581560611724854e-01 -3.713378608226776123e-01
2.391000000000000000e+03 5.668657684326171875e+01 3.905784606933593750e+01 -9.576202034950256348e-01 1.393969917297363281e+01 3.894623756408691406e+00 1.334190070629119873e-01
2.392000000000000000e+03 1.083405590057373047e+01 3.694453239440917969e+00 4.230947494506835938e-01 -1.289950460195541382e-01 8.822991698980331421e-02 -2.720088511705398560e-02
2.393000000000000000e+03 1.308047008514404297e+01 4.749428749084472656e+00 1.697721332311630249e-01 8.287932276725769043e-01 2.995696067810058594e-01 -9.262358397245407104e-02
2.394000000000000000e+03 3.196769142150878906e+01 6.289882659912109375e+00 -7.915476709604263306e-02 -4.271959140896797180e-02 -3.656230866909027100e-02 -1.792567372322082520e-01
2.395000000000000000e+03 8.381411552429199219e+00 -6.334274768829345703e+00 -6.846369057893753052e-02 -1.300323456525802612e-01 -5.954881012439727783e-02 -2.640159130096435547e-01
2.396000000000000000e+03 3.187366867065429688e+01 7.235552787780761719e+00 -1.414215862751007080e-01 -1.382108330726623535e-01 -8.388972282409667969e-02 -1.362143903970718384e-01
2.397000000000000000e+03 3.165191841125488281e+01 5.925641059875488281e+00 -9.257821738719940186e-02 -4.137087240815162659e-02 -4.018472880125045776e-02 -2.062935829162597656e-01
2.398000000000000000e+03 1.273571872711181641e+01 3.011264801025390625e+00 7.513648271560668945e-01 8.596687316894531250e-01 4.833100736141204834e-01 -4.677607119083404541e-01
2.399000000000000000e+03 2.682856559753417969e+01 -1.937202930450439453e+00 -2.163010239601135254e-01 -1.760568320751190186e-01 -1.177073568105697632e-01 1.159444749355316162e-01
2.400000000000000000e+03 3.542280912399291992e+00 4.799917221069335938e+00 6.952384021133184433e-03 -1.125970259308815002e-01 -3.169339150190353394e-02 1.126428171992301941e-01
2.401000000000000000e+03 4.418065261840820312e+01 3.838611221313476562e+01 1.118905022740364075e-01 7.745461165904998779e-02 5.680353567004203796e-02 1.309231221675872803e-01
2.402000000000000000e+03 6.008513927459716797e+00 3.981305360794067383e+00 4.198363982141017914e-03 -1.281690448522567749e-01 -3.719120472669601440e-02 1.799307763576507568e-01
2.403000000000000000e+03 3.984018087387084961e+00 6.056144714355468750e+00 3.482843935489654541e-02 -1.359781622886657715e-01 -3.034491464495658875e-02 1.029019281268119812e-01
2.404000000000000000e+03 2.486769676208496094e+01 -9.892046451568603516e-01 -4.630638659000396729e-01 -1.468337774276733398e-01 -1.829692870378494263e-01 1.093347072601318359e-01
2.405000000000000000e+03 2.544345474243164062e+01 -1.504178881645202637e+00 -3.186297416687011719e-01 -1.873819977045059204e-01 -1.518035233020782471e-01 1.155023500323295593e-01
2.406000000000000000e+03 8.634216308593750000e+00 3.729035139083862305e+00 1.283837705850601196e-01 -2.208478748798370361e-01 -2.773923054337501526e-02 2.102460265159606934e-01
2.407000000000000000e+03 5.607874393463134766e+00 4.852980136871337891e+00 4.130915924906730652e-02 -1.345160901546478271e-01 -2.796207740902900696e-02 1.506780385971069336e-01
2.408000000000000000e+03 5.442169952392578125e+01 3.973631668090820312e+01 -3.840740025043487549e-01 8.162171363830566406e+00 2.333429336547851562e+00 -1.888450384140014648e+00
2.409000000000000000e+03 9.529711723327636719e+00 3.486003398895263672e+00 2.220292687416076660e-01 -2.561912238597869873e-01 -1.024858746677637100e-02 1.827131211757659912e-01
2.410000000000000000e+03 2.936213111877441406e+01 -3.165258884429931641e+00 -9.196422994136810303e-02 -1.008547842502593994e-01 -5.784570425748825073e-02 7.797337323427200317e-02
2.411000000000000000e+03 4.018937301635742188e+01 3.208098602294921875e+01 7.535570114850997925e-02 8.439157903194427490e-02 4.792418330907821655e-02 7.255287468433380127e-02
2.412000000000000000e+03 1.202450847625732422e+01 -5.415895462036132812e+00 -9.949031472206115723e-02 -1.777232885360717773e-01 -8.316408097743988037e-02 -3.548971712589263916e-01
2.413000000000000000e+03 1.112723350524902344e+01 3.318200349807739258e+00 5.174858570098876953e-01 -1.346258819103240967e-01 1.148579865694046021e-01 -4.426376521587371826e-02
2.414000000000000000e+03 1.197638511657714844e+01 3.879714488983154297e+00 4.791585505008697510e-01 3.082979917526245117e-01 2.362369596958160400e-01 -2.387661337852478027e-01
2.415000000000000000e+03 8.115533828735351562e+00 -4.587159633636474609e+00 -1.489860564470291138e-01 -7.493060827255249023e-02 -6.717500090599060059e-02 -2.314259260892868042e-01
2.416000000000000000e+03 8.987887382507324219e+00 -5.389212131500244141e+00 -1.224057376384735107e-01 -1.069701239466667175e-01 -6.881275773048400879e-02 -2.750330567359924316e-01
2.417000000000000000e+03 3.859382247924804688e+01 3.174654388427734375e+01 8.316954970359802246e-02 7.262700796127319336e-02 4.673896729946136475e-02 7.293593883514404297e-02
2.418000000000000000e+03 2.432179450988769531e+01 8.862628936767578125e-01 -5.655530691146850586e-01 -1.484570354223251343e-01 -2.142030298709869385e-01 -1.775807589292526245e-01
2.419000000000000000e+03 1.045111370086669922e+01 3.424348115921020508e+00 3.628176748752593994e-01 -2.253313660621643066e-01 4.124588891863822937e-02 8.299720287322998047e-02
2.420000000000000000e+03 6.973685264587402344e+00 5.120087623596191406e+00 1.084698736667633057e-01 -1.532254070043563843e-01 -1.342666149139404297e-02 1.379302889108657837e-01
2.421000000000000000e+03 3.380235910415649414e+00 -6.886266708374023438e+00 -1.968026347458362579e-02 -1.470442265272140503e-01 -5.001734569668769836e-02 -1.264806091785430908e-01
2.422000000000000000e+03 5.070615768432617188e+00 -5.807349681854248047e+00 -4.667263105511665344e-02 -1.129335537552833557e-01 -4.788185656070709229e-02 -1.644412577152252197e-01
2.423000000000000000e+03 5.887114524841308594e+00 -5.737595081329345703e+00 -6.598149240016937256e-02 -1.083508431911468506e-01 -5.229970067739486694e-02 -1.875793635845184326e-01
2.424000000000000000e+03 6.021219730377197266e+00 -6.737136840820312500e+00 -3.616692498326301575e-02 -1.381778568029403687e-01 -5.230343341827392578e-02 -2.018033862113952637e-01
2.425000000000000000e+03 7.465936660766601562e+00 -5.555879116058349609e+00 -9.470538794994354248e-02 -1.034635528922080994e-01 -5.945068225264549255e-02 -2.310269474983215332e-01
2.426000000000000000e+03 1.122291660308837891e+01 3.996364116668701172e+00 4.424169957637786865e-01 3.170308098196983337e-02 1.422360241413116455e-01 -1.308423727750778198e-01
2.427000000000000000e+03 1.044059181213378906e+01 4.752441406250000000e+00 3.243440091609954834e-01 -2.943625301122665405e-02 8.847232908010482788e-02 -5.302797630429267883e-02
2.428000000000000000e+03 1.752856254577636719e+01 -3.493646383285522461e+00 -1.947703771293163300e-02 -3.163796290755271912e-02 -1.533450093120336533e-02 -1.185731962323188782e-01
2.429000000000000000e+03 1.707581710815429688e+01 -3.093784332275390625e+00 -1.928647458553314209e-01 -2.361479401588439941e-01 -1.287038028240203857e-01 -1.774717867374420166e-01
2.430000000000000000e+03 5.290846252441406250e+01 4.186946105957031250e+01 4.798411726951599121e-01 3.702515363693237305e+00 1.254706978797912598e+00 -6.880820989608764648e-01
2.431000000000000000e+03 5.005405426025390625e+01 4.113854217529296875e+01 7.017341852188110352e-01 3.080793023109436035e-01 3.029440343379974365e-01 4.279139637947082520e-01
2.432000000000000000e+03 4.879617691040039062e+01 4.001431274414062500e+01 2.132717519998550415e-01 -8.794531226158142090e-02 3.759793192148208618e-02 3.060254156589508057e-01
2.433000000000000000e+03 3.201080322265625000e+01 7.776844978332519531e+00 -2.167107462882995605e-01 -1.214985549449920654e-01 -1.014627888798713684e-01 -1.148345246911048889e-01
2.434000000000000000e+03 1.472027111053466797e+01 -5.730450153350830078e+00 7.554871588945388794e-02 -2.042162120342254639e-01 -3.860024735331535339e-02 -2.739590704441070557e-01
2.435000000000000000e+03 4.235111999511718750e+01 3.781796264648437500e+01 1.361098140478134155e-01 1.679622754454612732e-02 4.587181285023689270e-02 9.278254956007003784e-02
2.436000000000000000e+03 4.245176696777343750e+01 3.518064498901367188e+01 8.599030971527099609e-02 7.901575416326522827e-02 4.950181767344474792e-02 6.431100517511367798e-02
2.437000000000000000e+03 4.401608657836914062e+01 3.516207885742187500e+01 5.998843163251876831e-02 4.768600314855575562e-02 3.230233117938041687e-02 6.885115057229995728e-02
2.438000000000000000e+03 1.634205818176269531e+01 -7.663156986236572266e+00 1.764809042215347290e-01 1.108535826206207275e-01 8.620034903287887573e-02 -1.022728458046913147e-01
2.439000000000000000e+03 1.453346157073974609e+01 -4.771223545074462891e+00 -4.892791062593460083e-02 -2.697299122810363770e-01 -9.559734165668487549e-02 -3.481651544570922852e-01
2.440000000000000000e+03 4.931830215454101562e+01 3.907062530517578125e+01 -8.828048408031463623e-02 -2.951423451304435730e-02 -3.533841669559478760e-02 2.770509421825408936e-01
2.441000000000000000e+03 3.844463348388671875e+01 -1.324221611022949219e+01 -1.327329725027084351e-01 1.331945896148681641e+00 3.597638905048370361e-01 -1.375669538974761963e-01
2.442000000000000000e+03 3.413477325439453125e+01 -8.117037773132324219e+00 -8.695586025714874268e-02 4.745853245258331299e-01 1.162888333201408386e-01 1.295943371951580048e-02
2.443000000000000000e+03 3.485601806640625000e+01 -9.113406181335449219e+00 -9.152071923017501831e-02 5.852481722831726074e-01 1.481182426214218140e-01 -9.954764507710933685e-03
2.444000000000000000e+03 1.540169715881347656e+01 -4.658379077911376953e+00 1.362214703112840652e-02 -2.687802314758300781e-01 -7.654742896556854248e-02 -2.944631874561309814e-01
2.445000000000000000e+03 4.458754730224609375e+01 3.637121200561523438e+01 5.853857845067977905e-02 6.372507661581039429e-02 3.667909651994705200e-02 8.332014828920364380e-02
2.446000000000000000e+03 4.722732162475585938e+01 3.722854995727539062e+01 -7.324624061584472656e-02 5.773269757628440857e-02 -4.654064308851957321e-03 6.750819087028503418e-02
2.447000000000000000e+03 2.006814193725585938e+01 -2.036510276794433594e+01 8.400381356477737427e-02 2.845112979412078857e-01 1.105545312166213989e-01 -1.843410134315490723e-01
2.448000000000000000e+03 2.218294906616210938e+01 -2.569733810424804688e+01 8.415599912405014038e-02 2.934344112873077393e-01 1.132771298289299011e-01 -1.887881606817245483e-01
2.449000000000000000e+03 4.170255279541015625e+01 -2.135103034973144531e+01 -8.425992727279663086e-02 2.211372375488281250e+00 6.381337642669677734e-01 -4.130740761756896973e-01
2.450000000000000000e+03 4.029922485351562500e+01 -1.898526954650878906e+01 -9.160280972719192505e-02 1.762976050376892090e+00 5.014119744300842285e-01 -3.030267953872680664e-01
2.451000000000000000e+03 4.527971267700195312e+01 -1.895553779602050781e+01 -2.826895117759704590e-01 3.302140235900878906e+00 9.058352112770080566e-01 -2.307804673910140991e-01
2.452000000000000000e+03 3.292898941040039062e+01 -6.036480903625488281e+00 -6.573836505413055420e-02 2.985223531723022461e-01 6.983520090579986572e-02 2.704100310802459717e-02
2.453000000000000000e+03 4.421967697143554688e+01 -2.293385314941406250e+01 -1.722646355628967285e-01 3.166795015335083008e+00 8.983591198921203613e-01 -4.255934655666351318e-01
2.454000000000000000e+03 4.502910614013671875e+01 -2.496943664550781250e+01 -1.523080766201019287e-01 3.606476306915283203e+00 1.036250472068786621e+00 -4.569290876388549805e-01
2.455000000000000000e+03 2.297456550598144531e+01 -2.361742019653320312e+01 9.049468487501144409e-02 3.501292169094085693e-01 1.321871727705001831e-01 -2.102057337760925293e-01
2.456000000000000000e+03 3.811204528808593750e+01 -1.534659767150878906e+01 -1.122843772172927856e-01 1.196715474128723145e+00 3.253293335437774658e-01 -1.623361408710479736e-01
2.457000000000000000e+03 4.283501434326171875e+01 -2.054848670959472656e+01 -1.681694537401199341e-01 2.590119838714599609e+00 7.265851497650146484e-01 -3.720453083515167236e-01
2.458000000000000000e+03 3.991623306274414062e+01 -1.581414604187011719e+01 -1.462100595235824585e-01 1.690230846405029297e+00 4.632062613964080811e-01 -2.167378067970275879e-01
2.459000000000000000e+03 7.533530426025390625e+01 -2.660859298706054688e+01 3.868021303787827492e-03 8.285248756408691406e+00 2.486735105514526367e+00 1.792629212141036987e-01
2.460000000000000000e+03 7.402465057373046875e+01 -2.810736656188964844e+01 1.891715638339519501e-02 8.059418678283691406e+00 2.423500776290893555e+00 2.069731801748275757e-01
2.461000000000000000e+03 7.446253204345703125e+01 2.310091400146484375e+01 -7.886093854904174805e-02 7.162008762359619141e+00 2.124944210052490234e+00 -1.142211914062500000e+00
2.462000000000000000e+03 7.569807434082031250e+01 2.457152938842773438e+01 -2.672005072236061096e-02 6.727788448333740234e+00 2.010320663452148438e+00 -9.852578639984130859e-01
2.463000000000000000e+03 7.433092498779296875e+01 1.884659385681152344e+01 -1.757891923189163208e-01 7.661096572875976562e+00 2.245592117309570312e+00 -9.642206430435180664e-01
2.464000000000000000e+03 7.548276519775390625e+01 -1.959538841247558594e+01 -1.075906492769718170e-02 8.527609825134277344e+00 2.555055379867553711e+00 1.716323345899581909e-01
2.465000000000000000e+03 7.406078338623046875e+01 -2.097425079345703125e+01 -9.526489302515983582e-03 8.277972221374511719e+00 2.480533838272094727e+00 2.168744057416915894e-01
2.466000000000000000e+03 7.355095672607421875e+01 2.704513359069824219e+01 5.203576758503913879e-02 6.851203441619873047e+00 2.070971727371215820e+00 -1.277503848075866699e+00
2.467000000000000000e+03 7.571473693847656250e+01 2.592428779602050781e+01 -6.716332864016294479e-04 6.515854835510253906e+00 1.954555034637451172e+00 -9.897497296333312988e-01
2.468000000000000000e+03 7.431175994873046875e+01 -8.980755805969238281e+00 -5.632406100630760193e-02 8.559988021850585938e+00 2.551099061965942383e+00 7.799717783927917480e-02
2.469000000000000000e+03 7.441930389404296875e+01 1.459298515319824219e+01 -1.808675080537796021e-01 8.018974304199218750e+00 2.351431846618652344e+00 -7.190194129943847656e-01
2.470000000000000000e+03 7.430461120605468750e+01 1.598690032958984375e+01 -1.862168610095977783e-01 7.908422946929931641e+00 2.316661834716796875e+00 -8.063147068023681641e-01
2.471000000000000000e+03 7.557965087890625000e+01 1.756561660766601562e+01 -1.170493811368942261e-01 7.740259170532226562e+00 2.286962985992431641e+00 -7.633560895919799805e-01
2.472000000000000000e+03 7.568476104736328125e+01 -1.281870746612548828e+01 -2.961501851677894592e-02 8.737958908081054688e+00 2.612503290176391602e+00 1.085624471306800842e-01
2.473000000000000000e+03 7.447959136962890625e+01 -1.419966411590576172e+01 -3.923013433814048767e-02 8.503100395202636719e+00 2.539161205291748047e+00 1.494369506835937500e-01
2.474000000000000000e+03 7.397621154785156250e+01 -2.192880153656005859e+00 -8.209279179573059082e-02 8.522564888000488281e+00 2.532141685485839844e+00 -5.581646412611007690e-02
2.475000000000000000e+03 7.453835296630859375e+01 6.622919559478759766e+00 -1.195394173264503479e-01 8.457232475280761719e+00 2.501307964324951172e+00 -3.242639899253845215e-01
2.476000000000000000e+03 7.461978912353515625e+01 1.187872028350830078e+01 -1.537811160087585449e-01 8.212822914123535156e+00 2.417712450027465820e+00 -5.583022832870483398e-01
2.477000000000000000e+03 7.550837707519531250e+01 -6.144910335540771484e+00 -3.671380132436752319e-02 8.799996376037597656e+00 2.628984689712524414e+00 2.211350761353969574e-02
2.478000000000000000e+03 7.582669830322265625e+01 9.345822334289550781e+00 -8.972936123609542847e-02 8.490872383117675781e+00 2.520343065261840820e+00 -3.696215748786926270e-01
2.479000000000000000e+03 7.462190246582031250e+01 7.942355632781982422e+00 -1.298007816076278687e-01 8.417087554931640625e+00 2.486186027526855469e+00 -3.748818933963775635e-01
2.480000000000000000e+03 7.441236877441406250e+01 5.282969474792480469e+00 -1.197668835520744324e-01 8.482255935668945312e+00 2.508746623992919922e+00 -2.768671810626983643e-01
2.481000000000000000e+03 7.534559631347656250e+01 2.448216199874877930e+00 -7.293244451284408569e-02 8.700405120849609375e+00 2.588241815567016602e+00 -1.627112030982971191e-01
2.482000000000000000e+03 7.410497283935546875e+01 -3.618149757385253906e+00 -7.616964727640151978e-02 8.550016403198242188e+00 2.542154073715209961e+00 -2.508060447871685028e-02
2.483000000000000000e+03 7.417698669433593750e+01 -4.996474266052246094e+00 -6.602828204631805420e-02 8.564220428466796875e+00 2.549457550048828125e+00 6.729276385158300400e-03
2.484000000000000000e+03 7.437088012695312500e+01 -1.029554176330566406e+01 -4.678948223590850830e-02 8.551947593688964844e+00 2.551547527313232422e+00 1.004006862640380859e-01
2.485000000000000000e+03 7.442745971679687500e+01 -1.160687065124511719e+01 -4.790216311812400818e-02 8.541270256042480469e+00 2.548010349273681641e+00 1.173448339104652405e-01
2.486000000000000000e+03 7.442090606689453125e+01 -1.682435798645019531e+01 -3.523057326674461365e-02 8.433676719665527344e+00 2.519533872604370117e+00 1.772638261318206787e-01
2.487000000000000000e+03 7.432073211669921875e+01 -1.818399238586425781e+01 -2.278316020965576172e-02 8.380517959594726562e+00 2.507320404052734375e+00 1.938163489103317261e-01
2.488000000000000000e+03 7.466424560546875000e+01 1.056116485595703125e+01 -1.457802951335906982e-01 8.294131278991699219e+00 2.444505453109741211e+00 -4.903205633163452148e-01
2.489000000000000000e+03 7.410159301757812500e+01 -2.376856231689453125e+01 -2.439321484416723251e-03 8.196640014648437500e+00 2.458260059356689453e+00 2.314651161432266235e-01
2.490000000000000000e+03 7.392206573486328125e+01 -2.669137191772460938e+01 1.141579821705818176e-02 8.095418930053710938e+00 2.432050466537475586e+00 2.277571409940719604e-01
2.491000000000000000e+03 7.534285736083984375e+01 -2.520530319213867188e+01 4.331546835601329803e-03 8.327237129211425781e+00 2.499470710754394531e+00 1.894500553607940674e-01
2.492000000000000000e+03 7.434150695800781250e+01 2.973129081726074219e+01 1.770961135625839233e-01 6.365706920623779297e+00 1.962840914726257324e+00 -1.101773738861083984e+00
2.493000000000000000e+03 7.466435241699218750e+01 9.252310752868652344e+00 -1.334120333194732666e-01 8.362395286560058594e+00 2.468694925308227539e+00 -4.302931427955627441e-01
2.494000000000000000e+03 7.377040100097656250e+01 9.164125323295593262e-01 -1.070612296462059021e-01 8.460553169250488281e+00 2.506047487258911133e+00 -1.414673179388046265e-01
2.495000000000000000e+03 7.424174499511718750e+01 3.907068014144897461e+00 -1.104553416371345520e-01 8.491722106933593750e+00 2.514379978179931641e+00 -2.313296496868133545e-01
2.496000000000000000e+03 7.402552032470703125e+01 2.469754695892333984e+00 -1.155468299984931946e-01 8.482975006103515625e+00 2.510228395462036133e+00 -1.882093995809555054e-01
2.497000000000000000e+03 7.421956634521484375e+01 -6.343702316284179688e+00 -6.435959041118621826e-02 8.565732002258300781e+00 2.550411701202392578e+00 3.376317396759986877e-02
2.498000000000000000e+03 7.444538879394531250e+01 2.169991302490234375e+01 -1.200578212738037109e-01 7.342595577239990234e+00 2.166761398315429688e+00 -1.090985178947448730e+00
2.499000000000000000e+03 7.446509552001953125e+01 -1.290787601470947266e+01 -3.657416999340057373e-02 8.526248931884765625e+00 2.546902418136596680e+00 1.350087970495223999e-01
2.500000000000000000e+03 4.527241897583007812e+01 -2.356199455261230469e+01 -2.094962149858474731e-01 3.549049377441406250e+00 1.001865983009338379e+00 -3.650468289852142334e-01
2.501000000000000000e+03 7.417981719970703125e+01 -1.957066154479980469e+01 -2.926233783364295959e-02 8.323508262634277344e+00 2.488273859024047852e+00 2.037020325660705566e-01
2.502000000000000000e+03 6.855563354492187500e+01 2.896875000000000000e+01 4.034714698791503906e-01 8.197643280029296875e+00 2.580334424972534180e+00 -1.576583981513977051e+00
2.503000000000000000e+03 7.280564117431640625e+01 -3.131572341918945312e+01 4.368304461240768433e-02 7.867202281951904297e+00 2.373265743255615234e+00 2.069922238588333130e-01
2.504000000000000000e+03 6.836908817291259766e+00 3.138095855712890625e+01 -7.564765866845846176e-03 -7.095598429441452026e-02 -2.355622500181198120e-02 -1.009500864893198013e-02
2.505000000000000000e+03 5.175347328186035156e+00 -3.047029495239257812e+01 3.258262528106570244e-03 -4.670643210411071777e-01 -1.391418278217315674e-01 -2.801382355391979218e-02
2.506000000000000000e+03 4.265963554382324219e+00 2.806068038940429688e+01 -5.565952509641647339e-03 -1.115122511982917786e-01 -3.512345999479293823e-02 -1.270505506545305252e-02
2.507000000000000000e+03 5.731661319732666016e+00 2.877499580383300781e+01 -6.987698841840028763e-03 -8.821768313646316528e-02 -2.856161445379257202e-02 -1.273270417004823685e-02
2.508000000000000000e+03 4.526516914367675781e+00 -2.679551887512207031e+01 1.398411951959133148e-02 -4.694875478744506836e-01 -1.366510242223739624e-01 -3.538521379232406616e-02
2.509000000000000000e+03 4.683938026428222656e+00 -1.034468650817871094e+01 1.276815310120582581e-02 -2.348543852567672729e-01 -6.662587076425552368e-02 -1.630426645278930664e-01
2.510000000000000000e+03 5.651831150054931641e+00 2.399665260314941406e+01 -6.589599885046482086e-03 -8.890067785978317261e-02 -2.864708192646503448e-02 -1.814730279147624969e-02
2.511000000000000000e+03 6.033032894134521484e+00 -2.256980895996093750e+01 2.791371196508407593e-02 -3.609008491039276123e-01 -9.989614784717559814e-02 -6.940874457359313965e-02
2.512000000000000000e+03 7.462868499755859375e+01 -3.275991439819335938e+01 4.033326730132102966e-02 8.045180320739746094e+00 2.425654172897338867e+00 1.594408154487609863e-01
2.513000000000000000e+03 5.448499202728271484e+00 -1.553570747375488281e+01 3.192020580172538757e-02 -3.111402392387390137e-01 -8.376600593328475952e-02 -1.208129674196243286e-01
2.514000000000000000e+03 5.728124618530273438e+00 -1.830116081237792969e+01 2.748261205852031708e-02 -3.329615592956542969e-01 -9.164368361234664917e-02 -9.508155286312103271e-02
2.515000000000000000e+03 4.525144100189208984e+00 -1.993505096435546875e+01 1.403232570737600327e-02 -4.028355181217193604e-01 -1.166409552097320557e-01 -6.759144365787506104e-02
2.516000000000000000e+03 5.102716445922851562e+00 1.671761703491210938e+01 6.657114718109369278e-03 -1.019784361124038696e-01 -2.859639562666416168e-02 -2.125188149511814117e-02
2.517000000000000000e+03 5.234468936920166016e+00 1.812732505798339844e+01 -7.851947884773835540e-05 -9.908580034971237183e-02 -2.974929474294185638e-02 -2.127845212817192078e-02
2.518000000000000000e+03 3.975820302963256836e+00 1.698872375488281250e+01 1.847044797614216805e-03 -1.373497843742370605e-01 -4.065082222223281860e-02 -1.942912675440311432e-02
2.519000000000000000e+03 5.957822322845458984e+00 -2.538512229919433594e+01 2.038737945258617401e-02 -3.874394595623016357e-01 -1.101156249642372131e-01 -5.469774827361106873e-02
2.520000000000000000e+03 4.969638347625732422e+00 1.534593105316162109e+01 9.344400838017463684e-03 -1.076200082898139954e-01 -2.948268130421638489e-02 -1.689143665134906769e-02
2.521000000000000000e+03 3.871955633163452148e+00 1.560627651214599609e+01 7.636526599526405334e-03 -1.421338170766830444e-01 -4.034918546676635742e-02 -1.760359480977058411e-02
2.522000000000000000e+03 6.648122310638427734e+00 -2.813214492797851562e+01 2.236699499189853668e-02 -3.715910911560058594e-01 -1.047672256827354431e-01 -4.812493920326232910e-02
2.523000000000000000e+03 5.242318153381347656e+00 2.673478126525878906e+01 -6.470177788287401199e-03 -9.561523050069808960e-02 -3.062562271952629089e-02 -1.552379596978425980e-02
2.524000000000000000e+03 4.878336429595947266e+00 -1.159357643127441406e+01 3.141482546925544739e-02 -2.611973583698272705e-01 -6.893476098775863647e-02 -1.566963195800781250e-01
2.525000000000000000e+03 5.394430637359619141e+00 2.100920104980468750e+01 -4.443977959454059601e-03 -9.443006664514541626e-02 -2.966221421957015991e-02 -2.094793133437633514e-02
2.526000000000000000e+03 1.181949138641357422e+01 -3.231842041015625000e+01 4.916908219456672668e-02 -1.613774150609970093e-01 -3.366249799728393555e-02 -6.374827772378921509e-02
2.527000000000000000e+03 7.737730026245117188e+00 -3.382553100585937500e+01 1.937700249254703522e-02 -3.644527494907379150e-01 -1.035227179527282715e-01 -2.848742157220840454e-02
2.528000000000000000e+03 5.968563556671142578e+00 -2.115155410766601562e+01 2.039041556417942047e-02 -3.525292575359344482e-01 -9.964165836572647095e-02 -7.316577434539794922e-02
2.529000000000000000e+03 5.858376979827880859e+00 -1.972225189208984375e+01 3.670625761151313782e-02 -3.432655036449432373e-01 -9.196777641773223877e-02 -8.758088946342468262e-02
2.530000000000000000e+03 3.918450546264648438e+01 -1.456989860534667969e+01 -1.316907256841659546e-01 1.517474412918090820e+00 4.157350957393646240e-01 -1.682104021310806274e-01
2.531000000000000000e+03 5.787704944610595703e+00 -2.881921005249023438e+01 4.985382780432701111e-03 -4.243895113468170166e-01 -1.258212327957153320e-01 -3.660330921411514282e-02
2.532000000000000000e+03 5.653790950775146484e+00 -2.787163543701171875e+01 2.003920450806617737e-02 -4.216444790363311768e-01 -1.204815804958343506e-01 -4.164282605051994324e-02
2.533000000000000000e+03 5.300138950347900391e+00 2.774386024475097656e+01 -2.191686071455478668e-03 -9.580779075622558594e-02 -2.939984388649463654e-02 -1.444232370704412460e-02
2.534000000000000000e+03 3.401431798934936523e+00 1.030726051330566406e+01 2.860728092491626740e-02 -1.621325165033340454e-01 -4.005756974220275879e-02 2.174642682075500488e-02
2.535000000000000000e+03 4.406746387481689453e+00 1.010887145996093750e+01 4.277141392230987549e-02 -1.366450041532516479e-01 -2.816207706928253174e-02 2.526479586958885193e-02
2.536000000000000000e+03 5.282056331634521484e+00 -1.419417285919189453e+01 4.187055304646492004e-02 -2.981773614883422852e-01 -7.689204066991806030e-02 -1.354700177907943726e-01
2.537000000000000000e+03 4.078337192535400391e+00 -1.441240119934082031e+01 1.854882016777992249e-02 -3.346142172813415527e-01 -9.481962025165557861e-02 -1.106282472610473633e-01
2.538000000000000000e+03 7.166737365722656250e+01 3.259793853759765625e+01 5.304144024848937988e-01 6.990688800811767578e+00 2.256330966949462891e+00 -1.108812928199768066e+00
2.539000000000000000e+03 4.200717449188232422e+00 8.927201271057128906e+00 4.996840283274650574e-02 -1.421695202589035034e-01 -2.766033448278903961e-02 4.379680752754211426e-02
2.540000000000000000e+03 4.295155525207519531e+00 -6.889644145965576172e+00 -2.052862569689750671e-02 -1.456788778305053711e-01 -4.986225068569183350e-02 -1.536488384008407593e-01
2.541000000000000000e+03 4.383463382720947266e+00 -7.990709781646728516e+00 -1.241973601281642914e-02 -1.765224784612655640e-01 -5.668266490101814270e-02 -1.618059426546096802e-01
2.542000000000000000e+03 5.307199954986572266e+00 -7.899106979370117188e+00 -8.432572707533836365e-03 -1.709975153207778931e-01 -5.382902547717094421e-02 -1.868990659713745117e-01
2.543000000000000000e+03 6.029010295867919922e+00 3.515472793579101562e+01 -9.655156172811985016e-04 -8.246420323848724365e-02 -2.502891607582569122e-02 -5.346638150513172150e-03
2.544000000000000000e+03 3.753459930419921875e+01 -1.204879093170166016e+01 -1.188148409128189087e-01 1.140571475028991699e+00 3.065269887447357178e-01 -9.386502206325531006e-02
2.545000000000000000e+03 3.653493881225585938e+01 -1.106372165679931641e+01 -1.062107309699058533e-01 9.050396680831909180e-01 2.396486848592758179e-01 -6.280090659856796265e-02
2.546000000000000000e+03 4.664202499389648438e+01 4.021497344970703125e+01 2.454837262630462646e-01 4.427442327141761780e-02 8.692744374275207520e-02 2.307017296552658081e-01
2.547000000000000000e+03 3.108472251892089844e+01 -5.582350254058837891e+00 -8.405093848705291748e-02 3.456405550241470337e-02 -1.484606601297855377e-02 7.016646862030029297e-02
2.548000000000000000e+03 1.828382301330566406e+01 -1.493115997314453125e+01 1.306365728378295898e-01 2.874428033828735352e-01 1.254238039255142212e-01 -1.659909039735794067e-01
2.549000000000000000e+03 1.591162967681884766e+01 -1.655477905273437500e+01 1.082321554422378540e-01 1.182579249143600464e-01 6.794702261686325073e-02 -1.379767209291458130e-01
2.550000000000000000e+03 2.480325317382812500e+01 -2.940827560424804688e+01 1.386689841747283936e-01 3.266034722328186035e-01 1.395817250013351440e-01 -1.735456883907318115e-01
2.551000000000000000e+03 2.566105651855468750e+01 -2.840307235717773438e+01 9.727772325277328491e-02 3.999617099761962891e-01 1.491718292236328125e-01 -2.225475162267684937e-01
2.552000000000000000e+03 1.540082359313964844e+01 -1.237516498565673828e+01 1.541087925434112549e-01 1.003952622413635254e-01 7.635121792554855347e-02 -1.409325897693634033e-01
2.553000000000000000e+03 1.690678596496582031e+01 -1.153513622283935547e+01 1.554942429065704346e-01 2.282388061285018921e-01 1.151199191808700562e-01 -1.394055485725402832e-01
2.554000000000000000e+03 1.565355968475341797e+01 -1.015347957611083984e+01 1.743909716606140137e-01 9.509123116731643677e-02 8.084466308355331421e-02 -1.348964869976043701e-01
2.555000000000000000e+03 2.843290519714355469e+01 -3.588670349121093750e+01 2.080103754997253418e-01 3.502121567726135254e-01 1.674667596817016602e-01 -1.810433119535446167e-01
2.556000000000000000e+03 2.622787857055664062e+01 -3.094222259521484375e+01 1.206803768873214722e-01 3.683248162269592285e-01 1.467015594244003296e-01 -1.778941154479980469e-01
2.557000000000000000e+03 3.046878814697265625e+01 -3.486400365829467773e+00 -6.355984508991241455e-02 7.553856121376156807e-04 -1.884133741259574890e-02 5.499257519841194153e-02
2.558000000000000000e+03 1.655662155151367188e+01 -1.281387329101562500e+01 1.494298130273818970e-01 1.927344948053359985e-01 1.026492938399314880e-01 -1.363267898559570312e-01
2.559000000000000000e+03 2.891084480285644531e+01 -1.762948870658874512e+00 -1.298884600400924683e-01 -9.833802282810211182e-02 -6.846794486045837402e-02 4.114330932497978210e-02
2.560000000000000000e+03 5.369903945922851562e+01 3.254147720336914062e+01 3.123397111892700195e+00 5.390709877014160156e+00 2.554232120513916016e+00 4.745829105377197266e+00
2.561000000000000000e+03 2.867407608032226562e+01 3.943342685699462891e+00 -2.796671688556671143e-01 -1.731256693601608276e-01 -1.358378529548645020e-01 -2.109184563159942627e-01
2.562000000000000000e+03 2.772890663146972656e+01 3.826078653335571289e+00 -3.111018836498260498e-01 -2.302654087543487549e-01 -1.624101847410202026e-01 -2.376218140125274658e-01
2.563000000000000000e+03 2.734886169433593750e+01 2.902283191680908203e+00 -2.885101735591888428e-01 -2.120511978864669800e-01 -1.501684188842773438e-01 -2.070644348859786987e-01
2.564000000000000000e+03 2.742440605163574219e+01 3.806978464126586914e+00 -3.247584104537963867e-01 -2.469910234212875366e-01 -1.715248227119445801e-01 -2.548367381095886230e-01
2.565000000000000000e+03 2.656572914123535156e+01 2.847974300384521484e+00 -3.368320763111114502e-01 -2.254320383071899414e-01 -1.686792373657226562e-01 -2.433602958917617798e-01
2.566000000000000000e+03 2.684597778320312500e+01 2.571724414825439453e+00 -3.188371658325195312e-01 -2.079630941152572632e-01 -1.580400764942169189e-01 -2.039249092340469360e-01
2.567000000000000000e+03 5.515039825439453125e+01 3.279384613037109375e+01 2.146009206771850586e+00 1.255469799041748047e+01 4.410212039947509766e+00 5.768001556396484375e+00
2.568000000000000000e+03 2.528969764709472656e+01 1.908533215522766113e+00 -4.198596179485321045e-01 -1.987686008214950562e-01 -1.855884641408920288e-01 -2.154377400875091553e-01
2.569000000000000000e+03 2.491554069519042969e+01 -9.808964282274246216e-02 -4.674397408962249756e-01 -1.465689539909362793e-01 -1.842025965452194214e-01 -2.808505669236183167e-02
2.570000000000000000e+03 2.472945022583007812e+01 2.191636323928833008e+00 -4.569798409938812256e-01 -1.990378499031066895e-01 -1.968053132295608521e-01 -2.586535513401031494e-01
2.571000000000000000e+03 2.620124626159667969e+01 2.255688667297363281e+00 -3.462015092372894287e-01 -2.083653509616851807e-01 -1.663700640201568604e-01 -2.195142507553100586e-01
2.572000000000000000e+03 2.797348022460937500e+01 3.952167272567749023e+00 -3.075599968433380127e-01 -2.226182073354721069e-01 -1.590534597635269165e-01 -2.329634577035903931e-01
2.573000000000000000e+03 5.372827529907226562e+01 3.220596694946289062e+01 2.841272115707397461e+00 5.907920360565185547e+00 2.624757766723632812e+00 4.742757320404052734e+00
2.574000000000000000e+03 5.361230087280273438e+01 3.284605407714843750e+01 3.351024627685546875e+00 4.592680931091308594e+00 2.383111715316772461e+00 4.563403129577636719e+00
2.575000000000000000e+03 5.737038040161132812e+01 3.285869979858398438e+01 2.599717140197753906e+00 1.602068710327148438e+01 5.586121082305908203e+00 -3.640978336334228516e-01
2.576000000000000000e+03 5.823542022705078125e+01 3.543737030029296875e+01 7.168702602386474609e+00 1.430169582366943359e+01 6.441119194030761719e+00 1.757540225982666016e+00
2.577000000000000000e+03 5.675279617309570312e+01 3.307111740112304688e+01 2.345334291458129883e+00 1.770246505737304688e+01 6.014339923858642578e+00 6.154024600982666016e-01
2.578000000000000000e+03 5.781595230102539062e+01 3.420969009399414062e+01 6.893034934997558594e+00 1.543561363220214844e+01 6.698594570159912109e+00 -9.579772949218750000e-01
2.579000000000000000e+03 5.628936004638671875e+01 3.264448547363281250e+01 1.257125973701477051e+00 1.642390823364257812e+01 5.304309844970703125e+00 2.471022605895996094e+00
2.580000000000000000e+03 5.758790206909179688e+01 3.735653305053710938e+01 1.333875775337219238e+00 1.684928131103515625e+01 5.454947471618652344e+00 2.279751300811767578e+00
2.581000000000000000e+03 5.773488998413085938e+01 3.578268051147460938e+01 7.050884723663330078e+00 1.584621620178222656e+01 6.869130134582519531e+00 2.666778087615966797e+00
2.582000000000000000e+03 2.335111236572265625e+01 8.164066076278686523e-01 -6.554930806159973145e-01 -1.339212059974670410e-01 -2.368242889642715454e-01 -1.941722631454467773e-01
2.583000000000000000e+03 2.306952476501464844e+01 9.127384424209594727e-01 -6.972104907035827637e-01 -1.485300213098526001e-01 -2.537221610546112061e-01 -2.511367499828338623e-01
2.584000000000000000e+03 1.891012954711914062e+01 1.178910541534423828e+01 1.232148036360740662e-01 1.980264484882354736e-01 9.637237340211868286e-02 1.558316051959991455e-01
2.585000000000000000e+03 1.822616767883300781e+01 1.087473392486572266e+01 1.280288696289062500e-01 2.170908898115158081e-01 1.035359278321266174e-01 1.651880741119384766e-01
2.586000000000000000e+03 1.819661331176757812e+01 1.007621192932128906e+01 1.460421085357666016e-01 2.252670228481292725e-01 1.113927364349365234e-01 1.765990853309631348e-01
2.587000000000000000e+03 4.088470077514648438e+01 1.989706039428710938e+01 -1.547549851238727570e-02 4.689119756221771240e-01 1.360309422016143799e-01 1.970853060483932495e-01
2.588000000000000000e+03 4.025617980957031250e+01 1.954765701293945312e+01 -5.199447274208068848e-02 3.344419896602630615e-01 8.473425358533859253e-02 1.121660396456718445e-01
2.589000000000000000e+03 1.583729648590087891e+01 8.662358283996582031e+00 1.269211322069168091e-01 2.981255352497100830e-01 1.275140047073364258e-01 1.793871819972991943e-01
2.590000000000000000e+03 4.186176681518554688e+01 2.068202400207519531e+01 4.723560810089111328e-02 6.371703147888183594e-01 2.053217738866806030e-01 3.213448524475097656e-01
2.591000000000000000e+03 1.407079219818115234e+01 6.268809795379638672e+00 1.119017302989959717e-01 5.287211537361145020e-01 1.921868622303009033e-01 1.755428761243820190e-01
2.592000000000000000e+03 1.436839771270751953e+01 5.938640117645263672e+00 1.405345946550369263e-01 5.460373759269714355e-01 2.059715837240219116e-01 2.311556488275527954e-01
2.593000000000000000e+03 3.268354034423828125e+01 2.540592193603515625e+01 6.468833237886428833e-02 1.018015891313552856e-01 4.994697868824005127e-02 8.319926261901855469e-02
2.594000000000000000e+03 4.243545150756835938e+01 2.133032226562500000e+01 1.026528030633926392e-01 7.134805321693420410e-01 2.448399960994720459e-01 3.964800536632537842e-01
2.595000000000000000e+03 2.439638137817382812e+01 1.615028572082519531e+01 1.144667193293571472e-01 1.417864114046096802e-01 7.687593996524810791e-02 1.300200223922729492e-01
2.596000000000000000e+03 2.381797027587890625e+01 1.679638862609863281e+01 1.011919751763343811e-01 1.447338759899139404e-01 7.377775013446807861e-02 1.223765015602111816e-01
2.597000000000000000e+03 2.409908676147460938e+01 1.646851730346679688e+01 1.077547743916511536e-01 1.424702554941177368e-01 7.506751269102096558e-02 1.277090162038803101e-01
2.598000000000000000e+03 3.590206527709960938e+01 2.829893112182617188e+01 7.356171309947967529e-02 9.765639901161193848e-02 5.136543512344360352e-02 7.493907958269119263e-02
2.599000000000000000e+03 3.514112091064453125e+01 2.783504295349121094e+01 7.121440768241882324e-02 9.812655299901962280e-02 5.080228671431541443e-02 7.678559422492980957e-02
2.600000000000000000e+03 3.881103134155273438e+01 1.787354660034179688e+01 -1.687033325433731079e-01 1.860840022563934326e-01 5.214201752096414566e-03 -1.894541643559932709e-02
2.601000000000000000e+03 3.985786437988281250e+01 1.846938705444335938e+01 -1.065256372094154358e-01 3.815755546092987061e-01 8.251497149467468262e-02 9.704923629760742188e-02
2.602000000000000000e+03 4.699068450927734375e+01 2.500710678100585938e+01 6.062589287757873535e-01 1.921732068061828613e+00 7.583972811698913574e-01 1.229088783264160156e+00
2.603000000000000000e+03 1.569635772705078125e+01 7.596776962280273438e+00 1.513879597187042236e-01 3.360384404659271240e-01 1.462279260158538818e-01 2.083029597997665405e-01
2.604000000000000000e+03 3.574466323852539062e+01 1.374191856384277344e+01 -3.678618967533111572e-01 -2.677587419748306274e-02 -1.183913275599479675e-01 -2.106250524520874023e-01
2.605000000000000000e+03 4.677281570434570312e+01 2.526650810241699219e+01 6.445957422256469727e-01 1.739839434623718262e+00 7.153305411338806152e-01 1.175201892852783203e+00
2.606000000000000000e+03 1.748402976989746094e+01 9.589391708374023438e+00 1.475406885147094727e-01 2.419847100973129272e-01 1.168576180934906006e-01 1.791989803314208984e-01
2.607000000000000000e+03 1.655608177185058594e+01 8.641081809997558594e+00 1.498788893222808838e-01 2.740730345249176025e-01 1.271855682134628296e-01 1.969683319330215454e-01
2.608000000000000000e+03 4.729817199707031250e+01 2.578977775573730469e+01 7.309013009071350098e-01 1.899947166442871094e+00 7.892545461654663086e-01 1.304786086082458496e+00
2.609000000000000000e+03 2.443790245056152344e+01 1.727574729919433594e+01 1.014923900365829468e-01 1.393856853246688843e-01 7.226342707872390747e-02 1.192974895238876343e-01
2.610000000000000000e+03 2.413340950012207031e+01 1.703306770324707031e+01 1.015302538871765137e-01 1.407067775726318359e-01 7.267110794782638550e-02 1.223960444331169128e-01
2.611000000000000000e+03 3.394563293457031250e+01 2.662720680236816406e+01 6.709264963865280151e-02 9.544879943132400513e-02 4.876243695616722107e-02 8.161574602127075195e-02
2.612000000000000000e+03 2.129985809326171875e+01 1.316036128997802734e+01 1.324605941772460938e-01 1.735321879386901855e-01 9.179783612489700317e-02 1.498665660619735718e-01
2.613000000000000000e+03 3.367388916015625000e+01 2.635932540893554688e+01 6.737528741359710693e-02 1.023496389389038086e-01 5.091748014092445374e-02 8.089617639780044556e-02
2.614000000000000000e+03 2.395757293701171875e+01 1.395982623100280762e+00 -5.447216033935546875e-01 -1.704506427049636841e-01 -2.145516723394393921e-01 -2.230945080518722534e-01
2.615000000000000000e+03 2.130600547790527344e+01 1.366732788085937500e+01 1.248429417610168457e-01 1.711006313562393188e-01 8.878307044506072998e-02 1.429629921913146973e-01
2.616000000000000000e+03 3.086306762695312500e+01 2.296510124206542969e+01 7.411509752273559570e-02 1.033776998519897461e-01 5.324783921241760254e-02 9.243214875459671021e-02
2.617000000000000000e+03 2.891648101806640625e+01 2.184173202514648438e+01 7.438077777624130249e-02 1.132379844784736633e-01 5.628562718629837036e-02 9.494026750326156616e-02
2.618000000000000000e+03 4.756205749511718750e+01 2.604921340942382812e+01 7.775794863700866699e-01 1.987812757492065430e+00 8.296176791191101074e-01 1.371942281723022461e+00
2.619000000000000000e+03 4.818470382690429688e+01 2.711126708984375000e+01 9.972341060638427734e-01 2.087306499481201172e+00 9.253621697425842285e-01 1.531773686408996582e+00
2.620000000000000000e+03 4.352866363525390625e+01 2.252179336547851562e+01 2.262947112321853638e-01 8.888058066368103027e-01 3.345301747322082520e-01 5.489172339439392090e-01
2.621000000000000000e+03 4.406894302368164062e+01 2.255236625671386719e+01 2.487612813711166382e-01 1.098521351814270020e+00 4.041847884654998779e-01 6.514931917190551758e-01
2.622000000000000000e+03 4.271139144897460938e+01 2.164254951477050781e+01 1.321654915809631348e-01 7.529879808425903320e-01 2.655460238456726074e-01 4.323669672012329102e-01
2.623000000000000000e+03 3.627487182617187500e+01 1.434175777435302734e+01 -3.357359468936920166e-01 1.545613724738359451e-02 -9.608393907546997070e-02 -1.818930953741073608e-01
2.624000000000000000e+03 3.545082092285156250e+01 1.397541522979736328e+01 -3.887660503387451172e-01 -1.164504066109657288e-01 -1.515649408102035522e-01 -2.588854134082794189e-01
2.625000000000000000e+03 4.776412963867187500e+01 2.577775573730468750e+01 7.287765145301818848e-01 2.181359767913818359e+00 8.730408549308776855e-01 1.423117518424987793e+00
2.626000000000000000e+03 3.197927284240722656e+01 9.405095100402832031e+00 -5.716201663017272949e-01 -1.734611541032791138e-01 -2.235243916511535645e-01 -2.365865558385848999e-01
2.627000000000000000e+03 4.574897766113281250e+01 2.473167991638183594e+01 5.506401658058166504e-01 1.362178325653076172e+00 5.738455653190612793e-01 9.321147799491882324e-01
2.628000000000000000e+03 4.650986099243164062e+01 2.500353431701660156e+01 6.036592125892639160e-01 1.666193604469299316e+00 6.809558272361755371e-01 1.112399935722351074e+00
2.629000000000000000e+03 4.434273147583007812e+01 2.283069419860839844e+01 2.826675474643707275e-01 1.157659411430358887e+00 4.320980906486511230e-01 6.943986415863037109e-01
2.630000000000000000e+03 3.460971832275390625e+01 1.297976493835449219e+01 -4.345370531082153320e-01 -1.699076890945434570e-01 -1.813334226608276367e-01 -2.992015480995178223e-01
2.631000000000000000e+03 3.547170257568359375e+01 1.343692302703857422e+01 -3.884646892547607422e-01 -4.670792445540428162e-02 -1.305517852306365967e-01 -2.249908447265625000e-01
2.632000000000000000e+03 5.016678237915039062e+01 2.895474624633789062e+01 1.515648603439331055e+00 2.985278844833374023e+00 1.350278139114379883e+00 2.177084445953369141e+00
2.633000000000000000e+03 2.022753906250000000e+01 1.216680049896240234e+01 1.349774748086929321e-01 1.851471066474914551e-01 9.603737294673919678e-02 1.565669924020767212e-01
2.634000000000000000e+03 4.875212097167968750e+01 2.763846969604492188e+01 1.134021162986755371e+00 2.321903467178344727e+00 1.036777377128601074e+00 1.696397662162780762e+00
2.635000000000000000e+03 4.846719360351562500e+01 2.737445449829101562e+01 1.064109921455383301e+00 2.201778888702392578e+00 9.797666072845458984e-01 1.612191796302795410e+00
2.636000000000000000e+03 2.840155982971191406e+01 2.050448989868164062e+01 8.938103914260864258e-02 1.150814890861511230e-01 6.133875995874404907e-02 1.019282117486000061e-01
2.637000000000000000e+03 3.652895736694335938e+01 1.464635944366455078e+01 -3.231183886528015137e-01 3.569511324167251587e-02 -8.622697740793228149e-02 -1.646522581577301025e-01
2.638000000000000000e+03 4.353257751464843750e+01 2.198608970642089844e+01 1.861785054206848145e-01 9.924489855766296387e-01 3.535882532596588135e-01 5.699453353881835938e-01
2.639000000000000000e+03 2.206142234802246094e+01 1.392954921722412109e+01 1.298934370279312134e-01 1.658169627189636230e-01 8.871312439441680908e-02 1.433830559253692627e-01
2.640000000000000000e+03 2.079437065124511719e+01 1.317786502838134766e+01 1.254515647888183594e-01 1.764378398656845093e-01 9.056682139635086060e-02 1.470597088336944580e-01
2.641000000000000000e+03 2.749951553344726562e+01 2.030815887451171875e+01 8.426109701395034790e-02 1.191408485174179077e-01 6.102058291435241699e-02 1.038190945982933044e-01
2.642000000000000000e+03 2.783399391174316406e+01 2.000530624389648438e+01 9.222231805324554443e-02 1.190781816840171814e-01 6.339015066623687744e-02 1.048492267727851868e-01
2.643000000000000000e+03 2.725309371948242188e+01 1.995969963073730469e+01 8.898803591728210449e-02 1.231281086802482605e-01 6.363484263420104980e-02 1.038320064544677734e-01
2.644000000000000000e+03 2.375862693786621094e+01 1.621727180480957031e+01 1.076549217104911804e-01 1.474170088768005371e-01 7.652157545089721680e-02 1.276220977306365967e-01
2.645000000000000000e+03 2.292483139038085938e+01 1.507974147796630859e+01 1.173530071973800659e-01 1.585234254598617554e-01 8.276292681694030762e-02 1.347504854202270508e-01
2.646000000000000000e+03 3.855324172973632812e+01 1.758102416992187500e+01 -1.889348477125167847e-01 1.567340046167373657e-01 -9.660250507295131683e-03 -3.909492492675781250e-02
2.647000000000000000e+03 3.842685699462890625e+01 3.245766067504882812e+01 6.585884094238281250e-02 8.527383208274841309e-02 4.533980414271354675e-02 6.949719786643981934e-02
2.648000000000000000e+03 3.907204055786132812e+01 3.249101638793945312e+01 8.230663090944290161e-02 6.998524814844131470e-02 4.568756371736526489e-02 7.037046551704406738e-02
2.649000000000000000e+03 1.621872329711914062e+01 8.934126853942871094e+00 1.318751275539398193e-01 2.847938537597656250e-01 1.250006854534149170e-01 1.815467774868011475e-01
2.650000000000000000e+03 3.620914077758789062e+01 2.847970008850097656e+01 7.330892235040664673e-02 9.117206186056137085e-02 4.934429377317428589e-02 8.293161541223526001e-02
2.651000000000000000e+03 3.553602981567382812e+01 2.808670806884765625e+01 7.169245183467864990e-02 9.253527224063873291e-02 4.926831647753715515e-02 8.233977854251861572e-02
2.652000000000000000e+03 1.919351959228515625e+01 1.185543632507324219e+01 1.261486411094665527e-01 1.959820240736007690e-01 9.663920104503631592e-02 1.571942716836929321e-01
2.653000000000000000e+03 2.701486015319824219e+01 1.912298965454101562e+01 9.605658054351806641e-02 1.248037219047546387e-01 6.625808775424957275e-02 1.109082028269767761e-01
2.654000000000000000e+03 2.617538833618164062e+01 1.829280662536621094e+01 1.029897257685661316e-01 1.312840729951858521e-01 7.028213888406753540e-02 1.129998341202735901e-01
2.655000000000000000e+03 4.810120391845703125e+01 2.656591796875000000e+01 8.788598775863647461e-01 2.188808679580688477e+00 9.203006029129028320e-01 1.513669013977050781e+00
2.656000000000000000e+03 4.960729217529296875e+01 2.843167304992675781e+01 1.360715508460998535e+00 2.708434581756591797e+00 1.220745086669921875e+00 1.973025679588317871e+00
2.657000000000000000e+03 4.461831665039062500e+01 2.310748863220214844e+01 3.185603320598602295e-01 1.219181299209594727e+00 4.613225162029266357e-01 7.393228411674499512e-01
2.658000000000000000e+03 3.677973556518554688e+01 1.495475959777832031e+01 -3.044002652168273926e-01 5.553850531578063965e-02 -7.465852797031402588e-02 -1.499949842691421509e-01
2.659000000000000000e+03 5.044428634643554688e+01 2.921194648742675781e+01 1.592295646667480469e+00 3.134002208709716797e+00 1.417889356613159180e+00 2.284984827041625977e+00
2.660000000000000000e+03 5.117036437988281250e+01 2.939229011535644531e+01 1.628785014152526855e+00 3.750050544738769531e+00 1.613650679588317871e+00 2.569559812545776367e+00
2.661000000000000000e+03 3.702986907958984375e+01 1.526397418975830078e+01 -2.926839292049407959e-01 7.619073987007141113e-02 -6.494796276092529297e-02 -1.318659782409667969e-01
2.662000000000000000e+03 3.728089904785156250e+01 1.557017421722412109e+01 -2.754924893379211426e-01 9.781202673912048340e-02 -5.330413952469825745e-02 -1.147024556994438171e-01
2.663000000000000000e+03 3.753354644775390625e+01 1.587159824371337891e+01 -2.632725536823272705e-01 1.200371906161308289e-01 -4.297061264514923096e-02 -9.467382729053497314e-02
2.664000000000000000e+03 5.144246292114257812e+01 2.962177658081054688e+01 1.701881408691406250e+00 3.939000606536865234e+00 1.692264556884765625e+00 2.694773197174072266e+00
2.665000000000000000e+03 4.011239242553710938e+01 3.334112930297851562e+01 7.434007525444030762e-02 8.395162224769592285e-02 4.748750850558280945e-02 7.257055491209030151e-02
2.666000000000000000e+03 3.601376342773437500e+01 1.404100322723388672e+01 -3.554712235927581787e-01 -6.506151519715785980e-03 -1.085932105779647827e-01 -1.952810287475585938e-01
2.667000000000000000e+03 2.387319946289062500e+01 1.789368820190429688e+01 8.848654478788375854e-02 1.408469527959823608e-01 6.880004703998565674e-02 1.119712889194488525e-01
2.668000000000000000e+03 3.346258544921875000e+01 1.076251697540283203e+01 -5.041845440864562988e-01 -1.172233074903488159e-01 -1.864223629236221313e-01 -2.574657797813415527e-01
2.669000000000000000e+03 3.338500976562500000e+01 1.145258235931396484e+01 -5.333070755004882812e-01 -2.086733430624008179e-01 -2.225941270589828491e-01 -3.348594605922698975e-01
2.670000000000000000e+03 4.151290512084960938e+01 1.967055892944335938e+01 -3.344029188156127930e-03 6.952698230743408203e-01 2.075777351856231689e-01 3.052181005477905273e-01
2.671000000000000000e+03 4.547700500488281250e+01 2.446069526672363281e+01 5.065837502479553223e-01 1.303003311157226562e+00 5.428761243820190430e-01 8.758158087730407715e-01
2.672000000000000000e+03 4.489426803588867188e+01 2.338312721252441406e+01 3.564603328704833984e-01 1.281782746315002441e+00 4.914728999137878418e-01 7.850856184959411621e-01
2.673000000000000000e+03 2.647187042236328125e+01 1.802418899536132812e+01 1.080628111958503723e-01 1.298491656780242920e-01 7.137359678745269775e-02 1.172430291771888733e-01
2.674000000000000000e+03 2.645643424987792969e+01 1.856619453430175781e+01 1.000770106911659241e-01 1.286341995000839233e-01 6.861336529254913330e-02 1.132867559790611267e-01
2.675000000000000000e+03 3.829511260986328125e+01 1.728694343566894531e+01 -2.056619375944137573e-01 1.285452991724014282e-01 -2.313499338924884796e-02 -6.029722839593887329e-02
2.676000000000000000e+03 3.314725875854492188e+01 2.645473098754882812e+01 6.269390881061553955e-02 1.012294068932533264e-01 4.917699471116065979e-02 8.029466122388839722e-02
2.677000000000000000e+03 4.988808059692382812e+01 2.869425964355468750e+01 1.438285470008850098e+00 2.843950748443603516e+00 1.284670829772949219e+00 2.073542833328247070e+00
2.678000000000000000e+03 4.326898193359375000e+01 2.169173812866210938e+01 1.572957187891006470e-01 9.466277360916137695e-01 3.311770260334014893e-01 5.319209098815917969e-01
2.679000000000000000e+03 4.932382583618164062e+01 2.816778755187988281e+01 1.283538818359375000e+00 2.575831890106201172e+00 1.157811164855957031e+00 1.876896858215332031e+00
2.680000000000000000e+03 2.229870605468750000e+01 1.420847797393798828e+01 1.284030973911285400e-01 1.646893471479415894e-01 8.792773634195327759e-02 1.396270543336868286e-01
2.681000000000000000e+03 2.180822372436523438e+01 1.414518833160400391e+01 1.234931722283363342e-01 1.669253259897232056e-01 8.712554723024368286e-02 1.389454305171966553e-01
2.682000000000000000e+03 4.903823089599609375e+01 2.790313911437988281e+01 1.207809209823608398e+00 2.447472810745239258e+00 1.096584558486938477e+00 1.784671902656555176e+00
2.683000000000000000e+03 3.204930877685546875e+01 2.403105545043945312e+01 7.151715457439422607e-02 9.968096762895584106e-02 5.135943740606307983e-02 8.624396473169326782e-02
2.684000000000000000e+03 4.865864944458007812e+01 2.708421325683593750e+01 9.940189719200134277e-01 2.421935319900512695e+00 1.024786233901977539e+00 1.669708132743835449e+00
2.685000000000000000e+03 2.560621261596679688e+01 1.775450325012207031e+01 1.059647127985954285e-01 1.337642967700958252e-01 7.191870361566543579e-02 1.163127496838569641e-01
2.686000000000000000e+03 3.778787612915039062e+01 1.616859817504882812e+01 -2.461400479078292847e-01 1.450260430574417114e-01 -3.033419884741306305e-02 -7.644272595643997192e-02
2.687000000000000000e+03 2.053797912597656250e+01 1.293272686004638672e+01 1.255721449851989746e-01 1.780792623758316040e-01 9.109542518854141235e-02 1.496791243553161621e-01
2.688000000000000000e+03 1.972883224487304688e+01 1.224486446380615234e+01 1.272293180227279663e-01 1.886886358261108398e-01 9.477538615465164185e-02 1.539468616247177124e-01
2.689000000000000000e+03 2.251732826232910156e+01 1.450096607208251953e+01 1.240366175770759583e-01 1.619863510131835938e-01 8.580689132213592529e-02 1.381276249885559082e-01
2.690000000000000000e+03 5.171530914306640625e+01 2.983178329467773438e+01 1.773183465003967285e+00 4.139595985412597656e+00 1.773833751678466797e+00 2.827543497085571289e+00
2.691000000000000000e+03 3.150736045837402344e+01 2.348374366760253906e+01 7.194942981004714966e-02 1.006818786263465881e-01 5.178939551115036011e-02 8.878270536661148071e-02
2.692000000000000000e+03 4.302535629272460938e+01 3.559283065795898438e+01 7.666762173175811768e-02 4.957086965441703796e-02 3.787154704332351685e-02 7.692893594503402710e-02
2.693000000000000000e+03 4.106227493286132812e+01 3.428429412841796875e+01 9.039808809757232666e-02 6.487092375755310059e-02 4.658070206642150879e-02 5.991414189338684082e-02
2.694000000000000000e+03 2.671164703369140625e+01 1.938913345336914062e+01 9.240998327732086182e-02 1.265944838523864746e-01 6.570133566856384277e-02 1.066858023405075073e-01
2.695000000000000000e+03 2.942571830749511719e+01 2.191140556335449219e+01 8.152285963296890259e-02 1.085760518908500671e-01 5.702967196702957153e-02 9.539298713207244873e-02
2.696000000000000000e+03 3.959180831909179688e+01 1.819128227233886719e+01 -1.259124577045440674e-01 3.502613604068756104e-01 6.730467081069946289e-02 7.254049926996231079e-02
2.697000000000000000e+03 3.804358291625976562e+01 1.646245765686035156e+01 -2.331347614526748657e-01 1.712806075811386108e-01 -1.855624839663505554e-02 -5.538546293973922729e-02
2.698000000000000000e+03 3.830019760131835938e+01 1.675434303283691406e+01 -2.153573632240295410e-01 1.995126605033874512e-01 -4.753407090902328491e-03 -3.602061793208122253e-02
2.699000000000000000e+03 3.179986763000488281e+01 8.953730583190917969e+00 -5.138500928878784180e-01 -1.692913174629211426e-01 -2.049424350261688232e-01 -1.581992059946060181e-01
2.700000000000000000e+03 4.247177886962890625e+01 2.072552680969238281e+01 7.428104430437088013e-02 8.307989239692687988e-01 2.715240120887756348e-01 4.270688891410827637e-01
2.701000000000000000e+03 4.379883575439453125e+01 2.227176094055175781e+01 2.168982326984405518e-01 1.043458938598632812e+00 3.781071603298187256e-01 6.096411347389221191e-01
2.702000000000000000e+03 3.907334518432617188e+01 1.762307357788085938e+01 -1.648744344711303711e-01 2.886576056480407715e-01 3.713494911789894104e-02 2.745999395847320557e-02
2.703000000000000000e+03 3.631792068481445312e+01 1.379841232299804688e+01 -3.384365141391754150e-01 9.024098515510559082e-02 -7.445865869522094727e-02 -1.485797613859176636e-01
2.704000000000000000e+03 3.046445083618164062e+01 5.096282482147216797e+00 -1.782803982496261597e-01 -2.281537838280200958e-02 -6.032873317599296570e-02 -2.636419534683227539e-01
2.705000000000000000e+03 3.401474761962890625e+01 1.181618690490722656e+01 -4.732575416564941406e-01 -1.399260163307189941e-01 -1.839550733566284180e-01 -2.924368679523468018e-01
2.706000000000000000e+03 3.628759765625000000e+01 2.935751152038574219e+01 6.813136488199234009e-02 8.890462666749954224e-02 4.711079597473144531e-02 8.021046966314315796e-02
2.707000000000000000e+03 1.556772708892822266e+01 8.019608497619628906e+00 1.347738802433013916e-01 3.257577717304229736e-01 1.381594985723495483e-01 1.902034580707550049e-01
2.708000000000000000e+03 2.531712341308593750e+01 1.749072456359863281e+01 1.066252440214157104e-01 1.336246132850646973e-01 7.207495719194412231e-02 1.197725981473922729e-01
2.709000000000000000e+03 2.338509368896484375e+01 1.596441745758056641e+01 1.078311353921890259e-01 1.503053009510040283e-01 7.744093239307403564e-02 1.293231844902038574e-01
2.710000000000000000e+03 3.469207000732421875e+01 2.762925910949707031e+01 7.113400101661682129e-02 9.424629062414169312e-02 4.961408674716949463e-02 8.229805529117584229e-02
2.711000000000000000e+03 4.516961669921875000e+01 2.365808677673339844e+01 3.963159918785095215e-01 1.344920396804809570e+00 5.223709344863891602e-01 8.334698677062988281e-01
2.712000000000000000e+03 4.544315338134765625e+01 2.393230628967285156e+01 4.373570978641510010e-01 1.407234191894531250e+00 5.533773899078369141e-01 8.836224079132080078e-01
2.713000000000000000e+03 5.198762130737304688e+01 3.001468467712402344e+01 1.839193582534790039e+00 4.369601726531982422e+00 1.862638473510742188e+00 2.976941823959350586e+00
2.714000000000000000e+03 3.223514938354492188e+01 2.519414329528808594e+01 6.918658316135406494e-02 9.849692881107330322e-02 5.030505359172821045e-02 8.538115769624710083e-02
2.715000000000000000e+03 3.231919097900390625e+01 2.454657554626464844e+01 6.778684258460998535e-02 9.764701128005981445e-02 4.963015764951705933e-02 8.639461547136306763e-02
2.716000000000000000e+03 2.132308006286621094e+01 1.415000152587890625e+01 1.169063523411750793e-01 1.688683480024337769e-01 8.573240786790847778e-02 1.370924711227416992e-01
2.717000000000000000e+03 3.581833267211914062e+01 2.961352539062500000e+01 7.742802053689956665e-02 9.395036846399307251e-02 5.141351744532585144e-02 7.007924467325210571e-02
2.718000000000000000e+03 2.265249061584472656e+01 1.530026149749755859e+01 1.106221973896026611e-01 1.588310152292251587e-01 8.083596825599670410e-02 1.298570930957794189e-01
2.719000000000000000e+03 2.239187240600585938e+01 1.502280139923095703e+01 1.128396093845367432e-01 1.602176874876022339e-01 8.191718906164169312e-02 1.322403997182846069e-01
2.720000000000000000e+03 2.027614784240722656e+01 1.269510555267333984e+01 1.262586563825607300e-01 1.824566721916198730e-01 9.261459857225418091e-02 1.503362208604812622e-01
2.721000000000000000e+03 2.000541114807128906e+01 1.246484184265136719e+01 1.265357583761215210e-01 1.841014325618743896e-01 9.319115430116653442e-02 1.529933661222457886e-01
2.722000000000000000e+03 4.624644088745117188e+01 2.473887634277343750e+01 5.622074604034423828e-01 1.598324179649353027e+00 6.481595039367675781e-01 1.052031755447387695e+00
2.723000000000000000e+03 3.334881973266601562e+01 2.612537956237792969e+01 6.955547630786895752e-02 9.616814553737640381e-02 4.971708729863166809e-02 8.316180855035781860e-02
2.724000000000000000e+03 3.448051834106445312e+01 2.712549209594726562e+01 6.764519214630126953e-02 9.692022204399108887e-02 4.936962574720382690e-02 8.100024610757827759e-02
2.725000000000000000e+03 3.440269088745117188e+01 1.230344200134277344e+01 -4.492907226085662842e-01 -1.239815503358840942e-01 -1.719816774129867554e-01 -2.822290360927581787e-01
2.726000000000000000e+03 3.319548034667968750e+01 1.038958072662353516e+01 -5.081942677497863770e-01 -1.224353089928627014e-01 -1.891888678073883057e-01 -2.448714077472686768e-01
2.727000000000000000e+03 5.283970260620117188e+01 3.109242820739746094e+01 2.270368576049804688e+00 4.911352157592773438e+00 2.154516220092773438e+00 3.610481977462768555e+00
2.728000000000000000e+03 5.255591964721679688e+01 3.054795074462890625e+01 1.998830795288085938e+00 4.864354133605957031e+00 2.058955430984497070e+00 3.332512140274047852e+00
2.729000000000000000e+03 3.232826232910156250e+01 8.816268920898437500e+00 -4.100257158279418945e-01 -1.165461167693138123e-01 -1.579715460538864136e-01 -1.360953003168106079e-01
2.730000000000000000e+03 3.609700775146484375e+01 2.907391548156738281e+01 7.457712292671203613e-02 9.756287187337875366e-02 5.164199694991111755e-02 7.166641950607299805e-02
2.731000000000000000e+03 3.607563781738281250e+01 2.875406646728515625e+01 6.934146583080291748e-02 9.350626915693283081e-02 4.885432124137878418e-02 7.855088263750076294e-02
2.732000000000000000e+03 1.780752372741699219e+01 1.084989356994628906e+01 1.206456497311592102e-01 2.241421490907669067e-01 1.034363433718681335e-01 1.609853655099868774e-01
2.733000000000000000e+03 3.280171966552734375e+01 1.061797237396240234e+01 -5.723453164100646973e-01 -2.022324502468109131e-01 -2.323733270168304443e-01 -3.148169517517089844e-01
2.734000000000000000e+03 3.010187721252441406e+01 5.040803432464599609e+00 -2.302737087011337280e-01 -3.239387646317481995e-02 -7.880027592182159424e-02 -2.687841355800628662e-01
2.735000000000000000e+03 5.225805282592773438e+01 3.015544509887695312e+01 1.880305528640747070e+00 4.624701023101806641e+00 1.951501965522766113e+00 3.128426074981689453e+00
2.736000000000000000e+03 5.294696807861328125e+01 3.063984870910644531e+01 1.987490534782409668e+00 5.402700424194335938e+00 2.217057228088378906e+00 3.586686849594116211e+00
2.737000000000000000e+03 1.704804039001464844e+01 9.545410156250000000e+00 1.410642266273498535e-01 2.479211688041687012e-01 1.166956201195716858e-01 1.759295016527175903e-01
2.738000000000000000e+03 5.312498092651367188e+01 3.164951515197753906e+01 2.578149795532226562e+00 4.935137748718261719e+00 2.253986358642578125e+00 3.960393667221069336e+00
2.739000000000000000e+03 1.377089500427246094e+01 5.964983463287353516e+00 1.048415303230285645e-01 5.968724489212036133e-01 2.105142027139663696e-01 1.337420195341110229e-01
2.740000000000000000e+03 1.782890892028808594e+01 1.044530868530273438e+01 1.302070766687393188e-01 2.279258072376251221e-01 1.074398681521415710e-01 1.675342768430709839e-01
2.741000000000000000e+03 1.744957733154296875e+01 1.041423320770263672e+01 1.242299154400825500e-01 2.340516000986099243e-01 1.074844524264335632e-01 1.641289591789245605e-01
2.742000000000000000e+03 1.473206996917724609e+01 7.557437419891357422e+00 1.157879456877708435e-01 3.794595003128051758e-01 1.485742330551147461e-01 1.712994426488876343e-01
2.743000000000000000e+03 2.365761947631835938e+01 1.318996071815490723e+00 -5.665132403373718262e-01 -1.520864516496658325e-01 -2.155799120664596558e-01 -2.304126173257827759e-01
2.744000000000000000e+03 2.391454505920410156e+01 9.974914789199829102e-01 -5.512899756431579590e-01 -1.504750549793243408e-01 -2.105295062065124512e-01 -2.024819701910018921e-01
2.745000000000000000e+03 1.469438934326171875e+01 6.870991706848144531e+00 1.335135996341705322e-01 4.220479726791381836e-01 1.666684746742248535e-01 1.988709270954132080e-01
2.746000000000000000e+03 1.235844039916992188e+01 4.165426731109619141e+00 3.823422491550445557e-01 5.495580434799194336e-01 2.795701026916503906e-01 -2.543883025646209717e-01
2.747000000000000000e+03 1.276696872711181641e+01 5.111161231994628906e+00 1.829205751419067383e-01 6.273570656776428223e-01 2.430832982063293457e-01 -1.030697524547576904e-01
2.748000000000000000e+03 2.275063514709472656e+01 -1.664414554834365845e-01 -7.935417294502258301e-01 -1.050765737891197205e-01 -2.695854902267456055e-01 -4.810919612646102905e-02
2.749000000000000000e+03 1.312747383117675781e+01 5.383057117462158203e+00 1.235719993710517883e-01 6.810144782066345215e-01 2.413759380578994751e-01 -1.613689586520195007e-02
2.750000000000000000e+03 1.003506088256835938e+01 4.365643501281738281e+00 3.167940676212310791e-01 -1.309152096509933472e-01 5.576365441083908081e-02 2.158550545573234558e-02
2.751000000000000000e+03 2.754186630249023438e+01 -1.334971666336059570e+00 -1.990767121315002441e-01 -1.426478475332260132e-01 -1.025173664093017578e-01 6.294756382703781128e-02
2.752000000000000000e+03 2.443174552917480469e+01 -3.553286492824554443e-01 -5.589174628257751465e-01 -1.232448145747184753e-01 -2.046486735343933105e-01 -1.223807875066995621e-02
2.753000000000000000e+03 2.499452400207519531e+01 2.058352470397949219e+00 -4.198007881641387939e-01 -1.944213360548019409e-01 -1.842666417360305786e-01 -2.404863238334655762e-01
2.754000000000000000e+03 5.586156082153320312e+01 4.064547729492187500e+01 -1.391443371772766113e+00 1.133862018585205078e+01 2.984153032302856445e+00 -3.845915794372558594e-01
2.755000000000000000e+03 3.625060272216796875e+01 3.052501678466796875e+01 7.598406821489334106e-02 9.222606569528579712e-02 5.046303942799568176e-02 6.727111339569091797e-02
2.756000000000000000e+03 3.270093917846679688e+01 6.326577186584472656e+00 -1.072825342416763306e-01 4.545008018612861633e-02 -1.854973658919334412e-02 -1.135885640978813171e-01
2.757000000000000000e+03 3.237581253051757812e+01 5.972527980804443359e+00 -9.759994596242904663e-02 2.238844707608222961e-02 -2.256345003843307495e-02 -1.443268507719039917e-01
2.758000000000000000e+03 3.923097229003906250e+01 3.182829093933105469e+01 7.432914525270462036e-02 8.710262179374694824e-02 4.842953011393547058e-02 7.091759890317916870e-02
2.759000000000000000e+03 1.437807178497314453e+01 6.569631099700927734e+00 1.251183897256851196e-01 4.788226485252380371e-01 1.811823099851608276e-01 1.883322596549987793e-01
2.760000000000000000e+03 1.156758499145507812e+01 3.597197771072387695e+00 5.108157396316528320e-01 1.049889624118804932e-01 1.847414076328277588e-01 -1.665244847536087036e-01
2.761000000000000000e+03 5.490332794189453125e+01 3.835699844360351562e+01 4.412861466407775879e-01 1.078006744384765625e+01 3.366406202316284180e+00 -2.807904720306396484e+00
2.762000000000000000e+03 2.602689743041992188e+01 -4.311801791191101074e-01 -3.354078829288482666e-01 -1.574058979749679565e-01 -1.478441357612609863e-01 -8.424633182585239410e-03
2.763000000000000000e+03 3.088795661926269531e+01 2.368849945068359375e+01 6.858956813812255859e-02 1.030877605080604553e-01 5.150320008397102356e-02 8.940824866294860840e-02
2.764000000000000000e+03 3.964358139038085938e+01 3.256407928466796875e+01 7.152103632688522339e-02 8.219347894191741943e-02 4.611435532569885254e-02 7.383775711059570312e-02
2.765000000000000000e+03 3.892915725708007812e+01 3.377577590942382812e+01 9.315921366214752197e-02 6.231274455785751343e-02 4.664158821105957031e-02 6.518880277872085571e-02
2.766000000000000000e+03 4.724597454071044922e+00 6.778419971466064453e+00 6.124115735292434692e-02 -1.395911127328872681e-01 -2.350498549640178680e-02 9.239923208951950073e-02
2.767000000000000000e+03 3.975017166137695312e+01 3.197203826904296875e+01 8.276461809873580933e-02 6.399453431367874146e-02 4.402774572372436523e-02 7.483915239572525024e-02
2.768000000000000000e+03 4.420377731323242188e+00 5.236041545867919922e+00 2.683503367006778717e-02 -1.257899105548858643e-01 -2.968646399676799774e-02 1.249301135540008545e-01
2.769000000000000000e+03 7.400826930999755859e+00 4.385749340057373047e+00 9.127363562583923340e-02 -1.665365844964981079e-01 -2.257888391613960266e-02 1.730907112360000610e-01
2.770000000000000000e+03 5.835684299468994141e+00 5.583889961242675781e+00 7.468015700578689575e-02 -1.384368389844894409e-01 -1.912700571119785309e-02 1.255219280719757080e-01
2.771000000000000000e+03 4.602359294891357422e+00 5.968605518341064453e+00 4.768912121653556824e-02 -1.334448754787445068e-01 -2.572672441601753235e-02 1.087223887443542480e-01
2.772000000000000000e+03 3.186811256408691406e+01 2.447532844543457031e+01 7.078497111797332764e-02 1.002355590462684631e-01 5.130615830421447754e-02 8.716607838869094849e-02
2.773000000000000000e+03 8.022370338439941406e+00 4.368803501129150391e+00 1.374395787715911865e-01 -1.875116378068923950e-01 -1.502162218093872070e-02 1.662441790103912354e-01
2.774000000000000000e+03 6.418595314025878906e+00 5.351558208465576172e+00 9.014716744422912598e-02 -1.484167873859405518e-01 -1.748088747262954712e-02 1.359582841396331787e-01
2.775000000000000000e+03 5.852846527099609375e+01 3.863924407958984375e+01 -6.657548993825912476e-02 1.521863174438476562e+01 4.545616626739501953e+00 1.651849746704101562e+00
2.776000000000000000e+03 3.228351593017578125e+01 6.635381221771240234e+00 -1.140010878443717957e-01 -3.759412467479705811e-02 -4.547856375575065613e-02 -1.246464475989341736e-01
2.777000000000000000e+03 9.759557723999023438e+00 3.923105239868164062e+00 2.977059483528137207e-01 -2.009563148021697998e-01 2.902488969266414642e-02 9.217376261949539185e-02
2.778000000000000000e+03 7.975203037261962891e+00 4.946938037872314453e+00 1.668051928281784058e-01 -1.669798642396926880e-01 -5.239956226432695985e-05 1.209940463304519653e-01
2.779000000000000000e+03 7.234832286834716797e+00 5.690994739532470703e+00 1.372139155864715576e-01 -1.458337604999542236e-01 -2.585951937362551689e-03 1.055860817432403564e-01
2.780000000000000000e+03 4.379657363891601562e+01 3.660118865966796875e+01 8.152630180120468140e-02 6.836722791194915771e-02 4.496806114912033081e-02 7.001126557588577271e-02
2.781000000000000000e+03 4.183287048339843750e+01 3.532943725585937500e+01 7.720893621444702148e-02 7.228015363216400146e-02 4.484672471880912781e-02 7.602359354496002197e-02
2.782000000000000000e+03 5.174321651458740234e+00 -6.834377765655517578e+00 -3.463569656014442444e-02 -1.411013454198837280e-01 -5.272110924124717712e-02 -1.790739446878433228e-01
2.783000000000000000e+03 2.632718276977539062e+01 -1.169730186462402344e+00 -2.750127017498016357e-01 -1.717919111251831055e-01 -1.340413838624954224e-01 6.747993826866149902e-02
2.784000000000000000e+03 3.689354324340820312e+01 3.091027069091796875e+01 7.452891021966934204e-02 8.828242868185043335e-02 4.884340241551399231e-02 7.248769700527191162e-02
2.785000000000000000e+03 8.570648193359375000e+00 -7.195412158966064453e+00 -2.262309752404689789e-02 -1.546705514192581177e-01 -5.318809673190116882e-02 -2.678744792938232422e-01
2.786000000000000000e+03 6.685500621795654297e+00 -5.649845123291015625e+00 -7.420348376035690308e-02 -1.071025654673576355e-01 -5.439181625843048096e-02 -2.093021124601364136e-01
2.787000000000000000e+03 3.217056655883789062e+01 8.309392929077148438e+00 -3.246729075908660889e-01 -1.322544962167739868e-01 -1.370782256126403809e-01 -1.120732724666595459e-01
2.788000000000000000e+03 3.223492813110351562e+01 1.028247070312500000e+01 -6.184300780296325684e-01 -2.408851385116577148e-01 -2.577945590019226074e-01 -3.419391512870788574e-01
2.789000000000000000e+03 1.084465122222900391e+01 4.384389400482177734e+00 3.715471327304840088e-01 -8.930567651987075806e-03 1.087849736213684082e-01 -8.631035685539245605e-02
2.790000000000000000e+03 1.199890232086181641e+01 4.573347568511962891e+00 3.397207558155059814e-01 3.690337240695953369e-01 2.126263380050659180e-01 -2.026830017566680908e-01
2.791000000000000000e+03 2.834199714660644531e+01 -2.662299394607543945e+00 -1.377773880958557129e-01 -1.547199487686157227e-01 -8.774920552968978882e-02 8.958961069583892822e-02
2.792000000000000000e+03 6.834673881530761719e+00 -6.613129615783691406e+00 -5.140205472707748413e-02 -1.329633891582489014e-01 -5.530963465571403503e-02 -2.237698882818222046e-01
2.793000000000000000e+03 7.620190620422363281e+00 -6.473624229431152344e+00 -5.383113026618957520e-02 -1.325809210538864136e-01 -5.592361465096473694e-02 -2.445964068174362183e-01
2.794000000000000000e+03 5.867251205444335938e+01 3.546636199951171875e+01 6.289870262145996094e+00 1.366366767883300781e+01 5.986061573028564453e+00 1.520774006843566895e+00
2.795000000000000000e+03 5.873229598999023438e+01 3.662753677368164062e+01 3.822513103485107422e+00 1.442244911193847656e+01 5.473488807678222656e+00 2.479918003082275391e+00
2.796000000000000000e+03 4.275489807128906250e+01 3.658095550537109375e+01 8.301499485969543457e-02 7.908920943737030029e-02 4.863126203417778015e-02 8.954844623804092407e-02
2.797000000000000000e+03 9.136928558349609375e+00 4.423721313476562500e+00 2.337501347064971924e-01 -1.842272728681564331e-01 1.485685911029577255e-02 1.024838238954544067e-01
2.798000000000000000e+03 1.165191555023193359e+01 5.003555297851562500e+00 2.884938120841979980e-01 2.768656611442565918e-01 1.696078330278396606e-01 -1.587385237216949463e-01
2.799000000000000000e+03 1.213603019714355469e+01 6.120582103729248047e+00 1.602719724178314209e-01 3.790361583232879639e-01 1.617924422025680542e-01 -7.867158949375152588e-02
2.800000000000000000e+03 1.204269409179687500e+01 -6.178857326507568359e+00 -2.739976532757282257e-02 -1.854844987392425537e-01 -6.386528164148330688e-02 -3.391146361827850342e-01
2.801000000000000000e+03 9.734533309936523438e+00 -5.341192722320556641e+00 -1.275825798511505127e-01 -1.188763976097106934e-01 -7.393769174814224243e-02 -3.019920885562896729e-01
2.802000000000000000e+03 3.008639144897460938e+01 -2.813529253005981445e+00 -8.234452456235885620e-02 -1.235896162688732147e-02 -2.841104753315448761e-02 5.246332660317420959e-02
2.803000000000000000e+03 1.361494350433349609e+01 -6.487613677978515625e+00 6.693626195192337036e-02 -1.875616014003753662e-01 -3.618760406970977783e-02 -2.913121283054351807e-01
2.804000000000000000e+03 1.284392547607421875e+01 -5.524228096008300781e+00 -6.237125396728515625e-02 -2.089512646198272705e-01 -8.139675110578536987e-02 -3.623247146606445312e-01
2.805000000000000000e+03 5.375265884399414062e+01 4.007621765136718750e+01 -1.591535210609436035e-01 6.357506752014160156e+00 1.859506011009216309e+00 -2.505102634429931641e+00
2.806000000000000000e+03 3.099458694458007812e+01 -4.166638374328613281e+00 -6.800299882888793945e-02 4.842502623796463013e-02 -5.873391870409250259e-03 5.189280956983566284e-02
2.807000000000000000e+03 4.711002731323242188e+01 4.173600769042968750e+01 5.847517251968383789e-01 -1.509700417518615723e-01 1.301345080137252808e-01 1.472386121749877930e-01
2.808000000000000000e+03 4.667754364013671875e+01 3.892195892333984375e+01 4.574043303728103638e-02 2.407181076705455780e-02 2.094367332756519318e-02 1.878793537616729736e-01
2.809000000000000000e+03 4.384435653686523438e+01 3.994975280761718750e+01 2.327536791563034058e-01 -3.156051039695739746e-02 6.035795062780380249e-02 1.136990934610366821e-01
2.810000000000000000e+03 3.150809049606323242e+00 7.868340492248535156e+00 3.230795636773109436e-02 -1.569629609584808350e-01 -3.739650174975395203e-02 5.929846689105033875e-02
2.811000000000000000e+03 3.565176010131835938e+01 -1.009324073791503906e+01 -1.002869904041290283e-01 7.372421622276306152e-01 1.910865604877471924e-01 -2.859812043607234955e-02
2.812000000000000000e+03 3.564702224731445312e+01 -8.417728424072265625e+00 -8.995656669139862061e-02 7.724490165710449219e-01 2.047477215528488159e-01 -2.412988059222698212e-02
2.813000000000000000e+03 1.124474430084228516e+01 -5.350286483764648438e+00 -1.259560734033584595e-01 -1.538389623165130615e-01 -8.393850922584533691e-02 -3.487390279769897461e-01
2.814000000000000000e+03 3.963803100585937500e+01 -1.259031963348388672e+01 -1.443265676498413086e-01 1.639987945556640625e+00 4.486984014511108398e-01 -1.324125081300735474e-01
2.815000000000000000e+03 3.830014419555664062e+01 -1.089405155181884766e+01 -1.243076547980308533e-01 1.338099956512451172e+00 3.641376793384552002e-01 -9.662368148565292358e-02
2.816000000000000000e+03 3.638050079345703125e+01 -7.727020740509033203e+00 -8.571482449769973755e-02 9.357387423515319824e-01 2.550071775913238525e-01 -3.530672937631607056e-02
2.817000000000000000e+03 3.348725509643554688e+01 -7.095123767852783203e+00 -7.972123473882675171e-02 3.675843179225921631e-01 8.635891973972320557e-02 1.719801314175128937e-02
2.818000000000000000e+03 2.049046516418457031e+01 -2.166179656982421875e+01 1.047212257981300354e-01 2.855631113052368164e-01 1.170853003859519958e-01 -1.874796152114868164e-01
2.819000000000000000e+03 2.038726425170898438e+01 -2.492271995544433594e+01 7.215722650289535522e-02 2.470601052045822144e-01 9.576520323753356934e-02 -1.694658249616622925e-01
2.820000000000000000e+03 4.813145446777343750e+01 -2.607452774047851562e+01 -1.319304406642913818e-01 4.589695930480957031e+00 1.337329626083374023e+00 -1.099085211753845215e-01
2.821000000000000000e+03 1.714682960510253906e+01 -1.537230682373046875e+01 1.160754412412643433e-01 2.055860161781311035e-01 9.649843722581863403e-02 -1.498433053493499756e-01
2.822000000000000000e+03 1.554523754119873047e+01 -8.991334915161132812e+00 1.782204359769821167e-01 5.699769780039787292e-02 7.056543976068496704e-02 -1.329055875539779663e-01
2.823000000000000000e+03 2.277720069885253906e+01 -2.714475440979003906e+01 1.242654770612716675e-01 3.071972727775573730e-01 1.294388324022293091e-01 -1.842654347419738770e-01
2.824000000000000000e+03 4.518482589721679688e+01 -2.229218482971191406e+01 -2.003019452095031738e-01 3.460316181182861328e+00 9.780042767524719238e-01 -3.201418817043304443e-01
2.825000000000000000e+03 7.096291351318359375e+01 -3.165446662902832031e+01 8.134083449840545654e-02 7.589170455932617188e+00 2.301153421401977539e+00 2.355836331844329834e-01
2.826000000000000000e+03 7.327951049804687500e+01 2.162328720092773438e+01 -1.745580881834030151e-01 7.505314350128173828e+00 2.199226856231689453e+00 -1.207741737365722656e+00
2.827000000000000000e+03 7.447797393798828125e+01 2.448135185241699219e+01 -3.862812742590904236e-02 6.975870609283447266e+00 2.081172704696655273e+00 -1.159279227256774902e+00
2.828000000000000000e+03 4.213577651977539062e+01 -1.936027336120605469e+01 -1.509461402893066406e-01 2.347107410430908203e+00 6.588484048843383789e-01 -3.266682326793670654e-01
2.829000000000000000e+03 4.351103973388671875e+01 -2.175881385803222656e+01 -1.518588513135910034e-01 2.838786840438842773e+00 8.060784339904785156e-01 -4.127831161022186279e-01
2.830000000000000000e+03 7.167807006835937500e+01 2.547073554992675781e+01 -3.265442326664924622e-02 7.482364654541015625e+00 2.234913110733032227e+00 -1.460517764091491699e+00
2.831000000000000000e+03 7.512426376342773438e+00 2.922759819030761719e+01 -8.481369353830814362e-03 -5.984833836555480957e-02 -2.049891278147697449e-02 -1.168033480644226074e-02
2.832000000000000000e+03 1.046865653991699219e+01 3.125147819519042969e+01 -6.972249131649732590e-03 -2.084355801343917847e-02 -8.344742469489574432e-03 -6.312917452305555344e-03
2.833000000000000000e+03 7.264723968505859375e+01 -2.245938491821289062e+01 -1.035946700721979141e-02 8.026004791259765625e+00 2.404693603515625000e+00 2.598965764045715332e-01
2.834000000000000000e+03 7.455313110351562500e+01 2.713830566406250000e+01 4.094779118895530701e-02 6.637162685394287109e+00 2.003433227539062500e+00 -1.151215553283691406e+00
2.835000000000000000e+03 7.329192352294921875e+01 -1.550842475891113281e+01 -4.923065006732940674e-02 8.283856391906738281e+00 2.470387935638427734e+00 1.876444518566131592e-01
2.836000000000000000e+03 7.326178741455078125e+01 -1.678537940979003906e+01 -3.875929117202758789e-02 8.248632431030273438e+00 2.462962150573730469e+00 2.049877196550369263e-01
2.837000000000000000e+03 7.319073486328125000e+01 1.434481716156005859e+01 -2.521345615386962891e-01 8.007512092590332031e+00 2.326613187789916992e+00 -7.747004032135009766e-01
2.838000000000000000e+03 7.302464294433593750e+01 -9.167080879211425781e+00 -7.204166799783706665e-02 8.329319953918457031e+00 2.477183341979980469e+00 9.928264468908309937e-02
2.839000000000000000e+03 7.311869812011718750e+01 -1.046494197845458984e+01 -7.117653638124465942e-02 8.329860687255859375e+00 2.477605104446411133e+00 1.171096786856651306e-01
2.840000000000000000e+03 7.237671661376953125e+01 -1.171791315078735352e+00 -1.330501884222030640e-01 8.254821777343750000e+00 2.436531305313110352e+00 -8.906099945306777954e-02
2.841000000000000000e+03 7.270505523681640625e+01 -2.535627126693725586e+00 -1.126343682408332825e-01 8.316950798034667969e+00 2.461294889450073242e+00 -4.995475709438323975e-02
2.842000000000000000e+03 7.347073364257812500e+01 1.170303630828857422e+01 -2.150699049234390259e-01 8.141920089721679688e+00 2.378054857254028320e+00 -6.083123683929443359e-01
2.843000000000000000e+03 7.336422729492187500e+01 1.300205612182617188e+01 -2.285038083791732788e-01 8.075423240661621094e+00 2.354075670242309570e+00 -6.881626248359680176e-01
2.844000000000000000e+03 7.155769348144531250e+01 2.921611547470092773e+00 -2.026553452014923096e-01 8.107978820800781250e+00 2.371597051620483398e+00 -2.313137501478195190e-01
2.845000000000000000e+03 7.224001312255859375e+01 6.667595863342285156e+00 -2.196074128150939941e-01 8.166520118713378906e+00 2.384073734283447266e+00 -3.844635784626007080e-01
2.846000000000000000e+03 7.323524475097656250e+01 5.335578441619873047e+00 -1.604761481285095215e-01 8.317577362060546875e+00 2.447130203247070312e+00 -3.080193996429443359e-01
2.847000000000000000e+03 7.285817718505859375e+01 -3.878117561340332031e+00 -1.004182994365692139e-01 8.337134361267089844e+00 2.471014738082885742e+00 -1.514371111989021301e-02
2.848000000000000000e+03 7.347386169433593750e+01 7.905595779418945312e+00 -1.760003119707107544e-01 8.282536506652832031e+00 2.431960821151733398e+00 -4.149039089679718018e-01
2.849000000000000000e+03 7.276345825195312500e+01 2.634768009185791016e+00 -1.500225365161895752e-01 8.296138763427734375e+00 2.443834781646728516e+00 -2.117549628019332886e-01
2.850000000000000000e+03 7.331857299804687500e+01 2.810602569580078125e+01 1.102991774678230286e-01 6.831037998199462891e+00 2.082401275634765625e+00 -1.277333259582519531e+00
2.851000000000000000e+03 7.440119934082031250e+01 2.028133201599121094e+01 -1.503153294324874878e-01 7.504409790039062500e+00 2.206228494644165039e+00 -1.033568143844604492e+00
2.852000000000000000e+03 7.323287963867187500e+01 2.022409248352050781e+01 -2.100110501050949097e-01 7.630282402038574219e+00 2.226081371307373047e+00 -1.136551260948181152e+00
2.853000000000000000e+03 7.311042022705078125e+01 1.878965759277343750e+01 -2.447386085987091064e-01 7.745462417602539062e+00 2.250217199325561523e+00 -1.065506935119628906e+00
2.854000000000000000e+03 7.193895721435546875e+01 -2.590785980224609375e+01 7.265311665832996368e-03 7.873987674713134766e+00 2.364375829696655273e+00 2.792514264583587646e-01
2.855000000000000000e+03 6.677582740783691406e+00 2.218308639526367188e+01 -6.278521846979856491e-03 -6.772977858781814575e-02 -2.220249176025390625e-02 -1.854281313717365265e-02
2.856000000000000000e+03 8.095824241638183594e+00 2.306536865234375000e+01 -7.102386094629764557e-03 -3.690671920776367188e-02 -1.320273242890834808e-02 -1.455572526901960373e-02
2.857000000000000000e+03 1.534032154083251953e+01 -7.867810249328613281e+00 1.748535484075546265e-01 -9.457927197217941284e-03 4.961868748068809509e-02 -1.546580642461776733e-01
2.858000000000000000e+03 1.450306701660156250e+01 -9.054020881652832031e+00 1.707625687122344971e-01 -4.013493284583091736e-02 3.918829187750816345e-02 -1.729284226894378662e-01
2.859000000000000000e+03 9.039190292358398438e+00 3.219852447509765625e+01 -9.290921501815319061e-03 -4.129819199442863464e-02 -1.517673395574092865e-02 -6.875039543956518173e-03
2.860000000000000000e+03 6.245406627655029297e+00 -1.262201690673828125e+01 5.250179022550582886e-02 -2.544212639331817627e-01 -6.057583913207054138e-02 -1.675341278314590454e-01
2.861000000000000000e+03 6.947926998138427734e+00 2.362307548522949219e+01 -4.776023793965578079e-03 -6.227057799696922302e-02 -2.011398039758205414e-02 -1.919574290513992310e-02
2.862000000000000000e+03 5.552711009979248047e+00 2.549251174926757812e+01 -2.932436065748333931e-03 -9.130542725324630737e-02 -2.827136032283306122e-02 -1.729821041226387024e-02
2.863000000000000000e+03 8.295155525207519531e+00 -1.780035591125488281e+01 5.241942778229713440e-02 -2.306002080440521240e-01 -5.345423147082328796e-02 -1.197781190276145935e-01
2.864000000000000000e+03 7.019521713256835938e+00 -1.805888175964355469e+01 5.347772687673568726e-02 -2.825451195240020752e-01 -6.872022151947021484e-02 -1.120090633630752563e-01
2.865000000000000000e+03 5.820532321929931641e+00 -2.672217178344726562e+01 9.695484302937984467e-03 -4.085943698883056641e-01 -1.196696609258651733e-01 -4.408146440982818604e-02
2.866000000000000000e+03 5.481010437011718750e+00 -9.006577491760253906e+00 2.769062295556068420e-03 -1.970332264900207520e-01 -5.827924981713294983e-02 -1.891846656799316406e-01
2.867000000000000000e+03 4.515772342681884766e+00 -9.143591880798339844e+00 8.104378357529640198e-03 -2.074965536594390869e-01 -5.981765314936637878e-02 -1.646487265825271606e-01
2.868000000000000000e+03 6.054309844970703125e+00 1.506160831451416016e+01 1.592878438532352448e-02 -7.269531488418579102e-02 -1.702995784580707550e-02 -1.831122115254402161e-02
2.869000000000000000e+03 6.209095954895019531e+00 1.641360282897949219e+01 6.993094924837350845e-03 -6.888412684202194214e-02 -1.856730878353118896e-02 -1.904177106916904449e-02
2.870000000000000000e+03 5.915541648864746094e+00 1.375107192993164062e+01 2.285431697964668274e-02 -7.869092375040054321e-02 -1.675098203122615814e-02 -1.189858559519052505e-02
2.871000000000000000e+03 4.732131481170654297e+00 1.267202758789062500e+01 2.579969540238380432e-02 -1.194916442036628723e-01 -2.810758538544178009e-02 -3.646190278232097626e-03
2.872000000000000000e+03 5.325802803039550781e+00 1.956170272827148438e+01 3.215774631826207042e-05 -9.589732438325881958e-02 -2.875954844057559967e-02 -2.292184345424175262e-02
2.873000000000000000e+03 4.026234436035156250e+01 -1.388534259796142578e+01 -1.694921702146530151e-01 1.793628931045532227e+00 4.872410297393798828e-01 -1.726743876934051514e-01
2.874000000000000000e+03 4.065972518920898438e+01 -1.701409530639648438e+01 -1.384628117084503174e-01 1.897733926773071289e+00 5.277813673019409180e-01 -2.460806220769882202e-01
2.875000000000000000e+03 9.998495101928710938e+00 -3.236405181884765625e+01 1.960826665163040161e-02 -2.423278093338012695e-01 -6.681586802005767822e-02 -3.837785869836807251e-02
2.876000000000000000e+03 6.522917270660400391e+00 2.078070449829101562e+01 -1.773275318555533886e-03 -6.688013672828674316e-02 -2.059602364897727966e-02 -2.098795026540756226e-02
2.877000000000000000e+03 7.295675277709960938e+00 1.605219650268554688e+01 1.158090494573116302e-02 -3.512641787528991699e-02 -7.063653785735368729e-03 -1.858301088213920593e-02
2.878000000000000000e+03 6.492951869964599609e+00 1.932906341552734375e+01 -2.763231983408331871e-03 -6.468871980905532837e-02 -2.023558504879474640e-02 -2.006557025015354156e-02
2.879000000000000000e+03 6.808617591857910156e+00 2.802652549743652344e+01 -4.849536344408988953e-03 -6.991358101367950439e-02 -2.242893539369106293e-02 -1.487789582461118698e-02
2.880000000000000000e+03 6.940105438232421875e+00 9.966081619262695312e+00 7.804586738348007202e-02 -6.311646103858947754e-02 4.478821996599435806e-03 7.835667580366134644e-03
2.881000000000000000e+03 5.782691001892089844e+00 1.244478893280029297e+01 3.656901419162750244e-02 -8.472246676683425903e-02 -1.444603502750396729e-02 -6.913801189512014389e-03
2.882000000000000000e+03 5.111021518707275391e+00 8.701969146728515625e+00 6.720461696386337280e-02 -1.271735131740570068e-01 -1.799066737294197083e-02 4.665678367018699646e-02
2.883000000000000000e+03 7.040249824523925781e+00 6.668500423431396484e+00 1.303985267877578735e-01 -1.219509243965148926e-01 2.534282626584172249e-03 7.117500901222229004e-02
2.884000000000000000e+03 9.947752952575683594e+00 3.395156097412109375e+01 -5.779033992439508438e-03 -3.141029179096221924e-02 -1.115679834038019180e-02 -5.849238485097885132e-03
2.885000000000000000e+03 8.006204605102539062e+00 3.471866607666015625e+01 -8.108830079436302185e-03 -5.634333938360214233e-02 -1.933564990758895874e-02 -5.987040232867002487e-03
2.886000000000000000e+03 7.332466888427734375e+01 3.013720321655273438e+01 2.422276139259338379e-01 6.640876770019531250e+00 2.064931154251098633e+00 -1.195168972015380859e+00
2.887000000000000000e+03 7.250105285644531250e+01 3.124206161499023438e+01 3.715977370738983154e-01 6.782436370849609375e+00 2.146210193634033203e+00 -1.173266649246215820e+00
2.888000000000000000e+03 5.086473464965820312e+00 -1.288018417358398438e+01 2.839239314198493958e-02 -2.804017961025238037e-01 -7.560282200574874878e-02 -1.459034085273742676e-01
2.889000000000000000e+03 5.693254470825195312e+00 -1.015993404388427734e+01 2.615724503993988037e-02 -2.209212332963943481e-01 -5.842919647693634033e-02 -1.861244440078735352e-01
2.890000000000000000e+03 4.251762390136718750e+01 -1.736619949340820312e+01 -1.887294352054595947e-01 2.448327779769897461e+00 6.778795123100280762e-01 -2.522648870944976807e-01
2.891000000000000000e+03 1.864062118530273438e+01 -2.072409057617187500e+01 9.994225203990936279e-02 2.160762399435043335e-01 9.480554610490798950e-02 -1.680480986833572388e-01
2.892000000000000000e+03 4.497463989257812500e+01 -2.712030220031738281e+01 -7.475227117538452148e-02 3.846831321716308594e+00 1.131623744964599609e+00 -5.318909883499145508e-01
2.893000000000000000e+03 4.614199447631835938e+01 -2.695995330810546875e+01 -8.024623245000839233e-02 4.198106765747070312e+00 1.235358238220214844e+00 -3.885149955749511719e-01
2.894000000000000000e+03 1.731743812561035156e+01 -1.779552459716796875e+01 9.450932592153549194e-02 1.903047561645507812e-01 8.544422686100006104e-02 -1.513382196426391602e-01
2.895000000000000000e+03 3.729361343383789062e+01 -1.013193035125732422e+01 -1.130595803260803223e-01 1.097580075263977051e+00 2.953561544418334961e-01 -6.931273639202117920e-02
2.896000000000000000e+03 4.464773178100585938e+01 -2.103526878356933594e+01 -2.421219497919082642e-01 3.231041669845581055e+00 8.966759443283081055e-01 -3.172743618488311768e-01
2.897000000000000000e+03 4.401716613769531250e+01 -1.974569702148437500e+01 -2.136185467243194580e-01 2.938893079757690430e+00 8.175823092460632324e-01 -3.017530143260955811e-01
2.898000000000000000e+03 4.301530838012695312e+01 4.162697982788085938e+01 1.918145716190338135e-01 -2.661319449543952942e-03 5.674597620964050293e-02 -2.792902290821075439e-02
2.899000000000000000e+03 2.319572448730468750e+01 -3.139963340759277344e+01 1.044671684503555298e-01 2.582414448261260986e-01 1.088125854730606079e-01 -1.421246677637100220e-01
2.900000000000000000e+03 1.667000389099121094e+01 -1.450305175781250000e+01 1.355729103088378906e-01 1.747307330369949341e-01 9.309109300374984741e-02 -1.430391073226928711e-01
2.901000000000000000e+03 1.583977413177490234e+01 -1.386580371856689453e+01 1.345324963331222534e-01 1.377872079610824585e-01 8.169591426849365234e-02 -1.468998193740844727e-01
2.902000000000000000e+03 1.562809753417968750e+01 -1.130502414703369141e+01 1.614586710929870605e-01 1.052645817399024963e-01 8.001697808504104614e-02 -1.310627460479736328e-01
2.903000000000000000e+03 7.259965515136718750e+01 -2.095488929748535156e+01 -2.906662598252296448e-02 8.052684783935546875e+00 2.407085418701171875e+00 2.503989338874816895e-01
2.904000000000000000e+03 7.327711486816406250e+01 -1.425954055786132812e+01 -4.472409561276435852e-02 8.303514480590820312e+00 2.477637052536010742e+00 1.736976355314254761e-01
2.905000000000000000e+03 7.294556427001953125e+01 -7.865593910217285156e+00 -8.427488058805465698e-02 8.335057258605957031e+00 2.475234746932983398e+00 7.328917086124420166e-02
2.906000000000000000e+03 8.562194824218750000e+00 -2.878414344787597656e+01 2.950031869113445282e-02 -2.857271134853363037e-01 -7.686803489923477173e-02 -6.286181509494781494e-02
2.907000000000000000e+03 7.276544570922851562e+00 -2.905702209472656250e+01 1.009708177298307419e-02 -3.454543352127075195e-01 -1.006071716547012329e-01 -4.223906248807907104e-02
2.908000000000000000e+03 2.700920104980468750e+01 -7.422230243682861328e-01 -2.448973059654235840e-01 -1.526718735694885254e-01 -1.192707568407058716e-01 2.738854289054870605e-02
2.909000000000000000e+03 2.726291465759277344e+01 3.171633958816528320e+00 -3.165251314640045166e-01 -2.258296757936477661e-01 -1.627064347267150879e-01 -2.339619547128677368e-01
2.910000000000000000e+03 2.764779281616210938e+01 3.627150297164916992e+00 -2.972330152988433838e-01 -2.303097993135452271e-01 -1.582628488540649414e-01 -2.357690036296844482e-01
2.911000000000000000e+03 2.550538635253906250e+01 2.831782341003417969e+00 -3.943729698657989502e-01 -2.200841605663299561e-01 -1.843371391296386719e-01 -2.622171044349670410e-01
2.912000000000000000e+03 2.464189338684082031e+01 1.488528728485107422e+00 -4.721094071865081787e-01 -1.822438836097717285e-01 -1.963059902191162109e-01 -2.198443561792373657e-01
2.913000000000000000e+03 2.519978713989257812e+01 1.546161293983459473e+00 -4.165221750736236572e-01 -1.803531050682067871e-01 -1.790625900030136108e-01 -1.993810981512069702e-01
2.914000000000000000e+03 5.325124359130859375e+01 3.122164916992187500e+01 2.238420486450195312e+00 5.648837566375732422e+00 2.366177320480346680e+00 3.947658061981201172e+00
2.915000000000000000e+03 5.720698165893554688e+01 3.315447616577148438e+01 3.141860008239746094e+00 1.698487472534179688e+01 6.038020133972167969e+00 -4.535886943340301514e-01
2.916000000000000000e+03 5.480931472778320312e+01 3.255802917480468750e+01 2.314145565032958984e+00 1.057552433013916016e+01 3.866900920867919922e+00 5.677249908447265625e+00
2.917000000000000000e+03 3.090762710571289062e+01 5.100729465484619141e+00 -1.602714359760284424e-01 -3.761860076338052750e-03 -4.920998588204383850e-02 -2.426030933856964111e-01
2.918000000000000000e+03 5.778850173950195312e+01 3.397111892700195312e+01 6.233528614044189453e+00 1.560913848876953125e+01 6.552800178527832031e+00 -1.066528558731079102e+00
2.919000000000000000e+03 5.529704666137695312e+01 3.232370758056640625e+01 1.520160436630249023e+00 1.271226692199707031e+01 4.269728183746337891e+00 4.867886066436767578e+00
2.920000000000000000e+03 5.664002609252929688e+01 3.255867767333984375e+01 1.378910779953002930e+00 1.632791900634765625e+01 5.312048912048339844e+00 1.424496293067932129e+00
2.921000000000000000e+03 2.430881690979003906e+01 1.370868682861328125e+00 -4.822033345699310303e-01 -1.709762811660766602e-01 -1.959538906812667847e-01 -2.108440250158309937e-01
2.922000000000000000e+03 2.374956130981445312e+01 4.996569454669952393e-01 -6.354044675827026367e-01 -1.349892169237136841e-01 -2.311181128025054932e-01 -1.291602998971939087e-01
2.923000000000000000e+03 5.863766479492187500e+01 3.505326080322265625e+01 6.854275226593017578e+00 1.354192543029785156e+01 6.118860244750976562e+00 8.591976761817932129e-01
2.924000000000000000e+03 5.873865127563476562e+01 3.751823806762695312e+01 1.890975236892700195e+00 1.489736843109130859e+01 5.036503314971923828e+00 2.381414890289306641e+00
2.925000000000000000e+03 5.762514495849609375e+01 3.452520370483398438e+01 8.211314201354980469e+00 1.574401664733886719e+01 7.186599254608154297e+00 -4.897623658180236816e-01
2.926000000000000000e+03 1.809668922424316406e+01 1.184702396392822266e+01 1.088431775569915771e-01 2.066547870635986328e-01 9.464938938617706299e-02 1.475984603166580200e-01
2.927000000000000000e+03 1.854154396057128906e+01 1.185262203216552734e+01 1.142780110239982605e-01 2.028194367885589600e-01 9.512923657894134521e-02 1.521840244531631470e-01
2.928000000000000000e+03 1.899769020080566406e+01 1.209442710876464844e+01 1.183968707919120789e-01 1.957141906023025513e-01 9.423331916332244873e-02 1.526454091072082520e-01
2.929000000000000000e+03 4.055172348022460938e+01 1.971625137329101562e+01 -3.906009346246719360e-02 3.941939771175384521e-01 1.065401583909988403e-01 1.488893479108810425e-01
2.930000000000000000e+03 4.036010742187500000e+01 1.926494789123535156e+01 -6.376115977764129639e-02 4.084106981754302979e-01 1.033948585391044617e-01 1.378862857818603516e-01
2.931000000000000000e+03 4.108786010742187500e+01 1.949979972839355469e+01 -2.596093714237213135e-02 5.884034037590026855e-01 1.687327474355697632e-01 2.436976134777069092e-01
2.932000000000000000e+03 4.219551467895507812e+01 2.036338043212890625e+01 4.949458688497543335e-02 8.030127882957458496e-01 2.557522058486938477e-01 3.937890827655792236e-01
2.933000000000000000e+03 3.414444351196289062e+01 1.081641006469726562e+01 -4.418119490146636963e-01 -2.637391211465001106e-03 -1.333348006010055542e-01 -1.890208125114440918e-01
2.934000000000000000e+03 3.251066207885742188e+01 2.579726982116699219e+01 6.959401071071624756e-02 9.774875640869140625e-02 5.020283162593841553e-02 8.398483693599700928e-02
2.935000000000000000e+03 3.933150863647460938e+01 1.790889549255371094e+01 -1.448068767786026001e-01 3.193005323410034180e-01 5.234809964895248413e-02 4.922839999198913574e-02
2.936000000000000000e+03 4.038978958129882812e+01 1.845597076416015625e+01 -8.609372377395629883e-02 5.396894216537475586e-01 1.360787004232406616e-01 1.751698851585388184e-01
2.937000000000000000e+03 3.479657745361328125e+01 1.234256744384765625e+01 -4.218510985374450684e-01 -5.916238203644752502e-02 -1.443040519952774048e-01 -2.338289171457290649e-01
2.938000000000000000e+03 4.720775222778320312e+01 2.475539779663085938e+01 5.637416243553161621e-01 2.101790666580200195e+00 7.996597290039062500e-01 1.276892423629760742e+00
2.939000000000000000e+03 1.659404373168945312e+01 9.091036796569824219e+00 1.404784470796585083e-01 2.635385394096374512e-01 1.212050914764404297e-01 1.806589365005493164e-01
2.940000000000000000e+03 4.750546264648437500e+01 2.552394676208496094e+01 6.869347095489501953e-01 2.088829755783081055e+00 8.327293395996093750e-01 1.357585191726684570e+00
2.941000000000000000e+03 4.274113082885742188e+01 2.106465530395507812e+01 1.017896756529808044e-01 8.664866089820861816e-01 2.904828786849975586e-01 4.606013596057891846e-01
2.942000000000000000e+03 2.348520278930664062e+01 1.656866073608398438e+01 1.008875370025634766e-01 1.470220088958740234e-01 7.437286525964736938e-02 1.243450120091438293e-01
2.943000000000000000e+03 2.294354057312011719e+01 1.578549766540527344e+01 1.057806760072708130e-01 1.551418751478195190e-01 7.827676832675933838e-02 1.279212534427642822e-01
2.944000000000000000e+03 3.568632888793945312e+01 2.870063972473144531e+01 7.543210685253143311e-02 9.161850810050964355e-02 5.011518299579620361e-02 7.700885832309722900e-02
2.945000000000000000e+03 1.945542144775390625e+01 1.203713607788085938e+01 1.268430501222610474e-01 1.911094486713409424e-01 9.538575261831283569e-02 1.563307195901870728e-01
2.946000000000000000e+03 1.867924690246582031e+01 1.230330848693847656e+01 1.106643155217170715e-01 1.977234035730361938e-01 9.251631796360015869e-02 1.456551253795623779e-01
2.947000000000000000e+03 3.985116195678710938e+01 1.792759323120117188e+01 -1.225143820047378540e-01 4.571402370929718018e-01 1.003877520561218262e-01 1.193247735500335693e-01
2.948000000000000000e+03 2.928857803344726562e+01 4.306939125061035156e+00 -2.683855891227722168e-01 -1.085879802703857422e-01 -1.130920723080635071e-01 -2.141374051570892334e-01
2.949000000000000000e+03 4.673371887207031250e+01 2.474630165100097656e+01 5.665259957313537598e-01 1.845896244049072266e+00 7.237266898155212402e-01 1.167927622795104980e+00
2.950000000000000000e+03 2.029201507568359375e+01 1.321199989318847656e+01 1.182632669806480408e-01 1.794773489236831665e-01 8.932218700647354126e-02 1.438988596200942993e-01
2.951000000000000000e+03 2.444912147521972656e+01 1.782030105590820312e+01 9.474022686481475830e-02 1.382959634065628052e-01 6.991085410118103027e-02 1.142273098230361938e-01
2.952000000000000000e+03 2.415344810485839844e+01 1.758238601684570312e+01 9.522543102502822876e-02 1.391397863626480103e-01 7.030956447124481201e-02 1.173227578401565552e-01
2.953000000000000000e+03 4.434021759033203125e+01 2.230993461608886719e+01 2.352081537246704102e-01 1.255045652389526367e+00 4.470761716365814209e-01 7.084493041038513184e-01
2.954000000000000000e+03 3.212775802612304688e+01 9.835473060607910156e+00 -5.967053771018981934e-01 -2.122916430234909058e-01 -2.426991164684295654e-01 -2.772680222988128662e-01
2.955000000000000000e+03 2.869610786437988281e+01 2.126985740661621094e+01 8.254759013652801514e-02 1.138211563229560852e-01 5.891062319278717041e-02 9.683404862880706787e-02
2.956000000000000000e+03 2.856028938293457031e+01 2.097817802429199219e+01 8.209145069122314453e-02 1.134086772799491882e-01 5.865003913640975952e-02 1.009193435311317444e-01
2.957000000000000000e+03 3.520174789428710938e+01 1.311184692382812500e+01 -4.005896747112274170e-01 -7.074293494224548340e-02 -1.413997858762741089e-01 -2.381502687931060791e-01
2.958000000000000000e+03 3.576140975952148438e+01 1.321988201141357422e+01 -3.644843995571136475e-01 3.781604766845703125e-02 -9.800051152706146240e-02 -1.786984801292419434e-01
2.959000000000000000e+03 4.822162628173828125e+01 2.575848579406738281e+01 7.173887491226196289e-01 2.472365379333496094e+00 9.569262266159057617e-01 1.532921314239501953e+00
2.960000000000000000e+03 4.837780380249023438e+01 2.682476615905761719e+01 9.348242282867431641e-01 2.301649570465087891e+00 9.709421396255493164e-01 1.589677572250366211e+00
2.961000000000000000e+03 1.745008659362792969e+01 1.001946067810058594e+01 1.343074291944503784e-01 2.379744052886962891e-01 1.116845533251762390e-01 1.707312166690826416e-01
2.962000000000000000e+03 3.409715652465820312e+01 1.142686462402343750e+01 -4.675851464271545410e-01 -8.674454689025878906e-02 -1.662989109754562378e-01 -2.510492503643035889e-01
2.963000000000000000e+03 3.493925476074218750e+01 1.275267982482910156e+01 -4.208289086818695068e-01 -7.747901976108551025e-02 -1.494923830032348633e-01 -2.468888759613037109e-01
2.964000000000000000e+03 4.381927490234375000e+01 2.174584770202636719e+01 1.769209802150726318e-01 1.147881150245666504e+00 3.974406421184539795e-01 6.285034418106079102e-01
2.965000000000000000e+03 4.070805740356445312e+01 1.937543296813964844e+01 -4.296739026904106140e-02 5.028671026229858398e-01 1.379699259996414185e-01 1.889223307371139526e-01
2.966000000000000000e+03 4.802651214599609375e+01 2.603157806396484375e+01 7.734130024909973145e-01 2.281686782836914062e+00 9.165299534797668457e-01 1.491652250289916992e+00
2.967000000000000000e+03 5.062567901611328125e+01 2.889857864379882812e+01 1.480245232582092285e+00 3.412229061126708984e+00 1.467742323875427246e+00 2.338148355484008789e+00
2.968000000000000000e+03 3.340686798095703125e+01 2.663263702392578125e+01 6.674373149871826172e-02 9.450083225965499878e-02 4.837336763739585876e-02 8.138784021139144897e-02
2.969000000000000000e+03 3.295359420776367188e+01 2.594902992248535156e+01 6.394489109516143799e-02 1.014177277684211731e-01 4.960878565907478333e-02 8.112636953592300415e-02
2.970000000000000000e+03 3.658042526245117188e+01 1.410135269165039062e+01 -3.258735537528991699e-01 1.129033565521240234e-01 -6.389106065034866333e-02 -1.313818693161010742e-01
2.971000000000000000e+03 2.819126510620117188e+01 2.090087509155273438e+01 8.386541157960891724e-02 1.157350763678550720e-01 5.988014489412307739e-02 1.011008769273757935e-01
2.972000000000000000e+03 3.361463928222656250e+01 2.690822601318359375e+01 6.762622296810150146e-02 1.020450517535209656e-01 5.090138316154479980e-02 7.992067933082580566e-02
2.973000000000000000e+03 3.420360183715820312e+01 2.689224815368652344e+01 7.006137073040008545e-02 1.001913249492645264e-01 5.107580870389938354e-02 8.072638511657714844e-02
2.974000000000000000e+03 2.780151748657226562e+01 2.065099143981933594e+01 8.398047834634780884e-02 1.187097206711769104e-01 6.080706045031547546e-02 1.008225232362747192e-01
2.975000000000000000e+03 4.460746765136718750e+01 2.258730888366699219e+01 2.669245004653930664e-01 1.314846515655517578e+00 4.745312929153442383e-01 7.515612840652465820e-01
2.976000000000000000e+03 2.713048744201660156e+01 2.048474693298339844e+01 8.293704688549041748e-02 1.227564513683319092e-01 6.170805171132087708e-02 1.005740612745285034e-01
2.977000000000000000e+03 2.698626136779785156e+01 1.966767883300781250e+01 8.890796452760696411e-02 1.239926144480705261e-01 6.387017667293548584e-02 1.075628027319908142e-01
2.978000000000000000e+03 2.559826660156250000e+01 1.829792976379394531e+01 9.849563241004943848e-02 1.330808699131011963e-01 6.947294622659683228e-02 1.120260879397392273e-01
2.979000000000000000e+03 4.300613403320312500e+01 2.138561630249023438e+01 1.285008937120437622e-01 9.043658375740051270e-01 3.098600208759307861e-01 4.957389533519744873e-01
2.980000000000000000e+03 3.682728576660156250e+01 1.441310214996337891e+01 -3.077932000160217285e-01 1.315309852361679077e-01 -5.287866666913032532e-02 -1.188858896493911743e-01
2.981000000000000000e+03 3.049133491516113281e+01 2.334332466125488281e+01 6.856162101030349731e-02 1.031221747398376465e-01 5.150513723492622375e-02 9.191726893186569214e-02
2.982000000000000000e+03 3.205800247192382812e+01 2.562824630737304688e+01 6.317352503538131714e-02 1.010299324989318848e-01 4.926103726029396057e-02 8.198175579309463501e-02
2.983000000000000000e+03 3.175562667846679688e+01 2.497691726684570312e+01 6.510927528142929077e-02 1.005695685744285583e-01 4.970365390181541443e-02 8.472088724374771118e-02
2.984000000000000000e+03 4.598140716552734375e+01 2.447269248962402344e+01 5.207801461219787598e-01 1.532613992691040039e+00 6.160182356834411621e-01 9.930886626243591309e-01
2.985000000000000000e+03 4.647689056396484375e+01 2.448340797424316406e+01 5.272079706192016602e-01 1.773715853691101074e+00 6.902771592140197754e-01 1.107977271080017090e+00
2.986000000000000000e+03 3.176737976074218750e+01 9.944208145141601562e+00 -6.636242866516113281e-01 -2.576183080673217773e-01 -2.763727903366088867e-01 -3.406421840190887451e-01
2.987000000000000000e+03 3.544690704345703125e+01 1.234368705749511719e+01 -3.821751475334167480e-01 6.881976872682571411e-02 -9.400661289691925049e-02 -1.638054549694061279e-01
2.988000000000000000e+03 2.531456947326660156e+01 1.803505897521972656e+01 9.932179003953933716e-02 1.330896168947219849e-01 6.972341984510421753e-02 1.152165010571479797e-01
2.989000000000000000e+03 2.445796012878417969e+01 1.835560226440429688e+01 8.811274170875549316e-02 1.371504515409469604e-01 6.757895648479461670e-02 1.096022278070449829e-01
2.990000000000000000e+03 1.539005661010742188e+01 8.484419822692871094e+00 1.172114983201026917e-01 3.209841549396514893e-01 1.314586997032165527e-01 1.713358908891677856e-01
2.991000000000000000e+03 1.511011600494384766e+01 7.842960357666015625e+00 1.219994500279426575e-01 3.571367263793945312e-01 1.437408477067947388e-01 1.778287589550018311e-01
2.992000000000000000e+03 3.706752395629882812e+01 1.473083400726318359e+01 -2.967497110366821289e-01 1.515761464834213257e-01 -4.355206713080406189e-02 -1.037815213203430176e-01
2.993000000000000000e+03 2.640971946716308594e+01 1.966338539123535156e+01 8.565466850996017456e-02 1.263517290353775024e-01 6.360191851854324341e-02 1.059258878231048584e-01
2.994000000000000000e+03 3.730791854858398438e+01 1.504605484008789062e+01 -2.801692187786102295e-01 1.707523465156555176e-01 -3.282506763935089111e-02 -8.810482919216156006e-02
2.995000000000000000e+03 2.203305435180664062e+01 1.440796661376953125e+01 1.204853653907775879e-01 1.644823402166366577e-01 8.549031615257263184e-02 1.373003721237182617e-01
2.996000000000000000e+03 2.078665351867675781e+01 1.370170497894287109e+01 1.173436865210533142e-01 1.735115349292755127e-01 8.725656569004058838e-02 1.398517340421676636e-01
2.997000000000000000e+03 5.089844512939453125e+01 2.914949607849121094e+01 1.552727103233337402e+00 3.578800678253173828e+00 1.539458394050598145e+00 2.450976133346557617e+00
2.998000000000000000e+03 5.161078643798828125e+01 2.931601905822753906e+01 1.559327006340026855e+00 4.245044231414794922e+00 1.741311311721801758e+00 2.735299587249755859e+00
2.999000000000000000e+03 3.755168151855468750e+01 1.535262489318847656e+01 -2.685612142086029053e-01 1.899890750646591187e-01 -2.357164584100246429e-02 -6.984593719244003296e-02
3.000000000000000000e+03 3.881555175781250000e+01 1.733479881286621094e+01 -1.816876977682113647e-01 2.586068212985992432e-01 2.307573519647121429e-02 5.559523589909076691e-03
3.001000000000000000e+03 4.044620513916015625e+01 1.895239639282226562e+01 -6.974175572395324707e-02 4.661951363086700439e-01 1.189360171556472778e-01 1.606566756963729858e-01
3.002000000000000000e+03 1.950540924072265625e+01 1.255483436584472656e+01 1.175557151436805725e-01 1.883616894483566284e-01 9.177522361278533936e-02 1.491861343383789062e-01
3.003000000000000000e+03 4.356464004516601562e+01 2.145226860046386719e+01 1.491495966911315918e-01 1.100633621215820312e+00 3.749349713325500488e-01 5.910539031028747559e-01
3.004000000000000000e+03 4.487723159790039062e+01 2.286282348632812500e+01 3.004379868507385254e-01 1.377208590507507324e+00 5.032939910888671875e-01 7.957192063331604004e-01
3.005000000000000000e+03 3.779959869384765625e+01 1.565009784698486328e+01 -2.522122561931610107e-01 2.135614156723022461e-01 -1.159525010734796524e-02 -5.314042419195175171e-02
3.006000000000000000e+03 5.187092590332031250e+01 2.953099441528320312e+01 1.620801925659179688e+00 4.458751678466796875e+00 1.823866128921508789e+00 2.865806579589843750e+00
3.007000000000000000e+03 5.035154342651367188e+01 2.864311027526855469e+01 1.406785964965820312e+00 3.256205558776855469e+00 1.398897409439086914e+00 2.231319904327392578e+00
3.008000000000000000e+03 3.566230010986328125e+01 2.916786575317382812e+01 6.368529051542282104e-02 9.276707470417022705e-02 4.693571105599403381e-02 7.748711854219436646e-02
3.009000000000000000e+03 3.437739562988281250e+01 2.805899047851562500e+01 6.652791053056716919e-02 9.788425266742706299e-02 4.932364821434020996e-02 7.466167211532592773e-02
3.010000000000000000e+03 2.502687263488769531e+01 1.777696418762207031e+01 1.006129607558250427e-01 1.357571035623550415e-01 7.091102004051208496e-02 1.155517548322677612e-01
3.011000000000000000e+03 2.589223861694335938e+01 1.802207946777343750e+01 1.038343757390975952e-01 1.314389854669570923e-01 7.058200985193252563e-02 1.160608977079391479e-01
3.012000000000000000e+03 4.884923934936523438e+01 2.679402732849121094e+01 9.220035672187805176e-01 2.637300729751586914e+00 1.067791342735290527e+00 1.718130469322204590e+00
3.013000000000000000e+03 4.922854995727539062e+01 2.760462379455566406e+01 1.123286008834838867e+00 2.682073354721069336e+00 1.141607880592346191e+00 1.840999245643615723e+00
3.014000000000000000e+03 3.855763244628906250e+01 1.704504203796386719e+01 -2.006416022777557373e-01 2.284241765737533569e-01 8.334774523973464966e-03 -1.463893428444862366e-02
3.015000000000000000e+03 4.951399230957031250e+01 2.786545181274414062e+01 1.192082047462463379e+00 2.820062637329101562e+00 1.203643441200256348e+00 1.933108687400817871e+00
3.016000000000000000e+03 1.782817268371582031e+01 1.006117343902587891e+01 1.401083022356033325e-01 2.319595068693161011e-01 1.116203442215919495e-01 1.745480597019195557e-01
3.017000000000000000e+03 1.923311996459960938e+01 1.233637332916259766e+01 1.183260157704353333e-01 1.929924488067626953e-01 9.339553862810134888e-02 1.500658541917800903e-01
3.018000000000000000e+03 4.875842666625976562e+01 2.625637435913085938e+01 8.022208809852600098e-01 2.712049722671508789e+00 1.054281115531921387e+00 1.678810715675354004e+00
3.019000000000000000e+03 4.571381759643554688e+01 2.420421981811523438e+01 4.790995419025421143e-01 1.469930887222290039e+00 5.847091078758239746e-01 9.372383356094360352e-01
3.020000000000000000e+03 2.643395042419433594e+01 1.911098670959472656e+01 9.261953830718994141e-02 1.275148093700408936e-01 6.604029983282089233e-02 1.095923930406570435e-01
3.021000000000000000e+03 2.615621757507324219e+01 1.883603668212890625e+01 9.549739956855773926e-02 1.302050501108169556e-01 6.771073490381240845e-02 1.091077849268913269e-01
3.022000000000000000e+03 5.212593078613281250e+01 2.972894287109375000e+01 1.669349670410156250e+00 4.689655780792236328e+00 1.907701611518859863e+00 2.999053001403808594e+00
3.023000000000000000e+03 4.189615249633789062e+01 1.997318267822265625e+01 1.982841268181800842e-02 7.663294672966003418e-01 2.358473539352416992e-01 3.556011617183685303e-01
3.024000000000000000e+03 2.221967697143554688e+01 1.469806098937988281e+01 1.183400079607963562e-01 1.629165560007095337e-01 8.437696844339370728e-02 1.337651759386062622e-01
3.025000000000000000e+03 3.602451324462890625e+01 1.300497150421142578e+01 -3.609151840209960938e-01 1.196913868188858032e-01 -7.236713916063308716e-02 -1.391671299934387207e-01
3.026000000000000000e+03 4.407735443115234375e+01 2.203026962280273438e+01 2.051800489425659180e-01 1.198950648307800293e+00 4.212392270565032959e-01 6.677222251892089844e-01
3.027000000000000000e+03 3.805111312866210938e+01 1.594092845916748047e+01 -2.406898438930511475e-01 2.397044450044631958e-01 -2.956233220174908638e-04 -3.266809880733489990e-02
3.028000000000000000e+03 2.587828826904296875e+01 1.856528663635253906e+01 9.619889408349990845e-02 1.305990219116210938e-01 6.803937256336212158e-02 1.120800375938415527e-01
3.029000000000000000e+03 1.816951370239257812e+01 1.133572101593017578e+01 1.180207282304763794e-01 2.135588079690933228e-01 9.947386384010314941e-02 1.573979407548904419e-01
3.030000000000000000e+03 3.309492111206054688e+01 2.678462219238281250e+01 6.880509853363037109e-02 9.997029602527618408e-02 5.063261836767196655e-02 7.851859182119369507e-02
3.031000000000000000e+03 2.312717437744140625e+01 1.636002922058105469e+01 9.957014024257659912e-02 1.511021107435226440e-01 7.520167529582977295e-02 1.234462931752204895e-01
3.032000000000000000e+03 3.933372116088867188e+01 1.736933517456054688e+01 -1.595350056886672974e-01 3.920603394508361816e-01 6.975759565830230713e-02 7.167410850524902344e-02
3.033000000000000000e+03 3.132219123840332031e+01 2.432894134521484375e+01 6.653583049774169922e-02 1.004577726125717163e-01 5.009808018803596497e-02 8.781258761882781982e-02
3.034000000000000000e+03 3.388375473022460938e+01 2.719392585754394531e+01 6.538396328687667847e-02 9.567011892795562744e-02 4.831622540950775146e-02 8.008905500173568726e-02
3.035000000000000000e+03 3.830531311035156250e+01 1.622808647155761719e+01 -2.239626646041870117e-01 2.679708898067474365e-01 1.320246607065200806e-02 -1.351806148886680603e-02
3.036000000000000000e+03 3.856116867065429688e+01 1.651373481750488281e+01 -2.108843177556991577e-01 2.975616753101348877e-01 2.600320614874362946e-02 7.898204959928989410e-03
3.037000000000000000e+03 2.929853057861328125e+01 2.246131896972656250e+01 6.915768235921859741e-02 1.116113513708114624e-01 5.423071235418319702e-02 9.363158047199249268e-02
3.038000000000000000e+03 4.281184768676757812e+01 2.047584915161132812e+01 7.187160849571228027e-02 9.883418679237365723e-01 3.180640339851379395e-01 4.884996116161346436e-01
3.039000000000000000e+03 1.978301620483398438e+01 1.276424694061279297e+01 1.183830797672271729e-01 1.855481117963790894e-01 9.117935597896575928e-02 1.464754641056060791e-01
3.040000000000000000e+03 3.137592697143554688e+01 2.385556602478027344e+01 7.240314781665802002e-02 1.006088703870773315e-01 5.190360546112060547e-02 8.957347273826599121e-02
3.041000000000000000e+03 4.514835357666015625e+01 2.313714408874511719e+01 3.359058797359466553e-01 1.441773533821105957e+00 5.333037972450256348e-01 8.424039483070373535e-01
3.042000000000000000e+03 3.449417495727539062e+01 2.871843147277832031e+01 6.560896337032318115e-02 9.636796265840530396e-02 4.859307780861854553e-02 7.180285453796386719e-02
3.043000000000000000e+03 3.524337768554687500e+01 2.853098297119140625e+01 6.880041956901550293e-02 9.740123152732849121e-02 4.986049607396125793e-02 7.417065650224685669e-02
3.044000000000000000e+03 5.236574554443359375e+01 2.991714668273925781e+01 1.707639932632446289e+00 4.952714920043945312e+00 1.998106479644775391e+00 3.135688066482543945e+00
3.045000000000000000e+03 2.105184936523437500e+01 1.394034862518310547e+01 1.175650432705879211e-01 1.702336370944976807e-01 8.633960038423538208e-02 1.392671316862106323e-01
3.046000000000000000e+03 1.347552680969238281e+01 6.276665687561035156e+00 9.581769257783889771e-02 5.391289591789245605e-01 1.904840022325515747e-01 8.486547321081161499e-02
3.047000000000000000e+03 2.202779960632324219e+01 1.555969715118408203e+01 1.003499850630760193e-01 1.601770818233489990e-01 7.815811783075332642e-02 1.253786832094192505e-01
3.048000000000000000e+03 3.441588211059570312e+01 1.188955593109130859e+01 -4.391104280948638916e-01 -6.651812791824340820e-02 -1.516885757446289062e-01 -2.413264662027359009e-01
3.049000000000000000e+03 3.263351821899414062e+01 1.017428112030029297e+01 -5.606917738914489746e-01 -1.829070895910263062e-01 -2.230796515941619873e-01 -2.718932628631591797e-01
3.050000000000000000e+03 2.199835586547851562e+01 1.517238235473632812e+01 1.082946285605430603e-01 1.616953164339065552e-01 8.099698275327682495e-02 1.286468505859375000e-01
3.051000000000000000e+03 4.541947555541992188e+01 2.341067695617675781e+01 3.728270828723907471e-01 1.506917238235473633e+00 5.639232993125915527e-01 8.905417323112487793e-01
3.052000000000000000e+03 4.568892669677734375e+01 2.368319892883300781e+01 4.111239314079284668e-01 1.572808504104614258e+00 5.951797366142272949e-01 9.417101740837097168e-01
3.053000000000000000e+03 5.253778457641601562e+01 3.017161560058593750e+01 1.824389576911926270e+00 5.044834136962890625e+00 2.060767173767089844e+00 3.269466876983642578e+00
3.054000000000000000e+03 3.516950225830078125e+01 2.930987358093261719e+01 7.379796355962753296e-02 9.518638998270034790e-02 5.069530755281448364e-02 7.050763070583343506e-02
3.055000000000000000e+03 3.481162261962890625e+01 2.828418350219726562e+01 6.895527988672256470e-02 9.337473660707473755e-02 4.869900643825531006e-02 8.013410121202468872e-02
3.056000000000000000e+03 3.244123458862304688e+01 9.290953636169433594e+00 -4.915635585784912109e-01 -1.282937228679656982e-01 -1.859571784734725952e-01 -1.742794662714004517e-01
3.057000000000000000e+03 1.657359504699707031e+01 9.589602470397949219e+00 1.255022287368774414e-01 2.600061595439910889e-01 1.156525239348411560e-01 1.707147955894470215e-01
3.058000000000000000e+03 5.324995422363281250e+01 2.984385108947753906e+01 1.417746543884277344e+00 6.291791915893554688e+00 2.312861442565917969e+00 3.426223516464233398e+00
3.059000000000000000e+03 5.351251602172851562e+01 3.176706314086914062e+01 2.567748785018920898e+00 5.823431491851806641e+00 2.517354011535644531e+00 4.368536949157714844e+00
3.060000000000000000e+03 1.741495704650878906e+01 1.079766559600830078e+01 1.153543516993522644e-01 2.283996194601058960e-01 1.031261906027793884e-01 1.563217490911483765e-01
3.061000000000000000e+03 1.705227851867675781e+01 1.071855545043945312e+01 1.092581152915954590e-01 2.349267452955245972e-01 1.032554581761360168e-01 1.512747704982757568e-01
3.062000000000000000e+03 1.704788589477539062e+01 1.001678657531738281e+01 1.262767165899276733e-01 2.441830635070800781e-01 1.111379340291023254e-01 1.668951511383056641e-01
3.063000000000000000e+03 1.492770671844482422e+01 8.339665412902832031e+00 1.079041287302970886e-01 3.366811573505401611e-01 1.333755850791931152e-01 1.550248116254806519e-01
3.064000000000000000e+03 1.442143440246582031e+01 7.209264755249023438e+00 1.129903644323348999e-01 4.218107461929321289e-01 1.604403406381607056e-01 1.617241054773330688e-01
3.065000000000000000e+03 1.408637142181396484e+01 6.908360481262207031e+00 1.036897748708724976e-01 4.553067386150360107e-01 1.676989495754241943e-01 1.473386138677597046e-01
3.066000000000000000e+03 1.318019104003906250e+01 5.982661247253417969e+00 1.054965704679489136e-01 5.748831629753112793e-01 2.041139155626296997e-01 2.492268383502960205e-02
3.067000000000000000e+03 1.437728881835937500e+01 7.849544525146484375e+00 1.015127822756767273e-01 3.766941428184509277e-01 1.434620767831802368e-01 1.385830789804458618e-01
3.068000000000000000e+03 3.276121139526367188e+01 5.652686595916748047e+00 -9.366360306739807129e-02 1.028414890170097351e-01 2.753366250544786453e-03 -1.139897555112838745e-01
3.069000000000000000e+03 2.995665168762207031e+01 2.361240196228027344e+01 6.940414756536483765e-02 1.076175346970558167e-01 5.310650542378425598e-02 8.940616995096206665e-02
3.070000000000000000e+03 2.981223678588867188e+01 2.302884674072265625e+01 6.664236634969711304e-02 1.073387637734413147e-01 5.219433829188346863e-02 9.302586317062377930e-02
3.071000000000000000e+03 3.244395065307617188e+01 7.124975204467773438e+00 -1.485136598348617554e-01 -3.225517645478248596e-02 -5.423065274953842163e-02 -1.138065680861473083e-01
3.072000000000000000e+03 3.210299682617187500e+01 5.634072780609130859e+00 -9.090401232242584229e-02 3.366037085652351379e-02 -1.717309281229972839e-02 -1.671018600463867188e-01
3.073000000000000000e+03 1.238782978057861328e+01 4.842702388763427734e+00 2.492925375699996948e-01 5.429784059524536133e-01 2.376812845468521118e-01 -1.759971529245376587e-01
3.074000000000000000e+03 1.285914134979248047e+01 5.716311454772949219e+00 1.334313452243804932e-01 5.601816177368164062e-01 2.080838978290557861e-01 -3.368074819445610046e-02
3.075000000000000000e+03 3.047870254516601562e+01 4.668075561523437500e+00 -1.956139206886291504e-01 -7.263412699103355408e-03 -6.086320057511329651e-02 -2.274664193391799927e-01
3.076000000000000000e+03 3.190657615661621094e+01 5.266719818115234375e+00 -1.003429889678955078e-01 4.025258868932723999e-02 -1.802711933851242065e-02 -1.775572299957275391e-01
3.077000000000000000e+03 3.249304580688476562e+01 5.354933261871337891e+00 -9.244187921285629272e-02 8.513654023408889771e-02 -2.191602718085050583e-03 -1.359207481145858765e-01
3.078000000000000000e+03 1.161008644104003906e+01 4.294054985046386719e+00 3.958643972873687744e-01 2.199306637048721313e-01 1.847385168075561523e-01 -1.861167252063751221e-01
3.079000000000000000e+03 3.272535705566406250e+01 8.192767143249511719e+00 -2.796358466148376465e-01 -4.165792092680931091e-02 -9.638813138008117676e-02 -9.225293248891830444e-02
3.080000000000000000e+03 4.061482620239257812e+01 3.356444168090820312e+01 8.436372876167297363e-02 5.952746048569679260e-02 4.316735640168190002e-02 6.672620773315429688e-02
3.081000000000000000e+03 3.745779418945312500e+01 3.099965667724609375e+01 7.007522881031036377e-02 8.776795864105224609e-02 4.735295847058296204e-02 7.169087231159210205e-02
3.082000000000000000e+03 3.543550109863281250e+01 3.030443763732910156e+01 7.459368556737899780e-02 9.229887276887893677e-02 5.006776750087738037e-02 6.715583056211471558e-02
3.083000000000000000e+03 3.789234924316406250e+01 3.172878646850585938e+01 6.520154327154159546e-02 8.923888951539993286e-02 4.633212834596633911e-02 6.846539676189422607e-02
3.084000000000000000e+03 2.528538131713867188e+01 -5.540194511413574219e-01 -4.186725318431854248e-01 -1.464917808771133423e-01 -1.695493012666702271e-01 8.356274105608463287e-03
3.085000000000000000e+03 2.577437400817871094e+01 7.626917362213134766e-01 -3.844901621341705322e-01 -1.638908982276916504e-01 -1.645143181085586548e-01 -1.151580885052680969e-01
3.086000000000000000e+03 3.256490707397460938e+01 7.665665149688720703e+00 -2.150184512138366699e-01 -5.719942227005958557e-02 -8.166535943746566772e-02 -9.392187744379043579e-02
3.087000000000000000e+03 4.879422664642333984e+00 7.689945220947265625e+00 6.870688498020172119e-02 -1.350098550319671631e-01 -1.989088952541351318e-02 6.795914471149444580e-02
3.088000000000000000e+03 2.754045677185058594e+01 -7.617791891098022461e-01 -2.345018833875656128e-01 -1.399824172258377075e-01 -1.123452931642532349e-01 7.847146131098270416e-03
3.089000000000000000e+03 2.692697334289550781e+01 -1.300835371017456055e+00 -2.634498476982116699e-01 -1.611979603767395020e-01 -1.273943334817886353e-01 5.259706452488899231e-02
3.090000000000000000e+03 6.690735340118408203e+00 6.022437572479248047e+00 1.167860478162765503e-01 -1.374660283327102661e-01 -6.203991826623678207e-03 9.997676312923431396e-02
3.091000000000000000e+03 3.967812776565551758e+00 6.845250129699707031e+00 4.611580818891525269e-02 -1.416411846876144409e-01 -2.865761332213878632e-02 8.626443147659301758e-02
3.092000000000000000e+03 3.123698425292968750e+01 2.483720588684082031e+01 6.758575886487960815e-02 1.021489650011062622e-01 5.092041939496994019e-02 8.686825633049011230e-02
3.093000000000000000e+03 3.109086418151855469e+01 -3.038832426071166992e+00 -6.003729626536369324e-02 9.295418113470077515e-02 9.875064715743064880e-03 3.086267225444316864e-02
3.094000000000000000e+03 7.485785007476806641e+00 4.934863567352294922e+00 1.290407031774520874e-01 -1.686811149120330811e-01 -1.189212501049041748e-02 1.461250782012939453e-01
3.095000000000000000e+03 6.085654735565185547e+00 6.332310199737548828e+00 9.673003107309341431e-02 -1.378075778484344482e-01 -1.232326123863458633e-02 9.993417561054229736e-02
3.096000000000000000e+03 2.561644554138183594e+01 -1.486577689647674561e-01 -3.968191146850585938e-01 -1.592012345790863037e-01 -1.668061017990112305e-01 -1.943269744515419006e-02
3.097000000000000000e+03 3.668135452270507812e+01 3.140623283386230469e+01 7.054036855697631836e-02 9.127829968929290771e-02 4.854559898376464844e-02 6.428048759698867798e-02
3.098000000000000000e+03 8.827176094055175781e+00 4.829644203186035156e+00 2.171151638031005859e-01 -1.611339449882507324e-01 1.679436862468719482e-02 8.861319720745086670e-02
3.099000000000000000e+03 8.446024894714355469e+00 5.246990203857421875e+00 1.931426674127578735e-01 -1.440904140472412109e-01 1.471567433327436447e-02 8.274511992931365967e-02
3.100000000000000000e+03 4.111357498168945312e+01 3.365934753417968750e+01 7.423081248998641968e-02 7.450211048126220703e-02 4.461987689137458801e-02 7.603541761636734009e-02
3.101000000000000000e+03 4.125004196166992188e+01 3.494308853149414062e+01 8.506508916616439819e-02 4.879125580191612244e-02 4.015690460801124573e-02 7.693957537412643433e-02
3.102000000000000000e+03 3.948873519897460938e+01 3.373749923706054688e+01 6.262035667896270752e-02 8.479520678520202637e-02 4.422466829419136047e-02 7.270569354295730591e-02
3.103000000000000000e+03 8.060947418212890625e+00 5.741885662078857422e+00 1.734282672405242920e-01 -1.304945647716522217e-01 1.288011390715837479e-02 7.517891377210617065e-02
3.104000000000000000e+03 2.501431846618652344e+01 5.525173544883728027e-01 -4.633620083332061768e-01 -1.538718342781066895e-01 -1.851701587438583374e-01 -1.079788580536842346e-01
3.105000000000000000e+03 6.188592433929443359e+00 -7.763573169708251953e+00 -1.881522871553897858e-02 -1.636783778667449951e-01 -5.474808067083358765e-02 -2.099888920783996582e-01
3.106000000000000000e+03 6.020510864257812500e+01 3.740806198120117188e+01 2.271616220474243164e+00 1.298353672027587891e+01 4.576545715332031250e+00 1.785259485244750977e+00
3.107000000000000000e+03 5.548165130615234375e+01 3.967012786865234375e+01 -9.443249106407165527e-01 1.123149871826171875e+01 3.086152076721191406e+00 -1.526878714561462402e+00
3.108000000000000000e+03 4.045991134643554688e+01 3.417552947998046875e+01 7.617042958736419678e-02 8.079920709133148193e-02 4.709089174866676331e-02 7.258814573287963867e-02
3.109000000000000000e+03 7.273500919342041016e+00 -8.598859786987304688e+00 5.993445403873920441e-03 -1.797309517860412598e-01 -5.212125182151794434e-02 -2.308535724878311157e-01
3.110000000000000000e+03 9.116413116455078125e+00 -6.216522216796875000e+00 -6.914411485195159912e-02 -1.356631070375442505e-01 -6.144216656684875488e-02 -2.857144773006439209e-01
3.111000000000000000e+03 5.872550582885742188e+01 3.597339248657226562e+01 5.626839160919189453e+00 1.391373634338378906e+01 5.862172603607177734e+00 2.165930747985839844e+00
3.112000000000000000e+03 5.968759918212890625e+01 3.645525741577148438e+01 3.968133926391601562e+00 1.295384502410888672e+01 5.076593875885009766e+00 1.858917713165283203e+00
3.113000000000000000e+03 3.957018280029296875e+01 3.317117309570312500e+01 8.746626973152160645e-02 6.252406537532806396e-02 4.499709978699684143e-02 6.681481003761291504e-02
3.114000000000000000e+03 6.794754505157470703e+00 7.867044448852539062e+00 1.130360066890716553e-01 -9.888497740030288696e-02 4.245309624820947647e-03 4.206107556819915771e-02
3.115000000000000000e+03 1.123002624511718750e+01 4.725594997406005859e+00 3.431448936462402344e-01 1.275244802236557007e-01 1.412008106708526611e-01 -1.413909941911697388e-01
3.116000000000000000e+03 1.317051124572753906e+01 6.561695098876953125e+00 9.755841642618179321e-02 4.892306327819824219e-01 1.760367155075073242e-01 3.835428133606910706e-02
3.117000000000000000e+03 6.957014560699462891e+00 -1.106637859344482422e+01 4.911894351243972778e-02 -2.215543091297149658e-01 -5.173060670495033264e-02 -1.968725770711898804e-01
3.118000000000000000e+03 1.048062992095947266e+01 5.478315830230712891e+00 2.711774110794067383e-01 3.671244159340858459e-02 9.236695617437362671e-02 -7.025668025016784668e-02
3.119000000000000000e+03 9.266489982604980469e+00 5.210528373718261719e+00 2.372367382049560547e-01 -1.113946363329887390e-01 3.775263205170631409e-02 3.345142677426338196e-02
3.120000000000000000e+03 4.070275115966796875e+01 3.545336151123046875e+01 8.505257964134216309e-02 8.116588741540908813e-02 4.986554011702537537e-02 5.690095946192741394e-02
3.121000000000000000e+03 7.845305442810058594e+00 2.183047485351562500e+01 -4.298009444028139114e-03 -3.792393207550048828e-02 -1.266658306121826172e-02 -1.719035767018795013e-02
3.122000000000000000e+03 4.080701446533203125e+01 -1.216637420654296875e+01 -1.736916154623031616e-01 1.952055573463439941e+00 5.335091948509216309e-01 -1.315237283706665039e-01
3.123000000000000000e+03 7.592117309570312500e+00 2.057540321350097656e+01 -5.088692996650934219e-03 -4.230752959847450256e-02 -1.421886682510375977e-02 -1.803311519324779510e-02
3.124000000000000000e+03 8.542430877685546875e+00 2.403341674804687500e+01 -6.487879436463117599e-03 -3.162188827991485596e-02 -1.143293082714080811e-02 -1.440216321498155594e-02
3.125000000000000000e+03 2.979080963134765625e+01 -2.160691261291503906e+00 -9.110806137323379517e-02 -3.827163204550743103e-02 -3.881390765309333801e-02 3.860091045498847961e-02
3.126000000000000000e+03 2.910341072082519531e+01 -2.443815946578979492e+00 -1.130916997790336609e-01 -8.588509261608123779e-02 -5.969303846359252930e-02 7.254348695278167725e-02
3.127000000000000000e+03 1.280816650390625000e+01 -6.301672935485839844e+00 2.221761457622051239e-02 -2.006330937147140503e-01 -5.352464318275451660e-02 -3.199468851089477539e-01
3.128000000000000000e+03 1.056341075897216797e+01 -6.090384006500244141e+00 -6.816668808460235596e-02 -1.544264107942581177e-01 -6.677792966365814209e-02 -3.226579725742340088e-01
3.129000000000000000e+03 1.129762172698974609e+01 -6.104863643646240234e+00 -5.256832763552665710e-02 -1.676746308803558350e-01 -6.607288867235183716e-02 -3.289579451084136963e-01
3.130000000000000000e+03 3.773584365844726562e+01 -7.660006523132324219e+00 -1.003296151757240295e-01 1.241916418075561523e+00 3.424760401248931885e-01 -5.168792232871055603e-02
3.131000000000000000e+03 2.823604393005371094e+01 -1.928654432296752930e+00 -1.521545648574829102e-01 -1.268437206745147705e-01 -8.369948714971542358e-02 7.777269929647445679e-02
3.132000000000000000e+03 3.269997406005859375e+01 -5.002968311309814453e+00 -6.385672092437744141e-02 2.786297500133514404e-01 6.443190574645996094e-02 1.887232623994350433e-02
3.133000000000000000e+03 3.207839965820312500e+01 -4.054983615875244141e+00 -5.266883969306945801e-02 2.178264111280441284e-01 4.954727366566658020e-02 2.912172488868236542e-02
3.134000000000000000e+03 7.134316921234130859e+00 1.474794578552246094e+01 1.891209557652473450e-02 -3.862193599343299866e-02 -5.912953056395053864e-03 -1.534302812069654465e-02
3.135000000000000000e+03 1.606947708129882812e+01 -1.539776802062988281e+01 1.239072382450103760e-01 1.334969252347946167e-01 7.722125202417373657e-02 -1.483644992113113403e-01
3.136000000000000000e+03 1.729273796081542969e+01 -1.650698089599609375e+01 1.202556714415550232e-01 2.037128359079360962e-01 9.719055145978927612e-02 -1.549610644578933716e-01
3.137000000000000000e+03 8.880153656005859375e+00 1.789294624328613281e+01 1.784766209311783314e-03 -8.576980326324701309e-05 5.096989334560930729e-04 -1.111144572496414185e-02
3.138000000000000000e+03 4.038066864013671875e+00 7.828615188598632812e+00 4.780496656894683838e-02 -1.453108340501785278e-01 -2.925175800919532776e-02 6.745429337024688721e-02
3.139000000000000000e+03 7.216136932373046875e+01 2.155066871643066406e+01 -2.294423729181289673e-01 7.669342517852783203e+00 2.231970071792602539e+00 -1.284124016761779785e+00
3.140000000000000000e+03 1.971125221252441406e+01 -2.365308189392089844e+01 1.013944447040557861e-01 2.269036471843719482e-01 9.848943352699279785e-02 -1.688891053199768066e-01
3.141000000000000000e+03 2.363476753234863281e+01 -2.853090286254882812e+01 9.750016778707504272e-02 3.217447698116302490e-01 1.257734745740890503e-01 -1.811220794916152954e-01
3.142000000000000000e+03 2.070290565490722656e+01 -2.631086540222167969e+01 1.065801456570625305e-01 2.316714823246002197e-01 1.014754921197891235e-01 -1.644733101129531860e-01
3.143000000000000000e+03 1.902962684631347656e+01 -2.225438690185546875e+01 7.294327020645141602e-02 2.158179879188537598e-01 8.662837743759155273e-02 -1.653661876916885376e-01
3.144000000000000000e+03 3.943453979492187500e+01 -1.122928810119628906e+01 -1.545888036489486694e-01 1.590844869613647461e+00 4.308768212795257568e-01 -1.150006875395774841e-01
3.145000000000000000e+03 3.879782485961914062e+01 -9.682990074157714844e+00 -1.301259547472000122e-01 1.477231502532958984e+00 4.041316509246826172e-01 -7.401302456855773926e-02
3.146000000000000000e+03 4.132363128662109375e+01 -1.326528358459472656e+01 -1.883848011493682861e-01 2.084876537322998047e+00 5.689475536346435547e-01 -1.517981290817260742e-01
3.147000000000000000e+03 4.053377151489257812e+01 -1.108408355712890625e+01 -1.624616086483001709e-01 1.883276343345642090e+00 5.162444114685058594e-01 -1.127187088131904602e-01
3.148000000000000000e+03 3.642033004760742188e+01 -9.299181938171386719e+00 -9.675894677639007568e-02 9.169905781745910645e-01 2.460694909095764160e-01 -4.638378322124481201e-02
3.149000000000000000e+03 3.711730194091796875e+01 -8.479968070983886719e+00 -1.002472937107086182e-01 1.088257789611816406e+00 2.964031696319580078e-01 -5.106617137789726257e-02
3.150000000000000000e+03 4.673571014404296875e+01 -2.358092498779296875e+01 -2.089478522539138794e-01 4.005485057830810547e+00 1.138961195945739746e+00 -2.360082119703292847e-01
3.151000000000000000e+03 7.289151000976562500e+01 -1.946914672851562500e+01 -2.702507004141807556e-02 8.128911972045898438e+00 2.430566072463989258e+00 2.379749417304992676e-01
3.152000000000000000e+03 7.203446960449218750e+01 -2.417186355590820312e+01 -2.970230765640735626e-03 7.896780967712402344e+00 2.368143320083618164e+00 2.771608829498291016e-01
3.153000000000000000e+03 6.512832164764404297e+00 -1.393028545379638672e+01 4.603548720479011536e-02 -2.621458172798156738e-01 -6.483310461044311523e-02 -1.531315594911575317e-01
3.154000000000000000e+03 7.419316101074218750e+01 3.086977577209472656e+01 2.168576717376708984e-01 6.248754501342773438e+00 1.939683675765991211e+00 -1.044211745262145996e+00
3.155000000000000000e+03 7.049084472656250000e+01 -4.360544204711914062e+00 -1.592216640710830688e-01 7.932752132415771484e+00 2.332059144973754883e+00 3.928915597498416901e-03
3.156000000000000000e+03 1.440162563323974609e+01 -8.023747444152832031e+00 1.593241244554519653e-01 -8.788413554430007935e-02 2.143199555575847626e-02 -1.907087415456771851e-01
3.157000000000000000e+03 7.200862121582031250e+01 1.398787307739257812e+01 -3.153570294380187988e-01 7.990117073059082031e+00 2.302428007125854492e+00 -7.994091510772705078e-01
3.158000000000000000e+03 7.303582000732421875e+01 4.009442806243896484e+00 -1.614263206720352173e-01 8.313525199890136719e+00 2.445629596710205078e+00 -2.571765184402465820e-01
3.159000000000000000e+03 7.270744323730468750e+01 2.728518867492675781e+01 9.189999848604202271e-02 7.070782661437988281e+00 2.148804903030395508e+00 -1.360925674438476562e+00
3.160000000000000000e+03 7.177990722656250000e+01 2.781364440917968750e+01 1.468571275472640991e-01 7.327074050903320312e+00 2.242179393768310547e+00 -1.448300242424011230e+00
3.161000000000000000e+03 8.662844657897949219e+00 2.590022277832031250e+01 -7.899296469986438751e-03 -3.462054952979087830e-02 -1.275595370680093765e-02 -1.302541326731443405e-02
3.162000000000000000e+03 3.703662109375000000e+01 -7.051637172698974609e+00 -8.788481354713439941e-02 1.087295532226562500e+00 2.998232245445251465e-01 -3.423252329230308533e-02
3.163000000000000000e+03 3.439798355102539062e+01 -6.565905094146728516e+00 -6.942743062973022461e-02 5.568829178810119629e-01 1.462366431951522827e-01 1.801724429242312908e-03
3.164000000000000000e+03 7.280880737304687500e+01 -2.493895149230957031e+01 1.486980542540550232e-02 7.991775035858154297e+00 2.401993513107299805e+00 2.517451941967010498e-01
3.165000000000000000e+03 1.437131786346435547e+01 -1.211423397064208984e+01 1.551812440156936646e-01 2.060995995998382568e-02 5.273736268281936646e-02 -1.462735831737518311e-01
3.166000000000000000e+03 1.449610710144042969e+01 -1.115096759796142578e+01 1.633997112512588501e-01 1.475573796778917313e-02 5.344663560390472412e-02 -1.526777893304824829e-01
3.167000000000000000e+03 4.140690231323242188e+01 -1.819067955017089844e+01 -1.562029272317886353e-01 2.113953113555908203e+00 5.873250365257263184e-01 -2.955647110939025879e-01
3.168000000000000000e+03 7.212989044189453125e+01 -1.554347896575927734e+01 -5.710726976394653320e-02 8.095752716064453125e+00 2.411593675613403320e+00 2.114650160074234009e-01
3.169000000000000000e+03 7.240214538574218750e+01 9.103275299072265625e+00 -2.423881292343139648e-01 8.138975143432617188e+00 2.368976116180419922e+00 -5.029749274253845215e-01
3.170000000000000000e+03 7.208278656005859375e+01 5.431996345520019531e+00 -2.148184925317764282e-01 8.162984848022460938e+00 2.384449720382690430e+00 -3.290352523326873779e-01
3.171000000000000000e+03 7.040099334716796875e+01 3.240741491317749023e+00 -2.522409260272979736e-01 7.937038898468017578e+00 2.305439472198486328e+00 -2.419984191656112671e-01
3.172000000000000000e+03 5.947501659393310547e+00 -1.136615848541259766e+01 3.255861625075340271e-02 -2.382470518350601196e-01 -6.170653179287910461e-02 -1.796394288539886475e-01
3.173000000000000000e+03 7.168418121337890625e+01 -5.388115882873535156e+00 -1.206264123320579529e-01 8.131705284118652344e+00 2.403323650360107422e+00 2.850424125790596008e-02
3.174000000000000000e+03 7.198436737060546875e+01 1.885848999023437500e+01 -3.087868094444274902e-01 7.824542522430419922e+00 2.254726886749267578e+00 -1.125914692878723145e+00
3.175000000000000000e+03 7.240461730957031250e+01 1.030869770050048828e+01 -2.599820494651794434e-01 8.111145973205566406e+00 2.355349302291870117e+00 -5.675387382507324219e-01
3.176000000000000000e+03 7.352291107177734375e+01 9.170885086059570312e+00 -1.897418946027755737e-01 8.246411323547363281e+00 2.417001008987426758e+00 -4.736578464508056641e-01
3.177000000000000000e+03 7.213668823242187500e+01 2.021551132202148438e+01 -2.766865491867065430e-01 7.746654033660888672e+00 2.240990400314331055e+00 -1.210367679595947266e+00
3.178000000000000000e+03 7.165554809570312500e+01 -4.134303569793701172e+00 -1.333445608615875244e-01 8.135110855102539062e+00 2.400530099868774414e+00 -3.705906448885798454e-03
3.179000000000000000e+03 7.801542282104492188e+00 2.706287956237792969e+01 -7.411969359964132309e-03 -5.089974775910377502e-02 -1.749351434409618378e-02 -1.242783851921558380e-02
3.180000000000000000e+03 7.325099182128906250e+01 -1.301481819152832031e+01 -5.983186140656471252e-02 8.319206237792968750e+00 2.477812290191650391e+00 1.572397053241729736e-01
3.181000000000000000e+03 7.205181121826171875e+01 -1.434130382537841797e+01 -6.737382709980010986e-02 8.109208106994628906e+00 2.412550449371337891e+00 1.947006285190582275e-01
3.182000000000000000e+03 8.487199783325195312e+00 1.928744316101074219e+01 -5.573831731453537941e-04 -1.412739604711532593e-02 -4.405433777719736099e-03 -1.262165140360593796e-02
3.183000000000000000e+03 1.453743743896484375e+01 -1.011472988128662109e+01 1.684731692075729370e-01 -6.948052439838647842e-03 4.845753684639930725e-02 -1.539570689201354980e-01
3.184000000000000000e+03 1.418257331848144531e+01 -7.062612056732177734e+00 1.246907189488410950e-01 -1.501378268003463745e-01 -7.634134031832218170e-03 -2.396179437637329102e-01
3.185000000000000000e+03 8.467642784118652344e+00 6.138122081756591797e+00 1.879043281078338623e-01 -9.901666641235351562e-02 2.666629664599895477e-02 3.886351734399795532e-02
3.186000000000000000e+03 7.972105503082275391e+00 8.334057807922363281e+00 1.243246868252754211e-01 -4.970881342887878418e-02 2.238476090133190155e-02 8.545299060642719269e-03
3.187000000000000000e+03 7.375646591186523438e+00 -2.094178581237792969e+01 4.524710401892662048e-02 -2.887797355651855469e-01 -7.305978983640670776e-02 -9.167192876338958740e-02
3.188000000000000000e+03 7.199833679199218750e+01 -1.192206287384033203e+01 -8.546610176563262939e-02 8.118776321411132812e+00 2.409992933273315430e+00 1.530319303274154663e-01
3.189000000000000000e+03 2.164573860168457031e+01 -2.429669380187988281e+01 1.114855408668518066e-01 2.881269454956054688e-01 1.198837533593177795e-01 -1.853276193141937256e-01
3.190000000000000000e+03 7.265779113769531250e+01 -2.971037101745605469e+01 3.883699700236320496e-02 7.860966682434082031e+00 2.369940996170043945e+00 2.258392721414566040e-01
3.191000000000000000e+03 6.950093078613281250e+01 -2.938747978210449219e+01 6.582082062959671021e-02 7.467157363891601562e+00 2.259893417358398438e+00 3.012157082557678223e-01
3.192000000000000000e+03 7.203488159179687500e+01 -1.793806076049804688e+01 -4.351331293582916260e-02 8.034154891967773438e+00 2.397192478179931641e+00 2.396837472915649414e-01
3.193000000000000000e+03 7.291623687744140625e+01 -6.549909591674804688e+00 -8.485926687717437744e-02 8.337335586547851562e+00 2.475742816925048828e+00 4.504439979791641235e-02
3.194000000000000000e+03 7.188071441650390625e+01 -1.068226337432861328e+01 -8.107287436723709106e-02 8.118859291076660156e+00 2.411335945129394531e+00 1.403177678585052490e-01
3.195000000000000000e+03 7.022243499755859375e+01 -2.755226898193359375e+01 3.797445446252822876e-02 7.597254753112792969e+00 2.290568828582763672e+00 3.099992573261260986e-01
3.196000000000000000e+03 7.053697967529296875e+01 2.659833526611328125e+01 6.212950870394706726e-02 7.678521156311035156e+00 2.322195053100585938e+00 -1.540708303451538086e+00
3.197000000000000000e+03 7.237225341796875000e+01 1.182183623313903809e+00 -1.580558866262435913e-01 8.244009971618652344e+00 2.425786256790161133e+00 -1.606177687644958496e-01
3.198000000000000000e+03 7.113303375244140625e+01 1.700598239898681641e+00 -2.082538455724716187e-01 8.039894104003906250e+00 2.349492073059082031e+00 -1.841933280229568481e-01
3.199000000000000000e+03 7.065975189208984375e+01 -9.602595567703247070e-01 -1.863643676042556763e-01 7.975172996520996094e+00 2.336642742156982422e+00 -9.227208793163299561e-02
3.200000000000000000e+03 4.330145645141601562e+01 -1.851995849609375000e+01 -2.187345325946807861e-01 2.699963569641113281e+00 7.443687319755554199e-01 -2.874453663825988770e-01
3.201000000000000000e+03 7.158310699462890625e+01 -6.724544048309326172e+00 -1.177343577146530151e-01 8.099369049072265625e+00 2.394490242004394531e+00 6.135955452919006348e-02
3.202000000000000000e+03 1.273043155670166016e+01 -2.219463729858398438e+01 5.141363292932510376e-02 -5.485222861170768738e-02 -1.031578402034938335e-03 -1.107213944196701050e-01
3.203000000000000000e+03 8.792098999023437500e+00 -2.547800445556640625e+01 3.275646641850471497e-02 -2.531273663043975830e-01 -6.611126661300659180e-02 -7.753937691450119019e-02
3.204000000000000000e+03 3.395867156982421875e+01 -5.624746799468994141e+00 -5.478079989552497864e-02 4.867194294929504395e-01 1.295815855264663696e-01 3.470295341685414314e-03
3.205000000000000000e+03 7.313377380371093750e+01 -3.291547012329101562e+01 5.665649846196174622e-02 7.886647701263427734e+00 2.382991313934326172e+00 1.881722807884216309e-01
3.206000000000000000e+03 7.114989471435546875e+01 -2.058336448669433594e+01 -3.073919937014579773e-02 7.858962535858154297e+00 2.348467111587524414e+00 2.782242000102996826e-01
3.207000000000000000e+03 2.449781417846679688e+01 -3.247476959228515625e+01 1.447541266679763794e-01 2.816739082336425781e-01 1.279284060001373291e-01 -1.359882354736328125e-01
3.208000000000000000e+03 2.211168098449707031e+01 -2.982389640808105469e+01 1.281008273363113403e-01 2.502050697803497314e-01 1.134917736053466797e-01 -1.573066860437393188e-01
3.209000000000000000e+03 1.064125347137451172e+01 2.891738700866699219e+01 -7.708926685154438019e-03 -1.288598403334617615e-02 -6.178473122417926788e-03 -6.409464869648218155e-03
3.210000000000000000e+03 9.804961204528808594e+00 2.770391273498535156e+01 -9.811508469283580780e-03 -2.248647063970565796e-02 -9.689393453299999237e-03 -8.459040895104408264e-03
3.211000000000000000e+03 6.882302093505859375e+01 -2.691785430908203125e+01 2.596564777195453644e-02 7.427316665649414062e+00 2.235984802246093750e+00 3.367936015129089355e-01
3.212000000000000000e+03 7.250096893310546875e+01 -2.704189300537109375e+01 2.215952984988689423e-02 7.899117946624755859e+00 2.376383066177368164e+00 2.525366246700286865e-01
3.213000000000000000e+03 7.152396392822265625e+01 2.654519081115722656e+01 5.591933801770210266e-02 7.485628128051757812e+00 2.262464284896850586e+00 -1.482264399528503418e+00
3.214000000000000000e+03 9.043290138244628906e+00 -3.683258819580078125e+01 2.359535172581672668e-02 -3.081230223178863525e-01 -8.535829931497573853e-02 -2.339972369372844696e-02
3.215000000000000000e+03 9.764595985412597656e+00 -3.446480941772460938e+01 2.675239741802215576e-02 -2.485684901475906372e-01 -6.654483079910278320e-02 -4.687032103538513184e-02
3.216000000000000000e+03 1.003121185302734375e+01 -3.047484397888183594e+01 3.628471121191978455e-02 -2.254598587751388550e-01 -5.675254389643669128e-02 -6.313944607973098755e-02
3.217000000000000000e+03 8.568696975708007812e+00 -3.043196487426757812e+01 1.667696051299571991e-02 -2.969278395175933838e-01 -8.407525718212127686e-02 -4.241592809557914734e-02
3.218000000000000000e+03 7.272885131835937500e+01 -2.828492164611816406e+01 3.313388675451278687e-02 7.912710189819335938e+00 2.383753299713134766e+00 2.422605305910110474e-01
3.219000000000000000e+03 4.172586441040039062e+01 -1.622790718078613281e+01 -1.903897076845169067e-01 2.203116416931152344e+00 6.038179993629455566e-01 -2.360092699527740479e-01
3.220000000000000000e+03 7.337853240966796875e+01 6.629984855651855469e+00 -1.721996217966079712e-01 8.306576728820800781e+00 2.440313100814819336e+00 -3.589700460433959961e-01
3.221000000000000000e+03 1.145032310485839844e+01 -2.551230239868164062e+01 5.169055983424186707e-02 -1.357511281967163086e-01 -2.521816827356815338e-02 -8.462776243686676025e-02
3.222000000000000000e+03 2.752893638610839844e+01 3.081753015518188477e+00 -2.831572890281677246e-01 -2.110789418220520020e-01 -1.482708603143692017e-01 -2.134646326303482056e-01
3.223000000000000000e+03 2.758320999145507812e+01 3.368779897689819336e+00 -3.051540851593017578e-01 -2.206842303276062012e-01 -1.577514857053756714e-01 -2.267625480890274048e-01
3.224000000000000000e+03 2.707716941833496094e+01 2.770415306091308594e+00 -3.090573847293853760e-01 -2.141455411911010742e-01 -1.569608747959136963e-01 -2.201019674539566040e-01
3.225000000000000000e+03 2.666457176208496094e+01 2.322308063507080078e+00 -3.150131106376647949e-01 -2.066891342401504517e-01 -1.565106809139251709e-01 -2.077419310808181763e-01
3.226000000000000000e+03 2.575996017456054688e+01 2.202597618103027344e+00 -3.721219003200531006e-01 -2.086025178432464600e-01 -1.742173284292221069e-01 -2.300776988267898560e-01
3.227000000000000000e+03 2.650495147705078125e+01 2.008837699890136719e+00 -3.377152681350708008e-01 -1.966489404439926147e-01 -1.603092551231384277e-01 -1.854125261306762695e-01
3.228000000000000000e+03 5.405982589721679688e+01 3.287458419799804688e+01 3.427921772003173828e+00 6.375899791717529297e+00 2.941146373748779297e+00 5.389470577239990234e+00
3.229000000000000000e+03 5.312202835083007812e+01 3.290882492065429688e+01 3.118449687957763672e+00 3.099834203720092773e+00 1.865485191345214844e+00 3.642549753189086914e+00
3.230000000000000000e+03 5.861075210571289062e+01 3.353475952148437500e+01 4.638135433197021484e+00 1.384626483917236328e+01 5.545320034027099609e+00 -1.031344294548034668e+00
3.231000000000000000e+03 5.800377273559570312e+01 3.473000717163085938e+01 7.803351402282714844e+00 1.462053775787353516e+01 6.727166652679443359e+00 8.941973745822906494e-02
3.232000000000000000e+03 5.780387878417968750e+01 3.337749862670898438e+01 4.349121570587158203e+00 1.562265396118164062e+01 5.991532802581787109e+00 -1.122196555137634277e+00
3.233000000000000000e+03 5.613222885131835938e+01 3.240510559082031250e+01 1.052423715591430664e+00 1.551618862152099609e+01 4.970583438873291016e+00 2.913480281829833984e+00
3.234000000000000000e+03 5.582461929321289062e+01 3.227085494995117188e+01 1.039009571075439453e+00 1.440737915039062500e+01 4.633916854858398438e+00 3.731430292129516602e+00
3.235000000000000000e+03 4.067445755004882812e+01 1.870739936828613281e+01 -7.140056043863296509e-02 5.831267833709716797e-01 1.535178720951080322e-01 2.081812620162963867e-01
3.236000000000000000e+03 4.220689773559570312e+01 1.861405563354492188e+01 -3.636664152145385742e-02 1.069547891616821289e+00 3.099544048309326172e-01 4.279431104660034180e-01
3.237000000000000000e+03 1.472743225097656250e+01 9.303344726562500000e+00 8.879110217094421387e-02 2.970804274082183838e-01 1.157614588737487793e-01 1.239163130521774292e-01
3.238000000000000000e+03 1.897403526306152344e+01 1.263796138763427734e+01 1.084224134683609009e-01 1.912454068660736084e-01 8.990034461021423340e-02 1.438497900962829590e-01
3.239000000000000000e+03 3.376829147338867188e+01 1.114176559448242188e+01 -4.852226674556732178e-01 -1.084970608353614807e-01 -1.781159192323684692e-01 -2.631551921367645264e-01
3.240000000000000000e+03 3.438615798950195312e+01 1.117103672027587891e+01 -4.332699179649353027e-01 -1.363585120998322964e-03 -1.303900480270385742e-01 -1.952101886272430420e-01
3.241000000000000000e+03 3.959133529663085938e+01 1.765099143981933594e+01 -1.428898125886917114e-01 4.241349995136260986e-01 8.437354862689971924e-02 9.518782794475555420e-02
3.242000000000000000e+03 4.256637954711914062e+01 2.009750747680664062e+01 4.464145377278327942e-02 9.610893726348876953e-01 3.017192482948303223e-01 4.572831690311431885e-01
3.243000000000000000e+03 3.382714462280273438e+01 1.045719242095947266e+01 -4.485477209091186523e-01 -2.208421006798744202e-02 -1.411895751953125000e-01 -1.902695596218109131e-01
3.244000000000000000e+03 4.036954498291015625e+01 1.793124198913574219e+01 -1.041612997651100159e-01 6.052887439727783203e-01 1.503382325172424316e-01 1.912357956171035767e-01
3.245000000000000000e+03 5.749645996093750000e+01 3.326261901855468750e+01 3.791198492050170898e+00 1.638539505004882812e+01 6.052978038787841797e+00 -9.143437147140502930e-01
3.246000000000000000e+03 3.188891220092773438e+01 2.609563255310058594e+01 6.630726158618927002e-02 9.916394203901290894e-02 4.964136332273483276e-02 8.323062956333160400e-02
3.247000000000000000e+03 4.724800491333007812e+01 2.526695060729980469e+01 6.452532410621643066e-01 2.003495931625366211e+00 7.946247458457946777e-01 1.292493939399719238e+00
3.248000000000000000e+03 4.745955657958984375e+01 2.501103591918945312e+01 6.017857789993286133e-01 2.185837745666503906e+00 8.362870216369628906e-01 1.339494943618774414e+00
3.249000000000000000e+03 5.822918319702148438e+01 3.438415527343750000e+01 6.758877754211425781e+00 1.423604488372802734e+01 6.298476696014404297e+00 -3.807550370693206787e-01
3.250000000000000000e+03 3.603991317749023438e+01 1.350527477264404297e+01 -3.568616211414337158e-01 6.134890392422676086e-02 -8.865381777286529541e-02 -1.641098856925964355e-01
3.251000000000000000e+03 3.478853225708007812e+01 1.192440605163574219e+01 -4.182126522064208984e-01 -1.137832831591367722e-02 -1.288772970438003540e-01 -2.126771807670593262e-01
3.252000000000000000e+03 4.695919418334960938e+01 2.449651527404785156e+01 5.268425345420837402e-01 2.022313356399536133e+00 7.647467255592346191e-01 1.217147350311279297e+00
3.253000000000000000e+03 4.771239852905273438e+01 2.526102447509765625e+01 6.376631855964660645e-01 2.275557279586791992e+00 8.739660978317260742e-01 1.402907013893127441e+00
3.254000000000000000e+03 1.596082305908203125e+01 9.314722061157226562e+00 1.162526607513427734e-01 2.787224054336547852e-01 1.184925213456153870e-01 1.651847064495086670e-01
3.255000000000000000e+03 3.424457931518554688e+01 2.744477462768554688e+01 6.719762086868286133e-02 9.939723461866378784e-02 4.997845739126205444e-02 7.836060225963592529e-02
3.256000000000000000e+03 2.354487800598144531e+01 1.712955284118652344e+01 9.475474804639816284e-02 1.443677991628646851e-01 7.173676043748855591e-02 1.193991228938102722e-01
3.257000000000000000e+03 1.523394298553466797e+01 8.934907913208007812e+00 1.045735627412796021e-01 3.052183091640472412e-01 1.229375600814819336e-01 1.511835604906082153e-01
3.258000000000000000e+03 2.322741317749023438e+01 1.691942977905273438e+01 9.395055472850799561e-02 1.477638632059097290e-01 7.251432538032531738e-02 1.187378317117691040e-01
3.259000000000000000e+03 2.273229217529296875e+01 1.618865776062011719e+01 9.933125972747802734e-02 1.530565023422241211e-01 7.571633160114288330e-02 1.238350048661231995e-01
3.260000000000000000e+03 2.164472770690917969e+01 1.553410434722900391e+01 9.930992871522903442e-02 1.607723087072372437e-01 7.802467048168182373e-02 1.237391978502273560e-01
3.261000000000000000e+03 2.247337150573730469e+01 1.565194225311279297e+01 1.049390584230422974e-01 1.574261039495468140e-01 7.870955020189285278e-02 1.271078884601593018e-01
3.262000000000000000e+03 2.026770782470703125e+01 1.370977592468261719e+01 1.103703454136848450e-01 1.758582144975662231e-01 8.586856722831726074e-02 1.365224570035934448e-01
3.263000000000000000e+03 4.796489334106445312e+01 2.550859642028808594e+01 6.772044897079467773e-01 2.370039463043212891e+00 9.141731858253479004e-01 1.467908263206481934e+00
3.264000000000000000e+03 4.829487991333007812e+01 2.628584289550781250e+01 8.202680945396423340e-01 2.391034603118896484e+00 9.633908271789550781e-01 1.562837004661560059e+00
3.265000000000000000e+03 5.831169128417968750e+01 3.467901992797851562e+01 7.207500934600830078e+00 1.401242446899414062e+01 6.365977764129638672e+00 9.751310199499130249e-02
3.266000000000000000e+03 3.367724609375000000e+01 2.899035072326660156e+01 6.010523065924644470e-02 9.693901985883712769e-02 4.711327701807022095e-02 7.128103822469711304e-02
3.267000000000000000e+03 4.092000198364257812e+01 1.846111297607421875e+01 -6.848296523094177246e-02 6.748146414756774902e-01 1.818995028734207153e-01 2.464993894100189209e-01
3.268000000000000000e+03 3.663136672973632812e+01 1.354552364349365234e+01 -3.244810998439788818e-01 1.889360100030899048e-01 -4.066352918744087219e-02 -9.794214367866516113e-02
3.269000000000000000e+03 2.794950485229492188e+01 2.137897872924804688e+01 7.677298784255981445e-02 1.172073855996131897e-01 5.819411203265190125e-02 9.672567993402481079e-02
3.270000000000000000e+03 4.436400985717773438e+01 2.179736328125000000e+01 1.914644688367843628e-01 1.356749057769775391e+00 4.644640684127807617e-01 7.226603627204895020e-01
3.271000000000000000e+03 2.877584838867187500e+01 4.157124519348144531e+00 -2.730877101421356201e-01 -1.667589098215103149e-01 -1.319539844989776611e-01 -2.158341705799102783e-01
3.272000000000000000e+03 4.331280899047851562e+01 2.114562034606933594e+01 1.232051998376846313e-01 1.058747291564941406e+00 3.545857667922973633e-01 5.555254220962524414e-01
3.273000000000000000e+03 2.954736709594726562e+01 -1.528507471084594727e+00 -1.111121624708175659e-01 -3.345239907503128052e-02 -4.336936771869659424e-02 3.136980533599853516e-02
3.274000000000000000e+03 4.856932449340820312e+01 2.654000282287597656e+01 8.694226741790771484e-01 2.510254859924316406e+00 1.013903260231018066e+00 1.638327836990356445e+00
3.275000000000000000e+03 4.621798324584960938e+01 2.421878814697265625e+01 4.881319105625152588e-01 1.705905079841613770e+00 6.582111120223999023e-01 1.050727963447570801e+00
3.276000000000000000e+03 4.671147537231445312e+01 2.423466873168945312e+01 4.894992709159851074e-01 1.950383543968200684e+00 7.319648265838623047e-01 1.160296797752380371e+00
3.277000000000000000e+03 2.502528572082519531e+01 1.831818389892578125e+01 9.354292601346969604e-02 1.350212991237640381e-01 6.856927275657653809e-02 1.110496968030929565e-01
3.278000000000000000e+03 2.842900085449218750e+01 2.164499282836914062e+01 7.785475254058837891e-02 1.135454550385475159e-01 5.742006376385688782e-02 9.801688045263290405e-02
3.279000000000000000e+03 2.899568557739257812e+01 4.267367362976074219e+00 -2.698395848274230957e-01 -1.349770575761795044e-01 -1.214449927210807800e-01 -2.078551501035690308e-01
3.280000000000000000e+03 4.461848831176757812e+01 2.207488059997558594e+01 2.195051610469818115e-01 1.412877798080444336e+00 4.897148907184600830e-01 7.631707787513732910e-01
3.281000000000000000e+03 5.108103179931640625e+01 2.883942222595214844e+01 1.426754117012023926e+00 3.867244243621826172e+00 1.588199496269226074e+00 2.492988824844360352e+00
3.282000000000000000e+03 3.514282989501953125e+01 1.229494476318359375e+01 -4.012840688228607178e-01 1.496416516602039337e-02 -1.158959716558456421e-01 -1.941689699888229370e-01
3.283000000000000000e+03 3.581150817871093750e+01 1.275386905670166016e+01 -3.674080371856689453e-01 9.615773707628250122e-02 -8.137508481740951538e-02 -1.490651369094848633e-01
3.284000000000000000e+03 2.004384613037109375e+01 1.298512077331542969e+01 1.185153871774673462e-01 1.806952655315399170e-01 8.976320177316665649e-02 1.462739259004592896e-01
3.285000000000000000e+03 2.750491714477539062e+01 2.108698654174804688e+01 7.755859941244125366e-02 1.189368441700935364e-01 5.894863232970237732e-02 9.923679381608963013e-02
3.286000000000000000e+03 1.927876853942871094e+01 1.288081836700439453e+01 1.101290732622146606e-01 1.885365843772888184e-01 8.959969878196716309e-02 1.419928669929504395e-01
3.287000000000000000e+03 3.690388488769531250e+01 1.385706329345703125e+01 -3.103194236755371094e-01 2.120575904846191406e-01 -2.947854809463024139e-02 -8.504694700241088867e-02
3.288000000000000000e+03 2.710524177551269531e+01 2.086470031738281250e+01 7.669346779584884644e-02 1.211445778608322144e-01 5.935141071677207947e-02 9.969782829284667969e-02
3.289000000000000000e+03 2.695652961730957031e+01 2.018346595764160156e+01 8.264292776584625244e-02 1.233616098761558533e-01 6.180135905742645264e-02 1.046962440013885498e-01
3.290000000000000000e+03 2.530508041381835938e+01 1.857687187194824219e+01 9.204030036926269531e-02 1.323480457067489624e-01 6.731650233268737793e-02 1.109947860240936279e-01
3.291000000000000000e+03 4.306190490722656250e+01 2.082184219360351562e+01 9.618429839611053467e-02 1.021084308624267578e+00 3.351805806159973145e-01 5.214518904685974121e-01
3.292000000000000000e+03 4.387041091918945312e+01 2.122549438476562500e+01 1.394030004739761353e-01 1.257987380027770996e+00 4.192171096801757812e-01 6.477957963943481445e-01
3.293000000000000000e+03 3.907632827758789062e+01 1.708485221862792969e+01 -1.783510595560073853e-01 3.600901365280151367e-01 5.452172830700874329e-02 5.021394789218902588e-02
3.294000000000000000e+03 4.894272994995117188e+01 2.734417152404785156e+01 1.057644724845886230e+00 2.549231529235839844e+00 1.082062840461730957e+00 1.753539919853210449e+00
3.295000000000000000e+03 1.613281822204589844e+01 9.680177688598632812e+00 1.146934032440185547e-01 2.679904401302337646e-01 1.148051470518112183e-01 1.583430767059326172e-01
3.296000000000000000e+03 3.713840866088867188e+01 1.418753623962402344e+01 -2.995115518569946289e-01 2.336408048868179321e-01 -1.976122707128524780e-02 -7.213848829269409180e-02
3.297000000000000000e+03 4.487797927856445312e+01 2.235016822814941406e+01 2.489790618419647217e-01 1.473156809806823730e+00 5.166407823562622070e-01 8.050422072410583496e-01
3.298000000000000000e+03 3.298478317260742188e+01 1.004130744934082031e+01 -5.161784887313842773e-01 -1.210761591792106628e-01 -1.911763995885848999e-01 -2.301968336105346680e-01
3.299000000000000000e+03 3.477874374389648438e+01 1.016932201385498047e+01 -3.655790984630584717e-01 1.563267856836318970e-01 -6.277569383382797241e-02 -8.921990543603897095e-02
3.300000000000000000e+03 3.735828018188476562e+01 1.452226257324218750e+01 -2.835221588611602783e-01 2.480387240648269653e-01 -1.064503472298383713e-02 -5.884483084082603455e-02
3.301000000000000000e+03 3.444054031372070312e+01 1.151942920684814453e+01 -4.347897768020629883e-01 -2.555904537439346313e-02 -1.381046473979949951e-01 -2.215823233127593994e-01
3.302000000000000000e+03 1.415055179595947266e+01 7.495176315307617188e+00 9.650717675685882568e-02 4.074652791023254395e-01 1.511917412281036377e-01 1.361843943595886230e-01
3.303000000000000000e+03 3.758288574218750000e+01 1.484244251251220703e+01 -2.726642489433288574e-01 2.596013844013214111e-01 -3.918861970305442810e-03 -4.409317672252655029e-02
3.304000000000000000e+03 2.473983764648437500e+01 1.806574058532714844e+01 9.436513483524322510e-02 1.351803392171859741e-01 6.886363774538040161e-02 1.141789853572845459e-01
3.305000000000000000e+03 3.781716156005859375e+01 1.514389228820800781e+01 -2.572550773620605469e-01 2.796739637851715088e-01 6.725663784891366959e-03 -3.066681511700153351e-02
3.306000000000000000e+03 5.007563400268554688e+01 2.838513374328613281e+01 1.334202885627746582e+00 3.105819940567016602e+00 1.332006812095642090e+00 2.127382755279541016e+00
3.307000000000000000e+03 5.134745407104492188e+01 2.908432769775390625e+01 1.492410898208618164e+00 4.053411483764648438e+00 1.663746714591979980e+00 2.611099720001220703e+00
3.308000000000000000e+03 5.204285812377929688e+01 2.924147033691406250e+01 1.459870219230651855e+00 4.766674518585205078e+00 1.867963552474975586e+00 2.877730369567871094e+00
3.309000000000000000e+03 3.277590942382812500e+01 2.635333251953125000e+01 6.914158165454864502e-02 9.755010157823562622e-02 5.000750347971916199e-02 8.184177428483963013e-02
3.310000000000000000e+03 4.168584060668945312e+01 1.914917564392089844e+01 -1.927526295185089111e-02 8.245329260826110840e-01 2.415772974491119385e-01 3.462754786014556885e-01
3.311000000000000000e+03 2.138127899169921875e+01 1.456958389282226562e+01 1.111132204532623291e-01 1.663883924484252930e-01 8.325047791004180908e-02 1.322636306285858154e-01
3.312000000000000000e+03 3.320631790161132812e+01 2.716438293457031250e+01 6.181805208325386047e-02 9.459812194108963013e-02 4.692485183477401733e-02 8.007586747407913208e-02
3.313000000000000000e+03 2.872683906555175781e+01 2.237353515625000000e+01 7.397157698869705200e-02 1.115977317094802856e-01 5.567079409956932068e-02 9.437942504882812500e-02
3.314000000000000000e+03 4.595535278320312500e+01 2.395264244079589844e+01 4.495805501937866211e-01 1.638571143150329590e+00 6.264454722404479980e-01 9.947163462638854980e-01
3.315000000000000000e+03 3.662306213378906250e+01 1.298932647705078125e+01 -3.312265872955322266e-01 2.462408840656280518e-01 -2.549571171402931213e-02 -7.523702830076217651e-02
3.316000000000000000e+03 3.806025695800781250e+01 1.543166160583496094e+01 -2.473063319921493530e-01 3.051305711269378662e-01 1.734727434813976288e-02 -1.150771789252758026e-02
3.317000000000000000e+03 3.881845855712890625e+01 1.679924774169921875e+01 -1.932335048913955688e-01 3.285923004150390625e-01 4.060764238238334656e-02 2.815122529864311218e-02
3.318000000000000000e+03 4.061968612670898438e+01 1.766934585571289062e+01 -1.081586927175521851e-01 7.102757096290588379e-01 1.806351095438003540e-01 2.327582091093063354e-01
3.319000000000000000e+03 4.979673004150390625e+01 2.812579727172851562e+01 1.262819409370422363e+00 2.960671186447143555e+00 1.267047166824340820e+00 2.028601646423339844e+00
3.320000000000000000e+03 4.514125442504882812e+01 2.262402725219726562e+01 2.801497578620910645e-01 1.537098407745361328e+00 5.451744198799133301e-01 8.497597575187683105e-01
3.321000000000000000e+03 4.363038253784179688e+01 2.092200279235839844e+01 1.139148324728012085e-01 1.215707659721374512e+00 3.988867700099945068e-01 6.123622655868530273e-01
3.322000000000000000e+03 4.894402694702148438e+01 2.597195816040039062e+01 7.332535386085510254e-01 2.905916929244995117e+00 1.091751098632812500e+00 1.709249973297119141e+00
3.323000000000000000e+03 4.999006652832031250e+01 2.781408309936523438e+01 1.158372521400451660e+00 3.215104103088378906e+00 1.312042951583862305e+00 2.074616432189941406e+00
3.324000000000000000e+03 5.026766204833984375e+01 2.807109832763671875e+01 1.223960280418395996e+00 3.368511915206909180e+00 1.377741694450378418e+00 2.172676801681518555e+00
3.325000000000000000e+03 2.611005401611328125e+01 1.994650650024414062e+01 8.142540603876113892e-02 1.281150132417678833e-01 6.286212056875228882e-02 1.017197668552398682e-01
3.326000000000000000e+03 4.942025375366210938e+01 2.730247306823730469e+01 1.036263108253479004e+00 2.915277719497680664e+00 1.185462236404418945e+00 1.888881802558898926e+00
3.327000000000000000e+03 4.970700454711914062e+01 2.755788993835449219e+01 1.096104860305786133e+00 3.063041210174560547e+00 1.247743844985961914e+00 1.979593038558959961e+00
3.328000000000000000e+03 2.161132431030273438e+01 1.477870368957519531e+01 1.101767495274543762e-01 1.643575727939605713e-01 8.236029744148254395e-02 1.313310861587524414e-01
3.329000000000000000e+03 3.290871810913085938e+01 9.688023567199707031e+00 -4.915193021297454834e-01 -1.021670103073120117e-01 -1.781058907508850098e-01 -1.903030723333358765e-01
3.330000000000000000e+03 2.002677726745605469e+01 1.350117111206054688e+01 1.098257079720497131e-01 1.778426468372344971e-01 8.630050718784332275e-02 1.390935182571411133e-01
3.331000000000000000e+03 2.473937225341796875e+01 1.860237121582031250e+01 8.760348707437515259e-02 1.340906918048858643e-01 6.650825589895248413e-02 1.097243204712867737e-01
3.332000000000000000e+03 3.003066253662109375e+01 4.337113857269287109e+00 -2.254612892866134644e-01 -3.651709109544754028e-02 -7.859351485967636108e-02 -2.123994082212448120e-01
3.333000000000000000e+03 3.984883499145507812e+01 1.739094734191894531e+01 -1.398776918649673462e-01 5.299207568168640137e-01 1.170129254460334778e-01 1.386894881725311279e-01
3.334000000000000000e+03 2.613034057617187500e+01 1.938411712646484375e+01 8.838233351707458496e-02 1.291106045246124268e-01 6.524787843227386475e-02 1.053753271698951721e-01
3.335000000000000000e+03 2.585420608520507812e+01 1.910917663574218750e+01 8.895179629325866699e-02 1.296693384647369385e-01 6.558633595705032349e-02 1.083590015769004822e-01
3.336000000000000000e+03 4.232281112670898438e+01 1.966673660278320312e+01 1.654107868671417236e-02 9.464180469512939453e-01 2.888877391815185547e-01 4.262596368789672852e-01
3.337000000000000000e+03 4.296230316162109375e+01 1.989187431335449219e+01 3.686564043164253235e-02 1.134582519531250000e+00 3.514344394207000732e-01 5.203356146812438965e-01
3.338000000000000000e+03 2.049558067321777344e+01 1.398443126678466797e+01 1.098066717386245728e-01 1.726740747690200806e-01 8.474422246217727661e-02 1.358682662248611450e-01
3.339000000000000000e+03 3.830972671508789062e+01 1.571174430847167969e+01 -2.316235899925231934e-01 3.332239687442779541e-01 3.048011474311351776e-02 7.002564147114753723e-03
3.340000000000000000e+03 3.856344985961914062e+01 1.598931503295898438e+01 -2.202390134334564209e-01 3.638794422149658203e-01 4.309212788939476013e-02 2.838791534304618835e-02
3.341000000000000000e+03 4.316959381103515625e+01 2.025959396362304688e+01 6.377106159925460815e-02 1.150624036788940430e+00 3.643185496330261230e-01 5.483721494674682617e-01
3.342000000000000000e+03 3.959228134155273438e+01 1.711241340637207031e+01 -1.583611518144607544e-01 4.957441985607147217e-01 1.012149155139923096e-01 1.154543235898017883e-01
3.343000000000000000e+03 3.527330780029296875e+01 1.259547901153564453e+01 -3.919020891189575195e-01 1.293644029647111893e-02 -1.136896982789039612e-01 -1.949549913406372070e-01
3.344000000000000000e+03 4.695330810546875000e+01 2.399177551269531250e+01 4.497757256031036377e-01 2.127088785171508789e+00 7.730593085289001465e-01 1.207032680511474609e+00
3.345000000000000000e+03 3.551027679443359375e+01 1.290338039398193359e+01 -3.881342113018035889e-01 2.309723012149333954e-02 -1.095110997557640076e-01 -1.880111098289489746e-01
3.346000000000000000e+03 5.254119873046875000e+01 2.969474411010742188e+01 1.566213011741638184e+00 5.209988117218017578e+00 2.032860279083251953e+00 3.121851444244384766e+00
3.347000000000000000e+03 3.072931480407714844e+01 2.421542167663574219e+01 6.828257441520690918e-02 1.042140945792198181e-01 5.174900218844413757e-02 8.855105936527252197e-02
3.348000000000000000e+03 2.190434265136718750e+01 1.483667087554931641e+01 1.111265718936920166e-01 1.636853516101837158e-01 8.244358003139495850e-02 1.321949660778045654e-01
3.349000000000000000e+03 1.708998298645019531e+01 1.039875316619873047e+01 1.187903657555580139e-01 2.398249059915542603e-01 1.075845807790756226e-01 1.598435193300247192e-01
3.350000000000000000e+03 1.510521221160888672e+01 9.346528053283691406e+00 9.258129447698593140e-02 2.953242659568786621e-01 1.163716614246368408e-01 1.358576267957687378e-01
3.351000000000000000e+03 1.979403305053710938e+01 1.328122997283935547e+01 1.101840361952781677e-01 1.820943653583526611e-01 8.768352121114730835e-02 1.393693536520004272e-01
3.352000000000000000e+03 4.540702819824218750e+01 2.289688682556152344e+01 3.130374252796173096e-01 1.603071331977844238e+00 5.748326182365417480e-01 8.960148692131042480e-01
3.353000000000000000e+03 4.567378616333007812e+01 2.316889381408691406e+01 3.476472795009613037e-01 1.671177983283996582e+00 6.056475639343261719e-01 9.451101422309875488e-01
3.354000000000000000e+03 3.350217056274414062e+01 2.753147125244140625e+01 6.601917743682861328e-02 9.979771077632904053e-02 4.974506422877311707e-02 7.670722901821136475e-02
3.355000000000000000e+03 2.139988327026367188e+01 1.498980712890625000e+01 1.043109670281410217e-01 1.646810472011566162e-01 8.069760352373123169e-02 1.275568455457687378e-01
3.356000000000000000e+03 2.178760719299316406e+01 1.457830619812011719e+01 1.165606081485748291e-01 1.651581674814224243e-01 8.451563119888305664e-02 1.339505016803741455e-01
3.357000000000000000e+03 3.353263473510742188e+01 1.010747718811035156e+01 -4.594335556030273438e-01 -4.226822778582572937e-02 -1.505105346441268921e-01 -1.853074282407760620e-01
3.358000000000000000e+03 4.646001052856445312e+01 2.397063064575195312e+01 4.534308910369873047e-01 1.880091547966003418e+00 7.000567317008972168e-01 1.103559136390686035e+00
3.359000000000000000e+03 2.231299972534179688e+01 1.605314445495605469e+01 9.608263522386550903e-02 1.566696614027023315e-01 7.582569122314453125e-02 1.218801513314247131e-01
3.360000000000000000e+03 1.481893444061279297e+01 8.840953826904296875e+00 9.321764856576919556e-02 3.183455765247344971e-01 1.234689652919769287e-01 1.365742832422256470e-01
3.361000000000000000e+03 1.445300102233886719e+01 8.310696601867675781e+00 9.254015237092971802e-02 3.491385281085968018e-01 1.325035989284515381e-01 1.345982551574707031e-01
3.362000000000000000e+03 3.480198669433593750e+01 1.153080272674560547e+01 -4.117522239685058594e-01 2.510148286819458008e-02 -1.159952282905578613e-01 -1.834319829940795898e-01
3.363000000000000000e+03 3.514790725708007812e+01 1.194360733032226562e+01 -3.961470425128936768e-01 4.590746015310287476e-02 -1.050718724727630615e-01 -1.730302274227142334e-01
3.364000000000000000e+03 2.919772720336914062e+01 2.310460853576660156e+01 7.033387571573257446e-02 1.098145470023155212e-01 5.404452607035636902e-02 9.027457982301712036e-02
3.365000000000000000e+03 3.295708847045898438e+01 9.252057075500488281e+00 -4.217805564403533936e-01 -5.755933374166488647e-02 -1.438019573688507080e-01 -1.459447294473648071e-01
3.366000000000000000e+03 3.345009994506835938e+01 9.429606437683105469e+00 -4.058415889739990234e-01 -8.686585351824760437e-03 -1.243584528565406799e-01 -1.286877989768981934e-01
3.367000000000000000e+03 1.764293289184570312e+01 1.173232555389404297e+01 1.020667031407356262e-01 2.145038694143295288e-01 9.497117251157760620e-02 1.436360925436019897e-01
3.368000000000000000e+03 1.376253890991210938e+01 6.600131034851074219e+00 9.840047359466552734e-02 5.023247003555297852e-01 1.802175641059875488e-01 1.164730787277221680e-01
3.369000000000000000e+03 3.493030166625976562e+01 2.894450759887695312e+01 6.651592999696731567e-02 9.254457801580429077e-02 4.771815240383148193e-02 7.868233323097229004e-02
3.370000000000000000e+03 5.278746795654296875e+01 2.997208595275878906e+01 1.667052149772644043e+00 5.470419883728027344e+00 2.141241550445556641e+00 3.331560611724853516e+00
3.371000000000000000e+03 5.308475494384765625e+01 3.021043968200683594e+01 1.686295628547668457e+00 5.867166519165039062e+00 2.266038656234741211e+00 3.514765501022338867e+00
3.372000000000000000e+03 1.660924530029296875e+01 1.011320209503173828e+01 1.154810264706611633e-01 2.495924532413482666e-01 1.095220446586608887e-01 1.557799726724624634e-01
3.373000000000000000e+03 5.459753036499023438e+01 3.235380554199218750e+01 2.395582914352416992e+00 9.477313041687011719e+00 3.561868667602539062e+00 5.473647594451904297e+00
3.374000000000000000e+03 8.881846427917480469e+00 5.657840251922607422e+00 2.154192328453063965e-01 -1.069385930895805359e-01 3.254419192671775818e-02 3.739945590496063232e-02
3.375000000000000000e+03 1.691736030578613281e+01 1.106762313842773438e+01 1.030231416225433350e-01 2.285898476839065552e-01 9.948389977216720581e-02 1.446765810251235962e-01
3.376000000000000000e+03 3.137062263488769531e+01 4.992831707000732422e+00 -1.253952682018280029e-01 2.896814420819282532e-02 -2.892813831567764282e-02 -2.175804674625396729e-01
3.377000000000000000e+03 3.114520263671875000e+01 2.531945419311523438e+01 6.116466596722602844e-02 1.021022498607635498e-01 4.898007586598396301e-02 8.290328830480575562e-02
3.378000000000000000e+03 3.010923957824707031e+01 2.422192955017089844e+01 6.130050122737884521e-02 1.047368794679641724e-01 4.981121420860290527e-02 8.912189304828643799e-02
3.379000000000000000e+03 2.425358581542968750e+01 3.016612529754638672e-01 -5.477377176284790039e-01 -1.243478730320930481e-01 -2.016256749629974365e-01 -8.276695758104324341e-02
3.380000000000000000e+03 3.006042671203613281e+01 4.713126182556152344e+00 -2.166273891925811768e-01 -3.729842603206634521e-02 -7.617774605751037598e-02 -2.379580736160278320e-01
3.381000000000000000e+03 3.227374649047851562e+01 5.075664043426513672e+00 -9.466936439275741577e-02 9.208331257104873657e-02 -7.758147548884153366e-04 -1.465320736169815063e-01
3.382000000000000000e+03 3.290218734741210938e+01 8.730548858642578125e+00 -3.608551323413848877e-01 -4.914496466517448425e-02 -1.230000331997871399e-01 -1.091537177562713623e-01
3.383000000000000000e+03 3.637100219726562500e+01 3.104016113281250000e+01 6.371098011732101440e-02 8.290937542915344238e-02 4.398610815405845642e-02 7.572602480649948120e-02
3.384000000000000000e+03 3.457562255859375000e+01 2.988035774230957031e+01 6.718330830335617065e-02 9.554214775562286377e-02 4.881763830780982971e-02 7.272069901227951050e-02
3.385000000000000000e+03 3.487522506713867188e+01 1.073721408843994141e+01 -3.872691690921783447e-01 1.189814880490303040e-01 -8.048629760742187500e-02 -1.186772733926773071e-01
3.386000000000000000e+03 3.342465591430664062e+01 5.624093055725097656e+00 -9.628937393426895142e-02 1.967205852270126343e-01 3.012936562299728394e-02 -7.045033574104309082e-02
3.387000000000000000e+03 1.248450279235839844e+01 5.485073089599609375e+00 1.749618351459503174e-01 5.141582489013671875e-01 2.067360132932662964e-01 -1.037758439779281616e-01
3.388000000000000000e+03 3.305684661865234375e+01 5.952388763427734375e+00 -1.032520234584808350e-01 1.202785670757293701e-01 5.107962992042303085e-03 -9.353557974100112915e-02
3.389000000000000000e+03 3.299454116821289062e+01 7.068325042724609375e+00 -1.567382216453552246e-01 3.764076530933380127e-02 -3.572923690080642700e-02 -7.968404144048690796e-02
3.390000000000000000e+03 2.649663352966308594e+01 -6.323083639144897461e-01 -3.241410553455352783e-01 -1.528907418251037598e-01 -1.431095451116561890e-01 1.646855473518371582e-02
3.391000000000000000e+03 5.667693138122558594e+00 7.439578533172607422e+00 8.862286061048507690e-02 -1.289972960948944092e-01 -1.211232971400022507e-02 7.054261118173599243e-02
3.392000000000000000e+03 5.427906036376953125e+00 6.592994689941406250e+00 7.870379835367202759e-02 -1.351527124643325806e-01 -1.693467423319816589e-02 9.413181245326995850e-02
3.393000000000000000e+03 1.341241264343261719e+01 6.881096363067626953e+00 8.989754319190979004e-02 4.570941329002380371e-01 1.640975028276443481e-01 7.641717046499252319e-02
3.394000000000000000e+03 3.071115493774414062e+01 2.476238632202148438e+01 6.167474389076232910e-02 1.025151014328002930e-01 4.925695434212684631e-02 8.607513457536697388e-02
3.395000000000000000e+03 3.962008285522460938e+01 3.425417709350585938e+01 8.872782438993453979e-02 7.744267582893371582e-02 4.985114932060241699e-02 5.309637635946273804e-02
3.396000000000000000e+03 7.590940475463867188e+00 6.207256793975830078e+00 1.531842499971389771e-01 -1.193363592028617859e-01 1.015436463057994843e-02 6.822029501199722290e-02
3.397000000000000000e+03 3.723536682128906250e+01 3.162049102783203125e+01 7.328841835260391235e-02 8.036632090806961060e-02 4.609642177820205688e-02 7.497395575046539307e-02
3.398000000000000000e+03 3.689643478393554688e+01 3.233868026733398438e+01 6.634622067213058472e-02 9.099438041448593140e-02 4.720218107104301453e-02 6.021779775619506836e-02
3.399000000000000000e+03 3.617726898193359375e+01 3.194480705261230469e+01 6.455187499523162842e-02 8.192092180252075195e-02 4.394184052944183350e-02 7.350541651248931885e-02
3.400000000000000000e+03 3.563537979125976562e+01 3.076387023925781250e+01 5.825398489832878113e-02 8.992721140384674072e-02 4.445435851812362671e-02 7.368147373199462891e-02
3.401000000000000000e+03 3.233982086181640625e+01 2.623780250549316406e+01 6.078619137406349182e-02 1.008596718311309814e-01 4.849375784397125244e-02 8.031956851482391357e-02
3.402000000000000000e+03 1.006448078155517578e+01 5.147826194763183594e+00 2.821299731731414795e-01 -4.213919863104820251e-02 7.199722528457641602e-02 -3.185673058032989502e-02
3.403000000000000000e+03 7.479450702667236328e+00 7.274053096771240234e+00 1.375826001167297363e-01 -9.082394838333129883e-02 1.402759738266468048e-02 3.796020150184631348e-02
3.404000000000000000e+03 3.325416564941406250e+01 8.060763359069824219e+00 -2.566902339458465576e-01 2.405021339654922485e-02 -6.979200989007949829e-02 -7.162967324256896973e-02
3.405000000000000000e+03 2.470296669006347656e+01 3.648579418659210205e-01 -5.172175765037536621e-01 -1.454056799411773682e-01 -1.987869739532470703e-01 -8.869786560535430908e-02
3.406000000000000000e+03 3.995006561279296875e+01 3.386816406250000000e+01 8.608944714069366455e-02 5.546700581908226013e-02 4.246693477034568787e-02 6.556244194507598877e-02
3.407000000000000000e+03 3.901276779174804688e+01 3.447922897338867188e+01 5.942692235112190247e-02 7.940946519374847412e-02 4.165091738104820251e-02 7.234846055507659912e-02
3.408000000000000000e+03 3.166124534606933594e+01 -2.628336191177368164e+00 -5.340610817074775696e-02 1.718162298202514648e-01 3.552303835749626160e-02 1.541009359061717987e-02
3.409000000000000000e+03 3.153652000427246094e+01 -3.606266736984252930e+00 -4.617553949356079102e-02 1.432082504034042358e-01 2.910981327295303345e-02 2.692542970180511475e-02
3.410000000000000000e+03 3.898546981811523438e+01 3.312977218627929688e+01 6.427292525768280029e-02 8.602155745029449463e-02 4.508834332227706909e-02 6.703922897577285767e-02
3.411000000000000000e+03 7.819622993469238281e+00 -7.394186496734619141e+00 -2.599767409265041351e-02 -1.541734635829925537e-01 -5.405134335160255432e-02 -2.494196444749832153e-01
3.412000000000000000e+03 2.815245628356933594e+01 -1.277884483337402344e+00 -1.792569607496261597e-01 -1.275395303964614868e-01 -9.203895181417465210e-02 3.147443756461143494e-02
3.413000000000000000e+03 9.305438041687011719e+00 6.045202732086181641e+00 2.181302160024642944e-01 -5.425782501697540283e-02 4.916171729564666748e-02 -2.850806806236505508e-03
3.414000000000000000e+03 8.448740005493164062e+00 7.038427829742431641e+00 1.643783301115036011e-01 -6.205000728368759155e-02 3.069849871098995209e-02 1.584357768297195435e-02
3.415000000000000000e+03 6.659944534301757812e+00 -9.923598289489746094e+00 2.450234442949295044e-02 -2.075322866439819336e-01 -5.490897968411445618e-02 -2.060238569974899292e-01
3.416000000000000000e+03 9.280780792236328125e+00 -7.022730827331542969e+00 -3.050652146339416504e-02 -1.530191302299499512e-01 -5.505769699811935425e-02 -2.820237278938293457e-01
3.417000000000000000e+03 1.246288585662841797e+01 -1.004727363586425781e+01 1.344087868928909302e-01 -1.211593225598335266e-01 3.974838647991418839e-03 -2.050932049751281738e-01
3.418000000000000000e+03 3.502974700927734375e+01 3.076261711120605469e+01 6.693422049283981323e-02 9.057774394750595093e-02 4.725359007716178894e-02 7.026448845863342285e-02
3.419000000000000000e+03 3.469746780395507812e+01 2.934751319885253906e+01 6.367240846157073975e-02 9.225870668888092041e-02 4.677933454513549805e-02 7.088893651962280273e-02
3.420000000000000000e+03 1.133483600616455078e+01 -6.834461212158203125e+00 1.995828934013843536e-03 -1.763442307710647583e-01 -5.230452120304107666e-02 -3.152081668376922607e-01
3.421000000000000000e+03 8.003009796142578125e+00 6.661738872528076172e+00 1.639532446861267090e-01 -9.719339013099670410e-02 2.002795599400997162e-02 4.174916818737983704e-02
3.422000000000000000e+03 3.133981323242187500e+01 -2.079605817794799805e+00 -6.016677245497703552e-02 1.402757167816162109e-01 2.403268404304981232e-02 1.429442036896944046e-02
3.423000000000000000e+03 3.073164939880371094e+01 -2.443509817123413086e+00 -6.623839586973190308e-02 5.440253764390945435e-02 -3.550756955519318581e-03 2.781821973621845245e-02
3.424000000000000000e+03 1.064780330657958984e+01 -6.823121547698974609e+00 -1.883900724351406097e-02 -1.652828305959701538e-01 -5.523655191063880920e-02 -3.047588169574737549e-01
3.425000000000000000e+03 8.081127166748046875e+00 -8.322886466979980469e+00 1.349167712032794952e-02 -1.749342828989028931e-01 -4.843277856707572937e-02 -2.478477060794830322e-01
3.426000000000000000e+03 4.006680297851562500e+01 3.478696060180664062e+01 8.034536242485046387e-02 5.303651094436645508e-02 4.001456126570701599e-02 7.728923112154006958e-02
3.427000000000000000e+03 7.161867523193359375e+01 -8.064416795969009399e-02 -1.648118197917938232e-01 8.136285781860351562e+00 2.391442298889160156e+00 -1.238799318671226501e-01
3.428000000000000000e+03 3.174383163452148438e+01 -4.796931266784667969e+00 -5.474266037344932556e-02 1.437927037477493286e-01 2.671501226723194122e-02 4.135380312800407410e-02
3.429000000000000000e+03 3.271624374389648438e+01 -4.143508911132812500e+00 -4.072868451476097107e-02 3.032298088073730469e-01 7.875033468008041382e-02 2.604013308882713318e-02
3.430000000000000000e+03 4.093381881713867188e+01 3.701523208618164062e+01 1.000187173485755920e-01 6.909727305173873901e-02 5.073479562997817993e-02 4.562186822295188904e-02
3.431000000000000000e+03 7.958209037780761719e+00 -1.504408264160156250e+01 6.357351690530776978e-02 -2.295193821191787720e-01 -4.978375881910324097e-02 -1.488921046257019043e-01
3.432000000000000000e+03 1.343820762634277344e+01 -1.108457183837890625e+01 1.529821455478668213e-01 -5.666414648294448853e-02 2.889540232717990875e-02 -1.695428937673568726e-01
3.433000000000000000e+03 1.074639129638671875e+01 -7.518177032470703125e+00 2.687455713748931885e-02 -1.725867241621017456e-01 -4.371364787220954895e-02 -2.961750328540802002e-01
3.434000000000000000e+03 7.052634429931640625e+01 -5.486772060394287109e+00 -1.500434279441833496e-01 7.941563129425048828e+00 2.337455987930297852e+00 3.137651830911636353e-02
3.435000000000000000e+03 1.432405853271484375e+01 -1.417527484893798828e+01 1.293213814496994019e-01 3.304512426257133484e-02 4.870995134115219116e-02 -1.463758796453475952e-01
3.436000000000000000e+03 4.199106216430664062e+01 -1.434369277954101562e+01 -2.073887735605239868e-01 2.262141942977905273e+00 6.164259314537048340e-01 -1.829117387533187866e-01
3.437000000000000000e+03 3.484965133666992188e+01 -5.189003944396972656e+00 -5.199953168630599976e-02 6.621841192245483398e-01 1.830553859472274780e-01 -1.541492762044072151e-03
3.438000000000000000e+03 1.415681648254394531e+01 -1.295910930633544922e+01 1.475701630115509033e-01 1.741781644523143768e-02 4.949639365077018738e-02 -1.484286040067672729e-01
3.439000000000000000e+03 6.403316497802734375e+00 -8.824353218078613281e+00 1.255917642265558243e-02 -1.890694350004196167e-01 -5.295307934284210205e-02 -2.109642475843429565e-01
3.440000000000000000e+03 7.173336029052734375e+01 -9.404773712158203125e+00 -1.024718433618545532e-01 8.110270500183105469e+00 2.402339696884155273e+00 1.148921400308609009e-01
3.441000000000000000e+03 7.085176849365234375e+01 -1.211999702453613281e+01 -9.158508479595184326e-02 7.943231105804443359e+00 2.355493783950805664e+00 1.758820563554763794e-01
3.442000000000000000e+03 7.036860656738281250e+01 -3.293220043182373047e+00 -1.772780865430831909e-01 7.914300441741943359e+00 2.321106672286987305e+00 -2.645525708794593811e-02
3.443000000000000000e+03 7.157489776611328125e+01 -8.087065696716308594e+00 -1.077601313591003418e-01 8.089399337768554688e+00 2.394491672515869141e+00 8.734090626239776611e-02
3.444000000000000000e+03 7.065750885009765625e+01 -1.098845005035400391e+01 -1.091115996241569519e-01 7.927578449249267578e+00 2.345540046691894531e+00 1.532825678586959839e-01
3.445000000000000000e+03 7.095533752441406250e+01 5.564854621887207031e+00 -2.635623216629028320e-01 8.018467903137207031e+00 2.326471805572509766e+00 -3.443630933761596680e-01
3.446000000000000000e+03 7.071910858154296875e+01 4.394694805145263672e+00 -2.571922540664672852e-01 7.986546993255615234e+00 2.318806409835815430e+00 -2.925434708595275879e-01
3.447000000000000000e+03 7.034667205810546875e+01 -2.417381668090820312e+01 -1.355442684143781662e-02 7.684828281402587891e+00 2.301382064819335938e+00 3.137959837913513184e-01
3.448000000000000000e+03 7.107685089111328125e+01 -1.767169189453125000e+01 -6.454358994960784912e-02 7.902791500091552734e+00 2.351474285125732422e+00 2.526483833789825439e-01
3.449000000000000000e+03 1.148600292205810547e+01 -8.137658119201660156e+00 8.050712198019027710e-02 -1.727455854415893555e-01 -2.767154015600681305e-02 -2.745227813720703125e-01
3.450000000000000000e+03 9.500926971435546875e+00 -7.798668384552001953e+00 1.497693080455064774e-02 -1.696621924638748169e-01 -4.640557989478111267e-02 -2.765598595142364502e-01
3.451000000000000000e+03 6.979352951049804688e+00 1.348647785186767578e+01 3.091834671795368195e-02 -4.298821836709976196e-02 -3.620961448177695274e-03 -1.393747329711914062e-02
3.452000000000000000e+03 6.720053195953369141e+00 1.100322437286376953e+01 6.263322383165359497e-02 -6.173214688897132874e-02 2.703216450754553080e-04 -1.890921703306958079e-04
3.453000000000000000e+03 8.077968597412109375e+00 1.318193912506103516e+01 3.483811393380165100e-02 -4.334119148552417755e-03 9.151197969913482666e-03 -1.173668354749679565e-02
3.454000000000000000e+03 7.198697662353515625e+01 2.426641654968261719e+01 -1.001396477222442627e-01 7.522734642028808594e+00 2.226778507232666016e+00 -1.418484330177307129e+00
3.455000000000000000e+03 7.237641143798828125e+01 2.618260383605957031e+01 2.333636395633220673e-02 7.286468029022216797e+00 2.192941188812255859e+00 -1.425117731094360352e+00
3.456000000000000000e+03 3.850342559814453125e+01 -8.188631057739257812e+00 -1.193901747465133667e-01 1.407948851585388184e+00 3.865676224231719971e-01 -5.488308891654014587e-02
3.457000000000000000e+03 7.163187408447265625e+01 1.524919986724853516e+01 -3.547128438949584961e-01 7.956518173217773438e+00 2.280541658401489258e+00 -8.970122933387756348e-01
3.458000000000000000e+03 7.234625244140625000e+01 7.890535831451416016e+00 -2.338351905345916748e-01 8.157764434814453125e+00 2.377178907394409180e+00 -4.406784176826477051e-01
3.459000000000000000e+03 7.112587738037109375e+01 6.735022544860839844e+00 -2.767240405082702637e-01 8.034027099609375000e+00 2.327190876007080078e+00 -3.973672389984130859e-01
3.460000000000000000e+03 3.793287277221679688e+01 -9.148207664489746094e+00 -1.098985821008682251e-01 1.273429751396179199e+00 3.490593433380126953e-01 -7.402379810810089111e-02
3.461000000000000000e+03 8.015995979309082031e+00 1.840576362609863281e+01 1.080152811482548714e-03 -2.270494587719440460e-02 -6.487437989562749863e-03 -1.696610450744628906e-02
3.462000000000000000e+03 9.392606735229492188e+00 2.474087715148925781e+01 -8.083167485892772675e-03 -1.980599947273731232e-02 -8.366750553250312805e-03 -1.049181073904037476e-02
3.463000000000000000e+03 7.210414886474609375e+01 2.289069557189941406e+01 -1.812208592891693115e-01 7.585733890533447266e+00 2.221354007720947266e+00 -1.356541037559509277e+00
3.464000000000000000e+03 7.111006164550781250e+01 2.022603797912597656e+01 -3.396940529346466064e-01 7.859374523162841797e+00 2.255904197692871094e+00 -1.248055934906005859e+00
3.465000000000000000e+03 1.724931716918945312e+01 -1.920887947082519531e+01 1.024349629878997803e-01 1.747501194477081299e-01 8.315552771091461182e-02 -1.578409522771835327e-01
3.466000000000000000e+03 1.003271198272705078e+01 2.370630073547363281e+01 -7.139875087887048721e-03 -2.130530541762709618e-03 -2.781121758744120598e-03 -9.038515388965606689e-03
3.467000000000000000e+03 1.135140800476074219e+01 2.604044532775878906e+01 -7.921047508716583252e-03 7.470033597201108932e-03 -1.353041734546422958e-04 -2.617005025967955589e-03
3.468000000000000000e+03 7.223238372802734375e+01 1.274395847320556641e+01 -2.957775890827178955e-01 8.035573959350585938e+00 2.321938753128051758e+00 -7.147090435028076172e-01
3.469000000000000000e+03 7.114624786376953125e+01 1.246275806427001953e+01 -3.559747934341430664e-01 7.990117549896240234e+00 2.290242910385131836e+00 -7.209339141845703125e-01
3.470000000000000000e+03 7.097533416748046875e+01 1.902219772338867188e+01 -3.776173591613769531e-01 7.900836944580078125e+00 2.256965875625610352e+00 -1.171197652816772461e+00
3.471000000000000000e+03 1.170139598846435547e+01 3.016364097595214844e+01 -9.355082176625728607e-03 -2.781938295811414719e-03 -3.641105955466628075e-03 -1.762960455380380154e-03
3.472000000000000000e+03 9.505776405334472656e+00 2.979806518554687500e+01 -9.357013739645481110e-03 -3.120556287467479706e-02 -1.216877344995737076e-02 -7.264216430485248566e-03
3.473000000000000000e+03 7.119879150390625000e+01 -1.849691152572631836e+00 -1.678733825683593750e-01 8.050523757934570312e+00 2.364794969558715820e+00 -7.037350535392761230e-02
3.474000000000000000e+03 8.442838668823242188e+00 -9.249286651611328125e+00 3.766019642353057861e-02 -1.850682795047760010e-01 -4.422242566943168640e-02 -2.402241528034210205e-01
3.475000000000000000e+03 4.584541320800781250e+01 -2.043922805786132812e+01 -2.525173127651214600e-01 3.519993305206298828e+00 9.802428483963012695e-01 -2.257393747568130493e-01
3.476000000000000000e+03 6.701151847839355469e+00 -1.528820133209228516e+01 5.908032134175300598e-02 -2.709847390651702881e-01 -6.357131898403167725e-02 -1.391146332025527954e-01
3.477000000000000000e+03 4.006135559082031250e+01 -9.009854316711425781e+00 -1.494641304016113281e-01 1.777326107025146484e+00 4.883585870265960693e-01 -6.243391335010528564e-02
3.478000000000000000e+03 9.098434448242187500e+00 -2.224268341064453125e+01 5.261608958244323730e-02 -2.226757258176803589e-01 -5.101788789033889771e-02 -9.402367472648620605e-02
3.479000000000000000e+03 8.514808654785156250e+00 -1.920843696594238281e+01 6.269721686840057373e-02 -2.314751297235488892e-01 -5.063337087631225586e-02 -1.107606664299964905e-01
3.480000000000000000e+03 8.115927696228027344e+00 -1.642546272277832031e+01 7.212088257074356079e-02 -2.331662625074386597e-01 -4.831361398100852966e-02 -1.350796520709991455e-01
3.481000000000000000e+03 1.430746936798095703e+01 9.280303955078125000e+00 7.823777943849563599e-02 3.001375198364257812e-01 1.135125830769538879e-01 1.065057963132858276e-01
3.482000000000000000e+03 6.359200954437255859e+00 9.296012878417968750e+00 8.233004808425903320e-02 -9.099128097295761108e-02 -2.598369726911187172e-03 2.301918156445026398e-02
3.483000000000000000e+03 1.670350074768066406e+01 -2.207999801635742188e+01 7.670387625694274902e-02 1.235449537634849548e-01 6.007464975118637085e-02 -1.494917273521423340e-01
3.484000000000000000e+03 1.424700832366943359e+01 9.746622085571289062e+00 7.487251609563827515e-02 2.788186073303222656e-01 1.061073392629623413e-01 9.589872509241104126e-02
3.485000000000000000e+03 6.813168525695800781e+00 1.224718761444091797e+01 4.235461354255676270e-02 -5.201436579227447510e-02 -2.897925209254026413e-03 -7.190727163106203079e-03
3.486000000000000000e+03 9.103522300720214844e+00 2.311314773559570312e+01 -6.451814901083707809e-03 -1.729154959321022034e-02 -7.123009301722049713e-03 -1.225385535508394241e-02
3.487000000000000000e+03 1.495714473724365234e+01 -1.334097766876220703e+01 1.500463187694549561e-01 7.205213606357574463e-02 6.662953644990921021e-02 -1.386963725090026855e-01
3.488000000000000000e+03 4.231068038940429688e+01 -1.262402915954589844e+01 -2.106316387653350830e-01 2.340917825698852539e+00 6.390858292579650879e-01 -1.437792181968688965e-01
3.489000000000000000e+03 4.919072723388671875e+01 -2.457765960693359375e+01 -1.907679736614227295e-01 4.641743659973144531e+00 1.335292696952819824e+00 8.989116759039461613e-04
3.490000000000000000e+03 4.180001449584960938e+01 -1.168067741394042969e+01 -1.920369118452072144e-01 2.217305421829223633e+00 6.075805425643920898e-01 -1.152215376496315002e-01
3.491000000000000000e+03 9.082215309143066406e+00 -2.386631774902343750e+01 3.169633075594902039e-02 -2.301504611968994141e-01 -5.953623726963996887e-02 -7.459381222724914551e-02
3.492000000000000000e+03 7.096157073974609375e+01 2.271506309509277344e+01 -2.409864515066146851e-01 7.799754619598388672e+00 2.267630338668823242e+00 -1.408964633941650391e+00
3.493000000000000000e+03 8.357262611389160156e+00 1.568703269958496094e+01 1.282383222132921219e-02 -2.063201973214745522e-03 3.228189190849661827e-03 -1.221419498324394226e-02
3.494000000000000000e+03 3.342446517944335938e+01 -3.969578742980957031e+00 -4.771382361650466919e-02 4.072964191436767578e-01 1.078747808933258057e-01 2.254977822303771973e-03
3.495000000000000000e+03 9.495517730712890625e+00 2.051389312744140625e+01 -2.928621601313352585e-03 4.328482784330844879e-03 4.199582908768206835e-04 -9.045403450727462769e-03
3.496000000000000000e+03 8.607055664062500000e+00 2.033957099914550781e+01 -2.217886969447135925e-03 -1.572003960609436035e-02 -5.381377879530191422e-03 -1.440478302538394928e-02
3.497000000000000000e+03 7.144427490234375000e+01 3.016784286499023438e+01 3.794313371181488037e-01 7.230723381042480469e+00 2.283046483993530273e+00 -1.363252997398376465e+00
3.498000000000000000e+03 7.061220550537109375e+01 2.527842712402343750e+01 -6.842692196369171143e-02 7.778304576873779297e+00 2.312963247299194336e+00 -1.526114344596862793e+00
3.499000000000000000e+03 7.079528808593750000e+01 2.399827575683593750e+01 -1.700701862573623657e-01 7.784192085266113281e+00 2.284236431121826172e+00 -1.476937294006347656e+00
3.500000000000000000e+03 7.165293884277343750e+01 1.745362472534179688e+01 -3.510520756244659424e-01 7.900032520294189453e+00 2.264694213867187500e+00 -1.042678356170654297e+00
3.501000000000000000e+03 7.246965026855468750e+01 2.906099700927734375e+01 2.301487624645233154e-01 6.982243061065673828e+00 2.163717508316040039e+00 -1.329257488250732422e+00
3.502000000000000000e+03 7.029467010498046875e+01 -2.197677803039550781e+01 -3.681211173534393311e-02 7.720270633697509766e+00 2.305037498474121094e+00 3.046579062938690186e-01
3.503000000000000000e+03 1.765035820007324219e+01 -2.311775398254394531e+01 8.869761228561401367e-02 1.493804752826690674e-01 7.142342627048492432e-02 -1.449522376060485840e-01
3.504000000000000000e+03 2.109670448303222656e+01 -2.805593872070312500e+01 8.069961518049240112e-02 2.258805930614471436e-01 9.197406470775604248e-02 -1.562933772802352905e-01
3.505000000000000000e+03 7.056567382812500000e+01 -1.865480232238769531e+01 -5.108378827571868896e-02 7.807409286499023438e+00 2.326897621154785156e+00 2.667948305606842041e-01
3.506000000000000000e+03 1.035039615631103516e+01 2.537130355834960938e+01 -9.351916611194610596e-03 -4.881020635366439819e-03 -4.269881173968315125e-03 -7.861412130296230316e-03
3.507000000000000000e+03 7.112216949462890625e+01 -2.971913719177246094e+01 6.108395755290985107e-02 7.664163112640380859e+00 2.317574024200439453e+00 2.774887382984161377e-01
3.508000000000000000e+03 6.911097717285156250e+01 7.984282970428466797e+00 -3.991177082061767578e-01 7.819586753845214844e+00 2.226140737533569336e+00 -4.520400166511535645e-01
3.509000000000000000e+03 7.078514099121093750e+01 -1.320748805999755859e+01 -1.048793792724609375e-01 7.901453971862792969e+00 2.338972330093383789e+00 1.935350596904754639e-01
3.510000000000000000e+03 4.958613586425781250e+01 -2.210139656066894531e+01 -2.635071277618408203e-01 4.563101291656494141e+00 1.289878129959106445e+00 8.173355832695960999e-03
3.511000000000000000e+03 4.636555862426757812e+01 -2.192638206481933594e+01 -2.718547284603118896e-01 3.742332935333251953e+00 1.041143417358398438e+00 -2.335832864046096802e-01
3.512000000000000000e+03 7.061533355712890625e+01 1.788208007812500000e+01 -4.231052994728088379e-01 7.941266536712646484e+00 2.255448341369628906e+00 -1.094752430915832520e+00
3.513000000000000000e+03 6.999319458007812500e+01 1.689807319641113281e+01 -4.718034863471984863e-01 7.966916084289550781e+00 2.248533725738525391e+00 -1.031103610992431641e+00
3.514000000000000000e+03 2.185131072998046875e+01 -3.290549850463867188e+01 1.151348650455474854e-01 2.209085971117019653e-01 1.008130386471748352e-01 -1.165690273046493530e-01
3.515000000000000000e+03 2.030904960632324219e+01 -3.123644638061523438e+01 7.353000342845916748e-02 1.600958257913589478e-01 7.008774578571319580e-02 -1.267864108085632324e-01
3.516000000000000000e+03 7.046337890625000000e+01 -9.741399765014648438e+00 -1.193485110998153687e-01 7.890899181365966797e+00 2.331465244293212891e+00 1.293405890464782715e-01
3.517000000000000000e+03 6.848953247070312500e+01 -2.461594581604003906e+01 -9.907448664307594299e-03 7.431668758392333984e+00 2.226528406143188477e+00 3.428733646869659424e-01
3.518000000000000000e+03 7.131174468994140625e+01 1.019721126556396484e+01 -3.171873688697814941e-01 8.026704788208007812e+00 2.312855243682861328e+00 -5.817733407020568848e-01
3.519000000000000000e+03 1.001446628570556641e+01 -2.874447250366210938e+01 1.866641640663146973e-02 -2.187532633543014526e-01 -6.002605706453323364e-02 -5.492189899086952209e-02
3.520000000000000000e+03 7.007164478302001953e+00 -3.556134414672851562e+01 8.398910984396934509e-03 -4.103350639343261719e-01 -1.205808445811271667e-01 -2.176350168883800507e-02
3.521000000000000000e+03 5.766835784912109375e+01 3.980865859985351562e+01 -1.408135175704956055e+00 1.467934322357177734e+01 3.981362342834472656e+00 9.650740027427673340e-01
3.522000000000000000e+03 7.153684997558593750e+01 -2.808827590942382812e+01 2.894300036132335663e-02 7.751343250274658203e+00 2.334085941314697266e+00 2.786149680614471436e-01
3.523000000000000000e+03 7.073172760009765625e+01 -2.606019592285156250e+01 1.826059818267822266e-02 7.698455810546875000e+00 2.315014839172363281e+00 2.988891005516052246e-01
3.524000000000000000e+03 2.363949012756347656e+01 -3.429954528808593750e+01 1.308781057596206665e-01 2.522535026073455811e-01 1.149394884705543518e-01 -1.181662678718566895e-01
3.525000000000000000e+03 8.787301063537597656e+00 -2.067698478698730469e+01 4.013020917773246765e-02 -2.243274748325347900e-01 -5.525917932391166687e-02 -9.763240069150924683e-02
3.526000000000000000e+03 7.509981632232666016e+00 -2.241077423095703125e+01 2.507959119975566864e-02 -2.952636182308197021e-01 -8.105520904064178467e-02 -7.610723376274108887e-02
3.527000000000000000e+03 2.727699279785156250e+01 2.502230882644653320e+00 -2.973859310150146484e-01 -1.944371461868286133e-01 -1.475469172000885010e-01 -1.870236098766326904e-01
3.528000000000000000e+03 2.781578826904296875e+01 2.973024368286132812e+00 -2.882926762104034424e-01 -1.924895346164703369e-01 -1.442346572875976562e-01 -2.025456726551055908e-01
3.529000000000000000e+03 2.636236381530761719e+01 2.566287994384765625e+00 -3.500319421291351318e-01 -2.160869091749191284e-01 -1.698356568813323975e-01 -2.245663404464721680e-01
3.530000000000000000e+03 2.555649566650390625e+01 1.965363502502441406e+00 -3.924490511417388916e-01 -1.955155134201049805e-01 -1.763893663883209229e-01 -2.106966674327850342e-01
3.531000000000000000e+03 5.396045684814453125e+01 3.257435989379882812e+01 3.138194561004638672e+00 6.349114894866943359e+00 2.846192836761474609e+00 5.171067714691162109e+00
3.532000000000000000e+03 2.788739395141601562e+01 3.259981632232666016e+00 -2.732494771480560303e-01 -2.015300393104553223e-01 -1.424338519573211670e-01 -2.048378139734268188e-01
3.533000000000000000e+03 2.806023406982421875e+01 2.322333812713623047e+00 -2.514856159687042236e-01 -1.623456776142120361e-01 -1.241493821144104004e-01 -1.647746413946151733e-01
3.534000000000000000e+03 3.042621803283691406e+01 -1.845441222190856934e+00 -8.134584128856658936e-02 4.084768146276473999e-02 -1.214944850653409958e-02 2.314822748303413391e-02
3.535000000000000000e+03 5.918973159790039062e+01 3.484984588623046875e+01 5.784464836120605469e+00 1.287245178222656250e+01 5.597074985504150391e+00 4.793131053447723389e-01
3.536000000000000000e+03 1.770527267456054688e+01 1.280488967895507812e+01 8.789611607789993286e-02 1.989245414733886719e-01 8.604619652032852173e-02 1.287220865488052368e-01
3.537000000000000000e+03 4.079299545288085938e+01 1.901646232604980469e+01 -5.273199826478958130e-02 5.759217739105224609e-01 1.569569259881973267e-01 2.126163691282272339e-01
3.538000000000000000e+03 4.117617416381835938e+01 1.821246147155761719e+01 -6.664665043354034424e-02 8.149800896644592285e-01 2.245000302791595459e-01 3.014403581619262695e-01
3.539000000000000000e+03 4.219526672363281250e+01 1.915306282043457031e+01 -9.442937560379505157e-03 9.805098772048950195e-01 2.913200855255126953e-01 4.164958298206329346e-01
3.540000000000000000e+03 3.448617935180664062e+01 1.049243068695068359e+01 -3.981594741344451904e-01 7.941208779811859131e-02 -9.562421590089797974e-02 -1.381184458732604980e-01
3.541000000000000000e+03 4.089058685302734375e+01 1.793481636047363281e+01 -8.710043132305145264e-02 7.587102651596069336e-01 2.014829367399215698e-01 2.649677991867065430e-01
3.542000000000000000e+03 7.826488494873046875e+00 1.202383422851562500e+01 5.163212120532989502e-02 -1.297376211732625961e-02 1.159750763326883316e-02 -1.115800440311431885e-02
3.543000000000000000e+03 4.266968917846679688e+01 1.858294868469238281e+01 -3.135546669363975525e-02 1.222257375717163086e+00 3.572705686092376709e-01 4.946892261505126953e-01
3.544000000000000000e+03 5.504860687255859375e+01 3.212364196777343750e+01 1.642813086509704590e+00 1.129584407806396484e+01 3.881597280502319336e+00 5.000763416290283203e+00
3.545000000000000000e+03 5.599747085571289062e+01 3.197422790527343750e+01 7.908304333686828613e-01 1.402325153350830078e+01 4.444224357604980469e+00 3.237642288208007812e+00
3.546000000000000000e+03 5.666411590576171875e+01 3.213574600219726562e+01 9.614383578300476074e-01 1.531809425354003906e+01 4.883859634399414062e+00 1.632622957229614258e+00
3.547000000000000000e+03 2.760717010498046875e+01 2.190385246276855469e+01 7.070177048444747925e-02 1.171623617410659790e-01 5.635923892259597778e-02 9.595962613821029663e-02
3.548000000000000000e+03 1.957151985168457031e+01 1.305913829803466797e+01 1.109276711940765381e-01 1.846283227205276489e-01 8.866679668426513672e-02 1.427835077047348022e-01
3.549000000000000000e+03 1.871276092529296875e+01 1.300074768066406250e+01 1.006517261266708374e-01 1.905856728553771973e-01 8.737122267484664917e-02 1.355890482664108276e-01
3.550000000000000000e+03 4.763721084594726562e+01 2.428002357482910156e+01 4.741292297840118408e-01 2.444447517395019531e+00 8.755730390548706055e-01 1.351928472518920898e+00
3.551000000000000000e+03 4.766930389404296875e+01 2.475863265991210938e+01 5.530515313148498535e-01 2.368085622787475586e+00 8.763411641120910645e-01 1.380086541175842285e+00
3.552000000000000000e+03 5.629964828491210938e+01 3.208917236328125000e+01 8.506138920783996582e-01 1.487803459167480469e+01 4.718594551086425781e+00 2.510185718536376953e+00
3.553000000000000000e+03 4.411492156982421875e+01 2.151567649841308594e+01 1.648972183465957642e-01 1.304627656936645508e+00 4.408574700355529785e-01 6.842812299728393555e-01
3.554000000000000000e+03 4.792048645019531250e+01 2.499586868286132812e+01 5.875769257545471191e-01 2.460452079772949219e+00 9.144086837768554688e-01 1.445051193237304688e+00
3.555000000000000000e+03 4.010685729980468750e+01 1.766411590576171875e+01 -1.236207038164138794e-01 5.648371577262878418e-01 1.323649436235427856e-01 1.650290787220001221e-01
3.556000000000000000e+03 4.173466491699218750e+01 1.859473609924316406e+01 -4.333047196269035339e-02 9.250409007072448730e-01 2.645131349563598633e-01 3.662238717079162598e-01
3.557000000000000000e+03 2.053830909729003906e+01 1.344978427886962891e+01 1.173808872699737549e-01 1.753154844045639038e-01 8.780891448259353638e-02 1.428716927766799927e-01
3.558000000000000000e+03 4.816703796386718750e+01 2.523865890502929688e+01 6.210210323333740234e-01 2.551542997360229492e+00 9.517692327499389648e-01 1.503030538558959961e+00
3.559000000000000000e+03 4.848603820800781250e+01 2.600876426696777344e+01 7.586387395858764648e-01 2.588704109191894531e+00 1.004202842712402344e+00 1.603293538093566895e+00
3.560000000000000000e+03 2.357254219055175781e+01 1.767575645446777344e+01 8.879486471414566040e-02 1.421110928058624268e-01 6.927178800106048584e-02 1.146871298551559448e-01
3.561000000000000000e+03 4.718850708007812500e+01 2.425415229797363281e+01 4.838537275791168213e-01 2.198922395706176758e+00 8.048328161239624023e-01 1.262013554573059082e+00
3.562000000000000000e+03 2.364033699035644531e+01 1.872966003417968750e+01 7.811069488525390625e-02 1.377269774675369263e-01 6.475129723548889160e-02 1.058893278241157532e-01
3.563000000000000000e+03 3.632865905761718750e+01 1.324734783172607422e+01 -3.384199142456054688e-01 1.578457802534103394e-01 -5.417223647236824036e-02 -1.166853010654449463e-01
3.564000000000000000e+03 2.080141448974609375e+01 1.425514602661132812e+01 1.085410267114639282e-01 1.708863079547882080e-01 8.382819592952728271e-02 1.332497000694274902e-01
3.565000000000000000e+03 2.297269248962402344e+01 1.726195526123046875e+01 8.792319148778915405e-02 1.467680335044860840e-01 7.040736824274063110e-02 1.154642626643180847e-01
3.566000000000000000e+03 2.252113533020019531e+01 1.656935119628906250e+01 9.108330309391021729e-02 1.529213637113571167e-01 7.320139557123184204e-02 1.184117123484611511e-01
3.567000000000000000e+03 3.608612060546875000e+01 1.244484615325927734e+01 -3.461660146713256836e-01 1.946186423301696777e-01 -4.546421393752098083e-02 -9.750618040561676025e-02
3.568000000000000000e+03 4.465801239013671875e+01 2.157247161865234375e+01 1.755840480327606201e-01 1.515697717666625977e+00 5.073845386505126953e-01 7.752182483673095703e-01
3.569000000000000000e+03 2.084589576721191406e+01 1.488585853576660156e+01 9.994385391473770142e-02 1.670974045991897583e-01 8.011237531900405884e-02 1.257653087377548218e-01
3.570000000000000000e+03 3.144889640808105469e+01 2.593451499938964844e+01 5.978514626622200012e-02 1.017366573214530945e-01 4.845654219388961792e-02 8.016231656074523926e-02
3.571000000000000000e+03 2.716431617736816406e+01 2.153909111022949219e+01 7.199916988611221313e-02 1.206392124295234680e-01 5.779151245951652527e-02 9.434393048286437988e-02
3.572000000000000000e+03 2.298893737792968750e+01 1.780082321166992188e+01 8.199257403612136841e-02 1.444327980279922485e-01 6.792761385440826416e-02 1.112366169691085815e-01
3.573000000000000000e+03 5.018891143798828125e+01 2.749242782592773438e+01 1.048526406288146973e+00 3.469421625137329102e+00 1.355384349822998047e+00 2.109303236007690430e+00
3.574000000000000000e+03 2.558032035827636719e+01 1.884071922302246094e+01 9.132848680019378662e-02 1.321832686662673950e-01 6.705352663993835449e-02 1.079882308840751648e-01
3.575000000000000000e+03 3.015094947814941406e+01 -1.252908945083618164e+00 -9.373272210359573364e-02 1.063233334571123123e-02 -2.493011578917503357e-02 6.228455808013677597e-03
3.576000000000000000e+03 5.864936065673828125e+01 3.467556381225585938e+01 6.555849075317382812e+00 1.353514766693115234e+01 6.027299404144287109e+00 8.752883970737457275e-02
3.577000000000000000e+03 3.933529663085937500e+01 1.683066368103027344e+01 -1.729776114225387573e-01 4.621758162975311279e-01 8.675946295261383057e-02 9.211625158786773682e-02
3.578000000000000000e+03 5.081208801269531250e+01 2.858586311340332031e+01 1.356755971908569336e+00 3.695704936981201172e+00 1.515738248825073242e+00 2.381042003631591797e+00
3.579000000000000000e+03 5.127048110961914062e+01 2.853546142578125000e+01 1.289469003677368164e+00 4.162905216217041016e+00 1.635712385177612305e+00 2.522008180618286133e+00
3.580000000000000000e+03 3.393700790405273438e+01 2.782017898559570312e+01 6.589949876070022583e-02 9.458976984024047852e-02 4.814677685499191284e-02 7.950903475284576416e-02
3.581000000000000000e+03 4.418410873413085938e+01 2.101133537292480469e+01 1.270361989736557007e-01 1.416412830352783203e+00 4.630347192287445068e-01 7.013458013534545898e-01
3.582000000000000000e+03 2.527702713012695312e+01 1.972541809082031250e-01 -4.301513731479644775e-01 -1.505573540925979614e-01 -1.742126196622848511e-01 -6.509301811456680298e-02
3.583000000000000000e+03 2.587188911437988281e+01 1.025054216384887695e+00 -3.782816231250762939e-01 -1.812204122543334961e-01 -1.678506135940551758e-01 -1.308560371398925781e-01
3.584000000000000000e+03 2.577137184143066406e+01 1.732767343521118164e+00 -3.750635683536529541e-01 -1.925138980150222778e-01 -1.702732443809509277e-01 -2.024534344673156738e-01
3.585000000000000000e+03 4.932323074340820312e+01 2.674694061279296875e+01 8.933376669883728027e-01 2.991871595382690430e+00 1.165562748908996582e+00 1.839183688163757324e+00
3.586000000000000000e+03 4.913343429565429688e+01 2.704802703857421875e+01 9.772628545761108398e-01 2.772439956665039062e+00 1.124910831451416016e+00 1.801438212394714355e+00
3.587000000000000000e+03 3.360694503784179688e+01 2.823682022094726562e+01 6.356259435415267944e-02 9.874492138624191284e-02 4.869225248694419861e-02 7.468341290950775146e-02
3.588000000000000000e+03 3.421151351928710938e+01 2.918405914306640625e+01 6.553108990192413330e-02 9.464380145072937012e-02 4.805246740579605103e-02 7.327867299318313599e-02
3.589000000000000000e+03 2.670605850219726562e+01 2.081893348693847656e+01 7.765555381774902344e-02 1.244368404150009155e-01 6.062771752476692200e-02 9.815913438796997070e-02
3.590000000000000000e+03 2.674763298034667969e+01 2.045620536804199219e+01 7.760669291019439697e-02 1.237676590681076050e-01 6.041230633854866028e-02 1.006426066160202026e-01
3.591000000000000000e+03 2.640696334838867188e+01 2.024777030944824219e+01 7.908520102500915527e-02 1.250421106815338135e-01 6.123819574713706970e-02 1.020928323268890381e-01
3.592000000000000000e+03 5.802775955200195312e+01 3.308045578002929688e+01 3.593878269195556641e+00 1.504463481903076172e+01 5.591554164886474609e+00 -1.047216296195983887e+00
3.593000000000000000e+03 2.784828186035156250e+01 2.659079551696777344e+00 -2.554576694965362549e-01 -1.805957108736038208e-01 -1.308160126209259033e-01 -1.746076792478561401e-01
3.594000000000000000e+03 2.416872787475585938e+01 1.811954498291015625e+01 8.899512141942977905e-02 1.375636160373687744e-01 6.796762347221374512e-02 1.125470250844955444e-01
3.595000000000000000e+03 4.490291213989257812e+01 2.184633255004882812e+01 2.013816237449645996e-01 1.572335362434387207e+00 5.321151018142700195e-01 8.140439987182617188e-01
3.596000000000000000e+03 4.339574050903320312e+01 2.060120582580566406e+01 8.982897549867630005e-02 1.179034829139709473e+00 3.806591331958770752e-01 5.797822475433349609e-01
3.597000000000000000e+03 2.607918167114257812e+01 5.915755033493041992e-01 -3.652299344539642334e-01 -1.661013662815093994e-01 -1.593993902206420898e-01 -8.565210551023483276e-02
3.598000000000000000e+03 2.051666450500488281e+01 1.456802368164062500e+01 1.003445312380790710e-01 1.692464351654052734e-01 8.087728917598724365e-02 1.285085678100585938e-01
3.599000000000000000e+03 2.114851951599121094e+01 1.471941661834716797e+01 1.050102040171623230e-01 1.667259484529495239e-01 8.152084052562713623e-02 1.301193833351135254e-01
3.600000000000000000e+03 4.903804779052734375e+01 2.650201988220214844e+01 8.470901250839233398e-01 2.846661567687988281e+00 1.108125448226928711e+00 1.756320953369140625e+00
3.601000000000000000e+03 2.816007423400878906e+01 2.217378997802734375e+01 6.879416853189468384e-02 1.157969310879707336e-01 5.537733063101768494e-02 9.285359084606170654e-02
3.602000000000000000e+03 4.620231628417968750e+01 2.370589065551757812e+01 4.180918335914611816e-01 1.810175299644470215e+00 6.684801578521728516e-01 1.049054384231567383e+00
3.603000000000000000e+03 4.670907211303710938e+01 2.372810745239257812e+01 4.173496365547180176e-01 2.056910037994384766e+00 7.422779202461242676e-01 1.153359293937683105e+00
3.604000000000000000e+03 2.161561584472656250e+01 1.525206470489501953e+01 1.014160141348838806e-01 1.624935567378997803e-01 7.917287200689315796e-02 1.265098154544830322e-01
3.605000000000000000e+03 3.784987258911132812e+01 1.465759277343750000e+01 -2.611291110515594482e-01 3.438681662082672119e-01 2.482171542942523956e-02 -8.028596639633178711e-03
3.606000000000000000e+03 3.907725906372070312e+01 1.654823875427246094e+01 -1.903886348009109497e-01 4.285013377666473389e-01 7.143381237983703613e-02 7.093475759029388428e-02
3.607000000000000000e+03 4.143987655639648438e+01 1.792247772216796875e+01 -7.974077016115188599e-02 9.268388152122497559e-01 2.541294097900390625e-01 3.329193890094757080e-01
3.608000000000000000e+03 3.807332229614257812e+01 1.494259643554687500e+01 -2.526359558105468750e-01 3.667834401130676270e-01 3.424424305558204651e-02 8.267131634056568146e-03
3.609000000000000000e+03 2.554908370971679688e+01 1.938432502746582031e+01 8.458702266216278076e-02 1.311041265726089478e-01 6.470734626054763794e-02 1.040763407945632935e-01
3.610000000000000000e+03 4.395575714111328125e+01 2.071434593200683594e+01 1.034867763519287109e-01 1.375292897224426270e+00 4.436339139938354492e-01 6.679154634475708008e-01
3.611000000000000000e+03 5.054108047485351562e+01 2.832876014709472656e+01 1.289682030677795410e+00 3.527249336242675781e+00 1.445079445838928223e+00 2.272783756256103516e+00
3.612000000000000000e+03 5.178972244262695312e+01 2.901902580261230469e+01 1.409287691116333008e+00 4.552778244018554688e+00 1.788619756698608398e+00 2.757421255111694336e+00
3.613000000000000000e+03 4.515343856811523438e+01 2.211895179748535156e+01 2.286063283681869507e-01 1.633290529251098633e+00 5.585690736770629883e-01 8.561127781867980957e-01
3.614000000000000000e+03 1.399860954284667969e+01 7.984165668487548828e+00 8.596473187208175659e-02 3.674262166023254395e-01 1.360172927379608154e-01 1.105800867080688477e-01
3.615000000000000000e+03 1.438626575469970703e+01 8.807661056518554688e+00 8.894352614879608154e-02 3.200061917304992676e-01 1.226849183440208435e-01 1.183758750557899475e-01
3.616000000000000000e+03 5.192313385009765625e+01 2.819925689697265625e+01 1.063415527343750000e+00 4.923576831817626953e+00 1.796097755432128906e+00 2.642211914062500000e+00
3.617000000000000000e+03 3.831273269653320312e+01 1.521239757537841797e+01 -2.382943332195281982e-01 3.941803276538848877e-01 4.676579684019088745e-02 2.516764216125011444e-02
3.618000000000000000e+03 1.946400833129882812e+01 1.339504146575927734e+01 1.038931384682655334e-01 1.833001673221588135e-01 8.615799248218536377e-02 1.365782916545867920e-01
3.619000000000000000e+03 4.922362899780273438e+01 2.620444107055664062e+01 7.693222165107727051e-01 3.049261569976806641e+00 1.145575165748596191e+00 1.784988284111022949e+00
3.620000000000000000e+03 5.046712493896484375e+01 2.774909591674804688e+01 1.103783130645751953e+00 3.634616374969482422e+00 1.421519875526428223e+00 2.204588413238525391e+00
3.621000000000000000e+03 5.247355270385742188e+01 2.918873023986816406e+01 1.348862886428833008e+00 5.299601078033447266e+00 1.994539141654968262e+00 2.992978334426879883e+00
3.622000000000000000e+03 4.990264892578125000e+01 2.724063301086425781e+01 9.955483675003051758e-01 3.307247400283813477e+00 1.290838718414306641e+00 2.016606807708740234e+00
3.623000000000000000e+03 4.951063156127929688e+01 2.643601799011230469e+01 8.053771853446960449e-01 3.205677032470703125e+00 1.203316330909729004e+00 1.864450454711914062e+00
3.624000000000000000e+03 3.881954574584960938e+01 1.626761054992675781e+01 -2.038063108921051025e-01 3.957894742488861084e-01 5.759495124220848083e-02 4.879226535558700562e-02
3.625000000000000000e+03 3.549542999267578125e+01 1.199533748626708984e+01 -3.740234673023223877e-01 1.225758343935012817e-01 -7.543428987264633179e-02 -1.365031898021697998e-01
3.626000000000000000e+03 2.501221656799316406e+01 1.885766983032226562e+01 8.680042624473571777e-02 1.340326368808746338e-01 6.624991446733474731e-02 1.068763136863708496e-01
3.627000000000000000e+03 4.268945693969726562e+01 1.905197715759277344e+01 -5.188231356441974640e-03 1.171859383583068848e+00 3.500013649463653564e-01 4.961235225200653076e-01
3.628000000000000000e+03 1.675481796264648438e+01 1.052063465118408203e+01 1.084721833467483521e-01 2.399860173463821411e-01 1.045374572277069092e-01 1.522258520126342773e-01
3.629000000000000000e+03 1.468421554565429688e+01 9.750464439392089844e+00 7.928278297185897827e-02 2.799913287162780762e-01 1.077822297811508179e-01 1.129265576601028442e-01
3.630000000000000000e+03 4.593960189819335938e+01 2.343893051147460938e+01 3.827773034572601318e-01 1.740067481994628906e+00 6.368534564971923828e-01 9.956918358802795410e-01
3.631000000000000000e+03 5.877439117431640625e+01 3.431669616699218750e+01 6.062542915344238281e+00 1.345290088653564453e+01 5.854632854461669922e+00 -2.774927020072937012e-01
3.632000000000000000e+03 5.808415222167968750e+01 3.390926361083984375e+01 5.894711494445800781e+00 1.477722358703613281e+01 6.201580524444580078e+00 -1.034822821617126465e+00
3.633000000000000000e+03 4.373758697509765625e+01 2.040069770812988281e+01 7.926121354103088379e-02 1.340868115425109863e+00 4.260388016700744629e-01 6.349882483482360840e-01
3.634000000000000000e+03 3.612128448486328125e+01 1.214615345001220703e+01 -3.468618392944335938e-01 2.267320454120635986e-01 -3.603893890976905823e-02 -8.507240563631057739e-02
3.635000000000000000e+03 3.267868423461914062e+01 2.679082298278808594e+01 5.941845104098320007e-02 9.923961013555526733e-02 4.759741574525833130e-02 7.983303070068359375e-02
3.636000000000000000e+03 2.194167900085449219e+01 1.682333946228027344e+01 8.240432292222976685e-02 1.538283973932266235e-01 7.086981832981109619e-02 1.131456047296524048e-01
3.637000000000000000e+03 2.928928756713867188e+01 2.377372932434082031e+01 6.018535792827606201e-02 1.083831712603569031e-01 5.057055875658988953e-02 9.015049785375595093e-02
3.638000000000000000e+03 2.819665718078613281e+01 2.363517189025878906e+01 6.147665157914161682e-02 1.110433936119079590e-01 5.175601318478584290e-02 8.942083269357681274e-02
3.639000000000000000e+03 3.856200790405273438e+01 1.547630596160888672e+01 -2.289138287305831909e-01 4.265755116939544678e-01 5.929850041866302490e-02 4.655449464917182922e-02
3.640000000000000000e+03 3.315167999267578125e+01 2.794857215881347656e+01 6.374569982290267944e-02 9.541606903076171875e-02 4.774852842092514038e-02 7.701337337493896484e-02
3.641000000000000000e+03 3.263198471069335938e+01 2.775066184997558594e+01 5.888032913208007812e-02 9.757322072982788086e-02 4.693606495857238770e-02 7.573146373033523560e-02
3.642000000000000000e+03 3.160386085510253906e+01 2.545792579650878906e+01 6.659373641014099121e-02 1.003700420260429382e-01 5.008913204073905945e-02 8.537688851356506348e-02
3.643000000000000000e+03 5.846356964111328125e+01 3.417595672607421875e+01 6.121344566345214844e+00 1.387093448638916016e+01 5.997683525085449219e+00 -5.797379016876220703e-01
3.644000000000000000e+03 2.582534790039062500e+01 1.965887069702148438e+01 8.216658234596252441e-02 1.285869926214218140e-01 6.322607398033142090e-02 1.048662960529327393e-01
3.645000000000000000e+03 1.732710456848144531e+01 1.119258594512939453e+01 1.059912592172622681e-01 2.249646335840225220e-01 9.928677231073379517e-02 1.478981524705886841e-01
3.646000000000000000e+03 4.279056930541992188e+01 1.949240493774414062e+01 1.484491955488920212e-02 1.143319129943847656e+00 3.474492132663726807e-01 5.027856230735778809e-01
3.647000000000000000e+03 4.335812759399414062e+01 1.972204971313476562e+01 3.291535750031471252e-02 1.306650400161743164e+00 4.018697142601013184e-01 5.858097076416015625e-01
3.648000000000000000e+03 3.984932708740234375e+01 1.685294342041015625e+01 -1.549260318279266357e-01 5.998933911323547363e-01 1.334902048110961914e-01 1.562800407409667969e-01
3.649000000000000000e+03 3.046085929870605469e+01 4.267642498016357422e+00 -1.830108314752578735e-01 7.799608283676207066e-05 -5.487985163927078247e-02 -2.005945742130279541e-01
3.650000000000000000e+03 2.962559127807617188e+01 4.346616268157958984e+00 -2.384330183267593384e-01 -6.953902542591094971e-02 -9.239161759614944458e-02 -2.091376334428787231e-01
3.651000000000000000e+03 5.229315948486328125e+01 2.946047210693359375e+01 1.509624838829040527e+00 5.002950668334960938e+00 1.953772544860839844e+00 3.002836704254150391e+00
3.652000000000000000e+03 2.852528572082519531e+01 2.300773811340332031e+01 6.260339170694351196e-02 1.135823950171470642e-01 5.285573378205299377e-02 9.012368321418762207e-02
3.653000000000000000e+03 3.881713485717773438e+01 1.574185085296630859e+01 -2.134374380111694336e-01 4.594029486179351807e-01 7.378965616226196289e-02 6.752290576696395874e-02
3.654000000000000000e+03 3.907503509521484375e+01 1.601309776306152344e+01 -2.014281749725341797e-01 4.936477541923522949e-01 8.766587823629379272e-02 8.932873606681823730e-02
3.655000000000000000e+03 1.774450874328613281e+01 1.128012084960937500e+01 1.126721128821372986e-01 2.176585346460342407e-01 9.909918904304504395e-02 1.525571197271347046e-01
3.656000000000000000e+03 4.540922164916992188e+01 2.239128875732421875e+01 2.575156390666961670e-01 1.697597622871398926e+00 5.865339636802673340e-01 8.996717333793640137e-01
3.657000000000000000e+03 1.907695770263671875e+01 1.325882148742675781e+01 1.019374504685401917e-01 1.852014213800430298e-01 8.614166080951690674e-02 1.358307003974914551e-01
3.658000000000000000e+03 2.111691284179687500e+01 1.518817520141601562e+01 9.761933237314224243e-02 1.636176407337188721e-01 7.837109267711639404e-02 1.244679912924766541e-01
3.659000000000000000e+03 3.518340682983398438e+01 1.157061767578125000e+01 -3.872585892677307129e-01 1.033122539520263672e-01 -8.518390357494354248e-02 -1.467856615781784058e-01
3.660000000000000000e+03 3.556064987182617188e+01 1.163718891143798828e+01 -3.670216798782348633e-01 1.695876121520996094e-01 -5.923021957278251648e-02 -1.074819192290306091e-01
3.661000000000000000e+03 3.640755462646484375e+01 1.271953964233398438e+01 -3.304821848869323730e-01 2.310760021209716797e-01 -2.982186153531074524e-02 -8.421199768781661987e-02
3.662000000000000000e+03 3.576808929443359375e+01 1.241911983489990234e+01 -3.642555177211761475e-01 1.244977787137031555e-01 -7.192731648683547974e-02 -1.342523247003555298e-01
3.663000000000000000e+03 2.212657928466796875e+01 1.643960380554199219e+01 9.102008491754531860e-02 1.539681553840637207e-01 7.349646836519241333e-02 1.182908192276954651e-01
3.664000000000000000e+03 2.190272712707519531e+01 1.594513416290283203e+01 9.594444930553436279e-02 1.573828756809234619e-01 7.599819451570510864e-02 1.213842034339904785e-01
3.665000000000000000e+03 4.566896057128906250e+01 2.266259765625000000e+01 2.878377139568328857e-01 1.766133427619934082e+00 6.161913275718688965e-01 9.465130567550659180e-01
3.666000000000000000e+03 4.593125915527343750e+01 2.293239784240722656e+01 3.196383714675903320e-01 1.836215138435363770e+00 6.467560529708862305e-01 9.956277608871459961e-01
3.667000000000000000e+03 2.152090454101562500e+01 1.584144306182861328e+01 9.197302162647247314e-02 1.606619507074356079e-01 7.579048722982406616e-02 1.198969259858131409e-01
3.668000000000000000e+03 3.523162841796875000e+01 2.983347892761230469e+01 5.906838923692703247e-02 9.122250974178314209e-02 4.508727043867111206e-02 7.347352057695388794e-02
3.669000000000000000e+03 3.324228668212890625e+01 9.808593750000000000e+00 -4.630299806594848633e-01 -6.170660629868507385e-02 -1.574209779500961304e-01 -1.793882697820663452e-01
3.670000000000000000e+03 3.310531997680664062e+01 6.598766803741455078e+00 -1.248473376035690308e-01 7.910265773534774780e-02 -1.372340414673089981e-02 -8.290679007768630981e-02
3.671000000000000000e+03 5.297545623779296875e+01 2.965684700012207031e+01 1.427934408187866211e+00 5.911499023437500000e+00 2.201830148696899414e+00 3.299726247787475586e+00
3.672000000000000000e+03 3.415924072265625000e+01 1.014414691925048828e+01 -4.089142382144927979e-01 5.276765674352645874e-02 -1.068439781665802002e-01 -1.354129314422607422e-01
3.673000000000000000e+03 1.650893783569335938e+01 1.087882328033447266e+01 9.793815016746520996e-02 2.397910058498382568e-01 1.013187468051910400e-01 1.416412293910980225e-01
3.674000000000000000e+03 1.613319587707519531e+01 1.019589138031005859e+01 1.028187945485115051e-01 2.558998763561248779e-01 1.076156049966812134e-01 1.485540568828582764e-01
3.675000000000000000e+03 1.081323242187500000e+01 5.093631744384765625e+00 3.079030811786651611e-01 7.394270598888397217e-02 1.145537346601486206e-01 -1.022363677620887756e-01
3.676000000000000000e+03 1.230822086334228516e+01 5.839120864868164062e+00 1.690181046724319458e-01 4.311478137969970703e-01 1.800497770309448242e-01 -9.066087752580642700e-02
3.677000000000000000e+03 1.262401676177978516e+01 6.032130241394042969e+00 1.328880190849304199e-01 4.874347150325775146e-01 1.860968172550201416e-01 -5.037968605756759644e-02
3.678000000000000000e+03 8.885016441345214844e+00 6.519066333770751953e+00 1.915517151355743408e-01 -6.045057252049446106e-02 3.933034092187881470e-02 8.656228892505168915e-03
3.679000000000000000e+03 3.101481437683105469e+01 2.577373504638671875e+01 6.328781694173812866e-02 1.010539457201957703e-01 4.930252954363822937e-02 8.406212925910949707e-02
3.680000000000000000e+03 3.018732643127441406e+01 2.480641746520996094e+01 6.396555900573730469e-02 1.059068217873573303e-01 5.096171423792839050e-02 8.409695327281951904e-02
3.681000000000000000e+03 2.623283576965332031e+01 5.254741758108139038e-03 -3.509476482868194580e-01 -1.586331129074096680e-01 -1.528742313385009766e-01 -3.282016515731811523e-02
3.682000000000000000e+03 1.678625869750976562e+01 1.147217559814453125e+01 9.271930158138275146e-02 2.265985608100891113e-01 9.579536318778991699e-02 1.362960636615753174e-01
3.683000000000000000e+03 5.343152618408203125e+01 3.034547233581542969e+01 1.632647037506103516e+00 6.435346126556396484e+00 2.420397996902465820e+00 3.691924571990966797e+00
3.684000000000000000e+03 5.334941864013671875e+01 3.077261924743652344e+01 1.923032402992248535e+00 6.115757942199707031e+00 2.411637067794799805e+00 3.842639446258544922e+00
3.685000000000000000e+03 1.510547637939453125e+01 9.727680206298828125e+00 8.948428928852081299e-02 2.802680432796478271e-01 1.109257042407989502e-01 1.280813813209533691e-01
3.686000000000000000e+03 1.393932151794433594e+01 8.805365562438964844e+00 7.740972191095352173e-02 3.224600553512573242e-01 1.199609339237213135e-01 9.591501951217651367e-02
3.687000000000000000e+03 3.089804458618164062e+01 4.620155811309814453e+00 -1.576999723911285400e-01 1.914907619357109070e-02 -4.156526923179626465e-02 -2.144240289926528931e-01
3.688000000000000000e+03 3.283287048339843750e+01 5.030841827392578125e+00 -8.826892822980880737e-02 1.586492508649826050e-01 2.111409604549407959e-02 -1.054619997739791870e-01
3.689000000000000000e+03 3.219604873657226562e+01 2.672434997558593750e+01 6.634582579135894775e-02 9.858417510986328125e-02 4.947900027036666870e-02 7.982499897480010986e-02
3.690000000000000000e+03 1.355236434936523438e+01 7.217211246490478516e+00 9.301109611988067627e-02 4.308128654956817627e-01 1.571471840143203735e-01 8.621951192617416382e-02
3.691000000000000000e+03 1.387474060058593750e+01 7.234824180603027344e+00 9.367932379245758057e-02 4.365680217742919922e-01 1.590742021799087524e-01 1.152985095977783203e-01
3.692000000000000000e+03 3.179930114746093750e+01 4.864556789398193359e+00 -1.062381565570831299e-01 5.721412971615791321e-02 -1.470720767974853516e-02 -1.770206689834594727e-01
3.693000000000000000e+03 2.663285636901855469e+01 -1.662006825208663940e-01 -2.876158654689788818e-01 -1.563002914190292358e-01 -1.331748515367507935e-01 -2.664773352444171906e-02
3.694000000000000000e+03 2.807263565063476562e+01 -7.011230587959289551e-01 -1.880740970373153687e-01 -1.138819977641105652e-01 -9.058682620525360107e-02 1.883026212453842163e-02
3.695000000000000000e+03 3.070336723327636719e+01 2.522884941101074219e+01 6.425029039382934570e-02 1.034331768751144409e-01 5.030503869056701660e-02 8.529625833034515381e-02
3.696000000000000000e+03 2.811724853515625000e+01 2.841927766799926758e+00 -2.472567260265350342e-01 -1.740019172430038452e-01 -1.263775974512100220e-01 -1.794817745685577393e-01
3.697000000000000000e+03 3.375732040405273438e+01 7.888993263244628906e+00 -2.315265685319900513e-01 1.220771893858909607e-01 -3.283481672406196594e-02 -4.350305721163749695e-02
3.698000000000000000e+03 3.383585357666015625e+01 9.784618377685546875e+00 -4.005303978919982910e-01 3.500683605670928955e-02 -1.096570715308189392e-01 -1.346748620271682739e-01
3.699000000000000000e+03 6.040073394775390625e+01 3.586877059936523438e+01 4.048933506011962891e+00 1.219562339782714844e+01 4.873367309570312500e+00 1.187512516975402832e+00
3.700000000000000000e+03 3.029607009887695312e+01 2.530795478820800781e+01 5.816675722599029541e-02 1.020688712596893311e-01 4.807068780064582825e-02 8.519450575113296509e-02
3.701000000000000000e+03 2.950668716430664062e+01 2.439291954040527344e+01 6.279073655605316162e-02 1.088462322950363159e-01 5.149108916521072388e-02 8.465384691953659058e-02
3.702000000000000000e+03 3.404246520996093750e+01 2.849615859985351562e+01 6.567747145891189575e-02 9.447511285543441772e-02 4.804577305912971497e-02 7.741194218397140503e-02
3.703000000000000000e+03 3.767169570922851562e+01 3.249089050292968750e+01 8.219597488641738892e-02 7.416777312755584717e-02 4.690912365913391113e-02 6.830979883670806885e-02
3.704000000000000000e+03 3.771835327148437500e+01 3.330133819580078125e+01 5.962207168340682983e-02 7.975774258375167847e-02 4.181394353508949280e-02 7.188411056995391846e-02
3.705000000000000000e+03 2.859111595153808594e+01 3.162409305572509766e+00 -2.394304573535919189e-01 -1.446335911750793457e-01 -1.152192130684852600e-01 -1.710073649883270264e-01
3.706000000000000000e+03 2.875115394592285156e+01 -1.135853290557861328e+00 -1.475027352571487427e-01 -8.383779227733612061e-02 -6.940215826034545898e-02 3.123435191810131073e-02
3.707000000000000000e+03 3.427747344970703125e+01 3.054296684265136719e+01 6.068002805113792419e-02 9.249673783779144287e-02 4.595303162932395935e-02 6.481640785932540894e-02
3.708000000000000000e+03 1.015066337585449219e+01 5.959698200225830078e+00 2.368376255035400391e-01 2.814762666821479797e-02 7.949557900428771973e-02 -5.478493496775627136e-02
3.709000000000000000e+03 1.145824241638183594e+01 5.817472934722900391e+00 2.158997505903244019e-01 2.372212558984756470e-01 1.359363049268722534e-01 -1.088386029005050659e-01
3.710000000000000000e+03 5.970346450805664062e+00 8.342629432678222656e+00 8.818228542804718018e-02 -1.113254502415657043e-01 -6.942951120436191559e-03 4.414886236190795898e-02
3.711000000000000000e+03 1.208000373840332031e+01 5.243672847747802734e+00 2.367062419652938843e-01 4.057929217815399170e-01 1.927497535943984985e-01 -1.492896527051925659e-01
3.712000000000000000e+03 3.346845626831054688e+01 8.576096534729003906e+00 -3.107007443904876709e-01 4.286398366093635559e-02 -8.035103231668472290e-02 -7.734512537717819214e-02
3.713000000000000000e+03 9.298027992248535156e+00 6.888113021850585938e+00 1.842889040708541870e-01 -1.337058842182159424e-02 5.127549543976783752e-02 -1.752050407230854034e-02
3.714000000000000000e+03 8.821941375732421875e+00 -8.039074897766113281e+00 6.008906755596399307e-03 -1.679461151361465454e-01 -4.858116060495376587e-02 -2.625361979007720947e-01
3.715000000000000000e+03 3.346164321899414062e+01 7.075531482696533203e+00 -1.642489731311798096e-01 1.216806098818778992e-01 -1.277050748467445374e-02 -5.747723579406738281e-02
3.716000000000000000e+03 8.017900466918945312e+00 7.649044513702392578e+00 1.432462930679321289e-01 -6.623935699462890625e-02 2.310208044946193695e-02 1.806264370679855347e-02
3.717000000000000000e+03 6.397209167480468750e+00 7.092834949493408203e+00 1.094719618558883667e-01 -1.219364702701568604e-01 -3.739352338016033173e-03 6.871891766786575317e-02
3.718000000000000000e+03 3.202947616577148438e+01 -3.141201972961425781e+00 -5.006554350256919861e-02 2.280981391668319702e-01 5.340977758169174194e-02 2.399292029440402985e-02
3.719000000000000000e+03 2.968708610534667969e+01 3.611857175827026367e+00 -2.075631916522979736e-01 -5.778827518224716187e-02 -7.960543781518936157e-02 -1.701164096593856812e-01
3.720000000000000000e+03 6.930207824707031250e+01 3.552214384078979492e+00 -3.058310747146606445e-01 7.790129661560058594e+00 2.245289564132690430e+00 -2.473869919776916504e-01
3.721000000000000000e+03 6.985364532470703125e+01 -1.570385575294494629e+00 -2.087674587965011597e-01 7.844956874847412109e+00 2.290856838226318359e+00 -7.181721925735473633e-02
3.722000000000000000e+03 1.054752635955810547e+01 6.376890182495117188e+00 2.117314785718917847e-01 9.563620388507843018e-02 9.221030771732330322e-02 -7.024372369050979614e-02
3.723000000000000000e+03 9.279003143310546875e+00 7.691154479980468750e+00 1.567728668451309204e-01 1.114543527364730835e-02 5.037548765540122986e-02 -2.153816446661949158e-02
3.724000000000000000e+03 3.246907043457031250e+01 -3.580869674682617188e+00 -3.846010193228721619e-02 2.797495126724243164e-01 7.238682359457015991e-02 1.576561108231544495e-02
3.725000000000000000e+03 3.524480819702148438e+01 -6.070024013519287109e+00 -6.274916976690292358e-02 7.223320603370666504e-01 1.978748738765716553e-01 -1.391998957842588425e-02
3.726000000000000000e+03 1.262561416625976562e+01 -7.979335308074951172e+00 9.951580315828323364e-02 -1.571582555770874023e-01 -1.729273423552513123e-02 -2.547276914119720459e-01
3.727000000000000000e+03 1.274064064025878906e+01 -7.093120098114013672e+00 7.006922364234924316e-02 -1.780302673578262329e-01 -3.238831087946891785e-02 -2.888411879539489746e-01
3.728000000000000000e+03 8.224290847778320312e+00 1.442715167999267578e+01 2.480223961174488068e-02 -4.249481717124581337e-04 7.313187234103679657e-03 -1.407832000404596329e-02
3.729000000000000000e+03 6.924458312988281250e+01 -3.549536705017089844e+00 -2.046893984079360962e-01 7.728749275207519531e+00 2.257217884063720703e+00 -1.130750030279159546e-02
3.730000000000000000e+03 1.349272060394287109e+01 -9.054149627685546875e+00 1.501512676477432251e-01 -1.035628765821456909e-01 1.397651899605989456e-02 -2.018276154994964600e-01
3.731000000000000000e+03 7.602406978607177734e+00 -9.648431777954101562e+00 4.015327617526054382e-02 -1.969004869461059570e-01 -4.702416434884071350e-02 -2.239646911621093750e-01
3.732000000000000000e+03 6.946288299560546875e+01 -1.140335559844970703e+01 -1.314567774534225464e-01 7.707523345947265625e+00 2.272819995880126953e+00 1.717513054609298706e-01
3.733000000000000000e+03 3.218299102783203125e+01 4.119768142700195312e+01 4.779005050659179688e-02 7.718970626592636108e-02 3.749392926692962646e-02 -1.491289702244102955e-03
3.734000000000000000e+03 7.184904098510742188e+00 8.672369956970214844e+00 1.092726290225982666e-01 -6.944046169519424438e-02 1.194965094327926636e-02 1.802373491227626801e-02
3.735000000000000000e+03 3.824590682983398438e+01 -6.847500801086425781e+00 -1.060591265559196472e-01 1.343141198158264160e+00 3.711246252059936523e-01 -3.013040311634540558e-02
3.736000000000000000e+03 3.758006286621093750e+01 -6.422533512115478516e+00 -8.687042444944381714e-02 1.208264708518981934e+00 3.364183008670806885e-01 -3.248910978436470032e-02
3.737000000000000000e+03 1.024422454833984375e+01 -9.255142211914062500e+00 8.025313168764114380e-02 -1.766226738691329956e-01 -2.891086228191852570e-02 -2.490580230951309204e-01
3.738000000000000000e+03 7.687901973724365234e+00 1.096265411376953125e+01 6.836098432540893555e-02 -2.396459318697452545e-02 1.331891864538192749e-02 -6.129338406026363373e-03
3.739000000000000000e+03 1.454574680328369141e+01 -1.665759849548339844e+01 1.169324740767478943e-01 4.996914416551589966e-02 5.007048696279525757e-02 -1.425081342458724976e-01
3.740000000000000000e+03 1.860991859436035156e+01 -1.919188690185546875e+01 8.297496289014816284e-02 2.369960397481918335e-01 9.599129855632781982e-02 -1.677469909191131592e-01
3.741000000000000000e+03 6.962361145019531250e+01 -1.785832405090332031e+01 -7.696074992418289185e-02 7.672805309295654297e+00 2.278753280639648438e+00 2.756997942924499512e-01
3.742000000000000000e+03 6.987126159667968750e+01 -1.979427528381347656e+01 -6.038424000144004822e-02 7.680761814117431641e+00 2.286113262176513672e+00 2.943505346775054932e-01
3.743000000000000000e+03 7.789344787597656250e+00 -1.361694335937500000e+01 7.617683708667755127e-02 -2.284514158964157104e-01 -4.568237438797950745e-02 -1.694793403148651123e-01
3.744000000000000000e+03 9.100887298583984375e+00 -1.346660900115966797e+01 8.339444547891616821e-02 -1.931556165218353271e-01 -3.292835131287574768e-02 -1.730842888355255127e-01
3.745000000000000000e+03 1.339383506774902344e+01 -1.289997482299804688e+01 1.395766139030456543e-01 -2.790805138647556305e-02 3.350056707859039307e-02 -1.546133607625961304e-01
3.746000000000000000e+03 7.406585693359375000e+00 -1.226983737945556641e+01 5.726808682084083557e-02 -2.245493382215499878e-01 -5.018437653779983521e-02 -1.865343004465103149e-01
3.747000000000000000e+03 1.339380836486816406e+01 -1.204000377655029297e+01 1.516835838556289673e-01 -4.256825521588325500e-02 3.273459896445274353e-02 -1.631213277578353882e-01
3.748000000000000000e+03 7.003990936279296875e+01 6.828261375427246094e+00 -3.287706673145294189e-01 7.909710407257080078e+00 2.274281978607177734e+00 -4.028922617435455322e-01
3.749000000000000000e+03 6.998960876464843750e+01 2.136367559432983398e+00 -2.575159966945648193e-01 7.878058433532714844e+00 2.286162853240966797e+00 -1.963574886322021484e-01
3.750000000000000000e+03 6.948626708984375000e+01 1.106061816215515137e+00 -2.559086084365844727e-01 7.797727108001708984e+00 2.262545585632324219e+00 -1.595422029495239258e-01
3.751000000000000000e+03 6.955281066894531250e+01 2.517295265197753906e+01 -1.140213236212730408e-01 8.010407447814941406e+00 2.368915796279907227e+00 -1.560524582862854004e+00
3.752000000000000000e+03 6.983937835693359375e+01 2.249501228332519531e+01 -3.186522722244262695e-01 7.993738651275634766e+00 2.302525758743286133e+00 -1.422963619232177734e+00
3.753000000000000000e+03 1.014032745361328125e+01 -2.564019775390625000e+01 2.800301276147365570e-02 -2.090928405523300171e-01 -5.432694777846336365e-02 -7.075345516204833984e-02
3.754000000000000000e+03 7.015754699707031250e+01 -2.343570232391357422e+00 -1.892417967319488525e-01 7.890426158905029297e+00 2.310355186462402344e+00 -5.225918442010879517e-02
3.755000000000000000e+03 7.016202545166015625e+01 7.931277751922607422e+00 -3.454753160476684570e-01 7.927576541900634766e+00 2.274630308151245117e+00 -4.582439661026000977e-01
3.756000000000000000e+03 4.123191452026367188e+01 -9.905586242675781250e+00 -1.828774213790893555e-01 2.042312383651733398e+00 5.578305125236511230e-01 -9.117884188890457153e-02
3.757000000000000000e+03 3.997115325927734375e+01 3.611934280395507812e+01 7.895356416702270508e-02 5.381063371896743774e-02 3.982925787568092346e-02 7.811836898326873779e-02
3.758000000000000000e+03 6.929071807861328125e+01 -2.327537345886230469e+01 -1.096586510539054871e-02 7.554419994354248047e+00 2.263036251068115234e+00 3.208091855049133301e-01
3.759000000000000000e+03 4.296089935302734375e+01 -1.357244968414306641e+01 -2.256321758031845093e-01 2.511395454406738281e+00 6.857290267944335938e-01 -1.523476541042327881e-01
3.760000000000000000e+03 7.203400421142578125e+01 -1.313694286346435547e+01 -7.303830236196517944e-02 8.119718551635742188e+00 2.414004087448120117e+00 1.757969409227371216e-01
3.761000000000000000e+03 7.038242340087890625e+01 -1.708734893798828125e+01 -7.088965177536010742e-02 7.797622680664062500e+00 2.318019866943359375e+00 2.509751319885253906e-01
3.762000000000000000e+03 3.715270233154296875e+01 -5.847647666931152344e+00 -7.442237436771392822e-02 1.106031775474548340e+00 3.094828128814697266e-01 -2.434723079204559326e-02
3.763000000000000000e+03 8.866940498352050781e+00 2.132727622985839844e+01 -5.809525493532419205e-03 -1.591183617711067200e-02 -6.516408640891313553e-03 -1.270392443984746933e-02
3.764000000000000000e+03 9.641925811767578125e+00 2.208940315246582031e+01 -5.474491044878959656e-03 -3.112210659310221672e-03 -2.576010534539818764e-03 -1.054504513740539551e-02
3.765000000000000000e+03 7.019485473632812500e+01 -8.490066528320312500e+00 -1.374934166669845581e-01 7.857330799102783203e+00 2.315951347351074219e+00 1.072318777441978455e-01
3.766000000000000000e+03 4.053045654296875000e+01 -7.174297332763671875e+00 -1.498730629682540894e-01 1.865804672241210938e+00 5.147795081138610840e-01 -3.763777017593383789e-02
3.767000000000000000e+03 3.928612136840820312e+01 -8.647461891174316406e+00 -1.251277327537536621e-01 1.576852560043334961e+00 4.355174303054809570e-01 -5.920821800827980042e-02
3.768000000000000000e+03 6.899833679199218750e+01 -2.102956962585449219e+01 -4.659989848732948303e-02 7.539128303527832031e+00 2.247758626937866211e+00 3.171568214893341064e-01
3.769000000000000000e+03 7.868645191192626953e+00 -1.071229743957519531e+01 5.073718726634979248e-02 -2.074448466300964355e-01 -4.701229929924011230e-02 -2.134248316287994385e-01
3.770000000000000000e+03 8.699885368347167969e+00 -1.075639247894287109e+01 6.973879784345626831e-02 -1.905722171068191528e-01 -3.625002503395080566e-02 -2.218789905309677124e-01
3.771000000000000000e+03 6.920135498046875000e+01 1.608970832824707031e+01 -5.229118466377258301e-01 7.971637248992919922e+00 2.234617710113525391e+00 -9.560676813125610352e-01
3.772000000000000000e+03 3.904204940795898438e+01 -7.249455928802490234e+00 -1.214699000120162964e-01 1.530726313591003418e+00 4.227769374847412109e-01 -3.915409371256828308e-02
3.773000000000000000e+03 7.130329895019531250e+01 9.053460121154785156e+00 -3.039418458938598633e-01 8.037228584289550781e+00 2.319985866546630859e+00 -5.162295699119567871e-01
3.774000000000000000e+03 3.365838623046875000e+01 -4.733656406402587891e+00 -5.131458491086959839e-02 4.440321028232574463e-01 1.178152561187744141e-01 4.686910193413496017e-03
3.775000000000000000e+03 4.275632476806640625e+01 -1.540879440307617188e+01 -2.164498418569564819e-01 2.482886075973510742e+00 6.799308657646179199e-01 -1.951008588075637817e-01
3.776000000000000000e+03 1.343650913238525391e+01 -1.905724334716796875e+01 8.291557431221008301e-02 -1.306262426078319550e-02 2.095588482916355133e-02 -1.222313120961189270e-01
3.777000000000000000e+03 9.550504684448242188e+00 -1.752793502807617188e+01 8.032903075218200684e-02 -1.842262297868728638e-01 -3.116915747523307800e-02 -1.284767836332321167e-01
3.778000000000000000e+03 9.365469932556152344e+00 -1.619713211059570312e+01 7.335494458675384521e-02 -1.866730451583862305e-01 -3.399543091654777527e-02 -1.393121480941772461e-01
3.779000000000000000e+03 1.593186664581298828e+01 -1.783532714843750000e+01 1.095280200242996216e-01 1.147630810737609863e-01 6.728733330965042114e-02 -1.470424681901931763e-01
3.780000000000000000e+03 9.605091094970703125e+00 1.751511764526367188e+01 5.303306505084037781e-03 2.094105444848537445e-02 7.873308844864368439e-03 -8.145948871970176697e-03
3.781000000000000000e+03 7.069066619873046875e+01 2.799068260192871094e+01 1.872148811817169189e-01 7.571026802062988281e+00 2.327472448348999023e+00 -1.513743877410888672e+00
3.782000000000000000e+03 6.940113830566406250e+01 2.666297531127929688e+01 6.155168637633323669e-02 8.021732330322265625e+00 2.424985170364379883e+00 -1.594131112098693848e+00
3.783000000000000000e+03 4.705811309814453125e+01 -1.990945816040039062e+01 -3.050325810909271240e-01 3.782160282135009766e+00 1.043138265609741211e+00 -1.573505252599716187e-01
3.784000000000000000e+03 4.360053634643554688e+01 -1.648362350463867188e+01 -2.385080903768539429e-01 2.735272169113159180e+00 7.490292191505432129e-01 -2.161789685487747192e-01
3.785000000000000000e+03 6.976999664306640625e+01 1.825715065002441406e+01 -4.784925282001495361e-01 7.987412452697753906e+00 2.252676010131835938e+00 -1.124020814895629883e+00
3.786000000000000000e+03 6.920212554931640625e+01 1.745157432556152344e+01 -5.221577882766723633e-01 8.001342773437500000e+00 2.243755578994750977e+00 -1.058803081512451172e+00
3.787000000000000000e+03 7.097704315185546875e+01 -1.568710517883300781e+01 -7.874087244272232056e-02 7.910640239715576172e+00 2.349569797515869141e+00 2.269178330898284912e-01
3.788000000000000000e+03 6.787644195556640625e+01 -2.868597412109375000e+01 7.872486114501953125e-02 7.276607990264892578e+00 2.206599950790405273e+00 3.381462097167968750e-01
3.789000000000000000e+03 6.958688354492187500e+01 -2.543347930908203125e+01 2.133025787770748138e-02 7.552473545074462891e+00 2.272140979766845703e+00 3.211388587951660156e-01
3.790000000000000000e+03 7.021290588378906250e+01 1.117179203033447266e+01 -3.979295194149017334e-01 7.945140361785888672e+00 2.264163255691528320e+00 -6.449152231216430664e-01
3.791000000000000000e+03 7.024630737304687500e+01 1.010713386535644531e+01 -3.807497024536132812e-01 7.944351673126220703e+00 2.269080638885498047e+00 -5.795688033103942871e-01
3.792000000000000000e+03 7.039291381835937500e+01 2.921252632141113281e+01 3.603825569152832031e-01 7.598231792449951172e+00 2.387584209442138672e+00 -1.478440999984741211e+00
3.793000000000000000e+03 8.990754127502441406e+00 -9.954147338867187500e+00 6.431473046541213989e-02 -1.886071711778640747e-01 -3.728773072361946106e-02 -2.304777950048446655e-01
3.794000000000000000e+03 8.313678741455078125e+00 -1.165080738067626953e+01 7.440518587827682495e-02 -2.076438963413238525e-01 -3.997161239385604858e-02 -1.972587108612060547e-01
3.795000000000000000e+03 9.364337921142578125e+00 1.881764030456542969e+01 3.316653310321271420e-04 7.496979087591171265e-03 2.348593436181545258e-03 -1.070209965109825134e-02
3.796000000000000000e+03 5.683717346191406250e+01 4.183403778076171875e+01 -1.813889741897583008e+00 1.313722801208496094e+01 3.397001504898071289e+00 1.644826382398605347e-01
3.797000000000000000e+03 1.161171627044677734e+01 2.793818283081054688e+01 -8.879442699253559113e-03 3.992748912423849106e-03 -1.466008252464234829e-03 -1.959325745701789856e-03
3.798000000000000000e+03 9.734228134155273438e+00 2.649436759948730469e+01 -6.492395419627428055e-03 -2.088981680572032928e-02 -8.214663714170455933e-03 -8.775954134762287140e-03
3.799000000000000000e+03 9.232357025146484375e+00 1.530515861511230469e+01 1.724645495414733887e-02 2.582472749054431915e-02 1.292135473340749741e-02 -1.077653374522924423e-02
3.800000000000000000e+03 6.271308135986328125e+01 4.131494903564453125e+01 8.854306489229202271e-02 1.230172061920166016e+01 3.717079162597656250e+00 3.688655197620391846e-01
3.801000000000000000e+03 7.049980926513671875e+01 3.147373962402343750e+01 5.953422188758850098e-01 7.443285465240478516e+00 2.411588191986083984e+00 -1.300669670104980469e+00
3.802000000000000000e+03 1.714646339416503906e+01 -2.072509193420410156e+01 7.681339234113693237e-02 1.501707136631011963e-01 6.809523701667785645e-02 -1.462342888116836548e-01
3.803000000000000000e+03 4.887264633178710938e+01 -2.069108581542968750e+01 -3.123700916767120361e-01 4.292801856994628906e+00 1.194129467010498047e+00 -6.635986268520355225e-02
3.804000000000000000e+03 7.220764160156250000e+01 3.526725387573242188e+01 5.724904537200927734e-01 6.644215106964111328e+00 2.165011644363403320e+00 -7.617214322090148926e-01
3.805000000000000000e+03 6.944844055175781250e+01 3.279619598388671875e+01 8.209216594696044922e-01 7.787893772125244141e+00 2.582644701004028320e+00 -1.203184723854064941e+00
3.806000000000000000e+03 1.068490409851074219e+01 2.703265190124511719e+01 -7.978478446602821350e-03 -3.967782016843557358e-03 -3.583878045901656151e-03 -5.509089212864637375e-03
3.807000000000000000e+03 7.051788330078125000e+01 1.456478404998779297e+01 -4.292887151241302490e-01 7.960878372192382812e+00 2.259476900100708008e+00 -8.627457618713378906e-01
3.808000000000000000e+03 6.992967224121093750e+01 1.540319538116455078e+01 -4.737842977046966553e-01 7.962773323059082031e+00 2.246696710586547852e+00 -9.127170443534851074e-01
3.809000000000000000e+03 5.147785186767578125e+01 -2.457266807556152344e+01 -1.546345204114913940e-01 5.057449817657470703e+00 1.470844626426696777e+00 1.766438931226730347e-01
3.810000000000000000e+03 4.823661804199218750e+01 -2.306109237670898438e+01 -2.633308470249176025e-01 4.320224761962890625e+00 1.217068195343017578e+00 -1.121173724532127380e-01
3.811000000000000000e+03 6.762805175781250000e+01 -2.603925323486328125e+01 3.102551400661468506e-02 7.284109592437744141e+00 2.194540500640869141e+00 3.523880243301391602e-01
3.812000000000000000e+03 1.740394020080566406e+01 -2.972228622436523438e+01 6.625164300203323364e-02 7.434343546628952026e-02 4.217852279543876648e-02 -1.043310314416885376e-01
3.813000000000000000e+03 1.863822746276855469e+01 -3.330410003662109375e+01 7.717928290367126465e-02 9.437273442745208740e-02 5.146560445427894592e-02 -8.327487111091613770e-02
3.814000000000000000e+03 6.860323333740234375e+01 -3.430340194702148438e+01 1.495274752378463745e-01 7.303844928741455078e+00 2.236011743545532227e+00 2.199107110500335693e-01
3.815000000000000000e+03 2.749348449707031250e+01 2.279550075531005859e+00 -2.642691135406494141e-01 -1.894950419664382935e-01 -1.361292451620101929e-01 -1.783231496810913086e-01
3.816000000000000000e+03 2.708003234863281250e+01 2.346570253372192383e+00 -2.952237427234649658e-01 -2.032129019498825073e-01 -1.495309919118881226e-01 -2.038092762231826782e-01
3.817000000000000000e+03 5.428171920776367188e+01 3.224857330322265625e+01 2.550074338912963867e+00 8.070390701293945312e+00 3.186139583587646484e+00 5.262095451354980469e+00
3.818000000000000000e+03 5.365482330322265625e+01 3.140801048278808594e+01 2.208316802978515625e+00 6.422365188598632812e+00 2.589204549789428711e+00 4.305240154266357422e+00
3.819000000000000000e+03 5.522092056274414062e+01 3.176590156555175781e+01 1.203183174133300781e+00 1.148456478118896484e+01 3.806324481964111328e+00 4.405342578887939453e+00
3.820000000000000000e+03 2.848711585998535156e+01 3.568595409393310547e+00 -2.683250606060028076e-01 -1.742484867572784424e-01 -1.327720582485198975e-01 -2.047348171472549438e-01
3.821000000000000000e+03 2.587500381469726562e+01 2.274703383445739746e-01 -3.640615046024322510e-01 -1.568173021078109741e-01 -1.562636345624923706e-01 -6.729305535554885864e-02
3.822000000000000000e+03 5.769605255126953125e+01 3.293737792968750000e+01 3.033434629440307617e+00 1.561167240142822266e+01 5.593532085418701172e+00 -7.784307599067687988e-01
3.823000000000000000e+03 2.753091430664062500e+01 2.595762014389038086e+00 -2.886363863945007324e-01 -1.883265972137451172e-01 -1.430888921022415161e-01 -1.903389841318130493e-01
3.824000000000000000e+03 2.495342636108398438e+01 1.171532392501831055e+00 -4.748804569244384766e-01 -1.632712632417678833e-01 -1.914455145597457886e-01 -1.695795357227325439e-01
3.825000000000000000e+03 2.555514907836914062e+01 5.009157657623291016e-01 -4.047180712223052979e-01 -1.628077775239944458e-01 -1.702577471733093262e-01 -8.758535236120223999e-02
3.826000000000000000e+03 4.226067352294921875e+01 1.811588096618652344e+01 -5.660212785005569458e-02 1.152030110359191895e+00 3.286283910274505615e-01 4.418349862098693848e-01
3.827000000000000000e+03 4.036043930053710938e+01 1.740171432495117188e+01 -1.243490278720855713e-01 6.731373071670532227e-01 1.646364927291870117e-01 2.058827430009841919e-01
3.828000000000000000e+03 4.010476684570312500e+01 1.712965583801269531e+01 -1.412831097841262817e-01 6.354612112045288086e-01 1.482534408569335938e-01 1.809533983469009399e-01
3.829000000000000000e+03 1.711090660095214844e+01 1.301779365539550781e+01 7.706672698259353638e-02 1.984249949455261230e-01 8.264751732349395752e-02 1.172385439276695251e-01
3.830000000000000000e+03 1.835382270812988281e+01 1.264927101135253906e+01 1.001057848334312439e-01 1.956360787153244019e-01 8.872256428003311157e-02 1.382443457841873169e-01
3.831000000000000000e+03 4.086720657348632812e+01 1.740613365173339844e+01 -1.121279746294021606e-01 8.167834877967834473e-01 2.113966643810272217e-01 2.711401879787445068e-01
3.832000000000000000e+03 2.860095214843750000e+01 -5.656521916389465332e-01 -1.705511510372161865e-01 -9.735903888940811157e-02 -8.037305623292922974e-02 -9.251182898879051208e-03
3.833000000000000000e+03 1.339363956451416016e+01 9.249003410339355469e+00 6.945693492889404297e-02 2.875802516937255859e-01 1.071111634373664856e-01 6.499794125556945801e-02
3.834000000000000000e+03 2.729248809814453125e+01 2.249718475341796875e+01 6.178664788603782654e-02 1.185000613331794739e-01 5.408601462841033936e-02 8.978470414876937866e-02
3.835000000000000000e+03 2.669949531555175781e+01 2.180186843872070312e+01 6.274595111608505249e-02 1.211707219481468201e-01 5.517500266432762146e-02 9.365531802177429199e-02
3.836000000000000000e+03 4.407858657836914062e+01 2.021936798095703125e+01 6.846456229686737061e-02 1.501118421554565430e+00 4.708749055862426758e-01 6.898194551467895508e-01
3.837000000000000000e+03 5.669584655761718750e+01 3.173446655273437500e+01 6.785950064659118652e-01 1.437055683135986328e+01 4.514745235443115234e+00 1.678236007690429688e+00
3.838000000000000000e+03 4.182524871826171875e+01 1.808064079284667969e+01 -6.581950187683105469e-02 1.016463279724121094e+00 2.851931452751159668e-01 3.842273652553558350e-01
3.839000000000000000e+03 2.471841049194335938e+01 7.969642877578735352e-01 -4.865129292011260986e-01 -1.475681215524673462e-01 -1.902243047952651978e-01 -1.380364745855331421e-01
3.840000000000000000e+03 5.398532485961914062e+01 3.221984100341796875e+01 2.690447807312011719e+00 6.900549411773681641e+00 2.877299308776855469e+00 4.999001979827880859e+00
3.841000000000000000e+03 4.768981933593750000e+01 2.381037712097167969e+01 3.992412388324737549e-01 2.556076765060424805e+00 8.865953683853149414e-01 1.344182372093200684e+00
3.842000000000000000e+03 2.908502960205078125e+01 3.978118658065795898e+00 -2.578353583812713623e-01 -1.257680803537368774e-01 -1.150810346007347107e-01 -2.036837786436080933e-01
3.843000000000000000e+03 3.611402130126953125e+01 1.274569988250732422e+01 -3.452649712562561035e-01 1.685509383678436279e-01 -5.301421508193016052e-02 -1.117315217852592468e-01
3.844000000000000000e+03 2.418425941467285156e+01 1.864333534240722656e+01 8.300058543682098389e-02 1.358944922685623169e-01 6.566852331161499023e-02 1.081072092056274414e-01
3.845000000000000000e+03 4.193870162963867188e+01 1.761069297790527344e+01 -8.327751606702804565e-02 1.118176460266113281e+00 3.104696571826934814e-01 4.053694307804107666e-01
3.846000000000000000e+03 2.891897583007812500e+01 3.546571016311645508e+00 -2.371881604194641113e-01 -1.316762566566467285e-01 -1.106593236327171326e-01 -1.773762553930282593e-01
3.847000000000000000e+03 2.935174179077148438e+01 3.979955911636352539e+00 -2.370822131633758545e-01 -9.608260542154312134e-02 -9.994944185018539429e-02 -1.918971538543701172e-01
3.848000000000000000e+03 5.578379058837890625e+01 3.176043128967285156e+01 8.014110326766967773e-01 1.312259483337402344e+01 4.177201747894287109e+00 3.510459661483764648e+00
3.849000000000000000e+03 4.441856765747070312e+01 2.129552650451660156e+01 1.506653726100921631e-01 1.464402556419372559e+00 4.845203757286071777e-01 7.374854683876037598e-01
3.850000000000000000e+03 3.695636749267578125e+01 1.327250385284423828e+01 -3.107098042964935303e-01 2.964084446430206299e-01 -4.290405195206403732e-03 -5.058206617832183838e-02
3.851000000000000000e+03 2.327146339416503906e+01 1.746425437927246094e+01 8.835538476705551147e-02 1.450160443782806396e-01 7.001142948865890503e-02 1.137313842773437500e-01
3.852000000000000000e+03 1.209816169738769531e+01 7.063930988311767578e+00 1.211066395044326782e-01 3.188286423683166504e-01 1.319805830717086792e-01 -3.634279966354370117e-02
3.853000000000000000e+03 1.305702590942382812e+01 7.112320423126220703e+00 9.283873438835144043e-02 4.177753031253814697e-01 1.531842052936553955e-01 3.269554302096366882e-02
3.854000000000000000e+03 4.472880172729492188e+01 2.108426856994628906e+01 1.347472965717315674e-01 1.624439716339111328e+00 5.277560949325561523e-01 7.877711653709411621e-01
3.855000000000000000e+03 2.686274337768554688e+01 2.116612243652343750e+01 7.108408212661743164e-02 1.218810826539993286e-01 5.788954719901084900e-02 9.884377568960189819e-02
3.856000000000000000e+03 4.841529083251953125e+01 2.549031066894531250e+01 6.583135128021240234e-01 2.662977218627929688e+00 9.963871836662292480e-01 1.567002296447753906e+00
3.857000000000000000e+03 4.867412948608398438e+01 2.573553657531738281e+01 6.964501738548278809e-01 2.778100490570068359e+00 1.042365193367004395e+00 1.638012409210205078e+00
3.858000000000000000e+03 2.752471160888671875e+01 -2.607514858245849609e-01 -2.254463732242584229e-01 -1.348933428525924683e-01 -1.081019118428230286e-01 -6.399183534085750580e-03
3.859000000000000000e+03 4.645494079589843750e+01 2.346397018432617188e+01 3.850243389606475830e-01 1.983152508735656738e+00 7.104530930519104004e-01 1.099041223526000977e+00
3.860000000000000000e+03 4.720782089233398438e+01 2.375489425659179688e+01 4.092027842998504639e-01 2.310165643692016602e+00 8.158105611801147461e-01 1.253016710281372070e+00
3.861000000000000000e+03 4.495923233032226562e+01 2.135397529602050781e+01 1.565509885549545288e-01 1.677971601486206055e+00 5.503567457199096680e-01 8.239817023277282715e-01
3.862000000000000000e+03 2.056906318664550781e+01 1.513666248321533203e+01 9.295234084129333496e-02 1.659704446792602539e-01 7.767684012651443481e-02 1.224387511610984802e-01
3.863000000000000000e+03 5.606533432006835938e+01 3.170467758178710938e+01 6.426514983177185059e-01 1.365913009643554688e+01 4.290534496307373047e+00 2.942499399185180664e+00
3.864000000000000000e+03 5.707052993774414062e+01 3.210115814208984375e+01 1.132082462310791016e+00 1.521857452392578125e+01 4.905197143554687500e+00 7.932456135749816895e-01
3.865000000000000000e+03 5.100502777099609375e+01 2.827538490295410156e+01 1.228535056114196777e+00 3.974033355712890625e+00 1.560770511627197266e+00 2.408392667770385742e+00
3.866000000000000000e+03 5.222785949707031250e+01 2.895602607727050781e+01 1.301612854003906250e+00 5.073075294494628906e+00 1.912406325340270996e+00 2.877340316772460938e+00
3.867000000000000000e+03 4.940410614013671875e+01 2.589585494995117188e+01 6.862071156501770020e-01 3.247964143753051758e+00 1.180251359939575195e+00 1.801450014114379883e+00
3.868000000000000000e+03 2.172670745849609375e+01 1.632177925109863281e+01 8.740027248859405518e-02 1.572616398334503174e-01 7.339857518672943115e-02 1.164573729038238525e-01
3.869000000000000000e+03 3.726411437988281250e+01 1.360309791564941406e+01 -2.969729602336883545e-01 3.319606184959411621e-01 1.049629691988229752e-02 -3.039594367146492004e-02
3.870000000000000000e+03 2.707019042968750000e+01 -2.577386796474456787e-01 -2.832225263118743896e-01 -1.457524895668029785e-01 -1.286925077438354492e-01 -2.115784958004951477e-02
3.871000000000000000e+03 5.706707000732421875e+01 3.168171691894531250e+01 7.719178795814514160e-01 1.452864170074462891e+01 4.590167522430419922e+00 1.032784342765808105e+00
3.872000000000000000e+03 5.745053100585937500e+01 3.249647521972656250e+01 2.036568164825439453e+00 1.550043964385986328e+01 5.261102199554443359e+00 -1.858095228672027588e-01
3.873000000000000000e+03 4.961241149902343750e+01 2.699260139465332031e+01 9.425196051597595215e-01 3.145277023315429688e+00 1.226338982582092285e+00 1.926035165786743164e+00
3.874000000000000000e+03 3.959271621704101562e+01 1.657213401794433594e+01 -1.720623821020126343e-01 5.645561814308166504e-01 1.177481412887573242e-01 1.341466754674911499e-01
3.875000000000000000e+03 5.834263610839843750e+01 3.327941131591796875e+01 4.133707046508789062e+00 1.436670494079589844e+01 5.550123691558837891e+00 -1.146313667297363281e+00
3.876000000000000000e+03 4.353485488891601562e+01 2.006955909729003906e+01 5.505230277776718140e-02 1.315161347389221191e+00 4.110640883445739746e-01 6.071835756301879883e-01
3.877000000000000000e+03 4.428264999389648438e+01 2.052260780334472656e+01 9.099140763282775879e-02 1.533248066902160645e+00 4.872718453407287598e-01 7.190004587173461914e-01
3.878000000000000000e+03 2.527988243103027344e+01 1.911853981018066406e+01 8.497899025678634644e-02 1.314988136291503906e-01 6.494333595037460327e-02 1.070718541741371155e-01
3.879000000000000000e+03 3.764812469482421875e+01 1.434444904327392578e+01 -2.744992673397064209e-01 3.325011730194091797e-01 1.740057021379470825e-02 -1.524274796247482300e-02
3.880000000000000000e+03 4.519331741333007812e+01 2.162282562255859375e+01 1.808037608861923218e-01 1.733923077583312988e+00 5.744180679321289062e-01 8.632459044456481934e-01
3.881000000000000000e+03 3.209394836425781250e+01 2.724513435363769531e+01 5.539450421929359436e-02 9.875745326280593872e-02 4.624558612704277039e-02 7.888264954090118408e-02
3.882000000000000000e+03 3.747268676757812500e+01 1.398476314544677734e+01 -2.829377651214599609e-01 3.386412560939788818e-01 1.671105436980724335e-02 -2.146946825087070465e-02
3.883000000000000000e+03 3.479846191406250000e+01 1.112710285186767578e+01 -4.044423103332519531e-01 7.566875964403152466e-02 -9.863206744194030762e-02 -1.544507592916488647e-01
3.884000000000000000e+03 3.831483459472656250e+01 1.474246025085449219e+01 -2.441749125719070435e-01 4.493551850318908691e-01 6.155407801270484924e-02 4.046669602394104004e-02
3.885000000000000000e+03 2.023118400573730469e+01 1.486413097381591797e+01 9.292689710855484009e-02 1.696190685033798218e-01 7.876379042863845825e-02 1.227627694606781006e-01
3.886000000000000000e+03 2.014005470275878906e+01 1.425354194641113281e+01 1.005205512046813965e-01 1.742200851440429688e-01 8.242218941450119019e-02 1.293981224298477173e-01
3.887000000000000000e+03 1.563940525054931641e+01 1.017307567596435547e+01 9.300751984119415283e-02 2.633890211582183838e-01 1.069189608097076416e-01 1.345196515321731567e-01
3.888000000000000000e+03 1.463504505157470703e+01 1.067798519134521484e+01 6.863985210657119751e-02 2.510953247547149658e-01 9.592054784297943115e-02 9.799470007419586182e-02
3.889000000000000000e+03 5.146650695800781250e+01 2.824206161499023438e+01 1.155827283859252930e+00 4.446858406066894531e+00 1.680805683135986328e+00 2.542583942413330078e+00
3.890000000000000000e+03 5.073788452148437500e+01 2.801084899902343750e+01 1.165663003921508789e+00 3.802410840988159180e+00 1.490422129631042480e+00 2.305963516235351562e+00
3.891000000000000000e+03 3.855327987670898438e+01 1.498476600646972656e+01 -2.366677075624465942e-01 4.843857884407043457e-01 7.431542128324508667e-02 6.203429028391838074e-02
3.892000000000000000e+03 5.153272628784179688e+01 2.878405952453613281e+01 1.353804945945739746e+00 4.350717544555664062e+00 1.711356759071350098e+00 2.639937162399291992e+00
3.893000000000000000e+03 4.742387008666992188e+01 2.451126480102539062e+01 5.199131965637207031e-01 2.276202678680419922e+00 8.388347625732421875e-01 1.318159103393554688e+00
3.894000000000000000e+03 5.094833374023437500e+01 2.768997383117675781e+01 1.032209634780883789e+00 4.075064182281494141e+00 1.532182097434997559e+00 2.318294286727905273e+00
3.895000000000000000e+03 3.638395690917968750e+01 1.222366237640380859e+01 -3.318943977355957031e-01 2.644684016704559326e-01 -2.022779546678066254e-02 -6.382910162210464478e-02
3.896000000000000000e+03 3.933412933349609375e+01 1.629072380065917969e+01 -1.857510954141616821e-01 5.294548273086547852e-01 1.031111255288124084e-01 1.106750145554542542e-01
3.897000000000000000e+03 4.134682083129882812e+01 1.739143371582031250e+01 -1.003996282815933228e-01 9.557247757911682129e-01 2.565975487232208252e-01 3.310475945472717285e-01
3.898000000000000000e+03 2.471684265136718750e+01 1.913857269287109375e+01 8.082632720470428467e-02 1.329509764909744263e-01 6.413318961858749390e-02 1.054773405194282532e-01
3.899000000000000000e+03 3.880596923828125000e+01 1.522692489624023438e+01 -2.220917940139770508e-01 5.179596543312072754e-01 8.876036107540130615e-02 8.377508819103240967e-02
3.900000000000000000e+03 2.216690444946289062e+01 1.727581977844238281e+01 7.883641868829727173e-02 1.504638791084289551e-01 6.879009306430816650e-02 1.106436103582382202e-01
3.901000000000000000e+03 2.136526107788085938e+01 1.542007160186767578e+01 9.696187824010848999e-02 1.632017642259597778e-01 7.804909348487854004e-02 1.232144832611083984e-01
3.902000000000000000e+03 4.543323516845703125e+01 2.189336776733398438e+01 2.063271403312683105e-01 1.793818831443786621e+00 6.000437736511230469e-01 9.026433825492858887e-01
3.903000000000000000e+03 4.980377197265625000e+01 2.666972923278808594e+01 8.423217535018920898e-01 3.372802734375000000e+00 1.264537334442138672e+00 1.950868368148803711e+00
3.904000000000000000e+03 2.580381011962890625e+01 2.021864509582519531e+01 7.561741769313812256e-02 1.273283064365386963e-01 6.088371574878692627e-02 1.017389521002769470e-01
3.905000000000000000e+03 5.068106842041015625e+01 2.741521263122558594e+01 9.809237122535705566e-01 3.905579566955566406e+00 1.465950965881347656e+00 2.229137182235717773e+00
3.906000000000000000e+03 5.010041427612304688e+01 2.690882110595703125e+01 8.842159509658813477e-01 3.547561168670654297e+00 1.329533100128173828e+00 2.040102005004882812e+00
3.907000000000000000e+03 2.668858337402343750e+01 1.993503379821777344e+01 8.599180728197097778e-02 1.252201944589614868e-01 6.336360424757003784e-02 1.031631976366043091e-01
3.908000000000000000e+03 1.844067955017089844e+01 1.344146537780761719e+01 8.935075998306274414e-02 1.871980130672454834e-01 8.296463638544082642e-02 1.273938417434692383e-01
3.909000000000000000e+03 2.640885543823242188e+01 4.046680629253387451e-01 -3.195961415767669678e-01 -1.586940437555313110e-01 -1.434870511293411255e-01 -7.945472002029418945e-02
3.910000000000000000e+03 2.557829284667968750e+01 1.404234886169433594e+00 -4.102058708667755127e-01 -1.842286288738250732e-01 -1.783303469419479370e-01 -1.718078404664993286e-01
3.911000000000000000e+03 4.321903228759765625e+01 1.935619735717773438e+01 1.423246413469314575e-02 1.310136556625366211e+00 3.973107039928436279e-01 5.677108764648437500e-01
3.912000000000000000e+03 4.035989761352539062e+01 1.686821556091308594e+01 -1.389611661434173584e-01 7.409805655479431152e-01 1.806058138608932495e-01 2.205407917499542236e-01
3.913000000000000000e+03 2.085823440551757812e+01 1.543111038208007812e+01 9.172927588224411011e-02 1.645211279392242432e-01 7.687512040138244629e-02 1.203046888113021851e-01
3.914000000000000000e+03 5.197916030883789062e+01 2.872645950317382812e+01 1.258893370628356934e+00 4.852939605712890625e+00 1.833549857139587402e+00 2.762315988540649414e+00
3.915000000000000000e+03 5.289738845825195312e+01 2.914643096923828125e+01 1.206481456756591797e+00 5.899783611297607422e+00 2.131879568099975586e+00 3.095425844192504883e+00
3.916000000000000000e+03 4.450177383422851562e+01 2.080913543701171875e+01 1.128421500325202942e-01 1.577036857604980469e+00 5.069637298583984375e-01 7.528219223022460938e-01
3.917000000000000000e+03 2.551825714111328125e+01 1.993176460266113281e+01 7.831948995590209961e-02 1.298694610595703125e-01 6.245668604969978333e-02 1.003093495965003967e-01
3.918000000000000000e+03 2.360034561157226562e+01 1.821126747131347656e+01 8.313348144292831421e-02 1.398971080780029297e-01 6.690917909145355225e-02 1.101057454943656921e-01
3.919000000000000000e+03 2.789175415039062500e+01 2.275547027587890625e+01 6.653229892253875732e-02 1.143315508961677551e-01 5.425915494561195374e-02 9.178992360830307007e-02
3.920000000000000000e+03 3.906570816040039062e+01 1.547984218597412109e+01 -2.118440270423889160e-01 5.545403361320495605e-01 1.028088852763175964e-01 1.055293530225753784e-01
3.921000000000000000e+03 3.932769012451171875e+01 1.574754619598388672e+01 -1.972743123769760132e-01 5.929967761039733887e-01 1.187167391180992126e-01 1.273160129785537720e-01
3.922000000000000000e+03 3.564727401733398438e+01 1.127529144287109375e+01 -3.480993509292602539e-01 2.249559760093688965e-01 -3.694301098585128784e-02 -8.151730895042419434e-02
3.923000000000000000e+03 3.582142257690429688e+01 1.207037925720214844e+01 -3.593346178531646729e-01 1.756273061037063599e-01 -5.511219054460525513e-02 -1.073278710246086121e-01
3.924000000000000000e+03 4.619438552856445312e+01 2.319917488098144531e+01 3.530752062797546387e-01 1.909445405006408691e+00 6.787561774253845215e-01 1.046904563903808594e+00
3.925000000000000000e+03 4.010516357421875000e+01 1.659197616577148438e+01 -1.562523692846298218e-01 7.042651772499084473e-01 1.644038558006286621e-01 1.976023316383361816e-01
3.926000000000000000e+03 2.867742919921875000e+01 2.407670593261718750e+01 5.964155495166778564e-02 1.125047504901885986e-01 5.164389312267303467e-02 8.506924659013748169e-02
3.927000000000000000e+03 1.942568969726562500e+01 1.386157989501953125e+01 9.774399548768997192e-02 1.786592900753021240e-01 8.292098343372344971e-02 1.296524852514266968e-01
3.928000000000000000e+03 1.887625312805175781e+01 1.373137569427490234e+01 9.046933054924011230e-02 1.837560236454010010e-01 8.226761221885681152e-02 1.267045587301254272e-01
3.929000000000000000e+03 1.982203292846679688e+01 1.459485435485839844e+01 9.252100437879562378e-02 1.717544049024581909e-01 7.928262650966644287e-02 1.238697841763496399e-01
3.930000000000000000e+03 2.178770065307617188e+01 1.722363853454589844e+01 7.918870449066162109e-02 1.509936898946762085e-01 6.905472278594970703e-02 1.094783395528793335e-01
3.931000000000000000e+03 3.416994857788085938e+01 9.469231605529785156e+00 -3.606531620025634766e-01 1.024099364876747131e-01 -7.747296243906021118e-02 -8.917865157127380371e-02
3.932000000000000000e+03 3.267800521850585938e+01 2.726651954650878906e+01 6.616166979074478149e-02 1.001602560281753540e-01 4.989657923579216003e-02 7.703226059675216675e-02
3.933000000000000000e+03 3.287130737304687500e+01 2.840209197998046875e+01 5.823633074760437012e-02 9.849680960178375244e-02 4.701994359493255615e-02 7.128853350877761841e-02
3.934000000000000000e+03 4.593225097656250000e+01 2.243456077575683594e+01 2.602567970752716064e-01 1.928442478179931641e+00 6.566097736358642578e-01 9.930225014686584473e-01
3.935000000000000000e+03 4.618958663940429688e+01 2.270067405700683594e+01 2.896648645401000977e-01 2.001462936401367188e+00 6.873382925987243652e-01 1.042118668556213379e+00
3.936000000000000000e+03 2.116694641113281250e+01 1.568436241149902344e+01 9.189821779727935791e-02 1.610496640205383301e-01 7.588436454534530640e-02 1.200989633798599243e-01
3.937000000000000000e+03 1.605685997009277344e+01 1.073973369598388672e+01 9.281324595212936401e-02 2.446749061346054077e-01 1.012464463710784912e-01 1.344649642705917358e-01
3.938000000000000000e+03 4.696789932250976562e+01 2.348843002319335938e+01 3.797134757041931152e-01 2.236955404281616211e+00 7.850006818771362305e-01 1.199065089225769043e+00
3.939000000000000000e+03 3.591087722778320312e+01 1.173020648956298828e+01 -3.475955426692962646e-01 2.295029610395431519e-01 -3.542777523398399353e-02 -8.157091587781906128e-02
3.940000000000000000e+03 2.152920150756835938e+01 1.671560859680175781e+01 8.229964971542358398e-02 1.545470952987670898e-01 7.105402648448944092e-02 1.127851605415344238e-01
3.941000000000000000e+03 5.271963119506835938e+01 2.942675209045410156e+01 1.411602854728698730e+00 5.556799888610839844e+00 2.090520858764648438e+00 3.148837327957153320e+00
3.942000000000000000e+03 8.564316749572753906e+00 1.073284339904785156e+01 7.423926144838333130e-02 1.299360301345586777e-02 2.616985887289047241e-02 -1.310431957244873047e-02
3.943000000000000000e+03 1.385987186431884766e+01 9.268157958984375000e+00 7.540437579154968262e-02 2.946758568286895752e-01 1.110240668058395386e-01 8.483921736478805542e-02
3.944000000000000000e+03 3.426087570190429688e+01 8.775052070617675781e+00 -2.926889061927795410e-01 1.612421125173568726e-01 -3.943404555320739746e-02 -4.533018171787261963e-02
3.945000000000000000e+03 5.935602188110351562e+01 3.454767990112304688e+01 5.455447196960449219e+00 1.272158622741699219e+01 5.453109741210937500e+00 7.459871470928192139e-02
3.946000000000000000e+03 1.720985984802246094e+01 1.160632228851318359e+01 9.856583178043365479e-02 2.186916768550872803e-01 9.517724812030792236e-02 1.402553915977478027e-01
3.947000000000000000e+03 5.982113647460937500e+01 3.543423080444335938e+01 4.879655838012695312e+00 1.238118171691894531e+01 5.178251266479492188e+00 1.001882910728454590e+00
3.948000000000000000e+03 5.832906723022460938e+01 3.372113800048828125e+01 5.341164112091064453e+00 1.436940956115722656e+01 5.913172245025634766e+00 -1.019395351409912109e+00
3.949000000000000000e+03 5.900530242919921875e+01 3.397097396850585938e+01 5.145835876464843750e+00 1.319332599639892578e+01 5.501748561859130859e+00 -6.817182302474975586e-01
3.950000000000000000e+03 2.527932357788085938e+01 8.461527824401855469e-01 -4.299318194389343262e-01 -1.643823087215423584e-01 -1.782942414283752441e-01 -1.277211904525756836e-01
3.951000000000000000e+03 5.339044570922851562e+01 2.951430320739746094e+01 1.206680536270141602e+00 6.581757545471191406e+00 2.336531400680541992e+00 3.339184522628784180e+00
3.952000000000000000e+03 3.385220718383789062e+01 5.342324256896972656e+00 -8.986587822437286377e-02 2.795425951480865479e-01 5.690301582217216492e-02 -4.186795651912689209e-02
3.953000000000000000e+03 3.375300598144531250e+01 6.423800945281982422e+00 -1.260840594768524170e-01 1.927271932363510132e-01 1.999293826520442963e-02 -4.433216154575347900e-02
3.954000000000000000e+03 1.290741157531738281e+01 6.278871536254882812e+00 1.100024804472923279e-01 4.904715120792388916e-01 1.801421940326690674e-01 2.208945807069540024e-03
3.955000000000000000e+03 1.514606761932373047e+01 1.017215824127197266e+01 8.222201466560363770e-02 2.664508521556854248e-01 1.046018600463867188e-01 1.218172237277030945e-01
3.956000000000000000e+03 3.132828140258789062e+01 4.534883499145507812e+00 -1.394992172718048096e-01 4.558440297842025757e-02 -2.817444503307342529e-02 -1.883801817893981934e-01
3.957000000000000000e+03 3.252633285522460938e+01 4.812891006469726562e+00 -9.232801944017410278e-02 1.302934288978576660e-01 1.138962339609861374e-02 -1.249982863664627075e-01
3.958000000000000000e+03 5.371453857421875000e+01 3.080143737792968750e+01 1.801154136657714844e+00 6.828271865844726562e+00 2.588827848434448242e+00 4.048566818237304688e+00
3.959000000000000000e+03 5.863947677612304688e+01 3.300619506835937500e+01 3.592332124710083008e+00 1.383646297454833984e+01 5.228638648986816406e+00 -1.150915741920471191e+00
3.960000000000000000e+03 5.898628234863281250e+01 3.329750442504882812e+01 4.107977390289306641e+00 1.331659698486328125e+01 5.227372169494628906e+00 -1.098312377929687500e+00
3.961000000000000000e+03 1.636338043212890625e+01 1.134272956848144531e+01 8.731634169816970825e-02 2.303623408079147339e-01 9.530360251665115356e-02 1.296974867582321167e-01
3.962000000000000000e+03 1.556882858276367188e+01 1.070162963867187500e+01 8.227778971195220947e-02 2.502791583538055420e-01 9.976708143949508667e-02 1.236454248428344727e-01
3.963000000000000000e+03 2.759249496459960938e+01 2.335049438476562500e+01 5.649566650390625000e-02 1.166922822594642639e-01 5.195638537406921387e-02 8.621714264154434204e-02
3.964000000000000000e+03 3.043895721435546875e+01 3.879767656326293945e+00 -1.888999044895172119e-01 1.415712526068091393e-03 -5.624525621533393860e-02 -1.786321848630905151e-01
3.965000000000000000e+03 2.967512512207031250e+01 3.975255966186523438e+00 -2.345683872699737549e-01 -6.440803408622741699e-02 -8.969292789697647095e-02 -1.947400420904159546e-01
3.966000000000000000e+03 3.084891510009765625e+01 2.621529388427734375e+01 5.614276230335235596e-02 1.033458486199378967e-01 4.784658178687095642e-02 7.853171974420547485e-02
3.967000000000000000e+03 3.126592063903808594e+01 2.642032241821289062e+01 6.231934577226638794e-02 9.966103732585906982e-02 4.859411343932151794e-02 8.179851621389389038e-02
3.968000000000000000e+03 1.340016555786132812e+01 7.739973545074462891e+00 8.548717945814132690e-02 3.798994719982147217e-01 1.396159976720809937e-01 7.046603411436080933e-02
3.969000000000000000e+03 3.004347801208496094e+01 3.947771310806274414e+00 -2.021539658308029175e-01 -3.139472380280494690e-02 -7.006460428237915039e-02 -1.843836903572082520e-01
3.970000000000000000e+03 3.084048271179199219e+01 3.778908252716064453e+00 -1.576475799083709717e-01 3.894623368978500366e-02 -3.561040759086608887e-02 -1.654689162969589233e-01
3.971000000000000000e+03 3.000058555603027344e+01 2.603363037109375000e+01 5.388497188687324524e-02 1.021867990493774414e-01 4.682153090834617615e-02 8.261800557374954224e-02
3.972000000000000000e+03 2.967153167724609375e+01 2.496934700012207031e+01 5.638303980231285095e-02 1.046844497323036194e-01 4.832024499773979187e-02 8.670353889465332031e-02
3.973000000000000000e+03 3.095319557189941406e+01 -9.894370287656784058e-02 -8.827567845582962036e-02 1.051300093531608582e-01 5.056299734860658646e-03 -2.389588579535484314e-02
3.974000000000000000e+03 3.087663078308105469e+01 4.187245845794677734e+00 -1.661338210105895996e-01 2.838514000177383423e-02 -4.132460430264472961e-02 -1.863747239112854004e-01
3.975000000000000000e+03 3.379350662231445312e+01 9.058744430541992188e+00 -3.439752757549285889e-01 6.423294544219970703e-02 -8.392269909381866455e-02 -8.746106922626495361e-02
3.976000000000000000e+03 3.456758499145507812e+01 9.188850402832031250e+00 -3.154688477516174316e-01 1.853983402252197266e-01 -3.902115300297737122e-02 -4.727035388350486755e-02
3.977000000000000000e+03 3.170944786071777344e+01 2.660322570800781250e+01 5.705929920077323914e-02 1.012632474303245544e-01 4.749676585197448730e-02 7.835563272237777710e-02
3.978000000000000000e+03 2.844387054443359375e+01 -4.949126392602920532e-02 -1.839564889669418335e-01 -9.337055683135986328e-02 -8.319810777902603149e-02 -1.888947747647762299e-02
3.979000000000000000e+03 2.783465576171875000e+01 1.284397482872009277e+00 -2.471079677343368530e-01 -1.448986381292343140e-01 -1.176019757986068726e-01 -1.174607276916503906e-01
3.980000000000000000e+03 1.262826061248779297e+01 6.555086612701416016e+00 1.153606101870536804e-01 4.282818138599395752e-01 1.630927324295043945e-01 -2.301689423620700836e-02
3.981000000000000000e+03 1.178970146179199219e+01 5.595317840576171875e+00 2.220498621463775635e-01 3.330081999301910400e-01 1.665174216032028198e-01 -1.293808966875076294e-01
3.982000000000000000e+03 5.933976745605468750e+01 3.581882476806640625e+01 5.088293552398681641e+00 1.307679748535156250e+01 5.449527263641357422e+00 1.636027574539184570e+00
3.983000000000000000e+03 5.895430755615234375e+01 3.501504135131835938e+01 6.197131633758544922e+00 1.316327095031738281e+01 5.808120727539062500e+00 7.381770610809326172e-01
3.984000000000000000e+03 2.896994018554687500e+01 2.463488578796386719e+01 5.581055209040641785e-02 1.069732308387756348e-01 4.883513599634170532e-02 8.701368421316146851e-02
3.985000000000000000e+03 3.360711288452148438e+01 3.016248130798339844e+01 5.555229261517524719e-02 9.111005067825317383e-02 4.399870336055755615e-02 6.847261637449264526e-02
3.986000000000000000e+03 3.338429260253906250e+01 6.214518070220947266e+00 -1.109738200902938843e-01 1.556582450866699219e-01 1.340532768517732620e-02 -7.168137282133102417e-02
3.987000000000000000e+03 3.352576446533203125e+01 6.741957664489746094e+00 -1.426187306642532349e-01 1.484262347221374512e-01 1.742249587550759315e-03 -5.200269073247909546e-02
3.988000000000000000e+03 3.042645835876464844e+01 2.601927947998046875e+01 6.038400903344154358e-02 1.026060879230499268e-01 4.889702796936035156e-02 8.248835057020187378e-02
3.989000000000000000e+03 3.398379135131835938e+01 8.336393356323242188e+00 -2.634719312191009521e-01 1.344606131315231323e-01 -3.870340064167976379e-02 -4.628442600369453430e-02
3.990000000000000000e+03 3.073069381713867188e+01 -9.529919028282165527e-01 -8.204859495162963867e-02 8.107736706733703613e-02 -2.913674688898026943e-04 -1.287719118408858776e-03
3.991000000000000000e+03 1.793973922729492188e+01 1.236010074615478516e+01 9.761083126068115234e-02 2.041292786598205566e-01 9.052202850580215454e-02 1.374211162328720093e-01
3.992000000000000000e+03 3.103415489196777344e+01 -1.517231464385986328e+00 -6.980162113904953003e-02 1.019367352128028870e-01 9.640533477067947388e-03 4.973654635250568390e-03
3.993000000000000000e+03 1.163615226745605469e+01 6.120373725891113281e+00 1.939640343189239502e-01 2.781490981578826904e-01 1.416339427232742310e-01 -1.026626974344253540e-01
3.994000000000000000e+03 1.285960483551025391e+01 6.820405960083007812e+00 9.956021606922149658e-02 4.231916368007659912e-01 1.568255573511123657e-01 1.416557468473911285e-02
3.995000000000000000e+03 2.933126640319824219e+01 -9.278520941734313965e-01 -1.278295218944549561e-01 -5.535776168107986450e-02 -5.495618656277656555e-02 2.706068102270364761e-03
3.996000000000000000e+03 3.523318099975585938e+01 1.119898319244384766e+01 -3.729545176029205322e-01 1.488873809576034546e-01 -6.722014397382736206e-02 -1.127566918730735779e-01
3.997000000000000000e+03 3.273729324340820312e+01 2.889751625061035156e+01 6.464830785989761353e-02 9.721915423870086670e-02 4.856023937463760376e-02 7.341045886278152466e-02
3.998000000000000000e+03 3.935398483276367188e+01 3.526022338867187500e+01 9.604771435260772705e-02 7.071206718683242798e-02 5.002793669700622559e-02 4.762895405292510986e-02
3.999000000000000000e+03 3.613051223754882812e+01 3.442338943481445312e+01 6.071496754884719849e-02 7.921489328145980835e-02 4.197895526885986328e-02 6.347083300352096558e-02
4.000000000000000000e+03 3.837345504760742188e+01 3.311615371704101562e+01 8.133173733949661255e-02 7.497420907020568848e-02 4.689178615808486938e-02 6.932356208562850952e-02
4.001000000000000000e+03 3.207905960083007812e+01 2.778754615783691406e+01 6.222487613558769226e-02 1.013927608728408813e-01 4.908529296517372131e-02 7.253561913967132568e-02
4.002000000000000000e+03 3.399490737915039062e+01 2.968980979919433594e+01 6.433723121881484985e-02 9.080635011196136475e-02 4.654307290911674500e-02 7.175980508327484131e-02
4.003000000000000000e+03 3.511739349365234375e+01 9.923111915588378906e+00 -3.289743661880493164e-01 2.329683601856231689e-01 -2.880180440843105316e-02 -4.967349767684936523e-02
4.004000000000000000e+03 8.883982658386230469e+00 7.376127243041992188e+00 1.631552726030349731e-01 -2.359773963689804077e-02 4.186725988984107971e-02 -6.927879992872476578e-03
4.005000000000000000e+03 9.361980438232421875e+00 1.039390087127685547e+01 7.858787477016448975e-02 4.780656844377517700e-02 3.791833296418190002e-02 -1.396675314754247665e-02
4.006000000000000000e+03 3.566054916381835938e+01 3.267692184448242188e+01 5.806111916899681091e-02 9.294770658016204834e-02 4.530264809727668762e-02 5.628107860684394836e-02
4.007000000000000000e+03 9.720185279846191406e+00 6.429881572723388672e+00 2.098205238580703735e-01 -1.646022894419729710e-03 6.245234981179237366e-02 -3.080031834542751312e-02
4.008000000000000000e+03 1.143133163452148438e+01 5.442196369171142578e+00 2.597489655017852783e-01 2.348645180463790894e-01 1.483840495347976685e-01 -1.337889283895492554e-01
4.009000000000000000e+03 1.197528171539306641e+01 5.876135826110839844e+00 1.858834922313690186e-01 3.627251684665679932e-01 1.645825952291488647e-01 -1.061327904462814331e-01
4.010000000000000000e+03 3.194831657409667969e+01 -1.744394898414611816e+00 -5.431734025478363037e-02 2.127613574266433716e-01 4.753320291638374329e-02 3.528535598888993263e-03
4.011000000000000000e+03 9.161620140075683594e+00 1.437181663513183594e+01 2.347478270530700684e-02 2.840912528336048126e-02 1.556517276912927628e-02 -8.705114014446735382e-03
4.012000000000000000e+03 8.788434028625488281e+00 1.167507076263427734e+01 5.705607682466506958e-02 2.237955667078495026e-02 2.383068948984146118e-02 -1.040923316031694412e-02
4.013000000000000000e+03 1.011120414733886719e+01 6.840108394622802734e+00 1.880527883768081665e-01 6.052318215370178223e-02 7.457278668880462646e-02 -4.936492070555686951e-02
4.014000000000000000e+03 1.092321491241455078e+01 7.720900535583496094e+00 1.313808560371398926e-01 1.701770573854446411e-01 9.046737849712371826e-02 -4.354261979460716248e-02
4.015000000000000000e+03 3.222282791137695312e+01 -2.289880752563476562e+00 -4.697679355740547180e-02 2.566229104995727539e-01 6.289383769035339355e-02 1.501612924039363861e-02
4.016000000000000000e+03 3.128993225097656250e+01 -6.365233659744262695e-01 -7.274804264307022095e-02 1.372595876455307007e-01 1.935346424579620361e-02 -1.639207266271114349e-02
4.017000000000000000e+03 6.911724853515625000e+01 1.199909114837646484e+01 -4.821381866931915283e-01 7.890765666961669922e+00 2.222588300704956055e+00 -6.849121451377868652e-01
4.018000000000000000e+03 7.126618957519531250e+01 1.133513355255126953e+01 -3.381020724773406982e-01 8.011316299438476562e+00 2.301964044570922852e+00 -6.490318179130554199e-01
4.019000000000000000e+03 1.134353256225585938e+01 -7.506025314331054688e+00 3.735566139221191406e-02 -1.765697151422500610e-01 -4.176421836018562317e-02 -2.896237969398498535e-01
4.020000000000000000e+03 1.350042152404785156e+01 -8.074593544006347656e+00 1.303482502698898315e-01 -1.350415349006652832e-01 -1.407986506819725037e-03 -2.363836914300918579e-01
4.021000000000000000e+03 1.191691875457763672e+01 -7.705422878265380859e+00 6.610248982906341553e-02 -1.723734587430953979e-01 -3.188129141926765442e-02 -2.809590399265289307e-01
4.022000000000000000e+03 9.158353805541992188e+00 -8.833159446716308594e+00 4.720190912485122681e-02 -1.797399967908859253e-01 -3.976142406463623047e-02 -2.559477090835571289e-01
4.023000000000000000e+03 6.856092834472656250e+01 4.865678787231445312e+00 -3.612263500690460205e-01 7.706560611724853516e+00 2.203600168228149414e+00 -2.937938868999481201e-01
4.024000000000000000e+03 7.518950939178466797e+00 9.387502670288085938e+00 9.465678036212921143e-02 -5.007296800613403320e-02 1.337514258921146393e-02 7.836262695491313934e-03
4.025000000000000000e+03 1.060891056060791016e+01 2.270591735839843750e+01 -5.557364318519830704e-03 1.252517104148864746e-02 2.090342110022902489e-03 -4.636439960449934006e-03
4.026000000000000000e+03 6.966773986816406250e+01 2.379969596862792969e+01 -2.417666018009185791e-01 8.015065193176269531e+00 2.331989765167236328e+00 -1.490394711494445801e+00
4.027000000000000000e+03 8.511872291564941406e+00 7.946577072143554688e+00 1.418692767620086670e-01 -2.738618850708007812e-02 3.434492647647857666e-02 -1.340381684713065624e-03
4.028000000000000000e+03 1.009121990203857422e+01 1.819524383544921875e+01 1.967458054423332214e-03 3.028509020805358887e-02 9.675764478743076324e-03 -4.689166788011789322e-03
4.029000000000000000e+03 1.031180763244628906e+01 2.113787078857421875e+01 -3.763333661481738091e-03 1.684195548295974731e-02 3.923586569726467133e-03 -5.792241077870130539e-03
4.030000000000000000e+03 6.839972686767578125e+01 -1.147731399536132812e+01 -1.538060903549194336e-01 7.537615776062011719e+00 2.215142965316772461e+00 1.852531284093856812e-01
4.031000000000000000e+03 3.439524459838867188e+01 -2.788950204849243164e+00 -3.756661340594291687e-02 5.785030722618103027e-01 1.622809320688247681e-01 1.335453591309487820e-03
4.032000000000000000e+03 3.840132141113281250e+01 3.561476898193359375e+01 5.756112560629844666e-02 8.110284060239791870e-02 4.159918799996376038e-02 6.323764473199844360e-02
4.033000000000000000e+03 7.091149139404296875e+01 1.624774742126464844e+01 -4.018350243568420410e-01 7.943724155426025391e+00 2.262566804885864258e+00 -9.741476774215698242e-01
4.034000000000000000e+03 7.124155426025390625e+01 7.899108886718750000e+00 -2.864227592945098877e-01 8.040629386901855469e+00 2.326261997222900391e+00 -4.563820660114288330e-01
4.035000000000000000e+03 6.885681915283203125e+01 -1.684395790100097656e+01 -9.401988983154296875e-02 7.568881511688232422e+00 2.242458581924438477e+00 2.726913094520568848e-01
4.036000000000000000e+03 6.781363677978515625e+01 -1.997734832763671875e+01 -7.784277200698852539e-02 7.386772632598876953e+00 2.192678928375244141e+00 3.227516412734985352e-01
4.037000000000000000e+03 6.913124847412109375e+01 -2.618063688278198242e+00 -2.210439145565032959e-01 7.713412284851074219e+00 2.247710466384887695e+00 -3.717950731515884399e-02
4.038000000000000000e+03 3.824460601806640625e+01 3.375002670288085938e+01 6.418359279632568359e-02 8.861523121595382690e-02 4.583964496850967407e-02 5.343472585082054138e-02
4.039000000000000000e+03 3.934984588623046875e+01 -6.337782859802246094e+00 -1.147423833608627319e-01 1.596093773841857910e+00 4.444054067134857178e-01 -2.915622107684612274e-02
4.040000000000000000e+03 1.038048076629638672e+01 -1.225453090667724609e+01 1.030294224619865417e-01 -1.574665307998657227e-01 -1.633113063871860504e-02 -1.890812665224075317e-01
4.041000000000000000e+03 9.795800209045410156e+00 1.593925476074218750e+01 1.307857409119606018e-02 3.689038753509521484e-02 1.499068830162286758e-02 -5.785055924206972122e-03
4.042000000000000000e+03 3.647045516967773438e+01 -6.361655712127685547e+00 -7.531015574932098389e-02 9.641166925430297852e-01 2.666419446468353271e-01 -2.500922605395317078e-02
4.043000000000000000e+03 4.461748886108398438e+01 -1.188007545471191406e+01 -2.578822672367095947e-01 2.915044546127319336e+00 7.971487045288085938e-01 -9.174178540706634521e-02
4.044000000000000000e+03 6.933934783935546875e+01 -4.565692901611328125e+00 -1.933030188083648682e-01 7.734230041503906250e+00 2.262278079986572266e+00 1.637320779263973236e-02
4.045000000000000000e+03 6.975345611572265625e+01 -7.487962722778320312e+00 -1.477517187595367432e-01 7.806111812591552734e+00 2.297508001327514648e+00 9.192360937595367432e-02
4.046000000000000000e+03 9.448247909545898438e+00 1.673571205139160156e+01 8.481461554765701294e-03 2.243249304592609406e-02 9.274186566472053528e-03 -8.267581462860107422e-03
4.047000000000000000e+03 6.888384246826171875e+01 -9.011348724365234375e+00 -1.556845903396606445e-01 7.632293701171875000e+00 2.242982625961303711e+00 1.284052282571792603e-01
4.048000000000000000e+03 4.262380981445312500e+01 -1.115413284301757812e+01 -2.110072225332260132e-01 2.411038637161254883e+00 6.600094437599182129e-01 -1.109739020466804504e-01
4.049000000000000000e+03 4.049162292480468750e+01 -1.012577724456787109e+01 -1.760334521532058716e-01 1.851208925247192383e+00 5.025526285171508789e-01 -1.011621877551078796e-01
4.050000000000000000e+03 6.961724090576171875e+01 4.627624988555908203e+00 -3.071109056472778320e-01 7.839912414550781250e+00 2.259840488433837891e+00 -2.966077327728271484e-01
4.051000000000000000e+03 6.868108367919921875e+01 2.377981376647949219e+01 -2.872938811779022217e-01 8.185788154602050781e+00 2.369548320770263672e+00 -1.492668390274047852e+00
4.052000000000000000e+03 4.136188888549804688e+01 -8.541068077087402344e+00 -1.731110811233520508e-01 2.068037748336791992e+00 5.684779882431030273e-01 -5.831895396113395691e-02
4.053000000000000000e+03 4.054123687744140625e+01 -8.091099739074707031e+00 -1.425802707672119141e-01 1.881524562835693359e+00 5.216832756996154785e-01 -4.651806876063346863e-02
4.054000000000000000e+03 1.202414894104003906e+01 -1.701733016967773438e+01 1.018016189336776733e-01 -7.778003811836242676e-02 7.206473965197801590e-03 -1.384316235780715942e-01
4.055000000000000000e+03 1.586612606048583984e+01 -1.917811965942382812e+01 8.603794872760772705e-02 9.877371042966842651e-02 5.544349923729896545e-02 -1.376943737268447876e-01
4.056000000000000000e+03 1.098169612884521484e+01 2.433130264282226562e+01 -7.262555416673421860e-03 9.872443974018096924e-03 7.829666137695312500e-04 -3.227321663871407509e-03
4.057000000000000000e+03 3.979116439819335938e+01 -7.725934028625488281e+00 -1.378070712089538574e-01 1.688786268234252930e+00 4.652937650680541992e-01 -4.128294810652732849e-02
4.058000000000000000e+03 6.930010223388671875e+01 -1.013807868957519531e+01 -1.416054964065551758e-01 7.692836761474609375e+00 2.265369415283203125e+00 1.469803601503372192e-01
4.059000000000000000e+03 7.006016540527343750e+01 2.130579757690429688e+01 -3.738366365432739258e-01 7.968982219696044922e+00 2.278543710708618164e+00 -1.339704513549804688e+00
4.060000000000000000e+03 7.108520507812500000e+01 2.145606803894042969e+01 -2.987398207187652588e-01 7.822547435760498047e+00 2.257142305374145508e+00 -1.334190368652343750e+00
4.061000000000000000e+03 7.091153717041015625e+01 1.355753517150878906e+01 -3.879794180393218994e-01 7.971144199371337891e+00 2.274949550628662109e+00 -7.950801849365234375e-01
4.062000000000000000e+03 1.145220565795898438e+01 -1.112148571014404297e+01 1.184435933828353882e-01 -1.360902339220046997e-01 -5.293993279337882996e-03 -1.993986815214157104e-01
4.063000000000000000e+03 9.796648979187011719e+00 -1.887875175476074219e+01 5.795647576451301575e-02 -1.755298823118209839e-01 -3.527202084660530090e-02 -1.173157617449760437e-01
4.064000000000000000e+03 9.213212013244628906e+00 -1.485635471343994141e+01 9.207074344158172607e-02 -1.923594027757644653e-01 -3.008659929037094116e-02 -1.570759415626525879e-01
4.065000000000000000e+03 1.159692382812500000e+01 1.613617706298828125e+01 1.403493527323007584e-02 8.389844000339508057e-02 2.938001230359077454e-02 1.054270192980766296e-02
4.066000000000000000e+03 1.050305461883544922e+01 1.637426376342773438e+01 1.076556742191314697e-02 5.607195198535919189e-02 2.005125582218170166e-02 4.615339857991784811e-04
4.067000000000000000e+03 1.086940956115722656e+01 -8.163831710815429688e+00 6.060620397329330444e-02 -1.719152927398681641e-01 -3.339272737503051758e-02 -2.703073024749755859e-01
4.068000000000000000e+03 1.048796558380126953e+01 -1.114605522155761719e+01 1.117269471287727356e-01 -1.654709726572036743e-01 -1.612320542335510254e-02 -2.119881063699722290e-01
4.069000000000000000e+03 1.256187057495117188e+01 2.392671775817871094e+01 -5.510224960744380951e-03 3.748532012104988098e-02 9.592528454959392548e-03 5.749392323195934296e-03
4.070000000000000000e+03 1.240345478057861328e+01 2.683104515075683594e+01 -7.458433974534273148e-03 2.040613256394863129e-02 3.884309437125921249e-03 1.502824365161359310e-03
4.071000000000000000e+03 3.988979721069335938e+01 3.791479110717773438e+01 8.158740401268005371e-02 5.384947732090950012e-02 4.063106328248977661e-02 7.021491229534149170e-02
4.072000000000000000e+03 3.674673843383789062e+01 4.132158660888671875e+01 1.092725098133087158e-01 4.921791329979896545e-02 4.754712805151939392e-02 2.504019252955913544e-02
4.073000000000000000e+03 1.064815425872802734e+01 -2.174281311035156250e+01 4.424137622117996216e-02 -1.533652842044830322e-01 -3.273717314004898071e-02 -1.040814071893692017e-01
4.074000000000000000e+03 1.291701507568359375e+01 -2.357785034179687500e+01 6.975576281547546387e-02 -6.708013266324996948e-02 8.026895229704678059e-04 -1.100040599703788757e-01
4.075000000000000000e+03 4.458963394165039062e+01 -1.549838447570800781e+01 -2.636569142341613770e-01 2.971624374389648438e+00 8.123902678489685059e-01 -1.655755490064620972e-01
4.076000000000000000e+03 6.800313568115234375e+01 -2.236538505554199219e+01 -3.901588544249534607e-02 7.385642051696777344e+00 2.203987836837768555e+00 3.354500830173492432e-01
4.077000000000000000e+03 6.752519226074218750e+01 3.010011672973632812e+01 6.887164711952209473e-01 8.509669303894042969e+00 2.759515762329101562e+00 -1.518760681152343750e+00
4.078000000000000000e+03 6.406250762939453125e+01 -2.606644439697265625e+01 4.756904765963554382e-02 6.815107345581054688e+00 2.058802843093872070e+00 3.744068443775177002e-01
4.079000000000000000e+03 6.637277984619140625e+01 -2.755476379394531250e+01 5.337674543261528015e-02 7.110507488250732422e+00 2.149165153503417969e+00 3.577411174774169922e-01
4.080000000000000000e+03 7.070163726806640625e+01 3.412651443481445312e+01 7.226021289825439453e-01 7.243331909179687500e+00 2.389780282974243164e+00 -9.681385755538940430e-01
4.081000000000000000e+03 5.079504013061523438e+01 -2.117350006103515625e+01 -2.829595208168029785e-01 4.729201316833496094e+00 1.333872556686401367e+00 6.489594280719757080e-02
4.082000000000000000e+03 4.762039566040039062e+01 -2.140778350830078125e+01 -2.740228474140167236e-01 4.020152091979980469e+00 1.123838782310485840e+00 -1.393874287605285645e-01
4.083000000000000000e+03 4.950763702392578125e+01 -2.718329238891601562e+01 -4.889754951000213623e-02 4.958919525146484375e+00 1.473006606101989746e+00 9.190183877944946289e-02
4.084000000000000000e+03 5.040251159667968750e+01 -2.574579048156738281e+01 -1.028013601899147034e-01 4.980268955230712891e+00 1.463240265846252441e+00 9.615343064069747925e-02
4.085000000000000000e+03 4.863552474975585938e+01 -3.157967567443847656e+01 5.266416668891906738e-01 5.235612869262695312e+00 1.728676319122314453e+00 1.235642656683921814e-01
4.086000000000000000e+03 5.006771469116210938e+01 -3.004403877258300781e+01 2.632028162479400635e-01 5.237914085388183594e+00 1.650334954261779785e+00 2.095818221569061279e-01
4.087000000000000000e+03 6.131949234008789062e+01 3.647879409790039062e+01 2.878917455673217773e+00 1.166463756561279297e+01 4.363066196441650391e+00 9.971318840980529785e-01
4.088000000000000000e+03 6.682680511474609375e+01 4.109137344360351562e+01 8.079321384429931641e-01 9.349258422851562500e+00 3.047157287597656250e+00 4.454004578292369843e-03
4.089000000000000000e+03 7.054550170898437500e+01 6.066125631332397461e-01 -2.143126577138900757e-01 7.959136009216308594e+00 2.323446989059448242e+00 -1.457317769527435303e-01
4.090000000000000000e+03 6.788701629638671875e+01 2.857813596725463867e+00 -3.479219377040863037e-01 7.585301876068115234e+00 2.171213865280151367e+00 -2.022435665130615234e-01
4.091000000000000000e+03 6.946407318115234375e+01 3.028362274169921875e+01 5.449104905128479004e-01 7.837623596191406250e+00 2.514760255813598633e+00 -1.464762926101684570e+00
4.092000000000000000e+03 6.960060119628906250e+01 2.815288925170898438e+01 2.696850895881652832e-01 7.921544075012207031e+00 2.457368850708007812e+00 -1.581827640533447266e+00
4.093000000000000000e+03 1.062369155883789062e+01 -1.598295593261718750e+01 1.008060052990913391e-01 -1.407501399517059326e-01 -1.198324188590049744e-02 -1.447994410991668701e-01
4.094000000000000000e+03 1.172876930236816406e+01 -1.452685832977294922e+01 1.247989311814308167e-01 -9.619551151990890503e-02 8.581026457250118256e-03 -1.553696393966674805e-01
4.095000000000000000e+03 7.072426605224609375e+01 -1.444251346588134766e+01 -8.083025366067886353e-02 7.885610103607177734e+00 2.341434001922607422e+00 2.127022892236709595e-01
4.096000000000000000e+03 5.418978500366210938e+01 3.130579948425292969e+01 1.799070239067077637e+00 7.985202789306640625e+00 2.935281991958618164e+00 4.469332218170166016e+00
4.097000000000000000e+03 5.402434921264648438e+01 3.083170700073242188e+01 1.598937034606933594e+00 7.696347713470458984e+00 2.788585424423217773e+00 4.117229938507080078e+00
4.098000000000000000e+03 5.452936172485351562e+01 3.146531105041503906e+01 1.644977450370788574e+00 9.036972045898437500e+00 3.204584598541259766e+00 4.577012062072753906e+00
4.099000000000000000e+03 2.837957191467285156e+01 2.540296077728271484e+00 -2.382773309946060181e-01 -1.416696310043334961e-01 -1.139840856194496155e-01 -1.562096327543258667e-01
4.100000000000000000e+03 4.061414718627929688e+01 1.713937187194824219e+01 -1.271447986364364624e-01 7.776516675949096680e-01 1.951520591974258423e-01 2.449071258306503296e-01
4.101000000000000000e+03 4.160206222534179688e+01 1.755147552490234375e+01 -8.688717335462570190e-02 1.033151268959045410e+00 2.838792502880096436e-01 3.682830631732940674e-01
4.102000000000000000e+03 5.386064147949218750e+01 3.110704612731933594e+01 1.898804545402526855e+00 7.101642608642578125e+00 2.700134038925170898e+00 4.234088897705078125e+00
4.103000000000000000e+03 2.674539566040039062e+01 2.260804176330566406e-01 -3.137965202331542969e-01 -1.538127660751342773e-01 -1.402827799320220947e-01 -5.168007686734199524e-02
4.104000000000000000e+03 5.402257537841796875e+01 3.165233039855957031e+01 2.209445238113403320e+00 7.421020984649658203e+00 2.889139890670776367e+00 4.684329509735107422e+00
4.105000000000000000e+03 4.112163543701171875e+01 1.713896942138671875e+01 -1.150869280099868774e-01 9.218820929527282715e-01 2.420385628938674927e-01 3.096124231815338135e-01
4.106000000000000000e+03 1.749123191833496094e+01 1.218404769897460938e+01 9.408854693174362183e-02 2.086148113012313843e-01 9.081100672483444214e-02 1.355725824832916260e-01
4.107000000000000000e+03 1.808548164367675781e+01 1.307682132720947266e+01 8.884922415018081665e-02 1.955619752407073975e-01 8.532335609197616577e-02 1.277694553136825562e-01
4.108000000000000000e+03 1.028990840911865234e+01 1.411575889587402344e+01 2.636545151472091675e-02 7.125329971313476562e-02 2.928562462329864502e-02 -1.148120616562664509e-03
4.109000000000000000e+03 4.481808853149414062e+01 2.061487579345703125e+01 9.694305807352066040e-02 1.734631657600402832e+00 5.494724512100219727e-01 7.985178232192993164e-01
4.110000000000000000e+03 4.313433074951171875e+01 1.896148109436035156e+01 -7.614751346409320831e-03 1.335670113563537598e+00 3.984166085720062256e-01 5.563663244247436523e-01
4.111000000000000000e+03 4.061396408081054688e+01 1.660546875000000000e+01 -1.429784446954727173e-01 8.465408086776733398e-01 2.110687047243118286e-01 2.596671581268310547e-01
4.112000000000000000e+03 4.786915206909179688e+01 2.450962448120117188e+01 5.029662251472473145e-01 2.539982080459594727e+00 9.128845334053039551e-01 1.411543130874633789e+00
4.113000000000000000e+03 4.813420867919921875e+01 2.471733856201171875e+01 5.270012021064758301e-01 2.648747205734252930e+00 9.527245163917541504e-01 1.479546904563903809e+00
4.114000000000000000e+03 2.606902694702148438e+01 2.152659606933593750e+01 6.322000175714492798e-02 1.229507848620414734e-01 5.585123598575592041e-02 9.368204325437545776e-02
4.115000000000000000e+03 2.589909362792968750e+01 1.308708190917968750e+00 -3.660135865211486816e-01 -1.718177646398544312e-01 -1.613494008779525757e-01 -1.557408422231674194e-01
4.116000000000000000e+03 4.808427429199218750e+01 2.398233985900878906e+01 4.111065864562988281e-01 2.764685630798339844e+00 9.527376294136047363e-01 1.433232665061950684e+00
4.117000000000000000e+03 3.711919403076171875e+01 1.244765853881835938e+01 -2.984850108623504639e-01 4.176739752292633057e-01 3.575669229030609131e-02 4.992631264030933380e-03
4.118000000000000000e+03 4.504501724243164062e+01 2.087633705139160156e+01 1.143257319927215576e-01 1.790768384933471680e+00 5.715282559394836426e-01 8.350963592529296875e-01
4.119000000000000000e+03 4.912391281127929688e+01 2.568144989013671875e+01 6.612451076507568359e-01 3.090601921081542969e+00 1.125554084777832031e+00 1.728762030601501465e+00
4.120000000000000000e+03 4.885701751708984375e+01 2.546580696105957031e+01 6.343383193016052246e-01 2.953869819641113281e+00 1.076462507247924805e+00 1.662646770477294922e+00
4.121000000000000000e+03 2.603135108947753906e+01 1.536564230918884277e+00 -3.658447563648223877e-01 -1.826264858245849609e-01 -1.645413786172866821e-01 -1.615112870931625366e-01
4.122000000000000000e+03 3.719413757324218750e+01 1.296654415130615234e+01 -2.996649742126464844e-01 3.758757114410400391e-01 2.286322414875030518e-02 -1.131979096680879593e-02
4.123000000000000000e+03 3.984890365600585938e+01 1.631044197082519531e+01 -1.700312644243240356e-01 6.680422425270080566e-01 1.494032889604568481e-01 1.724575310945510864e-01
4.124000000000000000e+03 4.141252517700195312e+01 1.687913513183593750e+01 -1.160744950175285339e-01 1.054845333099365234e+00 2.816312611103057861e-01 3.542783558368682861e-01
4.125000000000000000e+03 5.039596557617187500e+01 2.715644645690917969e+01 9.314531087875366211e-01 3.733431816101074219e+00 1.399465441703796387e+00 2.133907318115234375e+00
4.126000000000000000e+03 2.232540893554687500e+01 1.693131828308105469e+01 8.660807460546493530e-02 1.505361348390579224e-01 7.114326208829879761e-02 1.148186251521110535e-01
4.127000000000000000e+03 2.134287452697753906e+01 1.618951225280761719e+01 8.749635517597198486e-02 1.581101715564727783e-01 7.368195801973342896e-02 1.162833943963050842e-01
4.128000000000000000e+03 2.523754692077636719e+01 1.966353034973144531e+01 7.836391776800155640e-02 1.305924057960510254e-01 6.268689781427383423e-02 1.034533157944679260e-01
4.129000000000000000e+03 1.466937637329101562e+01 1.020356464385986328e+01 7.516841590404510498e-02 2.652352750301361084e-01 1.021211072802543640e-01 1.048819571733474731e-01
4.130000000000000000e+03 5.827805709838867188e+01 3.275167083740234375e+01 2.960262298583984375e+00 1.439995479583740234e+01 5.208065032958984375e+00 -1.023417472839355469e+00
4.131000000000000000e+03 4.374184417724609375e+01 1.957136917114257812e+01 2.607525698840618134e-02 1.464673161506652832e+00 4.472245275974273682e-01 6.397038698196411133e-01
4.132000000000000000e+03 4.440829086303710938e+01 2.005740165710449219e+01 5.569798871874809265e-02 1.652514815330505371e+00 5.124638676643371582e-01 7.376974821090698242e-01
4.133000000000000000e+03 4.969376373291015625e+01 2.611085510253906250e+01 7.136408686637878418e-01 3.413394451141357422e+00 1.238110542297363281e+00 1.881705284118652344e+00
4.134000000000000000e+03 2.214974212646484375e+01 1.761541557312011719e+01 7.743682712316513062e-02 1.481836289167404175e-01 6.768614053726196289e-02 1.069391816854476929e-01
4.135000000000000000e+03 5.172541427612304688e+01 2.849131202697753906e+01 1.209213972091674805e+00 4.643055438995361328e+00 1.755680918693542480e+00 2.651710987091064453e+00
4.136000000000000000e+03 5.266821670532226562e+01 2.890725708007812500e+01 1.179102540016174316e+00 5.624287128448486328e+00 2.041016817092895508e+00 2.988046646118164062e+00
4.137000000000000000e+03 2.033246421813964844e+01 1.539484786987304688e+01 8.732827007770538330e-02 1.659637689590454102e-01 7.598761469125747681e-02 1.176831424236297607e-01
4.138000000000000000e+03 1.732110977172851562e+01 1.354354667663574219e+01 7.275168597698211670e-02 1.906603425741195679e-01 7.902360707521438599e-02 1.127209439873695374e-01
4.139000000000000000e+03 4.389650726318359375e+01 1.989962577819824219e+01 4.571127146482467651e-02 1.479855298995971680e+00 4.576699733734130859e-01 6.624449491500854492e-01
4.140000000000000000e+03 3.831756210327148438e+01 1.345654582977294922e+01 -2.617733180522918701e-01 5.894556045532226562e-01 9.830468893051147461e-02 8.719792217016220093e-02
4.141000000000000000e+03 4.549205398559570312e+01 2.140217399597167969e+01 1.577381938695907593e-01 1.897449493408203125e+00 6.165563464164733887e-01 9.070781469345092773e-01
4.142000000000000000e+03 2.269917678833007812e+01 1.759360122680664062e+01 8.224832266569137573e-02 1.466557830572128296e-01 6.867122650146484375e-02 1.101291328668594360e-01
4.143000000000000000e+03 3.812057876586914062e+01 1.389761352539062500e+01 -2.579837441444396973e-01 4.967679679393768311e-01 7.163526862859725952e-02 4.970083013176918030e-02
4.144000000000000000e+03 3.810260772705078125e+01 1.448921489715576172e+01 -2.564656138420104980e-01 4.248776137828826904e-01 5.052360147237777710e-02 2.742572128772735596e-02
4.145000000000000000e+03 4.645082092285156250e+01 2.296339225769042969e+01 3.196164071559906006e-01 2.078587770462036133e+00 7.194612622261047363e-01 1.093396663665771484e+00
4.146000000000000000e+03 4.723639297485351562e+01 2.324769973754882812e+01 3.416130840778350830e-01 2.427812337875366211e+00 8.308276534080505371e-01 1.244935631752014160e+00
4.147000000000000000e+03 5.752546310424804688e+01 3.205775070190429688e+01 1.417863965034484863e+00 1.485584068298339844e+01 4.882111072540283203e+00 6.536031514406204224e-02
4.148000000000000000e+03 3.604305648803710938e+01 1.138188743591308594e+01 -3.341461122035980225e-01 2.857112884521484375e-01 -1.453044172376394272e-02 -4.799199104309082031e-02
4.149000000000000000e+03 3.663257598876953125e+01 1.224580669403076172e+01 -3.187639415264129639e-01 3.281788825988769531e-01 2.824486233294010162e-03 -3.575377538800239563e-02
4.150000000000000000e+03 2.098190116882324219e+01 1.602471542358398438e+01 8.477366715669631958e-02 1.606003046035766602e-01 7.361219078302383423e-02 1.154535785317420959e-01
4.151000000000000000e+03 3.833224868774414062e+01 1.432220745086669922e+01 -2.514353990554809570e-01 4.997248351573944092e-01 7.448682934045791626e-02 5.558014288544654846e-02
4.152000000000000000e+03 5.572832107543945312e+01 3.139208602905273438e+01 6.670581102371215820e-01 1.247329998016357422e+01 3.942107439041137695e+00 3.464382410049438477e+00
4.153000000000000000e+03 3.958933258056640625e+01 1.602669525146484375e+01 -1.847690492868423462e-01 6.301547288894653320e-01 1.336157023906707764e-01 1.501939594745635986e-01
4.154000000000000000e+03 4.161106109619140625e+01 1.719737243652343750e+01 -1.066631227731704712e-01 1.079681038856506348e+00 2.919054031372070312e-01 3.730622231960296631e-01
4.155000000000000000e+03 2.418011283874511719e+01 1.915285873413085938e+01 7.681269943714141846e-02 1.342197358608245850e-01 6.330972909927368164e-02 1.038593202829360962e-01
4.156000000000000000e+03 5.211869049072265625e+01 2.789590072631835938e+01 9.031504988670349121e-01 5.200864315032958984e+00 1.831204414367675781e+00 2.613685131072998047e+00
4.157000000000000000e+03 5.120670700073242188e+01 2.797263717651367188e+01 1.091832756996154785e+00 4.266193389892578125e+00 1.607407808303833008e+00 2.427088975906372070e+00
4.158000000000000000e+03 3.853286361694335938e+01 1.453345584869384766e+01 -2.413218021392822266e-01 5.342741012573242188e-01 8.788568526506423950e-02 7.393847405910491943e-02
4.159000000000000000e+03 2.607677841186523438e+01 2.054692840576171875e+01 7.560504227876663208e-02 1.269407421350479126e-01 6.076373532414436340e-02 9.793473780155181885e-02
4.160000000000000000e+03 1.322064304351806641e+01 7.423119068145751953e+00 8.585838228464126587e-02 3.964008986949920654e-01 1.446777880191802979e-01 5.524263903498649597e-02
4.161000000000000000e+03 4.571786117553710938e+01 2.167360496520996094e+01 1.806155741214752197e-01 1.959104299545288086e+00 6.419159770011901855e-01 9.466168880462646484e-01
4.162000000000000000e+03 5.166538238525390625e+01 2.796313095092773438e+01 1.025916337966918945e+00 4.707847595214843750e+00 1.720129251480102539e+00 2.544969558715820312e+00
4.163000000000000000e+03 3.877546691894531250e+01 1.473731613159179688e+01 -2.300107330083847046e-01 5.684737563133239746e-01 1.015388965606689453e-01 9.568721801042556763e-02
4.164000000000000000e+03 5.029704284667968750e+01 2.656037521362304688e+01 7.669851779937744141e-01 3.780156373977661133e+00 1.364142417907714844e+00 2.048318624496459961e+00
4.165000000000000000e+03 5.749571609497070312e+01 3.160224533081054688e+01 9.363671541213989258e-01 1.421224594116210938e+01 4.544583797454833984e+00 3.756668269634246826e-01
4.166000000000000000e+03 2.025886726379394531e+01 1.610900306701660156e+01 7.761015743017196655e-02 1.608043164014816284e-01 7.152434438467025757e-02 1.095794960856437683e-01
4.167000000000000000e+03 2.934690666198730469e+01 3.632749080657958984e+00 -2.376345098018646240e-01 -9.078843891620635986e-02 -9.852688759565353394e-02 -1.831664443016052246e-01
4.168000000000000000e+03 5.141676712036132812e+01 2.769943237304687500e+01 9.713261723518371582e-01 4.536874771118164062e+00 1.652460336685180664e+00 2.448324680328369141e+00
4.169000000000000000e+03 1.378896331787109375e+01 9.742112159729003906e+00 6.790207326412200928e-02 2.739298045635223389e-01 1.025495678186416626e-01 7.897435128688812256e-02
4.170000000000000000e+03 2.557573699951171875e+01 1.032474398612976074e+00 -4.021344482898712158e-01 -1.651776582002639771e-01 -1.701936274766921997e-01 -1.416929364204406738e-01
4.171000000000000000e+03 4.999203872680664062e+01 2.633067131042480469e+01 7.410646080970764160e-01 3.590959310531616211e+00 1.299607157707214355e+00 1.961045384407043457e+00
4.172000000000000000e+03 3.100578689575195312e+01 2.693073272705078125e+01 5.507554486393928528e-02 1.039427295327186584e-01 4.770548269152641296e-02 7.465379685163497925e-02
4.173000000000000000e+03 5.162030792236328125e+01 2.747676467895507812e+01 8.700759410858154297e-01 4.743491649627685547e+00 1.684070229530334473e+00 2.438344955444335938e+00
4.174000000000000000e+03 3.530324554443359375e+01 1.084699058532714844e+01 -3.591868877410888672e-01 1.953601539134979248e-01 -4.914802312850952148e-02 -8.820792287588119507e-02
4.175000000000000000e+03 3.622286224365234375e+01 1.185399055480957031e+01 -3.321757316589355469e-01 2.734472155570983887e-01 -1.761855557560920715e-02 -5.569823831319808960e-02
4.176000000000000000e+03 4.353679275512695312e+01 1.888738632202148438e+01 -1.301773637533187866e-02 1.493807196617126465e+00 4.442368447780609131e-01 6.134093403816223145e-01
4.177000000000000000e+03 3.930904006958007812e+01 1.519738864898681641e+01 -2.077430188655853271e-01 6.509958505630493164e-01 1.329758614301681519e-01 1.423984467983245850e-01
4.178000000000000000e+03 2.628915786743164062e+01 2.093837165832519531e+01 7.052755355834960938e-02 1.236137226223945618e-01 5.824238434433937073e-02 9.860108047723770142e-02
4.179000000000000000e+03 4.112683486938476562e+01 1.660784149169921875e+01 -1.334843486547470093e-01 9.978510737419128418e-01 2.593100070953369141e-01 3.208960592746734619e-01
4.180000000000000000e+03 2.598724174499511719e+01 2.267516326904296875e+01 5.744083970785140991e-02 1.195819601416587830e-01 5.310684069991111755e-02 8.801408857107162476e-02
4.181000000000000000e+03 4.595203018188476562e+01 2.194593429565429688e+01 2.056872844696044922e-01 2.021715641021728516e+00 6.682208180427551270e-01 9.897144436836242676e-01
4.182000000000000000e+03 4.567980575561523438e+01 2.216513442993164062e+01 2.322234362363815308e-01 1.860025167465209961e+00 6.276745796203613281e-01 9.463149309158325195e-01
4.183000000000000000e+03 4.512511062622070312e+01 2.041715621948242188e+01 7.928239554166793823e-02 1.896062612533569336e+00 5.926035046577453613e-01 8.429067730903625488e-01
4.184000000000000000e+03 2.497205734252929688e+01 1.939968490600585938e+01 8.047132939100265503e-02 1.327417939901351929e-01 6.396394222974777222e-02 1.028310656547546387e-01
4.185000000000000000e+03 2.244797515869140625e+01 1.739221382141113281e+01 8.175127208232879639e-02 1.477776616811752319e-01 6.885868310928344727e-02 1.113625839352607727e-01
4.186000000000000000e+03 3.689447402954101562e+01 1.213129138946533203e+01 -3.065083324909210205e-01 3.944224715232849121e-01 2.637423761188983917e-02 -6.477174814790487289e-03
4.187000000000000000e+03 2.649932098388671875e+01 9.881160259246826172e-01 -3.327359259128570557e-01 -1.703386902809143066e-01 -1.509223878383636475e-01 -1.205799952149391174e-01
4.188000000000000000e+03 2.491481971740722656e+01 1.995595169067382812e+01 7.414488494396209717e-02 1.311427354812622070e-01 6.158628687262535095e-02 9.881151467561721802e-02
4.189000000000000000e+03 4.361382293701171875e+01 1.924004745483398438e+01 8.897454477846622467e-03 1.468415260314941406e+00 4.431938230991363525e-01 6.240152716636657715e-01
4.190000000000000000e+03 2.550263214111328125e+01 2.046236610412597656e+01 7.312991470098495483e-02 1.281863003969192505e-01 6.039486080408096313e-02 9.673131257295608521e-02
4.191000000000000000e+03 2.521463775634765625e+01 2.021322441101074219e+01 7.236006855964660645e-02 1.293597817420959473e-01 6.051595509052276611e-02 1.000091060996055603e-01
4.192000000000000000e+03 3.957796859741210938e+01 1.547115612030029297e+01 -1.962154358625411987e-01 6.912395358085632324e-01 1.485072225332260132e-01 1.637989282608032227e-01
4.193000000000000000e+03 2.821244239807128906e+01 2.450785255432128906e+01 5.468070134520530701e-02 1.093314960598945618e-01 4.920366033911705017e-02 8.464223891496658325e-02
4.194000000000000000e+03 2.726014137268066406e+01 2.394267845153808594e+01 5.673287808895111084e-02 1.125761866569519043e-01 5.079272016882896423e-02 8.605239540338516235e-02
4.195000000000000000e+03 2.065828514099121094e+01 1.591958045959472656e+01 8.423774689435958862e-02 1.612087041139602661e-01 7.363393157720565796e-02 1.142122149467468262e-01
4.196000000000000000e+03 3.324981307983398438e+01 2.869400596618652344e+01 6.035919487476348877e-02 9.248915314674377441e-02 4.585450515151023865e-02 7.459675520658493042e-02
4.197000000000000000e+03 4.748556137084960938e+01 2.352236557006835938e+01 3.684074580669403076e-01 2.500223636627197266e+00 8.605893254280090332e-01 1.298473834991455078e+00
4.198000000000000000e+03 4.671239471435546875e+01 2.322489738464355469e+01 3.513682782649993896e-01 2.159030199050903320e+00 7.531195282936096191e-01 1.146224975585937500e+00
4.199000000000000000e+03 3.639491271972656250e+01 1.156001377105712891e+01 -3.220396935939788818e-01 3.381620645523071289e-01 4.836705047637224197e-03 -2.961503155529499054e-02
4.200000000000000000e+03 2.879883384704589844e+01 1.795184016227722168e+00 -2.082834690809249878e-01 -9.275948256254196167e-02 -9.031289070844650269e-02 -1.094214916229248047e-01
4.201000000000000000e+03 2.989172554016113281e+01 -6.750882267951965332e-01 -1.121548339724540710e-01 4.444219637662172318e-03 -3.231318295001983643e-02 -2.003995468840003014e-03
4.202000000000000000e+03 3.648145675659179688e+01 1.201304817199707031e+01 -3.214047551155090332e-01 3.166420757770538330e-01 -1.428805757313966751e-03 -4.044898971915245056e-02
4.203000000000000000e+03 2.871525382995605469e+01 3.675518274307250977e+00 -2.574746608734130859e-01 -1.475836038589477539e-01 -1.215174794197082520e-01 -1.940495967864990234e-01
4.204000000000000000e+03 2.872138977050781250e+01 2.714956998825073242e+00 -2.300630956888198853e-01 -1.296887844800949097e-01 -1.079255640506744385e-01 -1.618567854166030884e-01
4.205000000000000000e+03 5.242848968505859375e+01 2.866348457336425781e+01 1.133937120437622070e+00 5.394162654876708984e+00 1.958429932594299316e+00 2.860843181610107422e+00
4.206000000000000000e+03 5.327886581420898438e+01 2.908603858947753906e+01 1.057519912719726562e+00 6.479444980621337891e+00 2.261089324951171875e+00 3.160507678985595703e+00
4.207000000000000000e+03 4.619491577148437500e+01 2.221293830871582031e+01 2.307488471269607544e-01 2.089689731597900391e+00 6.961315870285034180e-01 1.035590410232543945e+00
4.208000000000000000e+03 4.644554519653320312e+01 2.247378921508789062e+01 2.574131190776824951e-01 2.163214206695556641e+00 7.261881828308105469e-01 1.083667397499084473e+00
4.209000000000000000e+03 2.134012985229492188e+01 1.713943862915039062e+01 7.345224916934967041e-02 1.529152542352676392e-01 6.791025400161743164e-02 1.067625284194946289e-01
4.210000000000000000e+03 3.448913955688476562e+01 9.841043472290039062e+00 -3.595668971538543701e-01 1.294147819280624390e-01 -6.904563307762145996e-02 -9.142487496137619019e-02
4.211000000000000000e+03 3.424568557739257812e+01 7.677627086639404297e+00 -2.029991149902343750e-01 2.106244117021560669e-01 2.287591341882944107e-03 -1.943912543356418610e-02
4.212000000000000000e+03 3.416001892089843750e+01 4.412984848022460938e+00 -7.803830504417419434e-02 3.737075924873352051e-01 8.870078623294830322e-02 -2.376965247094631195e-02
4.213000000000000000e+03 3.439114379882812500e+01 6.242076873779296875e+00 -1.239012852311134338e-01 3.077348768711090088e-01 5.515007674694061279e-02 -6.866733543574810028e-03
4.214000000000000000e+03 1.387978744506835938e+01 7.710571765899658203e+00 9.249324351549148560e-02 3.904401063919067383e-01 1.448800116777420044e-01 1.037021726369857788e-01
4.215000000000000000e+03 2.750898551940917969e+01 2.468481254577636719e+01 5.399183183908462524e-02 1.105073019862174988e-01 4.934974014759063721e-02 8.107264339923858643e-02
4.216000000000000000e+03 1.088528251647949219e+01 6.807236194610595703e+00 1.736205518245697021e-01 1.673418730497360229e-01 1.022887304425239563e-01 -6.713168323040008545e-02
4.217000000000000000e+03 6.024910354614257812e+01 3.366416931152343750e+01 3.858947038650512695e+00 1.188719844818115234e+01 4.723843574523925781e+00 -7.424296140670776367e-01
4.218000000000000000e+03 2.389729881286621094e+01 1.842127418518066406e+01 8.227208256721496582e-02 1.392318904399871826e-01 6.645119190216064453e-02 1.073504686355590820e-01
4.219000000000000000e+03 2.710620880126953125e+01 1.522402763366699219e-01 -2.582032084465026855e-01 -1.500270217657089233e-01 -1.224690675735473633e-01 -4.195185005664825439e-02
4.220000000000000000e+03 2.798319244384765625e+01 -1.885846853256225586e-01 -2.155191302299499512e-01 -1.231129467487335205e-01 -1.015896201133728027e-01 -2.935825474560260773e-02
4.221000000000000000e+03 1.665725898742675781e+01 1.188954734802246094e+01 8.474800735712051392e-02 2.190684825181961060e-01 9.114494919776916504e-02 1.267707794904708862e-01
4.222000000000000000e+03 1.592853832244873047e+01 1.125645732879638672e+01 8.068376779556274414e-02 2.344789057970046997e-01 9.454879909753799438e-02 1.223049983382225037e-01
4.223000000000000000e+03 5.351847076416015625e+01 2.920108413696289062e+01 1.018901348114013672e+00 6.821494102478027344e+00 2.352118730545043945e+00 3.218715667724609375e+00
4.224000000000000000e+03 5.313515472412109375e+01 2.935501289367675781e+01 1.224367141723632812e+00 6.235454082489013672e+00 2.237946510314941406e+00 3.223398447036743164e+00
4.225000000000000000e+03 1.210505294799804688e+01 6.598612308502197266e+00 1.387286335229873657e-01 3.454903066158294678e-01 1.452656835317611694e-01 -5.655937269330024719e-02
4.226000000000000000e+03 1.237881851196289062e+01 6.322125434875488281e+00 1.360772103071212769e-01 4.012583792209625244e-01 1.612006723880767822e-01 -5.121643841266632080e-02
4.227000000000000000e+03 3.218770599365234375e+01 4.765838623046875000e+00 -9.766558557748794556e-02 1.078274324536323547e-01 3.048554295673966408e-03 -1.472713947296142578e-01
4.228000000000000000e+03 3.495681762695312500e+01 7.872220039367675781e+00 -2.060740739107131958e-01 3.263738155364990234e-01 3.608992695808410645e-02 1.405452005565166473e-02
4.229000000000000000e+03 3.024634742736816406e+01 2.642122650146484375e+01 5.579522997140884399e-02 1.033243313431739807e-01 4.773586988449096680e-02 7.549344748258590698e-02
4.230000000000000000e+03 1.706470870971679688e+01 1.203035640716552734e+01 8.893422782421112061e-02 2.154826074838638306e-01 9.132505208253860474e-02 1.313111633062362671e-01
4.231000000000000000e+03 1.547320842742919922e+01 1.122296714782714844e+01 7.615753263235092163e-02 2.359026223421096802e-01 9.361805021762847900e-02 1.119887381792068481e-01
4.232000000000000000e+03 2.851651763916015625e+01 2.491089439392089844e+01 5.588683485984802246e-02 1.108434796333312988e-01 5.001909658312797546e-02 8.175414055585861206e-02
4.233000000000000000e+03 3.058051109313964844e+01 2.561782646179199219e+01 5.787026509642601013e-02 1.043187081813812256e-01 4.865669086575508118e-02 8.049458265304565430e-02
4.234000000000000000e+03 5.487153625488281250e+01 3.160883522033691406e+01 1.422877788543701172e+00 1.017488956451416016e+01 3.479330301284790039e+00 4.555769443511962891e+00
4.235000000000000000e+03 9.656742095947265625e+00 1.120970249176025391e+01 6.234554946422576904e-02 6.616382300853729248e-02 3.855281323194503784e-02 -1.237327978014945984e-02
4.236000000000000000e+03 3.350664901733398438e+01 4.994854450225830078e+00 -8.185548335313796997e-02 2.568114399909973145e-01 5.248678848147392273e-02 -6.204459443688392639e-02
4.237000000000000000e+03 2.779156684875488281e+01 2.417921066284179688e+01 5.181942507624626160e-02 1.142813265323638916e-01 4.983022436499595642e-02 8.296258002519607544e-02
4.238000000000000000e+03 1.509573554992675781e+01 1.068515110015869141e+01 7.715144008398056030e-02 2.506755590438842773e-01 9.834810346364974976e-02 1.107625812292098999e-01
4.239000000000000000e+03 2.660334777832031250e+01 6.966817378997802734e-01 -3.168949782848358154e-01 -1.649245321750640869e-01 -1.445458531379699707e-01 -8.085098862648010254e-02
4.240000000000000000e+03 3.139861106872558594e+01 2.788466835021972656e+01 5.067024007439613342e-02 9.827088564634323120e-02 4.468233883380889893e-02 7.605016231536865234e-02
4.241000000000000000e+03 3.573614501953125000e+01 1.090927410125732422e+01 -3.369773328304290771e-01 2.668627500534057617e-01 -2.103437669575214386e-02 -5.248200148344039917e-02
4.242000000000000000e+03 3.621111297607421875e+01 1.099392318725585938e+01 -3.136801719665527344e-01 3.612074255943298340e-01 1.425817701965570450e-02 -1.657848246395587921e-02
4.243000000000000000e+03 5.935571289062500000e+01 3.361986923217773438e+01 4.433536052703857422e+00 1.283243370056152344e+01 5.179790973663330078e+00 -8.667461276054382324e-01
4.244000000000000000e+03 6.160362243652343750e+01 3.510247421264648438e+01 3.418155670166015625e+00 1.094559955596923828e+01 4.309126377105712891e+00 8.363725244998931885e-02
4.245000000000000000e+03 5.930769729614257812e+01 3.422706604003906250e+01 5.192694664001464844e+00 1.282733440399169922e+01 5.406008720397949219e+00 -3.118603527545928955e-01
4.246000000000000000e+03 2.984235382080078125e+01 2.552021217346191406e+01 5.948165431618690491e-02 1.064878925681114197e-01 4.979086667299270630e-02 8.000322431325912476e-02
4.247000000000000000e+03 1.992043876647949219e+01 1.386888408660888672e+01 1.025020405650138855e-01 1.768284738063812256e-01 8.379915356636047363e-02 1.335453540086746216e-01
4.248000000000000000e+03 1.963294792175292969e+01 1.501816749572753906e+01 8.308115601539611816e-02 1.705129295587539673e-01 7.607822865247726440e-02 1.173720806837081909e-01
4.249000000000000000e+03 6.007555007934570312e+01 3.492921447753906250e+01 4.658449172973632812e+00 1.214494132995605469e+01 5.041017055511474609e+00 4.489707946777343750e-01
4.250000000000000000e+03 5.944764709472656250e+01 3.509681320190429688e+01 5.495515346527099609e+00 1.271831417083740234e+01 5.464148998260498047e+00 7.153834104537963867e-01
4.251000000000000000e+03 2.955287551879882812e+01 2.630231857299804688e+01 5.458929762244224548e-02 1.065925806760787964e-01 4.835456237196922302e-02 7.539349794387817383e-02
4.252000000000000000e+03 3.382154846191406250e+01 6.946704387664794922e+00 -1.546794921159744263e-01 1.744574010372161865e-01 5.933369509875774384e-03 -3.566782921552658081e-02
4.253000000000000000e+03 3.473370361328125000e+01 8.526783943176269531e+00 -2.560761272907257080e-01 2.528740465641021729e-01 -9.606275125406682491e-04 -1.204858999699354172e-02
4.254000000000000000e+03 3.237136077880859375e+01 2.818708801269531250e+01 5.984697118401527405e-02 9.677501022815704346e-02 4.698659479618072510e-02 7.696975022554397583e-02
4.255000000000000000e+03 2.915971946716308594e+01 2.518764495849609375e+01 5.781164392828941345e-02 1.089138761162757874e-01 5.001765862107276917e-02 8.005574345588684082e-02
4.256000000000000000e+03 3.003942108154296875e+01 3.582587718963623047e+00 -2.031979113817214966e-01 -2.726232632994651794e-02 -6.913807243108749390e-02 -1.698527485132217407e-01
4.257000000000000000e+03 2.890714263916015625e+01 1.481390595436096191e-01 -1.686338186264038086e-01 -7.694507390260696411e-02 -7.367367297410964966e-02 -4.362607747316360474e-02
4.258000000000000000e+03 8.240181922912597656e+00 9.077016830444335938e+00 1.086318865418434143e-01 -2.163256146013736725e-02 2.609979733824729919e-02 -2.641561441123485565e-03
4.259000000000000000e+03 3.176490020751953125e+01 4.437884330749511719e+00 -1.163586005568504333e-01 8.928494155406951904e-02 -8.122097700834274292e-03 -1.652282178401947021e-01
4.260000000000000000e+03 3.130065345764160156e+01 4.091135025024414062e+00 -1.378802508115768433e-01 6.750997155904769897e-02 -2.111108228564262390e-02 -1.697901934385299683e-01
4.261000000000000000e+03 4.238759994506835938e+01 1.717492103576660156e+01 -9.880710393190383911e-02 1.319816589355468750e+00 3.663028478622436523e-01 4.639978706836700439e-01
4.262000000000000000e+03 3.505618667602539062e+01 1.042116069793701172e+01 -3.590767681598663330e-01 1.817405372858047485e-01 -5.320086702704429626e-02 -8.526574820280075073e-02
4.263000000000000000e+03 3.105836296081542969e+01 2.988307380676269531e+01 5.463039129972457886e-02 9.845477342605590820e-02 4.592555016279220581e-02 6.089242547750473022e-02
4.264000000000000000e+03 1.356608772277832031e+01 8.347513198852539062e+00 7.893830537796020508e-02 3.409123122692108154e-01 1.259551942348480225e-01 7.732322067022323608e-02
4.265000000000000000e+03 1.288497352600097656e+01 7.643160343170166016e+00 9.000348299741744995e-02 3.642720580101013184e-01 1.362826675176620483e-01 2.701644226908683777e-02
4.266000000000000000e+03 2.671316909790039062e+01 2.233890914916992188e+01 6.521183252334594727e-02 1.190495193004608154e-01 5.527840554714202881e-02 9.127831459045410156e-02
4.267000000000000000e+03 2.963700675964355469e+01 -1.208578720688819885e-01 -1.299763321876525879e-01 -2.625618129968643188e-02 -4.686975479125976562e-02 -2.991023845970630646e-02
4.268000000000000000e+03 2.669062042236328125e+01 2.370973777770996094e+01 5.030844733119010925e-02 1.173839420080184937e-01 5.030771717429161072e-02 8.145041018724441528e-02
4.269000000000000000e+03 3.375426101684570312e+01 3.209586715698242188e+01 5.926123261451721191e-02 9.067559987306594849e-02 4.498105123639106750e-02 5.571315437555313110e-02
4.270000000000000000e+03 3.310929489135742188e+01 3.299677276611328125e+01 5.335116386413574219e-02 8.712821453809738159e-02 4.214381426572799683e-02 5.997880175709724426e-02
4.271000000000000000e+03 2.907723808288574219e+01 2.808047294616699219e+00 -2.090440392494201660e-01 -9.646973758935928345e-02 -9.165413677692413330e-02 -1.458114683628082275e-01
4.272000000000000000e+03 2.912298774719238281e+01 -3.672693371772766113e-01 -1.469596475362777710e-01 -5.399419367313385010e-02 -6.028615310788154602e-02 -7.739813067018985748e-03
4.273000000000000000e+03 3.003757667541503906e+01 3.238754749298095703e+00 -1.806849241256713867e-01 -2.039152383804321289e-02 -6.032293662428855896e-02 -1.513327956199645996e-01
4.274000000000000000e+03 9.689157485961914062e+00 7.278430938720703125e+00 1.708065569400787354e-01 2.918164804577827454e-02 5.999646335840225220e-02 -3.133428469300270081e-02
4.275000000000000000e+03 1.126980876922607422e+01 6.413160800933837891e+00 1.835247725248336792e-01 2.098002284765243530e-01 1.179975047707557678e-01 -8.003238588571548462e-02
4.276000000000000000e+03 9.789226531982421875e+00 1.474625587463378906e+01 2.329952642321586609e-02 5.146444216370582581e-02 2.242919057607650757e-02 -5.790136754512786865e-03
4.277000000000000000e+03 1.095911407470703125e+01 1.567739200592041016e+01 1.583737507462501526e-02 7.217745482921600342e-02 2.640444971621036530e-02 6.396274082362651825e-03
4.278000000000000000e+03 3.248594665527343750e+01 -2.782993555068969727e+00 -4.586210474371910095e-02 2.783416509628295898e-01 6.974386423826217651e-02 1.197664160281419754e-02
4.279000000000000000e+03 3.163543891906738281e+01 -1.186576962471008301e+00 -5.922903120517730713e-02 1.825181245803833008e-01 3.698673099279403687e-02 -1.757150748744606972e-03
4.280000000000000000e+03 1.234924793243408203e+01 6.813703536987304688e+00 1.190628036856651306e-01 3.618269860744476318e-01 1.442669332027435303e-01 -2.935108914971351624e-02
4.281000000000000000e+03 1.183432579040527344e+01 6.905142307281494141e+00 1.375646889209747314e-01 2.921621203422546387e-01 1.289180368185043335e-01 -5.277855321764945984e-02
4.282000000000000000e+03 3.471764755249023438e+01 3.244069290161132812e+01 6.521786004304885864e-02 8.572089672088623047e-02 4.528162628412246704e-02 6.799071282148361206e-02
4.283000000000000000e+03 3.492853164672851562e+01 3.150900077819824219e+01 5.646910518407821655e-02 9.065173566341400146e-02 4.413625225424766541e-02 6.281328201293945312e-02
4.284000000000000000e+03 9.005301475524902344e+00 8.193109512329101562e+00 1.393662542104721069e-01 3.023415338248014450e-03 4.271690174937248230e-02 -1.420470140874385834e-02
4.285000000000000000e+03 1.005011177062988281e+01 7.733213901519775391e+00 1.496519446372985840e-01 8.052022755146026611e-02 6.905164569616317749e-02 -4.074951261281967163e-02
4.286000000000000000e+03 3.567379760742187500e+01 -4.811320781707763672e+00 -5.556583404541015625e-02 8.109582066535949707e-01 2.266177088022232056e-01 -1.044183596968650818e-02
4.287000000000000000e+03 3.451269149780273438e+01 -4.281861782073974609e+00 -4.654223844408988953e-02 5.946400165557861328e-01 1.644293218851089478e-01 -1.242414931766688824e-03
4.288000000000000000e+03 9.808218955993652344e+00 -8.536853790283203125e+00 3.746069222688674927e-02 -1.733817756175994873e-01 -4.077632725238800049e-02 -2.646683156490325928e-01
4.289000000000000000e+03 9.545232772827148438e+00 -9.520200729370117188e+00 5.882950127124786377e-02 -1.764817833900451660e-01 -3.529568761587142944e-02 -2.428625226020812988e-01
4.290000000000000000e+03 1.347673892974853516e+01 -7.207493782043457031e+00 9.913739562034606934e-02 -1.570942103862762451e-01 -1.738704368472099304e-02 -2.586217522621154785e-01
4.291000000000000000e+03 3.816602706909179688e+01 3.457682800292968750e+01 9.096051007509231567e-02 6.430300325155258179e-02 4.657905176281929016e-02 6.199930980801582336e-02
4.292000000000000000e+03 6.806154632568359375e+01 -2.703835010528564453e+00 -2.437314987182617188e-01 7.546829700469970703e+00 2.190929412841796875e+00 -2.443620562553405762e-02
4.293000000000000000e+03 6.813530731201171875e+01 -3.707053184509277344e+00 -2.417128235101699829e-01 7.538972377777099609e+00 2.189177751541137695e+00 3.083491930738091469e-03
4.294000000000000000e+03 9.556726455688476562e+00 -1.106842422485351562e+01 8.539323508739471436e-02 -1.814739853143692017e-01 -2.882422506809234619e-02 -2.130348682403564453e-01
4.295000000000000000e+03 9.135925292968750000e+00 1.267458629608154297e+01 4.233705997467041016e-02 3.793615847826004028e-02 2.408196590840816498e-02 -1.104416232556104660e-02
4.296000000000000000e+03 1.076298904418945312e+01 1.460585594177246094e+01 2.468300051987171173e-02 7.798539102077484131e-02 3.080051764845848083e-02 4.439541138708591461e-03
4.297000000000000000e+03 3.715325927734375000e+01 3.465197753906250000e+01 5.549705401062965393e-02 8.863976597785949707e-02 4.324104636907577515e-02 5.620280280709266663e-02
4.298000000000000000e+03 7.668674468994140625e+00 1.007442760467529297e+01 8.279579877853393555e-02 -3.188451379537582397e-02 1.527338661253452301e-02 -3.680313238874077797e-03
4.299000000000000000e+03 1.088852405548095703e+01 2.024221992492675781e+01 -1.292438944801688194e-03 3.324678540229797363e-02 9.586304426193237305e-03 -1.509709982201457024e-03
4.300000000000000000e+03 6.825845336914062500e+01 -5.803533554077148438e+00 -2.079646885395050049e-01 7.551097869873046875e+00 2.202939987182617188e+00 5.895508080720901489e-02
4.301000000000000000e+03 3.858241653442382812e+01 -6.030837059020996094e+00 -9.975267201662063599e-02 1.436548471450805664e+00 4.010387361049652100e-01 -2.034363709390163422e-02
4.302000000000000000e+03 3.406027603149414062e+01 -3.575796365737915039e+00 -4.520533978939056396e-02 5.309046506881713867e-01 1.457097977399826050e-01 -2.222228431492112577e-05
4.303000000000000000e+03 1.307381916046142578e+01 -2.528649139404296875e+01 4.334795475006103516e-02 -6.686813384294509888e-02 -7.056052796542644501e-03 -9.651768952608108521e-02
4.304000000000000000e+03 6.911783599853515625e+01 1.860391044616699219e+01 -5.172924995422363281e-01 8.029150962829589844e+00 2.253557443618774414e+00 -1.138871431350708008e+00
4.305000000000000000e+03 6.908853149414062500e+01 1.474722576141357422e+01 -5.244069695472717285e-01 7.942635536193847656e+00 2.225468397140502930e+00 -8.561188578605651855e-01
4.306000000000000000e+03 4.459439849853515625e+01 -1.360276985168457031e+01 -2.618292272090911865e-01 2.934937477111816406e+00 8.019324541091918945e-01 -1.294279545545578003e-01
4.307000000000000000e+03 4.318146896362304688e+01 -1.191239738464355469e+01 -2.236848324537277222e-01 2.544523239135742188e+00 6.962515115737915039e-01 -1.139310821890830994e-01
4.308000000000000000e+03 1.114614486694335938e+01 1.684709358215332031e+01 1.049456559121608734e-02 6.649258732795715332e-02 2.309614606201648712e-02 6.002324633300304413e-03
4.309000000000000000e+03 1.010134696960449219e+01 1.703420066833496094e+01 8.082017302513122559e-03 4.112510755658149719e-02 1.476213801652193069e-02 -3.710447810590267181e-03
4.310000000000000000e+03 6.991921997070312500e+01 1.316460895538330078e+01 -4.472453594207763672e-01 7.941213607788085938e+00 2.248190402984619141e+00 -7.697551250457763672e-01
4.311000000000000000e+03 7.008987426757812500e+01 1.918456459045410156e+01 -4.382555484771728516e-01 7.970732212066650391e+00 2.259742975234985352e+00 -1.192165970802307129e+00
4.312000000000000000e+03 7.015878295898437500e+01 2.020808410644531250e+01 -4.032799005508422852e-01 7.957538127899169922e+00 2.266277551651000977e+00 -1.267437458038330078e+00
4.313000000000000000e+03 6.920714569091796875e+01 1.004420375823974609e+01 -4.381846189498901367e-01 7.860833644866943359e+00 2.226794719696044922e+00 -5.663805007934570312e-01
4.314000000000000000e+03 3.602474594116210938e+01 -5.617054939270019531e+00 -6.169522926211357117e-02 8.817819356918334961e-01 2.460260093212127686e-01 -1.304542459547519684e-02
4.315000000000000000e+03 6.825558471679687500e+01 3.850288152694702148e+00 -3.498857021331787109e-01 7.649495124816894531e+00 2.189882755279541016e+00 -2.480647265911102295e-01
4.316000000000000000e+03 9.004154205322265625e+00 8.858139991760253906e+00 1.161457672715187073e-01 1.325241941958665848e-02 3.881945461034774780e-02 -1.332943886518478394e-02
4.317000000000000000e+03 9.729844093322753906e+00 8.630876541137695312e+00 1.224227771162986755e-01 6.512670964002609253e-02 5.626484379172325134e-02 -2.584917470812797546e-02
4.318000000000000000e+03 1.147067260742187500e+01 -1.003139686584472656e+01 1.186916306614875793e-01 -1.517673730850219727e-01 -9.922723285853862762e-03 -2.270836532115936279e-01
4.319000000000000000e+03 1.155075836181640625e+01 -8.968012809753417969e+00 9.324241429567337036e-02 -1.596648693084716797e-01 -1.992673799395561218e-02 -2.442632615566253662e-01
4.320000000000000000e+03 1.035785293579101562e+01 -1.345247650146484375e+01 1.145717054605484009e-01 -1.545135378837585449e-01 -1.198254805058240891e-02 -1.753221899271011353e-01
4.321000000000000000e+03 6.844177246093750000e+01 -7.780337929725646973e-01 -2.554810941219329834e-01 7.625489711761474609e+00 2.211002588272094727e+00 -8.577440679073333740e-02
4.322000000000000000e+03 6.893786621093750000e+01 1.488334536552429199e-01 -2.605118155479431152e-01 7.709107398986816406e+00 2.234578609466552734e+00 -1.212948262691497803e-01
4.323000000000000000e+03 1.143083763122558594e+01 -1.220996665954589844e+01 1.305465251207351685e-01 -1.281182020902633667e-01 7.284966995939612389e-04 -1.851489096879959106e-01
4.324000000000000000e+03 6.784862518310546875e+01 2.364791297912597656e+01 -3.525674641132354736e-01 8.352736473083496094e+00 2.400050878524780273e+00 -1.476274847984313965e+00
4.325000000000000000e+03 4.233412933349609375e+01 -6.041234016418457031e+00 -1.757859885692596436e-01 2.278947830200195312e+00 6.309486031532287598e-01 3.431076183915138245e-03
4.326000000000000000e+03 7.011260986328125000e+01 1.220117855072021484e+01 -4.223237335681915283e-01 7.943929672241210938e+00 2.256481885910034180e+00 -7.092192769050598145e-01
4.327000000000000000e+03 1.007608413696289062e+01 1.001237869262695312e+01 8.255763351917266846e-02 9.279522299766540527e-02 5.260585620999336243e-02 -1.761393062770366669e-02
4.328000000000000000e+03 9.724987030029296875e+00 1.348708534240722656e+01 3.217303752899169922e-02 5.210365727543830872e-02 2.528300881385803223e-02 -4.807520657777786255e-03
4.329000000000000000e+03 1.156635761260986328e+01 2.331853294372558594e+01 -5.973946768790483475e-03 2.553871087729930878e-02 5.869429558515548706e-03 -2.946831809822469950e-04
4.330000000000000000e+03 6.877441406250000000e+01 -1.884864807128906250e+01 -7.294482737779617310e-02 7.532692909240722656e+00 2.237924337387084961e+00 2.990199625492095947e-01
4.331000000000000000e+03 6.987929534912109375e+01 -1.610914421081542969e+01 -8.414675295352935791e-02 7.738205432891845703e+00 2.296217679977416992e+00 2.473692744970321655e-01
4.332000000000000000e+03 1.015091609954833984e+01 -2.027822494506835938e+01 6.977769732475280762e-02 -1.697069406509399414e-01 -2.997877635061740875e-02 -1.088581383228302002e-01
4.333000000000000000e+03 1.461612892150878906e+01 -1.787534904479980469e+01 9.483567625284194946e-02 4.696083813905715942e-02 4.253895580768585205e-02 -1.306355744600296021e-01
4.334000000000000000e+03 6.891261291503906250e+01 2.512693405151367188e+00 -2.994235157966613770e-01 7.724063396453857422e+00 2.227391958236694336e+00 -2.046309262514114380e-01
4.335000000000000000e+03 1.118708896636962891e+01 2.174307632446289062e+01 -4.448866471648216248e-03 2.845386043190956116e-02 7.201497908681631088e-03 -1.125909504480659962e-03
4.336000000000000000e+03 1.198567581176757812e+01 2.498641777038574219e+01 -7.783599663525819778e-03 2.320794761180877686e-02 4.627304617315530777e-03 6.825078744441270828e-04
4.337000000000000000e+03 6.827925872802734375e+01 2.288757514953613281e+01 -3.889220058917999268e-01 8.235299110412597656e+00 2.353913307189941406e+00 -1.428388953208923340e+00
4.338000000000000000e+03 6.877869415283203125e+01 2.205756759643554688e+01 -4.154694974422454834e-01 8.151351928710937500e+00 2.320764780044555664e+00 -1.387360572814941406e+00
4.339000000000000000e+03 1.046981334686279297e+01 -1.471049976348876953e+01 9.556445479393005371e-02 -1.464418023824691772e-01 -1.526320632547140121e-02 -1.551163643598556519e-01
4.340000000000000000e+03 1.455867385864257812e+01 -1.913593292236328125e+01 9.647891670465469360e-02 3.740045800805091858e-02 4.016381502151489258e-02 -1.351573318243026733e-01
4.341000000000000000e+03 4.558894348144531250e+01 -1.646387481689453125e+01 -2.802126407623291016e-01 3.277706146240234375e+00 8.992480635643005371e-01 -1.584008634090423584e-01
4.342000000000000000e+03 4.544197463989257812e+01 -1.443894481658935547e+01 -2.785371840000152588e-01 3.182359933853149414e+00 8.711467981338500977e-01 -1.299109756946563721e-01
4.343000000000000000e+03 4.384303283691406250e+01 -1.274574661254882812e+01 -2.436024844646453857e-01 2.732904434204101562e+00 7.467905879020690918e-01 -1.232581436634063721e-01
4.344000000000000000e+03 4.372181320190429688e+01 -1.453312301635742188e+01 -2.447944432497024536e-01 2.726354122161865234e+00 7.444679141044616699e-01 -1.644762456417083740e-01
4.345000000000000000e+03 3.893003463745117188e+01 3.672459411621093750e+01 1.062004342675209045e-01 6.041513010859489441e-02 4.998466745018959045e-02 4.079193249344825745e-02
4.346000000000000000e+03 3.715582656860351562e+01 3.580411148071289062e+01 8.665573596954345703e-02 6.432520598173141479e-02 4.529428109526634216e-02 5.570501834154129028e-02
4.347000000000000000e+03 1.052010536193847656e+01 -1.011442470550537109e+01 8.978462219238281250e-02 -1.666073948144912720e-01 -2.304683066904544830e-02 -2.286184430122375488e-01
4.348000000000000000e+03 6.841302490234375000e+01 3.142629241943359375e+01 8.078013658523559570e-01 8.196689605712890625e+00 2.701347351074218750e+00 -1.358711838722229004e+00
4.349000000000000000e+03 6.821472930908203125e+01 3.411978912353515625e+01 1.092387914657592773e+00 8.337135314941406250e+00 2.828856945037841797e+00 -9.431754350662231445e-01
4.350000000000000000e+03 1.005149936676025391e+01 1.961664009094238281e+01 -5.569620407186448574e-04 1.840789243578910828e-02 5.355279427021741867e-03 -6.241854280233383179e-03
4.351000000000000000e+03 1.072060871124267578e+01 1.883058357238769531e+01 1.144105917774140835e-03 4.012645035982131958e-02 1.238116715103387833e-02 -1.805570675060153008e-03
4.352000000000000000e+03 1.313902378082275391e+01 -1.576223754882812500e+01 1.193795800209045410e-01 -2.530714124441146851e-02 2.822173200547695160e-02 -1.463786661624908447e-01
4.353000000000000000e+03 1.338251972198486328e+01 -1.796673774719238281e+01 1.006276607513427734e-01 -1.158073917031288147e-02 2.671407535672187805e-02 -1.351583749055862427e-01
4.354000000000000000e+03 6.744607543945312500e+01 -4.845145046710968018e-01 -2.984837591648101807e-01 7.469158172607421875e+00 2.151202440261840820e+00 -8.265844732522964478e-02
4.355000000000000000e+03 5.967769241333007812e+01 3.472168350219726562e+01 5.147616863250732422e+00 1.238451194763183594e+01 5.259638309478759766e+00 2.282762527465820312e-01
4.356000000000000000e+03 6.843492126464843750e+01 1.417360687255859375e+01 -5.593252182006835938e-01 7.916562080383300781e+00 2.207170963287353516e+00 -8.037350773811340332e-01
4.357000000000000000e+03 6.906452941894531250e+01 -1.800695061683654785e+00 -2.233354747295379639e-01 7.712858200073242188e+00 2.246856927871704102e+00 -5.907064676284790039e-02
4.358000000000000000e+03 6.929798126220703125e+01 -1.073925495147705078e+00 -2.308386266231536865e-01 7.758904457092285156e+00 2.258419752120971680e+00 -7.905368506908416748e-02
4.359000000000000000e+03 6.880448913574218750e+01 5.898958683013916016e+00 -3.686165213584899902e-01 7.752295494079589844e+00 2.215103626251220703e+00 -3.449677228927612305e-01
4.360000000000000000e+03 7.023033905029296875e+01 9.026068687438964844e+00 -3.599047362804412842e-01 7.939173221588134766e+00 2.273780584335327148e+00 -5.186880826950073242e-01
4.361000000000000000e+03 1.298653125762939453e+01 3.149127578735351562e+01 -7.150028366595506668e-03 9.125878103077411652e-03 5.927548045292496681e-04 8.356600883416831493e-04
4.362000000000000000e+03 1.162704753875732422e+01 3.283814620971679688e+01 -9.586769156157970428e-03 -1.062851678580045700e-02 -6.064585875719785690e-03 -2.003933070227503777e-03
4.363000000000000000e+03 6.851774597167968750e+01 -7.935421466827392578e+00 -1.780238598585128784e-01 7.580780982971191406e+00 2.220827102661132812e+00 1.047847419977188110e-01
4.364000000000000000e+03 6.488343811035156250e+01 -2.472135543823242188e+01 -2.202797681093215942e-02 6.924137592315673828e+00 2.070632934570312500e+00 3.937167227268218994e-01
4.365000000000000000e+03 6.401313781738281250e+01 -2.352356719970703125e+01 -3.904137015342712402e-02 6.825790405273437500e+00 2.036024808883666992e+00 3.671612441539764404e-01
4.366000000000000000e+03 5.090274047851562500e+01 -2.815767288208007812e+01 9.453774988651275635e-02 5.202455997467041016e+00 1.589098095893859863e+00 1.953871995210647583e-01
4.367000000000000000e+03 4.948919677734375000e+01 -1.858708381652832031e+01 -3.274866342544555664e-01 4.312965869903564453e+00 1.195643901824951172e+00 -2.694267034530639648e-02
4.368000000000000000e+03 6.820891571044921875e+01 -4.748605251312255859e+00 -2.179234623908996582e-01 7.541514873504638672e+00 2.197077512741088867e+00 3.486661985516548157e-02
4.369000000000000000e+03 5.266902160644531250e+01 -2.355728530883789062e+01 -1.790303140878677368e-01 5.187865257263183594e+00 1.502650499343872070e+00 1.850766092538833618e-01
4.370000000000000000e+03 5.047388076782226562e+01 -2.341028213500976562e+01 -2.248488068580627441e-01 4.812230587005615234e+00 1.376214504241943359e+00 6.331792473793029785e-02
4.371000000000000000e+03 6.938114929199218750e+01 -1.487781238555908203e+01 -1.017713025212287903e-01 7.675378322601318359e+00 2.272082090377807617e+00 2.338403165340423584e-01
4.372000000000000000e+03 6.986110687255859375e+01 5.724216461181640625e+00 -3.183624744415283203e-01 7.880377292633056641e+00 2.268604278564453125e+00 -3.481666445732116699e-01
4.373000000000000000e+03 6.854149627685546875e+01 2.501038742065429688e+01 -1.800756454467773438e-01 8.219590187072753906e+00 2.411854505538940430e+00 -1.553394794464111328e+00
4.374000000000000000e+03 1.102688598632812500e+01 -1.851262474060058594e+01 8.344016969203948975e-02 -1.249927729368209839e-01 -1.246577966958284378e-02 -1.239814162254333496e-01
4.375000000000000000e+03 1.352713775634765625e+01 -1.488600921630859375e+01 1.280714422464370728e-01 -9.906787425279617310e-03 3.544939681887626648e-02 -1.393787413835525513e-01
4.376000000000000000e+03 1.273339843750000000e+01 2.895597457885742188e+01 -7.754774764180183411e-03 1.538405381143093109e-02 2.288783900439739227e-03 1.371053280308842659e-03
4.377000000000000000e+03 5.410990142822265625e+01 3.048902130126953125e+01 1.351242303848266602e+00 7.854543685913085938e+00 2.761735916137695312e+00 3.919905424118041992e+00
4.378000000000000000e+03 5.444958114624023438e+01 3.057279396057128906e+01 1.172196984291076660e+00 8.669631004333496094e+00 2.952548503875732422e+00 3.903977870941162109e+00
4.379000000000000000e+03 2.617737197875976562e+01 9.595457911491394043e-01 -3.373577594757080078e-01 -1.698083579540252686e-01 -1.521498262882232666e-01 -1.250932365655899048e-01
4.380000000000000000e+03 2.897037887573242188e+01 3.233034133911132812e+00 -2.369242608547210693e-01 -1.210530400276184082e-01 -1.073931902647018433e-01 -1.758140474557876587e-01
4.381000000000000000e+03 5.438048934936523438e+01 3.184703254699707031e+01 2.076051950454711914e+00 8.505845069885253906e+00 3.174569129943847656e+00 4.945553302764892578e+00
4.382000000000000000e+03 2.777793884277343750e+01 2.075246810913085938e+00 -2.693908214569091797e-01 -1.564332544803619385e-01 -1.277472227811813354e-01 -1.477544754743576050e-01
4.383000000000000000e+03 4.270170593261718750e+01 1.811257743835449219e+01 -5.563136190176010132e-02 1.298709988594055176e+00 3.729235827922821045e-01 4.987402260303497314e-01
4.384000000000000000e+03 5.400524902343750000e+01 2.941989898681640625e+01 8.832089900970458984e-01 7.588100910186767578e+00 2.541393041610717773e+00 3.313247919082641602e+00
4.385000000000000000e+03 2.826769256591796875e+01 4.194810986518859863e-01 -2.068447917699813843e-01 -1.129867732524871826e-01 -9.594947099685668945e-02 -6.179540976881980896e-02
4.386000000000000000e+03 4.803346252441406250e+01 2.425928688049316406e+01 4.588214457035064697e-01 2.678162574768066406e+00 9.410952329635620117e-01 1.433970570564270020e+00
4.387000000000000000e+03 4.838076782226562500e+01 2.496813583374023438e+01 5.605146884918212891e-01 2.744897842407226562e+00 9.916237592697143555e-01 1.536056399345397949e+00
4.388000000000000000e+03 4.800500488281250000e+01 2.363903999328613281e+01 3.594223558902740479e-01 2.775973081588745117e+00 9.406186938285827637e-01 1.400192141532897949e+00
4.389000000000000000e+03 4.779670333862304688e+01 2.328750610351562500e+01 3.220801949501037598e-01 2.727860927581787109e+00 9.149823188781738281e-01 1.350666046142578125e+00
4.390000000000000000e+03 3.761490631103515625e+01 1.245239162445068359e+01 -2.799794375896453857e-01 5.209991335868835449e-01 7.230591028928756714e-02 5.023289099335670471e-02
4.391000000000000000e+03 5.354445266723632812e+01 2.997353172302246094e+01 1.367867827415466309e+00 6.724305152893066406e+00 2.427651882171630859e+00 3.553768634796142578e+00
4.392000000000000000e+03 4.035959625244140625e+01 1.633096694946289062e+01 -1.562535166740417480e-01 8.073396086692810059e-01 1.953258365392684937e-01 2.340671867132186890e-01
4.393000000000000000e+03 4.086292648315429688e+01 1.634147644042968750e+01 -1.456287056207656860e-01 9.484430551528930664e-01 2.408442944288253784e-01 2.935377061367034912e-01
4.394000000000000000e+03 4.929296112060546875e+01 2.537867546081542969e+01 5.812464356422424316e-01 3.274043798446655273e+00 1.156587123870849609e+00 1.736122250556945801e+00
4.395000000000000000e+03 4.860794830322265625e+01 2.523723983764648438e+01 6.039158701896667480e-01 2.843712329864501953e+00 1.034288525581359863e+00 1.599532008171081543e+00
4.396000000000000000e+03 4.490119934082031250e+01 2.017479705810546875e+01 5.958187580108642578e-02 1.834079742431640625e+00 5.680984854698181152e-01 8.059464097023010254e-01
4.397000000000000000e+03 2.584384918212890625e+01 2.114249038696289062e+01 6.928347796201705933e-02 1.259261816740036011e-01 5.856289714574813843e-02 9.416062384843826294e-02
4.398000000000000000e+03 4.536850357055664062e+01 2.065770339965820312e+01 9.442000091075897217e-02 1.956841111183166504e+00 6.153783798217773438e-01 8.798238635063171387e-01
4.399000000000000000e+03 4.460182189941406250e+01 2.034494209289550781e+01 7.824794203042984009e-02 1.688093900680541992e+00 5.299025774002075195e-01 7.671570181846618652e-01
4.400000000000000000e+03 5.536372375488281250e+01 3.133836746215820312e+01 8.800426721572875977e-01 1.147500228881835938e+01 3.706513643264770508e+00 3.917618989944458008e+00
4.401000000000000000e+03 1.583901691436767578e+01 1.172970294952392578e+01 7.451950013637542725e-02 2.233611643314361572e-01 8.936420083045959473e-02 1.125062853097915649e-01
4.402000000000000000e+03 1.783454704284667969e+01 1.341679191589355469e+01 8.214102685451507568e-02 1.918362677097320557e-01 8.219318836927413940e-02 1.225864961743354797e-01
4.403000000000000000e+03 4.957573699951171875e+01 2.557322883605957031e+01 6.005060672760009766e-01 3.439303636550903320e+00 1.211942911148071289e+00 1.811706542968750000e+00
4.404000000000000000e+03 4.424662399291992188e+01 1.974857521057128906e+01 3.667075559496879578e-02 1.634920001029968262e+00 5.014771819114685059e-01 7.138125896453857422e-01
4.405000000000000000e+03 3.756479644775390625e+01 1.301063823699951172e+01 -2.889890372753143311e-01 4.525712132453918457e-01 4.907464608550071716e-02 2.304655127227306366e-02
4.406000000000000000e+03 4.986983108520507812e+01 2.576814842224121094e+01 6.181452274322509766e-01 3.612946987152099609e+00 1.269327640533447266e+00 1.886130571365356445e+00
4.407000000000000000e+03 4.697033691406250000e+01 2.298616027832031250e+01 3.116632401943206787e-01 2.335261583328247070e+00 7.940774559974670410e-01 1.187506437301635742e+00
4.408000000000000000e+03 4.750412750244140625e+01 2.299785041809082031e+01 2.913919091224670410e-01 2.617923736572265625e+00 8.727946877479553223e-01 1.280131220817565918e+00
4.409000000000000000e+03 4.559860229492187500e+01 2.091212844848632812e+01 1.076087951660156250e-01 2.017110824584960938e+00 6.374158859252929688e-01 9.140174984931945801e-01
4.410000000000000000e+03 4.527010345458984375e+01 2.113689422607421875e+01 1.359862834215164185e-01 1.842952132225036621e+00 5.936815142631530762e-01 8.726124763488769531e-01
4.411000000000000000e+03 3.735840606689453125e+01 1.224498462677001953e+01 -2.882682979106903076e-01 4.831370413303375244e-01 5.846062675118446350e-02 2.921362221240997314e-02
4.412000000000000000e+03 2.112323188781738281e+01 1.657642364501953125e+01 7.927543669939041138e-02 1.572176218032836914e-01 7.094791531562805176e-02 1.107699573040008545e-01
4.413000000000000000e+03 2.616606903076171875e+01 1.291708827018737793e+00 -3.566760420799255371e-01 -1.839229911565780640e-01 -1.621797084808349609e-01 -1.499715000391006470e-01
4.414000000000000000e+03 5.217926025390625000e+01 2.842860221862792969e+01 1.094321370124816895e+00 5.156352996826171875e+00 1.875202298164367676e+00 2.748442173004150391e+00
4.415000000000000000e+03 5.333942031860351562e+01 2.881423377990722656e+01 8.968380093574523926e-01 6.562287330627441406e+00 2.237737655639648438e+00 3.038722038269042969e+00
4.416000000000000000e+03 4.010393905639648438e+01 1.604876518249511719e+01 -1.706870198249816895e-01 7.705317139625549316e-01 1.799534112215042114e-01 2.117240577936172485e-01
4.417000000000000000e+03 4.086994552612304688e+01 1.581088447570800781e+01 -1.599036604166030884e-01 1.006281495094299316e+00 2.539133429527282715e-01 3.037084937095642090e-01
4.418000000000000000e+03 1.762063026428222656e+01 1.442591953277587891e+01 6.797689199447631836e-02 1.809151023626327515e-01 7.466759532690048218e-02 1.055009588599205017e-01
4.419000000000000000e+03 2.001380920410156250e+01 1.518391227722167969e+01 8.645725995302200317e-02 1.677612960338592529e-01 7.626556605100631714e-02 1.183654069900512695e-01
4.420000000000000000e+03 2.171042823791503906e+01 1.765933799743652344e+01 7.083164155483245850e-02 1.488113403320312500e-01 6.589289009571075439e-02 1.045896261930465698e-01
4.421000000000000000e+03 5.060800933837890625e+01 2.680361366271972656e+01 7.997189164161682129e-01 3.984457969665527344e+00 1.435253024101257324e+00 2.136265516281127930e+00
4.422000000000000000e+03 3.817725372314453125e+01 1.411145591735839844e+01 -2.592113018035888672e-01 4.885250926017761230e-01 6.879413872957229614e-02 4.866696521639823914e-02
4.423000000000000000e+03 2.568249702453613281e+01 2.076464462280273438e+01 6.783567368984222412e-02 1.258872151374816895e-01 5.811686813831329346e-02 9.775721281766891479e-02
4.424000000000000000e+03 4.471460723876953125e+01 1.991463661193847656e+01 4.270733147859573364e-02 1.792258620262145996e+00 5.504897832870483398e-01 7.773215770721435547e-01
4.425000000000000000e+03 2.236623954772949219e+01 1.791354560852050781e+01 7.467338442802429199e-02 1.461825221776962280e-01 6.625677645206451416e-02 1.069938838481903076e-01
4.426000000000000000e+03 2.161568260192871094e+01 1.811555671691894531e+01 6.803993135690689087e-02 1.464734226465225220e-01 6.435400992631912231e-02 1.010023951530456543e-01
4.427000000000000000e+03 3.842357635498046875e+01 1.372090911865234375e+01 -2.503604888916015625e-01 5.967127084732055664e-01 1.039056703448295593e-01 8.762534707784652710e-02
4.428000000000000000e+03 4.580501174926757812e+01 2.118429946899414062e+01 1.300899088382720947e-01 2.073843717575073242e+00 6.611800789833068848e-01 9.520803689956665039e-01
4.429000000000000000e+03 5.092437744140625000e+01 2.706356620788574219e+01 8.385825753211975098e-01 4.212423801422119141e+00 1.515301942825317383e+00 2.236445903778076172e+00
4.430000000000000000e+03 4.411937713623046875e+01 1.941717529296875000e+01 1.351238414645195007e-02 1.632820367813110352e+00 4.938998520374298096e-01 6.932287812232971191e-01
4.431000000000000000e+03 2.320622253417968750e+01 1.947754478454589844e+01 6.786162406206130981e-02 1.361894011497497559e-01 6.121530756354331970e-02 9.745513647794723511e-02
4.432000000000000000e+03 3.877021026611328125e+01 1.405188941955566406e+01 -2.372313290834426880e-01 6.424221992492675781e-01 1.215572655200958252e-01 1.185942590236663818e-01
4.433000000000000000e+03 1.414749431610107422e+01 1.112376594543457031e+01 5.967926606535911560e-02 2.330740392208099365e-01 8.782599121332168579e-02 7.893021404743194580e-02
4.434000000000000000e+03 3.984296035766601562e+01 1.575937271118164062e+01 -1.834631562232971191e-01 7.333020567893981934e-01 1.649516671895980835e-01 1.863228231668472290e-01
4.435000000000000000e+03 4.061253738403320312e+01 1.607161331176757812e+01 -1.585184037685394287e-01 9.092732667922973633e-01 2.252264469861984253e-01 2.704181969165802002e-01
4.436000000000000000e+03 5.114223861694335938e+01 2.666162109375000000e+01 6.907277703285217285e-01 4.463860988616943359e+00 1.546376585960388184e+00 2.213074684143066406e+00
4.437000000000000000e+03 4.721926116943359375e+01 2.274388122558593750e+01 2.682713270187377930e-01 2.506394863128662109e+00 8.323998451232910156e-01 1.220047116279602051e+00
4.438000000000000000e+03 4.844115829467773438e+01 2.323028564453125000e+01 2.728487551212310791e-01 3.082520008087158203e+00 1.006610631942749023e+00 1.437808156013488770e+00
4.439000000000000000e+03 2.077779388427734375e+01 1.639414596557617188e+01 7.905086129903793335e-02 1.578986197710037231e-01 7.108484208583831787e-02 1.109168827533721924e-01
4.440000000000000000e+03 3.716794586181640625e+01 1.194309902191162109e+01 -2.917370796203613281e-01 4.706275463104248047e-01 5.366714298725128174e-02 3.006055764853954315e-02
4.441000000000000000e+03 3.925759887695312500e+01 1.464058685302734375e+01 -2.173622399568557739e-01 7.003992795944213867e-01 1.449111104011535645e-01 1.519815325736999512e-01
4.442000000000000000e+03 3.903894424438476562e+01 1.495266056060791016e+01 -2.220599055290222168e-01 6.095089912414550781e-01 1.162347272038459778e-01 1.190314590930938721e-01
4.443000000000000000e+03 4.457558059692382812e+01 1.962993431091308594e+01 2.260063961148262024e-02 1.772946357727050781e+00 5.386641025543212891e-01 7.532134652137756348e-01
4.444000000000000000e+03 5.017454528808593750e+01 2.597245025634765625e+01 6.378859281539916992e-01 3.797059297561645508e+00 1.330483555793762207e+00 1.963681101799011230e+00
4.445000000000000000e+03 4.600804519653320312e+01 2.146366119384765625e+01 1.556131243705749512e-01 2.123902559280395508e+00 6.838546991348266602e-01 9.890335798263549805e-01
4.446000000000000000e+03 5.201794815063476562e+01 2.737908172607421875e+01 7.470722794532775879e-01 5.174381732940673828e+00 1.776436209678649902e+00 2.484678983688354492e+00
4.447000000000000000e+03 5.119020080566406250e+01 2.737754821777343750e+01 8.925181031227111816e-01 4.388616085052490234e+00 1.584340214729309082e+00 2.333809852600097656e+00
4.448000000000000000e+03 2.277312850952148438e+01 1.871685409545898438e+01 6.940517574548721313e-02 1.411458402872085571e-01 6.316530704498291016e-02 1.003624051809310913e-01
4.449000000000000000e+03 1.917711257934570312e+01 1.493067932128906250e+01 8.014385402202606201e-02 1.717931181192398071e-01 7.558108866214752197e-02 1.146896630525588989e-01
4.450000000000000000e+03 5.048750686645507812e+01 2.619322586059570312e+01 6.563153266906738281e-01 3.998405456542968750e+00 1.396416187286376953e+00 2.039625167846679688e+00
4.451000000000000000e+03 5.080831527709960938e+01 2.642852210998535156e+01 6.720853447914123535e-01 4.206745624542236328e+00 1.463649392127990723e+00 2.125775575637817383e+00
4.452000000000000000e+03 1.698914718627929688e+01 1.478160476684570312e+01 5.577441677451133728e-02 1.744048893451690674e-01 6.905379146337509155e-02 9.380301088094711304e-02
4.453000000000000000e+03 2.269898986816406250e+01 1.814543914794921875e+01 7.528238743543624878e-02 1.439640223979949951e-01 6.577392667531967163e-02 1.046686321496963501e-01
4.454000000000000000e+03 2.464463615417480469e+01 1.968840789794921875e+01 7.409769296646118164e-02 1.319212466478347778e-01 6.180568039417266846e-02 1.013580113649368286e-01
4.455000000000000000e+03 2.530122947692871094e+01 2.075009727478027344e+01 6.864071637392044067e-02 1.277743279933929443e-01 5.892451480031013489e-02 9.627864509820938110e-02
4.456000000000000000e+03 1.985383796691894531e+01 1.645898246765136719e+01 7.004106044769287109e-02 1.595176607370376587e-01 6.886761635541915894e-02 1.036047488451004028e-01
4.457000000000000000e+03 4.388930892944335938e+01 1.883414840698242188e+01 -2.058431133627891541e-02 1.620172381401062012e+00 4.798764288425445557e-01 6.537597179412841797e-01
4.458000000000000000e+03 4.397435760498046875e+01 1.911832618713378906e+01 -4.196873924229294062e-04 1.622018933296203613e+00 4.864797592163085938e-01 6.712967753410339355e-01
4.459000000000000000e+03 5.264828109741210938e+01 2.835894584655761719e+01 9.480258822441101074e-01 5.715298175811767578e+00 1.998997330665588379e+00 2.816434860229492188e+00
4.460000000000000000e+03 1.806944274902343750e+01 1.377157783508300781e+01 8.127041161060333252e-02 1.869267672300338745e-01 8.045915514230728149e-02 1.182338148355484009e-01
4.461000000000000000e+03 2.992551422119140625e+01 2.685804557800292969e+01 5.296893790364265442e-02 1.011493131518363953e-01 4.623547568917274475e-02 7.987315952777862549e-02
4.462000000000000000e+03 3.212778091430664062e+01 2.870639419555664062e+01 5.647471919655799866e-02 9.517421573400497437e-02 4.549467936158180237e-02 7.078785449266433716e-02
4.463000000000000000e+03 3.668098831176757812e+01 1.181511116027832031e+01 -3.136218190193176270e-01 3.790670335292816162e-01 1.963356323540210724e-02 -1.403018925338983536e-02
4.464000000000000000e+03 2.494579505920410156e+01 2.052228927612304688e+01 6.765028834342956543e-02 1.291702389717102051e-01 5.904616042971611023e-02 9.500640630722045898e-02
4.465000000000000000e+03 3.955027770996093750e+01 1.489166831970214844e+01 -2.098543941974639893e-01 7.464712858200073242e-01 1.609850674867630005e-01 1.753270775079727173e-01
4.466000000000000000e+03 3.982674407958984375e+01 1.519103050231933594e+01 -1.953889131546020508e-01 7.953008413314819336e-01 1.799735724925994873e-01 1.986536234617233276e-01
4.467000000000000000e+03 5.699882507324218750e+01 3.125846672058105469e+01 4.694073200225830078e-01 1.371137809753417969e+01 4.254235744476318359e+00 1.288933753967285156e+00
4.468000000000000000e+03 4.670452499389648438e+01 2.273031806945800781e+01 2.846113741397857666e-01 2.244866609573364258e+00 7.588434219360351562e-01 1.133992552757263184e+00
4.469000000000000000e+03 3.800949859619140625e+01 1.252031421661376953e+01 -2.682479321956634521e-01 6.051964759826660156e-01 1.010845601558685303e-01 8.421511948108673096e-02
4.470000000000000000e+03 2.434982299804687500e+01 2.063371467590332031e+01 6.232282146811485291e-02 1.302684992551803589e-01 5.777739360928535461e-02 9.272874146699905396e-02
4.471000000000000000e+03 2.427260589599609375e+01 1.999024772644042969e+01 6.954476237297058105e-02 1.328596919775009155e-01 6.072133779525756836e-02 9.677910804748535156e-02
4.472000000000000000e+03 4.622422790527343750e+01 2.173714447021484375e+01 1.777030825614929199e-01 2.182870864868164062e+00 7.081722021102905273e-01 1.029298901557922363e+00
4.473000000000000000e+03 4.669686508178710938e+01 2.225055885314941406e+01 2.243471741676330566e-01 2.317967176437377930e+00 7.626942992210388184e-01 1.120016574859619141e+00
4.474000000000000000e+03 2.046056938171386719e+01 1.674044990539550781e+01 7.134508341550827026e-02 1.570245325565338135e-01 6.851089000701904297e-02 1.046059727668762207e-01
4.475000000000000000e+03 2.059595870971679688e+01 1.563302326202392578e+01 8.636180311441421509e-02 1.627601981163024902e-01 7.473660260438919067e-02 1.176771596074104309e-01
4.476000000000000000e+03 3.040571784973144531e+01 3.516607761383056641e+00 -1.735539287328720093e-01 3.798847785219550133e-03 -5.092652514576911926e-02 -1.579734086990356445e-01
4.477000000000000000e+03 2.120413208007812500e+01 1.758735656738281250e+01 6.985189765691757202e-02 1.500838994979858398e-01 6.598073989152908325e-02 1.024410426616668701e-01
4.478000000000000000e+03 2.085066986083984375e+01 1.700548553466796875e+01 7.218863070011138916e-02 1.541505306959152222e-01 6.790174543857574463e-02 1.057216152548789978e-01
4.479000000000000000e+03 1.255828571319580078e+01 7.059749603271484375e+00 1.044149398803710938e-01 3.769904673099517822e-01 1.444216221570968628e-01 -1.008350774645805359e-02
4.480000000000000000e+03 1.625541114807128906e+01 1.177657794952392578e+01 7.968454807996749878e-02 2.231832295656204224e-01 9.086032956838607788e-02 1.212222725152969360e-01
4.481000000000000000e+03 1.349526500701904297e+01 8.791771888732910156e+00 7.673366367816925049e-02 3.097590506076812744e-01 1.159478127956390381e-01 6.969977170228958130e-02
4.482000000000000000e+03 3.486016082763671875e+01 9.573016166687011719e+00 -3.258020281791687012e-01 2.146321386098861694e-01 -3.335096687078475952e-02 -5.010485649108886719e-02
4.483000000000000000e+03 3.694230651855468750e+01 1.159917736053466797e+01 -2.941505014896392822e-01 4.546789824962615967e-01 4.815854877233505249e-02 2.247339300811290741e-02
4.484000000000000000e+03 4.233169937133789062e+01 1.763909339904785156e+01 -8.164394646883010864e-02 1.235163331031799316e+00 3.460558354854583740e-01 4.530207216739654541e-01
4.485000000000000000e+03 4.352802276611328125e+01 1.850244903564453125e+01 -3.703772649168968201e-02 1.535854816436767578e+00 4.496451020240783691e-01 6.068034768104553223e-01
4.486000000000000000e+03 5.935949325561523438e+01 3.291853332519531250e+01 3.403755426406860352e+00 1.282988166809082031e+01 4.870090961456298828e+00 -1.153687238693237305e+00
4.487000000000000000e+03 2.787047195434570312e+01 2.728902101516723633e-01 -2.186603397130966187e-01 -1.223341003060340881e-01 -1.022983342409133911e-01 -3.800213709473609924e-02
4.488000000000000000e+03 3.569692230224609375e+01 1.013199520111083984e+01 -3.130300641059875488e-01 3.203410804271697998e-01 2.193307038396596909e-03 -1.615529321134090424e-02
4.489000000000000000e+03 5.289787292480468750e+01 2.862465095520019531e+01 9.742938280105590820e-01 6.007192134857177734e+00 2.094445705413818359e+00 2.935038089752197266e+00
4.490000000000000000e+03 3.314218139648437500e+01 4.642940044403076172e+00 -8.377726376056671143e-02 2.175890207290649414e-01 4.014352709054946899e-02 -8.405156433582305908e-02
4.491000000000000000e+03 4.311293029785156250e+01 1.853772163391113281e+01 -3.289844840764999390e-02 1.388402462005615234e+00 4.066511988639831543e-01 5.548409819602966309e-01
4.492000000000000000e+03 1.272868442535400391e+01 7.338978290557861328e+00 9.378340095281600952e-02 3.694455325603485107e-01 1.389686763286590576e-01 1.431625615805387497e-02
4.493000000000000000e+03 1.305473041534423828e+01 7.977544307708740234e+00 8.121259510517120361e-02 3.442981541156768799e-01 1.276532262563705444e-01 4.639095067977905273e-02
4.494000000000000000e+03 1.316117572784423828e+01 8.352369308471679688e+00 7.994512468576431274e-02 3.314282000064849854e-01 1.234119981527328491e-01 5.320691689848899841e-02
4.495000000000000000e+03 1.729915809631347656e+01 1.261278152465820312e+01 8.425996452569961548e-02 2.049046158790588379e-01 8.674937486648559570e-02 1.253327876329421997e-01
4.496000000000000000e+03 2.891855049133300781e+01 2.293662786483764648e+00 -2.017810344696044922e-01 -9.633237123489379883e-02 -8.943402022123336792e-02 -1.288435608148574829e-01
4.497000000000000000e+03 1.650122642517089844e+01 1.230394649505615234e+01 7.741077244281768799e-02 2.134141921997070312e-01 8.724749088287353516e-02 1.178818568587303162e-01
4.498000000000000000e+03 2.302574729919433594e+01 1.834892463684082031e+01 7.680841535329818726e-02 1.415761411190032959e-01 6.551536917686462402e-02 1.066703200340270996e-01
4.499000000000000000e+03 5.557698440551757812e+01 3.051400566101074219e+01 4.201081395149230957e-01 1.103735446929931641e+01 3.437238693237304688e+00 3.138694763183593750e+00
4.500000000000000000e+03 3.063975143432617188e+01 2.665206336975097656e+01 5.974532663822174072e-02 9.973241388797760010e-02 4.784332215785980225e-02 8.227679133415222168e-02
4.501000000000000000e+03 2.942192649841308594e+01 2.726564216613769531e+01 5.433164536952972412e-02 1.027605235576629639e-01 4.712765291333198547e-02 7.017507404088973999e-02
4.502000000000000000e+03 1.688665199279785156e+01 1.245655918121337891e+01 8.069559931755065918e-02 2.086361050605773926e-01 8.679950982332229614e-02 1.223619431257247925e-01
4.503000000000000000e+03 1.501389122009277344e+01 1.120418453216552734e+01 6.723811477422714233e-02 2.375516295433044434e-01 9.143692255020141602e-02 1.012102738022804260e-01
4.504000000000000000e+03 3.663837051391601562e+01 1.123627662658691406e+01 -3.044758141040802002e-01 4.227204918861389160e-01 3.547340258955955505e-02 1.027307845652103424e-02
4.505000000000000000e+03 2.684761047363281250e+01 5.239457488059997559e-01 -2.885329723358154297e-01 -1.564247459173202515e-01 -1.334873139858245850e-01 -8.306258171796798706e-02
4.506000000000000000e+03 2.748346900939941406e+01 1.780433952808380127e-01 -2.565081119537353516e-01 -1.393733769655227661e-01 -1.187644451856613159e-01 -5.355978757143020630e-02
4.507000000000000000e+03 3.050405311584472656e+01 2.716585159301757812e+01 4.604067280888557434e-02 1.036768183112144470e-01 4.491524770855903625e-02 7.574862986803054810e-02
4.508000000000000000e+03 2.787262535095214844e+01 2.491430091857910156e+01 5.085053294897079468e-02 1.121016293764114380e-01 4.888565093278884888e-02 8.122972398996353149e-02
4.509000000000000000e+03 1.420788955688476562e+01 1.021191501617431641e+01 6.771153956651687622e-02 2.614642679691314697e-01 9.875274449586868286e-02 8.989308774471282959e-02
4.510000000000000000e+03 3.125786399841308594e+01 3.656215429306030273e+00 -1.397146880626678467e-01 7.274057716131210327e-02 -2.009223401546478271e-02 -1.490254998207092285e-01
4.511000000000000000e+03 2.932356643676757812e+01 2.574538993835449219e+01 5.191063135862350464e-02 1.040309667587280273e-01 4.678247869014739990e-02 8.307190239429473877e-02
4.512000000000000000e+03 1.145585632324218750e+01 7.860094070434570312e+00 1.179092526435852051e-01 2.165182679891586304e-01 1.003282591700553894e-01 -3.525777161121368408e-02
4.513000000000000000e+03 2.648200035095214844e+01 2.135471916198730469e+01 7.218793034553527832e-02 1.228270009160041809e-01 5.850447714328765869e-02 9.420516341924667358e-02
4.514000000000000000e+03 2.623233985900878906e+01 2.226300430297851562e+01 5.782758444547653198e-02 1.219498887658119202e-01 5.393324047327041626e-02 8.922303467988967896e-02
4.515000000000000000e+03 2.842829322814941406e+01 1.036947607994079590e+00 -2.060931622982025146e-01 -1.118669733405113220e-01 -9.538803994655609131e-02 -9.089038521051406860e-02
4.516000000000000000e+03 2.696628952026367188e+01 2.458946418762207031e+01 4.340818896889686584e-02 1.150042191147804260e-01 4.752372205257415771e-02 7.973068207502365112e-02
4.517000000000000000e+03 3.471947097778320312e+01 7.441119670867919922e+00 -1.831233203411102295e-01 3.127215206623077393e-01 3.887946158647537231e-02 8.588803932070732117e-03
4.518000000000000000e+03 3.403351593017578125e+01 7.279355049133300781e+00 -1.795184165239334106e-01 2.006952017545700073e-01 6.353035569190979004e-03 -2.334241382777690887e-02
4.519000000000000000e+03 5.981144332885742188e+01 3.322117233276367188e+01 3.641506195068359375e+00 1.234368324279785156e+01 4.795557022094726562e+00 -1.082693696022033691e+00
4.520000000000000000e+03 6.059679794311523438e+01 3.427560043334960938e+01 4.015750885009765625e+00 1.151669692993164062e+01 4.659734249114990234e+00 -3.511234819889068604e-01
4.521000000000000000e+03 6.001007461547851562e+01 3.443894958496093750e+01 4.551452159881591797e+00 1.217579650878906250e+01 5.018174648284912109e+00 -1.044517308473587036e-01
4.522000000000000000e+03 3.537142944335937500e+01 1.052657222747802734e+01 -3.503326177597045898e-01 2.285538762807846069e-01 -3.653362393379211426e-02 -6.245381012558937073e-02
4.523000000000000000e+03 5.856610488891601562e+01 3.247703170776367188e+01 2.615224123001098633e+00 1.387051105499267578e+01 4.945720672607421875e+00 -1.024367809295654297e+00
4.524000000000000000e+03 5.893395996093750000e+01 3.269547653198242188e+01 3.056820869445800781e+00 1.341853046417236328e+01 4.942605495452880859e+00 -1.174199104309082031e+00
4.525000000000000000e+03 2.613147735595703125e+01 2.343679237365722656e+01 5.272883549332618713e-02 1.169004663825035095e-01 5.088879168033599854e-02 8.535854518413543701e-02
4.526000000000000000e+03 2.646846389770507812e+01 2.289889526367187500e+01 5.464062467217445374e-02 1.199221983551979065e-01 5.236884579062461853e-02 8.536743372678756714e-02
4.527000000000000000e+03 2.863897323608398438e+01 2.539238166809082031e+01 4.883987456560134888e-02 1.074231863021850586e-01 4.687891900539398193e-02 8.308633416891098022e-02
4.528000000000000000e+03 2.819232177734375000e+01 2.528612327575683594e+01 5.101865157485008240e-02 1.085632443428039551e-01 4.787456989288330078e-02 8.034448325634002686e-02
4.529000000000000000e+03 3.313785934448242188e+01 3.142444610595703125e+01 5.102357268333435059e-02 8.922025561332702637e-02 4.207314923405647278e-02 6.390094757080078125e-02
4.530000000000000000e+03 3.263151931762695312e+01 2.961262512207031250e+01 5.008440092206001282e-02 9.655158966779708862e-02 4.399079456925392151e-02 6.893473863601684570e-02
4.531000000000000000e+03 3.531591796875000000e+01 1.023227882385253906e+01 -3.377239108085632324e-01 2.450280785560607910e-01 -2.780874632298946381e-02 -5.344579368829727173e-02
4.532000000000000000e+03 3.571914291381835938e+01 9.147465705871582031e+00 -2.644755244255065918e-01 3.998816907405853271e-01 4.062185063958168030e-02 2.514431625604629517e-02
4.533000000000000000e+03 3.500610733032226562e+01 8.943452835083007812e+00 -2.771730422973632812e-01 2.811619341373443604e-01 1.196665456518530846e-03 -1.005793176591396332e-02
4.534000000000000000e+03 3.447749328613281250e+01 8.101641654968261719e+00 -2.323726862668991089e-01 2.358709722757339478e-01 1.049484359100461006e-03 -1.369541976600885391e-02
4.535000000000000000e+03 3.221835327148437500e+01 3.424645185470581055e+00 -1.012697070837020874e-01 1.727127879858016968e-01 2.143292687833309174e-02 -1.052749231457710266e-01
4.536000000000000000e+03 3.148412132263183594e+01 2.718174552917480469e+01 6.315470486879348755e-02 9.803248196840286255e-02 4.835615679621696472e-02 7.725653052330017090e-02
4.537000000000000000e+03 4.197730255126953125e+01 1.715143585205078125e+01 -1.029703542590141296e-01 1.188274502754211426e+00 3.255912661552429199e-01 4.138914942741394043e-01
4.538000000000000000e+03 1.962277984619140625e+01 1.579624176025390625e+01 7.281158119440078735e-02 1.645817756652832031e-01 7.121800631284713745e-02 1.087195128202438354e-01
4.539000000000000000e+03 2.624734878540039062e+01 2.189091682434082031e+01 6.551399081945419312e-02 1.225502789020538330e-01 5.641927942633628845e-02 9.164919704198837280e-02
4.540000000000000000e+03 1.668377304077148438e+01 1.289483737945556641e+01 7.132826745510101318e-02 2.025703787803649902e-01 8.216959238052368164e-02 1.112234443426132202e-01
4.541000000000000000e+03 3.296711349487304688e+01 -2.619991779327392578e+00 -3.831948712468147278e-02 3.568358719348907471e-01 9.555491805076599121e-02 1.099157147109508514e-02
4.542000000000000000e+03 2.943681144714355469e+01 1.975111365318298340e+00 -1.744020730257034302e-01 -5.108454823493957520e-02 -6.764598935842514038e-02 -1.052059829235076904e-01
4.543000000000000000e+03 3.452018737792968750e+01 5.757074832916259766e+00 -1.005296334624290466e-01 3.657342195510864258e-01 7.956137508153915405e-02 -3.119604894891381264e-03
4.544000000000000000e+03 3.036264228820800781e+01 3.197650671005249023e+00 -1.780959218740463257e-01 6.458506453782320023e-03 -5.149122700095176697e-02 -1.464428752660751343e-01
4.545000000000000000e+03 1.041578102111816406e+01 8.272069931030273438e+00 1.236762031912803650e-01 1.177565753459930420e-01 7.242983579635620117e-02 -3.445998206734657288e-02
4.546000000000000000e+03 9.553256034851074219e+00 8.081011772155761719e+00 1.391805708408355713e-01 4.273940995335578918e-02 5.457599461078643799e-02 -2.461768500506877899e-02
4.547000000000000000e+03 1.123709964752197266e+01 7.128982543945312500e+00 1.506453007459640503e-01 2.083921879529953003e-01 1.077112480998039246e-01 -5.829353258013725281e-02
4.548000000000000000e+03 3.281087493896484375e+01 -2.068617582321166992e+00 -4.460063949227333069e-02 3.363036513328552246e-01 8.751089870929718018e-02 4.207205958664417267e-03
4.549000000000000000e+03 3.224251937866210938e+01 -8.468512892723083496e-01 -5.562195926904678345e-02 2.596475481986999512e-01 6.120767816901206970e-02 -1.090363785624504089e-02
4.550000000000000000e+03 3.539680862426757812e+01 -3.915823936462402344e+00 -4.754144698381423950e-02 7.599583268165588379e-01 2.137250602245330811e-01 1.527384505607187748e-03
4.551000000000000000e+03 3.220637130737304688e+01 3.415396118164062500e+01 5.288347974419593811e-02 8.898800611495971680e-02 4.256144538521766663e-02 4.430142790079116821e-02
4.552000000000000000e+03 3.360510253906250000e+01 -2.606627702713012695e+00 -4.580230265855789185e-02 4.400189518928527832e-01 1.182649955153465271e-01 3.766175359487533569e-03
4.553000000000000000e+03 3.040098381042480469e+01 2.893431663513183594e+00 -1.550078094005584717e-01 1.642651297152042389e-02 -4.157438501715660095e-02 -1.309544891119003296e-01
4.554000000000000000e+03 3.043223381042480469e+01 -3.953669965267181396e-01 -9.852528572082519531e-02 4.441485553979873657e-02 -1.623312756419181824e-02 -2.231876365840435028e-02
4.555000000000000000e+03 1.160732841491699219e+01 7.305610179901123047e+00 1.293046176433563232e-01 2.483854144811630249e-01 1.133070066571235657e-01 -4.747687280178070068e-02
4.556000000000000000e+03 3.647414779663085938e+01 -4.541941642761230469e+00 -5.994739010930061340e-02 9.671366214752197266e-01 2.721567749977111816e-01 4.676782991737127304e-04
4.557000000000000000e+03 3.529032897949218750e+01 -2.973125219345092773e+00 -4.380065202713012695e-02 7.294780611991882324e-01 2.057032287120819092e-01 4.367879591882228851e-03
4.558000000000000000e+03 9.165080070495605469e+00 9.605021476745605469e+00 9.638583660125732422e-02 3.501389920711517334e-02 3.941991925239562988e-02 -1.625493541359901428e-02
4.559000000000000000e+03 3.184041595458984375e+01 2.934205627441406250e+01 5.306365713477134705e-02 9.455768018960952759e-02 4.428640007972717285e-02 7.079865783452987671e-02
4.560000000000000000e+03 1.140610980987548828e+01 1.494572734832763672e+01 2.059835940599441528e-02 9.289282560348510742e-02 3.404735401272773743e-02 1.059103757143020630e-02
4.561000000000000000e+03 1.145284366607666016e+01 1.940469360351562500e+01 7.543107494711875916e-04 4.996733367443084717e-02 1.521649397909641266e-02 3.972362726926803589e-03
4.562000000000000000e+03 6.725493621826171875e+01 4.139929294586181641e+00 -3.992407917976379395e-01 7.519809722900390625e+00 2.136170625686645508e+00 -2.396366596221923828e-01
4.563000000000000000e+03 6.690366363525390625e+01 3.191744804382324219e+00 -3.868909180164337158e-01 7.450575351715087891e+00 2.119105339050292969e+00 -1.992933899164199829e-01
4.564000000000000000e+03 1.093728351593017578e+01 1.394616794586181641e+01 2.574149705469608307e-02 8.979817479848861694e-02 3.466190025210380554e-02 4.752164706587791443e-03
4.565000000000000000e+03 3.436272430419921875e+01 3.361168670654296875e+01 5.527662485837936401e-02 8.842202275991439819e-02 4.310959577560424805e-02 5.018937215209007263e-02
4.566000000000000000e+03 1.066844367980957031e+01 1.754426765441894531e+01 5.949857179075479507e-03 5.000149086117744446e-02 1.678540371358394623e-02 2.388210414210334420e-04
4.567000000000000000e+03 6.811012268066406250e+01 1.275896263122558594e+01 -5.606549382209777832e-01 7.859364032745361328e+00 2.189612865447998047e+00 -7.049496173858642578e-01
4.568000000000000000e+03 1.371663284301757812e+01 1.070953941345214844e+01 5.840258300304412842e-02 2.367641180753707886e-01 8.855000883340835571e-02 6.797140091657638550e-02
4.569000000000000000e+03 6.927513122558593750e+01 2.009031867980957031e+01 -4.729529321193695068e-01 8.051580429077148438e+00 2.273588180541992188e+00 -1.254201769828796387e+00
4.570000000000000000e+03 6.908486175537109375e+01 2.103187942504882812e+01 -4.455312788486480713e-01 8.081437110900878906e+00 2.290771722793579102e+00 -1.319701671600341797e+00
4.571000000000000000e+03 6.817041778564453125e+01 2.061196327209472656e+01 -5.370183587074279785e-01 8.187839508056640625e+00 2.295246124267578125e+00 -1.267389297485351562e+00
4.572000000000000000e+03 1.150078773498535156e+01 -1.333678436279296875e+01 1.171660423278808594e-01 -1.119414642453193665e-01 1.567373052239418030e-03 -1.670320481061935425e-01
4.573000000000000000e+03 1.002655696868896484e+01 1.203384494781494141e+01 4.980000481009483337e-02 7.657651603221893311e-02 3.791295737028121948e-02 -5.158517975360155106e-03
4.574000000000000000e+03 6.959567260742187500e+01 1.402580547332763672e+01 -4.825870990753173828e-01 7.942209720611572266e+00 2.237886667251586914e+00 -8.181168437004089355e-01
4.575000000000000000e+03 6.882982635498046875e+01 1.363019752502441406e+01 -5.233926773071289062e-01 7.911843776702880859e+00 2.216535329818725586e+00 -7.801633477210998535e-01
4.576000000000000000e+03 6.840671539306640625e+01 1.536496353149414062e+01 -5.803667306900024414e-01 7.955907344818115234e+00 2.212662220001220703e+00 -8.792254328727722168e-01
4.577000000000000000e+03 3.785122680664062500e+01 -5.742077827453613281e+00 -8.890979737043380737e-02 1.254891037940979004e+00 3.497943878173828125e-01 -1.079675927758216858e-02
4.578000000000000000e+03 3.885025405883789062e+01 -5.200675487518310547e+00 -9.825510531663894653e-02 1.509033799171447754e+00 4.232335984706878662e-01 -4.591722507029771805e-03
4.579000000000000000e+03 6.577220153808593750e+01 -3.065167903900146484e+00 -3.001076281070709229e-01 7.176069259643554688e+00 2.062788486480712891e+00 1.040822081267833710e-02
4.580000000000000000e+03 6.835427093505859375e+01 -6.862458229064941406e+00 -1.918392926454544067e-01 7.560417175292968750e+00 2.210573434829711914e+00 8.002280443906784058e-02
4.581000000000000000e+03 9.259219169616699219e+00 -1.215938472747802734e+01 9.301735460758209229e-02 -1.899177581071853638e-01 -2.907011844217777252e-02 -1.983935236930847168e-01
4.582000000000000000e+03 4.235239410400390625e+01 -1.032102584838867188e+01 -1.985635012388229370e-01 2.346080780029296875e+00 6.442551612854003906e-01 -8.351587504148483276e-02
4.583000000000000000e+03 3.806667327880859375e+01 -4.922001838684082031e+00 -7.963941246271133423e-02 1.297284841537475586e+00 3.652936220169067383e-01 -5.205789580941200256e-03
4.584000000000000000e+03 6.754987335205078125e+01 5.104586601257324219e+00 -4.066020548343658447e-01 7.578603744506835938e+00 2.151600360870361328e+00 -2.867181301116943359e-01
4.585000000000000000e+03 6.898550415039062500e+01 6.940661430358886719e+00 -3.846886754035949707e-01 7.789336204528808594e+00 2.221394300460815430e+00 -3.965348303318023682e-01
4.586000000000000000e+03 1.129247093200683594e+01 1.807966613769531250e+01 4.769823048263788223e-03 5.860073119401931763e-02 1.901116594672203064e-02 5.187925882637500763e-03
4.587000000000000000e+03 6.699805450439453125e+01 -1.586515784263610840e+00 -2.871104776859283447e-01 7.382391452789306641e+00 2.128584384918212891e+00 -4.232773184776306152e-02
4.588000000000000000e+03 6.741798400878906250e+01 2.231227302551269531e+01 -4.988980889320373535e-01 8.349545478820800781e+00 2.355194330215454102e+00 -1.351596474647521973e+00
4.589000000000000000e+03 3.825625228881835938e+01 3.872204208374023438e+01 1.152841895818710327e-01 4.985385015606880188e-02 4.954141378402709961e-02 3.447381034493446350e-02
4.590000000000000000e+03 3.561071014404296875e+01 3.561426544189453125e+01 6.058580800890922546e-02 8.416280895471572876e-02 4.342458769679069519e-02 4.415109008550643921e-02
4.591000000000000000e+03 1.211402034759521484e+01 2.232295799255371094e+01 -3.688029712066054344e-03 4.071317985653877258e-02 1.110754534602165222e-02 4.856832791119813919e-03
4.592000000000000000e+03 9.697160720825195312e+00 -1.020102500915527344e+01 8.463598042726516724e-02 -1.805248856544494629e-01 -2.876666933298110962e-02 -2.318511456251144409e-01
4.593000000000000000e+03 6.823695373535156250e+01 2.642457389831542969e+01 2.104274183511734009e-02 8.305913925170898438e+00 2.498087167739868164e+00 -1.600409030914306641e+00
4.594000000000000000e+03 6.567329406738281250e+01 2.609560585021972656e+01 -1.437386572360992432e-01 8.957775115966796875e+00 2.644210815429687500e+00 -1.497893214225769043e+00
4.595000000000000000e+03 1.515707302093505859e+01 2.393111038208007812e+01 -8.098984253592789173e-04 7.056318968534469604e-02 2.092598751187324524e-02 2.114455029368400574e-02
4.596000000000000000e+03 6.845443725585937500e+01 1.509057641029357910e+00 -3.019156157970428467e-01 7.649714469909667969e+00 2.204339742660522461e+00 -1.610100716352462769e-01
4.597000000000000000e+03 6.718976593017578125e+01 -7.061823844909667969e+00 -2.164843529462814331e-01 7.374056339263916016e+00 2.147271633148193359e+00 9.026120603084564209e-02
4.598000000000000000e+03 6.944430541992187500e+01 -6.616993427276611328e+00 -1.787512451410293579e-01 7.735740184783935547e+00 2.267096757888793945e+00 6.823519617319107056e-02
4.599000000000000000e+03 6.781955718994140625e+01 2.146735382080078125e+01 -5.185343623161315918e-01 8.258961677551269531e+00 2.322128295898437500e+00 -1.309139728546142578e+00
4.600000000000000000e+03 4.213978576660156250e+01 -7.706864833831787109e+00 -1.831589639186859131e-01 2.232045173645019531e+00 6.146658658981323242e-01 -3.641328588128089905e-02
4.601000000000000000e+03 4.090816116333007812e+01 -5.756370544433593750e+00 -1.443419903516769409e-01 1.939867496490478516e+00 5.386576652526855469e-01 -6.562988739460706711e-03
4.602000000000000000e+03 1.305624389648437500e+01 2.567787170410156250e+01 -6.725588347762823105e-03 3.460394963622093201e-02 8.363508619368076324e-03 6.164133548736572266e-03
4.603000000000000000e+03 4.639077758789062500e+01 -1.519559288024902344e+01 -2.955432832241058350e-01 3.437932491302490234e+00 9.427167773246765137e-01 -1.033879816532135010e-01
4.604000000000000000e+03 4.147731399536132812e+01 -1.074492549896240234e+01 -1.819949746131896973e-01 2.109591007232666016e+00 5.782788395881652832e-01 -9.718954563140869141e-02
4.605000000000000000e+03 4.291086578369140625e+01 -8.651020050048828125e+00 -2.081334590911865234e-01 2.449735879898071289e+00 6.724807620048522949e-01 -5.053049698472023010e-02
4.606000000000000000e+03 1.920376968383789062e+01 -2.914802742004394531e+01 9.937236458063125610e-02 1.526967585086822510e-01 7.562074065208435059e-02 -1.267487704753875732e-01
4.607000000000000000e+03 6.590170288085937500e+01 -1.755844116210937500e+01 -1.287827193737030029e-01 7.108010292053222656e+00 2.093768119812011719e+00 3.043167591094970703e-01
4.608000000000000000e+03 6.678700256347656250e+01 -1.879467010498046875e+01 -9.754882007837295532e-02 7.234580039978027344e+00 2.141109466552734375e+00 3.098657131195068359e-01
4.609000000000000000e+03 1.356313991546630859e+01 2.766675949096679688e+01 -7.250290364027023315e-03 3.118710219860076904e-02 7.181043270975351334e-03 6.895497441291809082e-03
4.610000000000000000e+03 6.563191223144531250e+01 -1.988853073120117188e+01 -1.025030687451362610e-01 7.053148746490478516e+00 2.085193634033203125e+00 3.402187228202819824e-01
4.611000000000000000e+03 6.760090637207031250e+01 2.779629898071289062e+01 2.380641251802444458e-01 8.485748291015625000e+00 2.617143630981445312e+00 -1.618960142135620117e+00
4.612000000000000000e+03 6.704328155517578125e+01 -1.660453605651855469e+01 -1.243188902735710144e-01 7.285614490509033203e+00 2.148388624191284180e+00 2.800674438476562500e-01
4.613000000000000000e+03 6.836753845214843750e+01 -1.047235870361328125e+01 -1.513539552688598633e-01 7.558147430419921875e+00 2.222038030624389648e+00 1.632383614778518677e-01
4.614000000000000000e+03 6.869113159179687500e+01 -1.357162284851074219e+01 -1.289829462766647339e-01 7.577826499938964844e+00 2.234652996063232422e+00 2.194699048995971680e-01
4.615000000000000000e+03 1.220617866516113281e+01 -1.817526626586914062e+01 8.118434250354766846e-02 -7.452124357223510742e-02 1.998931169509887695e-03 -1.285981833934783936e-01
4.616000000000000000e+03 1.309723186492919922e+01 -2.009508514404296875e+01 7.525102794170379639e-02 -3.071049600839614868e-02 1.336215995252132416e-02 -1.271293908357620239e-01
4.617000000000000000e+03 6.812902069091796875e+01 -1.729838371276855469e+00 -2.562707960605621338e-01 7.570215225219726562e+00 2.194183349609375000e+00 -5.113342031836509705e-02
4.618000000000000000e+03 6.733208465576171875e+01 2.008939743041992188e+01 -6.250736117362976074e-01 8.234627723693847656e+00 2.282866239547729492e+00 -1.172385454177856445e+00
4.619000000000000000e+03 1.570184421539306641e+01 -2.053122329711914062e+01 8.874477446079254150e-02 8.069489151239395142e-02 5.083189904689788818e-02 -1.388942003250122070e-01
4.620000000000000000e+03 6.774097442626953125e+01 1.460010719299316406e+01 -6.073572039604187012e-01 7.910777091979980469e+00 2.191025972366333008e+00 -8.029019832611083984e-01
4.621000000000000000e+03 1.310825824737548828e+01 -2.713909530639648438e+01 5.545334145426750183e-02 -7.968620955944061279e-02 -7.269861642271280289e-03 -9.515726566314697266e-02
4.622000000000000000e+03 6.723546600341796875e+01 3.255474853515625000e+01 1.149068832397460938e+00 8.599591255187988281e+00 2.924598217010498047e+00 -1.178050994873046875e+00
4.623000000000000000e+03 6.809136962890625000e+01 8.052839279174804688e+00 -4.546704888343811035e-01 7.712774276733398438e+00 2.177431106567382812e+00 -4.341482818126678467e-01
4.624000000000000000e+03 6.918643951416015625e+01 1.104397392272949219e+01 -4.623996019363403320e-01 7.877375602722167969e+00 2.224492788314819336e+00 -6.254472136497497559e-01
4.625000000000000000e+03 6.745610046386718750e+01 1.881851911544799805e+00 -3.392572700977325439e-01 7.508263111114501953e+00 2.150701761245727539e+00 -1.635757386684417725e-01
4.626000000000000000e+03 5.270396423339843750e+01 -2.141500282287597656e+01 -2.448373138904571533e-01 5.090640544891357422e+00 1.453740954399108887e+00 1.647679507732391357e-01
4.627000000000000000e+03 5.165758895874023438e+01 -2.238197708129882812e+01 -2.392863929271697998e-01 4.963348388671875000e+00 1.417218565940856934e+00 1.450629830360412598e-01
4.628000000000000000e+03 4.890781784057617188e+01 -1.727964401245117188e+01 -3.201953172683715820e-01 4.108723163604736328e+00 1.136558294296264648e+00 -4.239096119999885559e-02
4.629000000000000000e+03 6.707954406738281250e+01 -3.826005458831787109e+00 -2.546196579933166504e-01 7.362728118896484375e+00 2.132432460784912109e+00 1.819708570837974548e-02
4.630000000000000000e+03 4.536530303955078125e+01 -1.265865516662597656e+01 -2.770124673843383789e-01 3.121975660324096680e+00 8.534889817237854004e-01 -9.587083756923675537e-02
4.631000000000000000e+03 4.390701675415039062e+01 -1.110899066925048828e+01 -2.372960895299911499e-01 2.733486652374267578e+00 7.488571405410766602e-01 -8.272480219602584839e-02
4.632000000000000000e+03 6.607649993896484375e+01 -2.383483123779296875e+01 -1.824428141117095947e-02 7.090855598449707031e+00 2.121783494949340820e+00 3.507253229618072510e-01
4.633000000000000000e+03 5.500643539428710938e+01 3.120468902587890625e+01 1.101728200912475586e+00 1.030667304992675781e+01 3.422520399093627930e+00 4.149340629577636719e+00
4.634000000000000000e+03 5.433633041381835938e+01 3.095274925231933594e+01 1.461506247520446777e+00 8.416743278503417969e+00 2.963474750518798828e+00 4.193299293518066406e+00
4.635000000000000000e+03 2.801060676574707031e+01 1.797127842903137207e+00 -2.348816692829132080e-01 -1.515194922685623169e-01 -1.159203499555587769e-01 -1.367346942424774170e-01
4.636000000000000000e+03 5.787954330444335938e+01 3.256177902221679688e+01 2.430377721786499023e+00 1.493040180206298828e+01 5.208233833312988281e+00 -6.571106314659118652e-01
4.637000000000000000e+03 2.728318405151367188e+01 1.746717810630798340e+00 -2.892098724842071533e-01 -1.701049208641052246e-01 -1.377944350242614746e-01 -1.494363695383071899e-01
4.638000000000000000e+03 2.686590576171875000e+01 1.827251672744750977e+00 -2.983390688896179199e-01 -1.862938702106475830e-01 -1.453898847103118896e-01 -1.637146621942520142e-01
4.639000000000000000e+03 5.607205200195312500e+01 3.138973426818847656e+01 5.349227786064147949e-01 1.319991588592529297e+01 4.120451450347900391e+00 2.798128604888916016e+00
4.640000000000000000e+03 2.969742393493652344e+01 3.256733417510986328e+00 -2.058057039976119995e-01 -5.466061830520629883e-02 -7.813990116119384766e-02 -1.616666913032531738e-01
4.641000000000000000e+03 2.699744415283203125e+01 7.258894443511962891e-01 -2.847364246845245361e-01 -1.586692035198211670e-01 -1.330216974020004272e-01 -7.903837412595748901e-02
4.642000000000000000e+03 4.829516601562500000e+01 2.438608360290527344e+01 4.678844809532165527e-01 2.803360462188720703e+00 9.813734889030456543e-01 1.495932579040527344e+00
4.643000000000000000e+03 5.478615570068359375e+01 3.066687583923339844e+01 9.986942410469055176e-01 9.469197273254394531e+00 3.140367269515991211e+00 3.869257688522338867e+00
4.644000000000000000e+03 4.944239425659179688e+01 2.506980323791503906e+01 5.051276683807373047e-01 3.445276021957397461e+00 1.185121059417724609e+00 1.743278861045837402e+00
4.645000000000000000e+03 4.889762115478515625e+01 2.475237464904785156e+01 4.813783466815948486e-01 3.136334896087646484e+00 1.085313916206359863e+00 1.616399526596069336e+00
4.646000000000000000e+03 3.761739730834960938e+01 1.213660526275634766e+01 -2.739325761795043945e-01 5.574828982353210449e-01 8.506508916616439819e-02 6.529724597930908203e-02
4.647000000000000000e+03 3.847908401489257812e+01 1.249612331390380859e+01 -2.538096010684967041e-01 7.215439081192016602e-01 1.403203010559082031e-01 1.298374235630035400e-01
4.648000000000000000e+03 3.802870559692382812e+01 1.294557666778564453e+01 -2.648801207542419434e-01 5.718380212783813477e-01 9.208736568689346313e-02 7.502241432666778564e-02
4.649000000000000000e+03 4.808255386352539062e+01 2.298216247558593750e+01 2.587537765502929688e-01 2.932136297225952148e+00 9.572669863700866699e-01 1.374090313911437988e+00
4.650000000000000000e+03 4.774826812744140625e+01 2.271418571472167969e+01 2.369696497917175293e-01 2.785743474960327148e+00 9.068139195442199707e-01 1.304815292358398438e+00
4.651000000000000000e+03 4.862530136108398438e+01 2.478369712829589844e+01 5.108696222305297852e-01 2.921693325042724609e+00 1.029768824577331543e+00 1.562456846237182617e+00
4.652000000000000000e+03 4.314130401611328125e+01 1.809669876098632812e+01 -5.741529539227485657e-02 1.452905416488647461e+00 4.186470210552215576e-01 5.571847558021545410e-01
4.653000000000000000e+03 4.973042678833007812e+01 2.523661422729492188e+01 5.163846611976623535e-01 3.612122297286987305e+00 1.238552093505859375e+00 1.811373353004455566e+00
4.654000000000000000e+03 5.385815429687500000e+01 3.006238174438476562e+01 1.272549510002136230e+00 7.301965236663818359e+00 2.572354316711425781e+00 3.651491641998291016e+00
4.655000000000000000e+03 2.508634757995605469e+01 2.109713363647460938e+01 6.281053274869918823e-02 1.278815716505050659e-01 5.720763280987739563e-02 9.207274764776229858e-02
4.656000000000000000e+03 4.956753158569335938e+01 2.477817726135253906e+01 4.391061365604400635e-01 3.572918176651000977e+00 1.203607320785522461e+00 1.738553166389465332e+00
4.657000000000000000e+03 4.498378372192382812e+01 1.978800010681152344e+01 2.565305307507514954e-02 1.917026042938232422e+00 5.828037261962890625e-01 8.064488768577575684e-01
4.658000000000000000e+03 3.854047775268554688e+01 1.292932796478271484e+01 -2.505449354648590088e-01 6.969529986381530762e-01 1.339224129915237427e-01 1.225012242794036865e-01
4.659000000000000000e+03 3.788103866577148438e+01 1.358449649810791016e+01 -2.777573168277740479e-01 4.618518650531768799e-01 5.522837117314338684e-02 3.591465577483177185e-02
4.660000000000000000e+03 2.739467430114746094e+01 5.627524852752685547e-01 -2.517943680286407471e-01 -1.447733640670776367e-01 -1.189703196287155151e-01 -6.332355737686157227e-02
4.661000000000000000e+03 4.596377944946289062e+01 2.066713142395019531e+01 7.949451357126235962e-02 2.216382026672363281e+00 6.887629628181457520e-01 9.652340412139892578e-01
4.662000000000000000e+03 2.111673355102539062e+01 1.804604148864746094e+01 6.161518022418022156e-02 1.476148962974548340e-01 6.276902556419372559e-02 9.796302020549774170e-02
4.663000000000000000e+03 5.356539535522460938e+01 2.830895423889160156e+01 6.193045377731323242e-01 6.891983985900878906e+00 2.253386497497558594e+00 2.861499786376953125e+00
4.664000000000000000e+03 3.864767456054687500e+01 1.333810806274414062e+01 -2.486830353736877441e-01 6.780425906181335449e-01 1.288078725337982178e-01 1.214520037174224854e-01
4.665000000000000000e+03 3.835598373413085938e+01 1.396123313903808594e+01 -2.512847781181335449e-01 5.542226433753967285e-01 9.088136255741119385e-02 7.343428581953048706e-02
4.666000000000000000e+03 1.766930580139160156e+01 1.374969196319580078e+01 7.526765018701553345e-02 1.874590665102005005e-01 7.881801575422286987e-02 1.137457489967346191e-01
4.667000000000000000e+03 3.174937629699707031e+01 3.992820739746093750e+00 -1.206101402640342712e-01 1.025144979357719421e-01 -5.428691860288381577e-03 -1.455812007188796997e-01
4.668000000000000000e+03 4.694995880126953125e+01 2.249808692932128906e+01 2.474860996007919312e-01 2.404756307601928711e+00 7.956727147102355957e-01 1.165651679039001465e+00
4.669000000000000000e+03 4.838825225830078125e+01 2.400843620300292969e+01 3.943099677562713623e-01 2.936362028121948242e+00 9.992015957832336426e-01 1.483521699905395508e+00
4.670000000000000000e+03 4.035769653320312500e+01 1.579205131530761719e+01 -1.704317182302474976e-01 8.704136013984680176e-01 2.099945694208145142e-01 2.463181167840957642e-01
4.671000000000000000e+03 4.060893630981445312e+01 1.554181766510009766e+01 -1.693991869688034058e-01 9.710416197776794434e-01 2.404927313327789307e-01 2.816748619079589844e-01
4.672000000000000000e+03 5.185636901855468750e+01 2.768519783020019531e+01 8.839074969291687012e-01 4.949727535247802734e+00 1.750090479850769043e+00 2.516540288925170898e+00
4.673000000000000000e+03 2.678051757812500000e+01 9.331026673316955566e-01 -2.962280809879302979e-01 -1.637590229511260986e-01 -1.379961371421813965e-01 -1.165239959955215454e-01
4.674000000000000000e+03 5.229716873168945312e+01 2.757460975646972656e+01 7.453352212905883789e-01 5.425458908081054688e+00 1.851238250732421875e+00 2.553669452667236328e+00
4.675000000000000000e+03 5.147209167480468750e+01 2.719312095642089844e+01 7.909638881683349609e-01 4.663411617279052734e+00 1.636312603950500488e+00 2.354436159133911133e+00
4.676000000000000000e+03 3.853080749511718750e+01 1.413497352600097656e+01 -2.472419142723083496e-01 5.789585113525390625e-01 9.951497614383697510e-02 8.713047206401824951e-02
4.677000000000000000e+03 1.227009201049804688e+01 7.267688751220703125e+00 1.063208207488059998e-01 3.296099603176116943e-01 1.307792365550994873e-01 -1.631290093064308167e-02
4.678000000000000000e+03 4.487270355224609375e+01 1.954599571228027344e+01 1.139226835221052170e-02 1.901233792304992676e+00 5.737878084182739258e-01 7.890233397483825684e-01
4.679000000000000000e+03 5.175211334228515625e+01 2.722367477416992188e+01 7.389936447143554688e-01 4.954648494720458984e+00 1.708092570304870605e+00 2.408369302749633789e+00
4.680000000000000000e+03 1.813654899597167969e+01 1.432150745391845703e+01 7.339291274547576904e-02 1.807530820369720459e-01 7.624379545450210571e-02 1.131112724542617798e-01
4.681000000000000000e+03 1.872529792785644531e+01 1.430894947052001953e+01 8.315441012382507324e-02 1.786367595195770264e-01 7.853735238313674927e-02 1.186678782105445862e-01
4.682000000000000000e+03 4.630240631103515625e+01 2.127577590942382812e+01 1.271724551916122437e-01 2.290217399597167969e+00 7.252169847488403320e-01 1.029125332832336426e+00
4.683000000000000000e+03 5.545969009399414062e+01 3.090212059020996094e+01 6.199182271957397461e-01 1.118401145935058594e+01 3.541178941726684570e+00 3.459532260894775391e+00
4.684000000000000000e+03 3.896541213989257812e+01 1.445364379882812500e+01 -2.274580448865890503e-01 6.492043733596801758e-01 1.265239119529724121e-01 1.259171515703201294e-01
4.685000000000000000e+03 3.909007644653320312e+01 1.412673568725585938e+01 -2.288466393947601318e-01 7.163291573524475098e-01 1.462447643280029297e-01 1.461024582386016846e-01
4.686000000000000000e+03 2.340698242187500000e+01 1.906620216369628906e+01 7.049041986465454102e-02 1.386717855930328369e-01 6.274866312742233276e-02 1.005536839365959167e-01
4.687000000000000000e+03 5.003361892700195312e+01 2.540179824829101562e+01 5.226171016693115234e-01 3.793936252593994141e+00 1.294965982437133789e+00 1.878340721130371094e+00
4.688000000000000000e+03 5.130100631713867188e+01 2.625796127319335938e+01 5.489619970321655273e-01 4.655976772308349609e+00 1.561481595039367676e+00 2.173133373260498047e+00
4.689000000000000000e+03 4.275705718994140625e+01 1.764631271362304688e+01 -7.815546542406082153e-02 1.379588842391967773e+00 3.904300332069396973e-01 5.074794292449951172e-01
4.690000000000000000e+03 5.150036621093750000e+01 2.679001426696777344e+01 6.756284832954406738e-01 4.774868011474609375e+00 1.635149002075195312e+00 2.296888828277587891e+00
4.691000000000000000e+03 5.260105133056640625e+01 2.778223609924316406e+01 7.344069480895996094e-01 5.759463787078857422e+00 1.948161244392395020e+00 2.648603916168212891e+00
4.692000000000000000e+03 5.238785934448242188e+01 2.811620140075683594e+01 9.263332486152648926e-01 5.457834720611572266e+00 1.915250420570373535e+00 2.715458869934082031e+00
4.693000000000000000e+03 4.391597366333007812e+01 1.849529647827148438e+01 -3.655274212360382080e-02 1.670794010162353516e+00 4.902724027633666992e-01 6.583189368247985840e-01
4.694000000000000000e+03 4.449016952514648438e+01 1.931590461730957031e+01 3.977667074650526047e-03 1.781499981880187988e+00 5.356432795524597168e-01 7.378798723220825195e-01
4.695000000000000000e+03 5.035064697265625000e+01 2.558865356445312500e+01 5.264940857887268066e-01 3.996610879898071289e+00 1.356931567192077637e+00 1.948542952537536621e+00
4.696000000000000000e+03 5.067472457885742188e+01 2.580533981323242188e+01 5.402900576591491699e-01 4.208148956298828125e+00 1.424531698226928711e+00 2.025998353958129883e+00
4.697000000000000000e+03 5.099781417846679688e+01 2.604074096679687500e+01 5.542606115341186523e-01 4.438014984130859375e+00 1.497682690620422363e+00 2.106704235076904297e+00
4.698000000000000000e+03 5.161970901489257812e+01 2.634277725219726562e+01 5.072488188743591309e-01 4.942501544952392578e+00 1.634925127029418945e+00 2.214734315872192383e+00
4.699000000000000000e+03 4.009391403198242188e+01 1.549727725982666016e+01 -1.825419217348098755e-01 8.335533738136291504e-01 1.953034400939941406e-01 2.239648699760437012e-01
4.700000000000000000e+03 4.115781784057617188e+01 1.553794002532958984e+01 -1.627452671527862549e-01 1.127849459648132324e+00 2.895312607288360596e-01 3.430425226688385010e-01
4.701000000000000000e+03 4.649050521850585938e+01 2.154348945617675781e+01 1.536863744258880615e-01 2.336738109588623047e+00 7.471273541450500488e-01 1.068183660507202148e+00
4.702000000000000000e+03 2.937197303771972656e+01 3.996159434318542480e-01 -1.523962020874023438e-01 -3.768032789230346680e-02 -5.702295899391174316e-02 -4.207769036293029785e-02
4.703000000000000000e+03 2.394933891296386719e+01 2.063703155517578125e+01 6.223984435200691223e-02 1.314256489276885986e-01 5.809964612126350403e-02 9.141267836093902588e-02
4.704000000000000000e+03 2.458058547973632812e+01 2.028079414367675781e+01 6.790251284837722778e-02 1.306315809488296509e-01 5.956022441387176514e-02 9.737157076597213745e-02
4.705000000000000000e+03 4.135752105712890625e+01 1.633438110351562500e+01 -1.404800713062286377e-01 1.094758152961730957e+00 2.862834036350250244e-01 3.517110645771026611e-01
4.706000000000000000e+03 1.444269371032714844e+01 1.167805671691894531e+01 5.628687515854835510e-02 2.199630439281463623e-01 8.287497609853744507e-02 8.068095892667770386e-02
4.707000000000000000e+03 4.007516860961914062e+01 1.493001747131347656e+01 -1.962423771619796753e-01 8.929019570350646973e-01 2.089978605508804321e-01 2.336587309837341309e-01
4.708000000000000000e+03 1.998190307617187500e+01 1.695763587951660156e+01 6.256651878356933594e-02 1.557501703500747681e-01 6.549500674009323120e-02 1.000817120075225830e-01
4.709000000000000000e+03 5.637759017944335938e+01 3.141913414001464844e+01 4.947344362735748291e-01 1.358853721618652344e+01 4.224981307983398438e+00 2.310004472732543945e+00
4.710000000000000000e+03 2.406870841979980469e+01 1.966799163818359375e+01 6.987840682268142700e-02 1.331431567668914795e-01 6.090646609663963318e-02 9.971689432859420776e-02
4.711000000000000000e+03 1.185702896118164062e+01 6.379153728485107422e+00 1.573635339736938477e-01 3.185741603374481201e-01 1.427813172340393066e-01 -7.614993304014205933e-02
4.712000000000000000e+03 4.645552444458007812e+01 2.199848556518554688e+01 2.000246793031692505e-01 2.247476816177368164e+00 7.342504262924194336e-01 1.074638962745666504e+00
4.713000000000000000e+03 2.470813560485839844e+01 2.085393142700195312e+01 6.377359479665756226e-02 1.288034915924072266e-01 5.777312815189361572e-02 9.468113631010055542e-02
4.714000000000000000e+03 3.577265167236328125e+01 1.052706241607666016e+01 -3.281994760036468506e-01 3.033976852893829346e-01 -7.440539076924324036e-03 -3.347878158092498779e-02
4.715000000000000000e+03 3.797103118896484375e+01 1.210230827331542969e+01 -2.660595178604125977e-01 6.400957703590393066e-01 1.122108697891235352e-01 9.356451779603958130e-02
4.716000000000000000e+03 4.837527084350585938e+01 2.360507392883300781e+01 3.299398422241210938e-01 2.992405176162719727e+00 9.967035055160522461e-01 1.453300833702087402e+00
4.717000000000000000e+03 3.527464675903320312e+01 9.346881866455078125e+00 -2.921563088893890381e-01 3.022403717041015625e-01 3.025213722139596939e-03 -9.937814436852931976e-03
4.718000000000000000e+03 3.702124404907226562e+01 1.098453330993652344e+01 -2.826442718505859375e-01 5.159663558006286621e-01 6.999663263559341431e-02 5.080816149711608887e-02
4.719000000000000000e+03 4.180959701538085938e+01 1.623064231872558594e+01 -1.379354447126388550e-01 1.233632206916809082e+00 3.287090361118316650e-01 4.006449878215789795e-01
4.720000000000000000e+03 1.325632286071777344e+01 1.024229907989501953e+01 6.007229536771774292e-02 2.427993863821029663e-01 9.086150676012039185e-02 5.513946712017059326e-02
4.721000000000000000e+03 1.307092952728271484e+01 8.743330955505371094e+00 7.276113331317901611e-02 3.019562065601348877e-01 1.124152019619941711e-01 4.798568040132522583e-02
4.722000000000000000e+03 2.066160583496093750e+01 1.749862670898437500e+01 6.320878863334655762e-02 1.518192738294601440e-01 6.450841575860977173e-02 9.947416186332702637e-02
4.723000000000000000e+03 2.006870460510253906e+01 1.748868942260742188e+01 6.109026446938514709e-02 1.516571640968322754e-01 6.382422894239425659e-02 9.555661678314208984e-02
4.724000000000000000e+03 5.466658782958984375e+01 3.107694625854492188e+01 1.272713422775268555e+00 9.330611228942871094e+00 3.180997371673583984e+00 4.212307453155517578e+00
4.725000000000000000e+03 5.313361358642578125e+01 2.833175277709960938e+01 7.894636988639831543e-01 6.357674598693847656e+00 2.144141435623168945e+00 2.882057666778564453e+00
4.726000000000000000e+03 2.026244163513183594e+01 1.640505409240722656e+01 7.229258865118026733e-02 1.589620709419250488e-01 6.937639415264129639e-02 1.074662804603576660e-01
4.727000000000000000e+03 1.330874919891357422e+01 9.735966682434082031e+00 6.728063523769378662e-02 2.637021243572235107e-01 9.929483383893966675e-02 5.767010152339935303e-02
4.728000000000000000e+03 3.065641403198242188e+01 3.049831151962280273e+00 -1.544717550277709961e-01 3.235710412263870239e-02 -3.663439303636550903e-02 -1.347030103206634521e-01
4.729000000000000000e+03 1.257737350463867188e+01 1.230855083465576172e+01 4.301751032471656799e-02 1.650710403919219971e-01 6.242656707763671875e-02 3.293216973543167114e-02
4.730000000000000000e+03 2.634537124633789062e+01 2.435114288330078125e+01 4.915904998779296875e-02 1.133472621440887451e-01 4.875189438462257385e-02 8.204285055398941040e-02
4.731000000000000000e+03 3.013970756530761719e+01 1.521925926208496094e-01 -1.170939132571220398e-01 2.865660004317760468e-02 -2.653119526803493500e-02 -3.081524930894374847e-02
4.732000000000000000e+03 3.077623558044433594e+01 3.395062446594238281e+00 -1.593677699565887451e-01 3.932096064090728760e-02 -3.601404279470443726e-02 -1.482465267181396484e-01
4.733000000000000000e+03 3.616047668457031250e+01 1.003510189056396484e+01 -2.884654998779296875e-01 4.215369522571563721e-01 3.992144018411636353e-02 2.106690779328346252e-02
4.734000000000000000e+03 3.404210662841796875e+01 5.719170570373535156e+00 -9.857228398323059082e-02 2.880691885948181152e-01 5.684906989336013794e-02 -2.858109772205352783e-02
4.735000000000000000e+03 2.628665542602539062e+01 2.554894256591796875e+01 3.774937987327575684e-02 1.102166473865509033e-01 4.438980668783187866e-02 7.719301432371139526e-02
4.736000000000000000e+03 2.514628219604492188e+01 2.361731719970703125e+01 4.564406350255012512e-02 1.183198913931846619e-01 4.918918758630752563e-02 8.138640224933624268e-02
4.737000000000000000e+03 1.280547237396240234e+01 8.521615028381347656e+00 7.765068858861923218e-02 2.964618206024169922e-01 1.122337505221366882e-01 3.350975364446640015e-02
4.738000000000000000e+03 2.941135787963867188e+01 2.876014471054077148e+00 -2.082576006650924683e-01 -7.666584104299545288e-02 -8.547703176736831665e-02 -1.514958888292312622e-01
4.739000000000000000e+03 3.221683502197265625e+01 4.375083923339843750e+00 -1.014791205525398254e-01 1.247815713286399841e-01 6.990733556449413300e-03 -1.358272433280944824e-01
4.740000000000000000e+03 3.171451568603515625e+01 3.530136823654174805e+00 -1.160107105970382690e-01 1.221886351704597473e-01 1.853376394137740135e-03 -1.302296370267868042e-01
4.741000000000000000e+03 1.615801811218261719e+01 1.216365909576416016e+01 7.380247861146926880e-02 2.152343243360519409e-01 8.671104162931442261e-02 1.134194433689117432e-01
4.742000000000000000e+03 1.538930320739746094e+01 1.174497795104980469e+01 6.545921415090560913e-02 2.243871092796325684e-01 8.695390075445175171e-02 1.026433780789375305e-01
4.743000000000000000e+03 1.984693527221679688e+01 1.551140308380126953e+01 8.018138259649276733e-02 1.664266437292098999e-01 7.398241013288497925e-02 1.134965196251869202e-01
4.744000000000000000e+03 1.865936470031738281e+01 1.491170501708984375e+01 7.211714237928390503e-02 1.738905608654022217e-01 7.380230724811553955e-02 1.103413328528404236e-01
4.745000000000000000e+03 3.627436065673828125e+01 1.052807617187500000e+01 -3.029313981533050537e-01 4.047301411628723145e-01 3.053961880505084991e-02 9.005735628306865692e-03
4.746000000000000000e+03 3.684479522705078125e+01 1.045741081237792969e+01 -2.780203521251678467e-01 5.276967287063598633e-01 7.490290701389312744e-02 5.585620924830436707e-02
4.747000000000000000e+03 1.696512222290039062e+01 1.340223789215087891e+01 6.957330554723739624e-02 1.947251558303833008e-01 7.928953319787979126e-02 1.095357239246368408e-01
4.748000000000000000e+03 2.867342758178710938e+01 6.134888529777526855e-01 -1.859529763460159302e-01 -8.341858536005020142e-02 -8.081146329641342163e-02 -5.245684087276458740e-02
4.749000000000000000e+03 1.373999977111816406e+01 1.022369384765625000e+01 6.496213376522064209e-02 2.545092105865478516e-01 9.584140777587890625e-02 7.171364128589630127e-02
4.750000000000000000e+03 1.417786598205566406e+01 1.067669773101806641e+01 6.444735080003738403e-02 2.456255853176116943e-01 9.302187711000442505e-02 8.339103311300277710e-02
4.751000000000000000e+03 5.362871170043945312e+01 2.888226318359375000e+01 8.014498353004455566e-01 7.027107715606689453e+00 2.348567247390747070e+00 3.069635868072509766e+00
4.752000000000000000e+03 2.575063705444335938e+01 2.397868728637695312e+01 4.462563991546630859e-02 1.178939491510391235e-01 4.875587671995162964e-02 7.690640538930892944e-02
4.753000000000000000e+03 3.148877525329589844e+01 2.865836143493652344e+01 5.810134485363960266e-02 1.001934707164764404e-01 4.748844727873802185e-02 6.718859821557998657e-02
4.754000000000000000e+03 1.456701564788818359e+01 1.117071533203125000e+01 6.409885734319686890e-02 2.354372590780258179e-01 8.986083418130874634e-02 8.981705456972122192e-02
4.755000000000000000e+03 2.242641639709472656e+01 1.852236175537109375e+01 7.019756734371185303e-02 1.427838504314422607e-01 6.389442831277847290e-02 1.023885905742645264e-01
4.756000000000000000e+03 3.447821426391601562e+01 7.008717060089111328e+00 -1.576184183359146118e-01 2.822965383529663086e-01 3.740343824028968811e-02 -1.902085961773991585e-03
4.757000000000000000e+03 3.644012069702148438e+01 9.404446601867675781e+00 -2.547706365585327148e-01 5.226956009864807129e-01 8.037748932838439941e-02 6.169288232922554016e-02
4.758000000000000000e+03 2.719707107543945312e+01 1.382812738418579102e+00 -2.670073211193084717e-01 -1.692860424518585205e-01 -1.308880150318145752e-01 -1.350675970315933228e-01
4.759000000000000000e+03 2.771720314025878906e+01 6.974921822547912598e-01 -2.426248490810394287e-01 -1.388970613479614258e-01 -1.144565716385841370e-01 -8.499713987112045288e-02
4.760000000000000000e+03 2.334007453918457031e+01 1.854175567626953125e+01 7.609054446220397949e-02 1.406347751617431641e-01 6.501759588718414307e-02 1.042762771248817444e-01
4.761000000000000000e+03 3.551620864868164062e+01 9.739514350891113281e+00 -3.015928566455841064e-01 3.204514980316162109e-01 5.657599773257970810e-03 -1.328269764780998230e-02
4.762000000000000000e+03 3.546173477172851562e+01 8.725017547607421875e+00 -2.493250370025634766e-01 3.748743832111358643e-01 3.766480460762977600e-02 2.298808842897415161e-02
4.763000000000000000e+03 2.904004859924316406e+01 2.660802268981933594e+01 4.543723165988922119e-02 1.050070449709892273e-01 4.513328522443771362e-02 7.944015413522720337e-02
4.764000000000000000e+03 4.356869506835937500e+01 1.809000968933105469e+01 -5.682440474629402161e-02 1.601398110389709473e+00 4.633721113204956055e-01 6.109963655471801758e-01
4.765000000000000000e+03 3.054613494873046875e+01 2.793839073181152344e+01 5.827919021248817444e-02 9.961259365081787109e-02 4.736753553152084351e-02 7.033792883157730103e-02
4.766000000000000000e+03 3.397197723388671875e+01 6.089930534362792969e+00 -1.117334738373756409e-01 2.525767087936401367e-01 4.225296899676322937e-02 -3.196801245212554932e-02
4.767000000000000000e+03 2.749902534484863281e+01 2.518281173706054688e+01 4.512614756822586060e-02 1.098147705197334290e-01 4.648227617144584656e-02 8.029749989509582520e-02
4.768000000000000000e+03 2.778121376037597656e+01 2.570032501220703125e+01 4.934028536081314087e-02 1.102587729692459106e-01 4.787971824407577515e-02 7.619357109069824219e-02
4.769000000000000000e+03 2.875296592712402344e+01 2.598411560058593750e+01 5.391004309058189392e-02 1.080487370491027832e-01 4.858763515949249268e-02 7.661885023117065430e-02
4.770000000000000000e+03 3.535976791381835938e+01 -2.118103265762329102e+00 -3.689009323716163635e-02 7.440581321716308594e-01 2.121504098176956177e-01 8.591462858021259308e-03
4.771000000000000000e+03 3.326863861083984375e+01 -1.340880155563354492e+00 -4.534753412008285522e-02 3.958204686641693115e-01 1.051418781280517578e-01 -3.719505330082029104e-04
4.772000000000000000e+03 3.474270248413085938e+01 5.286706924438476562e+00 -9.446986019611358643e-02 4.225287437438964844e-01 9.841766953468322754e-02 2.688060514628887177e-03
4.773000000000000000e+03 3.070065498352050781e+01 2.889513015747070312e+01 4.318859055638313293e-02 9.853422641754150391e-02 4.251684620976448059e-02 7.284286618232727051e-02
4.774000000000000000e+03 1.196373748779296875e+01 7.358059406280517578e+00 1.164301410317420959e-01 2.869911789894104004e-01 1.210263967514038086e-01 -3.116280026733875275e-02
4.775000000000000000e+03 6.573660278320312500e+01 2.987377738952636719e+01 7.864463329315185547e-01 9.106657028198242188e+00 2.967931032180786133e+00 -1.533559203147888184e+00
4.776000000000000000e+03 5.914781570434570312e+01 3.234222793579101562e+01 2.551392316818237305e+00 1.310279273986816406e+01 4.696255683898925781e+00 -1.159969329833984375e+00
4.777000000000000000e+03 5.966089248657226562e+01 3.242196273803710938e+01 2.696278333663940430e+00 1.246936988830566406e+01 4.549694538116455078e+00 -1.232978463172912598e+00
4.778000000000000000e+03 3.520468139648437500e+01 8.300662994384765625e+00 -2.296808063983917236e-01 3.545210659503936768e-01 3.745207935571670532e-02 1.888493262231349945e-02
4.779000000000000000e+03 3.180991554260253906e+01 -3.033400177955627441e-01 -6.661058217287063599e-02 2.023026496171951294e-01 4.070761799812316895e-02 -1.572937890887260437e-02
4.780000000000000000e+03 3.113601493835449219e+01 7.059311270713806152e-01 -9.565909951925277710e-02 1.174161285161972046e-01 6.527109537273645401e-03 -4.560746252536773682e-02
4.781000000000000000e+03 2.973623847961425781e+01 2.916521310806274414e+00 -1.872619539499282837e-01 -4.253391548991203308e-02 -6.893876194953918457e-02 -1.405303329229354858e-01
4.782000000000000000e+03 3.258857345581054688e+01 -1.454411864280700684e+00 -4.050452262163162231e-02 3.106155693531036377e-01 8.103331923484802246e-02 2.177484799176454544e-03
4.783000000000000000e+03 3.223783493041992188e+01 3.920652866363525391e+00 -9.936371445655822754e-02 1.553737819194793701e-01 1.680302247405052185e-02 -1.212249770760536194e-01
4.784000000000000000e+03 3.117393302917480469e+01 3.230570316314697266e+00 -1.344680786132812500e-01 7.777340710163116455e-02 -1.700840331614017487e-02 -1.323882937431335449e-01
4.785000000000000000e+03 1.178557682037353516e+01 1.734221076965332031e+01 8.914071135222911835e-03 7.593920081853866577e-02 2.545598149299621582e-02 1.063923817127943039e-02
4.786000000000000000e+03 1.173480033874511719e+01 2.081978225708007812e+01 -1.474749180488288403e-03 4.471855238080024719e-02 1.297314092516899109e-02 4.313189536333084106e-03
4.787000000000000000e+03 3.634529876708984375e+01 -3.751431703567504883e+00 -5.592706799507141113e-02 9.343538880348205566e-01 2.635280489921569824e-01 1.550370594486594200e-03
4.788000000000000000e+03 9.897183418273925781e+00 9.294878005981445312e+00 1.015732437372207642e-01 7.538904994726181030e-02 5.308868736028671265e-02 -2.074786461889743805e-02
4.789000000000000000e+03 3.345413208007812500e+01 -1.943930149078369141e+00 -3.100731596350669861e-02 4.308664500713348389e-01 1.199577376246452332e-01 5.452994257211685181e-03
4.790000000000000000e+03 3.458635330200195312e+01 -1.911679029464721680e+00 -3.780231997370719910e-02 6.061758399009704590e-01 1.705120503902435303e-01 4.227176308631896973e-03
4.791000000000000000e+03 1.063067531585693359e+01 8.959921836853027344e+00 1.030278429388999939e-01 1.373508125543594360e-01 7.211359590291976929e-02 -2.582335099577903748e-02
4.792000000000000000e+03 3.216517257690429688e+01 3.205709838867187500e+01 5.537246912717819214e-02 9.431896358728408813e-02 4.490743204951286316e-02 5.476360395550727844e-02
4.793000000000000000e+03 1.053501987457275391e+01 1.273958778381347656e+01 3.893579542636871338e-02 9.219884872436523438e-02 3.934039175510406494e-02 3.813269722741097212e-04
4.794000000000000000e+03 6.813017272949218750e+01 1.353887176513671875e+01 -5.713223218917846680e-01 7.885109901428222656e+00 2.194136381149291992e+00 -7.501115798950195312e-01
4.795000000000000000e+03 1.223706912994384766e+01 1.662976264953613281e+01 1.323038712143898010e-02 9.303984045982360840e-02 3.188106790184974670e-02 1.752530597150325775e-02
4.796000000000000000e+03 6.900109863281250000e+01 1.287794494628906250e+01 -5.048822164535522461e-01 7.903853893280029297e+00 2.219691514968872070e+00 -7.365807294845581055e-01
4.797000000000000000e+03 6.818216705322265625e+01 1.096199417114257812e+01 -5.192922353744506836e-01 7.802563667297363281e+00 2.184981346130371094e+00 -5.948773622512817383e-01
4.798000000000000000e+03 1.864220428466796875e+01 1.549068355560302734e+01 6.825316697359085083e-02 1.672825813293457031e-01 7.066072523593902588e-02 1.034277305006980896e-01
4.799000000000000000e+03 3.273767089843750000e+01 3.051776313781738281e+01 6.224735826253890991e-02 9.594257920980453491e-02 4.745697975158691406e-02 6.394566595554351807e-02
4.800000000000000000e+03 6.934512329101562500e+01 1.927156257629394531e+01 -4.902042448520660400e-01 8.028587341308593750e+00 2.261514902114868164e+00 -1.195062041282653809e+00
4.801000000000000000e+03 6.668369293212890625e+01 1.943667411804199219e+01 -6.893314123153686523e-01 8.233053207397460938e+00 2.263116598129272461e+00 -1.083757877349853516e+00
4.802000000000000000e+03 3.622468185424804688e+01 -2.920747041702270508e+00 -4.431907460093498230e-02 9.253216981887817383e-01 2.643007934093475342e-01 7.602030877023935318e-03
4.803000000000000000e+03 6.595558166503906250e+01 3.523981809616088867e+00 -4.304200410842895508e-01 7.321421623229980469e+00 2.067300558090209961e+00 -1.864878237247467041e-01
4.804000000000000000e+03 1.165043354034423828e+01 1.416925430297851562e+01 2.725575678050518036e-02 1.113031432032585144e-01 4.156767204403877258e-02 1.521623507142066956e-02
4.805000000000000000e+03 1.205561256408691406e+01 1.541782569885253906e+01 1.894355937838554382e-02 1.031840145587921143e-01 3.663827106356620789e-02 1.819996722042560577e-02
4.806000000000000000e+03 1.268089866638183594e+01 1.596676731109619141e+01 1.777528785169124603e-02 1.104231998324394226e-01 3.845954686403274536e-02 2.438185550272464752e-02
4.807000000000000000e+03 6.918395233154296875e+01 9.021498680114746094e+00 -4.196020066738128662e-01 7.842148303985595703e+00 2.226763963699340820e+00 -5.074959397315979004e-01
4.808000000000000000e+03 3.962428665161132812e+01 -5.532639503479003906e+00 -1.150601208209991455e-01 1.651717305183410645e+00 4.609971344470977783e-01 -6.767085287719964981e-03
4.809000000000000000e+03 1.071885299682617188e+01 9.681960105895996094e+00 8.186754584312438965e-02 1.350041329860687256e-01 6.506150215864181519e-02 -1.149927079677581787e-02
4.810000000000000000e+03 1.164368820190429688e+01 1.042846202850341797e+01 6.382858008146286011e-02 1.733131408691406250e-01 7.114251703023910522e-02 6.657963152974843979e-03
4.811000000000000000e+03 6.547328948974609375e+01 3.689973652362823486e-01 -3.706855177879333496e-01 7.174801349639892578e+00 2.041234731674194336e+00 -7.944771647453308105e-02
4.812000000000000000e+03 6.483992767333984375e+01 -5.729059576988220215e-01 -3.701621294021606445e-01 7.047967910766601562e+00 2.003341674804687500e+00 -4.004009068012237549e-02
4.813000000000000000e+03 4.452644348144531250e+01 -6.987098693847656250e+00 -2.344762533903121948e-01 2.816544294357299805e+00 7.746204137802124023e-01 1.255242899060249329e-02
4.814000000000000000e+03 6.778786468505859375e+01 6.082181930541992188e+00 -4.217323362827301025e-01 7.631021976470947266e+00 2.162786722183227539e+00 -3.330700695514678955e-01
4.815000000000000000e+03 6.664123535156250000e+01 2.413644790649414062e+01 -3.772719502449035645e-01 8.614408493041992188e+00 2.471140861511230469e+00 -1.447341680526733398e+00
4.816000000000000000e+03 6.701959228515625000e+01 2.318344306945800781e+01 -4.490593075752258301e-01 8.467715263366699219e+00 2.405596733093261719e+00 -1.401171445846557617e+00
4.817000000000000000e+03 2.975940132141113281e+01 2.909790420532226562e+01 5.288756266236305237e-02 9.706940501928329468e-02 4.498708993196487427e-02 6.359251588582992554e-02
4.818000000000000000e+03 6.649412536621093750e+01 2.255409240722656250e+00 -3.828156590461730957e-01 7.372316837310791016e+00 2.096850395202636719e+00 -1.567205488681793213e-01
4.819000000000000000e+03 6.655838775634765625e+01 2.178584861755371094e+01 -5.974112153053283691e-01 8.438730239868164062e+00 2.352395534515380859e+00 -1.260038018226623535e+00
4.820000000000000000e+03 6.696923828125000000e+01 9.042187929153442383e-01 -3.385183215141296387e-01 7.419512748718261719e+00 2.124298334121704102e+00 -1.200272366404533386e-01
4.821000000000000000e+03 6.795089721679687500e+01 5.256223678588867188e-01 -2.940398454666137695e-01 7.563106536865234375e+00 2.180720090866088867e+00 -1.244203150272369385e-01
4.822000000000000000e+03 6.746237945556640625e+01 -1.453406429290771484e+01 -1.414638161659240723e-01 7.361519813537597656e+00 2.166016817092895508e+00 2.446734160184860229e-01
4.823000000000000000e+03 6.871948242187500000e+01 1.908881950378417969e+01 -5.425068140029907227e-01 8.073673248291015625e+00 2.259350061416625977e+00 -1.167236924171447754e+00
4.824000000000000000e+03 6.846247100830078125e+01 1.672320747375488281e+01 -5.821622610092163086e-01 8.007412910461425781e+00 2.227575302124023438e+00 -9.879683256149291992e-01
4.825000000000000000e+03 4.617546081542968750e+01 -1.339778232574462891e+01 -2.941453158855438232e-01 3.334084987640380859e+00 9.119818806648254395e-01 -8.504215627908706665e-02
4.826000000000000000e+03 6.713356018066406250e+01 -4.880156040191650391e+00 -2.533463239669799805e-01 7.371661186218261719e+00 2.135494470596313477e+00 3.751712664961814880e-02
4.827000000000000000e+03 6.814608764648437500e+01 1.188595962524414062e+01 -5.455462336540222168e-01 7.832462310791015625e+00 2.186074733734130859e+00 -6.484031081199645996e-01
4.828000000000000000e+03 6.791969299316406250e+01 -9.595333099365234375e+00 -1.763123571872711182e-01 7.481375217437744141e+00 2.191519021987915039e+00 1.470369547605514526e-01
4.829000000000000000e+03 6.702976989746093750e+01 -9.192426681518554688e+00 -1.966042816638946533e-01 7.332994937896728516e+00 2.140917062759399414e+00 1.376276463270187378e-01
4.830000000000000000e+03 1.439333343505859375e+01 -2.333544540405273438e+01 4.614459723234176636e-02 5.103051662445068359e-03 1.537429541349411011e-02 -1.184456571936607361e-01
4.831000000000000000e+03 4.373287582397460938e+01 -9.503623962402343750e+00 -2.241619080305099487e-01 2.656697988510131836e+00 7.297608256340026855e-01 -5.774321407079696655e-02
4.832000000000000000e+03 4.204066467285156250e+01 -9.376017570495605469e+00 -1.930614709854125977e-01 2.248265504837036133e+00 6.165611743927001953e-01 -7.382528483867645264e-02
4.833000000000000000e+03 6.775522613525390625e+01 -1.252092456817626953e+01 -1.499264836311340332e-01 7.433187484741210938e+00 2.184978246688842773e+00 2.101286202669143677e-01
4.834000000000000000e+03 3.384926986694335938e+01 3.505969238281250000e+01 5.875119939446449280e-02 8.081907033920288086e-02 4.187108203768730164e-02 5.496715009212493896e-02
4.835000000000000000e+03 3.554726791381835938e+01 3.361570358276367188e+01 7.519712299108505249e-02 8.166347444057464600e-02 4.705817997455596924e-02 5.786059796810150146e-02
4.836000000000000000e+03 6.451506805419921875e+01 2.379146194458007812e+01 -5.848514437675476074e-01 8.922192573547363281e+00 2.501202344894409180e+00 -1.187287807464599609e+00
4.837000000000000000e+03 1.284352397918701172e+01 -1.412627696990966797e+01 1.230613440275192261e-01 -4.278005287051200867e-02 2.408438734710216522e-02 -1.513058692216873169e-01
4.838000000000000000e+03 1.511891841888427734e+01 -1.485713291168212891e+01 1.305045783519744873e-01 7.900846749544143677e-02 6.285391002893447876e-02 -1.389646232128143311e-01
4.839000000000000000e+03 6.484559631347656250e+01 2.533275222778320312e+01 -3.413414359092712402e-01 9.070821762084960938e+00 2.618844032287597656e+00 -1.358557820320129395e+00
4.840000000000000000e+03 6.722150421142578125e+01 -8.113246917724609375e+00 -2.026292234659194946e-01 7.364941120147705078e+00 2.148693561553955078e+00 1.207991987466812134e-01
4.841000000000000000e+03 6.717462921142578125e+01 -1.012963199615478516e+01 -1.888084113597869873e-01 7.325283527374267578e+00 2.140942573547363281e+00 1.595143526792526245e-01
4.842000000000000000e+03 4.606624603271484375e+01 -1.173813629150390625e+01 -2.867203056812286377e-01 3.270328760147094727e+00 8.950825333595275879e-01 -5.705970898270606995e-02
4.843000000000000000e+03 4.532283782958984375e+01 -1.100425434112548828e+01 -2.648852467536926270e-01 3.077782630920410156e+00 8.438692688941955566e-01 -6.290258467197418213e-02
4.844000000000000000e+03 4.705841064453125000e+01 -1.404537200927734375e+01 -2.999556362628936768e-01 3.573094606399536133e+00 9.819416999816894531e-01 -7.670960575342178345e-02
4.845000000000000000e+03 3.745262527465820312e+01 3.717409896850585938e+01 6.015606224536895752e-02 7.991348206996917725e-02 4.202086478471755981e-02 4.635254666209220886e-02
4.846000000000000000e+03 5.937986755371093750e+01 3.147637939453125000e+01 1.608484029769897461e+00 1.254959583282470703e+01 4.247424125671386719e+00 -1.024868726730346680e+00
4.847000000000000000e+03 4.655814743041992188e+01 -1.848400306701660156e+01 -2.830149829387664795e-01 3.580347299575805664e+00 9.891996979713439941e-01 -1.555936783552169800e-01
4.848000000000000000e+03 4.770941162109375000e+01 -1.797355270385742188e+01 -3.146821856498718262e-01 3.885050773620605469e+00 1.071110606193542480e+00 -9.761080890893936157e-02
4.849000000000000000e+03 6.671643829345703125e+01 -2.123319053649902344e+01 -5.634916573762893677e-02 7.205547809600830078e+00 2.144759654998779297e+00 3.370934128761291504e-01
4.850000000000000000e+03 6.275970840454101562e+01 -2.483452415466308594e+01 -1.322690024971961975e-02 6.632988929748535156e+00 1.985928535461425781e+00 3.811372518539428711e-01
4.851000000000000000e+03 6.616174316406250000e+01 -4.890372753143310547e+00 -2.645416557788848877e-01 7.221790790557861328e+00 2.087174654006958008e+00 4.336186498403549194e-02
4.852000000000000000e+03 6.707419586181640625e+01 -5.987475395202636719e+00 -2.274972498416900635e-01 7.366014480590820312e+00 2.141555309295654297e+00 6.982431560754776001e-02
4.853000000000000000e+03 1.844878959655761719e+01 -2.452812576293945312e+01 6.909653544425964355e-02 1.651808768510818481e-01 7.028321921825408936e-02 -1.506184488534927368e-01
4.854000000000000000e+03 1.140938282012939453e+01 -1.976387977600097656e+01 6.351450085639953613e-02 -1.109238266944885254e-01 -1.422279793769121170e-02 -1.202277243137359619e-01
4.855000000000000000e+03 1.206201934814453125e+01 -2.096843719482421875e+01 7.849923521280288696e-02 -8.109244704246520996e-02 -7.779631414450705051e-04 -1.109963580965995789e-01
4.856000000000000000e+03 1.246996498107910156e+01 -1.924959945678710938e+01 8.470459282398223877e-02 -6.060926243662834167e-02 7.228598464280366898e-03 -1.236945912241935730e-01
4.857000000000000000e+03 1.143999195098876953e+01 -2.870073509216308594e+01 4.667342454195022583e-02 -1.570491790771484375e-01 -3.311272338032722473e-02 -7.345545291900634766e-02
4.858000000000000000e+03 1.472968769073486328e+01 2.512235260009765625e+01 -3.472654847428202629e-03 5.943841487169265747e-02 1.678972691297531128e-02 1.698937825858592987e-02
4.859000000000000000e+03 6.846449279785156250e+01 1.979749488830566406e+01 -5.454867482185363770e-01 8.118540763854980469e+00 2.271916151046752930e+00 -1.210067510604858398e+00
4.860000000000000000e+03 6.784801483154296875e+01 -1.776515960693359375e+01 -1.006306111812591553e-01 7.403705120086669922e+00 2.190922260284423828e+00 2.966923117637634277e-01
4.861000000000000000e+03 6.388759613037109375e+01 -1.717308616638183594e+01 -1.646624356508255005e-01 6.812759876251220703e+00 1.994429230690002441e+00 3.015967905521392822e-01
4.862000000000000000e+03 6.949560546875000000e+01 3.575817871093750000e+01 9.188473820686340332e-01 7.802673816680908203e+00 2.616456508636474609e+00 -7.701357007026672363e-01
4.863000000000000000e+03 6.590047454833984375e+01 3.354000854492187500e+01 1.568309545516967773e+00 9.121619224548339844e+00 3.206978559494018555e+00 -9.210714697837829590e-01
4.864000000000000000e+03 6.571546936035156250e+01 3.847938156127929688e+01 1.095590472221374512e+00 9.830940246582031250e+00 3.277959346771240234e+00 9.886363893747329712e-02
4.865000000000000000e+03 6.796757507324218750e+01 7.066526412963867188e+00 -4.344483017921447754e-01 7.675427913665771484e+00 2.172293901443481445e+00 -3.838791847229003906e-01
4.866000000000000000e+03 1.252120876312255859e+01 -1.312273693084716797e+01 1.405480355024337769e-01 -7.444012910127639771e-02 1.983237080276012421e-02 -1.620209366083145142e-01
4.867000000000000000e+03 5.189059448242187500e+01 -2.032587814331054688e+01 -2.859568595886230469e-01 4.896780967712402344e+00 1.383247256278991699e+00 1.232136785984039307e-01
4.868000000000000000e+03 5.852184295654296875e+01 -2.604265213012695312e+01 3.996716812252998352e-02 6.063440322875976562e+00 1.831022143363952637e+00 3.771049976348876953e-01
4.869000000000000000e+03 3.988538360595703125e+01 4.050836563110351562e+01 8.603200316429138184e-02 5.445702001452445984e-02 4.214670509099960327e-02 4.181332141160964966e-02
4.870000000000000000e+03 3.310593032836914062e+01 3.676705932617187500e+01 5.451374873518943787e-02 8.271794766187667847e-02 4.116950929164886475e-02 3.231712803244590759e-02
4.871000000000000000e+03 5.738470077514648438e+01 3.117449951171875000e+01 5.300315022468566895e-01 1.360802936553955078e+01 4.241418361663818359e+00 7.455958724021911621e-01
4.872000000000000000e+03 5.579631805419921875e+01 3.099188995361328125e+01 4.596921503543853760e-01 1.197008514404296875e+01 3.728933095932006836e+00 3.141875743865966797e+00
4.873000000000000000e+03 5.512238311767578125e+01 3.078114318847656250e+01 7.962397933006286621e-01 1.033527565002441406e+01 3.339454650878906250e+00 3.746712684631347656e+00
4.874000000000000000e+03 2.860083198547363281e+01 2.155725479125976562e+00 -2.166172862052917480e-01 -1.242801100015640259e-01 -1.022692248225212097e-01 -1.370818614959716797e-01
4.875000000000000000e+03 2.819722557067871094e+01 1.433929920196533203e+00 -2.219224274158477783e-01 -1.243665441870689392e-01 -1.038866937160491943e-01 -1.051069423556327820e-01
4.876000000000000000e+03 3.902860260009765625e+01 1.289495277404785156e+01 -2.373927831649780273e-01 8.219475746154785156e-01 1.753664314746856689e-01 1.730486005544662476e-01
4.877000000000000000e+03 3.747729873657226562e+01 1.179551315307617188e+01 -2.769193947315216064e-01 5.539677143096923828e-01 8.311449736356735229e-02 6.177521124482154846e-02
4.878000000000000000e+03 2.768558311462402344e+01 1.711348056793212891e+00 -2.451167106628417969e-01 -1.592736989259719849e-01 -1.213171258568763733e-01 -1.327153891324996948e-01
4.879000000000000000e+03 4.903698348999023438e+01 2.327317047119140625e+01 2.280661612749099731e-01 3.448315858840942383e+00 1.102914571762084961e+00 1.527210354804992676e+00
4.880000000000000000e+03 4.744702529907226562e+01 2.249038887023925781e+01 2.247601151466369629e-01 2.669176816940307617e+00 8.681810498237609863e-01 1.240770816802978516e+00
4.881000000000000000e+03 4.831259155273437500e+01 2.260257148742675781e+01 1.862976253032684326e-01 3.101110696792602539e+00 9.862224459648132324e-01 1.370804548263549805e+00
4.882000000000000000e+03 5.393774032592773438e+01 2.972254371643066406e+01 1.048400521278381348e+00 7.461585521697998047e+00 2.552995920181274414e+00 3.473002195358276367e+00
4.883000000000000000e+03 4.916036224365234375e+01 2.428215789794921875e+01 3.868935108184814453e-01 3.365530729293823242e+00 1.125727295875549316e+00 1.632371783256530762e+00
4.884000000000000000e+03 3.895708084106445312e+01 1.245617675781250000e+01 -2.426625490188598633e-01 8.417460322380065918e-01 1.797250509262084961e-01 1.732738018035888672e-01
4.885000000000000000e+03 4.535119628906250000e+01 1.982918167114257812e+01 2.236179076135158539e-02 2.060751914978027344e+00 6.249341368675231934e-01 8.548578023910522461e-01
4.886000000000000000e+03 4.570003509521484375e+01 2.039748764038085938e+01 6.359156966209411621e-02 2.150506496429443359e+00 6.642293930053710938e-01 9.225260615348815918e-01
4.887000000000000000e+03 2.973540115356445312e+01 2.167398452758789062e+00 -1.711328476667404175e-01 -3.021273389458656311e-02 -6.040367484092712402e-02 -1.175383776426315308e-01
4.888000000000000000e+03 3.727602386474609375e+01 1.141615104675292969e+01 -2.824583053588867188e-01 5.376657247543334961e-01 7.656223326921463013e-02 5.710452795028686523e-02
4.889000000000000000e+03 4.795065307617187500e+01 2.236928939819335938e+01 1.844494491815567017e-01 2.944072484970092773e+00 9.385565519332885742e-01 1.321118950843811035e+00
4.890000000000000000e+03 4.319821166992187500e+01 1.764408493041992188e+01 -7.658176124095916748e-02 1.527185320854187012e+00 4.351810812950134277e-01 5.623550415039062500e-01
4.891000000000000000e+03 2.506776237487792969e+01 2.172203254699707031e+01 5.701583996415138245e-02 1.267062723636627197e-01 5.511663109064102173e-02 8.834348618984222412e-02
4.892000000000000000e+03 4.427936172485351562e+01 1.853624343872070312e+01 -3.867600485682487488e-02 1.808322072029113770e+00 5.308938026428222656e-01 7.065275907516479492e-01
4.893000000000000000e+03 4.569235992431640625e+01 1.964232826232910156e+01 -1.673829829087480903e-04 2.235776424407958984e+00 6.706827282905578613e-01 8.990269303321838379e-01
4.894000000000000000e+03 3.909289932250976562e+01 1.332323741912841797e+01 -2.362477928400039673e-01 7.980764508247375488e-01 1.685485988855361938e-01 1.672881990671157837e-01
4.895000000000000000e+03 3.874015808105468750e+01 1.371971130371093750e+01 -2.421186417341232300e-01 6.665467619895935059e-01 1.273284256458282471e-01 1.215466186404228210e-01
4.896000000000000000e+03 4.397719192504882812e+01 1.811129570007324219e+01 -6.016308814287185669e-02 1.745098233222961426e+00 5.054805278778076172e-01 6.630887985229492188e-01
4.897000000000000000e+03 5.820021438598632812e+01 3.168215942382812500e+01 1.371314048767089844e+00 1.380544281005859375e+01 4.553027153015136719e+00 -3.879810869693756104e-01
4.898000000000000000e+03 4.652898406982421875e+01 2.082877922058105469e+01 7.420016825199127197e-02 2.444504261016845703e+00 7.556113004684448242e-01 1.044488191604614258e+00
4.899000000000000000e+03 4.614272689819335938e+01 2.098147010803222656e+01 1.026887446641921997e-01 2.253293752670288086e+00 7.067947387695312500e-01 9.957219362258911133e-01
4.900000000000000000e+03 2.059300041198730469e+01 1.858920478820800781e+01 5.185549706220626831e-02 1.443804800510406494e-01 5.887079238891601562e-02 9.016975760459899902e-02
4.901000000000000000e+03 4.451633834838867188e+01 1.896846199035644531e+01 -1.531398575752973557e-02 1.835491061210632324e+00 5.460531115531921387e-01 7.371337413787841797e-01
4.902000000000000000e+03 4.419226074218750000e+01 1.888242912292480469e+01 -1.640266552567481995e-02 1.731378674507141113e+00 5.144928097724914551e-01 6.998909115791320801e-01
4.903000000000000000e+03 5.245515060424804688e+01 2.724088859558105469e+01 6.047299504280090332e-01 5.649525642395019531e+00 1.876276731491088867e+00 2.501933336257934570e+00
4.904000000000000000e+03 5.216469192504882812e+01 2.703082466125488281e+01 6.107695698738098145e-01 5.348856925964355469e+00 1.787887930870056152e+00 2.421995878219604492e+00
4.905000000000000000e+03 1.290608882904052734e+01 9.194134712219238281e+00 7.284218072891235352e-02 2.720090448856353760e-01 1.034553647041320801e-01 4.060713574290275574e-02
4.906000000000000000e+03 1.280251407623291016e+01 9.721576690673828125e+00 6.464027613401412964e-02 2.469868659973144531e-01 9.348814189434051514e-02 3.914780169725418091e-02
4.907000000000000000e+03 1.474190902709960938e+01 1.486300086975097656e+01 3.387607634067535400e-02 1.590754687786102295e-01 5.788546428084373474e-02 5.897129327058792114e-02
4.908000000000000000e+03 5.017465972900390625e+01 2.500165176391601562e+01 4.190524816513061523e-01 3.961103677749633789e+00 1.314046859741210938e+00 1.852461457252502441e+00
4.909000000000000000e+03 4.916932678222656250e+01 2.487629127502441406e+01 4.851303100585937500e-01 3.282365560531616211e+00 1.130248785018920898e+00 1.672018647193908691e+00
4.910000000000000000e+03 4.033702850341796875e+01 1.525323104858398438e+01 -1.824847608804702759e-01 9.269257783889770508e-01 2.233323156833648682e-01 2.564366459846496582e-01
4.911000000000000000e+03 4.084727478027343750e+01 1.528933143615722656e+01 -1.744768023490905762e-01 1.069061517715454102e+00 2.683754265308380127e-01 3.110141158103942871e-01
4.912000000000000000e+03 5.185207748413085938e+01 2.686678695678710938e+01 6.366323828697204590e-01 5.091409206390380859e+00 1.718412518501281738e+00 2.376466274261474609e+00
4.913000000000000000e+03 4.718357467651367188e+01 2.226554679870605469e+01 2.093080431222915649e-01 2.554586172103881836e+00 8.291682600975036621e-01 1.191364645957946777e+00
4.914000000000000000e+03 1.685415267944335938e+01 1.377714633941650391e+01 6.440132856369018555e-02 1.865946352481842041e-01 7.529878616333007812e-02 1.021615937352180481e-01
4.915000000000000000e+03 1.693714523315429688e+01 1.411224842071533203e+01 6.060508638620376587e-02 1.823533177375793457e-01 7.288751751184463501e-02 9.941668063402175903e-02
4.916000000000000000e+03 5.878175735473632812e+01 3.153045082092285156e+01 1.461300969123840332e+00 1.316210079193115234e+01 4.387020587921142578e+00 -7.676553130149841309e-01
4.917000000000000000e+03 3.784986114501953125e+01 1.169796752929687500e+01 -2.678199410438537598e-01 6.474376916885375977e-01 1.138853281736373901e-01 9.470748901367187500e-02
4.918000000000000000e+03 5.052137374877929688e+01 2.517219543457031250e+01 4.153198003768920898e-01 4.183162212371826172e+00 1.379544496536254883e+00 1.922494173049926758e+00
4.919000000000000000e+03 5.152254867553710938e+01 2.596726989746093750e+01 4.370802640914916992e-01 4.905167102813720703e+00 1.602674245834350586e+00 2.154311180114746094e+00
4.920000000000000000e+03 1.744911956787109375e+01 1.562153530120849609e+01 5.397521331906318665e-02 1.657017767429351807e-01 6.590309739112854004e-02 8.964326977729797363e-02
4.921000000000000000e+03 5.087113189697265625e+01 2.540135002136230469e+01 4.133570194244384766e-01 4.413250446319580078e+00 1.447982311248779297e+00 1.989769220352172852e+00
4.922000000000000000e+03 5.120922470092773438e+01 2.567326545715332031e+01 4.165051281452178955e-01 4.676940441131591797e+00 1.528033614158630371e+00 2.062977313995361328e+00
4.923000000000000000e+03 2.477151679992675781e+01 2.143317222595214844e+01 5.868368223309516907e-02 1.258843839168548584e-01 5.537042021751403809e-02 9.123937040567398071e-02
4.924000000000000000e+03 1.913629722595214844e+01 1.544689369201660156e+01 7.151491940021514893e-02 1.684269905090332031e-01 7.198257744312286377e-02 1.088001057505607605e-01
4.925000000000000000e+03 1.942394256591796875e+01 1.704434967041015625e+01 5.957873538136482239e-02 1.542181521654129028e-01 6.413906812667846680e-02 9.422293305397033691e-02
4.926000000000000000e+03 1.921960639953613281e+01 1.596717071533203125e+01 6.879878044128417969e-02 1.633961945772171021e-01 6.965849548578262329e-02 1.034393608570098877e-01
4.927000000000000000e+03 3.980099868774414062e+01 1.456631946563720703e+01 -2.070517838001251221e-01 8.544495701789855957e-01 1.942193359136581421e-01 2.102891653776168823e-01
4.928000000000000000e+03 4.436410903930664062e+01 1.816695976257324219e+01 -6.263845413923263550e-02 1.878344893455505371e+00 5.447119474411010742e-01 7.094460725784301758e-01
4.929000000000000000e+03 4.463879013061523438e+01 1.861034965515136719e+01 -4.054875671863555908e-02 1.935402989387512207e+00 5.684562921524047852e-01 7.476944327354431152e-01
4.930000000000000000e+03 4.032944488525390625e+01 1.472305011749267578e+01 -1.932522356510162354e-01 9.748744368553161621e-01 2.344866544008255005e-01 2.619722187519073486e-01
4.931000000000000000e+03 4.540205764770507812e+01 2.019602012634277344e+01 5.244396254420280457e-02 2.041177749633789062e+00 6.280865073204040527e-01 8.719495534896850586e-01
4.932000000000000000e+03 4.521568298339843750e+01 1.887888717651367188e+01 -3.459764271974563599e-02 2.132787704467773438e+00 6.294570565223693848e-01 8.238872885704040527e-01
4.933000000000000000e+03 4.281247711181640625e+01 1.718472862243652344e+01 -9.730076044797897339e-02 1.449571609497070312e+00 4.056812524795532227e-01 5.153773427009582520e-01
4.934000000000000000e+03 2.923601341247558594e+01 2.400914669036865234e+00 -2.030258923768997192e-01 -8.177320659160614014e-02 -8.543973416090011597e-02 -1.383659988641738892e-01
4.935000000000000000e+03 5.288634109497070312e+01 2.804105758666992188e+01 7.514746785163879395e-01 6.056490898132324219e+00 2.042389631271362305e+00 2.753810644149780273e+00
4.936000000000000000e+03 2.683163452148437500e+01 1.456585288047790527e+00 -3.160868883132934570e-01 -1.770423501729965210e-01 -1.479387730360031128e-01 -1.502633541822433472e-01
4.937000000000000000e+03 4.011635971069335938e+01 1.433295440673828125e+01 -2.059302628040313721e-01 9.580666422843933105e-01 2.256409227848052979e-01 2.458809167146682739e-01
4.938000000000000000e+03 4.673215103149414062e+01 2.136531066894531250e+01 1.247464567422866821e-01 2.468759059906005859e+00 7.780516147613525391e-01 1.096386790275573730e+00
4.939000000000000000e+03 4.720500183105468750e+01 2.179806137084960938e+01 1.512302309274673462e-01 2.623640060424804688e+00 8.324610590934753418e-01 1.173971295356750488e+00
4.940000000000000000e+03 4.136703491210937500e+01 1.582996559143066406e+01 -1.480099409818649292e-01 1.155051112174987793e+00 3.021123707294464111e-01 3.600000441074371338e-01
4.941000000000000000e+03 5.546609878540039062e+01 2.914052009582519531e+01 9.595484286546707153e-02 9.771014213562011719e+00 2.960090637207031250e+00 2.618887424468994141e+00
4.942000000000000000e+03 5.622396469116210938e+01 3.072737121582031250e+01 2.422017306089401245e-01 1.228245735168457031e+01 3.757397651672363281e+00 2.469044685363769531e+00
4.943000000000000000e+03 2.443780326843261719e+01 2.118949317932128906e+01 5.793604999780654907e-02 1.286986917257308960e-01 5.599042028188705444e-02 8.831653743982315063e-02
4.944000000000000000e+03 2.412897682189941406e+01 2.095288276672363281e+01 5.753435567021369934e-02 1.296580880880355835e-01 5.615773424506187439e-02 9.241262823343276978e-02
4.945000000000000000e+03 3.839966201782226562e+01 1.205764865875244141e+01 -2.557034492492675781e-01 7.393754124641418457e-01 1.451015919446945190e-01 1.329756230115890503e-01
4.946000000000000000e+03 3.006120681762695312e+01 2.913483619689941406e+00 -1.795293688774108887e-01 -1.489739120006561279e-02 -5.832802876830101013e-02 -1.381057351827621460e-01
4.947000000000000000e+03 3.101789474487304688e+01 2.819397926330566406e+00 -1.386313587427139282e-01 7.084945589303970337e-02 -2.033457159996032715e-02 -1.182894706726074219e-01
4.948000000000000000e+03 2.750157737731933594e+01 1.098238468170166016e+00 -2.591059207916259766e-01 -1.483149528503417969e-01 -1.222262606024742126e-01 -9.785003215074539185e-02
4.949000000000000000e+03 1.167818164825439453e+01 1.218736267089843750e+01 4.205909371376037598e-02 1.412697881460189819e-01 5.499866232275962830e-02 1.505981013178825378e-02
4.950000000000000000e+03 2.316507339477539062e+01 1.995577049255371094e+01 5.901046097278594971e-02 1.349994689226150513e-01 5.820298194885253906e-02 9.403714537620544434e-02
4.951000000000000000e+03 2.381414604187011719e+01 2.024012184143066406e+01 6.148261576890945435e-02 1.323884278535842896e-01 5.816131085157394409e-02 9.497492760419845581e-02
4.952000000000000000e+03 3.668702316284179688e+01 9.900433540344238281e+00 -2.652099728584289551e-01 5.366824865341186523e-01 8.144175261259078979e-02 6.383502483367919922e-02
4.953000000000000000e+03 3.768034362792968750e+01 1.129112720489501953e+01 -2.696243226528167725e-01 6.417524814605712891e-01 1.116384491324424744e-01 9.209442138671875000e-02
4.954000000000000000e+03 4.671295166015625000e+01 2.178826522827148438e+01 1.702903062105178833e-01 2.396507740020751953e+00 7.700393795967102051e-01 1.107298374176025391e+00
4.955000000000000000e+03 1.356758403778076172e+01 1.756594848632812500e+01 1.343635935336351395e-02 1.063665449619293213e-01 3.594087064266204834e-02 3.011951223015785217e-02
4.956000000000000000e+03 1.034960269927978516e+01 1.068018150329589844e+01 6.763646006584167480e-02 1.014010608196258545e-01 5.071125552058219910e-02 -8.026020601391792297e-03
4.957000000000000000e+03 1.251756191253662109e+01 7.848744392395019531e+00 9.047926962375640869e-02 3.187852799892425537e-01 1.227793619036674500e-01 8.469313383102416992e-03
4.958000000000000000e+03 1.197620105743408203e+01 7.716907978057861328e+00 1.043813079595565796e-01 2.802937626838684082e-01 1.154025197029113770e-01 -1.962243393063545227e-02
4.959000000000000000e+03 1.242788600921630859e+01 8.690093040466308594e+00 8.061816543340682983e-02 2.728031873703002930e-01 1.060264036059379578e-01 1.471822988241910934e-02
4.960000000000000000e+03 3.144938850402832031e+01 2.127511203289031982e-01 -8.263044059276580811e-02 1.484278887510299683e-01 1.973923482000827789e-02 -3.451596200466156006e-02
4.961000000000000000e+03 3.271568679809570312e+01 -4.187354445457458496e-01 -5.352306738495826721e-02 3.204432427883148193e-01 8.007605373859405518e-02 -9.626695886254310608e-03
4.962000000000000000e+03 2.006645774841308594e+01 1.804124641418457031e+01 5.290890485048294067e-02 1.477227956056594849e-01 6.018950790166854858e-02 9.095248579978942871e-02
4.963000000000000000e+03 3.737099838256835938e+01 1.041619491577148438e+01 -2.588299810886383057e-01 6.438121199607849121e-01 1.154946461319923401e-01 9.576567262411117554e-02
4.964000000000000000e+03 3.615634155273437500e+01 6.812230110168457031e+00 -1.459413766860961914e-01 6.135079264640808105e-01 1.402699649333953857e-01 8.386947214603424072e-02
4.965000000000000000e+03 3.567306900024414062e+01 8.088113784790039062e+00 -2.090874463319778442e-01 4.499728381633758545e-01 7.226561754941940308e-02 4.777473583817481995e-02
4.966000000000000000e+03 2.592019653320312500e+01 2.207170867919921875e+01 5.966844409704208374e-02 1.213172823190689087e-01 5.429571866989135742e-02 8.991204947233200073e-02
4.967000000000000000e+03 1.581244659423828125e+01 1.215183830261230469e+01 6.781879067420959473e-02 2.159992605447769165e-01 8.514541387557983398e-02 1.070430278778076172e-01
4.968000000000000000e+03 1.426163101196289062e+01 1.222547721862792969e+01 5.094369873404502869e-02 2.022767215967178345e-01 7.596612721681594849e-02 7.175032794475555420e-02
4.969000000000000000e+03 5.419052886962890625e+01 3.012461090087890625e+01 1.099887013435363770e+00 8.001771926879882812e+00 2.730497837066650391e+00 3.673981904983520508e+00
4.970000000000000000e+03 3.618420028686523438e+01 8.951889038085937500e+00 -2.423902302980422974e-01 4.975382983684539795e-01 7.654442638158798218e-02 5.909297987818717957e-02
4.971000000000000000e+03 4.203078460693359375e+01 1.669955635070800781e+01 -1.191570013761520386e-01 1.260998129844665527e+00 3.425523340702056885e-01 4.211541414260864258e-01
4.972000000000000000e+03 4.247146987915039062e+01 1.626405143737792969e+01 -1.357175111770629883e-01 1.448494791984558105e+00 3.938331604003906250e-01 4.753107130527496338e-01
4.973000000000000000e+03 5.336952209472656250e+01 2.807516670227050781e+01 6.056486368179321289e-01 6.667071819305419922e+00 2.181816101074218750e+00 2.790180921554565430e+00
4.974000000000000000e+03 3.596153640747070312e+01 9.578567504882812500e+00 -2.760233581066131592e-01 4.147428274154663086e-01 4.161584749817848206e-02 2.694077044725418091e-02
4.975000000000000000e+03 4.166233062744140625e+01 1.656980323791503906e+01 -1.258927583694458008e-01 1.158588647842407227e+00 3.098087608814239502e-01 3.854987919330596924e-01
4.976000000000000000e+03 4.197667312622070312e+01 1.596253871917724609e+01 -1.470664888620376587e-01 1.335627794265747070e+00 3.565683960914611816e-01 4.217312932014465332e-01
4.977000000000000000e+03 2.369976234436035156e+01 1.919959449768066406e+01 7.370684295892715454e-02 1.356280893087387085e-01 6.280047446489334106e-02 1.019888296723365784e-01
4.978000000000000000e+03 1.558607769012451172e+01 1.274912548065185547e+01 5.835891142487525940e-02 2.028568238019943237e-01 7.836472243070602417e-02 9.467018395662307739e-02
4.979000000000000000e+03 1.399130249023437500e+01 1.152884292602539062e+01 5.418937280774116516e-02 2.159626334905624390e-01 8.104559779167175293e-02 6.999936699867248535e-02
4.980000000000000000e+03 1.491393661499023438e+01 1.174839305877685547e+01 6.236350163817405701e-02 2.225166857242584229e-01 8.546405285596847534e-02 9.184540808200836182e-02
4.981000000000000000e+03 1.627603912353515625e+01 1.271932125091552734e+01 6.765295565128326416e-02 2.049156576395034790e-01 8.177058398723602295e-02 1.078657582402229309e-01
4.982000000000000000e+03 1.716814994812011719e+01 1.386347293853759766e+01 6.833089888095855713e-02 1.879465281963348389e-01 7.688322663307189941e-02 1.071275323629379272e-01
4.983000000000000000e+03 2.492481613159179688e+01 2.236364364624023438e+01 5.269026383757591248e-02 1.248195990920066833e-01 5.325295776128768921e-02 8.426750451326370239e-02
4.984000000000000000e+03 2.910343742370605469e+01 1.879678130149841309e+00 -1.957238614559173584e-01 -7.910039275884628296e-02 -8.244727551937103271e-02 -1.144143044948577881e-01
4.985000000000000000e+03 2.181164360046386719e+01 1.873887062072753906e+01 6.271884590387344360e-02 1.431630104780197144e-01 6.176455691456794739e-02 9.759586304426193237e-02
4.986000000000000000e+03 2.205690193176269531e+01 1.829388809204101562e+01 6.858990341424942017e-02 1.448551267385482788e-01 6.403350830078125000e-02 1.007006242871284485e-01
4.987000000000000000e+03 2.309625434875488281e+01 1.890103721618652344e+01 7.207646220922470093e-02 1.388157308101654053e-01 6.326765567064285278e-02 1.024410650134086609e-01
4.988000000000000000e+03 2.532526779174804688e+01 2.205593872070312500e+01 5.643560737371444702e-02 1.222402602434158325e-01 5.360275879502296448e-02 8.832687139511108398e-02
4.989000000000000000e+03 4.243578720092773438e+01 1.672392272949218750e+01 -1.178745329380035400e-01 1.383006811141967773e+00 3.795396685600280762e-01 4.724170565605163574e-01
4.990000000000000000e+03 3.589546966552734375e+01 7.447346210479736328e+00 -1.748391389846801758e-01 5.273311138153076172e-01 1.057475879788398743e-01 6.606244295835494995e-02
4.991000000000000000e+03 5.873006439208984375e+01 3.105809783935546875e+01 9.754872322082519531e-01 1.285836887359619141e+01 4.150156497955322266e+00 -5.527747273445129395e-01
4.992000000000000000e+03 5.887614822387695312e+01 3.195547485351562500e+01 2.112687349319458008e+00 1.329358005523681641e+01 4.621880531311035156e+00 -1.000780224800109863e+00
4.993000000000000000e+03 1.723713302612304688e+01 1.436632251739501953e+01 6.300051510334014893e-02 1.800076067447662354e-01 7.290243357419967651e-02 1.006360426545143127e-01
4.994000000000000000e+03 2.812409782409667969e+01 2.629939460754394531e+01 4.364034906029701233e-02 1.060652434825897217e-01 4.491167888045310974e-02 7.743186503648757935e-02
4.995000000000000000e+03 2.541071319580078125e+01 2.537330055236816406e+01 3.665808215737342834e-02 1.120226532220840454e-01 4.460421949625015259e-02 7.617076486349105835e-02
4.996000000000000000e+03 3.529698181152343750e+01 6.176955699920654297e+00 -1.269641369581222534e-01 4.792211651802062988e-01 1.056771054863929749e-01 4.205253720283508301e-02
4.997000000000000000e+03 3.007574844360351562e+01 2.613831281661987305e+00 -1.663985252380371094e-01 -1.041956152766942978e-02 -5.304542928934097290e-02 -1.257305145263671875e-01
4.998000000000000000e+03 2.831267547607421875e+01 2.795432662963867188e+01 4.281023889780044556e-02 1.031137779355049133e-01 4.377720504999160767e-02 6.657639145851135254e-02
4.999000000000000000e+03 2.968724250793457031e+01 2.808878517150878906e+01 4.039429128170013428e-02 1.026246622204780579e-01 4.290568456053733826e-02 7.346284389495849609e-02
5.000000000000000000e+03 2.880430984497070312e+01 2.753733062744140625e+01 3.976170346140861511e-02 1.048648357391357422e-01 4.338796064257621765e-02 7.326468080282211304e-02
5.001000000000000000e+03 2.983939933776855469e+01 7.003839015960693359e-01 -1.372501701116561890e-01 -1.105544529855251312e-02 -4.449168220162391663e-02 -6.058466061949729919e-02
5.002000000000000000e+03 2.892314910888671875e+01 2.819251823425292969e+01 5.033454298973083496e-02 1.002344638109207153e-01 4.517070204019546509e-02 6.894080340862274170e-02
5.003000000000000000e+03 2.845699691772460938e+01 2.694443511962890625e+01 4.996827244758605957e-02 1.050481274724006653e-01 4.650491848587989807e-02 7.154422998428344727e-02
5.004000000000000000e+03 2.717270088195800781e+01 2.601489830017089844e+01 3.911960124969482422e-02 1.077865287661552429e-01 4.407183825969696045e-02 7.634321600198745728e-02
5.005000000000000000e+03 2.693571853637695312e+01 2.530823707580566406e+01 4.937581717967987061e-02 1.108352765440940857e-01 4.806332662701606750e-02 7.528153806924819946e-02
5.006000000000000000e+03 2.535634613037109375e+01 2.450847053527832031e+01 4.270697012543678284e-02 1.152181997895240784e-01 4.737755283713340759e-02 7.952225208282470703e-02
5.007000000000000000e+03 3.542776489257812500e+01 7.654137134552001953e+00 -1.886565238237380981e-01 4.303810298442840576e-01 7.251735031604766846e-02 3.944758325815200806e-02
5.008000000000000000e+03 3.497229766845703125e+01 6.769270420074462891e+00 -1.476598829030990601e-01 3.846074044704437256e-01 7.108425348997116089e-02 2.183550596237182617e-02
5.009000000000000000e+03 3.163533210754394531e+01 3.055340528488159180e+00 -1.169719770550727844e-01 1.251581609249114990e-01 2.455853391438722610e-03 -1.144696027040481567e-01
5.010000000000000000e+03 3.352110290527343750e+01 4.315267086029052734e+00 -7.984301447868347168e-02 2.895091772079467773e-01 6.289984285831451416e-02 -6.103943288326263428e-02
5.011000000000000000e+03 3.192020034790039062e+01 5.317135453224182129e-01 -7.350205630064010620e-02 2.069059908390045166e-01 4.002118110656738281e-02 -3.358904272317886353e-02
5.012000000000000000e+03 3.225609207153320312e+01 4.312033578753471375e-02 -6.203385815024375916e-02 2.458900660276412964e-01 5.515686050057411194e-02 -2.404970303177833557e-02
5.013000000000000000e+03 3.334032440185546875e+01 3.835684061050415039e+00 -7.532276213169097900e-02 2.860352396965026855e-01 6.321373581886291504e-02 -6.359419226646423340e-02
5.014000000000000000e+03 3.386144256591796875e+01 4.691184997558593750e+00 -8.065783232450485229e-02 3.114343285560607910e-01 6.923294812440872192e-02 -4.345310479402542114e-02
5.015000000000000000e+03 1.210661125183105469e+01 8.062031745910644531e+00 9.827350080013275146e-02 2.814520597457885742e-01 1.139176711440086365e-01 -1.065607275813817978e-02
5.016000000000000000e+03 3.519507217407226562e+01 7.214402198791503906e+00 -1.662797182798385620e-01 3.988030552864074707e-01 6.975699961185455322e-02 3.114837408065795898e-02
5.017000000000000000e+03 6.344000244140625000e+01 2.990264892578125000e+01 8.651117086410522461e-01 9.931740760803222656e+00 3.239055633544921875e+00 -1.457622528076171875e+00
5.018000000000000000e+03 1.810043907165527344e+01 1.494587421417236328e+01 6.808427721261978149e-02 1.725978851318359375e-01 7.220464944839477539e-02 1.041068062186241150e-01
5.019000000000000000e+03 1.869475555419921875e+01 1.606170463562011719e+01 6.019913405179977417e-02 1.624255627393722534e-01 6.678740680217742920e-02 9.842383861541748047e-02
5.020000000000000000e+03 3.614438247680664062e+01 -2.136042118072509766e+00 -4.912374913692474365e-02 8.956011533737182617e-01 2.539432346820831299e-01 1.345162186771631241e-02
5.021000000000000000e+03 6.025884628295898438e+01 3.268957519531250000e+01 2.929795026779174805e+00 1.191639518737792969e+01 4.453856945037841797e+00 -1.203347444534301758e+00
5.022000000000000000e+03 3.412757873535156250e+01 -8.758358955383300781e-01 -3.939358144998550415e-02 5.375528335571289062e-01 1.494477838277816772e-01 -1.244088198291137815e-04
5.023000000000000000e+03 3.063868331909179688e+01 4.264827370643615723e-01 -1.091274246573448181e-01 6.289684772491455078e-02 -1.386917196214199066e-02 -4.647097364068031311e-02
5.024000000000000000e+03 3.731631088256835938e+01 -3.668363332748413086e+00 -5.981260910630226135e-02 1.157310843467712402e+00 3.292494416236877441e-01 3.394169500097632408e-03
5.025000000000000000e+03 3.712363815307617188e+01 -2.792610168457031250e+00 -6.127262488007545471e-02 1.102866172790527344e+00 3.124780654907226562e-01 1.537104137241840363e-02
5.026000000000000000e+03 2.542583656311035156e+01 2.140559196472167969e+01 6.212693452835083008e-02 1.244589164853096008e-01 5.597575381398200989e-02 9.285251051187515259e-02
5.027000000000000000e+03 3.336659240722656250e+01 -7.132895588874816895e-01 -3.783974424004554749e-02 4.026109874248504639e-01 1.094313710927963257e-01 -4.743414930999279022e-03
5.028000000000000000e+03 2.060437965393066406e+01 1.802975845336914062e+01 6.023550033569335938e-02 1.479992121458053589e-01 6.247041374444961548e-02 9.452041238546371460e-02
5.029000000000000000e+03 1.154787254333496094e+01 6.700401306152343750e+00 1.591631621122360229e-01 2.576624751091003418e-01 1.250476986169815063e-01 -7.407888025045394897e-02
5.030000000000000000e+03 1.143763732910156250e+01 9.966403007507324219e+00 7.048142701387405396e-02 1.718796193599700928e-01 7.270831614732742310e-02 -2.036875812336802483e-04
5.031000000000000000e+03 1.187102222442626953e+01 9.059011459350585938e+00 8.307466655969619751e-02 2.255623191595077515e-01 9.259109944105148315e-02 -7.776589482091367245e-04
5.032000000000000000e+03 1.289248752593994141e+01 1.711987113952636719e+01 1.275662146508693695e-02 1.000243574380874634e-01 3.383429348468780518e-02 2.316792123019695282e-02
5.033000000000000000e+03 1.245502185821533203e+01 1.783813095092773438e+01 8.384292013943195343e-03 8.429051935672760010e-02 2.780244313180446625e-02 1.681218855082988739e-02
5.034000000000000000e+03 1.262417793273925781e+01 2.135699653625488281e+01 -1.702994573861360550e-03 5.568041652441024780e-02 1.619322784245014191e-02 9.446553885936737061e-03
5.035000000000000000e+03 1.224777412414550781e+01 1.994068908691406250e+01 1.048243837431073189e-03 6.064980104565620422e-02 1.850941218435764313e-02 9.018163196742534637e-03
5.036000000000000000e+03 1.337924289703369141e+01 1.494740104675292969e+01 2.655642107129096985e-02 1.377684772014617920e-01 4.929746687412261963e-02 3.695547580718994141e-02
5.037000000000000000e+03 1.114866161346435547e+01 1.322924613952636719e+01 3.452606126666069031e-02 1.048258543014526367e-01 4.180557653307914734e-02 8.195732720196247101e-03
5.038000000000000000e+03 6.668904113769531250e+01 2.892422866821289062e+01 4.926032423973083496e-01 8.783744812011718750e+00 2.782904386520385742e+00 -1.593517899513244629e+00
5.039000000000000000e+03 6.475025939941406250e+01 -1.018082618713378906e+01 -2.301397323608398438e-01 6.937025547027587891e+00 2.012065887451171875e+00 1.740308552980422974e-01
5.040000000000000000e+03 1.173989009857177734e+01 1.283358287811279297e+01 3.750281408429145813e-02 1.305738985538482666e-01 5.042301490902900696e-02 1.592252776026725769e-02
5.041000000000000000e+03 1.174822902679443359e+01 1.345452404022216797e+01 3.084574826061725616e-02 1.218044161796569824e-01 4.579504951834678650e-02 1.793876104056835175e-02
5.042000000000000000e+03 6.511088562011718750e+01 1.764542460441589355e+00 -4.137664139270782471e-01 7.148490905761718750e+00 2.020417451858520508e+00 -1.130312308669090271e-01
5.043000000000000000e+03 1.314980220794677734e+01 1.453907871246337891e+01 2.734856307506561279e-02 1.395289152860641479e-01 5.006324499845504761e-02 3.566784411668777466e-02
5.044000000000000000e+03 6.602069854736328125e+01 1.317523360252380371e+00 -3.744792938232421875e-01 7.284342288970947266e+00 2.072958946228027344e+00 -1.194498091936111450e-01
5.045000000000000000e+03 6.392636871337890625e+01 6.281217187643051147e-02 -4.064723849296569824e-01 6.913227081298828125e+00 1.952026367187500000e+00 -3.504658490419387817e-02
5.046000000000000000e+03 3.828325271606445312e+01 -3.481164455413818359e+00 -8.025709539651870728e-02 1.346710801124572754e+00 3.799361288547515869e-01 1.996307261288166046e-02
5.047000000000000000e+03 3.728135681152343750e+01 -4.562912464141845703e+00 -7.556363940238952637e-02 1.147567391395568848e+00 3.216011226177215576e-01 -7.583111990243196487e-03
5.048000000000000000e+03 6.415482330322265625e+01 4.205037593841552734e+00 -5.077724456787109375e-01 7.070974826812744141e+00 1.968960762023925781e+00 -1.518054008483886719e-01
5.049000000000000000e+03 4.025911712646484375e+01 -4.882648944854736328e+00 -1.232319772243499756e-01 1.777648806571960449e+00 4.963250458240509033e-01 1.784289069473743439e-02
5.050000000000000000e+03 3.872378921508789062e+01 -4.369964122772216797e+00 -8.982060849666595459e-02 1.449754238128662109e+00 4.079800844192504883e-01 8.158908225595951080e-03
5.051000000000000000e+03 1.409945583343505859e+01 2.341749191284179688e+01 -2.044095890596508980e-03 6.247027963399887085e-02 1.812785491347312927e-02 1.671858690679073334e-02
5.052000000000000000e+03 4.317440795898437500e+01 -1.042351055145263672e+01 -2.216777205467224121e-01 2.530428409576416016e+00 6.926252245903015137e-01 -8.290388435125350952e-02
5.053000000000000000e+03 6.407809448242187500e+01 -1.473988294601440430e+00 -3.689083755016326904e-01 6.915787220001220703e+00 1.964063644409179688e+00 -3.428432857617735863e-03
5.054000000000000000e+03 6.503166961669921875e+01 -2.195507287979125977e+00 -3.340984880924224854e-01 7.064110279083251953e+00 2.019003629684448242e+00 -4.858647007495164871e-03
5.055000000000000000e+03 6.734479522705078125e+01 1.372263717651367188e+01 -6.219206452369689941e-01 7.864621162414550781e+00 2.172810316085815430e+00 -7.345666885375976562e-01
5.056000000000000000e+03 6.684293365478515625e+01 1.507329559326171875e+01 -6.773177385330200195e-01 7.913426399230957031e+00 2.170832633972167969e+00 -7.877035140991210938e-01
5.057000000000000000e+03 1.273964118957519531e+01 1.135616397857666016e+01 5.098550766706466675e-02 1.925667971372604370e-01 7.306569069623947144e-02 3.672603517770767212e-02
5.058000000000000000e+03 1.069713020324707031e+01 1.164700126647949219e+01 5.361099168658256531e-02 1.088911220431327820e-01 4.875063523650169373e-02 -2.690581604838371277e-03
5.059000000000000000e+03 6.576628875732421875e+01 2.353730392456054688e+01 -5.084991455078125000e-01 8.706869125366210938e+00 2.459511041641235352e+00 -1.322834491729736328e+00
5.060000000000000000e+03 6.616663360595703125e+01 2.264575767517089844e+01 -5.656492114067077637e-01 8.565166473388671875e+00 2.399855136871337891e+00 -1.294499039649963379e+00
5.061000000000000000e+03 3.098776817321777344e+01 3.289566040039062500e+01 4.152056574821472168e-02 8.917118608951568604e-02 3.920752555131912231e-02 5.455531552433967590e-02
5.062000000000000000e+03 6.698416900634765625e+01 7.199838638305664062e+00 -4.855489730834960938e-01 7.563602447509765625e+00 2.123415946960449219e+00 -3.613963425159454346e-01
5.063000000000000000e+03 6.819264221191406250e+01 1.000836658477783203e+01 -4.970505535602569580e-01 7.774857997894287109e+00 2.183342218399047852e+00 -5.408678650856018066e-01
5.064000000000000000e+03 6.716799163818359375e+01 2.580337715148925781e+01 -1.130252107977867126e-01 8.588108062744140625e+00 2.542524814605712891e+00 -1.567721724510192871e+00
5.065000000000000000e+03 6.737899017333984375e+01 1.812698173522949219e+01 -6.493341922760009766e-01 8.103304862976074219e+00 2.236191034317016602e+00 -1.041271924972534180e+00
5.066000000000000000e+03 6.628092193603515625e+01 -1.061475658416748047e+01 -1.996675133705139160e-01 7.202171802520751953e+00 2.100751161575317383e+00 1.763357669115066528e-01
5.067000000000000000e+03 6.720024108886718750e+01 1.184840106964111328e+01 -5.977897047996520996e-01 7.763289928436279297e+00 2.149650096893310547e+00 -6.061145067214965820e-01
5.068000000000000000e+03 1.356120109558105469e+01 2.186185264587402344e+01 -7.856133015593513846e-05 6.626464426517486572e-02 1.985582523047924042e-02 1.630673557519912720e-02
5.069000000000000000e+03 6.720846557617187500e+01 9.995216369628906250e+00 -5.484966039657592773e-01 7.686837196350097656e+00 2.141502141952514648e+00 -5.071648955345153809e-01
5.070000000000000000e+03 6.681130218505859375e+01 6.270235538482666016e+00 -4.662502706050872803e-01 7.513576984405517578e+00 2.114197969436645508e+00 -3.171253800392150879e-01
5.071000000000000000e+03 6.539480590820312500e+01 -2.241015815734863281e+01 -5.209770426154136658e-02 7.016933441162109375e+00 2.089450597763061523e+00 3.651073575019836426e-01
5.072000000000000000e+03 4.300494003295898438e+01 -6.937788963317871094e+00 -1.981343179941177368e-01 2.450672149658203125e+00 6.757613420486450195e-01 -8.681231178343296051e-03
5.073000000000000000e+03 4.106790161132812500e+01 -4.281684875488281250e+00 -1.412224620580673218e-01 1.955467224121093750e+00 5.442734360694885254e-01 3.210043907165527344e-02
5.074000000000000000e+03 3.545671463012695312e+01 3.727088165283203125e+01 7.401812821626663208e-02 6.884324550628662109e-02 4.285841062664985657e-02 4.793627560138702393e-02
5.075000000000000000e+03 1.483578109741210938e+01 -2.492968368530273438e+01 7.700534909963607788e-02 7.731002289801836014e-03 2.542090602219104767e-02 -1.143936887383460999e-01
5.076000000000000000e+03 1.151600170135498047e+01 -2.709321403503417969e+01 2.838099747896194458e-02 -1.437436640262603760e-01 -3.460879996418952942e-02 -7.299670577049255371e-02
5.077000000000000000e+03 4.451802825927734375e+01 -1.760901641845703125e+01 -2.480100840330123901e-01 3.036065101623535156e+00 8.364164829254150391e-01 -2.102240473031997681e-01
5.078000000000000000e+03 4.373080444335937500e+01 -7.804268836975097656e+00 -2.220946252346038818e-01 2.637291669845581055e+00 7.245591282844543457e-01 -2.090505324304103851e-02
5.079000000000000000e+03 1.549764537811279297e+01 2.704149246215820312e+01 -3.966892138123512268e-03 5.724687874317169189e-02 1.598399505019187927e-02 1.757434196770191193e-02
5.080000000000000000e+03 1.421496009826660156e+01 2.637498664855957031e+01 -5.522812251001596451e-03 4.535135626792907715e-02 1.194856315851211548e-02 1.094943098723888397e-02
5.081000000000000000e+03 1.594754409790039062e+01 -2.903715896606445312e+01 5.804432183504104614e-02 2.009447477757930756e-02 2.344163879752159119e-02 -9.801056981086730957e-02
5.082000000000000000e+03 1.004845333099365234e+01 -2.712990188598632812e+01 3.844431415200233459e-02 -2.102239727973937988e-01 -5.153389647603034973e-02 -7.496112585067749023e-02
5.083000000000000000e+03 6.629822540283203125e+01 -1.543074035644531250e+01 -1.507835537195205688e-01 7.181364536285400391e+00 2.109174251556396484e+00 2.682378888130187988e-01
5.084000000000000000e+03 5.507950210571289062e+01 -1.794207382202148438e+01 -2.687366902828216553e-01 5.385317802429199219e+00 1.534974336624145508e+00 1.946637630462646484e-01
5.085000000000000000e+03 6.721385955810546875e+01 1.278357887268066406e+01 -6.241916418075561523e-01 7.814582347869873047e+00 2.157117128372192383e+00 -6.619510054588317871e-01
5.086000000000000000e+03 6.627042388916015625e+01 1.089713001251220703e+01 -6.205947995185852051e-01 7.641254901885986328e+00 2.106198072433471680e+00 -5.102711319923400879e-01
5.087000000000000000e+03 6.774104309082031250e+01 1.935475158691406250e+01 -6.111392974853515625e-01 8.152787208557128906e+00 2.262494325637817383e+00 -1.145761251449584961e+00
5.088000000000000000e+03 6.689401245117187500e+01 1.672192001342773438e+01 -6.940393447875976562e-01 8.030826568603515625e+00 2.201035976409912109e+00 -9.067699313163757324e-01
5.089000000000000000e+03 6.430513000488281250e+01 -4.379577159881591797e+00 -3.095774352550506592e-01 6.924099922180175781e+00 1.984356760978698730e+00 6.088027358055114746e-02
5.090000000000000000e+03 6.615588378906250000e+01 -4.004823684692382812e+00 -2.728712856769561768e-01 7.239248275756835938e+00 2.089913129806518555e+00 2.718308568000793457e-02
5.091000000000000000e+03 4.677787017822265625e+01 -1.714055061340332031e+01 -3.159342706203460693e-01 3.603723049163818359e+00 9.863366484642028809e-01 -1.256810873746871948e-01
5.092000000000000000e+03 6.591918182373046875e+01 -5.918689727783203125e+00 -2.661309540271759033e-01 7.171445369720458984e+00 2.071594476699829102e+00 6.833577156066894531e-02
5.093000000000000000e+03 5.127532958984375000e+01 -1.911961746215820312e+01 -3.125898540019989014e-01 4.707685947418212891e+00 1.318528771400451660e+00 7.131561636924743652e-02
5.094000000000000000e+03 4.965725326538085938e+01 -1.558691120147705078e+01 -3.398834168910980225e-01 4.239471435546875000e+00 1.169876337051391602e+00 -5.597655661404132843e-03
5.095000000000000000e+03 5.386124801635742188e+01 -1.936983871459960938e+01 -2.654294967651367188e-01 5.218833923339843750e+00 1.486021399497985840e+00 1.782945990562438965e-01
5.096000000000000000e+03 5.287517547607421875e+01 -1.962300109863281250e+01 -2.859180867671966553e-01 5.039251804351806641e+00 1.426000118255615234e+00 1.499560475349426270e-01
5.097000000000000000e+03 6.529021453857421875e+01 -1.125342941284179688e+01 -2.164448797702789307e-01 7.040952682495117188e+00 2.047352313995361328e+00 1.961165070533752441e-01
5.098000000000000000e+03 6.669499206542968750e+01 -1.343447113037109375e+01 -1.596572548151016235e-01 7.257537364959716797e+00 2.129364013671875000e+00 2.298122942447662354e-01
5.099000000000000000e+03 6.674285888671875000e+01 3.532081985473632812e+01 1.409803628921508789e+00 8.945720672607421875e+00 3.106657266616821289e+00 -5.644582509994506836e-01
5.100000000000000000e+03 6.285938262939453125e+01 3.483170700073242188e+01 2.795131206512451172e+00 1.031857967376708984e+01 3.934113025665283203e+00 -2.003954946994781494e-01
5.101000000000000000e+03 5.245014953613281250e+01 -2.871095466613769531e+01 1.239201948046684265e-01 5.402616500854492188e+00 1.657961010932922363e+00 2.910144627094268799e-01
5.102000000000000000e+03 5.373488998413085938e+01 -2.490201950073242188e+01 -9.924798458814620972e-02 5.413002967834472656e+00 1.594126462936401367e+00 2.933222651481628418e-01
5.103000000000000000e+03 1.455919551849365234e+01 3.289448547363281250e+01 -7.971695624291896820e-03 2.232666313648223877e-02 4.306490533053874969e-03 6.973049137741327286e-03
5.104000000000000000e+03 1.489096832275390625e+01 2.851504325866699219e+01 -5.863886792212724686e-03 4.272707551717758179e-02 1.105895731598138809e-02 1.127860695123672485e-02
5.105000000000000000e+03 5.524889755249023438e+01 3.034416961669921875e+01 5.550583004951477051e-01 1.023107147216796875e+01 3.235838890075683594e+00 3.330807924270629883e+00
5.106000000000000000e+03 5.613306045532226562e+01 3.105603408813476562e+01 3.681159019470214844e-01 1.266289997100830078e+01 3.909304618835449219e+00 2.658084154129028320e+00
5.107000000000000000e+03 2.851946830749511719e+01 1.613215923309326172e+00 -2.072237730026245117e-01 -1.204830110073089600e-01 -9.831203520298004150e-02 -1.181187182664871216e-01
5.108000000000000000e+03 2.806476402282714844e+01 8.570502400398254395e-01 -2.189641296863555908e-01 -1.203123703598976135e-01 -1.017829477787017822e-01 -7.088914513587951660e-02
5.109000000000000000e+03 4.942514038085937500e+01 2.189840507507324219e+01 -4.522184608504176140e-04 3.808359146118164062e+00 1.142372131347656250e+00 1.430808901786804199e+00
5.110000000000000000e+03 4.513914871215820312e+01 1.948668861389160156e+01 5.815488286316394806e-03 2.021340847015380859e+00 6.081469058990478516e-01 8.218785524368286133e-01
5.111000000000000000e+03 4.594559478759765625e+01 2.005391311645507812e+01 2.782792970538139343e-02 2.299265146255493164e+00 6.981279253959655762e-01 9.424901008605957031e-01
5.112000000000000000e+03 4.969157028198242188e+01 2.352742958068847656e+01 2.060891687870025635e-01 3.812727689743041992e+00 1.205645084381103516e+00 1.629693388938903809e+00
5.113000000000000000e+03 4.929925155639648438e+01 2.370624351501464844e+01 2.744084596633911133e-01 3.544824123382568359e+00 1.145769834518432617e+00 1.602862834930419922e+00
5.114000000000000000e+03 5.345545578002929688e+01 2.761374855041503906e+01 4.260748624801635742e-01 6.727575302124023438e+00 2.146095037460327148e+00 2.623106002807617188e+00
5.115000000000000000e+03 4.763526535034179688e+01 2.221706199645996094e+01 1.813791543245315552e-01 2.815698623657226562e+00 8.991233110427856445e-01 1.255269408226013184e+00
5.116000000000000000e+03 4.985153961181640625e+01 2.487808990478515625e+01 4.308406412601470947e-01 3.744347572326660156e+00 1.252556443214416504e+00 1.791318774223327637e+00
5.117000000000000000e+03 5.424794006347656250e+01 2.943122291564941406e+01 7.661314010620117188e-01 7.994774818420410156e+00 2.628271818161010742e+00 3.302541017532348633e+00
5.118000000000000000e+03 4.538605117797851562e+01 1.945390510559082031e+01 5.482472479343414307e-04 2.124463796615600586e+00 6.375036239624023438e-01 8.633564114570617676e-01
5.119000000000000000e+03 4.635108947753906250e+01 2.012108039855957031e+01 1.941825263202190399e-02 2.451768159866333008e+00 7.413558959960937500e-01 9.914150238037109375e-01
5.120000000000000000e+03 4.638660430908203125e+01 2.048638343811035156e+01 4.739302396774291992e-02 2.430122137069702148e+00 7.432545423507690430e-01 1.011380314826965332e+00
5.121000000000000000e+03 5.453553771972656250e+01 3.017306709289550781e+01 9.128723740577697754e-01 8.714656829833984375e+00 2.888258695602416992e+00 3.629909515380859375e+00
5.122000000000000000e+03 5.027492523193359375e+01 2.456000709533691406e+01 3.174254000186920166e-01 4.072772502899169922e+00 1.317059397697448730e+00 1.804016470909118652e+00
5.123000000000000000e+03 3.995362854003906250e+01 1.289853954315185547e+01 -2.231230884790420532e-01 1.057042956352233887e+00 2.501759529113769531e-01 2.542131543159484863e-01
5.124000000000000000e+03 3.912699508666992188e+01 1.374465274810791016e+01 -2.336652874946594238e-01 7.582806944847106934e-01 1.573846191167831421e-01 1.580927520990371704e-01
5.125000000000000000e+03 4.326111221313476562e+01 1.718339538574218750e+01 -9.999030828475952148e-02 1.606198549270629883e+00 4.518624842166900635e-01 5.667957067489624023e-01
5.126000000000000000e+03 4.155247879028320312e+01 1.606847763061523438e+01 -1.390324532985687256e-01 1.181031942367553711e+00 3.125998675823211670e-01 3.824191093444824219e-01
5.127000000000000000e+03 3.949399185180664062e+01 1.288678646087646484e+01 -2.313835471868515015e-01 9.422693252563476562e-01 2.132657468318939209e-01 2.120205461978912354e-01
5.128000000000000000e+03 4.852773284912109375e+01 2.219373321533203125e+01 1.145031601190567017e-01 3.277888059616088867e+00 1.017717361450195312e+00 1.371612906455993652e+00
5.129000000000000000e+03 4.364096832275390625e+01 1.765111160278320312e+01 -8.116026967763900757e-02 1.683491706848144531e+00 4.806994199752807617e-01 6.168829202651977539e-01
5.130000000000000000e+03 3.911099624633789062e+01 1.100727272033691406e+01 -2.320777326822280884e-01 9.961736202239990234e-01 2.292287647724151611e-01 2.125556766986846924e-01
5.131000000000000000e+03 3.953455734252929688e+01 1.334690856933593750e+01 -2.257899045944213867e-01 9.109566211700439453e-01 2.055500149726867676e-01 2.106730341911315918e-01
5.132000000000000000e+03 5.263341522216796875e+01 2.692733573913574219e+01 4.534041583538055420e-01 5.880193710327148438e+00 1.900079369544982910e+00 2.437276363372802734e+00
5.133000000000000000e+03 5.274560546875000000e+01 2.743297386169433594e+01 5.881106257438659668e-01 5.953425407409667969e+00 1.962460875511169434e+00 2.582896947860717773e+00
5.134000000000000000e+03 5.848228454589843750e+01 3.134756278991699219e+01 1.134112238883972168e+00 1.323739433288574219e+01 4.311451911926269531e+00 -4.638285934925079346e-01
5.135000000000000000e+03 5.843275833129882812e+01 3.217689514160156250e+01 2.183088779449462891e+00 1.393397045135498047e+01 4.835117816925048828e+00 -8.706707358360290527e-01
5.136000000000000000e+03 5.235965728759765625e+01 2.664834022521972656e+01 4.476495683193206787e-01 5.592896461486816406e+00 1.812163829803466797e+00 2.350103139877319336e+00
5.137000000000000000e+03 4.511153411865234375e+01 1.927722549438476562e+01 -6.316300481557846069e-03 2.029808282852172852e+00 6.070476174354553223e-01 8.171854615211486816e-01
5.138000000000000000e+03 2.447942352294921875e+01 2.175702285766601562e+01 5.144781619310379028e-02 1.273394227027893066e-01 5.363617092370986938e-02 8.554464578628540039e-02
5.139000000000000000e+03 2.472678184509277344e+01 2.200411224365234375e+01 5.306190624833106995e-02 1.230617836117744446e-01 5.283710733056068420e-02 8.703425526618957520e-02
5.140000000000000000e+03 1.454174709320068359e+01 2.233980941772460938e+01 8.370899013243615627e-04 7.525783777236938477e-02 2.282847836613655090e-02 2.132739685475826263e-02
5.141000000000000000e+03 1.933966445922851562e+01 1.650597000122070312e+01 6.220867112278938293e-02 1.594813019037246704e-01 6.650698930025100708e-02 9.946146607398986816e-02
5.142000000000000000e+03 4.285536193847656250e+01 1.673270034790039062e+01 -1.180718764662742615e-01 1.517700433731079102e+00 4.198885858058929443e-01 5.181039571762084961e-01
5.143000000000000000e+03 4.948662948608398438e+01 2.411752891540527344e+01 3.209478259086608887e-01 3.600759267807006836e+00 1.176512122154235840e+00 1.657968401908874512e+00
5.144000000000000000e+03 4.447477340698242188e+01 1.776772880554199219e+01 -8.701805025339126587e-02 1.966422319412231445e+00 5.638213157653808594e-01 7.147228717803955078e-01
5.145000000000000000e+03 4.484902191162109375e+01 1.901398086547851562e+01 -1.782732643187046051e-02 1.958332657814025879e+00 5.821515917778015137e-01 7.801509499549865723e-01
5.146000000000000000e+03 5.069072723388671875e+01 2.471394157409667969e+01 2.862106859683990479e-01 4.367524623870849609e+00 1.396120548248291016e+00 1.868232011795043945e+00
5.147000000000000000e+03 5.200506210327148438e+01 2.641103744506835938e+01 4.594020545482635498e-01 5.277014732360839844e+00 1.720924973487854004e+00 2.283015966415405273e+00
5.148000000000000000e+03 2.997309875488281250e+01 2.366201639175415039e+00 -1.682729572057723999e-01 -1.375093404203653336e-02 -5.460716784000396729e-02 -1.123389303684234619e-01
5.149000000000000000e+03 3.019361114501953125e+01 1.471137523651123047e+00 -1.504721790552139282e-01 1.625746116042137146e-02 -4.026441648602485657e-02 -8.628288656473159790e-02
5.150000000000000000e+03 5.343989944458007812e+01 2.655256462097167969e+01 1.398394554853439331e-01 6.625275611877441406e+00 2.029534578323364258e+00 2.297067165374755859e+00
5.151000000000000000e+03 5.316599655151367188e+01 2.778107833862304688e+01 5.730011463165283203e-01 6.411195755004882812e+00 2.095258951187133789e+00 2.693421840667724609e+00
5.152000000000000000e+03 4.055973434448242188e+01 1.503801250457763672e+01 -1.874439567327499390e-01 1.007448792457580566e+00 2.460014671087265015e-01 2.806086242198944092e-01
5.153000000000000000e+03 5.178989791870117188e+01 2.565137863159179688e+01 3.210900127887725830e-01 5.138649940490722656e+00 1.637921929359436035e+00 2.118071317672729492e+00
5.154000000000000000e+03 5.109186553955078125e+01 2.498172760009765625e+01 2.811200320720672607e-01 4.635753631591796875e+00 1.475062012672424316e+00 1.944092273712158203e+00
5.155000000000000000e+03 5.144588851928710938e+01 2.532140731811523438e+01 3.032362759113311768e-01 4.882569789886474609e+00 1.555741786956787109e+00 2.024595737457275391e+00
5.156000000000000000e+03 5.630245971679687500e+01 3.040565872192382812e+01 1.417352110147476196e-01 1.196726703643798828e+01 3.632700681686401367e+00 2.289674758911132812e+00
5.157000000000000000e+03 4.808842849731445312e+01 2.193976020812988281e+01 1.121149063110351562e-01 3.080331087112426758e+00 9.577337503433227539e-01 1.298716425895690918e+00
5.158000000000000000e+03 4.473802947998046875e+01 1.824453735351562500e+01 -6.631527841091156006e-02 2.011005401611328125e+00 5.834070444107055664e-01 7.505812644958496094e-01
5.159000000000000000e+03 1.946992111206054688e+01 1.756500244140625000e+01 5.133306980133056641e-02 1.506363004446029663e-01 6.059081107378005981e-02 9.052654355764389038e-02
5.160000000000000000e+03 4.166944503784179688e+01 1.578335666656494141e+01 -1.523942500352859497e-01 1.255606293678283691e+00 3.309635818004608154e-01 3.908573091030120850e-01
5.161000000000000000e+03 3.749559783935546875e+01 1.086750221252441406e+01 -2.703527510166168213e-01 6.359284520149230957e-01 1.096727177500724792e-01 8.960542827844619751e-02
5.162000000000000000e+03 3.813020706176757812e+01 1.119538593292236328e+01 -2.565441429615020752e-01 7.554951310157775879e-01 1.496852934360504150e-01 1.325761973857879639e-01
5.163000000000000000e+03 5.437266921997070312e+01 2.897299385070800781e+01 5.379390120506286621e-01 8.118478775024414062e+00 2.596925258636474609e+00 3.032647132873535156e+00
5.164000000000000000e+03 4.074690628051757812e+01 1.486423301696777344e+01 -1.833143979310989380e-01 1.074378728866577148e+00 2.673193216323852539e-01 3.038605749607086182e-01
5.165000000000000000e+03 2.412642097473144531e+01 2.156430053710937500e+01 5.472555384039878845e-02 1.266954094171524048e-01 5.442628636956214905e-02 8.893831819295883179e-02
5.166000000000000000e+03 1.890403175354003906e+01 1.711771392822265625e+01 5.162328854203224182e-02 1.548318117856979370e-01 6.193652749061584473e-02 8.994877338409423828e-02
5.167000000000000000e+03 4.150030136108398438e+01 1.490488815307617188e+01 -1.750319451093673706e-01 1.301072239875793457e+00 3.378120958805084229e-01 3.871671259403228760e-01
5.168000000000000000e+03 4.059493637084960938e+01 1.458414077758789062e+01 -1.943198144435882568e-01 1.062567949295043945e+00 2.604744434356689453e-01 2.906326353549957275e-01
5.169000000000000000e+03 2.906584739685058594e+01 1.517404198646545410e+00 -1.729716807603836060e-01 -8.308373391628265381e-02 -7.681662589311599731e-02 -9.986575692892074585e-02
5.170000000000000000e+03 2.975077056884765625e+01 1.570837855339050293e+00 -1.522538810968399048e-01 -2.504719235002994537e-02 -5.319032445549964905e-02 -9.189933538436889648e-02
5.171000000000000000e+03 4.750043487548828125e+01 2.156492805480957031e+01 1.060176044702529907e-01 2.829848527908325195e+00 8.807598352432250977e-01 1.205986499786376953e+00
5.172000000000000000e+03 4.925392150878906250e+01 2.265353965759277344e+01 1.200995594263076782e-01 3.630736589431762695e+00 1.125250816345214844e+00 1.492798089981079102e+00
5.173000000000000000e+03 3.796334457397460938e+01 1.077413654327392578e+01 -2.503458261489868164e-01 7.530274391174316406e-01 1.508044898509979248e-01 1.328618377447128296e-01
5.174000000000000000e+03 1.956823348999023438e+01 1.863992500305175781e+01 4.381364583969116211e-02 1.427183300256729126e-01 5.595959350466728210e-02 8.291527628898620605e-02
5.175000000000000000e+03 1.886009216308593750e+01 1.816964912414550781e+01 4.071528092026710510e-02 1.456037163734436035e-01 5.589569732546806335e-02 8.089998364448547363e-02
5.176000000000000000e+03 1.374145030975341797e+01 1.119521999359130859e+01 5.639573186635971069e-02 2.217268794775009155e-01 8.343677967786788940e-02 6.389790028333663940e-02
5.177000000000000000e+03 2.218016242980957031e+01 1.895599746704101562e+01 6.261700391769409180e-02 1.417979598045349121e-01 6.132448837161064148e-02 9.585987776517868042e-02
5.178000000000000000e+03 1.240500545501708984e+01 1.283931064605712891e+01 3.590659052133560181e-02 1.526903957128524780e-01 5.657909438014030457e-02 2.785672247409820557e-02
5.179000000000000000e+03 3.780523300170898438e+01 1.037393188476562500e+01 -2.440425753593444824e-01 7.498076558113098145e-01 1.517295390367507935e-01 1.312230080366134644e-01
5.180000000000000000e+03 2.007382392883300781e+01 1.860011863708496094e+01 5.139219388365745544e-02 1.433238685131072998e-01 5.841482058167457581e-02 8.683764189481735229e-02
5.181000000000000000e+03 1.235767364501953125e+01 1.418252563476562500e+01 2.689761482179164886e-02 1.246559917926788330e-01 4.546608030796051025e-02 2.484035491943359375e-02
5.182000000000000000e+03 5.335309982299804688e+01 2.729316139221191406e+01 3.752099275588989258e-01 6.601739406585693359e+00 2.093084812164306641e+00 2.542297840118408203e+00
5.183000000000000000e+03 3.592641067504882812e+01 8.518292427062988281e+00 -2.272174358367919922e-01 4.765364229679107666e-01 7.479570060968399048e-02 5.383278056979179382e-02
5.184000000000000000e+03 3.693374252319335938e+01 9.188743591308593750e+00 -2.345003634691238403e-01 6.287757754325866699e-01 1.182826235890388489e-01 9.719269722700119019e-02
5.185000000000000000e+03 2.365976524353027344e+01 1.985188293457031250e+01 6.762683391571044922e-02 1.344838142395019531e-01 6.063319370150566101e-02 9.592732787132263184e-02
5.186000000000000000e+03 3.486343383789062500e+01 6.325444698333740234e+00 -1.292886137962341309e-01 3.820320367813110352e-01 7.582302391529083252e-02 1.568046025931835175e-02
5.187000000000000000e+03 3.666564178466796875e+01 8.739154815673828125e+00 -2.227579206228256226e-01 6.052578687667846680e-01 1.147499904036521912e-01 9.077295660972595215e-02
5.188000000000000000e+03 3.639983749389648438e+01 8.306611061096191406e+00 -2.086089700460433960e-01 5.761517882347106934e-01 1.102628409862518311e-01 8.421421051025390625e-02
5.189000000000000000e+03 5.453899002075195312e+01 2.932745170593261719e+01 5.671424269676208496e-01 8.479718208312988281e+00 2.714058160781860352e+00 3.148267030715942383e+00
5.190000000000000000e+03 5.395908355712890625e+01 2.846233749389648438e+01 5.254198312759399414e-01 7.419373035430908203e+00 2.383437871932983398e+00 2.882239580154418945e+00
5.191000000000000000e+03 4.463750076293945312e+01 1.734169960021972656e+01 -1.135963350534439087e-01 2.074711084365844727e+00 5.883344411849975586e-01 7.215148806571960449e-01
5.192000000000000000e+03 5.856011581420898438e+01 3.183270835876464844e+01 1.795707583427429199e+00 1.361163902282714844e+01 4.622203826904296875e+00 -7.976233959197998047e-01
5.193000000000000000e+03 1.537606239318847656e+01 1.228929519653320312e+01 6.246457248926162720e-02 2.111321836709976196e-01 8.207903057336807251e-02 9.450091421604156494e-02
5.194000000000000000e+03 1.526942062377929688e+01 1.314315319061279297e+01 5.197545886039733887e-02 1.960048526525497437e-01 7.439409196376800537e-02 8.315958827733993530e-02
5.195000000000000000e+03 4.217197036743164062e+01 1.564707660675048828e+01 -1.530269533395767212e-01 1.426232576370239258e+00 3.819617033004760742e-01 4.420649707317352295e-01
5.196000000000000000e+03 1.595759201049804688e+01 1.247074222564697266e+01 6.766922771930694580e-02 2.103679627180099487e-01 8.341115713119506836e-02 1.045210659503936768e-01
5.197000000000000000e+03 1.658090972900390625e+01 1.331784725189208984e+01 6.678637862205505371e-02 1.954463869333267212e-01 7.866983115673065186e-02 1.048783734440803528e-01
5.198000000000000000e+03 1.323315429687500000e+01 1.186525726318359375e+01 4.861370474100112915e-02 1.937514245510101318e-01 7.270953804254531860e-02 4.854921996593475342e-02
5.199000000000000000e+03 2.877663993835449219e+01 1.250915884971618652e+00 -1.919904798269271851e-01 -8.357917517423629761e-02 -8.267089724540710449e-02 -8.321066945791244507e-02
5.200000000000000000e+03 2.946186256408691406e+01 1.194137930870056152e+00 -1.664472669363021851e-01 -3.510419651865959167e-02 -6.046543642878532410e-02 -7.496319711208343506e-02
5.201000000000000000e+03 4.210448074340820312e+01 1.627646636962890625e+01 -1.381015479564666748e-01 1.339779973030090332e+00 3.605035245418548584e-01 4.306716918945312500e-01
5.202000000000000000e+03 1.626152229309082031e+01 1.413150501251220703e+01 5.432064086198806763e-02 1.815778613090515137e-01 7.076954841613769531e-02 9.077785164117813110e-02
5.203000000000000000e+03 2.330547904968261719e+01 2.043709754943847656e+01 5.894960463047027588e-02 1.326639950275421143e-01 5.748407915234565735e-02 8.975960314273834229e-02
5.204000000000000000e+03 1.594578647613525391e+01 1.310022830963134766e+01 6.075712293386459351e-02 1.970745921134948730e-01 7.734951376914978027e-02 9.568568319082260132e-02
5.205000000000000000e+03 1.587299060821533203e+01 1.385077953338623047e+01 5.243868380784988403e-02 1.861552298069000244e-01 7.157817482948303223e-02 8.668599277734756470e-02
5.206000000000000000e+03 2.907729148864746094e+01 8.614100217819213867e-01 -1.716737747192382812e-01 -6.856317818164825439e-02 -7.207108289003372192e-02 -7.372631877660751343e-02
5.207000000000000000e+03 3.498138427734375000e+01 5.919696331024169922e+00 -1.123128905892372131e-01 4.320942759513854980e-01 9.593441337347030640e-02 1.929534971714019775e-02
5.208000000000000000e+03 3.721284484863281250e+01 9.660229682922363281e+00 -2.443044632673263550e-01 6.601591706275939941e-01 1.247564181685447693e-01 1.043910905718803406e-01
5.209000000000000000e+03 1.323941326141357422e+01 1.076369571685791016e+01 5.732220038771629333e-02 2.257971912622451782e-01 8.493581414222717285e-02 5.204092338681221008e-02
5.210000000000000000e+03 2.520543670654296875e+01 2.276113128662109375e+01 5.085131153464317322e-02 1.206765249371528625e-01 5.145835131406784058e-02 8.483720570802688599e-02
5.211000000000000000e+03 4.890581130981445312e+01 2.252970504760742188e+01 1.337142586708068848e-01 3.455709457397460938e+00 1.076827168464660645e+00 1.445874571800231934e+00
5.212000000000000000e+03 2.285597038269042969e+01 1.930756187438964844e+01 6.417874246835708618e-02 1.378929466009140015e-01 6.062150374054908752e-02 9.599814563989639282e-02
5.213000000000000000e+03 2.590108489990234375e+01 2.493078994750976562e+01 4.206054657697677612e-02 1.142954230308532715e-01 4.690679162740707397e-02 7.138958573341369629e-02
5.214000000000000000e+03 2.466572380065917969e+01 2.316093444824218750e+01 4.724033176898956299e-02 1.214898899197578430e-01 5.061906576156616211e-02 7.862544804811477661e-02
5.215000000000000000e+03 1.162039375305175781e+01 8.355858802795410156e+00 9.980943799018859863e-02 2.165103107690811157e-01 9.489592164754867554e-02 -1.882536709308624268e-02
5.216000000000000000e+03 1.202682018280029297e+01 8.626901626586914062e+00 8.479396998882293701e-02 2.446819543838500977e-01 9.884277731180191040e-02 5.060901166871190071e-04
5.217000000000000000e+03 3.614038848876953125e+01 7.879894256591796875e+00 -1.931688487529754639e-01 5.535645484924316406e-01 1.081187129020690918e-01 7.586740702390670776e-02
5.218000000000000000e+03 3.567969512939453125e+01 7.003206729888916016e+00 -1.561973541975021362e-01 5.138337016105651855e-01 1.072909012436866760e-01 5.483780801296234131e-02
5.219000000000000000e+03 3.330848693847656250e+01 3.299353599548339844e+00 -7.774887233972549438e-02 3.056780695915222168e-01 6.837875396013259888e-02 -5.903717875480651855e-02
5.220000000000000000e+03 3.041793632507324219e+01 2.540441513061523438e+00 -1.579919755458831787e-01 2.313993684947490692e-02 -4.045561328530311584e-02 -1.170168444514274597e-01
5.221000000000000000e+03 3.027859687805175781e+01 2.154655218124389648e+00 -1.458691656589508057e-01 1.090691424906253815e-02 -4.048867151141166687e-02 -1.081768646836280823e-01
5.222000000000000000e+03 3.278128051757812500e+01 3.901898145675659180e+00 -8.985569328069686890e-02 2.152780741453170776e-01 3.762671351432800293e-02 -9.318960458040237427e-02
5.223000000000000000e+03 2.747596168518066406e+01 2.670002555847167969e+01 4.438041150569915771e-02 1.078549996018409729e-01 4.567062109708786011e-02 7.026001811027526855e-02
5.224000000000000000e+03 2.568679618835449219e+01 2.585248947143554688e+01 4.019070416688919067e-02 1.101041361689567566e-01 4.508845135569572449e-02 6.758385896682739258e-02
5.225000000000000000e+03 3.425928878784179688e+01 5.019054889678955078e+00 -8.238895982503890991e-02 3.620950579643249512e-01 8.391182869672775269e-02 -1.977178268134593964e-02
5.226000000000000000e+03 3.602053070068359375e+01 6.317668914794921875e+00 -1.301642209291458130e-01 6.136826276779174805e-01 1.450555175542831421e-01 7.275283336639404297e-02
5.227000000000000000e+03 3.262819671630859375e+01 3.530199229717254639e-01 -5.721345171332359314e-02 2.999404072761535645e-01 7.281808555126190186e-02 -2.605978585779666901e-02
5.228000000000000000e+03 3.238943862915039062e+01 8.177217245101928711e-01 -6.654881685972213745e-02 2.583106458187103271e-01 5.752855166792869568e-02 -3.803764656186103821e-02
5.229000000000000000e+03 3.484803390502929688e+01 -1.147395014762878418e+00 -3.400485590100288391e-02 6.518803834915161133e-01 1.853626668453216553e-01 8.406650274991989136e-03
5.230000000000000000e+03 3.149433708190917969e+01 2.590340375900268555e+00 -1.135072410106658936e-01 1.218089461326599121e-01 2.490512095391750336e-03 -1.003173738718032837e-01
5.231000000000000000e+03 3.215752792358398438e+01 2.895753860473632812e+00 -9.380807727575302124e-02 1.913996934890747070e-01 2.927748486399650574e-02 -9.170559048652648926e-02
5.232000000000000000e+03 2.651374816894531250e+01 2.630950736999511719e+01 4.165390506386756897e-02 1.092870756983757019e-01 4.528229311108589172e-02 6.767472624778747559e-02
5.233000000000000000e+03 2.119995689392089844e+01 1.885669326782226562e+01 5.534921586513519287e-02 1.429426521062850952e-01 5.948755890130996704e-02 9.287797659635543823e-02
5.234000000000000000e+03 3.034708595275878906e+01 9.565805196762084961e-01 -1.199770569801330566e-01 3.867327794432640076e-02 -2.439113520085811615e-02 -5.694951117038726807e-02
5.235000000000000000e+03 3.272324752807617188e+01 2.792070150375366211e+00 -8.544499427080154419e-02 2.528096139430999756e-01 5.020938813686370850e-02 -7.108419388532638550e-02
5.236000000000000000e+03 2.254760742187500000e+01 1.911282348632812500e+01 6.581533700227737427e-02 1.393897980451583862e-01 6.156153976917266846e-02 9.798368066549301147e-02
5.237000000000000000e+03 2.195001029968261719e+01 1.945834541320800781e+01 5.755656585097312927e-02 1.385358124971389771e-01 5.882771685719490051e-02 9.283748269081115723e-02
5.238000000000000000e+03 1.808162879943847656e+01 1.555421447753906250e+01 5.921641737222671509e-02 1.675375103950500488e-01 6.802617758512496948e-02 9.795441478490829468e-02
5.239000000000000000e+03 1.689795684814453125e+01 1.645999717712402344e+01 4.229190945625305176e-02 1.538739055395126343e-01 5.884974449872970581e-02 7.552278041839599609e-02
5.240000000000000000e+03 1.750724220275878906e+01 1.497515678405761719e+01 5.824264138936996460e-02 1.739143282175064087e-01 6.964708864688873291e-02 9.715967625379562378e-02
5.241000000000000000e+03 3.527400588989257812e+01 -5.403673052787780762e-01 -3.794210404157638550e-02 7.175160050392150879e-01 2.038721740245819092e-01 1.930474117398262024e-02
5.242000000000000000e+03 3.393039321899414062e+01 4.127960205078125000e+00 -7.249376922845840454e-02 3.532494604587554932e-01 8.422670513391494751e-02 -3.692300990223884583e-02
5.243000000000000000e+03 2.561085700988769531e+01 2.239144515991210938e+01 5.565847828984260559e-02 1.235392689704895020e-01 5.375932529568672180e-02 8.664282411336898804e-02
5.244000000000000000e+03 3.290163803100585938e+01 9.931501746177673340e-01 -5.489221960306167603e-02 3.288800418376922607e-01 8.219634741544723511e-02 -3.279493004083633423e-02
5.245000000000000000e+03 6.503984832763671875e+01 2.875279808044433594e+01 4.742348790168762207e-01 9.320037841796875000e+00 2.938281774520874023e+00 -1.553468585014343262e+00
5.246000000000000000e+03 6.074741363525390625e+01 3.207441329956054688e+01 2.322206258773803711e+00 1.150443363189697266e+01 4.147991657257080078e+00 -1.279289603233337402e+00
5.247000000000000000e+03 6.084459686279296875e+01 3.324411773681640625e+01 3.163635492324829102e+00 1.135282516479492188e+01 4.354938030242919922e+00 -9.941064119338989258e-01
5.248000000000000000e+03 1.104966735839843750e+01 1.210307598114013672e+01 4.565547034144401550e-02 1.171270385384559631e-01 4.883475229144096375e-02 5.726141389459371567e-03
5.249000000000000000e+03 1.113654136657714844e+01 1.066009140014648438e+01 6.216677650809288025e-02 1.405891627073287964e-01 6.082677841186523438e-02 6.549305398948490620e-04
5.250000000000000000e+03 1.309277820587158203e+01 2.043735504150390625e+01 1.991605618968605995e-03 7.054136693477630615e-02 2.175989188253879547e-02 1.589845493435859680e-02
5.251000000000000000e+03 1.331359577178955078e+01 1.647435569763183594e+01 1.746430993080139160e-02 1.147618964314460754e-01 3.966785967350006104e-02 3.137315809726715088e-02
5.252000000000000000e+03 1.075645351409912109e+01 1.105651473999023438e+01 5.879073590040206909e-02 1.179173514246940613e-01 5.301242694258689880e-02 -2.139177871868014336e-03
5.253000000000000000e+03 1.090851020812988281e+01 1.024261474609375000e+01 7.258264720439910889e-02 1.398390233516693115e-01 6.372649967670440674e-02 -7.434341590851545334e-03
5.254000000000000000e+03 6.424393463134765625e+01 2.224570989608764648e+00 -4.462626576423645020e-01 7.025186538696289062e+00 1.973677158355712891e+00 -1.017216444015502930e-01
5.255000000000000000e+03 6.318881607055664062e+01 -7.352734804153442383e-01 -4.041822850704193115e-01 6.770767688751220703e+00 1.909975528717041016e+00 -8.312932215631008148e-03
5.256000000000000000e+03 3.692544937133789062e+01 -1.990128636360168457e+00 -5.492201074957847595e-02 1.056950330734252930e+00 3.006084859371185303e-01 2.783099375665187836e-02
5.257000000000000000e+03 6.603938293457031250e+01 7.341516971588134766e+00 -5.283512473106384277e-01 7.453793525695800781e+00 2.077632665634155273e+00 -3.355740904808044434e-01
5.258000000000000000e+03 6.537693786621093750e+01 4.712762355804443359e+00 -4.823758304119110107e-01 7.270864486694335938e+00 2.036546468734741211e+00 -2.111262232065200806e-01
5.259000000000000000e+03 1.127843189239501953e+01 9.509043693542480469e+00 8.197767287492752075e-02 1.697084307670593262e-01 7.550583034753799438e-02 -1.128121092915534973e-02
5.260000000000000000e+03 1.649683761596679688e+01 1.371327018737792969e+01 6.026147678494453430e-02 1.889309883117675781e-01 7.475773990154266357e-02 9.746099263429641724e-02
5.261000000000000000e+03 1.305681800842285156e+01 1.538024616241455078e+01 2.171798609197139740e-02 1.239303871989250183e-01 4.369451105594635010e-02 3.143634274601936340e-02
5.262000000000000000e+03 1.351853656768798828e+01 1.955368614196777344e+01 5.184168927371501923e-03 8.465876430273056030e-02 2.695288136601448059e-02 2.128208428621292114e-02
5.263000000000000000e+03 6.503774261474609375e+01 2.697721672058105469e+01 -6.548767909407615662e-03 9.197415351867675781e+00 2.757260084152221680e+00 -1.492338299751281738e+00
5.264000000000000000e+03 6.408068847656250000e+01 2.463762474060058594e+01 -5.122770667076110840e-01 9.118410110473632812e+00 2.581840038299560547e+00 -1.201089262962341309e+00
5.265000000000000000e+03 3.963467025756835938e+01 -4.007922649383544922e+00 -1.103278174996376038e-01 1.638567090034484863e+00 4.584717750549316406e-01 2.877454087138175964e-02
5.266000000000000000e+03 6.465333557128906250e+01 3.031294107437133789e+00 -4.564820230007171631e-01 7.112267971038818359e+00 1.996735811233520508e+00 -1.362264007329940796e-01
5.267000000000000000e+03 2.951188278198242188e+01 3.383268356323242188e+01 4.296854138374328613e-02 9.108352661132812500e-02 4.021561890840530396e-02 4.028268903493881226e-02
5.268000000000000000e+03 2.987093162536621094e+01 3.024727058410644531e+01 3.643553331494331360e-02 9.606096148490905762e-02 3.974894806742668152e-02 6.415933370590209961e-02
5.269000000000000000e+03 6.629593658447265625e+01 4.426299095153808594e+00 -4.402943551540374756e-01 7.393015861511230469e+00 2.085816621780395508e+00 -2.294142693281173706e-01
5.270000000000000000e+03 6.620892333984375000e+01 2.513124656677246094e+01 -2.744770944118499756e-01 8.765553474426269531e+00 2.547322750091552734e+00 -1.472894430160522461e+00
5.271000000000000000e+03 2.784805870056152344e+01 2.738195228576660156e+01 3.921119123697280884e-02 1.038224026560783386e-01 4.291007667779922485e-02 7.087150216102600098e-02
5.272000000000000000e+03 2.677738952636718750e+01 2.710075569152832031e+01 3.483872860670089722e-02 1.033953502774238586e-01 4.147022217512130737e-02 7.013385742902755737e-02
5.273000000000000000e+03 6.585034942626953125e+01 2.790321731567382812e+01 2.467231005430221558e-01 9.012882232666015625e+00 2.777881622314453125e+00 -1.580629944801330566e+00
5.274000000000000000e+03 6.438867187500000000e+01 3.427585220336914062e+01 2.123335123062133789e+00 9.731243133544921875e+00 3.556373596191406250e+00 -5.836900472640991211e-01
5.275000000000000000e+03 6.456817626953125000e+01 8.990547657012939453e-01 -4.076195061206817627e-01 7.037366867065429688e+00 1.988924145698547363e+00 -7.360095530748367310e-02
5.276000000000000000e+03 6.623021697998046875e+01 9.105457305908203125e+00 -5.730733275413513184e-01 7.551790237426757812e+00 2.093615055084228516e+00 -4.224941730499267578e-01
5.277000000000000000e+03 5.981143188476562500e+01 3.050955772399902344e+01 9.431977272033691406e-01 1.191150379180908203e+01 3.856410503387451172e+00 -9.295778274536132812e-01
5.278000000000000000e+03 6.430720520019531250e+01 1.992982292175292969e+01 -8.502759337425231934e-01 8.386035919189453125e+00 2.260727882385253906e+00 -8.675506711006164551e-01
5.279000000000000000e+03 6.318726730346679688e+01 -2.372406244277954102e+00 -3.692270219326019287e-01 6.743279457092285156e+00 1.912215709686279297e+00 2.747759595513343811e-02
5.280000000000000000e+03 6.408801269531250000e+01 -3.094162702560424805e+00 -3.441305756568908691e-01 6.880008220672607422e+00 1.960763216018676758e+00 3.408800438046455383e-02
5.281000000000000000e+03 4.764302062988281250e+01 -1.302103900909423828e+01 -3.216038048267364502e-01 3.674453496932983398e+00 1.005854845046997070e+00 -3.406104072928428650e-02
5.282000000000000000e+03 4.449669265747070312e+01 -8.619030952453613281e+00 -2.416117042303085327e-01 2.831882476806640625e+00 7.770811915397644043e-01 -2.305771410465240479e-02
5.283000000000000000e+03 1.626301574707031250e+01 2.439028358459472656e+01 1.993437763303518295e-03 8.047233521938323975e-02 2.473973110318183899e-02 2.889458090066909790e-02
5.284000000000000000e+03 4.746916961669921875e+01 -1.154269886016845703e+01 -3.087946474552154541e-01 3.595536231994628906e+00 9.860225319862365723e-01 -1.806297339498996735e-02
5.285000000000000000e+03 2.874484062194824219e+01 2.909338378906250000e+01 3.519714996218681335e-02 1.020988300442695618e-01 4.118879139423370361e-02 6.325305253267288208e-02
5.286000000000000000e+03 3.155281066894531250e+01 3.095961570739746094e+01 4.562495276331901550e-02 9.107029438018798828e-02 4.100857302546501160e-02 6.361390650272369385e-02
5.287000000000000000e+03 6.069426727294921875e+01 3.504792404174804688e+01 3.973240375518798828e+00 1.166693973541259766e+01 4.692053794860839844e+00 3.010151982307434082e-01
5.288000000000000000e+03 6.692465972900390625e+01 2.090774917602539062e+01 -6.228069067001342773e-01 8.330150604248046875e+00 2.312202930450439453e+00 -1.213821649551391602e+00
5.289000000000000000e+03 6.708412933349609375e+01 1.887504386901855469e+01 -6.664774417877197266e-01 8.159599304199218750e+00 2.247936725616455078e+00 -1.072982430458068848e+00
5.290000000000000000e+03 4.746836090087890625e+01 -1.581348228454589844e+01 -3.055014610290527344e-01 3.724467754364013672e+00 1.025689840316772461e+00 -8.454538881778717041e-02
5.291000000000000000e+03 6.548039245605468750e+01 -6.949332237243652344e+00 -2.528904378414154053e-01 7.092644691467285156e+00 2.051926374435424805e+00 1.008336395025253296e-01
5.292000000000000000e+03 6.623798370361328125e+01 -7.658717155456542969e+00 -2.326695770025253296e-01 7.206037998199462891e+00 2.092010498046875000e+00 1.103146895766258240e-01
5.293000000000000000e+03 4.170260620117187500e+01 -5.138467311859130859e+00 -1.590209305286407471e-01 2.112390756607055664e+00 5.860109329223632812e-01 2.332348376512527466e-02
5.294000000000000000e+03 5.247253799438476562e+01 -1.844674110412597656e+01 -3.013844490051269531e-01 4.922310352325439453e+00 1.386277794837951660e+00 1.243379190564155579e-01
5.295000000000000000e+03 4.456785202026367188e+01 -1.025116062164306641e+01 -2.473874092102050781e-01 2.882154703140258789e+00 7.904302477836608887e-01 -6.129236891865730286e-02
5.296000000000000000e+03 6.531460571289062500e+01 2.205757331848144531e+01 -6.736443042755126953e-01 8.606239318847656250e+00 2.379778385162353516e+00 -1.160144686698913574e+00
5.297000000000000000e+03 6.489761352539062500e+01 -3.730516910552978516e+00 -3.100526630878448486e-01 7.009577751159667969e+00 2.009857416152954102e+00 3.760480880737304688e-02
5.298000000000000000e+03 1.197979640960693359e+01 1.860414123535156250e+01 4.256573040038347244e-03 6.765069812536239624e-02 2.157218195497989655e-02 9.592830203473567963e-03
5.299000000000000000e+03 4.382178497314453125e+01 -6.171525955200195312e+00 -2.134590744972229004e-01 2.635807514190673828e+00 7.267045378684997559e-01 1.938877068459987640e-02
5.300000000000000000e+03 1.887943077087402344e+01 1.760023498535156250e+01 4.970806837081909180e-02 1.487746089696884155e-01 5.954480171203613281e-02 8.517303317785263062e-02
5.301000000000000000e+03 1.493588066101074219e+01 2.129370117187500000e+01 5.589486099779605865e-03 8.885346353054046631e-02 2.833288535475730896e-02 2.915549650788307190e-02
5.302000000000000000e+03 4.800563049316406250e+01 -1.455742168426513672e+01 -3.148910403251647949e-01 3.820295810699462891e+00 1.051621437072753906e+00 -3.309719264507293701e-02
5.303000000000000000e+03 6.594335174560546875e+01 1.579658222198486328e+01 -7.476043105125427246e-01 7.944924831390380859e+00 2.159196138381958008e+00 -7.700594663619995117e-01
5.304000000000000000e+03 1.593585109710693359e+01 2.566026687622070312e+01 -1.646363991312682629e-03 6.788705289363861084e-02 1.987220719456672668e-02 2.150867320597171783e-02
5.305000000000000000e+03 1.415806961059570312e+01 -2.187074661254882812e+01 8.588744699954986572e-02 -3.864000318571925163e-03 2.460703440010547638e-02 -1.244994923472404480e-01
5.306000000000000000e+03 1.428003311157226562e+01 -2.046194839477539062e+01 6.962186098098754883e-02 1.562078483402729034e-02 2.557279542088508606e-02 -1.206813603639602661e-01
5.307000000000000000e+03 6.375098037719726562e+01 -1.379335975646972656e+01 -2.135831266641616821e-01 6.770161151885986328e+00 1.966973423957824707e+00 2.419364154338836670e-01
5.308000000000000000e+03 6.557377624511718750e+01 -1.426220893859863281e+01 -1.771549731492996216e-01 7.070314407348632812e+00 2.067947864532470703e+00 2.502173781394958496e-01
5.309000000000000000e+03 6.605870056152343750e+01 1.969746208190917969e+01 -7.261649966239929199e-01 8.294184684753417969e+00 2.270406007766723633e+00 -1.056698679924011230e+00
5.310000000000000000e+03 6.492628479003906250e+01 1.925569915771484375e+01 -8.138653039932250977e-01 8.280249595642089844e+00 2.239915132522583008e+00 -9.004109501838684082e-01
5.311000000000000000e+03 6.442433929443359375e+01 -1.505330753326416016e+01 -1.883280575275421143e-01 6.891963958740234375e+00 2.011090755462646484e+00 2.669809460639953613e-01
5.312000000000000000e+03 6.533612823486328125e+01 1.086331272125244141e+01 -6.638250946998596191e-01 7.550030231475830078e+00 2.065861463546752930e+00 -4.543824791908264160e-01
5.313000000000000000e+03 3.099514579772949219e+01 3.553191757202148438e+01 4.163371399044990540e-02 8.437281101942062378e-02 3.780195862054824829e-02 4.398399218916893005e-02
5.314000000000000000e+03 1.152737998962402344e+01 -3.039675903320312500e+01 1.588925160467624664e-02 -1.591685414314270020e-01 -4.298378899693489075e-02 -5.727281421422958374e-02
5.315000000000000000e+03 6.630354309082031250e+01 1.283168601989746094e+01 -6.736631989479064941e-01 7.749432086944580078e+00 2.122730731964111328e+00 -6.113902330398559570e-01
5.316000000000000000e+03 6.627734375000000000e+01 1.183086395263671875e+01 -6.473171114921569824e-01 7.692008018493652344e+00 2.113407373428344727e+00 -5.580981969833374023e-01
5.317000000000000000e+03 5.018570709228515625e+01 -1.663965797424316406e+01 -3.370397090911865234e-01 4.389085769653320312e+00 1.215613842010498047e+00 1.827805489301681519e-02
5.318000000000000000e+03 5.072795486450195312e+01 -1.785936546325683594e+01 -3.276628851890563965e-01 4.548655986785888672e+00 1.266297817230224609e+00 4.200220480561256409e-02
5.319000000000000000e+03 4.862180709838867188e+01 -1.602949905395507812e+01 -3.422970473766326904e-01 3.996271133422851562e+00 1.096192240715026855e+00 -4.830801114439964294e-02
5.320000000000000000e+03 6.290546798706054688e+01 -5.335220336914062500e+00 -3.298243880271911621e-01 6.662375926971435547e+00 1.899765372276306152e+00 8.783093839883804321e-02
5.321000000000000000e+03 5.501103210449218750e+01 -1.956677436828613281e+01 -2.625795006752014160e-01 5.419779777526855469e+00 1.547160029411315918e+00 2.197694331407546997e-01
5.322000000000000000e+03 6.308961868286132812e+01 -2.796460151672363281e+01 9.091696143150329590e-02 6.680688858032226562e+00 2.031481742858886719e+00 3.734656870365142822e-01
5.323000000000000000e+03 6.170832824707031250e+01 -2.332009696960449219e+01 -5.544165149331092834e-02 6.483654022216796875e+00 1.928463697433471680e+00 3.665830790996551514e-01
5.324000000000000000e+03 6.497318267822265625e+01 3.624981307983398438e+01 1.805015444755554199e+00 9.787799835205078125e+00 3.477844715118408203e+00 -2.193173952400684357e-02
5.325000000000000000e+03 6.529294586181640625e+01 -8.508376121520996094e+00 -2.498605549335479736e-01 7.031887054443359375e+00 2.034607887268066406e+00 1.411197930574417114e-01
5.326000000000000000e+03 6.367805099487304688e+01 -1.078816509246826172e+01 -2.487568110227584839e-01 6.780199050903320312e+00 1.959432721138000488e+00 1.905001103878021240e-01
5.327000000000000000e+03 5.694829177856445312e+01 3.083132934570312500e+01 2.579103112220764160e-01 1.306241607666015625e+01 3.996098041534423828e+00 1.437673091888427734e+00
5.328000000000000000e+03 5.790563201904296875e+01 3.141220664978027344e+01 9.775409102439880371e-01 1.378049564361572266e+01 4.427411079406738281e+00 -1.231589913368225098e-02
5.329000000000000000e+03 5.623354339599609375e+01 2.970980072021484375e+01 -2.450594492256641388e-02 1.106824302673339844e+01 3.313121080398559570e+00 2.164480924606323242e+00
5.330000000000000000e+03 5.362124633789062500e+01 2.788319396972656250e+01 4.589880108833312988e-01 6.921773910522460938e+00 2.214228630065917969e+00 2.686217308044433594e+00
5.331000000000000000e+03 5.492114257812500000e+01 2.974444961547851562e+01 5.260445475578308105e-01 9.289758682250976562e+00 2.944741010665893555e+00 3.227766990661621094e+00
5.332000000000000000e+03 5.457183456420898438e+01 2.975818252563476562e+01 7.201748490333557129e-01 8.696352958679199219e+00 2.824958324432373047e+00 3.391893386840820312e+00
5.333000000000000000e+03 4.604648208618164062e+01 1.901410484313964844e+01 -4.667785018682479858e-02 2.465681314468383789e+00 7.257010340690612793e-01 9.256217479705810547e-01
5.334000000000000000e+03 4.977703475952148438e+01 2.286828231811523438e+01 9.939837455749511719e-02 3.912262439727783203e+00 1.203498244285583496e+00 1.559424042701721191e+00
5.335000000000000000e+03 4.940587997436523438e+01 2.306547927856445312e+01 1.602445989847183228e-01 3.679457902908325195e+00 1.151910662651062012e+00 1.545584678649902344e+00
5.336000000000000000e+03 4.740856933593750000e+01 2.203961563110351562e+01 1.656148135662078857e-01 2.693687915802001953e+00 8.577908277511596680e-01 1.205760478973388672e+00
5.337000000000000000e+03 4.950243759155273438e+01 2.221994781494140625e+01 2.804027497768402100e-02 3.812588691711425781e+00 1.152188777923583984e+00 1.465057373046875000e+00
5.338000000000000000e+03 4.496517944335937500e+01 1.872993278503417969e+01 -3.922846168279647827e-02 2.044489383697509766e+00 6.015782356262207031e-01 7.893487215042114258e-01
5.339000000000000000e+03 4.561371994018554688e+01 1.937361717224121094e+01 -1.760853081941604614e-02 2.243001699447631836e+00 6.676179766654968262e-01 8.847414255142211914e-01
5.340000000000000000e+03 4.990524291992187500e+01 2.448068618774414062e+01 3.459392488002777100e-01 3.842180252075195312e+00 1.256435871124267578e+00 1.754678964614868164e+00
5.341000000000000000e+03 4.959006500244140625e+01 2.447944259643554688e+01 3.779624104499816895e-01 3.632521867752075195e+00 1.203145265579223633e+00 1.705818414688110352e+00
5.342000000000000000e+03 5.773935317993164062e+01 3.105287170410156250e+01 5.739082694053649902e-01 1.346209335327148438e+01 4.210800170898437500e+00 3.570955693721771240e-01
5.343000000000000000e+03 4.987459564208984375e+01 2.401669883728027344e+01 2.624726891517639160e-01 3.878584623336791992e+00 1.242317199707031250e+00 1.695767760276794434e+00
5.344000000000000000e+03 4.718275070190429688e+01 2.131473922729492188e+01 9.374340623617172241e-02 2.695052385330200195e+00 8.366387486457824707e-01 1.142873167991638184e+00
5.345000000000000000e+03 4.909752655029296875e+01 2.197435188293457031e+01 4.176002740859985352e-02 3.593493700027465820e+00 1.090576171875000000e+00 1.409402728080749512e+00
5.346000000000000000e+03 5.032220840454101562e+01 2.405956649780273438e+01 2.220929116010665894e-01 4.154749870300292969e+00 1.313052892684936523e+00 1.746268868446350098e+00
5.347000000000000000e+03 3.999409103393554688e+01 1.386146926879882812e+01 -2.116301357746124268e-01 9.714393615722656250e-01 2.279427647590637207e-01 2.437781691551208496e-01
5.348000000000000000e+03 4.536793136596679688e+01 1.905845451354980469e+01 -2.965197712182998657e-02 2.169157505035400391e+00 6.418516635894775391e-01 8.458900451660156250e-01
5.349000000000000000e+03 4.144121170043945312e+01 1.522987937927246094e+01 -1.726420223712921143e-01 1.242831945419311523e+00 3.210569620132446289e-01 3.682894110679626465e-01
5.350000000000000000e+03 4.048062133789062500e+01 1.423366451263427734e+01 -1.987751722335815430e-01 1.072673678398132324e+00 2.621695697307586670e-01 2.872899472713470459e-01
5.351000000000000000e+03 5.340593338012695312e+01 2.616795539855957031e+01 7.421130686998367310e-02 6.565956115722656250e+00 1.992050290107727051e+00 2.208444833755493164e+00
5.352000000000000000e+03 4.407095336914062500e+01 1.768970489501953125e+01 -8.341699838638305664e-02 1.829584479331970215e+00 5.238502025604248047e-01 6.683434247970581055e-01
5.353000000000000000e+03 4.180461883544921875e+01 1.541576004028320312e+01 -1.653500944375991821e-01 1.325129985809326172e+00 3.479339480400085449e-01 4.059945344924926758e-01
5.354000000000000000e+03 4.115853118896484375e+01 1.474752712249755859e+01 -1.784549951553344727e-01 1.199370503425598145e+00 3.062746822834014893e-01 3.459263443946838379e-01
5.355000000000000000e+03 5.487493515014648438e+01 2.926102447509765625e+01 3.896434903144836426e-01 8.951839447021484375e+00 2.802444696426391602e+00 2.980738878250122070e+00
5.356000000000000000e+03 5.336478042602539062e+01 2.693537139892578125e+01 2.856698930263519287e-01 6.571548461914062500e+00 2.057165622711181641e+00 2.442884922027587891e+00
5.357000000000000000e+03 5.289391708374023438e+01 2.714151573181152344e+01 4.510913193225860596e-01 6.132854461669921875e+00 1.975183725357055664e+00 2.493102073669433594e+00
5.358000000000000000e+03 4.372660064697265625e+01 1.718712615966796875e+01 -1.019852161407470703e-01 1.767163515090942383e+00 4.995535016059875488e-01 6.219783425331115723e-01
5.359000000000000000e+03 4.253982162475585938e+01 1.580720901489257812e+01 -1.502741873264312744e-01 1.522696137428283691e+00 4.117265939712524414e-01 4.816724658012390137e-01
5.360000000000000000e+03 4.694898223876953125e+01 2.083901023864746094e+01 5.480910092592239380e-02 2.637062549591064453e+00 8.075615167617797852e-01 1.092230916023254395e+00
5.361000000000000000e+03 4.859751129150390625e+01 2.148354721069335938e+01 3.259557485580444336e-02 3.384795904159545898e+00 1.025217413902282715e+00 1.338526844978332520e+00
5.362000000000000000e+03 5.078731918334960938e+01 2.420677757263183594e+01 1.823496669530868530e-01 4.499592304229736328e+00 1.404582500457763672e+00 1.812147617340087891e+00
5.363000000000000000e+03 1.239117622375488281e+01 9.143237113952636719e+00 7.366695255041122437e-02 2.530276477336883545e-01 9.800837934017181396e-02 2.072689309716224670e-02
5.364000000000000000e+03 1.220089244842529297e+01 1.029523944854736328e+01 6.034915521740913391e-02 2.028554230928421021e-01 7.896137237548828125e-02 1.999916136264801025e-02
5.365000000000000000e+03 4.512026977539062500e+01 1.906672286987304688e+01 -2.215561643242835999e-02 2.067006826400756836e+00 6.134553551673889160e-01 8.155052065849304199e-01
5.366000000000000000e+03 4.538476943969726562e+01 1.926603698730468750e+01 -1.371351722627878189e-02 2.166357517242431641e+00 6.457931995391845703e-01 8.537798523902893066e-01
5.367000000000000000e+03 3.828152847290039062e+01 1.162287902832031250e+01 -2.554250061511993408e-01 7.524970769882202148e-01 1.491216123104095459e-01 1.331596970558166504e-01
5.368000000000000000e+03 3.886980819702148438e+01 1.200584220886230469e+01 -2.442937791347503662e-01 8.594871163368225098e-01 1.845579892396926880e-01 1.755243986845016479e-01
5.369000000000000000e+03 5.217419815063476562e+01 2.590122985839843750e+01 3.024866282939910889e-01 5.449130535125732422e+00 1.725485205650329590e+00 2.188389539718627930e+00
5.370000000000000000e+03 5.266853332519531250e+01 2.637100982666015625e+01 3.071866631507873535e-01 5.880332946777343750e+00 1.856255769729614258e+00 2.295775413513183594e+00
5.371000000000000000e+03 5.459193038940429688e+01 2.864069557189941406e+01 3.212971985340118408e-01 8.318713188171386719e+00 2.592003107070922852e+00 2.798991918563842773e+00
5.372000000000000000e+03 5.120594024658203125e+01 2.422043418884277344e+01 1.353504061698913574e-01 4.757080078125000000e+00 1.467729210853576660e+00 1.848192930221557617e+00
5.373000000000000000e+03 5.139179992675781250e+01 2.463760948181152344e+01 1.729070693254470825e-01 4.861301422119140625e+00 1.510262489318847656e+00 1.905255198478698730e+00
5.374000000000000000e+03 1.929783630371093750e+01 1.947467422485351562e+01 3.639345988631248474e-02 1.351303309202194214e-01 5.145713686943054199e-02 7.500328123569488525e-02
5.375000000000000000e+03 5.306939697265625000e+01 2.687557029724121094e+01 3.466406166553497314e-01 6.274763107299804688e+00 1.986421108245849609e+00 2.419217348098754883e+00
5.376000000000000000e+03 2.382558631896972656e+01 2.208048820495605469e+01 4.449701309204101562e-02 1.260999888181686401e-01 5.117909982800483704e-02 8.157005906105041504e-02
5.377000000000000000e+03 4.486349105834960938e+01 1.688289642333984375e+01 -1.426854580640792847e-01 2.213659286499023438e+00 6.212921738624572754e-01 7.322279214859008789e-01
5.378000000000000000e+03 4.611310195922851562e+01 1.929380035400390625e+01 -3.726672381162643433e-02 2.435424089431762695e+00 7.194471955299377441e-01 9.364408850669860840e-01
5.379000000000000000e+03 3.997055816650390625e+01 1.337041282653808594e+01 -2.222516387701034546e-01 1.016794204711914062e+00 2.383627593517303467e-01 2.486552894115447998e-01
5.380000000000000000e+03 5.363492584228515625e+01 2.723233222961425781e+01 2.902603149414062500e-01 6.873559474945068359e+00 2.149145841598510742e+00 2.506309270858764648e+00
5.381000000000000000e+03 4.086879730224609375e+01 1.451737022399902344e+01 -1.869460940361022949e-01 1.154995441436767578e+00 2.904147803783416748e-01 3.235831856727600098e-01
5.382000000000000000e+03 4.094142532348632812e+01 1.478015899658203125e+01 -1.882399320602416992e-01 1.148217558860778809e+00 2.879933118820190430e-01 3.209244310855865479e-01
5.383000000000000000e+03 4.659354019165039062e+01 2.113876152038574219e+01 1.078926548361778259e-01 2.437912464141845703e+00 7.637415528297424316e-01 1.067244172096252441e+00
5.384000000000000000e+03 4.671595382690429688e+01 2.024726867675781250e+01 1.699480786919593811e-02 2.604608774185180664e+00 7.864810824394226074e-01 1.046542882919311523e+00
5.385000000000000000e+03 5.822464752197265625e+01 3.113590049743652344e+01 8.607556223869323730e-01 1.326691627502441406e+01 4.238301753997802734e+00 -1.950355470180511475e-01
5.386000000000000000e+03 5.892301177978515625e+01 3.078681373596191406e+01 8.541007041931152344e-01 1.258337783813476562e+01 4.031243801116943359e+00 -5.985581278800964355e-01
5.387000000000000000e+03 3.754455566406250000e+01 1.004181575775146484e+01 -2.469666451215744019e-01 7.022387385368347168e-01 1.365816295146942139e-01 1.172067970037460327e-01
5.388000000000000000e+03 3.843752670288085938e+01 1.065704536437988281e+01 -2.370662242174148560e-01 8.666040301322937012e-01 1.888613551855087280e-01 1.698437333106994629e-01
5.389000000000000000e+03 1.326805686950683594e+01 1.130857849121093750e+01 5.014032498002052307e-02 2.108289152383804321e-01 7.829077541828155518e-02 5.108828842639923096e-02
5.390000000000000000e+03 1.375642871856689453e+01 1.198500537872314453e+01 4.743459075689315796e-02 2.027445435523986816e-01 7.505373656749725342e-02 5.958653241395950317e-02
5.391000000000000000e+03 1.551519393920898438e+01 1.671726417541503906e+01 2.929699979722499847e-02 1.409982889890670776e-01 5.108858644962310791e-02 5.790100991725921631e-02
5.392000000000000000e+03 1.844867706298828125e+01 1.733231925964355469e+01 4.758058860898017883e-02 1.504542082548141479e-01 5.941044166684150696e-02 8.282265067100524902e-02
5.393000000000000000e+03 2.258151435852050781e+01 2.009731483459472656e+01 5.787720158696174622e-02 1.346320509910583496e-01 5.775277316570281982e-02 8.876276016235351562e-02
5.394000000000000000e+03 2.246022605895996094e+01 1.956126785278320312e+01 5.628853663802146912e-02 1.384753733873367310e-01 5.842917412519454956e-02 9.334699064493179321e-02
5.395000000000000000e+03 1.308876228332519531e+01 1.238700485229492188e+01 4.118357598781585693e-02 1.780976802110671997e-01 6.578437983989715576e-02 4.293081164360046387e-02
5.396000000000000000e+03 4.650457000732421875e+01 1.968475532531738281e+01 -2.151860669255256653e-02 2.580496311187744141e+00 7.676932811737060547e-01 9.951481223106384277e-01
5.397000000000000000e+03 4.957941818237304688e+01 2.253622055053710938e+01 7.217513024806976318e-02 3.827205657958984375e+00 1.169814229011535645e+00 1.515557289123535156e+00
5.398000000000000000e+03 4.235879898071289062e+01 1.527561187744140625e+01 -1.685943901538848877e-01 1.517059803009033203e+00 4.045396149158477783e-01 4.600264132022857666e-01
5.399000000000000000e+03 3.634583282470703125e+01 7.251793384552001953e+00 -1.643978655338287354e-01 6.283860206604003906e-01 1.391964405775070190e-01 9.225623309612274170e-02
5.400000000000000000e+03 3.716523361206054688e+01 8.497964859008789062e+00 -2.049552649259567261e-01 7.190371155738830566e-01 1.542245447635650635e-01 1.230311766266822815e-01
5.401000000000000000e+03 1.716528129577636719e+01 1.786445426940917969e+01 3.406431898474693298e-02 1.391649842262268066e-01 5.196879059076309204e-02 6.638919562101364136e-02
5.402000000000000000e+03 1.949322700500488281e+01 1.809996032714843750e+01 5.041077360510826111e-02 1.462132483720779419e-01 5.898720398545265198e-02 8.537521958351135254e-02
5.403000000000000000e+03 3.799074935913085938e+01 9.797546386718750000e+00 -2.353498786687850952e-01 8.246957659721374512e-01 1.768037676811218262e-01 1.532603353261947632e-01
5.404000000000000000e+03 3.771532821655273438e+01 9.379222869873046875e+00 -2.230759859085083008e-01 7.928116321563720703e-01 1.709206849336624146e-01 1.420803666114807129e-01
5.405000000000000000e+03 1.813294410705566406e+01 1.616625595092773438e+01 5.555465072393417358e-02 1.610123813152313232e-01 6.497010588645935059e-02 9.122311323881149292e-02
5.406000000000000000e+03 4.330597305297851562e+01 1.672384643554687500e+01 -1.213531643152236938e-01 1.667894840240478516e+00 4.639624953269958496e-01 5.678543448448181152e-01
5.407000000000000000e+03 5.410906219482421875e+01 2.874184226989746094e+01 5.639343857765197754e-01 7.667491436004638672e+00 2.469427824020385742e+00 2.975162267684936523e+00
5.408000000000000000e+03 2.279999542236328125e+01 2.066265487670898438e+01 5.030600726604461670e-02 1.317518800497055054e-01 5.461736768484115601e-02 8.838380873203277588e-02
5.409000000000000000e+03 3.549257659912109375e+01 6.565947055816650391e+00 -1.359907388687133789e-01 4.909812510013580322e-01 1.064971536397933960e-01 4.690949991345405579e-02
5.410000000000000000e+03 3.660129928588867188e+01 7.662327289581298828e+00 -1.788363307714462280e-01 6.508322954177856445e-01 1.415987908840179443e-01 1.017252281308174133e-01
5.411000000000000000e+03 4.288365173339843750e+01 1.628947639465332031e+01 -1.362654268741607666e-01 1.579113006591796875e+00 4.328542649745941162e-01 5.222650766372680664e-01
5.412000000000000000e+03 4.292397308349609375e+01 1.585614490509033203e+01 -1.479431837797164917e-01 1.640986680984497070e+00 4.479130208492279053e-01 5.283291935920715332e-01
5.413000000000000000e+03 1.481721687316894531e+01 1.236723899841308594e+01 5.283478647470474243e-02 2.072890698909759521e-01 7.803715765476226807e-02 8.211469650268554688e-02
5.414000000000000000e+03 1.296432971954345703e+01 1.343475532531738281e+01 3.250962868332862854e-02 1.533630639314651489e-01 5.576180666685104370e-02 3.741541877388954163e-02
5.415000000000000000e+03 1.663553047180175781e+01 1.439131355285644531e+01 5.609628185629844666e-02 1.789328157901763916e-01 7.050873339176177979e-02 9.222658723592758179e-02
5.416000000000000000e+03 2.076677322387695312e+01 1.912578201293945312e+01 5.160499736666679382e-02 1.404763609170913696e-01 5.762440711259841919e-02 8.567247539758682251e-02
5.417000000000000000e+03 2.025942039489746094e+01 1.951442146301269531e+01 4.309350624680519104e-02 1.374661028385162354e-01 5.416788533329963684e-02 8.211030066013336182e-02
5.418000000000000000e+03 5.382941436767578125e+01 2.814348030090332031e+01 4.677905738353729248e-01 7.204741954803466797e+00 2.301759719848632812e+00 2.771441698074340820e+00
5.419000000000000000e+03 2.304163360595703125e+01 2.121012878417968750e+01 5.004650726914405823e-02 1.295872330665588379e-01 5.389012396335601807e-02 8.237908035516738892e-02
5.420000000000000000e+03 3.001909446716308594e+01 1.858873844146728516e+00 -1.454626619815826416e-01 -2.524940995499491692e-03 -4.439628124237060547e-02 -9.090326726436614990e-02
5.421000000000000000e+03 1.274642658233642578e+01 1.026382541656494141e+01 6.154881045222282410e-02 2.269839644432067871e-01 8.655983209609985352e-02 3.680772334337234497e-02
5.422000000000000000e+03 1.273445129394531250e+01 1.081500053405761719e+01 5.368301644921302795e-02 2.082359939813613892e-01 7.857570797204971313e-02 3.715372085571289062e-02
5.423000000000000000e+03 3.162670707702636719e+01 1.015355706214904785e+00 -8.931281417608261108e-02 1.598878502845764160e-01 2.117250859737396240e-02 -5.239377915859222412e-02
5.424000000000000000e+03 3.573555374145507812e+01 5.853979110717773438e+00 -1.150747612118721008e-01 5.751109719276428223e-01 1.380108743906021118e-01 5.911995470523834229e-02
5.425000000000000000e+03 3.297954559326171875e+01 4.427899420261383057e-02 -4.535433650016784668e-02 3.519329726696014404e-01 9.197358787059783936e-02 -1.633367128670215607e-02
5.426000000000000000e+03 3.351370239257812500e+01 -1.063351929187774658e-01 -4.796772450208663940e-02 4.249408841133117676e-01 1.130919530987739563e-01 -9.921754710376262665e-03
5.427000000000000000e+03 1.131129169464111328e+01 8.888403892517089844e+00 9.358671307563781738e-02 1.848768442869186401e-01 8.353906124830245972e-02 -1.734497398138046265e-02
5.428000000000000000e+03 1.120398616790771484e+01 1.157717800140380859e+01 5.249066278338432312e-02 1.391603350639343262e-01 5.749529972672462463e-02 6.834121420979499817e-03
5.429000000000000000e+03 1.122357654571533203e+01 1.108043956756591797e+01 5.664297938346862793e-02 1.421083658933639526e-01 5.962540581822395325e-02 3.234067931771278381e-03
5.430000000000000000e+03 2.114206504821777344e+01 1.957143974304199219e+01 4.877595603466033936e-02 1.382748186588287354e-01 5.611523240804672241e-02 8.755623549222946167e-02
5.431000000000000000e+03 2.311042213439941406e+01 2.381968116760253906e+01 3.597498312592506409e-02 1.179805770516395569e-01 4.618666693568229675e-02 6.880376487970352173e-02
5.432000000000000000e+03 5.966894531250000000e+01 3.187688636779785156e+01 2.134828567504882812e+00 1.241675758361816406e+01 4.365475654602050781e+00 -1.191160798072814941e+00
5.433000000000000000e+03 3.430844497680664062e+01 4.110098838806152344e+00 -7.607911527156829834e-02 4.135020673274993896e-01 1.012268885970115662e-01 -1.897382736206054688e-02
5.434000000000000000e+03 3.526523971557617188e+01 5.522558689117431641e+00 -9.954648464918136597e-02 5.066391825675964355e-01 1.221278160810470581e-01 3.471722081303596497e-02
5.435000000000000000e+03 3.083589363098144531e+01 2.406662464141845703e+00 -1.341416388750076294e-01 5.793127790093421936e-02 -2.286311052739620209e-02 -1.088293269276618958e-01
5.436000000000000000e+03 3.064925956726074219e+01 1.598407864570617676e+00 -1.189274415373802185e-01 5.895333737134933472e-02 -1.799223013222217560e-02 -7.696484029293060303e-02
5.437000000000000000e+03 2.783329200744628906e+01 2.867798423767089844e+01 3.848167136311531067e-02 1.007376611232757568e-01 4.176579788327217102e-02 6.567968428134918213e-02
5.438000000000000000e+03 2.499573326110839844e+01 2.664778137207031250e+01 3.522390127182006836e-02 1.055763065814971924e-01 4.224006086587905884e-02 6.429685652256011963e-02
5.439000000000000000e+03 2.511271667480468750e+01 2.589126586914062500e+01 2.914537116885185242e-02 1.114310324192047119e-01 4.217291995882987976e-02 6.545450538396835327e-02
5.440000000000000000e+03 2.441314125061035156e+01 2.262330818176269531e+01 4.583425819873809814e-02 1.217940002679824829e-01 5.028847604990005493e-02 8.255697786808013916e-02
5.441000000000000000e+03 2.579695892333984375e+01 2.656455230712890625e+01 2.967587113380432129e-02 1.076188012957572937e-01 4.118840023875236511e-02 6.962914019823074341e-02
5.442000000000000000e+03 3.406909561157226562e+01 4.640158712863922119e-01 -4.927765578031539917e-02 5.060617327690124512e-01 1.370352208614349365e-01 -3.160104621201753616e-03
5.443000000000000000e+03 3.386201477050781250e+01 3.732100248336791992e+00 -7.135952264070510864e-02 3.653881549835205078e-01 8.820858597755432129e-02 -3.950759023427963257e-02
5.444000000000000000e+03 3.875498580932617188e+01 1.155280494689941406e+01 -2.448131442070007324e-01 8.684973120689392090e-01 1.871052533388137817e-01 1.754042953252792358e-01
5.445000000000000000e+03 3.860918045043945312e+01 1.110241508483886719e+01 -2.416968792676925659e-01 8.719869256019592285e-01 1.890870183706283569e-01 1.736827790737152100e-01
5.446000000000000000e+03 3.547347259521484375e+01 -1.440701127052307129e+00 -4.136756807565689087e-02 7.608563303947448730e-01 2.158466130495071411e-01 1.298841089010238647e-02
5.447000000000000000e+03 3.605762863159179688e+01 -1.465491771697998047e+00 -4.134717211127281189e-02 8.711904883384704590e-01 2.489529997110366821e-01 2.340725064277648926e-02
5.448000000000000000e+03 3.086041259765625000e+01 1.168435215950012207e+00 -1.155356317758560181e-01 8.027637749910354614e-02 -1.057777553796768188e-02 -6.513740122318267822e-02
5.449000000000000000e+03 3.213716125488281250e+01 1.355091691017150879e+00 -7.684953510761260986e-02 2.242873013019561768e-01 4.423132911324501038e-02 -5.206721276044845581e-02
5.450000000000000000e+03 3.275668716430664062e+01 3.353211402893066406e+00 -8.118433505296707153e-02 2.414826005697250366e-01 4.808948189020156860e-02 -8.165434747934341431e-02
5.451000000000000000e+03 3.204136276245117188e+01 2.332501173019409180e+00 -9.568713605403900146e-02 1.913982629776000977e-01 2.871333807706832886e-02 -7.896033674478530884e-02
5.452000000000000000e+03 1.824613189697265625e+01 1.676919174194335938e+01 4.827139899134635925e-02 1.547697335481643677e-01 6.091234087944030762e-02 8.706976473331451416e-02
5.453000000000000000e+03 1.766817092895507812e+01 1.696427536010742188e+01 4.426066949963569641e-02 1.517545580863952637e-01 5.880456790328025818e-02 7.863246649503707886e-02
5.454000000000000000e+03 6.611086273193359375e+01 2.049881553649902344e+01 -6.973840594291687012e-01 8.359324455261230469e+00 2.298582077026367188e+00 -1.114387869834899902e+00
5.455000000000000000e+03 6.547105407714843750e+01 2.002914619445800781e+01 -7.631897926330566406e-01 8.361353874206542969e+00 2.279449224472045898e+00 -1.021164894104003906e+00
5.456000000000000000e+03 1.300994586944580078e+01 1.400532436370849609e+01 3.088073246181011200e-02 1.451227366924285889e-01 5.280103906989097595e-02 3.513748943805694580e-02
5.457000000000000000e+03 1.227223491668701172e+01 1.198965263366699219e+01 4.593016207218170166e-02 1.624726802110671997e-01 6.252085417509078979e-02 2.569734863936901093e-02
5.458000000000000000e+03 6.287208938598632812e+01 3.913582801818847656e+00 -5.317766070365905762e-01 6.850485324859619141e+00 1.895612597465515137e+00 -9.476325660943984985e-02
5.459000000000000000e+03 1.354821300506591797e+01 1.557846069335937500e+01 2.160918898880481720e-02 1.295055598020553589e-01 4.533442482352256775e-02 3.722300752997398376e-02
5.460000000000000000e+03 3.797681808471679688e+01 -2.578483819961547852e+00 -7.036367803812026978e-02 1.270561099052429199e+00 3.600592017173767090e-01 3.286540135741233826e-02
5.461000000000000000e+03 3.769004821777343750e+01 -1.760900735855102539e+00 -6.871579587459564209e-02 1.195843100547790527e+00 3.381381928920745850e-01 3.736699745059013367e-02
5.462000000000000000e+03 6.475895690917968750e+01 3.060315704345703125e+01 1.104755163192749023e+00 9.477672576904296875e+00 3.174728393554687500e+00 -1.470748782157897949e+00
5.463000000000000000e+03 2.859036254882812500e+01 3.200553894042968750e+01 2.806857042014598846e-02 9.287448972463607788e-02 3.628291934728622437e-02 5.289962887763977051e-02
5.464000000000000000e+03 2.718332099914550781e+01 2.792721557617187500e+01 3.795330598950386047e-02 1.050044298171997070e-01 4.288732260465621948e-02 6.393194943666458130e-02
5.465000000000000000e+03 2.479001808166503906e+01 2.416391944885253906e+01 3.926450014114379883e-02 1.171559989452362061e-01 4.692614823579788208e-02 7.290160655975341797e-02
5.466000000000000000e+03 4.460071182250976562e+01 -5.423440933227539062e+00 -2.312149107456207275e-01 2.811577558517456055e+00 7.741088271141052246e-01 5.129709839820861816e-02
5.467000000000000000e+03 4.315426635742187500e+01 -5.326024055480957031e+00 -1.957542002201080322e-01 2.466464042663574219e+00 6.812129616737365723e-01 3.301686421036720276e-02
5.468000000000000000e+03 6.236731338500976562e+01 -1.494275569915771484e+00 -4.065927565097808838e-01 6.610826969146728516e+00 1.861270189285278320e+00 3.006329014897346497e-02
5.469000000000000000e+03 3.474102783203125000e+01 4.225762367248535156e+00 -7.348662614822387695e-02 4.747307300567626953e-01 1.203732341527938843e-01 2.701593097299337387e-03
5.470000000000000000e+03 1.370234680175781250e+01 1.513977622985839844e+01 2.678479440510272980e-02 1.378628760576248169e-01 4.939429834485054016e-02 4.243587702512741089e-02
5.471000000000000000e+03 1.376328563690185547e+01 1.476347160339355469e+01 2.853035181760787964e-02 1.467474699020385742e-01 5.258334800601005554e-02 4.478209465742111206e-02
5.472000000000000000e+03 3.879073333740234375e+01 -2.275594472885131836e+00 -8.757755905389785767e-02 1.428929448127746582e+00 4.024055600166320801e-01 4.524597525596618652e-02
5.473000000000000000e+03 1.272456169128417969e+01 1.909949493408203125e+01 4.399144090712070465e-03 7.656966894865036011e-02 2.429064363241195679e-02 1.596980169415473938e-02
5.474000000000000000e+03 6.460569000244140625e+01 -7.584473133087158203e+00 -2.732421755790710449e-01 6.921402454376220703e+00 1.994448065757751465e+00 1.313110589981079102e-01
5.475000000000000000e+03 6.428289031982421875e+01 2.614037322998046875e+01 -2.343365997076034546e-01 9.286187171936035156e+00 2.715555191040039062e+00 -1.353825092315673828e+00
5.476000000000000000e+03 6.293664169311523438e+01 2.473715019226074219e+01 -6.047028303146362305e-01 9.307435989379882812e+00 2.610819816589355469e+00 -1.006377696990966797e+00
5.477000000000000000e+03 6.533633422851562500e+01 2.444983482360839844e+01 -4.316231012344360352e-01 8.878096580505371094e+00 2.533941984176635742e+00 -1.354156255722045898e+00
5.478000000000000000e+03 6.491191864013671875e+01 2.290535736083984375e+01 -6.413081288337707520e-01 8.751671791076660156e+00 2.433109045028686523e+00 -1.177753567695617676e+00
5.479000000000000000e+03 6.497165679931640625e+01 2.065897750854492188e+01 -7.784804701805114746e-01 8.442733764648437500e+00 2.299275875091552734e+00 -9.978848695755004883e-01
5.480000000000000000e+03 6.135607147216796875e+01 3.401659393310546875e+01 3.400376319885253906e+00 1.102271270751953125e+01 4.326926708221435547e+00 -4.996067881584167480e-01
5.481000000000000000e+03 6.433793640136718750e+01 2.774730873107910156e+01 1.431194394826889038e-01 9.456315040588378906e+00 2.879830360412597656e+00 -1.468872070312500000e+00
5.482000000000000000e+03 6.503585815429687500e+01 3.859520196914672852e+00 -4.687230885028839111e-01 7.193113327026367188e+00 2.017317056655883789e+00 -1.732720732688903809e-01
5.483000000000000000e+03 6.372784805297851562e+01 5.296751022338867188e+00 -5.472622513771057129e-01 7.050384044647216797e+00 1.950936555862426758e+00 -1.665370464324951172e-01
5.484000000000000000e+03 6.615910339355468750e+01 8.220680236816406250e+00 -5.517406463623046875e-01 7.503450870513916016e+00 2.085513114929199219e+00 -3.764768242835998535e-01
5.485000000000000000e+03 4.750667953491210938e+01 -1.001871109008789062e+01 -3.037069737911224365e-01 3.578153610229492188e+00 9.823340177536010742e-01 3.672048682346940041e-03
5.486000000000000000e+03 4.603364181518554688e+01 -1.013262557983398438e+01 -2.767271399497985840e-01 3.231920957565307617e+00 8.865581154823303223e-01 -2.965425886213779449e-02
5.487000000000000000e+03 6.478667449951171875e+01 5.820138931274414062e+00 -5.327503681182861328e-01 7.226950168609619141e+00 2.008260011672973633e+00 -2.272561937570571899e-01
5.488000000000000000e+03 6.710532379150390625e+01 8.131947517395019531e+00 -5.035038590431213379e-01 7.608554840087890625e+00 2.131515264511108398e+00 -4.100042581558227539e-01
5.489000000000000000e+03 6.373588943481445312e+01 1.449573278427124023e+00 -4.445803463459014893e-01 6.911579132080078125e+00 1.940099596977233887e+00 -6.508305668830871582e-02
5.490000000000000000e+03 6.573354339599609375e+01 2.126650428771972656e+01 -6.935189366340637207e-01 8.476503372192382812e+00 2.334895372390747070e+00 -1.142723798751831055e+00
5.491000000000000000e+03 6.644372558593750000e+01 3.113293457031250000e+01 1.040109872817993164e+00 8.874516487121582031e+00 2.974387645721435547e+00 -1.408839106559753418e+00
5.492000000000000000e+03 6.145362472534179688e+01 3.269237899780273438e+01 2.683731317520141602e+00 1.098174381256103516e+01 4.099642276763916016e+00 -1.150771260261535645e+00
5.493000000000000000e+03 3.997636795043945312e+01 -2.712803363800048828e+00 -1.110005229711532593e-01 1.696425080299377441e+00 4.756273627281188965e-01 5.732556805014610291e-02
5.494000000000000000e+03 1.703587913513183594e+01 1.713867378234863281e+01 3.490059450268745422e-02 1.485624909400939941e-01 5.503892898559570312e-02 7.249364256858825684e-02
5.495000000000000000e+03 6.542041778564453125e+01 1.765491676330566406e+01 -7.939996123313903809e-01 8.099000930786132812e+00 2.191500186920166016e+00 -8.423746824264526367e-01
5.496000000000000000e+03 1.398782825469970703e+01 2.088830566406250000e+01 2.521112328395247459e-03 7.959277927875518799e-02 2.463416568934917450e-02 2.132056839764118195e-02
5.497000000000000000e+03 1.435663700103759766e+01 1.995388793945312500e+01 7.557646371424198151e-03 9.307216852903366089e-02 3.018894419074058533e-02 2.875713817775249481e-02
5.498000000000000000e+03 6.216439819335937500e+01 -3.133581638336181641e+00 -3.780010938644409180e-01 6.553981781005859375e+00 1.852794170379638672e+00 6.308078020811080933e-02
5.499000000000000000e+03 6.358486175537109375e+01 -4.028985977172851562e+00 -3.382203578948974609e-01 6.787072658538818359e+00 1.934655666351318359e+00 5.548947677016258240e-02
5.500000000000000000e+03 3.022624397277832031e+01 3.153917884826660156e+01 4.830925539135932922e-02 9.681919962167739868e-02 4.353853687644004822e-02 5.291394516825675964e-02
5.501000000000000000e+03 4.526466369628906250e+01 -7.771552562713623047e+00 -2.547302842140197754e-01 3.003651142120361328e+00 8.246762752532958984e-01 2.139519667252898216e-03
5.502000000000000000e+03 6.532736968994140625e+01 9.990549087524414062e+00 -6.360757946968078613e-01 7.499152660369873047e+00 2.058923006057739258e+00 -4.181475639343261719e-01
5.503000000000000000e+03 1.554520034790039062e+01 2.278985023498535156e+01 3.472158918157219887e-03 8.384071290493011475e-02 2.619386278092861176e-02 2.918631210923194885e-02
5.504000000000000000e+03 1.743730545043945312e+01 2.473737907409667969e+01 3.692951053380966187e-03 8.715014159679412842e-02 2.725292742252349854e-02 3.284272179007530212e-02
5.505000000000000000e+03 6.226486206054687500e+01 3.348867797851562500e+01 2.730347156524658203e+00 1.048037147521972656e+01 3.963215589523315430e+00 -8.075844645500183105e-01
5.506000000000000000e+03 4.894739913940429688e+01 -1.494796180725097656e+01 -3.156591653823852539e-01 4.021366596221923828e+00 1.111712336540222168e+00 -2.816794626414775848e-02
5.507000000000000000e+03 4.961174011230468750e+01 -1.387071514129638672e+01 -3.356485664844512939e-01 4.171056270599365234e+00 1.150622367858886719e+00 7.710212375968694687e-03
5.508000000000000000e+03 6.339881896972656250e+01 2.645210266113281250e+00 -4.834963679313659668e-01 6.895710468292236328e+00 1.923664212226867676e+00 -8.491227775812149048e-02
5.509000000000000000e+03 6.301966094970703125e+01 1.986583471298217773e+00 -4.653011858463287354e-01 6.813018321990966797e+00 1.904315114021301270e+00 -6.601687520742416382e-02
5.510000000000000000e+03 6.625868225097656250e+01 9.995531082153320312e+00 -5.970814824104309082e-01 7.593981266021728516e+00 2.099069833755493164e+00 -4.655496776103973389e-01
5.511000000000000000e+03 1.693741416931152344e+01 2.763474082946777344e+01 -1.951514743268489838e-03 6.670884788036346436e-02 1.942719891667366028e-02 2.220617607235908508e-02
5.512000000000000000e+03 1.594430351257324219e+01 2.165649604797363281e+01 6.976434029638767242e-03 9.660567343235015869e-02 3.107463195919990540e-02 3.435053676366806030e-02
5.513000000000000000e+03 6.422191619873046875e+01 -1.191596889495849609e+01 -2.291444242000579834e-01 6.851255416870117188e+00 1.986633300781250000e+00 2.060322314500808716e-01
5.514000000000000000e+03 6.594131469726562500e+01 -1.235197067260742188e+01 -1.906378716230392456e-01 7.141232967376708984e+00 2.085178613662719727e+00 2.080281674861907959e-01
5.515000000000000000e+03 6.532733917236328125e+01 1.388120746612548828e+01 -7.484996914863586426e-01 7.766750335693359375e+00 2.105475187301635742e+00 -6.130636930465698242e-01
5.516000000000000000e+03 6.639718627929687500e+01 1.395308017730712891e+01 -6.926296353340148926e-01 7.834972381591796875e+00 2.142702817916870117e+00 -6.891378164291381836e-01
5.517000000000000000e+03 4.855760955810546875e+01 -1.347351264953613281e+01 -3.135622739791870117e-01 3.887998819351196289e+00 1.072330951690673828e+00 -1.582862623035907745e-02
5.518000000000000000e+03 6.325201797485351562e+01 -9.757318496704101562e+00 -2.668777406215667725e-01 6.710427761077880859e+00 1.933065056800842285e+00 1.708734482526779175e-01
5.519000000000000000e+03 6.512706756591796875e+01 -1.630922317504882812e+01 -1.585299521684646606e-01 6.995423316955566406e+00 2.051068067550659180e+00 2.865637540817260742e-01
5.520000000000000000e+03 6.486931610107421875e+01 -1.308657360076904297e+01 -2.015416175127029419e-01 6.963745594024658203e+00 2.028661251068115234e+00 2.326567023992538452e-01
5.521000000000000000e+03 6.257167434692382812e+01 -4.227021694183349609e+00 -3.547441661357879639e-01 6.611602306365966797e+00 1.877057552337646484e+00 6.985119730234146118e-02
5.522000000000000000e+03 6.437846374511718750e+01 1.080872631072998047e+01 -7.032142281532287598e-01 7.446001529693603516e+00 2.022836208343505859e+00 -3.948712646961212158e-01
5.523000000000000000e+03 2.934879684448242188e+01 3.714764785766601562e+01 4.477081820368766785e-02 8.243934065103530884e-02 3.816304728388786316e-02 2.290850505232810974e-02
5.524000000000000000e+03 6.124940872192382812e+01 3.146528816223144531e+01 1.829980492591857910e+00 1.114946746826171875e+01 3.893834352493286133e+00 -1.311737298965454102e+00
5.525000000000000000e+03 5.779264831542968750e+01 -2.016098976135253906e+01 -2.088971585035324097e-01 5.885003089904785156e+00 1.702831864356994629e+00 2.962922155857086182e-01
5.526000000000000000e+03 5.373843765258789062e+01 -1.802194786071777344e+01 -2.989105284214019775e-01 5.160903453826904297e+00 1.458597898483276367e+00 1.593695282936096191e-01
5.527000000000000000e+03 5.140118789672851562e+01 -1.584163761138916016e+01 -3.281001448631286621e-01 4.623542785644531250e+00 1.288632869720458984e+00 6.135688722133636475e-02
5.528000000000000000e+03 1.689285850524902344e+01 -2.794125556945800781e+01 9.184826165437698364e-02 7.392767071723937988e-02 4.973278194665908813e-02 -1.219987645745277405e-01
5.529000000000000000e+03 1.575487804412841797e+01 -2.650595855712890625e+01 5.060724914073944092e-02 3.755455091595649719e-02 2.644854038953781128e-02 -1.193253621459007263e-01
5.530000000000000000e+03 1.551954364776611328e+01 -2.178242874145507812e+01 6.388980150222778320e-02 6.923475861549377441e-02 3.993736580014228821e-02 -1.322922706604003906e-01
5.531000000000000000e+03 6.527900695800781250e+01 3.196947479248046875e+01 1.445578575134277344e+00 9.286057472229003906e+00 3.219490766525268555e+00 -1.250966906547546387e+00
5.532000000000000000e+03 4.602359390258789062e+01 -8.530272483825683594e+00 -2.721321880817413330e-01 3.199758291244506836e+00 8.782878518104553223e-01 3.045467194169759750e-03
5.533000000000000000e+03 5.238910293579101562e+01 -2.566204452514648438e+01 -8.118035644292831421e-02 5.257019996643066406e+00 1.552751898765563965e+00 2.055270075798034668e-01
5.534000000000000000e+03 5.508063507080078125e+01 -2.359490203857421875e+01 -1.197417750954627991e-01 5.540288925170898438e+00 1.626164078712463379e+00 2.877711653709411621e-01
5.535000000000000000e+03 6.437999725341796875e+01 -2.099976730346679688e+01 -8.424905687570571899e-02 6.885152339935302734e+00 2.040271043777465820e+00 3.488991856575012207e-01
5.536000000000000000e+03 5.935946655273437500e+01 -2.234214019775390625e+01 -1.121652275323867798e-01 6.140933513641357422e+00 1.808630466461181641e+00 3.451645076274871826e-01
5.537000000000000000e+03 6.145088577270507812e+01 -2.635025405883789062e+01 6.072004884481430054e-02 6.440750598907470703e+00 1.950441241264343262e+00 3.788864910602569580e-01
5.538000000000000000e+03 5.728395462036132812e+01 3.037223243713378906e+01 1.038025915622711182e-01 1.258580589294433594e+01 3.806882619857788086e+00 1.088894963264465332e+00
5.539000000000000000e+03 5.731644439697265625e+01 3.076510238647460938e+01 2.941925227642059326e-01 1.308925056457519531e+01 4.015032768249511719e+00 9.461448192596435547e-01
5.540000000000000000e+03 5.384106063842773438e+01 2.768901252746582031e+01 3.365594148635864258e-01 7.156250953674316406e+00 2.247843027114868164e+00 2.607522249221801758e+00
5.541000000000000000e+03 4.701272964477539062e+01 1.903242301940917969e+01 -9.598754346370697021e-02 2.850974798202514648e+00 8.264961838722229004e-01 1.011188507080078125e+00
5.542000000000000000e+03 5.005949401855468750e+01 2.326259422302246094e+01 1.217516586184501648e-01 4.059140205383300781e+00 1.254267573356628418e+00 1.628529310226440430e+00
5.543000000000000000e+03 5.545275497436523438e+01 2.998430633544921875e+01 3.367778062820434570e-01 1.028661918640136719e+01 3.187019109725952148e+00 2.990365266799926758e+00
5.544000000000000000e+03 4.818661880493164062e+01 2.143916320800781250e+01 5.253708362579345703e-02 3.183035612106323242e+00 9.706718325614929199e-01 1.275845527648925781e+00
5.545000000000000000e+03 4.774684524536132812e+01 2.124089241027832031e+01 5.700639262795448303e-02 2.985823869705200195e+00 9.128490686416625977e-01 1.217839479446411133e+00
5.546000000000000000e+03 4.483675003051757812e+01 1.787268447875976562e+01 -9.064587950706481934e-02 2.088565826416015625e+00 5.993760228157043457e-01 7.509973049163818359e-01
5.547000000000000000e+03 4.561368179321289062e+01 1.893436622619628906e+01 -4.030966013669967651e-02 2.272377014160156250e+00 6.696201562881469727e-01 8.672229647636413574e-01
5.548000000000000000e+03 3.989341354370117188e+01 1.192692947387695312e+01 -2.277676612138748169e-01 1.121307849884033203e+00 2.680620551109313965e-01 2.589871287345886230e-01
5.549000000000000000e+03 4.166630172729492188e+01 1.407572746276855469e+01 -1.959284693002700806e-01 1.423292636871337891e+00 3.682092428207397461e-01 3.976201713085174561e-01
5.550000000000000000e+03 5.043800735473632812e+01 2.357534790039062500e+01 1.243791729211807251e-01 4.278310298919677734e+00 1.320806860923767090e+00 1.696563839912414551e+00
5.551000000000000000e+03 4.207027816772460938e+01 1.501999187469482422e+01 -1.753549128770828247e-01 1.444778203964233398e+00 3.808269798755645752e-01 4.323855042457580566e-01
5.552000000000000000e+03 4.150800323486328125e+01 1.441771030426025391e+01 -1.882918030023574829e-01 1.349294781684875488e+00 3.483009040355682373e-01 3.837610483169555664e-01
5.553000000000000000e+03 5.764324569702148438e+01 3.029435729980468750e+01 1.421442329883575439e-01 1.258105087280273438e+01 3.816958665847778320e+00 6.737720370292663574e-01
5.554000000000000000e+03 5.803265380859375000e+01 3.090153121948242188e+01 6.185913681983947754e-01 1.320986747741699219e+01 4.148537635803222656e+00 6.324172019958496094e-02
5.555000000000000000e+03 5.795837402343750000e+01 3.063397789001464844e+01 3.741673529148101807e-01 1.296088600158691406e+01 4.000515937805175781e+00 2.694915831089019775e-01
5.556000000000000000e+03 5.201528930664062500e+01 2.525403022766113281e+01 1.866026222705841064e-01 5.374703407287597656e+00 1.668391823768615723e+00 2.056560277938842773e+00
5.557000000000000000e+03 4.749943542480468750e+01 2.066078186035156250e+01 1.495614554733037949e-02 2.926909685134887695e+00 8.825597167015075684e-01 1.158478617668151855e+00
5.558000000000000000e+03 4.920847320556640625e+01 2.167397880554199219e+01 -9.609906002879142761e-03 3.693475008010864258e+00 1.105159521102905273e+00 1.387973904609680176e+00
5.559000000000000000e+03 5.661496353149414062e+01 3.044720077514648438e+01 1.154223829507827759e-01 1.230963325500488281e+01 3.727516651153564453e+00 1.858195781707763672e+00
5.560000000000000000e+03 5.399624252319335938e+01 2.626891899108886719e+01 -4.957711324095726013e-02 7.091365814208984375e+00 2.112536668777465820e+00 2.178133249282836914e+00
5.561000000000000000e+03 5.169570922851562500e+01 2.498607254028320312e+01 1.908755302429199219e-01 5.094649791717529297e+00 1.585657596588134766e+00 1.992837905883789062e+00
5.562000000000000000e+03 5.284946441650390625e+01 2.668309020996093750e+01 3.514601290225982666e-01 6.028153896331787109e+00 1.913884282112121582e+00 2.379811048507690430e+00
5.563000000000000000e+03 4.541739273071289062e+01 1.870364761352539062e+01 -5.403585731983184814e-02 2.216156244277954102e+00 6.486361026763916016e-01 8.387262821197509766e-01
5.564000000000000000e+03 5.085834503173828125e+01 2.372515106201171875e+01 8.556687086820602417e-02 4.572659492492675781e+00 1.397467851638793945e+00 1.739020109176635742e+00
5.565000000000000000e+03 5.221435165405273438e+01 2.488879203796386719e+01 6.263113766908645630e-02 5.523241996765136719e+00 1.675761938095092773e+00 1.968875408172607422e+00
5.566000000000000000e+03 4.419257354736328125e+01 1.723320198059082031e+01 -1.080760136246681213e-01 1.925825715065002441e+00 5.453249216079711914e-01 6.731173992156982422e-01
5.567000000000000000e+03 5.259255599975585938e+01 2.595738601684570312e+01 2.339354902505874634e-01 5.801181793212890625e+00 1.810535192489624023e+00 2.211728096008300781e+00
5.568000000000000000e+03 5.303941726684570312e+01 2.624922370910644531e+01 1.791135817766189575e-01 6.235001564025878906e+00 1.924234628677368164e+00 2.263589859008789062e+00
5.569000000000000000e+03 5.125580596923828125e+01 2.379388618469238281e+01 4.064543917775154114e-02 4.825713157653808594e+00 1.459907650947570801e+00 1.776539325714111328e+00
5.570000000000000000e+03 5.234290695190429688e+01 2.543654251098632812e+01 1.557319462299346924e-01 5.614042758941650391e+00 1.730932354927062988e+00 2.089788436889648438e+00
5.571000000000000000e+03 4.432653427124023438e+01 1.673481941223144531e+01 -1.356269866228103638e-01 2.022009849548339844e+00 5.659148693084716797e-01 6.734218001365661621e-01
5.572000000000000000e+03 4.514678955078125000e+01 1.797497749328613281e+01 -9.312792122364044189e-02 2.178187847137451172e+00 6.255179643630981445e-01 7.818281650543212891e-01
5.573000000000000000e+03 5.154045104980468750e+01 2.401035881042480469e+01 3.385275229811668396e-02 5.034529685974121094e+00 1.520514726638793945e+00 1.823313474655151367e+00
5.574000000000000000e+03 5.194342041015625000e+01 2.470094299316406250e+01 8.074247092008590698e-02 5.294028282165527344e+00 1.612431168556213379e+00 1.941908478736877441e+00
5.575000000000000000e+03 4.708391571044921875e+01 2.046865844726562500e+01 1.487802714109420776e-02 2.744291543960571289e+00 8.277508616447448730e-01 1.089899182319641113e+00
5.576000000000000000e+03 4.635068511962890625e+01 1.885771942138671875e+01 -7.687075436115264893e-02 2.613223791122436523e+00 7.609059214591979980e-01 9.431351423263549805e-01
5.577000000000000000e+03 4.868804931640625000e+01 2.104340934753417969e+01 -3.235173597931861877e-02 3.468485593795776367e+00 1.030840158462524414e+00 1.293223023414611816e+00
5.578000000000000000e+03 5.903980636596679688e+01 3.123953819274902344e+01 1.238222002983093262e+00 1.274060249328613281e+01 4.193647384643554688e+00 -8.004382848739624023e-01
5.579000000000000000e+03 5.971223831176757812e+01 3.106834030151367188e+01 1.317646026611328125e+00 1.214171314239501953e+01 4.037807464599609375e+00 -1.027921557426452637e+00
5.580000000000000000e+03 4.587065887451171875e+01 1.875457572937011719e+01 -6.751514971256256104e-02 2.428486585617065430e+00 7.082914710044860840e-01 8.960880041122436523e-01
5.581000000000000000e+03 4.265052413940429688e+01 1.540321254730224609e+01 -1.608164012432098389e-01 1.607699275016784668e+00 4.340648651123046875e-01 4.937070608139038086e-01
5.582000000000000000e+03 4.980527114868164062e+01 2.229721069335937500e+01 7.603752426803112030e-03 3.986500501632690430e+00 1.198231220245361328e+00 1.499795675277709961e+00
5.583000000000000000e+03 3.936664962768554688e+01 1.195870208740234375e+01 -2.353152632713317871e-01 9.851265549659729004e-01 2.249433994293212891e-01 2.181981652975082397e-01
5.584000000000000000e+03 4.178524398803710938e+01 1.470358562469482422e+01 -1.832074224948883057e-01 1.397738933563232422e+00 3.643594682216644287e-01 4.060888588428497314e-01
5.585000000000000000e+03 3.744065475463867188e+01 8.938933372497558594e+00 -2.168779820203781128e-01 7.542831897735595703e-01 1.612215638160705566e-01 1.339242011308670044e-01
5.586000000000000000e+03 1.356508064270019531e+01 1.245828819274902344e+01 4.494206979870796204e-02 1.863764822483062744e-01 6.939556449651718140e-02 5.410953983664512634e-02
5.587000000000000000e+03 4.503467559814453125e+01 1.637710189819335938e+01 -1.711139231920242310e-01 2.314581871032714844e+00 6.430404186248779297e-01 7.314751148223876953e-01
5.588000000000000000e+03 3.796594619750976562e+01 8.684797286987304688e+00 -2.023863345384597778e-01 8.895347118377685547e-01 2.061445116996765137e-01 1.637752056121826172e-01
5.589000000000000000e+03 2.200844764709472656e+01 2.040907669067382812e+01 4.768969491124153137e-02 1.341665387153625488e-01 5.455686897039413452e-02 8.691564947366714478e-02
5.590000000000000000e+03 4.735200500488281250e+01 2.100985527038574219e+01 5.248157307505607605e-02 2.819000482559204102e+00 8.614446520805358887e-01 1.148687243461608887e+00
5.591000000000000000e+03 3.823675537109375000e+01 1.021776485443115234e+01 -2.355165630578994751e-01 8.474336266517639160e-01 1.835751235485076904e-01 1.616082340478897095e-01
5.592000000000000000e+03 3.871515655517578125e+01 1.006285190582275391e+01 -2.277696132659912109e-01 9.728180170059204102e-01 2.235145270824432373e-01 1.980743408203125000e-01
5.593000000000000000e+03 5.869983673095703125e+01 3.062013626098632812e+01 6.485869288444519043e-01 1.258498191833496094e+01 3.970070838928222656e+00 -3.643942475318908691e-01
5.594000000000000000e+03 1.983759689331054688e+01 1.908003807067871094e+01 4.402242228388786316e-02 1.402733176946640015e-01 5.528872087597846985e-02 7.936020195484161377e-02
5.595000000000000000e+03 1.779166793823242188e+01 2.009668731689453125e+01 2.502628974616527557e-02 1.234960854053497314e-01 4.455671086907386780e-02 5.684842169284820557e-02
5.596000000000000000e+03 4.380054473876953125e+01 1.669137001037597656e+01 -1.290006339550018311e-01 1.847903609275817871e+00 5.156708955764770508e-01 6.232310533523559570e-01
5.597000000000000000e+03 4.330784225463867188e+01 1.628071594238281250e+01 -1.358076333999633789e-01 1.712167620658874512e+00 4.729080200195312500e-01 5.662304162979125977e-01
5.598000000000000000e+03 5.489520263671875000e+01 3.022071456909179688e+01 7.072728276252746582e-01 9.495198249816894531e+00 3.060741186141967773e+00 3.501708745956420898e+00
5.599000000000000000e+03 5.570082855224609375e+01 2.975049972534179688e+01 1.553311049938201904e-01 1.045956802368164062e+01 3.184469699859619141e+00 2.655536651611328125e+00
5.600000000000000000e+03 3.703972244262695312e+01 7.406900405883789062e+00 -1.665215641260147095e-01 7.559374570846557617e-01 1.768247634172439575e-01 1.246756836771965027e-01
5.601000000000000000e+03 3.822877883911132812e+01 9.147742271423339844e+00 -2.140969634056091309e-01 9.210918545722961426e-01 2.120984792709350586e-01 1.772249639034271240e-01
5.602000000000000000e+03 3.848091125488281250e+01 9.603177070617675781e+00 -2.197802662849426270e-01 9.464792609214782715e-01 2.180096954107284546e-01 1.891383826732635498e-01
5.603000000000000000e+03 2.335147094726562500e+01 2.174990844726562500e+01 4.695458337664604187e-02 1.257743984460830688e-01 5.181869491934776306e-02 8.387531340122222900e-02
5.604000000000000000e+03 2.254290199279785156e+01 2.150282859802246094e+01 4.235379025340080261e-02 1.277578175067901611e-01 5.103348195552825928e-02 8.258649706840515137e-02
5.605000000000000000e+03 5.829983520507812500e+01 3.040208816528320312e+01 3.984695971012115479e-01 1.263700103759765625e+01 3.910641193389892578e+00 -3.198988735675811768e-02
5.606000000000000000e+03 4.693090057373046875e+01 1.983614158630371094e+01 -2.809360995888710022e-02 2.754048109054565430e+00 8.177863359451293945e-01 1.051508307456970215e+00
5.607000000000000000e+03 4.940544509887695312e+01 2.136895370483398438e+01 -5.678680166602134705e-02 3.824722290039062500e+00 1.130380630493164062e+00 1.371829152107238770e+00
5.608000000000000000e+03 1.225995063781738281e+01 9.699348449707031250e+00 6.948401778936386108e-02 2.243410944938659668e-01 8.814753592014312744e-02 1.837741397321224213e-02
5.609000000000000000e+03 1.621415710449218750e+01 1.345818805694580078e+01 6.021178141236305237e-02 1.922945231199264526e-01 7.575189322233200073e-02 9.795565903186798096e-02
5.610000000000000000e+03 3.993292999267578125e+01 1.241993236541748047e+01 -2.257449030876159668e-01 1.095762133598327637e+00 2.610051631927490234e-01 2.574914991855621338e-01
5.611000000000000000e+03 2.159720039367675781e+01 1.996443367004394531e+01 4.983323439955711365e-02 1.359882354736328125e-01 5.574644356966018677e-02 8.369459956884384155e-02
5.612000000000000000e+03 1.653536796569824219e+01 1.515323925018310547e+01 4.843277484178543091e-02 1.687263548374176025e-01 6.514773517847061157e-02 8.268762379884719849e-02
5.613000000000000000e+03 1.422243499755859375e+01 1.476526355743408203e+01 3.226932510733604431e-02 1.543890535831451416e-01 5.599751323461532593e-02 5.274584144353866577e-02
5.614000000000000000e+03 1.523451137542724609e+01 1.363593387603759766e+01 4.746031388640403748e-02 1.859894692897796631e-01 7.003493607044219971e-02 7.738103717565536499e-02
5.615000000000000000e+03 3.302638626098632812e+01 4.887846410274505615e-01 -5.496965721249580383e-02 3.529649674892425537e-01 8.939859271049499512e-02 -2.092824317514896393e-02
5.616000000000000000e+03 3.352406692504882812e+01 4.748278260231018066e-01 -4.157261177897453308e-02 4.256250858306884766e-01 1.152157410979270935e-01 -1.601513847708702087e-02
5.617000000000000000e+03 5.366184997558593750e+01 2.696771240234375000e+01 1.983188986778259277e-01 6.909851551055908203e+00 2.132451057434082031e+00 2.417689800262451172e+00
5.618000000000000000e+03 2.350610351562500000e+01 2.089386367797851562e+01 5.371911078691482544e-02 1.298613101243972778e-01 5.507412552833557129e-02 8.970933407545089722e-02
5.619000000000000000e+03 1.420969963073730469e+01 1.373640537261962891e+01 4.017393663525581360e-02 1.717148274183273315e-01 6.356663256883621216e-02 5.899519100785255432e-02
5.620000000000000000e+03 1.170730972290039062e+01 1.098071765899658203e+01 5.423117801547050476e-02 1.659608483314514160e-01 6.605760753154754639e-02 1.185210701078176498e-02
5.621000000000000000e+03 3.273820495605468750e+01 1.568679213523864746e+00 -7.251896709203720093e-02 2.883695065975189209e-01 6.475516408681869507e-02 -4.721811413764953613e-02
5.622000000000000000e+03 1.273426246643066406e+01 1.185292053222656250e+01 4.540343210101127625e-02 1.836304217576980591e-01 6.871015578508377075e-02 3.621558099985122681e-02
5.623000000000000000e+03 3.943584823608398438e+01 1.040532207489013672e+01 -2.236256152391433716e-01 1.120350480079650879e+00 2.690174579620361328e-01 2.425612062215805054e-01
5.624000000000000000e+03 3.447836303710937500e+01 2.818715810775756836e+00 -5.548640340566635132e-02 4.975883662700653076e-01 1.326305866241455078e-01 -2.899354556575417519e-03
5.625000000000000000e+03 2.068632888793945312e+01 2.000536727905273438e+01 4.348681867122650146e-02 1.346632391214370728e-01 5.344501510262489319e-02 7.835330069065093994e-02
5.626000000000000000e+03 3.578887557983398438e+01 -9.641855955123901367e-01 -4.281390085816383362e-02 8.100789189338684082e-01 2.301795035600662231e-01 1.887400448322296143e-02
5.627000000000000000e+03 3.417401123046875000e+01 -1.765524446964263916e-01 -3.590307384729385376e-02 5.342120528221130371e-01 1.494926810264587402e-01 -1.925849239341914654e-03
5.628000000000000000e+03 3.101095199584960938e+01 1.805355787277221680e+00 -1.136863082647323608e-01 9.052767604589462280e-02 -6.947588641196489334e-03 -8.201959729194641113e-02
5.629000000000000000e+03 3.128099441528320312e+01 2.164849042892456055e+00 -1.184777095913887024e-01 1.141293421387672424e-01 -1.304508536122739315e-03 -8.926889300346374512e-02
5.630000000000000000e+03 3.066010475158691406e+01 2.000372171401977539e+00 -1.424413770437240601e-01 5.420985817909240723e-02 -2.646945603191852570e-02 -9.490191191434860229e-02
5.631000000000000000e+03 1.753412818908691406e+01 1.629555892944335938e+01 4.556153714656829834e-02 1.586953550577163696e-01 6.127706542611122131e-02 8.408045023679733276e-02
5.632000000000000000e+03 3.455558013916015625e+01 4.626743316650390625e+00 -7.996391505002975464e-02 4.271753132343292236e-01 1.041634157299995422e-01 -9.457067586481571198e-03
5.633000000000000000e+03 3.559014511108398438e+01 5.062691688537597656e+00 -9.482875466346740723e-02 5.775532722473144531e-01 1.448173522949218750e-01 4.460547491908073425e-02
5.634000000000000000e+03 1.221793746948242188e+01 1.088287162780761719e+01 5.639547109603881836e-02 1.854954957962036133e-01 7.256729155778884888e-02 2.196578681468963623e-02
5.635000000000000000e+03 2.152397537231445312e+01 1.916565895080566406e+01 5.573891103267669678e-02 1.403160542249679565e-01 5.881649255752563477e-02 8.980114012956619263e-02
5.636000000000000000e+03 3.674506759643554688e+01 7.064064979553222656e+00 -1.556892096996307373e-01 7.089065313339233398e-01 1.659651994705200195e-01 1.118651628494262695e-01
5.637000000000000000e+03 3.334074020385742188e+01 2.186343193054199219e+00 -6.659841537475585938e-02 3.540973663330078125e-01 8.624968677759170532e-02 -3.980683162808418274e-02
5.638000000000000000e+03 3.175351905822753906e+01 1.830300688743591309e+00 -9.288701415061950684e-02 1.697704792022705078e-01 2.306503802537918091e-02 -7.142908871173858643e-02
5.639000000000000000e+03 2.492942428588867188e+01 2.503363227844238281e+01 3.686149045825004578e-02 1.134174093604087830e-01 4.508367180824279785e-02 6.705389916896820068e-02
5.640000000000000000e+03 6.019453430175781250e+01 3.148261833190917969e+01 1.796001672744750977e+00 1.191216278076171875e+01 4.112449169158935547e+00 -1.231519222259521484e+00
5.641000000000000000e+03 2.596779251098632812e+01 2.745677375793457031e+01 3.587126731872558594e-02 1.055336892604827881e-01 4.242148622870445251e-02 6.067085638642311096e-02
5.642000000000000000e+03 1.524032402038574219e+01 2.028517913818359375e+01 8.577357977628707886e-03 1.000106781721115112e-01 3.257641196250915527e-02 3.407226875424385071e-02
5.643000000000000000e+03 1.677814865112304688e+01 1.577434921264648438e+01 4.334924370050430298e-02 1.619309782981872559e-01 6.158406659960746765e-02 8.092505484819412231e-02
5.644000000000000000e+03 3.669261932373046875e+01 -1.248174071311950684e+00 -5.294223129749298096e-02 9.900410771369934082e-01 2.811296582221984863e-01 3.149432316422462463e-02
5.645000000000000000e+03 1.222416210174560547e+01 1.144885158538818359e+01 4.854928329586982727e-02 1.722878664731979370e-01 6.625114381313323975e-02 2.482605725526809692e-02
5.646000000000000000e+03 6.504717254638671875e+01 1.650748252868652344e+01 -8.143629431724548340e-01 7.981047153472900391e+00 2.150005340576171875e+00 -7.369850277900695801e-01
5.647000000000000000e+03 6.646550750732421875e+01 1.768573951721191406e+01 -7.219438552856445312e-01 8.094050407409667969e+00 2.211632013320922852e+00 -9.377183318138122559e-01
5.648000000000000000e+03 1.235996532440185547e+01 1.347517490386962891e+01 3.263099491596221924e-02 1.364006102085113525e-01 5.070948228240013123e-02 2.448511868715286255e-02
5.649000000000000000e+03 2.433720588684082031e+01 2.213885498046875000e+01 5.226245149970054626e-02 1.245705112814903259e-01 5.304988846182823181e-02 8.309238404035568237e-02
5.650000000000000000e+03 1.362088966369628906e+01 1.385102939605712891e+01 3.332461416721343994e-02 1.607360392808914185e-01 5.821819603443145752e-02 4.686618968844413757e-02
5.651000000000000000e+03 6.208820343017578125e+01 5.185655117034912109e+00 -5.864398479461669922e-01 6.764606952667236328e+00 1.853450179100036621e+00 -8.908415585756301880e-02
5.652000000000000000e+03 6.325323486328125000e+01 1.729142761230468750e+01 -9.264366626739501953e-01 7.998239040374755859e+00 2.121540784835815430e+00 -5.633083581924438477e-01
5.653000000000000000e+03 1.451291275024414062e+01 1.533509063720703125e+01 2.974871546030044556e-02 1.490272134542465210e-01 5.363278090953826904e-02 5.327633768320083618e-02
5.654000000000000000e+03 1.777936363220214844e+01 1.880568504333496094e+01 3.129380941390991211e-02 1.344372481107711792e-01 4.971931874752044678e-02 6.584525108337402344e-02
5.655000000000000000e+03 6.398456573486328125e+01 6.044006347656250000e+00 -5.668296217918395996e-01 7.123561382293701172e+00 1.967019438743591309e+00 -2.019648253917694092e-01
5.656000000000000000e+03 3.532454299926757812e+01 3.102065801620483398e+00 -6.015643849968910217e-02 6.227214932441711426e-01 1.687695086002349854e-01 2.330322377383708954e-02
5.657000000000000000e+03 3.481960678100585938e+01 -1.447190530598163605e-02 -4.274739697575569153e-02 6.298569440841674805e-01 1.761328577995300293e-01 9.839460253715515137e-03
5.658000000000000000e+03 1.497661113739013672e+01 1.824727439880371094e+01 1.711086928844451904e-02 1.174456626176834106e-01 4.036695882678031921e-02 4.268226400017738342e-02
5.659000000000000000e+03 1.390715312957763672e+01 1.871869277954101562e+01 9.926864877343177795e-03 9.899172186851501465e-02 3.267557546496391296e-02 2.917048148810863495e-02
5.660000000000000000e+03 1.316298389434814453e+01 1.830314254760742188e+01 8.651820942759513855e-03 9.160283207893371582e-02 3.007639572024345398e-02 2.204301021993160248e-02
5.661000000000000000e+03 1.394020080566406250e+01 1.690175628662109375e+01 1.787981763482093811e-02 1.191383898258209229e-01 4.110546037554740906e-02 3.614259511232376099e-02
5.662000000000000000e+03 6.443797302246093750e+01 2.138541603088378906e+01 -7.889119386672973633e-01 8.584463119506835938e+00 2.338665246963500977e+00 -9.809403419494628906e-01
5.663000000000000000e+03 6.565754699707031250e+01 5.582924365997314453e+00 -4.940858781337738037e-01 7.339360237121582031e+00 2.053582191467285156e+00 -2.525745928287506104e-01
5.664000000000000000e+03 6.308762359619140625e+01 7.249757051467895508e-01 -4.398188889026641846e-01 6.785978317260742188e+00 1.903847932815551758e+00 -3.730514645576477051e-02
5.665000000000000000e+03 3.958243560791015625e+01 -1.913628935813903809e+00 -1.017763614654541016e-01 1.595628261566162109e+00 4.481555819511413574e-01 7.337369024753570557e-02
5.666000000000000000e+03 3.917178726196289062e+01 -3.117230415344238281e+00 -8.997721225023269653e-02 1.530843377113342285e+00 4.322598278522491455e-01 4.114930704236030579e-02
5.667000000000000000e+03 6.359025192260742188e+01 2.539276123046875000e+01 -4.387458860874176025e-01 9.326979637145996094e+00 2.666470050811767578e+00 -1.189193487167358398e+00
5.668000000000000000e+03 6.335152816772460938e+01 2.403092765808105469e+01 -6.604397892951965332e-01 9.119372367858886719e+00 2.537679672241210938e+00 -1.020161867141723633e+00
5.669000000000000000e+03 4.601451492309570312e+01 -6.948686599731445312e+00 -2.690418362617492676e-01 3.171146631240844727e+00 8.706314563751220703e-01 3.658168762922286987e-02
5.670000000000000000e+03 6.498851013183593750e+01 1.488654518127441406e+01 -7.880204916000366211e-01 7.824657440185546875e+00 2.110991239547729492e+00 -6.337669491767883301e-01
5.671000000000000000e+03 2.712711524963378906e+01 2.969302749633789062e+01 3.255082666873931885e-02 1.002987846732139587e-01 3.985488414764404297e-02 5.441168695688247681e-02
5.672000000000000000e+03 2.412129211425781250e+01 2.647315216064453125e+01 2.331061102449893951e-02 1.084156557917594910e-01 3.951787948608398438e-02 5.822603777050971985e-02
5.673000000000000000e+03 6.371824645996093750e+01 3.420142412185668945e+00 -4.921138286590576172e-01 6.971414089202880859e+00 1.943790078163146973e+00 -1.153979748487472534e-01
5.674000000000000000e+03 6.451229858398437500e+01 5.002839088439941406e+00 -5.162920951843261719e-01 7.155468463897705078e+00 1.991752862930297852e+00 -1.919230520725250244e-01
5.675000000000000000e+03 6.532054138183593750e+01 9.144821166992187500e+00 -6.189972758293151855e-01 7.449356079101562500e+00 2.049107551574707031e+00 -3.793869912624359131e-01
5.676000000000000000e+03 6.325877380371093750e+01 6.240970134735107422e+00 -5.944303870201110840e-01 7.015731334686279297e+00 1.926390290260314941e+00 -1.708338409662246704e-01
5.677000000000000000e+03 6.421803283691406250e+01 2.941733551025390625e+01 6.721083521842956543e-01 9.621534347534179688e+00 3.088093042373657227e+00 -1.503912806510925293e+00
5.678000000000000000e+03 6.536892700195312500e+01 1.277907562255859375e+01 -7.161396145820617676e-01 7.680266857147216797e+00 2.089238166809082031e+00 -5.538656711578369141e-01
5.679000000000000000e+03 6.443782806396484375e+01 1.261340236663818359e+01 -7.611292600631713867e-01 7.589460372924804688e+00 2.048499345779418945e+00 -4.742533862590789795e-01
5.680000000000000000e+03 6.194685745239257812e+01 3.197600746154785156e+01 2.156656742095947266e+00 1.073604679107666016e+01 3.867810964584350586e+00 -1.262850999832153320e+00
5.681000000000000000e+03 6.565080261230468750e+01 1.877947425842285156e+01 -7.724756002426147461e-01 8.211250305175781250e+00 2.231632471084594727e+00 -9.466255307197570801e-01
5.682000000000000000e+03 2.449865531921386719e+01 2.564945220947265625e+01 3.326020389795303345e-02 1.105523034930229187e-01 4.314375296235084534e-02 7.082732021808624268e-02
5.683000000000000000e+03 2.414554977416992188e+01 2.417083549499511719e+01 4.106501117348670959e-02 1.169350743293762207e-01 4.740002751350402832e-02 7.168699055910110474e-02
5.684000000000000000e+03 2.376049041748046875e+01 2.906431198120117188e+01 1.461403816938400269e-02 9.751820564270019531e-02 3.363967314362525940e-02 4.838712513446807861e-02
5.685000000000000000e+03 6.264358901977539062e+01 -8.972581863403320312e+00 -2.999758124351501465e-01 6.587923526763916016e+00 1.886384367942810059e+00 1.573964804410934448e-01
5.686000000000000000e+03 6.324455642700195312e+01 -1.579319477081298828e+01 -1.988095790147781372e-01 6.697143554687500000e+00 1.949500083923339844e+00 2.741454839706420898e-01
5.687000000000000000e+03 6.353558731079101562e+01 -8.148157119750976562e+00 -2.789371609687805176e-01 6.745733737945556641e+00 1.940039038658142090e+00 1.325827389955520630e-01
5.688000000000000000e+03 1.546767330169677734e+01 1.934023284912109375e+01 1.548730488866567612e-02 1.120700836181640625e-01 3.826721757650375366e-02 4.243081435561180115e-02
5.689000000000000000e+03 2.843827629089355469e+01 3.034754753112792969e+01 4.316782578825950623e-02 9.469204396009445190e-02 4.135796055197715759e-02 5.742251500487327576e-02
5.690000000000000000e+03 6.584537506103515625e+01 -9.537805557250976562e+00 -2.163012772798538208e-01 7.132428169250488281e+00 2.074838161468505859e+00 1.641238927841186523e-01
5.691000000000000000e+03 1.641721153259277344e+01 2.931783485412597656e+01 -3.854901297017931938e-03 5.534729734063148499e-02 1.544771902263164520e-02 1.801058463752269745e-02
5.692000000000000000e+03 1.725875854492187500e+01 2.609977531433105469e+01 2.159777097404003143e-03 7.914475351572036743e-02 2.439136058092117310e-02 2.989925071597099304e-02
5.693000000000000000e+03 4.528948593139648438e+01 -6.197089195251464844e+00 -2.489663213491439819e-01 2.984870910644531250e+00 8.207713365554809570e-01 3.958148136734962463e-02
5.694000000000000000e+03 4.251376342773437500e+01 -4.454738140106201172e+00 -1.752110123634338379e-01 2.303866386413574219e+00 6.385965943336486816e-01 4.429400712251663208e-02
5.695000000000000000e+03 4.876262664794921875e+01 -1.156722640991210938e+01 -3.173290789127349854e-01 3.896286249160766602e+00 1.073687195777893066e+00 8.378316648304462433e-03
5.696000000000000000e+03 6.453926849365234375e+01 -6.661968708038330078e+00 -2.922637760639190674e-01 6.913856506347656250e+00 1.986477851867675781e+00 1.042835190892219543e-01
5.697000000000000000e+03 5.499934768676757812e+01 -1.617199897766113281e+01 -3.184853494167327881e-01 5.314990997314453125e+00 1.498951673507690430e+00 1.797355562448501587e-01
5.698000000000000000e+03 5.342878723144531250e+01 -1.642914009094238281e+01 -3.132289052009582520e-01 5.042028903961181641e+00 1.418640017509460449e+00 1.327439695596694946e-01
5.699000000000000000e+03 6.250855636596679688e+01 -1.798479843139648438e+01 -1.746384501457214355e-01 6.589242935180664062e+00 1.924381375312805176e+00 3.056173026561737061e-01
5.700000000000000000e+03 5.061076736450195312e+01 -1.465950679779052734e+01 -3.368063867092132568e-01 4.416029453277587891e+00 1.223766922950744629e+00 2.327254787087440491e-02
5.701000000000000000e+03 6.332830047607421875e+01 -1.956464767456054688e+01 -1.350330263376235962e-01 6.721713066101074219e+00 1.976004004478454590e+00 3.359870314598083496e-01
5.702000000000000000e+03 6.403756713867187500e+01 3.251821136474609375e+01 1.913546085357666016e+00 9.755224227905273438e+00 3.500631093978881836e+00 -1.110333800315856934e+00
5.703000000000000000e+03 6.234567260742187500e+01 3.646515309810638428e-02 -4.395344257354736328e-01 6.641902923583984375e+00 1.860710501670837402e+00 3.539727535098791122e-03
5.704000000000000000e+03 5.201245117187500000e+01 -1.712376976013183594e+01 -3.305945396423339844e-01 4.772714614868164062e+00 1.332635998725891113e+00 8.487307280302047729e-02
5.705000000000000000e+03 5.268804550170898438e+01 -1.495150375366210938e+01 -3.396174013614654541e-01 4.857915878295898438e+00 1.355489492416381836e+00 9.818805009126663208e-02
5.706000000000000000e+03 5.647931289672851562e+01 -1.809827423095703125e+01 -2.781028449535369873e-01 5.627394199371337891e+00 1.604787349700927734e+00 2.418240308761596680e-01
5.707000000000000000e+03 5.656271743774414062e+01 -1.636837005615234375e+01 -2.766040563583374023e-01 5.614055156707763672e+00 1.601235389709472656e+00 2.199168950319290161e-01
5.708000000000000000e+03 5.936137008666992188e+01 -1.841474151611328125e+01 -2.218932956457138062e-01 6.087657928466796875e+00 1.759729385375976562e+00 2.903220653533935547e-01
5.709000000000000000e+03 6.095334243774414062e+01 -2.174863815307617188e+01 -9.902025014162063599e-02 6.378068447113037109e+00 1.883714437484741211e+00 3.520098924636840820e-01
5.710000000000000000e+03 6.294396591186523438e+01 3.673398590087890625e+01 2.259649038314819336e+00 1.080237102508544922e+01 3.918606042861938477e+00 6.232612729072570801e-01
5.711000000000000000e+03 1.825449180603027344e+01 -2.707969856262207031e+01 5.795149132609367371e-02 1.351127773523330688e-01 5.791928246617317200e-02 -1.362332105636596680e-01
5.712000000000000000e+03 6.309510421752929688e+01 -1.254260349273681641e+01 -2.412536293268203735e-01 6.667807579040527344e+00 1.927966237068176270e+00 2.259969860315322876e-01
5.713000000000000000e+03 5.166621398925781250e+01 -1.379451942443847656e+01 -3.478019237518310547e-01 4.583562374114990234e+00 1.270728111267089844e+00 7.452563941478729248e-02
5.714000000000000000e+03 4.818690109252929688e+01 -1.077954864501953125e+01 -3.089569807052612305e-01 3.756720542907714844e+00 1.034329056739807129e+00 -1.150898518972098827e-03
5.715000000000000000e+03 4.042021560668945312e+01 1.383033561706542969e+01 -2.073880434036254883e-01 1.096043348312377930e+00 2.665966153144836426e-01 2.857209742069244385e-01
5.716000000000000000e+03 4.085366439819335938e+01 1.344863128662109375e+01 -2.106764763593673706e-01 1.249582290649414062e+00 3.116717636585235596e-01 3.264480233192443848e-01
5.717000000000000000e+03 5.007732391357421875e+01 2.258685874938964844e+01 2.062022686004638672e-02 4.140271186828613281e+00 1.248267412185668945e+00 1.554148197174072266e+00
5.718000000000000000e+03 5.611978530883789062e+01 3.001638412475585938e+01 8.710739761590957642e-02 1.132472705841064453e+01 3.423550367355346680e+00 2.397541284561157227e+00
5.719000000000000000e+03 5.847061157226562500e+01 3.085938072204589844e+01 7.296947836875915527e-01 1.286233711242675781e+01 4.077609539031982422e+00 -2.849068939685821533e-01
5.720000000000000000e+03 5.925699996948242188e+01 3.090035820007324219e+01 1.027862548828125000e+00 1.242499160766601562e+01 4.035856246948242188e+00 -7.939654588699340820e-01
5.721000000000000000e+03 5.600675582885742188e+01 3.031610107421875000e+01 1.904402375221252441e-01 1.149567031860351562e+01 3.505833148956298828e+00 2.612206697463989258e+00
5.722000000000000000e+03 5.572518920898437500e+01 3.018517684936523438e+01 2.766329646110534668e-01 1.094711494445800781e+01 3.367124319076538086e+00 2.840867757797241211e+00
5.723000000000000000e+03 4.531073379516601562e+01 1.772963523864746094e+01 -1.110408157110214233e-01 2.294951438903808594e+00 6.551731824874877930e-01 7.987390756607055664e-01
5.724000000000000000e+03 4.829796981811523438e+01 2.094392585754394531e+01 -1.102879550307989120e-02 3.294003248214721680e+00 9.848923087120056152e-01 1.254160881042480469e+00
5.725000000000000000e+03 5.694117355346679688e+01 3.043153572082519531e+01 8.844616264104843140e-02 1.251516246795654297e+01 3.781082630157470703e+00 1.483114242553710938e+00
5.726000000000000000e+03 5.822492599487304688e+01 3.068501663208007812e+01 5.321939587593078613e-01 1.286553287506103516e+01 4.019318103790283203e+00 -5.604560673236846924e-02
5.727000000000000000e+03 5.452873992919921875e+01 2.770025444030761719e+01 8.403463661670684814e-02 7.964649200439453125e+00 2.414605140686035156e+00 2.459242820739746094e+00
5.728000000000000000e+03 5.035821533203125000e+01 2.290929222106933594e+01 3.281578421592712402e-02 4.294764041900634766e+00 1.298273921012878418e+00 1.612292647361755371e+00
5.729000000000000000e+03 4.274363708496093750e+01 1.430382728576660156e+01 -1.918681263923645020e-01 1.728529572486877441e+00 4.609984457492828369e-01 4.905654489994049072e-01
5.730000000000000000e+03 4.971070861816406250e+01 2.164480400085449219e+01 -5.670698732137680054e-02 3.968584775924682617e+00 1.173563361167907715e+00 1.428411483764648438e+00
5.731000000000000000e+03 5.064291381835937500e+01 2.318855285644531250e+01 2.736449614167213440e-02 4.430908679962158203e+00 1.337481975555419922e+00 1.641943335533142090e+00
5.732000000000000000e+03 4.502051925659179688e+01 1.751246643066406250e+01 -1.141286566853523254e-01 2.193039894104003906e+00 6.236733794212341309e-01 7.609524130821228027e-01
5.733000000000000000e+03 4.615632629394531250e+01 1.859381866455078125e+01 -9.652957320213317871e-02 2.539181232452392578e+00 7.327955365180969238e-01 9.082049727439880371e-01
5.734000000000000000e+03 4.905978775024414062e+01 2.117292022705078125e+01 -5.045266076922416687e-02 3.668456792831420898e+00 1.085401177406311035e+00 1.332755684852600098e+00
5.735000000000000000e+03 4.723876190185546875e+01 1.947365760803222656e+01 -7.705236226320266724e-02 2.918077230453491211e+00 8.523074984550476074e-01 1.057762026786804199e+00
5.736000000000000000e+03 5.095680236816406250e+01 2.331625366210937500e+01 6.124552339315414429e-03 4.641240119934082031e+00 1.394209504127502441e+00 1.686267971992492676e+00
5.737000000000000000e+03 5.311024093627929688e+01 2.657166290283203125e+01 2.425517588853836060e-01 6.298139095306396484e+00 1.962207317352294922e+00 2.332788467407226562e+00
5.738000000000000000e+03 5.330480575561523438e+01 2.582088851928710938e+01 3.158727660775184631e-02 6.429702281951904297e+00 1.938386797904968262e+00 2.145044088363647461e+00
5.739000000000000000e+03 5.173256683349609375e+01 2.438113403320312500e+01 6.789783388376235962e-02 5.166429519653320312e+00 1.570298194885253906e+00 1.885580539703369141e+00
5.740000000000000000e+03 5.297879028320312500e+01 2.588979530334472656e+01 1.161700412631034851e-01 6.209473133087158203e+00 1.897692918777465820e+00 2.180371284484863281e+00
5.741000000000000000e+03 4.789881896972656250e+01 2.082388496398925781e+01 7.471641525626182556e-03 3.124064445495605469e+00 9.394608736038208008e-01 1.211350083351135254e+00
5.742000000000000000e+03 5.395350646972656250e+01 2.742008399963378906e+01 2.182041257619857788e-01 7.258408069610595703e+00 2.242983579635620117e+00 2.507955551147460938e+00
5.743000000000000000e+03 4.241524505615234375e+01 1.467101573944091797e+01 -1.872268319129943848e-01 1.606731772422790527e+00 4.258514940738677979e-01 4.672980010509490967e-01
5.744000000000000000e+03 4.581525802612304688e+01 1.789764022827148438e+01 -1.169465556740760803e-01 2.468869686126708984e+00 7.055769562721252441e-01 8.562930822372436523e-01
5.745000000000000000e+03 5.265835571289062500e+01 2.554336738586425781e+01 1.153848841786384583e-01 5.836742877960205078e+00 1.785638332366943359e+00 2.108506917953491211e+00
5.746000000000000000e+03 4.264437866210937500e+01 1.502792930603027344e+01 -1.806454509496688843e-01 1.636421442031860352e+00 4.367327988147735596e-01 4.900856316089630127e-01
5.747000000000000000e+03 5.370396041870117188e+01 2.748474502563476562e+01 3.219501674175262451e-01 6.934823513031005859e+00 2.177031993865966797e+00 2.552048683166503906e+00
5.748000000000000000e+03 5.205791854858398438e+01 2.417144203186035156e+01 -2.484395354986190796e-02 5.406181335449218750e+00 1.614401221275329590e+00 1.849314808845520020e+00
5.749000000000000000e+03 4.561246109008789062e+01 1.751308822631835938e+01 -1.349627971649169922e-01 2.434614181518554688e+00 6.898954510688781738e-01 8.201132416725158691e-01
5.750000000000000000e+03 4.891976547241210938e+01 2.152975463867187500e+01 2.622866071760654449e-03 3.588614940643310547e+00 1.077371358871459961e+00 1.349401235580444336e+00
5.751000000000000000e+03 5.222371673583984375e+01 2.453565979003906250e+01 2.103492617607116699e-03 5.531728267669677734e+00 1.660149574279785156e+00 1.914903163909912109e+00
5.752000000000000000e+03 5.724062347412109375e+01 3.000383567810058594e+01 -2.338675595819950104e-02 1.217106723785400391e+01 3.644304275512695312e+00 1.164013624191284180e+00
5.753000000000000000e+03 4.599160385131835938e+01 1.827033996582031250e+01 -1.029543578624725342e-01 2.504137516021728516e+00 7.203549742698669434e-01 8.840335607528686523e-01
5.754000000000000000e+03 4.083594512939453125e+01 1.420556259155273438e+01 -1.976645439863204956e-01 1.174419522285461426e+00 2.930264770984649658e-01 3.220852017402648926e-01
5.755000000000000000e+03 3.850873565673828125e+01 8.451769828796386719e+00 -1.948778033256530762e-01 1.026333212852478027e+00 2.494366317987442017e-01 1.989972889423370361e-01
5.756000000000000000e+03 3.921705245971679688e+01 9.914726257324218750e+00 -2.182335555553436279e-01 1.097356796264648438e+00 2.637369930744171143e-01 2.316219210624694824e-01
5.757000000000000000e+03 3.979782485961914062e+01 1.141983413696289062e+01 -2.283683270215988159e-01 1.132377862930297852e+00 2.712028622627258301e-01 2.580093145370483398e-01
5.758000000000000000e+03 4.375223541259765625e+01 1.620680046081542969e+01 -1.465930789709091187e-01 1.886324286460876465e+00 5.219193696975708008e-01 6.116253137588500977e-01
5.759000000000000000e+03 4.530985641479492188e+01 1.714734268188476562e+01 -1.443420797586441040e-01 2.348649978637695312e+00 6.612923741340637207e-01 7.786673307418823242e-01
5.760000000000000000e+03 4.040864944458007812e+01 1.339430141448974609e+01 -2.135431766510009766e-01 1.126550793647766113e+00 2.739022672176361084e-01 2.896588742733001709e-01
5.761000000000000000e+03 3.456835174560546875e+01 5.274469256401062012e-01 -4.180106148123741150e-02 5.713447332382202148e-01 1.588630974292755127e-01 4.502803087234497070e-03
5.762000000000000000e+03 4.764894104003906250e+01 2.031689071655273438e+01 -2.778618596494197845e-02 3.024808168411254883e+00 8.991065621376037598e-01 1.155064940452575684e+00
5.763000000000000000e+03 4.963066482543945312e+01 2.099865341186523438e+01 -1.169831976294517517e-01 3.971744537353515625e+00 1.156428456306457520e+00 1.358129262924194336e+00
5.764000000000000000e+03 4.083554077148437500e+01 1.384821224212646484e+01 -2.028409838676452637e-01 1.206064939498901367e+00 3.009671568870544434e-01 3.242896795272827148e-01
5.765000000000000000e+03 3.660794067382812500e+01 6.234004497528076172e+00 -1.284597069025039673e-01 7.198376655578613281e-01 1.774133741855621338e-01 1.014928966760635376e-01
5.766000000000000000e+03 3.787427139282226562e+01 7.440721988677978516e+00 -1.690490096807479858e-01 9.397097229957580566e-01 2.311982214450836182e-01 1.678859144449234009e-01
5.767000000000000000e+03 4.300173950195312500e+01 1.543502902984619141e+01 -1.654352098703384399e-01 1.705057501792907715e+00 4.618866741657257080e-01 5.278708338737487793e-01
5.768000000000000000e+03 4.305748748779296875e+01 1.498656368255615234e+01 -1.866270750761032104e-01 1.761712193489074707e+00 4.725255370140075684e-01 5.200424194335937500e-01
5.769000000000000000e+03 2.230803108215332031e+01 2.093133926391601562e+01 4.850155860185623169e-02 1.310272961854934692e-01 5.385865643620491028e-02 8.059289306402206421e-02
5.770000000000000000e+03 3.892681884765625000e+01 1.053241729736328125e+01 -2.281077057123184204e-01 9.865579605102539062e-01 2.275350689888000488e-01 2.053930163383483887e-01
5.771000000000000000e+03 4.038742828369140625e+01 1.135375022888183594e+01 -2.243772000074386597e-01 1.296104192733764648e+00 3.215181231498718262e-01 3.027086555957794189e-01
5.772000000000000000e+03 4.328731155395507812e+01 1.587477493286132812e+01 -1.509319543838500977e-01 1.746890664100646973e+00 4.787876307964324951e-01 5.621418356895446777e-01
5.773000000000000000e+03 4.361674118041992188e+01 1.576879405975341797e+01 -1.685356944799423218e-01 1.881155014038085938e+00 5.137857794761657715e-01 5.845903158187866211e-01
5.774000000000000000e+03 3.875305557250976562e+01 8.949959754943847656e+00 -2.041376531124114990e-01 1.048982381820678711e+00 2.534534037113189697e-01 2.110045403242111206e-01
5.775000000000000000e+03 3.898908615112304688e+01 9.432556152343750000e+00 -2.141260504722595215e-01 1.075929164886474609e+00 2.585409283638000488e-01 2.213491946458816528e-01
5.776000000000000000e+03 1.541148567199707031e+01 1.418924713134765625e+01 4.314039647579193115e-02 1.771751046180725098e-01 6.609465181827545166e-02 7.619553804397583008e-02
5.777000000000000000e+03 5.473987197875976562e+01 2.822219848632812500e+01 1.450350433588027954e-01 8.383592605590820312e+00 2.558588266372680664e+00 2.588478326797485352e+00
5.778000000000000000e+03 1.623384475708007812e+01 1.461552238464355469e+01 4.742226377129554749e-02 1.768494546413421631e-01 6.728151440620422363e-02 8.497755974531173706e-02
5.779000000000000000e+03 1.559893035888671875e+01 1.343930816650390625e+01 5.315386131405830383e-02 1.896669268608093262e-01 7.284623384475708008e-02 8.776058256626129150e-02
5.780000000000000000e+03 1.355960941314697266e+01 1.333524227142333984e+01 3.797343745827674866e-02 1.677961051464080811e-01 6.173086166381835938e-02 4.786396026611328125e-02
5.781000000000000000e+03 1.614580535888671875e+01 1.598407649993896484e+01 3.866108506917953491e-02 1.551585346460342407e-01 5.814588442444801331e-02 7.010196894407272339e-02
5.782000000000000000e+03 1.475160980224609375e+01 1.304111385345458984e+01 4.958477243781089783e-02 1.920903325080871582e-01 7.250253111124038696e-02 7.520905882120132446e-02
5.783000000000000000e+03 3.825215530395507812e+01 7.920425891876220703e+00 -1.809942871332168579e-01 9.949856996536254883e-01 2.441974133253097534e-01 1.835343837738037109e-01
5.784000000000000000e+03 1.395159053802490234e+01 1.268354034423828125e+01 4.465190321207046509e-02 1.905330866575241089e-01 7.055549323558807373e-02 6.054635718464851379e-02
5.785000000000000000e+03 3.504525375366210938e+01 4.827510833740234375e+00 -8.169890940189361572e-02 5.041108727455139160e-01 1.267235726118087769e-01 1.766421645879745483e-02
5.786000000000000000e+03 3.770015335083007812e+01 6.659731388092041016e+00 -1.487037092447280884e-01 9.278046488761901855e-01 2.337302714586257935e-01 1.579654961824417114e-01
5.787000000000000000e+03 3.267670440673828125e+01 2.189707517623901367e+00 -7.317627966403961182e-02 2.690234780311584473e-01 5.875415727496147156e-02 -5.739761888980865479e-02
5.788000000000000000e+03 3.925929260253906250e+01 1.148478031158447266e+01 -2.351686656475067139e-01 9.972048401832580566e-01 2.286108583211898804e-01 2.168528884649276733e-01
5.789000000000000000e+03 1.617720031738281250e+01 2.052312088012695312e+01 1.467576995491981506e-02 1.080551519989967346e-01 3.681927546858787537e-02 4.324054718017578125e-02
5.790000000000000000e+03 3.737542343139648438e+01 7.793925762176513672e+00 -1.801965683698654175e-01 8.031032085418701172e-01 1.868719905614852905e-01 1.393579393625259399e-01
5.791000000000000000e+03 3.660602188110351562e+01 6.702468395233154297e+00 -1.461297124624252319e-01 6.993993520736694336e-01 1.659808903932571411e-01 1.014563515782356262e-01
5.792000000000000000e+03 4.730285263061523438e+01 2.009912490844726562e+01 -2.283887378871440887e-02 2.904648780822753906e+00 8.645429611206054688e-01 1.103923797607421875e+00
5.793000000000000000e+03 2.374537849426269531e+01 2.276934623718261719e+01 4.568673297762870789e-02 1.227529197931289673e-01 5.053189769387245178e-02 7.761459797620773315e-02
5.794000000000000000e+03 5.857603073120117188e+01 3.036610412597656250e+01 4.697012007236480713e-01 1.252058315277099609e+01 3.897085428237915039e+00 -2.099212557077407837e-01
5.795000000000000000e+03 5.897349166870117188e+01 3.050717735290527344e+01 6.907320022583007812e-01 1.235805034637451172e+01 3.914634704589843750e+00 -5.270115137100219727e-01
5.796000000000000000e+03 3.132093429565429688e+01 1.452544093132019043e+00 -9.989452362060546875e-02 1.306539177894592285e-01 9.227818809449672699e-03 -6.598310172557830811e-02
5.797000000000000000e+03 3.435413360595703125e+01 3.733087062835693359e+00 -6.422998756170272827e-02 4.411440193653106689e-01 1.130742132663726807e-01 -1.086786109954118729e-02
5.798000000000000000e+03 2.152891349792480469e+01 2.084758758544921875e+01 4.344202950596809387e-02 1.306867897510528564e-01 5.223864316940307617e-02 7.718214392662048340e-02
5.799000000000000000e+03 2.112262344360351562e+01 2.044653511047363281e+01 4.212898015975952148e-02 1.327535361051559448e-01 5.246475338935852051e-02 8.137518167495727539e-02
5.800000000000000000e+03 6.362200546264648438e+01 2.838075447082519531e+01 3.119153082370758057e-01 9.751005172729492188e+00 3.018876075744628906e+00 -1.438979029655456543e+00
5.801000000000000000e+03 6.071763992309570312e+01 3.090689277648925781e+01 1.392870545387268066e+00 1.143507766723632812e+01 3.848384618759155273e+00 -1.235977888107299805e+00
5.802000000000000000e+03 4.041655349731445312e+01 1.293792533874511719e+01 -2.201232910156250000e-01 1.171897768974304199e+00 2.855323553085327148e-01 2.952151596546173096e-01
5.803000000000000000e+03 4.206241607666015625e+01 1.433354663848876953e+01 -1.894398480653762817e-01 1.522673726081848145e+00 3.999701738357543945e-01 4.335674047470092773e-01
5.804000000000000000e+03 1.899714851379394531e+01 1.884817123413085938e+01 4.023230448365211487e-02 1.391142755746841431e-01 5.380397289991378784e-02 7.453656941652297974e-02
5.805000000000000000e+03 1.648903846740722656e+01 1.791070938110351562e+01 2.570174820721149445e-02 1.353018730878829956e-01 4.830108582973480225e-02 5.990715697407722473e-02
5.806000000000000000e+03 1.349944210052490234e+01 1.287347221374511719e+01 3.930769115686416626e-02 1.746376603841781616e-01 6.418360769748687744e-02 4.958337172865867615e-02
5.807000000000000000e+03 1.170370960235595703e+01 1.155267238616943359e+01 5.155479162931442261e-02 1.528777778148651123e-01 6.132977083325386047e-02 1.227726973593235016e-02
5.808000000000000000e+03 3.331200027465820312e+01 2.751881122589111328e+00 -6.684710085391998291e-02 3.334445953369140625e-01 7.997924834489822388e-02 -4.889360442757606506e-02
5.809000000000000000e+03 3.346072769165039062e+01 1.047765016555786133e+00 -5.764568969607353210e-02 4.048658907413482666e-01 1.041660606861114502e-01 -1.856687106192111969e-02
5.810000000000000000e+03 3.401922225952148438e+01 1.045631170272827148e+00 -4.521192237734794617e-02 4.850773215293884277e-01 1.319596171379089355e-01 -8.375639095902442932e-03
5.811000000000000000e+03 1.513201427459716797e+01 1.596500492095947266e+01 2.942229807376861572e-02 1.475102007389068604e-01 5.307975038886070251e-02 5.753538385033607483e-02
5.812000000000000000e+03 3.386618423461914062e+01 3.268209695816040039e+00 -6.463133543729782104e-02 3.847975432872772217e-01 9.604986757040023804e-02 -3.074629418551921844e-02
5.813000000000000000e+03 3.678030776977539062e+01 4.364276826381683350e-01 -5.236933007836341858e-02 9.727439284324645996e-01 2.761123776435852051e-01 5.690483748912811279e-02
5.814000000000000000e+03 3.845148468017578125e+01 -1.487244606018066406e+00 -7.810561358928680420e-02 1.348058104515075684e+00 3.809857368469238281e-01 5.879792198538780212e-02
5.815000000000000000e+03 3.739655303955078125e+01 -9.895085096359252930e-01 -6.041546165943145752e-02 1.130796790122985840e+00 3.211144208908081055e-01 4.881448298692703247e-02
5.816000000000000000e+03 6.287336730957031250e+01 3.246199798583984375e+01 2.187336683273315430e+00 1.020832061767578125e+01 3.718697309494018555e+00 -1.125736832618713379e+00
5.817000000000000000e+03 6.428678894042968750e+01 1.861759567260742188e+01 -8.603978157043457031e-01 8.204064369201660156e+00 2.203099966049194336e+00 -7.823904752731323242e-01
5.818000000000000000e+03 6.411596679687500000e+01 1.692624855041503906e+01 -8.742241263389587402e-01 8.001073837280273438e+00 2.138055086135864258e+00 -6.621155738830566406e-01
5.819000000000000000e+03 1.426730060577392578e+01 1.794234085083007812e+01 1.446304749697446823e-02 1.118574216961860657e-01 3.789614140987396240e-02 3.519289940595626831e-02
5.820000000000000000e+03 1.486896228790283203e+01 1.653108787536621094e+01 2.423625066876411438e-02 1.361811906099319458e-01 4.812522977590560913e-02 4.905083402991294861e-02
5.821000000000000000e+03 2.022060585021972656e+01 2.643379783630371094e+01 1.499016024172306061e-02 9.566124528646469116e-02 3.319542109966278076e-02 4.474071413278579712e-02
5.822000000000000000e+03 2.498934745788574219e+01 2.765907287597656250e+01 2.123303897678852081e-02 1.045642197132110596e-01 3.773918002843856812e-02 6.012441590428352356e-02
5.823000000000000000e+03 2.382942962646484375e+01 2.758115005493164062e+01 2.648993022739887238e-02 1.004468351602554321e-01 3.808102756738662720e-02 5.699969828128814697e-02
5.824000000000000000e+03 3.688238906860351562e+01 8.072859764099121094e+00 -1.938867419958114624e-01 6.865404248237609863e-01 1.477960944175720215e-01 1.127944961190223694e-01
5.825000000000000000e+03 1.519235134124755859e+01 1.516933727264404297e+01 3.486616909503936768e-02 1.600613594055175781e-01 5.847825855016708374e-02 6.508099287748336792e-02
5.826000000000000000e+03 1.397282505035400391e+01 1.564681625366210938e+01 2.543543837964534760e-02 1.363286375999450684e-01 4.852922260761260986e-02 4.386121034622192383e-02
5.827000000000000000e+03 2.443694686889648438e+01 2.467559814453125000e+01 3.448898717761039734e-02 1.156659126281738281e-01 4.504647105932235718e-02 7.460021972656250000e-02
5.828000000000000000e+03 1.788609504699707031e+01 1.766920852661132812e+01 3.770127892494201660e-02 1.459287703037261963e-01 5.508901551365852356e-02 7.650298625230789185e-02
5.829000000000000000e+03 1.836998367309570312e+01 1.895215225219726562e+01 3.305812180042266846e-02 1.356006860733032227e-01 5.059764534235000610e-02 7.102489471435546875e-02
5.830000000000000000e+03 1.467785549163818359e+01 1.907036018371582031e+01 1.110308803617954254e-02 1.050855964422225952e-01 3.485660627484321594e-02 3.423061594367027283e-02
5.831000000000000000e+03 6.258959197998046875e+01 2.621159076690673828e+00 -4.912033081054687500e-01 6.764109611511230469e+00 1.881871938705444336e+00 -5.985187739133834839e-02
5.832000000000000000e+03 4.601359939575195312e+01 -5.432095050811767578e+00 -2.653957605361938477e-01 3.146751165390014648e+00 8.644065856933593750e-01 7.117112725973129272e-02
5.833000000000000000e+03 4.534554672241210938e+01 -4.697961807250976562e+00 -2.466894984245300293e-01 2.975660562515258789e+00 8.186913728713989258e-01 7.672172039747238159e-02
5.834000000000000000e+03 2.294717216491699219e+01 2.295607948303222656e+01 3.502159938216209412e-02 1.206451505422592163e-01 4.670002311468124390e-02 7.515297085046768188e-02
5.835000000000000000e+03 6.402068328857421875e+01 2.226341819763183594e+01 -7.697046399116516113e-01 8.742112159729003906e+00 2.391722440719604492e+00 -9.844848513603210449e-01
5.836000000000000000e+03 6.166193008422851562e+01 3.089333724975585938e+01 1.425528645515441895e+00 1.088855743408203125e+01 3.694225788116455078e+00 -1.322441339492797852e+00
5.837000000000000000e+03 6.365973663330078125e+01 2.684521293640136719e+01 -1.351481974124908447e-01 9.533086776733398438e+00 2.819381713867187500e+00 -1.326510548591613770e+00
5.838000000000000000e+03 6.230146408081054688e+01 2.417413139343261719e+01 -7.365723848342895508e-01 9.245758056640625000e+00 2.552755832672119141e+00 -8.092187643051147461e-01
5.839000000000000000e+03 6.401486206054687500e+01 1.430211925506591797e+01 -8.251746892929077148e-01 7.696498870849609375e+00 2.061397314071655273e+00 -5.101084709167480469e-01
5.840000000000000000e+03 6.362253570556640625e+01 1.613450813293457031e+01 -8.864797949790954590e-01 7.874740600585937500e+00 2.096478223800659180e+00 -5.615795254707336426e-01
5.841000000000000000e+03 6.234943008422851562e+01 1.426491260528564453e+00 -4.749355316162109375e-01 6.686605453491210938e+00 1.863500952720642090e+00 -2.490874938666820526e-02
5.842000000000000000e+03 6.217758560180664062e+01 3.360593795776367188e+00 -5.277163982391357422e-01 6.720420837402343750e+00 1.857811331748962402e+00 -6.078800559043884277e-02
5.843000000000000000e+03 6.368329238891601562e+01 2.054339981079101562e+01 -8.753759264945983887e-01 8.489653587341308594e+00 2.284283399581909180e+00 -8.115566372871398926e-01
5.844000000000000000e+03 6.371224212646484375e+01 2.320495605468750000e+01 -7.190915942192077637e-01 8.935661315917968750e+00 2.464970827102661133e+00 -1.014730811119079590e+00
5.845000000000000000e+03 4.754970169067382812e+01 -8.438179016113281250e+00 -2.997680306434631348e-01 3.561567783355712891e+00 9.785398840904235840e-01 3.275270015001296997e-02
5.846000000000000000e+03 4.899396133422851562e+01 -1.010759544372558594e+01 -3.253461122512817383e-01 3.912260055541992188e+00 1.076074123382568359e+00 4.322882369160652161e-02
5.847000000000000000e+03 6.434192657470703125e+01 1.561037921905517578e+01 -8.340240716934204102e-01 7.857672214508056641e+00 2.107094526290893555e+00 -6.157059073448181152e-01
5.848000000000000000e+03 4.394846725463867188e+01 -4.622981548309326172e+00 -2.116716951131820679e-01 2.642646074295043945e+00 7.292923331260681152e-01 5.880451202392578125e-02
5.849000000000000000e+03 6.358301925659179688e+01 -6.245862007141113281e+00 -3.023423850536346436e-01 6.760931968688964844e+00 1.937576889991760254e+00 1.012194305658340454e-01
5.850000000000000000e+03 4.187594985961914062e+01 -3.574562311172485352e+00 -1.549798697233200073e-01 2.137489795684814453e+00 5.947529673576354980e-01 5.990337952971458435e-02
5.851000000000000000e+03 6.498513793945312500e+01 6.655649662017822266e+00 -5.503110289573669434e-01 7.289291381835937500e+00 2.021694183349609375e+00 -2.666566967964172363e-01
5.852000000000000000e+03 6.512808227539062500e+01 7.493995666503906250e+00 -5.691077113151550293e-01 7.345488548278808594e+00 2.032914161682128906e+00 -3.025525212287902832e-01
5.853000000000000000e+03 1.625920295715332031e+01 1.949678993225097656e+01 1.591546833515167236e-02 1.195065751671791077e-01 4.062661156058311462e-02 4.794419929385185242e-02
5.854000000000000000e+03 6.430049133300781250e+01 1.351297760009765625e+01 -7.970081567764282227e-01 7.654993057250976562e+00 2.057395458221435547e+00 -4.992338716983795166e-01
5.855000000000000000e+03 6.535910034179687500e+01 1.178312587738037109e+01 -6.935205459594726562e-01 7.610855102539062500e+00 2.075200319290161133e+00 -5.012229681015014648e-01
5.856000000000000000e+03 6.445762634277343750e+01 9.157253265380859375e+00 -6.519132256507873535e-01 7.353525161743164062e+00 2.010483741760253906e+00 -3.316701054573059082e-01
5.857000000000000000e+03 1.621431732177734375e+01 1.666305351257324219e+01 3.182166442275047302e-02 1.479045450687408447e-01 5.391786247491836548e-02 6.611853837966918945e-02
5.858000000000000000e+03 5.995463562011718750e+01 -1.921514391899108887e+00 -4.280365109443664551e-01 6.179658889770507812e+00 1.725486755371093750e+00 8.078386634588241577e-02
5.859000000000000000e+03 6.145880889892578125e+01 -4.717071056365966797e+00 -3.674350678920745850e-01 6.397549152374267578e+00 1.809034228324890137e+00 1.027965769171714783e-01
5.860000000000000000e+03 6.421508026123046875e+01 7.666597843170166016e+00 -6.026588678359985352e-01 7.229747295379638672e+00 1.988126635551452637e+00 -2.694102525711059570e-01
5.861000000000000000e+03 2.583776092529296875e+01 3.056149291992187500e+01 1.939031295478343964e-02 9.502934664487838745e-02 3.432589769363403320e-02 5.209153145551681519e-02
5.862000000000000000e+03 2.767283630371093750e+01 3.479788970947265625e+01 1.985039748251438141e-02 8.723242580890655518e-02 3.212484717369079590e-02 3.854310140013694763e-02
5.863000000000000000e+03 1.654734230041503906e+01 2.322063064575195312e+01 4.963640123605728149e-03 8.922001719474792480e-02 2.825509756803512573e-02 3.218797966837882996e-02
5.864000000000000000e+03 6.294674682617187500e+01 3.124404716491699219e+01 1.471452236175537109e+00 1.018242263793945312e+01 3.496162414550781250e+00 -1.378865361213684082e+00
5.865000000000000000e+03 1.992146301269531250e+01 2.474825096130371094e+01 1.091953273862600327e-02 1.047242358326911926e-01 3.469313308596611023e-02 4.960015788674354553e-02
5.866000000000000000e+03 4.037406921386718750e+01 -1.536765456199645996e+00 -1.166138499975204468e-01 1.765696763992309570e+00 4.947248697280883789e-01 8.724347501993179321e-02
5.867000000000000000e+03 4.144536590576171875e+01 -2.119990587234497070e+00 -1.451734155416488647e-01 2.026953220367431641e+00 5.645339488983154297e-01 8.772663772106170654e-02
5.868000000000000000e+03 6.249702453613281250e+01 -1.128141117095947266e+01 -2.682771384716033936e-01 6.560276508331298828e+00 1.887599706649780273e+00 1.997513473033905029e-01
5.869000000000000000e+03 6.202054977416992188e+01 -1.641012573242187500e+01 -2.073833942413330078e-01 6.501662731170654297e+00 1.888283848762512207e+00 2.850090563297271729e-01
5.870000000000000000e+03 4.998612594604492188e+01 -1.249702930450439453e+01 -3.370434343814849854e-01 4.203670501708984375e+00 1.159988164901733398e+00 3.059609606862068176e-02
5.871000000000000000e+03 4.677253723144531250e+01 -7.689192771911621094e+00 -2.865437567234039307e-01 3.361369371414184570e+00 9.224476814270019531e-01 2.824585884809494019e-02
5.872000000000000000e+03 6.372338867187500000e+01 -4.855701446533203125e+00 -3.244163095951080322e-01 6.793731212615966797e+00 1.940794467926025391e+00 8.128452301025390625e-02
5.873000000000000000e+03 1.854144668579101562e+01 2.810551834106445312e+01 3.387449076399207115e-03 7.837641239166259766e-02 2.452915906906127930e-02 3.103396669030189514e-02
5.874000000000000000e+03 4.891311264038085938e+01 -1.246022033691406250e+01 -3.404402732849121094e-01 3.941555738449096680e+00 1.080334663391113281e+00 -1.975685823708772659e-03
5.875000000000000000e+03 6.525144958496093750e+01 8.318684577941894531e+00 -5.925161838531494141e-01 7.399011611938476562e+00 2.041948795318603516e+00 -3.395693898200988770e-01
5.876000000000000000e+03 2.201950836181640625e+01 3.089807891845703125e+01 5.990113131701946259e-03 8.453260362148284912e-02 2.715681493282318115e-02 3.314606100320816040e-02
5.877000000000000000e+03 6.106872558593750000e+01 -9.709151268005371094e+00 -3.162730038166046143e-01 6.307177543640136719e+00 1.797271370887756348e+00 1.761732250452041626e-01
5.878000000000000000e+03 6.420816040039062500e+01 -9.157688140869140625e+00 -2.571990787982940674e-01 6.863574028015136719e+00 1.981912493705749512e+00 1.557456105947494507e-01
5.879000000000000000e+03 2.325967979431152344e+01 2.600323677062988281e+01 2.407053299248218536e-02 1.091683879494667053e-01 3.997167572379112244e-02 6.333418190479278564e-02
5.880000000000000000e+03 2.341121482849121094e+01 2.459946250915527344e+01 2.937596477568149567e-02 1.147144138813018799e-01 4.322711378335952759e-02 6.867269426584243774e-02
5.881000000000000000e+03 4.966313171386718750e+01 -1.115141010284423828e+01 -3.352535963058471680e-01 4.112109184265136719e+00 1.133056759834289551e+00 3.217117860913276672e-02
5.882000000000000000e+03 6.224923324584960938e+01 -1.002552986145019531e+01 -2.846538126468658447e-01 6.516472816467285156e+00 1.869545698165893555e+00 1.814212799072265625e-01
5.883000000000000000e+03 6.154992675781250000e+01 -6.327972412109375000e-01 -4.362050890922546387e-01 6.486342906951904297e+00 1.815041422843933105e+00 3.139409422874450684e-02
5.884000000000000000e+03 6.155811309814453125e+01 8.531139492988586426e-01 -4.743832647800445557e-01 6.521669387817382812e+00 1.814185857772827148e+00 9.173228405416011810e-03
5.885000000000000000e+03 4.070146942138671875e+01 -2.302794933319091797e+00 -1.286514103412628174e-01 1.844482779502868652e+00 5.147494077682495117e-01 7.770384103059768677e-02
5.886000000000000000e+03 5.948660659790039062e+01 -1.535552406311035156e+01 -2.656867206096649170e-01 6.090171337127685547e+00 1.747345328330993652e+00 2.448852062225341797e-01
5.887000000000000000e+03 6.213865280151367188e+01 -2.076461219787597656e+01 -1.180565506219863892e-01 6.555741310119628906e+00 1.931305408477783203e+00 3.471604883670806885e-01
5.888000000000000000e+03 5.980257797241210938e+01 -9.202692985534667969e+00 -3.256002068519592285e-01 6.093529701232910156e+00 1.730378866195678711e+00 1.665451079607009888e-01
5.889000000000000000e+03 5.790530776977539062e+01 -1.829819679260253906e+01 -2.334411591291427612e-01 5.861513137817382812e+00 1.688421607017517090e+00 2.718965709209442139e-01
5.890000000000000000e+03 5.587146759033203125e+01 -2.667784690856933594e+01 5.900196731090545654e-02 5.719018459320068359e+00 1.733406186103820801e+00 3.649978339672088623e-01
5.891000000000000000e+03 5.757931900024414062e+01 -2.236455917358398438e+01 -1.193637475371360779e-01 5.885129928588867188e+00 1.729729890823364258e+00 3.280068039894104004e-01
5.892000000000000000e+03 1.464739990234375000e+01 -2.783597946166992188e+01 6.234142556786537170e-02 -2.822778560221195221e-02 1.023409236222505569e-02 -9.570213407278060913e-02
5.893000000000000000e+03 1.289664459228515625e+01 -3.010620880126953125e+01 4.796002060174942017e-02 -1.095325648784637451e-01 -1.847176440060138702e-02 -7.190676033496856689e-02
5.894000000000000000e+03 1.939157485961914062e+01 -2.589479064941406250e+01 9.266763180494308472e-02 1.841774135828018188e-01 8.305351436138153076e-02 -1.497743576765060425e-01
5.895000000000000000e+03 1.360810947418212891e+01 -3.176432991027832031e+01 2.634310349822044373e-02 -8.604881912469863892e-02 -1.791171357035636902e-02 -6.832113116979598999e-02
5.896000000000000000e+03 7.235809326171875000e+01 -4.097219085693359375e+01 1.052592471241950989e-01 7.699707508087158203e+00 2.341490030288696289e+00 3.393446654081344604e-02
5.897000000000000000e+03 7.126260375976562500e+01 -3.390385818481445312e+01 9.088210016489028931e-02 7.627841472625732422e+00 2.315617084503173828e+00 1.941527575254440308e-01
5.898000000000000000e+03 5.628565979003906250e+01 -3.067809295654296875e+01 3.202014267444610596e-01 5.816826343536376953e+00 1.841108322143554688e+00 3.649741411209106445e-01
5.899000000000000000e+03 5.192834472656250000e+01 -3.093886566162109375e+01 4.224456250667572021e-01 5.415235519409179688e+00 1.751304388046264648e+00 2.928668558597564697e-01
5.900000000000000000e+03 5.799210739135742188e+01 3.030246734619140625e+01 2.378625273704528809e-01 1.261037254333496094e+01 3.854470491409301758e+00 3.283690810203552246e-01
5.901000000000000000e+03 5.814382171630859375e+01 2.998505783081054688e+01 1.305960565805435181e-01 1.229055309295654297e+01 3.726344585418701172e+00 2.606722116470336914e-01
5.902000000000000000e+03 4.648723602294921875e+01 1.854716110229492188e+01 -1.081237643957138062e-01 2.681179046630859375e+00 7.719165682792663574e-01 9.429091811180114746e-01
5.903000000000000000e+03 4.691233062744140625e+01 1.851194190979003906e+01 -1.310297250747680664e-01 2.852380275726318359e+00 8.164051175117492676e-01 9.755582809448242188e-01
5.904000000000000000e+03 5.066649627685546875e+01 2.257786178588867188e+01 -5.792840197682380676e-02 4.512494087219238281e+00 1.336369633674621582e+00 1.578021287918090820e+00
5.905000000000000000e+03 5.059782028198242188e+01 2.191675186157226562e+01 -1.280256956815719604e-01 4.470243453979492188e+00 1.302665233612060547e+00 1.495934009552001953e+00
5.906000000000000000e+03 5.002009582519531250e+01 2.195471000671386719e+01 -5.298340320587158203e-02 4.129785060882568359e+00 1.223040461540222168e+00 1.480818748474121094e+00
5.907000000000000000e+03 5.820276260375976562e+01 2.952562522888183594e+01 -4.789753630757331848e-02 1.189440822601318359e+01 3.553953409194946289e+00 2.910052835941314697e-01
5.908000000000000000e+03 5.426609420776367188e+01 2.845245170593261719e+01 4.031865000724792480e-01 7.794262409210205078e+00 2.459234714508056641e+00 2.814004421234130859e+00
5.909000000000000000e+03 5.690898895263671875e+01 3.006464958190917969e+01 -1.142704952508211136e-02 1.205816745758056641e+01 3.614022016525268555e+00 1.528708219528198242e+00
5.910000000000000000e+03 5.091575241088867188e+01 2.293049049377441406e+01 -3.942094370722770691e-02 4.638211250305175781e+00 1.379637122154235840e+00 1.635872006416320801e+00
5.911000000000000000e+03 5.134526824951171875e+01 2.334274673461914062e+01 -3.701388463377952576e-02 4.892376899719238281e+00 1.456608891487121582e+00 1.717745542526245117e+00
5.912000000000000000e+03 5.758700180053710938e+01 2.990027999877929688e+01 -1.354708801954984665e-02 1.217327213287353516e+01 3.647917509078979492e+00 8.113652467727661133e-01
5.913000000000000000e+03 5.661542892456054688e+01 3.011897087097167969e+01 3.027902916073799133e-03 1.191378211975097656e+01 3.575042963027954102e+00 1.835435509681701660e+00
5.914000000000000000e+03 3.339325332641601562e+01 1.617025613784790039e+00 -5.538059771060943604e-02 3.807357847690582275e-01 9.760655462741851807e-02 -2.756554260849952698e-02
5.915000000000000000e+03 5.379837417602539062e+01 2.663602638244628906e+01 6.860876828432083130e-02 6.964140892028808594e+00 2.109824895858764648e+00 2.288902282714843750e+00
5.916000000000000000e+03 5.423308944702148438e+01 2.751482391357421875e+01 1.468355953693389893e-01 7.582134723663330078e+00 2.318691253662109375e+00 2.486588001251220703e+00
5.917000000000000000e+03 4.924124145507812500e+01 2.077732467651367188e+01 -1.069960072636604309e-01 3.784150362014770508e+00 1.103146314620971680e+00 1.309383988380432129e+00
5.918000000000000000e+03 5.131227111816406250e+01 2.284299468994140625e+01 -1.097409054636955261e-01 4.881535053253173828e+00 1.431538343429565430e+00 1.629080772399902344e+00
5.919000000000000000e+03 4.237092590332031250e+01 1.332507610321044922e+01 -2.135842740535736084e-01 1.688604831695556641e+00 4.425061643123626709e-01 4.582252800464630127e-01
5.920000000000000000e+03 4.043378829956054688e+01 1.245552730560302734e+01 -2.197372019290924072e-01 1.220238566398620605e+00 3.001503944396972656e-01 3.010287284851074219e-01
5.921000000000000000e+03 5.188777923583984375e+01 2.377049446105957031e+01 -5.869791656732559204e-02 5.256518363952636719e+00 1.559346199035644531e+00 1.784043312072753906e+00
5.922000000000000000e+03 4.638587951660156250e+01 1.813608360290527344e+01 -1.275667697191238403e-01 2.683133840560913086e+00 7.666701078414916992e-01 9.175323843955993652e-01
5.923000000000000000e+03 5.373021316528320312e+01 2.599763107299804688e+01 -4.048221930861473083e-02 6.841632843017578125e+00 2.040345191955566406e+00 2.138114929199218750e+00
5.924000000000000000e+03 5.442678070068359375e+01 2.714101219177246094e+01 1.111173653043806553e-03 7.720619678497314453e+00 2.316519260406494141e+00 2.326619386672973633e+00
5.925000000000000000e+03 5.388442993164062500e+01 2.712996101379394531e+01 1.726576685905456543e-01 7.171246528625488281e+00 2.203171253204345703e+00 2.444594621658325195e+00
5.926000000000000000e+03 4.840975570678710938e+01 2.046149063110351562e+01 -6.684133410453796387e-02 3.382148504257202148e+00 9.945921897888183594e-01 1.223494887351989746e+00
5.927000000000000000e+03 5.178170013427734375e+01 2.330469322204589844e+01 -1.121417358517646790e-01 5.178282737731933594e+00 1.519842386245727539e+00 1.706205964088439941e+00
5.928000000000000000e+03 5.253652954101562500e+01 2.503216552734375000e+01 3.152423352003097534e-02 5.762707710266113281e+00 1.738269567489624023e+00 1.997100830078125000e+00
5.929000000000000000e+03 5.297737884521484375e+01 2.551399612426757812e+01 2.934537455439567566e-02 6.146175861358642578e+00 1.852656364440917969e+00 2.085198879241943359e+00
5.930000000000000000e+03 4.314892578125000000e+01 1.453032398223876953e+01 -1.953213214874267578e-01 1.818688750267028809e+00 4.870102107524871826e-01 5.261244773864746094e-01
5.931000000000000000e+03 3.907244110107421875e+01 8.277688980102539062e+00 -1.904696822166442871e-01 1.155298829078674316e+00 2.894487380981445312e-01 2.283229231834411621e-01
5.932000000000000000e+03 4.092523574829101562e+01 1.255974578857421875e+01 -2.184948474168777466e-01 1.332714915275573730e+00 3.342660069465637207e-01 3.377550542354583740e-01
5.933000000000000000e+03 5.309530639648437500e+01 2.491209983825683594e+01 -9.354939311742782593e-02 6.169460296630859375e+00 1.822773218154907227e+00 1.953612685203552246e+00
5.934000000000000000e+03 4.621683883666992188e+01 1.772805976867675781e+01 -1.437359750270843506e-01 2.648862838745117188e+00 7.515380382537841797e-01 8.844081163406372070e-01
5.935000000000000000e+03 5.239104080200195312e+01 2.401463127136230469e+01 -1.057194843888282776e-01 5.604138374328613281e+00 1.649525642395019531e+00 1.805461883544921875e+00
5.936000000000000000e+03 5.356837463378906250e+01 2.566639709472656250e+01 -6.838873773813247681e-02 6.633344650268554688e+00 1.969486713409423828e+00 2.056013822555541992e+00
5.937000000000000000e+03 4.467128753662109375e+01 1.577316093444824219e+01 -1.847016066312789917e-01 2.238858938217163086e+00 6.162471771240234375e-01 6.808691024780273438e-01
5.938000000000000000e+03 4.337444686889648438e+01 1.550732040405273438e+01 -1.727277189493179321e-01 1.820807695388793945e+00 4.944239854812622070e-01 5.596441030502319336e-01
5.939000000000000000e+03 4.600447082519531250e+01 1.730700302124023438e+01 -1.566954106092453003e-01 2.588315010070800781e+00 7.294858694076538086e-01 8.498008847236633301e-01
5.940000000000000000e+03 4.450533676147460938e+01 1.623895263671875000e+01 -1.612202078104019165e-01 2.119094371795654297e+00 5.873622298240661621e-01 6.763543486595153809e-01
5.941000000000000000e+03 4.412189865112304688e+01 1.599727821350097656e+01 -1.608668118715286255e-01 2.011190414428710938e+00 5.550970435142517090e-01 6.392660140991210938e-01
5.942000000000000000e+03 4.559421539306640625e+01 1.638052940368652344e+01 -1.906961798667907715e-01 2.512314558029174805e+00 6.964855194091796875e-01 7.755112051963806152e-01
5.943000000000000000e+03 4.135729980468750000e+01 1.312261009216308594e+01 -2.140197753906250000e-01 1.422172904014587402e+00 3.624459207057952881e-01 3.725815713405609131e-01
5.944000000000000000e+03 4.324933624267578125e+01 1.357535362243652344e+01 -2.222001701593399048e-01 1.932986736297607422e+00 5.132359862327575684e-01 5.175635218620300293e-01
5.945000000000000000e+03 4.510868072509765625e+01 1.586583995819091797e+01 -1.993207931518554688e-01 2.388539075851440430e+00 6.567655205726623535e-01 7.165659666061401367e-01
5.946000000000000000e+03 4.088353347778320312e+01 1.301630401611328125e+01 -2.139211297035217285e-01 1.287936568260192871e+00 3.222046494483947754e-01 3.316342830657958984e-01
5.947000000000000000e+03 4.147478485107421875e+01 1.233242321014404297e+01 -2.203948348760604858e-01 1.521975040435791016e+00 3.904740512371063232e-01 3.776522576808929443e-01
5.948000000000000000e+03 4.395011138916015625e+01 1.561644458770751953e+01 -1.727040857076644897e-01 1.977945923805236816e+00 5.415725708007812500e-01 6.155908703804016113e-01
5.949000000000000000e+03 5.716942977905273438e+01 2.967260932922363281e+01 -1.213915273547172546e-01 1.180402755737304688e+01 3.504790782928466797e+00 1.247509121894836426e+00
5.950000000000000000e+03 4.351339721679687500e+01 1.507118129730224609e+01 -1.870570033788681030e-01 1.909950256347656250e+00 5.168679356575012207e-01 5.691097378730773926e-01
5.951000000000000000e+03 4.124711227416992188e+01 1.393064308166503906e+01 -2.028504163026809692e-01 1.312812685966491699e+00 3.329886794090270996e-01 3.587548434734344482e-01
5.952000000000000000e+03 4.118389892578125000e+01 1.425983619689941406e+01 -1.911560148000717163e-01 1.268702864646911621e+00 3.232640624046325684e-01 3.541711270809173584e-01
5.953000000000000000e+03 5.413608169555664062e+01 2.685860061645507812e+01 2.422807365655899048e-02 7.381647586822509766e+00 2.221762657165527344e+00 2.300643682479858398e+00
5.954000000000000000e+03 5.841394805908203125e+01 3.015131950378417969e+01 2.972554862499237061e-01 1.240853309631347656e+01 3.811736583709716797e+00 -2.205807715654373169e-02
5.955000000000000000e+03 3.400052261352539062e+01 2.203973293304443359e+00 -5.306934565305709839e-02 4.540394842624664307e-01 1.202910467982292175e-01 -1.419158186763525009e-02
5.956000000000000000e+03 3.950887298583984375e+01 9.277622222900390625e+00 -2.078415155410766602e-01 1.204156756401062012e+00 2.988945543766021729e-01 2.517639994621276855e-01
5.957000000000000000e+03 4.017789840698242188e+01 1.079374694824218750e+01 -2.228417694568634033e-01 1.281092643737792969e+00 3.174752593040466309e-01 2.881497740745544434e-01
5.958000000000000000e+03 4.071643447875976562e+01 1.064298439025878906e+01 -2.223727256059646606e-01 1.421478629112243652e+00 3.597317934036254883e-01 3.227881491184234619e-01
5.959000000000000000e+03 5.493723678588867188e+01 2.879328155517578125e+01 2.342600077390670776e-01 8.837626457214355469e+00 2.721565961837768555e+00 2.753428459167480469e+00
5.960000000000000000e+03 4.046653366088867188e+01 1.192585372924804688e+01 -2.230422049760818481e-01 1.274825096130371094e+00 3.155348598957061768e-01 3.067757487297058105e-01
5.961000000000000000e+03 4.004011535644531250e+01 9.127655982971191406e+00 -2.078325003385543823e-01 1.341407418251037598e+00 3.400724828243255615e-01 2.802374958992004395e-01
5.962000000000000000e+03 3.928683090209960938e+01 8.786536216735839844e+00 -2.009969651699066162e-01 1.180838942527770996e+00 2.939525842666625977e-01 2.401432096958160400e-01
5.963000000000000000e+03 5.648450469970703125e+01 2.987740516662597656e+01 -3.637306764721870422e-02 1.153607368469238281e+01 3.449910163879394531e+00 1.931543469429016113e+00
5.964000000000000000e+03 3.701308059692382812e+01 6.793632030487060547e+00 -1.515786349773406982e-01 7.807404398918151855e-01 1.887485384941101074e-01 1.228788569569587708e-01
5.965000000000000000e+03 5.588101577758789062e+01 2.991569519042968750e+01 1.263225972652435303e-01 1.090841007232666016e+01 3.310419797897338867e+00 2.568406105041503906e+00
5.966000000000000000e+03 1.597282600402832031e+01 1.538801288604736328e+01 3.892702236771583557e-02 1.619496047496795654e-01 6.026298552751541138e-02 7.357929646968841553e-02
5.967000000000000000e+03 3.452337265014648438e+01 9.910354614257812500e-01 -4.831352457404136658e-02 5.542019605636596680e-01 1.517665237188339233e-01 3.212256589904427528e-03
5.968000000000000000e+03 3.444101333618164062e+01 3.292942523956298828e+00 -6.316429376602172852e-02 4.742921590805053711e-01 1.233383566141128540e-01 -9.755339473485946655e-03
5.969000000000000000e+03 1.414917278289794922e+01 1.315633487701416016e+01 4.161662235856056213e-02 1.836253404617309570e-01 6.757258623838424683e-02 6.262704730033874512e-02
5.970000000000000000e+03 2.186855888366699219e+01 2.122827148437500000e+01 4.102038964629173279e-02 1.299054473638534546e-01 5.127775296568870544e-02 8.138312399387359619e-02
5.971000000000000000e+03 3.677164077758789062e+01 5.688505649566650391e+00 -1.159999221563339233e-01 7.796918153762817383e-01 1.991075724363327026e-01 1.043754220008850098e-01
5.972000000000000000e+03 3.963590621948242188e+01 1.090774822235107422e+01 -2.239176481962203979e-01 1.133255600929260254e+00 2.728013992309570312e-01 2.522930502891540527e-01
5.973000000000000000e+03 3.973276519775390625e+01 9.768752098083496094e+00 -2.153612971305847168e-01 1.231560230255126953e+00 3.048596978187561035e-01 2.633824944496154785e-01
5.974000000000000000e+03 4.755899047851562500e+01 1.978576660156250000e+01 -6.637529283761978149e-02 3.052607059478759766e+00 8.958695530891418457e-01 1.111203432083129883e+00
5.975000000000000000e+03 1.975331687927246094e+01 1.999130630493164062e+01 3.688666969537734985e-02 1.324651241302490234e-01 5.080553889274597168e-02 7.169258594512939453e-02
5.976000000000000000e+03 3.741655349731445312e+01 7.073156356811523438e+00 -1.577482223510742188e-01 8.533817529678344727e-01 2.086900621652603149e-01 1.399215012788772583e-01
5.977000000000000000e+03 2.394621086120605469e+01 2.350164413452148438e+01 3.657225891947746277e-02 1.194358766078948975e-01 4.680243879556655884e-02 7.590663433074951172e-02
5.978000000000000000e+03 1.424767208099365234e+01 1.427520179748535156e+01 3.378390893340110779e-02 1.621806323528289795e-01 5.878936126828193665e-02 5.517525970935821533e-02
5.979000000000000000e+03 3.496022415161132812e+01 3.458267211914062500e+00 -6.074091419577598572e-02 5.619365572929382324e-01 1.503586918115615845e-01 1.506984513252973557e-02
5.980000000000000000e+03 3.589352035522460938e+01 4.520992279052734375e+00 -8.096715807914733887e-02 6.674134135246276855e-01 1.759338676929473877e-01 6.052447855472564697e-02
5.981000000000000000e+03 1.475950336456298828e+01 1.367781543731689453e+01 4.224203526973724365e-02 1.793734133243560791e-01 6.648463010787963867e-02 6.917341798543930054e-02
5.982000000000000000e+03 3.618127059936523438e+01 4.423348903656005859e-01 -4.477700591087341309e-02 8.684597611427307129e-01 2.471048384904861450e-01 3.992665559053421021e-02
5.983000000000000000e+03 6.084134292602539062e+01 2.985294532775878906e+01 7.152868509292602539e-01 1.113274192810058594e+01 3.554408550262451172e+00 -1.138395309448242188e+00
5.984000000000000000e+03 1.690345573425292969e+01 2.212350654602050781e+01 1.021554693579673767e-02 1.022401154041290283e-01 3.373669832944869995e-02 4.239899665117263794e-02
5.985000000000000000e+03 1.819247436523437500e+01 1.832216453552246094e+01 3.855667263269424438e-02 1.406913697719573975e-01 5.377441272139549255e-02 7.251934707164764404e-02
5.986000000000000000e+03 5.924987030029296875e+01 3.007240676879882812e+01 5.037693977355957031e-01 1.199880886077880859e+01 3.750773429870605469e+00 -5.466377139091491699e-01
5.987000000000000000e+03 5.933091354370117188e+01 3.049778175354003906e+01 7.993295192718505859e-01 1.221124744415283203e+01 3.903172969818115234e+00 -7.234781980514526367e-01
5.988000000000000000e+03 1.549269294738769531e+01 1.561289024353027344e+01 3.669669106602668762e-02 1.567969918251037598e-01 5.804810672998428345e-02 6.539614498615264893e-02
5.989000000000000000e+03 4.333043670654296875e+01 -3.785570621490478516e+00 -1.936720311641693115e-01 2.483910083770751953e+00 6.870713829994201660e-01 7.343521714210510254e-02
5.990000000000000000e+03 4.362851715087890625e+01 -2.343542098999023438e+00 -1.982552856206893921e-01 2.538197994232177734e+00 7.019827961921691895e-01 1.177238970994949341e-01
5.991000000000000000e+03 3.635455322265625000e+01 -5.812003612518310547e-01 -4.719220474362373352e-02 9.070211648941040039e-01 2.579486966133117676e-01 3.745338320732116699e-02
5.992000000000000000e+03 5.967555618286132812e+01 2.999159240722656250e+01 5.187945365905761719e-01 1.173134231567382812e+01 3.675040960311889648e+00 -7.417721748352050781e-01
5.993000000000000000e+03 6.035041809082031250e+01 3.030784606933593750e+01 9.122819304466247559e-01 1.154553604125976562e+01 3.737345457077026367e+00 -1.072482705116271973e+00
5.994000000000000000e+03 3.458110809326171875e+01 2.345492362976074219e+00 -5.711258947849273682e-02 5.298451185226440430e-01 1.418197602033615112e-01 -3.012863453477621078e-03
5.995000000000000000e+03 1.637910461425781250e+01 1.730476188659667969e+01 3.218894079327583313e-02 1.404548883438110352e-01 5.179315060377120972e-02 6.239633634686470032e-02
5.996000000000000000e+03 3.404566574096679688e+01 1.621007323265075684e+00 -5.556581914424896240e-02 4.745714664459228516e-01 1.257016956806182861e-01 -1.174425892531871796e-02
5.997000000000000000e+03 3.812876892089843750e+01 -7.438515424728393555e-01 -7.584565132856369019e-02 1.262531399726867676e+00 3.560057282447814941e-01 6.255494058132171631e-02
5.998000000000000000e+03 6.359754180908203125e+01 1.494970989227294922e+01 -8.566762804985046387e-01 7.728744983673095703e+00 2.061620712280273438e+00 -4.986588656902313232e-01
5.999000000000000000e+03 6.445672607421875000e+01 1.782188987731933594e+01 -8.617659211158752441e-01 8.106837272644042969e+00 2.173521518707275391e+00 -7.481396794319152832e-01
6.000000000000000000e+03 1.459723091125488281e+01 1.721531105041503906e+01 1.973266340792179108e-02 1.247371286153793335e-01 4.334093630313873291e-02 4.344981163740158081e-02
6.001000000000000000e+03 1.426072692871093750e+01 1.630008125305175781e+01 2.217237092554569244e-02 1.314570456743240356e-01 4.608882218599319458e-02 4.433450102806091309e-02
6.002000000000000000e+03 2.067240333557128906e+01 2.096512222290039062e+01 3.636067733168601990e-02 1.285594105720520020e-01 4.947602376341819763e-02 7.198483496904373169e-02
6.003000000000000000e+03 2.021239852905273438e+01 2.048992156982421875e+01 3.619134426116943359e-02 1.302993744611740112e-01 4.994721338152885437e-02 7.504351437091827393e-02
6.004000000000000000e+03 4.120688629150390625e+01 -2.903343200683593750e+00 -1.364233940839767456e-01 1.985435128211975098e+00 5.547035336494445801e-01 7.251912355422973633e-02
6.005000000000000000e+03 1.481682777404785156e+01 1.561080074310302734e+01 3.051509149372577667e-02 1.466377526521682739e-01 5.314585193991661072e-02 5.460253730416297913e-02
6.006000000000000000e+03 3.492855072021484375e+01 7.665417790412902832e-01 -4.508448019623756409e-02 6.281380653381347656e-01 1.749160885810852051e-01 1.093702111393213272e-02
6.007000000000000000e+03 6.437950134277343750e+01 9.943632125854492188e+00 -6.753670573234558105e-01 7.394254684448242188e+00 2.015666246414184570e+00 -3.579658269882202148e-01
6.008000000000000000e+03 2.276956367492675781e+01 2.215872192382812500e+01 4.312327504158020020e-02 1.248535290360450745e-01 5.039304122328758240e-02 7.554139196872711182e-02
6.009000000000000000e+03 2.207085609436035156e+01 2.319580268859863281e+01 3.340719640254974365e-02 1.185162365436553955e-01 4.557703062891960144e-02 6.685933470726013184e-02
6.010000000000000000e+03 6.359480285644531250e+01 1.242248058319091797e+01 -7.937048673629760742e-01 7.491745471954345703e+00 2.009412050247192383e+00 -3.930617272853851318e-01
6.011000000000000000e+03 6.368336486816406250e+01 1.805539894104003906e+01 -9.165673851966857910e-01 8.118316650390625000e+00 2.160524606704711914e+00 -6.482169628143310547e-01
6.012000000000000000e+03 6.311327362060546875e+01 1.968338775634765625e+01 -9.325090050697326660e-01 8.324819564819335938e+00 2.217693090438842773e+00 -6.552787423133850098e-01
6.013000000000000000e+03 6.315684890747070312e+01 1.856377983093261719e+01 -9.336442351341247559e-01 8.146938323974609375e+00 2.163988113403320312e+00 -6.065287590026855469e-01
6.014000000000000000e+03 4.748835372924804688e+01 -6.861280441284179688e+00 -3.019275963306427002e-01 3.515938520431518555e+00 9.642032384872436523e-01 6.132398545742034912e-02
6.015000000000000000e+03 4.472126007080078125e+01 -3.945052146911621094e+00 -2.304159104824066162e-01 2.817761898040771484e+00 7.762038111686706543e-01 8.978797495365142822e-02
6.016000000000000000e+03 6.304851913452148438e+01 2.603096199035644531e+01 -3.683046996593475342e-01 9.542526245117187500e+00 2.752266407012939453e+00 -1.155863404273986816e+00
6.017000000000000000e+03 6.168608474731445312e+01 2.369217872619628906e+01 -8.340116143226623535e-01 9.146854400634765625e+00 2.493852853775024414e+00 -6.199606060981750488e-01
6.018000000000000000e+03 6.307901000976562500e+01 1.547175216674804688e+01 -8.912371993064880371e-01 7.737284660339355469e+00 2.053814172744750977e+00 -4.606694877147674561e-01
6.019000000000000000e+03 6.298542404174804688e+01 2.743497848510742188e+01 -5.356621742248535156e-02 9.803552627563476562e+00 2.924996137619018555e+00 -1.268654704093933105e+00
6.020000000000000000e+03 1.823575210571289062e+01 2.066098976135253906e+01 2.204573713243007660e-02 1.232794076204299927e-01 4.359754547476768494e-02 5.994781479239463806e-02
6.021000000000000000e+03 1.638667106628417969e+01 1.863551330566406250e+01 2.415490522980690002e-02 1.278722584247589111e-01 4.560814797878265381e-02 5.493257194757461548e-02
6.022000000000000000e+03 1.567772960662841797e+01 1.849187850952148438e+01 1.774802803993225098e-02 1.233316510915756226e-01 4.232390224933624268e-02 4.715729132294654846e-02
6.023000000000000000e+03 3.922095108032226562e+01 -1.153861403465270996e+00 -9.410062432289123535e-02 1.495195508003234863e+00 4.203284680843353271e-01 7.624774426221847534e-02
6.024000000000000000e+03 6.294564819335937500e+01 2.277028274536132812e+01 -8.083491921424865723e-01 8.900533676147460938e+00 2.427655458450317383e+00 -8.422179818153381348e-01
6.025000000000000000e+03 6.265497970581054688e+01 2.353143310546875000e+01 -7.719099521636962891e-01 9.075363159179687500e+00 2.491035938262939453e+00 -8.398347496986389160e-01
6.026000000000000000e+03 1.822986602783203125e+01 1.960725975036621094e+01 3.012460842728614807e-02 1.312505751848220825e-01 4.841255396604537964e-02 6.605882197618484497e-02
6.027000000000000000e+03 6.336809539794921875e+01 1.077617454528808594e+01 -7.428341507911682129e-01 7.314245700836181641e+00 1.971423506736755371e+00 -3.145168721675872803e-01
6.028000000000000000e+03 4.274106216430664062e+01 -2.900228977203369141e+00 -1.777585744857788086e-01 2.325535535812377930e+00 6.443330645561218262e-01 8.844678848981857300e-02
6.029000000000000000e+03 6.336605834960937500e+01 4.582959175109863281e+00 -5.372682809829711914e-01 6.967545986175537109e+00 1.929083347320556641e+00 -1.371897459030151367e-01
6.030000000000000000e+03 6.414618682861328125e+01 6.827299594879150391e+00 -5.862821936607360840e-01 7.181047916412353516e+00 1.978429675102233887e+00 -2.361407428979873657e-01
6.031000000000000000e+03 6.338440322875976562e+01 6.937850475311279297e+00 -6.140936613082885742e-01 7.083757877349853516e+00 1.940899372100830078e+00 -1.975741982460021973e-01
6.032000000000000000e+03 1.880598258972167969e+01 2.106306457519531250e+01 2.181063592433929443e-02 1.228068992495536804e-01 4.338525980710983276e-02 5.797827243804931641e-02
6.033000000000000000e+03 6.273246383666992188e+01 3.024524307250976562e+01 1.020945668220520020e+00 1.023678493499755859e+01 3.377319097518920898e+00 -1.428717017173767090e+00
6.034000000000000000e+03 6.293951034545898438e+01 2.891998481750488281e+01 4.498862326145172119e-01 1.003431510925292969e+01 3.145260572433471680e+00 -1.398951172828674316e+00
6.035000000000000000e+03 4.231324005126953125e+01 -1.929409384727478027e+00 -1.617183387279510498e-01 2.216750621795654297e+00 6.165096759796142578e-01 1.098973974585533142e-01
6.036000000000000000e+03 6.149066543579101562e+01 -2.172751665115356445e+00 -4.041041135787963867e-01 6.448462009429931641e+00 1.813307404518127441e+00 5.440370738506317139e-02
6.037000000000000000e+03 6.313401031494140625e+01 2.187759017944335938e+01 -8.568388223648071289e-01 8.715895652770996094e+00 2.357717037200927734e+00 -8.109540939331054688e-01
6.038000000000000000e+03 5.372609329223632812e+01 -1.364403057098388672e+01 -3.469256162643432617e-01 5.013360500335693359e+00 1.399930477142333984e+00 1.280753612518310547e-01
6.039000000000000000e+03 5.247761917114257812e+01 -1.281597328186035156e+01 -3.397408425807952881e-01 4.748704433441162109e+00 1.322689056396484375e+00 9.262578189373016357e-02
6.040000000000000000e+03 6.194303131103515625e+01 7.842678070068359375e+00 -6.759654283523559570e-01 6.898978233337402344e+00 1.866903901100158691e+00 -1.375570446252822876e-01
6.041000000000000000e+03 6.162291336059570312e+01 -8.288034439086914062e+00 -3.093424141407012939e-01 6.420516967773437500e+00 1.833352327346801758e+00 1.503935605287551880e-01
6.042000000000000000e+03 6.381376266479492188e+01 3.106875610351562500e+01 1.333503842353820801e+00 9.825318336486816406e+00 3.347646713256835938e+00 -1.421458482742309570e+00
6.043000000000000000e+03 6.212193679809570312e+01 3.050688552856445312e+01 1.112476825714111328e+00 1.054822349548339844e+01 3.498209953308105469e+00 -1.378496170043945312e+00
6.044000000000000000e+03 6.073069000244140625e+01 2.457562983036041260e-01 -4.698866009712219238e-01 6.364699363708496094e+00 1.768443822860717773e+00 4.184106737375259399e-02
6.045000000000000000e+03 6.020758056640625000e+01 -3.998911619186401367e+00 -3.957285284996032715e-01 6.194652080535888672e+00 1.739676952362060547e+00 1.067998260259628296e-01
6.046000000000000000e+03 6.263678359985351562e+01 -1.446061897277832031e+01 -2.257605791091918945e-01 6.598968029022216797e+00 1.911962270736694336e+00 2.521184384822845459e-01
6.047000000000000000e+03 6.286643218994140625e+01 1.651956367492675781e+01 -9.293714761734008789e-01 7.855437278747558594e+00 2.077819824218750000e+00 -4.741590619087219238e-01
6.048000000000000000e+03 6.285750579833984375e+01 1.446029663085937500e+01 -8.746585845947265625e-01 7.599409103393554688e+00 2.017425060272216797e+00 -3.932106494903564453e-01
6.049000000000000000e+03 1.754942321777343750e+01 2.356067276000976562e+01 9.452424012124538422e-03 9.746728837490081787e-02 3.207591176033020020e-02 4.086415469646453857e-02
6.050000000000000000e+03 2.137355613708496094e+01 2.231801033020019531e+01 3.466599434614181519e-02 1.223608925938606262e-01 4.710806533694267273e-02 7.054723054170608521e-02
6.051000000000000000e+03 4.985976409912109375e+01 -9.419086456298828125e+00 -3.336694836616516113e-01 4.084140777587890625e+00 1.125141382217407227e+00 5.608514323830604553e-02
6.052000000000000000e+03 6.437167358398437500e+01 8.449491500854492188e+00 -6.336771845817565918e-01 7.283264160156250000e+00 1.994876146316528320e+00 -2.942368090152740479e-01
6.053000000000000000e+03 6.367826843261718750e+01 8.913861274719238281e+00 -6.689930558204650879e-01 7.222510814666748047e+00 1.966055274009704590e+00 -2.721033692359924316e-01
6.054000000000000000e+03 1.870197296142578125e+01 2.637918472290039062e+01 3.780161030590534210e-03 8.693405985832214355e-02 2.721426635980606079e-02 3.465651720762252808e-02
6.055000000000000000e+03 2.388899803161621094e+01 2.522325515747070312e+01 3.278179466724395752e-02 1.118679791688919067e-01 4.339493066072463989e-02 6.338028609752655029e-02
6.056000000000000000e+03 2.253727340698242188e+01 2.710219764709472656e+01 1.715745404362678528e-02 1.016803458333015442e-01 3.565134108066558838e-02 4.849861189723014832e-02
6.057000000000000000e+03 5.594498825073242188e+01 -2.175660705566406250e+01 -1.918020993471145630e-01 5.629312992095947266e+00 1.631253242492675781e+00 2.849101722240447998e-01
6.058000000000000000e+03 6.009942626953125000e+01 -2.449015235900878906e+01 -3.196927905082702637e-02 6.248325824737548828e+00 1.864907026290893555e+00 3.813496530055999756e-01
6.059000000000000000e+03 6.339464187622070312e+01 1.315094566345214844e+01 -8.192309141159057617e-01 7.529679775238037109e+00 2.013134717941284180e+00 -4.066943228244781494e-01
6.060000000000000000e+03 6.338869857788085938e+01 9.791628837585449219e+00 -7.077673673629760742e-01 7.239842891693115234e+00 1.959622740745544434e+00 -2.835845947265625000e-01
6.061000000000000000e+03 1.564633178710937500e+01 3.109110069274902344e+01 -5.388190969824790955e-03 4.029044136404991150e-02 1.047067530453205109e-02 1.070779375731945038e-02
6.062000000000000000e+03 6.192735671997070312e+01 -1.318731880187988281e+01 -2.442193031311035156e-01 6.472034454345703125e+00 1.868344545364379883e+00 2.308891713619232178e-01
6.063000000000000000e+03 6.156501388549804688e+01 -1.506389427185058594e+01 -2.377321124076843262e-01 6.426318168640136719e+00 1.856575846672058105e+00 2.650786638259887695e-01
6.064000000000000000e+03 6.071672058105468750e+01 -1.676648712158203125e+01 -2.213873416185379028e-01 6.305368900299072266e+00 1.825194478034973145e+00 2.782572209835052490e-01
6.065000000000000000e+03 6.086317062377929688e+01 -2.013616943359375000e+01 -1.609759330749511719e-01 6.355014801025390625e+00 1.858211636543273926e+00 3.224479556083679199e-01
6.066000000000000000e+03 6.179145812988281250e+01 2.175837039947509766e+00 -4.999580383300781250e-01 6.616464614868164062e+00 1.834951996803283691e+00 -2.348871342837810516e-02
6.067000000000000000e+03 5.825221252441406250e+01 -1.497526550292968750e+01 -2.699413001537322998e-01 5.880542755126953125e+00 1.683180332183837891e+00 2.258225083351135254e-01
6.068000000000000000e+03 4.830694961547851562e+01 -7.597698688507080078e+00 -3.153317570686340332e-01 3.714999675750732422e+00 1.019900321960449219e+00 5.736315995454788208e-02
6.069000000000000000e+03 4.672644424438476562e+01 -6.149250984191894531e+00 -2.816803157329559326e-01 3.324362039566040039e+00 9.128044843673706055e-01 6.232492253184318542e-02
6.070000000000000000e+03 2.400341606140136719e+01 3.092408561706542969e+01 2.191914245486259460e-02 8.942874521017074585e-02 3.340436518192291260e-02 4.321181029081344604e-02
6.071000000000000000e+03 6.259389495849609375e+01 -7.148061275482177734e+00 -3.159200847148895264e-01 6.586040496826171875e+00 1.881036043167114258e+00 1.286593377590179443e-01
6.072000000000000000e+03 5.930873489379882812e+01 -2.022229576110839844e+01 -1.716009229421615601e-01 6.095602512359619141e+00 1.777200460433959961e+00 3.228340744972229004e-01
6.073000000000000000e+03 5.034275436401367188e+01 2.226017570495605469e+01 -5.828298628330230713e-02 4.322406291961669922e+00 1.279237031936645508e+00 1.527736663818359375e+00
6.074000000000000000e+03 5.111013412475585938e+01 2.185919761657714844e+01 -2.003130316734313965e-01 4.783961772918701172e+00 1.375094652175903320e+00 1.496514439582824707e+00
6.075000000000000000e+03 5.746612930297851562e+01 2.954221725463867188e+01 -1.648025810718536377e-01 1.176928710937500000e+01 3.481345415115356445e+00 9.671010971069335938e-01
6.076000000000000000e+03 5.085902023315429688e+01 2.158553123474121094e+01 -1.986334770917892456e-01 4.644310474395751953e+00 1.333703160285949707e+00 1.469044685363769531e+00
6.077000000000000000e+03 4.997834777832031250e+01 2.127823638916015625e+01 -1.237749531865119934e-01 4.140841484069824219e+00 1.205119848251342773e+00 1.404604554176330566e+00
6.078000000000000000e+03 5.092796707153320312e+01 2.221426582336425781e+01 -1.322926282882690430e-01 4.668546676635742188e+00 1.360876202583312988e+00 1.542065143585205078e+00
6.079000000000000000e+03 4.943799209594726562e+01 2.034948539733886719e+01 -1.663229912519454956e-01 3.900490045547485352e+00 1.120250105857849121e+00 1.277722120285034180e+00
6.080000000000000000e+03 5.836933135986328125e+01 2.974476432800292969e+01 4.942104965448379517e-02 1.201787757873535156e+01 3.620189666748046875e+00 1.586643904447555542e-01
6.081000000000000000e+03 5.132143020629882812e+01 2.236839485168457031e+01 -1.651640236377716064e-01 4.894035339355468750e+00 1.418661355972290039e+00 1.567061543464660645e+00
6.082000000000000000e+03 5.175045394897460938e+01 2.281686782836914062e+01 -1.753616780042648315e-01 5.159327983856201172e+00 1.495189905166625977e+00 1.630149602890014648e+00
6.083000000000000000e+03 4.900604248046875000e+01 2.015347290039062500e+01 -1.443314254283905029e-01 3.698544502258300781e+00 1.066263914108276367e+00 1.239623427391052246e+00
6.084000000000000000e+03 5.028317260742187500e+01 2.087089538574218750e+01 -2.033520042896270752e-01 4.327771186828613281e+00 1.237325787544250488e+00 1.364880442619323730e+00
6.085000000000000000e+03 5.397036361694335938e+01 2.576291275024414062e+01 -1.459934115409851074e-01 7.011689186096191406e+00 2.059708595275878906e+00 2.064026594161987305e+00
6.086000000000000000e+03 5.434446716308593750e+01 2.645494842529296875e+01 -1.156615689396858215e-01 7.494140148162841797e+00 2.213543653488159180e+00 2.150634050369262695e+00
6.087000000000000000e+03 4.760577011108398438e+01 1.925137710571289062e+01 -1.220339313149452209e-01 3.110867500305175781e+00 8.966500759124755859e-01 1.069217562675476074e+00
6.088000000000000000e+03 5.254170227050781250e+01 2.438315963745117188e+01 -7.313937693834304810e-02 5.739757537841796875e+00 1.699985504150390625e+00 1.870337963104248047e+00
6.089000000000000000e+03 5.332269668579101562e+01 2.547653770446777344e+01 -4.641345888376235962e-02 6.423108100891113281e+00 1.913008332252502441e+00 2.054161787033081055e+00
6.090000000000000000e+03 5.228793334960937500e+01 2.362574005126953125e+01 -1.540937423706054688e-01 5.535343647003173828e+00 1.614374876022338867e+00 1.738534092903137207e+00
6.091000000000000000e+03 4.962742614746093750e+01 1.989999389648437500e+01 -2.206609398126602173e-01 4.021393299102783203e+00 1.140219688415527344e+00 1.252069354057312012e+00
6.092000000000000000e+03 5.330033111572265625e+01 2.455681991577148438e+01 -2.069410681724548340e-01 6.324594020843505859e+00 1.835295915603637695e+00 1.857221961021423340e+00
6.093000000000000000e+03 5.222100448608398438e+01 2.320182800292968750e+01 -1.968745440244674683e-01 5.479694366455078125e+00 1.584845900535583496e+00 1.683899760246276855e+00
6.094000000000000000e+03 4.341905593872070312e+01 1.416535758972167969e+01 -2.017797678709030151e-01 1.961169123649597168e+00 5.278168320655822754e-01 5.498778820037841797e-01
6.095000000000000000e+03 4.236349487304687500e+01 1.397254276275634766e+01 -1.991011202335357666e-01 1.636083722114562988e+00 4.310947656631469727e-01 4.565814435482025146e-01
6.096000000000000000e+03 4.359005737304687500e+01 1.455044555664062500e+01 -2.017544209957122803e-01 1.982490658760070801e+00 5.342208743095397949e-01 5.686184763908386230e-01
6.097000000000000000e+03 1.482558727264404297e+01 1.428741836547851562e+01 4.048656299710273743e-02 1.684808880090713501e-01 6.269023567438125610e-02 6.598894298076629639e-02
6.098000000000000000e+03 4.267414093017578125e+01 1.365358638763427734e+01 -2.088594883680343628e-01 1.760420680046081543e+00 4.654683470726013184e-01 4.809900820255279541e-01
6.099000000000000000e+03 5.791885375976562500e+01 2.971973419189453125e+01 -3.972956910729408264e-02 1.205119037628173828e+01 3.603438138961791992e+00 5.209369063377380371e-01
6.100000000000000000e+03 5.282522201538085938e+01 2.416428375244140625e+01 -1.579663306474685669e-01 5.944111347198486328e+00 1.735843539237976074e+00 1.824813485145568848e+00
6.101000000000000000e+03 5.278181838989257812e+01 2.468230056762695312e+01 -7.444228231906890869e-02 5.914020538330078125e+00 1.751873493194580078e+00 1.918630003929138184e+00
6.102000000000000000e+03 5.383860778808593750e+01 2.550013732910156250e+01 -1.542133837938308716e-01 6.864321708679199219e+00 2.013032436370849609e+00 2.011368989944458008e+00
6.103000000000000000e+03 5.284320831298828125e+01 2.522944068908691406e+01 5.157557781785726547e-03 6.019058704376220703e+00 1.807264924049377441e+00 2.030705213546752930e+00
6.104000000000000000e+03 4.574882507324218750e+01 1.686649513244628906e+01 -1.719005703926086426e-01 2.527975559234619141e+00 7.068225145339965820e-01 8.068610429763793945e-01
6.105000000000000000e+03 4.645121002197265625e+01 1.713438415527343750e+01 -1.893813610076904297e-01 2.784776926040649414e+00 7.786186337471008301e-01 8.704009056091308594e-01
6.106000000000000000e+03 4.171834564208984375e+01 1.367212963104248047e+01 -2.038527429103851318e-01 1.471139073371887207e+00 3.801859021186828613e-01 4.018012285232543945e-01
6.107000000000000000e+03 4.476707839965820312e+01 1.532488632202148438e+01 -2.079061716794967651e-01 2.311718463897705078e+00 6.311436891555786133e-01 6.693407893180847168e-01
6.108000000000000000e+03 4.395991134643554688e+01 1.513141059875488281e+01 -1.876918077468872070e-01 2.028808832168579102e+00 5.523351430892944336e-01 6.123500466346740723e-01
6.109000000000000000e+03 4.557688140869140625e+01 1.587864494323730469e+01 -2.127933055162429810e-01 2.548586606979370117e+00 7.007379531860351562e-01 7.566779851913452148e-01
6.110000000000000000e+03 4.625966644287109375e+01 1.669403648376464844e+01 -2.040308564901351929e-01 2.743667125701904297e+00 7.618908882141113281e-01 8.396880626678466797e-01
6.111000000000000000e+03 5.420067977905273438e+01 2.594100189208984375e+01 -1.714629977941513062e-01 7.234176158905029297e+00 2.118813991546630859e+00 2.039301156997680664e+00
6.112000000000000000e+03 5.811608886718750000e+01 2.917833900451660156e+01 -1.997822672128677368e-01 1.161478805541992188e+01 3.424501895904541016e+00 4.354428648948669434e-01
6.113000000000000000e+03 4.429713058471679688e+01 1.564192771911621094e+01 -1.785341054201126099e-01 2.115868568420410156e+00 5.812003016471862793e-01 6.512875556945800781e-01
6.114000000000000000e+03 4.516611862182617188e+01 1.539917278289794922e+01 -2.173622399568557739e-01 2.452226400375366211e+00 6.704592704772949219e-01 7.080373167991638184e-01
6.115000000000000000e+03 4.883329772949218750e+01 2.060319328308105469e+01 -8.865937590599060059e-02 3.586358547210693359e+00 1.049309730529785156e+00 1.266262650489807129e+00
6.116000000000000000e+03 4.782223129272460938e+01 1.952129745483398438e+01 -1.131644546985626221e-01 3.176282405853271484e+00 9.189354181289672852e-01 1.106251955032348633e+00
6.117000000000000000e+03 5.682073974609375000e+01 2.950069808959960938e+01 -1.421132683753967285e-01 1.137989807128906250e+01 3.371335268020629883e+00 1.588280320167541504e+00
6.118000000000000000e+03 5.732384872436523438e+01 2.922328948974609375e+01 -2.402101010084152222e-01 1.144060420989990234e+01 3.360118150711059570e+00 1.105021476745605469e+00
6.119000000000000000e+03 4.037668228149414062e+01 8.501132011413574219e+00 -2.030312716960906982e-01 1.455035209655761719e+00 3.756011724472045898e-01 2.932572960853576660e-01
6.120000000000000000e+03 3.963739395141601562e+01 8.164081573486328125e+00 -1.933352798223495483e-01 1.296884298324584961e+00 3.310647010803222656e-01 2.551284432411193848e-01
6.121000000000000000e+03 3.982732772827148438e+01 8.646885871887207031e+00 -1.989350467920303345e-01 1.313948988914489746e+00 3.345041573047637939e-01 2.670641839504241943e-01
6.122000000000000000e+03 3.390462493896484375e+01 2.760189771652221680e+00 -6.449522823095321655e-02 4.113067090511322021e-01 1.040434390306472778e-01 -2.506735175848007202e-02
6.123000000000000000e+03 3.531586837768554688e+01 3.708324134349822998e-01 -4.126194119453430176e-02 7.140432000160217285e-01 2.018343806266784668e-01 2.348717488348484039e-02
6.124000000000000000e+03 4.048439407348632812e+01 1.012206935882568359e+01 -2.187378555536270142e-01 1.398378372192382812e+00 3.538921773433685303e-01 3.061634004116058350e-01
6.125000000000000000e+03 3.995750427246093750e+01 1.027088642120361328e+01 -2.191301584243774414e-01 1.255269408226013184e+00 3.108417987823486328e-01 2.751793861389160156e-01
6.126000000000000000e+03 5.777549362182617188e+01 2.936633110046386719e+01 -1.829172074794769287e-01 1.170745754241943359e+01 3.457362174987792969e+00 7.204130291938781738e-01
6.127000000000000000e+03 5.668341827392578125e+01 2.926104164123535156e+01 -1.935316771268844604e-01 1.107005214691162109e+01 3.262956142425537109e+00 1.671228647232055664e+00
6.128000000000000000e+03 4.138822937011718750e+01 1.269535064697265625e+01 -2.189853489398956299e-01 1.469104886054992676e+00 3.750358521938323975e-01 3.713385760784149170e-01
6.129000000000000000e+03 2.203794288635253906e+01 2.169653701782226562e+01 4.311728477478027344e-02 1.262729465961456299e-01 5.081706866621971130e-02 7.527602463960647583e-02
6.130000000000000000e+03 4.025959396362304688e+01 9.618094444274902344e+00 -2.119247913360595703e-01 1.367326855659484863e+00 3.466205894947052002e-01 2.925630509853363037e-01
6.131000000000000000e+03 3.615420150756835938e+01 5.389789104461669922e+00 -1.039476171135902405e-01 6.767909526824951172e-01 1.718529909849166870e-01 7.648131251335144043e-02
6.132000000000000000e+03 1.568677139282226562e+01 1.480020618438720703e+01 4.416551440954208374e-02 1.689076125621795654e-01 6.392193585634231567e-02 7.450429350137710571e-02
6.133000000000000000e+03 3.768133926391601562e+01 5.441556930541992188e+00 -1.181872338056564331e-01 9.815480113029479980e-01 2.590082287788391113e-01 1.455862075090408325e-01
6.134000000000000000e+03 5.887298583984375000e+01 3.018673896789550781e+01 4.642631113529205322e-01 1.222424983978271484e+01 3.806554079055786133e+00 -3.735544085502624512e-01
6.135000000000000000e+03 3.718332290649414062e+01 6.394584655761718750e+00 -1.379373818635940552e-01 8.411478400230407715e-01 2.109631448984146118e-01 1.263390630483627319e-01
6.136000000000000000e+03 4.988581085205078125e+01 2.056610298156738281e+01 -1.930202990770339966e-01 4.135010719299316406e+00 1.182597041130065918e+00 1.323822975158691406e+00
6.137000000000000000e+03 4.856757736206054688e+01 1.997645378112792969e+01 -1.223286762833595276e-01 3.490175724029541016e+00 1.010354161262512207e+00 1.195240616798400879e+00
6.138000000000000000e+03 5.981513977050781250e+01 2.941707038879394531e+01 2.667973041534423828e-01 1.144129562377929688e+01 3.512428045272827148e+00 -6.789904832839965820e-01
6.139000000000000000e+03 1.925963783264160156e+01 2.049249458312988281e+01 3.060785494744777679e-02 1.275362819433212280e-01 4.744324088096618652e-02 6.885764747858047485e-02
6.140000000000000000e+03 1.875870704650878906e+01 1.999848937988281250e+01 3.090240433812141418e-02 1.303366571664810181e-01 4.837171733379364014e-02 6.535581499338150024e-02
6.141000000000000000e+03 4.102610397338867188e+01 1.207635402679443359e+01 -2.211311161518096924e-01 1.411417961120605469e+00 3.570860624313354492e-01 3.473589420318603516e-01
6.142000000000000000e+03 4.800283813476562500e+01 2.040465164184570312e+01 -4.656812548637390137e-02 3.206564188003540039e+00 9.479988217353820801e-01 1.185982942581176758e+00
6.143000000000000000e+03 4.664735794067382812e+01 1.757817459106445312e+01 -1.729359477758407593e-01 2.828355312347412109e+00 7.966257929801940918e-01 9.080355167388916016e-01
6.144000000000000000e+03 4.710828781127929688e+01 1.742573165893554688e+01 -2.058074623346328735e-01 3.031557559967041016e+00 8.477250337600708008e-01 9.340065717697143555e-01
6.145000000000000000e+03 3.528233337402343750e+01 4.327256679534912109e+00 -7.777114957571029663e-02 5.699526667594909668e-01 1.476544588804244995e-01 2.456527948379516602e-02
6.146000000000000000e+03 2.022905540466308594e+01 2.152862739562988281e+01 3.012379631400108337e-02 1.232168674468994141e-01 4.600219801068305969e-02 6.805545091629028320e-02
6.147000000000000000e+03 2.157232284545898438e+01 2.165485191345214844e+01 3.616656735539436340e-02 1.263420730829238892e-01 4.875259101390838623e-02 7.254070788621902466e-02
6.148000000000000000e+03 3.583992767333984375e+01 -5.910463258624076843e-02 -4.525779932737350464e-02 8.125817179679870605e-01 2.301971763372421265e-01 3.036002814769744873e-02
6.149000000000000000e+03 6.237566375732421875e+01 1.753062057495117188e+01 -9.693931341171264648e-01 7.960199832916259766e+00 2.097242116928100586e+00 -4.464359283447265625e-01
6.150000000000000000e+03 6.210996627807617188e+01 1.526887416839599609e+01 -9.240292310714721680e-01 7.606389999389648438e+00 2.004708290100097656e+00 -3.302246928215026855e-01
6.151000000000000000e+03 3.649641036987304688e+01 4.840388298034667969e+00 -9.346493333578109741e-02 7.718051671981811523e-01 2.035020738840103149e-01 8.789715170860290527e-02
6.152000000000000000e+03 1.974555015563964844e+01 2.099149322509765625e+01 2.952704578638076782e-02 1.257149726152420044e-01 4.657260328531265259e-02 6.532546132802963257e-02
6.153000000000000000e+03 5.917887496948242188e+01 2.965686607360839844e+01 2.301850914955139160e-01 1.177120304107666016e+01 3.600416660308837891e+00 -4.147693216800689697e-01
6.154000000000000000e+03 5.953889846801757812e+01 2.960942077636718750e+01 3.103866875171661377e-01 1.162735176086425781e+01 3.581321477890014648e+00 -6.059923171997070312e-01
6.155000000000000000e+03 6.230321121215820312e+01 1.347847843170166016e+01 -8.649534583091735840e-01 7.425992965698242188e+00 1.968311905860900879e+00 -3.003976941108703613e-01
6.156000000000000000e+03 6.314137268066406250e+01 1.384525203704833984e+01 -8.510528802871704102e-01 7.566164493560791016e+00 2.014533519744873047e+00 -4.026885032653808594e-01
6.157000000000000000e+03 4.897723770141601562e+01 -6.704078674316406250e+00 -3.303230404853820801e-01 3.845904111862182617e+00 1.054674267768859863e+00 8.274705708026885986e-02
6.158000000000000000e+03 6.223157882690429688e+01 4.527605533599853516e+00 -5.690280199050903320e-01 6.761277675628662109e+00 1.857674837112426758e+00 -8.017905801534652710e-02
6.159000000000000000e+03 6.263449859619140625e+01 6.412807941436767578e+00 -6.106798052787780762e-01 6.927821636199951172e+00 1.895142555236816406e+00 -1.448468714952468872e-01
6.160000000000000000e+03 6.265961456298828125e+01 1.897028541564941406e+01 -9.583981633186340332e-01 8.206120491027832031e+00 2.174316644668579102e+00 -5.517144799232482910e-01
6.161000000000000000e+03 6.371700286865234375e+01 1.921525382995605469e+01 -8.939571380615234375e-01 8.285851478576660156e+00 2.217568397521972656e+00 -7.399041056632995605e-01
6.162000000000000000e+03 3.519449615478515625e+01 1.153735637664794922e+00 -4.568571969866752625e-02 6.750501990318298340e-01 1.888093501329421997e-01 1.940881647169589996e-02
6.163000000000000000e+03 1.591552925109863281e+01 1.774548339843750000e+01 2.481292001903057098e-02 1.334535777568817139e-01 4.747994989156723022e-02 5.571871250867843628e-02
6.164000000000000000e+03 1.529301166534423828e+01 1.746310234069824219e+01 2.136429026722908020e-02 1.305200606584548950e-01 4.556530714035034180e-02 4.911109805107116699e-02
6.165000000000000000e+03 4.087846755981445312e+01 -3.824347257614135742e-01 -1.312642842531204224e-01 1.858261346817016602e+00 5.180991291999816895e-01 1.228212788701057434e-01
6.166000000000000000e+03 6.249139404296875000e+01 1.828554534912109375e+01 -9.701884388923645020e-01 8.081014633178710938e+00 2.133247852325439453e+00 -4.926006495952606201e-01
6.167000000000000000e+03 3.884823608398437500e+01 -4.642597138881683350e-01 -8.219574391841888428e-02 1.414716243743896484e+00 3.997561335563659668e-01 8.317194879055023193e-02
6.168000000000000000e+03 2.206243896484375000e+01 2.234911537170410156e+01 3.261763602495193481e-02 1.232192441821098328e-01 4.675106331706047058e-02 7.364098727703094482e-02
6.169000000000000000e+03 4.118970489501953125e+01 -1.236923575401306152e+00 -1.329229921102523804e-01 1.958970785140991211e+00 5.478143692016601562e-01 1.063951253890991211e-01
6.170000000000000000e+03 6.248436737060546875e+01 2.531370735168457031e+01 -5.648738145828247070e-01 9.497668266296386719e+00 2.679838418960571289e+00 -9.611987471580505371e-01
6.171000000000000000e+03 6.134375381469726562e+01 2.418886566162109375e+01 -8.143642544746398926e-01 9.289238929748535156e+00 2.542462587356567383e+00 -5.672294497489929199e-01
6.172000000000000000e+03 6.231547164916992188e+01 1.069036769866943359e+01 -7.685355544090270996e-01 7.176277160644531250e+00 1.922322392463684082e+00 -2.333315014839172363e-01
6.173000000000000000e+03 6.443465423583984375e+01 1.169970607757568359e+01 -7.328339815139770508e-01 7.510198116302490234e+00 2.033209323883056641e+00 -4.314087033271789551e-01
6.174000000000000000e+03 6.245719528198242188e+01 2.653217506408691406e+01 -3.202217817306518555e-01 9.765569686889648438e+00 2.833604335784912109e+00 -1.087867140769958496e+00
6.175000000000000000e+03 6.175428771972656250e+01 2.988670158386230469e+01 8.128253221511840820e-01 1.067037773132324219e+01 3.444961071014404297e+00 -1.307556867599487305e+00
6.176000000000000000e+03 6.223772430419921875e+01 2.246809959411621094e+01 -8.843117356300354004e-01 8.843640327453613281e+00 2.387798547744750977e+00 -6.647329330444335938e-01
6.177000000000000000e+03 1.708063125610351562e+01 2.044449996948242188e+01 1.519838999956846237e-02 1.165620237588882446e-01 3.952812403440475464e-02 5.049737170338630676e-02
6.178000000000000000e+03 1.700988388061523438e+01 1.951710510253906250e+01 2.356319129467010498e-02 1.230842918157577515e-01 4.399424418807029724e-02 5.442362278699874878e-02
6.179000000000000000e+03 3.711147308349609375e+01 2.856972217559814453e+00 -7.294684648513793945e-02 9.652062654495239258e-01 2.676778137683868408e-01 9.082788228988647461e-02
6.180000000000000000e+03 3.707647705078125000e+01 -2.289797067642211914e-01 -5.686540901660919189e-02 1.041534423828125000e+00 2.954007089138031006e-01 5.037407949566841125e-02
6.181000000000000000e+03 6.232070922851562500e+01 2.804247093200683594e+01 7.126307487487792969e-02 1.012153339385986328e+01 3.057838916778564453e+00 -1.217781782150268555e+00
6.182000000000000000e+03 6.246653747558593750e+01 1.584311485290527344e+01 -9.259341359138488770e-01 7.724695682525634766e+00 2.039628505706787109e+00 -3.996574878692626953e-01
6.183000000000000000e+03 6.352834701538085938e+01 1.166366004943847656e+01 -7.684838771820068359e-01 7.403562068939208984e+00 1.990523457527160645e+00 -3.544084131717681885e-01
6.184000000000000000e+03 6.073873138427734375e+01 -1.284521341323852539e+00 -4.352423250675201416e-01 6.332432270050048828e+00 1.769156932830810547e+00 6.075360625982284546e-02
6.185000000000000000e+03 6.271972274780273438e+01 4.971033573150634766e+00 -5.609167814254760742e-01 6.882223129272460938e+00 1.896391868591308594e+00 -1.211461126804351807e-01
6.186000000000000000e+03 1.712442779541015625e+01 1.866937828063964844e+01 2.533893845975399017e-02 1.326429098844528198e-01 4.739455506205558777e-02 6.133796647191047668e-02
6.187000000000000000e+03 4.493375396728515625e+01 -2.552232980728149414e+00 -2.347517013549804688e-01 2.852160692214965820e+00 7.852227091789245605e-01 1.279542148113250732e-01
6.188000000000000000e+03 6.340063858032226562e+01 7.680267810821533203e+00 -6.322411298751831055e-01 7.134528160095214844e+00 1.950686216354370117e+00 -2.242897748947143555e-01
6.189000000000000000e+03 6.236875915527343750e+01 5.833813190460205078e+00 -6.021308302879333496e-01 6.851600646972656250e+00 1.874840855598449707e+00 -1.173012331128120422e-01
6.190000000000000000e+03 2.257648658752441406e+01 2.520266342163085938e+01 2.777824550867080688e-02 1.106342375278472900e-01 4.152374342083930969e-02 5.990642681717872620e-02
6.191000000000000000e+03 6.130370330810546875e+01 1.689392852783203125e+01 -9.866586923599243164e-01 7.743844032287597656e+00 2.027155637741088867e+00 -2.680410444736480713e-01
6.192000000000000000e+03 5.901088714599609375e+01 2.089174985885620117e+00 -5.323324203491210938e-01 6.098872184753417969e+00 1.669961929321289062e+00 7.350475341081619263e-02
6.193000000000000000e+03 6.059658050537109375e+01 2.699853420257568359e+00 -5.393996834754943848e-01 6.402783870697021484e+00 1.759015202522277832e+00 1.669921912252902985e-02
6.194000000000000000e+03 1.842183113098144531e+01 2.271277427673339844e+01 1.876925863325595856e-02 1.072053164243698120e-01 3.779237344861030579e-02 4.899321869015693665e-02
6.195000000000000000e+03 6.062692642211914062e+01 -2.748254537582397461e+00 -4.080424010753631592e-01 6.284528732299804688e+00 1.762945890426635742e+00 8.208964020013809204e-02
6.196000000000000000e+03 5.933100128173828125e+01 -3.923742055892944336e+00 -4.093790650367736816e-01 6.027633190155029297e+00 1.685476303100585938e+00 1.152783855795860291e-01
6.197000000000000000e+03 6.032584762573242188e+01 -5.003369808197021484e+00 -3.795137703418731689e-01 6.216709613800048828e+00 1.751158714294433594e+00 1.109177991747856140e-01
6.198000000000000000e+03 1.812736511230468750e+01 2.197417831420898438e+01 1.358777750283479691e-02 1.127123311161994934e-01 3.789003193378448486e-02 5.245783179998397827e-02
6.199000000000000000e+03 2.075909996032714844e+01 2.201745033264160156e+01 3.072645887732505798e-02 1.223903223872184753e-01 4.593503475189208984e-02 6.644149124622344971e-02
6.200000000000000000e+03 6.181225585937500000e+01 -5.976261138916015625e+00 -3.437359035015106201e-01 6.461097717285156250e+00 1.835208535194396973e+00 1.129532158374786377e-01
6.201000000000000000e+03 5.051002883911132812e+01 -1.040380668640136719e+01 -3.477354645729064941e-01 4.265114784240722656e+00 1.175213813781738281e+00 5.962006002664566040e-02
6.202000000000000000e+03 5.808122253417968750e+01 -1.017228412628173828e+01 -3.311482667922973633e-01 5.788236618041992188e+00 1.637126564979553223e+00 1.681035459041595459e-01
6.203000000000000000e+03 4.001534271240234375e+01 -7.334383726119995117e-01 -1.069388836622238159e-01 1.677054286003112793e+00 4.710346162319183350e-01 1.005813553929328918e-01
6.204000000000000000e+03 6.296973800659179688e+01 2.090566635131835938e+01 -9.058026671409606934e-01 8.557277679443359375e+00 2.295442342758178711e+00 -7.232918739318847656e-01
6.205000000000000000e+03 6.051380538940429688e+01 -1.098579025268554688e+01 -2.932231426239013672e-01 6.224762439727783203e+00 1.779461741447448730e+00 1.886585205793380737e-01
6.206000000000000000e+03 6.052829360961914062e+01 -1.546769332885742188e+01 -2.376555502414703369e-01 6.250233650207519531e+00 1.803773403167724609e+00 2.636871337890625000e-01
6.207000000000000000e+03 2.666159629821777344e+01 3.255723190307617188e+01 3.206204995512962341e-02 9.034045040607452393e-02 3.672074899077415466e-02 4.193762689828872681e-02
6.208000000000000000e+03 2.518739128112792969e+01 3.556343078613281250e+01 2.319444157183170319e-02 8.005290478467941284e-02 3.097420372068881989e-02 2.930416725575923920e-02
6.209000000000000000e+03 2.002882385253906250e+01 3.056268882751464844e+01 6.110594607889652252e-03 7.614615559577941895e-02 2.467702515423297882e-02 3.120200894773006439e-02
6.210000000000000000e+03 1.867740249633789062e+01 2.488319015502929688e+01 1.147128827869892120e-02 9.628938883543014526e-02 3.232820332050323486e-02 4.278558492660522461e-02
6.211000000000000000e+03 5.936866760253906250e+01 -1.679205322265625000e+01 -2.333795130252838135e-01 6.075678348541259766e+00 1.752689599990844727e+00 2.670417428016662598e-01
6.212000000000000000e+03 5.991573715209960938e+01 1.198751091957092285e+00 -5.044910907745361328e-01 6.237760543823242188e+00 1.719980835914611816e+00 5.017448216676712036e-02
6.213000000000000000e+03 4.919090652465820312e+01 -8.411928176879882812e+00 -3.284370601177215576e-01 3.936975955963134766e+00 1.082561612129211426e+00 6.096966937184333801e-02
6.214000000000000000e+03 5.040733337402343750e+01 -6.265777111053466797e+00 -3.506037890911102295e-01 4.180275440216064453e+00 1.148901581764221191e+00 1.020914241671562195e-01
6.215000000000000000e+03 2.207924079895019531e+01 2.877077674865722656e+01 1.602291502058506012e-02 9.257362782955169678e-02 3.257896378636360168e-02 4.570677876472473145e-02
6.216000000000000000e+03 5.522069168090820312e+01 -1.432533073425292969e+01 -3.204763233661651611e-01 5.315664768218994141e+00 1.498556494712829590e+00 1.633247286081314087e-01
6.217000000000000000e+03 6.093893432617187500e+01 -1.840495872497558594e+01 -1.889812201261520386e-01 6.351634502410888672e+00 1.848796010017395020e+00 3.094749450683593750e-01
6.218000000000000000e+03 4.814090347290039062e+01 -6.032354831695556641e+00 -3.104248046875000000e-01 3.652235031127929688e+00 1.002543091773986816e+00 8.549152314662933350e-02
6.219000000000000000e+03 4.414445495605468750e+01 -3.159813404083251953e+00 -2.166943401098251343e-01 2.665971994400024414e+00 7.347833514213562012e-01 1.006419807672500610e-01
6.220000000000000000e+03 1.406706333160400391e+01 3.002571105957031250e+01 -7.646024227142333984e-03 2.682464197278022766e-02 5.753585137426853180e-03 7.187468465417623520e-03
6.221000000000000000e+03 4.830701828002929688e+01 -9.222704887390136719e+00 -3.189092576503753662e-01 3.742118120193481445e+00 1.026962637901306152e+00 2.682559378445148468e-02
6.222000000000000000e+03 5.679060745239257812e+01 -1.467503452301025391e+01 -3.121484220027923584e-01 5.620615005493164062e+00 1.592540025711059570e+00 2.001107633113861084e-01
6.223000000000000000e+03 5.857345962524414062e+01 -1.339277267456054688e+01 -3.090123534202575684e-01 5.913582801818847656e+00 1.681371212005615234e+00 2.111721038818359375e-01
6.224000000000000000e+03 5.800515747070312500e+01 -1.660742950439453125e+01 -2.726021707057952881e-01 5.855235099792480469e+00 1.674789905548095703e+00 2.444035410881042480e-01
6.225000000000000000e+03 5.159222412109375000e+01 -1.101491832733154297e+01 -3.509859144687652588e-01 4.471130847930908203e+00 1.236043453216552734e+00 7.094746828079223633e-02
6.226000000000000000e+03 5.620759201049804688e+01 2.772434616088867188e+01 -3.794703781604766846e-01 9.607092857360839844e+00 2.768286705017089844e+00 1.740444183349609375e+00
6.227000000000000000e+03 5.513812637329101562e+01 2.714888381958007812e+01 -2.013790011405944824e-01 8.357760429382324219e+00 2.446914434432983398e+00 2.097786188125610352e+00
6.228000000000000000e+03 5.466507720947265625e+01 2.738994789123535156e+01 -1.939467713236808777e-02 8.058918952941894531e+00 2.411857366561889648e+00 2.355854272842407227e+00
6.229000000000000000e+03 5.029216003417968750e+01 2.159680557250976562e+01 -1.302151530981063843e-01 4.308560371398925781e+00 1.253503561019897461e+00 1.443592905998229980e+00
6.230000000000000000e+03 5.134338760375976562e+01 2.164515876770019531e+01 -2.541007101535797119e-01 4.915427684783935547e+00 1.398398160934448242e+00 1.468240976333618164e+00
6.231000000000000000e+03 5.519793319702148438e+01 2.789558029174804688e+01 -7.764004170894622803e-02 8.778647422790527344e+00 2.610302209854125977e+00 2.313104629516601562e+00
6.232000000000000000e+03 5.139150619506835938e+01 2.197030830383300781e+01 -2.237461656332015991e-01 4.940570831298828125e+00 1.415047407150268555e+00 1.511125802993774414e+00
6.233000000000000000e+03 5.174174499511718750e+01 2.236192512512207031e+01 -2.235971689224243164e-01 5.154973506927490234e+00 1.479412913322448730e+00 1.570405244827270508e+00
6.234000000000000000e+03 4.798477554321289062e+01 1.878738594055175781e+01 -1.725424677133560181e-01 3.319697380065917969e+00 9.441464543342590332e-01 1.077460408210754395e+00
6.235000000000000000e+03 5.571218490600585938e+01 2.818398475646972656e+01 -1.805541813373565674e-01 9.419172286987304688e+00 2.771585464477539062e+00 2.146344661712646484e+00
6.236000000000000000e+03 5.218362426757812500e+01 2.275374031066894531e+01 -2.442948371171951294e-01 5.435411930084228516e+00 1.557335138320922852e+00 1.618185997009277344e+00
6.237000000000000000e+03 5.346363449096679688e+01 2.508006858825683594e+01 -1.440843194723129272e-01 6.483576774597167969e+00 1.901847720146179199e+00 1.954823374748229980e+00
6.238000000000000000e+03 5.642171859741210938e+01 2.942084884643554688e+01 -1.201773732900619507e-01 1.103751850128173828e+01 3.275202274322509766e+00 1.950807332992553711e+00
6.239000000000000000e+03 5.619859695434570312e+01 2.914447975158691406e+01 -1.310548186302185059e-01 1.060338306427001953e+01 3.141698360443115234e+00 2.048974275588989258e+00
6.240000000000000000e+03 5.706038284301757812e+01 2.938422393798828125e+01 -2.111776173114776611e-01 1.141566371917724609e+01 3.361346006393432617e+00 1.350352287292480469e+00
6.241000000000000000e+03 5.303689575195312500e+01 2.437705230712890625e+01 -1.653048843145370483e-01 6.083729743957519531e+00 1.775527477264404297e+00 1.845659136772155762e+00
6.242000000000000000e+03 5.361931228637695312e+01 2.468026542663574219e+01 -2.493109256029129028e-01 6.554616928100585938e+00 1.891591906547546387e+00 1.850333094596862793e+00
6.243000000000000000e+03 5.448626708984375000e+01 2.605922698974609375e+01 -2.304800897836685181e-01 7.503998279571533203e+00 2.182055473327636719e+00 1.990192174911499023e+00
6.244000000000000000e+03 5.713891601562500000e+01 2.894074058532714844e+01 -2.909668385982513428e-01 1.110479354858398438e+01 3.244148015975952148e+00 1.257149696350097656e+00
6.245000000000000000e+03 4.407174682617187500e+01 1.456191349029541016e+01 -2.111839801073074341e-01 2.113177537918090820e+00 5.705980658531188965e-01 6.080182194709777832e-01
6.246000000000000000e+03 4.302465820312500000e+01 1.392558288574218750e+01 -2.044408023357391357e-01 1.858552098274230957e+00 4.962334036827087402e-01 5.119292140007019043e-01
6.247000000000000000e+03 5.346750640869140625e+01 2.423814201354980469e+01 -2.806848585605621338e-01 6.438097000122070312e+00 1.847223639488220215e+00 1.784054994583129883e+00
6.248000000000000000e+03 4.690764617919921875e+01 1.697406768798828125e+01 -2.231440842151641846e-01 2.984214305877685547e+00 8.283210992813110352e-01 8.954392075538635254e-01
6.249000000000000000e+03 5.268974304199218750e+01 2.352901840209960938e+01 -2.297865450382232666e-01 5.791420936584472656e+00 1.668490290641784668e+00 1.716610550880432129e+00
6.250000000000000000e+03 4.239770126342773438e+01 1.269503021240234375e+01 -2.202588319778442383e-01 1.742669939994812012e+00 4.567233324050903320e-01 4.526323676109313965e-01
6.251000000000000000e+03 4.431752395629882812e+01 1.392719268798828125e+01 -2.340891957283020020e-01 2.255471706390380859e+00 6.064147353172302246e-01 6.077097654342651367e-01
6.252000000000000000e+03 5.411489868164062500e+01 2.551498603820800781e+01 -2.281013280153274536e-01 7.102240562438964844e+00 2.062241792678833008e+00 1.957566261291503906e+00
6.253000000000000000e+03 5.859916687011718750e+01 2.873957252502441406e+01 -2.575201392173767090e-01 1.131553459167480469e+01 3.317404270172119141e+00 1.440143138170242310e-01
6.254000000000000000e+03 5.386825561523437500e+01 2.513703918457031250e+01 -2.256375104188919067e-01 6.820306777954101562e+00 1.978400707244873047e+00 1.921182274818420410e+00
6.255000000000000000e+03 4.437693405151367188e+01 1.520593547821044922e+01 -1.949931383132934570e-01 2.170419692993164062e+00 5.926279425621032715e-01 6.458161473274230957e-01
6.256000000000000000e+03 4.611763000488281250e+01 1.626007652282714844e+01 -2.166743129491806030e-01 2.726250171661376953e+00 7.528727054595947266e-01 8.164865374565124512e-01
6.257000000000000000e+03 4.673371887207031250e+01 1.653210067749023438e+01 -2.317643463611602783e-01 2.939378976821899414e+00 8.122844099998474121e-01 8.582647442817687988e-01
6.258000000000000000e+03 3.466720581054687500e+01 1.471609711647033691e+00 -4.599638283252716064e-02 5.638858675956726074e-01 1.553668379783630371e-01 3.257934935390949249e-03
6.259000000000000000e+03 3.549008941650390625e+01 1.565861940383911133e+00 -4.646204039454460144e-02 7.064408659934997559e-01 1.979936361312866211e-01 2.767194248735904694e-02
6.260000000000000000e+03 5.557758712768554688e+01 2.947475242614746094e+01 1.346177011728286743e-01 1.018064212799072266e+01 3.094577789306640625e+00 2.654253482818603516e+00
6.261000000000000000e+03 5.519160461425781250e+01 2.925178909301757812e+01 2.525291442871093750e-01 9.393410682678222656e+00 2.893781900405883789e+00 2.843499183654785156e+00
6.262000000000000000e+03 4.452226257324218750e+01 1.472756576538085938e+01 -2.212112396955490112e-01 2.257299423217773438e+00 6.108264327049255371e-01 6.349197626113891602e-01
6.263000000000000000e+03 4.487332153320312500e+01 1.491706848144531250e+01 -2.255151718854904175e-01 2.384096860885620117e+00 6.475744843482971191e-01 6.678143739700317383e-01
6.264000000000000000e+03 4.750025939941406250e+01 1.885692977905273438e+01 -1.383611857891082764e-01 3.098205804824829102e+00 8.879534006118774414e-01 1.041750192642211914e+00
6.265000000000000000e+03 4.681218719482421875e+01 1.802689361572265625e+01 -1.564982235431671143e-01 2.859475374221801758e+00 8.108931779861450195e-01 9.412743449211120605e-01
6.266000000000000000e+03 4.603813171386718750e+01 1.582432365417480469e+01 -2.305759787559509277e-01 2.717058897018432617e+00 7.459448575973510742e-01 7.894303202629089355e-01
6.267000000000000000e+03 4.558671188354492188e+01 1.540481472015380859e+01 -2.293044477701187134e-01 2.588542699813842773e+00 7.077714800834655762e-01 7.413740158081054688e-01
6.268000000000000000e+03 4.659347152709960938e+01 1.611154937744140625e+01 -2.451364994049072266e-01 2.895046710968017578e+00 7.949730753898620605e-01 8.316898941993713379e-01
6.269000000000000000e+03 4.371246337890625000e+01 1.372118377685546875e+01 -2.261578440666198730e-01 2.076605081558227539e+00 5.551341176033020020e-01 5.545867085456848145e-01
6.270000000000000000e+03 4.096625518798828125e+01 1.118831062316894531e+01 -2.237224429845809937e-01 1.453021883964538574e+00 3.687898516654968262e-01 3.402659893035888672e-01
6.271000000000000000e+03 4.815983581542968750e+01 1.975630760192871094e+01 -1.115875318646430969e-01 3.315924406051635742e+00 9.613010883331298828e-01 1.151152849197387695e+00
6.272000000000000000e+03 4.558936309814453125e+01 1.494279766082763672e+01 -2.445721626281738281e-01 2.616878986358642578e+00 7.116920351982116699e-01 7.246435880661010742e-01
6.273000000000000000e+03 4.601983261108398438e+01 1.537997150421142578e+01 -2.447164654731750488e-01 2.735952615737915039e+00 7.473708391189575195e-01 7.691596150398254395e-01
6.274000000000000000e+03 4.176662826538085938e+01 1.263149356842041016e+01 -2.188204228878021240e-01 1.572144389152526855e+00 4.059971868991851807e-01 4.038106799125671387e-01
6.275000000000000000e+03 4.204794311523437500e+01 1.298380947113037109e+01 -2.169715911149978638e-01 1.619057178497314453e+00 4.206256866455078125e-01 4.250165522098541260e-01
6.276000000000000000e+03 4.132114410400390625e+01 1.166988086700439453e+01 -2.270501255989074707e-01 1.510020017623901367e+00 3.848909735679626465e-01 3.626959621906280518e-01
6.277000000000000000e+03 4.017877578735351562e+01 8.062444686889648438e+00 -1.899297237396240234e-01 1.430787444114685059e+00 3.722572922706604004e-01 2.821327447891235352e-01
6.278000000000000000e+03 4.207675933837890625e+01 9.642720222473144531e+00 -2.305818647146224976e-01 1.844804167747497559e+00 4.842666685581207275e-01 3.921660780906677246e-01
6.279000000000000000e+03 4.124798583984375000e+01 1.046099662780761719e+01 -2.243612408638000488e-01 1.575716614723205566e+00 4.054065942764282227e-01 3.573753833770751953e-01
6.280000000000000000e+03 4.079911804199218750e+01 9.458337783813476562e+00 -2.156032919883728027e-01 1.519035577774047852e+00 3.910296857357025146e-01 3.204126954078674316e-01
6.281000000000000000e+03 5.588854217529296875e+01 2.933349037170410156e+01 6.559781613759696484e-04 1.044764041900634766e+01 3.134488821029663086e+00 2.362560749053955078e+00
6.282000000000000000e+03 5.761494445800781250e+01 2.902669525146484375e+01 -2.769349515438079834e-01 1.138855838775634766e+01 3.333487033843994141e+00 8.704547882080078125e-01
6.283000000000000000e+03 3.823588562011718750e+01 6.970182895660400391e+00 -1.572209745645523071e-01 1.035094141960144043e+00 2.633619606494903564e-01 1.800175458192825317e-01
6.284000000000000000e+03 5.864622497558593750e+01 2.991705131530761719e+01 2.372433990240097046e-01 1.213305187225341797e+01 3.711088418960571289e+00 -1.204817220568656921e-01
6.285000000000000000e+03 3.709080886840820312e+01 5.147811412811279297e+00 -1.031565219163894653e-01 8.722675442695617676e-01 2.307333201169967651e-01 1.169717535376548767e-01
6.286000000000000000e+03 3.843796157836914062e+01 6.469017028808593750e+00 -1.474458575248718262e-01 1.102748632431030273e+00 2.865908145904541016e-01 1.899556666612625122e-01
6.287000000000000000e+03 1.972543525695800781e+01 2.209045410156250000e+01 2.396948821842670441e-02 1.188971772789955139e-01 4.286000132560729980e-02 5.923809856176376343e-02
6.288000000000000000e+03 5.880313873291015625e+01 2.959634590148925781e+01 1.096841171383857727e-01 1.184231281280517578e+01 3.585599184036254883e+00 -1.447513252496719360e-01
6.289000000000000000e+03 3.582393646240234375e+01 1.971691131591796875e+00 -5.501304566860198975e-02 7.543100714683532715e-01 2.097891122102737427e-01 3.975516557693481445e-02
6.290000000000000000e+03 3.576322937011718750e+01 3.545397281646728516e+00 -6.640281528234481812e-02 6.870658993721008301e-01 1.861989349126815796e-01 4.724221304059028625e-02
6.291000000000000000e+03 3.743951416015625000e+01 4.625090599060058594e+00 -9.835921972990036011e-02 9.643559455871582031e-01 2.597990036010742188e-01 1.239117980003356934e-01
6.292000000000000000e+03 3.950380706787109375e+01 7.663811206817626953e+00 -1.790976971387863159e-01 1.294295787811279297e+00 3.345594406127929688e-01 2.476540952920913696e-01
6.293000000000000000e+03 3.888151931762695312e+01 7.722522735595703125e+00 -1.797884702682495117e-01 1.143956184387207031e+00 2.892503440380096436e-01 2.161213457584381104e-01
6.294000000000000000e+03 3.642712783813476562e+01 8.865827918052673340e-01 -5.276988819241523743e-02 8.985542058944702148e-01 2.537353038787841797e-01 5.614721029996871948e-02
6.295000000000000000e+03 2.112781715393066406e+01 2.136801338195800781e+01 3.648011386394500732e-02 1.275811195373535156e-01 4.921836778521537781e-02 7.529971003532409668e-02
6.296000000000000000e+03 1.559262657165527344e+01 1.609125518798828125e+01 3.092973679304122925e-02 1.504570394754409790e-01 5.441603437066078186e-02 6.300798803567886353e-02
6.297000000000000000e+03 4.178542709350585938e+01 1.329470348358154297e+01 -2.146445810794830322e-01 1.528133511543273926e+00 3.940466940402984619e-01 4.032368063926696777e-01
6.298000000000000000e+03 3.495819473266601562e+01 2.686582565307617188e+00 -5.840588361024856567e-02 5.898112654685974121e-01 1.594216227531433105e-01 1.161145698279142380e-02
6.299000000000000000e+03 3.497629928588867188e+01 1.927482008934020996e+00 -5.070782080292701721e-02 6.039628982543945312e-01 1.659765243530273438e-01 1.135330181568861008e-02
6.300000000000000000e+03 1.929460144042968750e+01 2.146185684204101562e+01 2.499551139771938324e-02 1.208429858088493347e-01 4.375154897570610046e-02 6.270822137594223022e-02
6.301000000000000000e+03 6.171419906616210938e+01 1.838847541809082031e+01 -9.972747564315795898e-01 8.013848304748535156e+00 2.104972124099731445e+00 -3.635175228118896484e-01
6.302000000000000000e+03 6.128094482421875000e+01 1.473781490325927734e+01 -9.267162084579467773e-01 7.429893493652343750e+00 1.950953245162963867e+00 -2.163236588239669800e-01
6.303000000000000000e+03 6.179212951660156250e+01 6.139938354492187500e+00 -6.235581040382385254e-01 6.771033763885498047e+00 1.844242691993713379e+00 -8.777620643377304077e-02
6.304000000000000000e+03 6.130197906494140625e+01 2.932640457153320312e+01 4.796660542488098145e-01 1.079262733459472656e+01 3.381687879562377930e+00 -1.160931825637817383e+00
6.305000000000000000e+03 6.045145797729492188e+01 2.938212203979492188e+01 3.755267262458801270e-01 1.118081665039062500e+01 3.466902971267700195e+00 -9.263764023780822754e-01
6.306000000000000000e+03 3.528180694580078125e+01 3.827837944030761719e+00 -6.659894436597824097e-02 5.962919592857360840e-01 1.589079052209854126e-01 2.828357927501201630e-02
6.307000000000000000e+03 2.219015502929687500e+01 2.419236755371093750e+01 2.516567520797252655e-02 1.132690235972404480e-01 4.153040796518325806e-02 6.465965509414672852e-02
6.308000000000000000e+03 2.112576293945312500e+01 2.324776458740234375e+01 2.213317155838012695e-02 1.168409064412117004e-01 4.169222339987754822e-02 6.185980886220932007e-02
6.309000000000000000e+03 6.209073257446289062e+01 1.413936901092529297e+01 -8.904159069061279297e-01 7.469793796539306641e+00 1.973813295364379883e+00 -2.972048223018646240e-01
6.310000000000000000e+03 1.753576278686523438e+01 2.129374504089355469e+01 1.789292506873607635e-02 1.119916364550590515e-01 3.896536678075790405e-02 4.751257598400115967e-02
6.311000000000000000e+03 5.457862854003906250e+01 2.570832061767578125e+01 -3.047797381877899170e-01 7.506242752075195312e+00 2.160438776016235352e+00 1.874223589897155762e+00
6.312000000000000000e+03 6.191752243041992188e+01 2.470573616027832031e+01 -7.066405415534973145e-01 9.396859169006347656e+00 2.607065677642822266e+00 -7.627832889556884766e-01
6.313000000000000000e+03 6.109992599487304688e+01 2.326224136352539062e+01 -9.065126776695251465e-01 9.033077239990234375e+00 2.437969446182250977e+00 -4.355037510395050049e-01
6.314000000000000000e+03 6.269174194335937500e+01 6.990858078002929688e+00 -6.348357796669006348e-01 6.965636253356933594e+00 1.899240016937255859e+00 -1.583511531352996826e-01
6.315000000000000000e+03 6.216911697387695312e+01 6.722558975219726562e+00 -6.360063552856445312e-01 6.865786552429199219e+00 1.868934154510498047e+00 -1.245621070265769958e-01
6.316000000000000000e+03 6.026855087280273438e+01 2.851371574401855469e+01 -5.463867634534835815e-02 1.089944744110107422e+01 3.253442764282226562e+00 -6.792345643043518066e-01
6.317000000000000000e+03 6.199825668334960938e+01 2.312274932861328125e+01 -8.547381758689880371e-01 9.003078460693359375e+00 2.444502115249633789e+00 -6.547462344169616699e-01
6.318000000000000000e+03 6.209230041503906250e+01 1.676653099060058594e+01 -9.569828510284423828e-01 7.816258430480957031e+00 2.057782649993896484e+00 -3.797700703144073486e-01
6.319000000000000000e+03 6.151221847534179688e+01 1.762738037109375000e+01 -9.966133236885070801e-01 7.875351428985595703e+00 2.063621520996093750e+00 -3.122253715991973877e-01
6.320000000000000000e+03 6.231953430175781250e+01 2.941425323486328125e+01 6.085836291313171387e-01 1.032064437866210938e+01 3.278768539428710938e+00 -1.337950229644775391e+00
6.321000000000000000e+03 4.209420776367187500e+01 7.157613754272460938e+00 -2.134711295366287231e-01 1.952349901199340820e+00 5.216636061668395996e-01 3.442746102809906006e-01
6.322000000000000000e+03 3.952368164062500000e+01 -4.771160334348678589e-02 -9.989276528358459473e-02 1.557844638824462891e+00 4.373855590820312500e-01 1.056920588016510010e-01
6.323000000000000000e+03 3.785190200805664062e+01 -9.753510355949401855e-03 -6.244672089815139771e-02 1.201478362083435059e+00 3.417094945907592773e-01 7.384550571441650391e-02
6.324000000000000000e+03 3.844710540771484375e+01 7.211604118347167969e-01 -7.739979028701782227e-02 1.297368407249450684e+00 3.659905791282653809e-01 9.643602371215820312e-02
6.325000000000000000e+03 5.905494689941406250e+01 4.413547515869140625e-01 -4.958995878696441650e-01 6.047614574432373047e+00 1.665514588356018066e+00 8.407700061798095703e-02
6.326000000000000000e+03 5.849163818359375000e+01 -1.843296885490417480e+00 -4.403664469718933105e-01 5.903137683868408203e+00 1.638831377029418945e+00 9.738776832818984985e-02
6.327000000000000000e+03 6.255158615112304688e+01 1.496761608123779297e+01 -8.995403051376342773e-01 7.625043869018554688e+00 2.017651081085205078e+00 -3.805356919765472412e-01
6.328000000000000000e+03 1.876014518737792969e+01 2.172123336791992188e+01 2.325336448848247528e-02 1.161911264061927795e-01 4.183334857225418091e-02 5.518730729818344116e-02
6.329000000000000000e+03 6.116017532348632812e+01 7.955433845520019531e+00 -6.946611404418945312e-01 6.773985385894775391e+00 1.823797225952148438e+00 -8.633328974246978760e-02
6.330000000000000000e+03 6.140952301025390625e+01 5.465631961822509766e+00 -6.031352281570434570e-01 6.682099819183349609e+00 1.823689460754394531e+00 -6.214654073119163513e-02
6.331000000000000000e+03 6.154825973510742188e+01 4.088101387023925781e+00 -5.634366273880004883e-01 6.635914325714111328e+00 1.821743369102478027e+00 -4.749696701765060425e-02
6.332000000000000000e+03 5.576481628417968750e+01 -1.262749481201171875e+01 -3.428830206394195557e-01 5.388869762420654297e+00 1.513796091079711914e+00 1.639861762523651123e-01
6.333000000000000000e+03 5.312522888183593750e+01 -1.005620574951171875e+01 -3.531668186187744141e-01 4.833007812500000000e+00 1.343952298164367676e+00 1.042528003454208374e-01
6.334000000000000000e+03 6.269238281250000000e+01 7.669406890869140625e+00 -6.583091616630554199e-01 6.995786190032958984e+00 1.901243090629577637e+00 -1.721862554550170898e-01
6.335000000000000000e+03 5.126000213623046875e+01 -1.248661899566650391e+01 -3.499787747859954834e-01 4.460749626159667969e+00 1.233231306076049805e+00 5.246616899967193604e-02
6.336000000000000000e+03 6.235774612426757812e+01 2.175217819213867188e+01 -9.166151881217956543e-01 8.694190025329589844e+00 2.333272457122802734e+00 -6.426494717597961426e-01
6.337000000000000000e+03 4.042819213867187500e+01 1.628516316413879395e+00 -1.237471625208854675e-01 1.723253965377807617e+00 4.798520505428314209e-01 1.708949953317642212e-01
6.338000000000000000e+03 4.402383422851562500e+01 -1.024844527244567871e+00 -2.103694528341293335e-01 2.614125728607177734e+00 7.211269140243530273e-01 1.588322669267654419e-01
6.339000000000000000e+03 6.046437072753906250e+01 -6.299402236938476562e+00 -3.515157997608184814e-01 6.231348991394042969e+00 1.763949871063232422e+00 1.285281628370285034e-01
6.340000000000000000e+03 5.986083221435546875e+01 -3.257024049758911133e+00 -4.116607308387756348e-01 6.135794639587402344e+00 1.717240214347839355e+00 9.921789169311523438e-02
6.341000000000000000e+03 6.029286956787109375e+01 -7.764716625213623047e+00 -3.436473608016967773e-01 6.192550659179687500e+00 1.754670977592468262e+00 1.453143060207366943e-01
6.342000000000000000e+03 4.733398818969726562e+01 -3.973980903625488281e+00 -2.935820221900939941e-01 3.439979076385498047e+00 9.439191222190856934e-01 1.211875975131988525e-01
6.343000000000000000e+03 1.954830169677734375e+01 2.345095252990722656e+01 2.091669663786888123e-02 1.088447272777557373e-01 3.892842680215835571e-02 5.155238881707191467e-02
6.344000000000000000e+03 4.546973419189453125e+01 -3.286313056945800781e+00 -2.506151497364044189e-01 2.985791683197021484e+00 8.205529451370239258e-01 1.138061732053756714e-01
6.345000000000000000e+03 4.605646896362304688e+01 -3.996247768402099609e+00 -2.638806700706481934e-01 3.136459112167358398e+00 8.617734909057617188e-01 1.060123518109321594e-01
6.346000000000000000e+03 6.168996810913085938e+01 7.091018199920654297e+00 -6.576669216156005859e-01 6.821382999420166016e+00 1.849114775657653809e+00 -1.088691353797912598e-01
6.347000000000000000e+03 6.234191131591796875e+01 9.689664840698242188e+00 -7.364779114723205566e-01 7.096571445465087891e+00 1.908028006553649902e+00 -2.061116993427276611e-01
6.348000000000000000e+03 4.995018386840820312e+01 -7.398909091949462891e+00 -3.404228389263153076e-01 4.083515167236328125e+00 1.122927784919738770e+00 8.166179805994033813e-02
6.349000000000000000e+03 1.856077957153320312e+01 2.365923118591308594e+01 9.460328146815299988e-03 1.031241118907928467e-01 3.377533331513404846e-02 4.509078711271286011e-02
6.350000000000000000e+03 4.174700164794921875e+01 -1.208403334021568298e-01 -1.499194055795669556e-01 2.066762685775756836e+00 5.750529766082763672e-01 1.508245617151260376e-01
6.351000000000000000e+03 6.009747695922851562e+01 -1.452467632293701172e+01 -2.747417092323303223e-01 6.159719944000244141e+00 1.765493512153625488e+00 2.344431728124618530e-01
6.352000000000000000e+03 6.257820129394531250e+01 1.277187156677246094e+01 -8.421803712844848633e-01 7.379014015197753906e+00 1.961050152778625488e+00 -3.021014332771301270e-01
6.353000000000000000e+03 2.447650337219238281e+01 3.310271453857421875e+01 1.037274301052093506e-02 8.595535904169082642e-02 2.889843098819255829e-02 3.483688086271286011e-02
6.354000000000000000e+03 2.205462074279785156e+01 3.322349548339843750e+01 1.133295893669128418e-02 7.576205581426620483e-02 2.612850442528724670e-02 3.007845394313335419e-02
6.355000000000000000e+03 4.619232559204101562e+01 -2.645439147949218750e+00 -2.688462436199188232e-01 3.153521299362182617e+00 8.654025197029113770e-01 1.401670724153518677e-01
6.356000000000000000e+03 2.028911590576171875e+01 2.841020774841308594e+01 4.455405753105878830e-03 8.730567991733551025e-02 2.752832509577274323e-02 3.561099246144294739e-02
6.357000000000000000e+03 5.760738754272460938e+01 -1.157548618316650391e+01 -3.343303799629211426e-01 5.715487480163574219e+00 1.614347100257873535e+00 1.786171793937683105e-01
6.358000000000000000e+03 5.114197921752929688e+01 -7.904660701751708984e+00 -3.563629686832427979e-01 4.360868930816650391e+00 1.201351881027221680e+00 8.989661931991577148e-02
6.359000000000000000e+03 1.651273918151855469e+01 3.427934646606445312e+01 -3.789074951782822609e-03 3.848896920680999756e-02 1.040996890515089035e-02 8.466174826025962830e-03
6.360000000000000000e+03 1.964789009094238281e+01 3.284635162353515625e+01 1.826060179155319929e-04 6.521834433078765869e-02 1.962028443813323975e-02 1.911873929202556610e-02
6.361000000000000000e+03 5.574314880371093750e+01 2.901605987548828125e+01 -3.319289907813072205e-02 1.000882720947265625e+01 2.992690324783325195e+00 2.356622457504272461e+00
6.362000000000000000e+03 5.490735244750976562e+01 2.749864196777343750e+01 -6.876156479120254517e-02 8.324852943420410156e+00 2.476827621459960938e+00 2.307839393615722656e+00
6.363000000000000000e+03 5.486735916137695312e+01 2.721949958801269531e+01 -1.188908740878105164e-01 8.179045677185058594e+00 2.418046474456787109e+00 2.230098485946655273e+00
6.364000000000000000e+03 5.847941589355468750e+01 2.948876380920410156e+01 -2.089945040643215179e-02 1.184537506103515625e+01 3.547342777252197266e+00 1.313294917345046997e-01
6.365000000000000000e+03 5.545561218261718750e+01 2.851997184753417969e+01 -3.435260802507400513e-02 9.335154533386230469e+00 2.790240764617919922e+00 2.390318632125854492e+00
6.366000000000000000e+03 5.166799545288085938e+01 2.152316665649414062e+01 -3.054032027721405029e-01 5.088362693786621094e+00 1.434887766838073730e+00 1.449069738388061523e+00
6.367000000000000000e+03 5.116759109497070312e+01 2.131573486328125000e+01 -2.628624439239501953e-01 4.818542480468750000e+00 1.366704106330871582e+00 1.430655956268310547e+00
6.368000000000000000e+03 5.556156539916992188e+01 2.782880020141601562e+01 -1.885913312435150146e-01 9.087174415588378906e+00 2.669574975967407227e+00 2.127143144607543945e+00
6.369000000000000000e+03 5.519099044799804688e+01 2.749255561828613281e+01 -1.571387648582458496e-01 8.579071998596191406e+00 2.526580095291137695e+00 2.181177139282226562e+00
6.370000000000000000e+03 5.058982849121093750e+01 2.124484252929687500e+01 -1.983494460582733154e-01 4.496164321899414062e+00 1.289344429969787598e+00 1.418372511863708496e+00
6.371000000000000000e+03 5.134741592407226562e+01 2.069612121582031250e+01 -3.437582850456237793e-01 4.902357578277587891e+00 1.367579817771911621e+00 1.352572202682495117e+00
6.372000000000000000e+03 4.177560043334960938e+01 1.139730072021484375e+01 -2.270257323980331421e-01 1.653827905654907227e+00 4.280406534671783447e-01 3.940057754516601562e-01
6.373000000000000000e+03 5.885289001464843750e+01 2.922304153442382812e+01 -5.561647564172744751e-02 1.155815792083740234e+01 3.450762510299682617e+00 -1.053884923458099365e-01
6.374000000000000000e+03 5.173399734497070312e+01 2.193464279174804688e+01 -2.717843949794769287e-01 5.131390571594238281e+00 1.457881808280944824e+00 1.507637739181518555e+00
6.375000000000000000e+03 4.741851043701171875e+01 1.838249015808105469e+01 -1.654721647500991821e-01 3.078645944595336914e+00 8.739521503448486328e-01 1.010396718978881836e+00
6.376000000000000000e+03 5.005524444580078125e+01 2.010041046142578125e+01 -2.473695874214172363e-01 4.237620353698730469e+00 1.197075247764587402e+00 1.286020278930664062e+00
6.377000000000000000e+03 5.471589660644531250e+01 2.652794456481933594e+01 -1.967783719301223755e-01 7.825862884521484375e+00 2.288725376129150391e+00 2.069237470626831055e+00
6.378000000000000000e+03 5.215678787231445312e+01 2.230362319946289062e+01 -2.910330891609191895e-01 5.398780345916748047e+00 1.532324194908142090e+00 1.547949552536010742e+00
6.379000000000000000e+03 5.848991012573242188e+01 2.913331222534179688e+01 -1.512016505002975464e-01 1.158012199401855469e+01 3.428676128387451172e+00 1.673948764801025391e-01
6.380000000000000000e+03 5.663222122192382812e+01 2.853816032409667969e+01 -3.195274472236633301e-01 1.045976829528808594e+01 3.042072057723999023e+00 1.599727630615234375e+00
6.381000000000000000e+03 5.302806472778320312e+01 2.389338111877441406e+01 -2.453195154666900635e-01 6.079012393951416016e+00 1.750107765197753906e+00 1.751335501670837402e+00
6.382000000000000000e+03 5.265991973876953125e+01 2.311616516113281250e+01 -2.756830751895904541e-01 5.759287357330322266e+00 1.645081400871276855e+00 1.648107886314392090e+00
6.383000000000000000e+03 5.434040069580078125e+01 2.564113235473632812e+01 -2.564761042594909668e-01 7.259232997894287109e+00 2.100826978683471680e+00 1.929725646972656250e+00
6.384000000000000000e+03 5.644348144531250000e+01 2.885212707519531250e+01 -2.261221557855606079e-01 1.061897087097167969e+01 3.117854595184326172e+00 1.803342342376708984e+00
6.385000000000000000e+03 5.425999450683593750e+01 2.519080543518066406e+01 -3.115812838077545166e-01 7.169291019439697266e+00 2.057312965393066406e+00 1.851437568664550781e+00
6.386000000000000000e+03 5.373476791381835938e+01 2.433106040954589844e+01 -3.100320994853973389e-01 6.576550006866455078e+00 1.879955291748046875e+00 1.783083081245422363e+00
6.387000000000000000e+03 5.311381149291992188e+01 2.305454254150390625e+01 -3.611589074134826660e-01 6.052220344543457031e+00 1.707318425178527832e+00 1.607135176658630371e+00
6.388000000000000000e+03 4.276593017578125000e+01 1.237521839141845703e+01 -2.310448288917541504e-01 1.876338601112365723e+00 4.935881197452545166e-01 4.732250273227691650e-01
6.389000000000000000e+03 4.305971527099609375e+01 1.279745388031005859e+01 -2.256308645009994507e-01 1.943189144134521484e+00 5.152674913406372070e-01 5.009623765945434570e-01
6.390000000000000000e+03 4.482793807983398438e+01 1.425147247314453125e+01 -2.403724640607833862e-01 2.410903692245483398e+00 6.511594057083129883e-01 6.489817500114440918e-01
6.391000000000000000e+03 5.326078414916992188e+01 2.406917381286621094e+01 -2.618395686149597168e-01 6.251185417175292969e+00 1.796803832054138184e+00 1.753886580467224121e+00
6.392000000000000000e+03 5.473640441894531250e+01 2.691320228576660156e+01 -1.388252079486846924e-01 7.953606605529785156e+00 2.344434499740600586e+00 2.164790868759155273e+00
6.393000000000000000e+03 5.354556274414062500e+01 2.392668724060058594e+01 -3.329656124114990234e-01 6.437024116516113281e+00 1.831217527389526367e+00 1.704944491386413574e+00
6.394000000000000000e+03 5.311760711669921875e+01 2.350428009033203125e+01 -3.093330860137939453e-01 6.092424392700195312e+00 1.734927415847778320e+00 1.677653312683105469e+00
6.395000000000000000e+03 4.717357635498046875e+01 1.637212181091308594e+01 -2.659555971622467041e-01 3.124469757080078125e+00 8.575542569160461426e-01 8.771163225173950195e-01
6.396000000000000000e+03 4.511120605468750000e+01 1.462328624725341797e+01 -2.398040294647216797e-01 2.487639427185058594e+00 6.743506193161010742e-01 6.809735894203186035e-01
6.397000000000000000e+03 4.520281982421875000e+01 1.498391532897949219e+01 -2.321455031633377075e-01 2.495832920074462891e+00 6.791062355041503906e-01 6.996405124664306641e-01
6.398000000000000000e+03 5.691446685791015625e+01 2.914056015014648438e+01 -2.296491712331771851e-01 1.113649749755859375e+01 3.272054433822631836e+00 1.436396956443786621e+00
6.399000000000000000e+03 5.094449615478515625e+01 2.093751716613769531e+01 -2.751166820526123047e-01 4.696711540222167969e+00 1.326478362083435059e+00 1.387655973434448242e+00
6.400000000000000000e+03 4.706115722656250000e+01 1.590368270874023438e+01 -2.789075374603271484e-01 3.101276397705078125e+00 8.467106223106384277e-01 8.413731455802917480e-01
6.401000000000000000e+03 4.646636962890625000e+01 1.573690319061279297e+01 -2.503471672534942627e-01 2.881031513214111328e+00 7.892052531242370605e-01 8.134707212448120117e-01
6.402000000000000000e+03 4.876515960693359375e+01 1.950071144104003906e+01 -1.790977418422698975e-01 3.618885517120361328e+00 1.031936287879943848e+00 1.168750405311584473e+00
6.403000000000000000e+03 4.834762191772460938e+01 1.932833290100097656e+01 -1.620132923126220703e-01 3.443454504013061523e+00 9.844323992729187012e-01 1.135089874267578125e+00
6.404000000000000000e+03 4.603610992431640625e+01 1.491732406616210938e+01 -2.652491033077239990e-01 2.765031814575195312e+00 7.499347925186157227e-01 7.478445172309875488e-01
6.405000000000000000e+03 4.149702453613281250e+01 1.094879436492919922e+01 -2.239481210708618164e-01 1.616121649742126465e+00 4.176520705223083496e-01 3.751189112663269043e-01
6.406000000000000000e+03 4.940087890625000000e+01 1.922066497802734375e+01 -2.558524310588836670e-01 3.946158170700073242e+00 1.107091784477233887e+00 1.176156878471374512e+00
6.407000000000000000e+03 4.729460906982421875e+01 1.789348220825195312e+01 -1.889110952615737915e-01 3.060055971145629883e+00 8.613434433937072754e-01 9.752826094627380371e-01
6.408000000000000000e+03 5.595154190063476562e+01 2.843593788146972656e+01 -1.955480873584747314e-01 9.799024581909179688e+00 2.881042718887329102e+00 2.086735010147094727e+00
6.409000000000000000e+03 4.058707427978515625e+01 8.967778205871582031e+00 -2.066909223794937134e-01 1.483981013298034668e+00 3.831870257854461670e-01 3.053918480873107910e-01
6.410000000000000000e+03 4.115314102172851562e+01 8.792860984802246094e+00 -2.131032943725585938e-01 1.649865746498107910e+00 4.310287237167358398e-01 3.327243030071258545e-01
6.411000000000000000e+03 4.155295944213867188e+01 9.794595718383789062e+00 -2.250541746616363525e-01 1.696374416351318359e+00 4.413960874080657959e-01 3.688843548297882080e-01
6.412000000000000000e+03 4.101740264892578125e+01 9.958925247192382812e+00 -2.195405513048171997e-01 1.544097781181335449e+00 3.973671793937683105e-01 3.390822410583496094e-01
6.413000000000000000e+03 4.177609634399414062e+01 1.028181934356689453e+01 -2.275695651769638062e-01 1.731129169464111328e+00 4.510678648948669434e-01 3.858121037483215332e-01
6.414000000000000000e+03 4.134682846069335938e+01 9.297109603881835938e+00 -2.187724262475967407e-01 1.669413685798645020e+00 4.351923763751983643e-01 3.522036671638488770e-01
6.415000000000000000e+03 3.885145187377929688e+01 7.128321170806884766e+00 -1.646758764982223511e-01 1.167297959327697754e+00 3.007866144180297852e-01 2.106110751628875732e-01
6.416000000000000000e+03 4.919744873046875000e+01 1.969240951538085938e+01 -1.994082480669021606e-01 3.817654371261596680e+00 1.085473775863647461e+00 1.206604957580566406e+00
6.417000000000000000e+03 4.207921600341796875e+01 1.236497497558593750e+01 -2.193352282047271729e-01 1.683655142784118652e+00 4.392959773540496826e-01 4.287307560443878174e-01
6.418000000000000000e+03 4.757093048095703125e+01 1.723969650268554688e+01 -2.445740848779678345e-01 3.227733612060546875e+00 8.949478864669799805e-01 9.487565755844116211e-01
6.419000000000000000e+03 4.798327255249023438e+01 1.826402091979980469e+01 -2.132906913757324219e-01 3.349989175796508789e+00 9.410095810890197754e-01 1.037242174148559570e+00
6.420000000000000000e+03 3.626552581787109375e+01 3.963083982467651367e+00 -7.589627057313919067e-02 7.584548592567443848e-01 2.047675848007202148e-01 7.034668326377868652e-02
6.421000000000000000e+03 3.794556808471679688e+01 6.203637123107910156e+00 -1.356936842203140259e-01 1.007737278938293457e+00 2.616130709648132324e-01 1.644152700901031494e-01
6.422000000000000000e+03 3.739431762695312500e+01 5.930213451385498047e+00 -1.233694180846214294e-01 9.014528393745422363e-01 2.334250360727310181e-01 1.387203931808471680e-01
6.423000000000000000e+03 4.071745300292968750e+01 4.426081478595733643e-01 -1.244605109095573425e-01 1.808936238288879395e+00 5.053427219390869141e-01 1.430399715900421143e-01
6.424000000000000000e+03 3.537620162963867188e+01 2.329767227172851562e+00 -5.510498955845832825e-02 6.590191125869750977e-01 1.811742484569549561e-01 2.749983966350555420e-02
6.425000000000000000e+03 3.596983337402343750e+01 1.221103191375732422e+00 -4.939702898263931274e-02 8.146570324897766113e-01 2.295779883861541748e-01 4.249380156397819519e-02
6.426000000000000000e+03 3.946990966796875000e+01 7.137050151824951172e+00 -1.730070412158966064e-01 1.308025002479553223e+00 3.405053913593292236e-01 2.427848428487777710e-01
6.427000000000000000e+03 5.958350753784179688e+01 2.888060951232910156e+01 -3.233605995774269104e-02 1.122143173217773438e+01 3.356728553771972656e+00 -4.435323178768157959e-01
6.428000000000000000e+03 3.763279342651367188e+01 1.316012740135192871e+00 -6.682527065277099609e-02 1.128800272941589355e+00 3.185924887657165527e-01 9.269037097692489624e-02
6.429000000000000000e+03 3.660077667236328125e+01 2.104563236236572266e+00 -6.022270768880844116e-02 8.953474760055541992e-01 2.505374252796173096e-01 7.028173655271530151e-02
6.430000000000000000e+03 6.139110946655273438e+01 2.276867866516113281e+01 -9.212076067924499512e-01 8.906897544860839844e+00 2.395706892013549805e+00 -4.805683791637420654e-01
6.431000000000000000e+03 4.201438903808593750e+01 1.075432014465332031e+01 -2.306661009788513184e-01 1.766584277153015137e+00 4.607754349708557129e-01 4.049080312252044678e-01
6.432000000000000000e+03 6.080282211303710938e+01 2.887829971313476562e+01 2.104806303977966309e-01 1.086389827728271484e+01 3.322313785552978516e+00 -9.764406681060791016e-01
6.433000000000000000e+03 3.995089340209960938e+01 5.611730813980102539e-01 -1.079202964901924133e-01 1.636531352996826172e+00 4.585833251476287842e-01 1.250185966491699219e-01
6.434000000000000000e+03 3.629554367065429688e+01 1.646537423133850098e+00 -5.093444511294364929e-02 8.571470975875854492e-01 2.418638020753860474e-01 5.912214145064353943e-02
6.435000000000000000e+03 6.082168197631835938e+01 4.779403209686279297e+00 -5.967110395431518555e-01 6.536322593688964844e+00 1.781883358955383301e+00 -2.033114247024059296e-02
6.436000000000000000e+03 2.111361694335937500e+01 2.449205970764160156e+01 2.380373328924179077e-02 1.092505529522895813e-01 3.991628810763359070e-02 5.572688952088356018e-02
6.437000000000000000e+03 6.202081298828125000e+01 2.575291442871093750e+01 -5.440060496330261230e-01 9.656939506530761719e+00 2.733879804611206055e+00 -8.940902948379516602e-01
6.438000000000000000e+03 5.921993637084960938e+01 2.892917442321777344e+01 -9.677363187074661255e-02 1.132270812988281250e+01 3.367780447006225586e+00 -2.473898679018020630e-01
6.439000000000000000e+03 6.115037155151367188e+01 1.930403900146484375e+01 -1.017668962478637695e+00 8.137902259826660156e+00 2.136070013046264648e+00 -3.031032979488372803e-01
6.440000000000000000e+03 6.112300491333007812e+01 1.621766471862792969e+01 -9.712090492248535156e-01 7.631968498229980469e+00 1.998227834701538086e+00 -2.298099994659423828e-01
6.441000000000000000e+03 6.072022628784179688e+01 1.271257591247558594e+01 -8.731215000152587891e-01 7.113084793090820312e+00 1.871989011764526367e+00 -1.214638650417327881e-01
6.442000000000000000e+03 6.197232818603515625e+01 1.920330238342285156e+01 -9.873141050338745117e-01 8.197957992553710938e+00 2.163193225860595703e+00 -4.520613253116607666e-01
6.443000000000000000e+03 4.285175323486328125e+01 -6.351928114891052246e-01 -1.786393523216247559e-01 2.323819160461425781e+00 6.435539722442626953e-01 1.492165327072143555e-01
6.444000000000000000e+03 6.153136062622070312e+01 2.514543914794921875e+01 -6.833727955818176270e-01 9.546868324279785156e+00 2.659048557281494141e+00 -7.022538185119628906e-01
6.445000000000000000e+03 6.055808639526367188e+01 2.283819198608398438e+01 -9.607152342796325684e-01 8.890779495239257812e+00 2.379019260406494141e+00 -2.776020169258117676e-01
6.446000000000000000e+03 6.046231460571289062e+01 1.489106273651123047e+01 -9.449547529220581055e-01 7.335453987121582031e+00 1.917149782180786133e+00 -1.138161644339561462e-01
6.447000000000000000e+03 6.179358673095703125e+01 1.606979751586914062e+01 -9.568955898284912109e-01 7.682962894439697266e+00 2.017820119857788086e+00 -3.125565648078918457e-01
6.448000000000000000e+03 6.113265609741210938e+01 2.827873229980468750e+01 1.765777356922626495e-02 1.054347038269042969e+01 3.168338537216186523e+00 -9.702849388122558594e-01
6.449000000000000000e+03 5.916613006591796875e+01 -1.122226834297180176e+00 -4.533424675464630127e-01 6.046196460723876953e+00 1.677856206893920898e+00 9.175338596105575562e-02
6.450000000000000000e+03 6.039344024658203125e+01 2.140596199035644531e+01 -1.019297719001770020e+00 8.517363548278808594e+00 2.249419927597045898e+00 -1.870064437389373779e-01
6.451000000000000000e+03 6.168472290039062500e+01 2.160225677490234375e+01 -9.623402357101440430e-01 8.650321960449218750e+00 2.306394577026367188e+00 -4.882730841636657715e-01
6.452000000000000000e+03 6.025475692749023438e+01 6.296771049499511719e+00 -6.543725132942199707e-01 6.511695861816406250e+00 1.757197022438049316e+00 -1.038022618740797043e-02
6.453000000000000000e+03 5.909859466552734375e+01 -6.191092014312744141e+00 -3.783000707626342773e-01 5.960423469543457031e+00 1.674636960029602051e+00 1.322421729564666748e-01
6.454000000000000000e+03 3.677587890625000000e+01 1.302217006683349609e+00 -5.546057596802711487e-02 9.410792589187622070e-01 2.656856179237365723e-01 6.281375139951705933e-02
6.455000000000000000e+03 3.779753494262695312e+01 7.124930620193481445e-01 -7.285100966691970825e-02 1.171568632125854492e+00 3.296152949333190918e-01 8.252152055501937866e-02
6.456000000000000000e+03 6.051688766479492188e+01 1.692478942871093750e+01 -9.995979666709899902e-01 7.615794181823730469e+00 1.984858870506286621e+00 -1.412648558616638184e-01
6.457000000000000000e+03 4.320030975341796875e+01 -1.493975639343261719e+00 -1.901633888483047485e-01 2.423822164535522461e+00 6.700975894927978516e-01 1.322181522846221924e-01
6.458000000000000000e+03 4.445026779174804688e+01 -1.798347711563110352e+00 -2.238111197948455811e-01 2.723982334136962891e+00 7.500513195991516113e-01 1.425633877515792847e-01
6.459000000000000000e+03 6.219825744628906250e+01 8.725217819213867188e+00 -7.006692886352539062e-01 7.009862422943115234e+00 1.892757892608642578e+00 -1.770253479480743408e-01
6.460000000000000000e+03 6.214232635498046875e+01 1.160218238830566406e+01 -8.089703321456909180e-01 7.219858169555664062e+00 1.923266410827636719e+00 -2.372813522815704346e-01
6.461000000000000000e+03 6.126844024658203125e+01 8.799431800842285156e+00 -7.237738370895385742e-01 6.853082180023193359e+00 1.838792443275451660e+00 -1.087068840861320496e-01
6.462000000000000000e+03 2.029918670654296875e+01 2.282481384277343750e+01 2.286121249198913574e-02 1.160321012139320374e-01 4.166799411177635193e-02 6.127389147877693176e-02
6.463000000000000000e+03 6.181806182861328125e+01 1.240393638610839844e+01 -8.458485603332519531e-01 7.242949008941650391e+00 1.919130086898803711e+00 -2.186833322048187256e-01
6.464000000000000000e+03 6.290314102172851562e+01 1.204073619842529297e+01 -7.996595501899719238e-01 7.355436801910400391e+00 1.966733098030090332e+00 -3.156554996967315674e-01
6.465000000000000000e+03 5.923011398315429688e+01 -2.576337575912475586e+00 -4.271129965782165527e-01 6.043624401092529297e+00 1.684953331947326660e+00 1.031382381916046143e-01
6.466000000000000000e+03 6.083573532104492188e+01 6.007720947265625000e+00 -6.327491998672485352e-01 6.605311870574951172e+00 1.791768789291381836e+00 -4.562313854694366455e-02
6.467000000000000000e+03 4.738828659057617188e+01 -5.369460105895996094e+00 -2.963770031929016113e-01 3.468419551849365234e+00 9.516127705574035645e-01 9.020417928695678711e-02
6.468000000000000000e+03 4.738497161865234375e+01 -2.673885583877563477e+00 -2.971289753913879395e-01 3.434959650039672852e+00 9.413492083549499512e-01 1.544704437255859375e-01
6.469000000000000000e+03 6.106370162963867188e+01 7.163381099700927734e+00 -6.697759628295898438e-01 6.705973625183105469e+00 1.810859322547912598e+00 -7.279569655656814575e-02
6.470000000000000000e+03 5.072999954223632812e+01 -5.262810230255126953e+00 -3.535279333591461182e-01 4.257761478424072266e+00 1.171270132064819336e+00 1.198215708136558533e-01
6.471000000000000000e+03 6.171853637695312500e+01 2.097659683227539062e+01 -9.790472388267517090e-01 8.523550033569335938e+00 2.263350725173950195e+00 -4.649534523487091064e-01
6.472000000000000000e+03 1.911198425292968750e+01 2.249828529357910156e+01 1.513569150120019913e-02 1.142206937074661255e-01 3.880691528320312500e-02 5.554538220167160034e-02
6.473000000000000000e+03 5.786667251586914062e+01 -6.002500534057617188e+00 -3.816107213497161865e-01 5.742164134979248047e+00 1.608166098594665527e+00 1.370937973260879517e-01
6.474000000000000000e+03 2.155626678466796875e+01 2.597104454040527344e+01 1.416770461946725845e-02 1.033663153648376465e-01 3.526020795106887817e-02 5.312968790531158447e-02
6.475000000000000000e+03 5.715371322631835938e+01 -1.943662166595458984e+00 -4.468835592269897461e-01 5.644989967346191406e+00 1.559431910514831543e+00 1.326812803745269775e-01
6.476000000000000000e+03 5.815855026245117188e+01 1.273334503173828125e+00 -5.146193504333496094e-01 5.902018070220947266e+00 1.616219639778137207e+00 1.001279056072235107e-01
6.477000000000000000e+03 5.826953506469726562e+01 -3.375898003578186035e-01 -4.742254912853240967e-01 5.883113861083984375e+00 1.622666597366333008e+00 9.753430634737014771e-02
6.478000000000000000e+03 6.014233016967773438e+01 -1.218705558776855469e+01 -3.040334284305572510e-01 6.160731315612792969e+00 1.757009387016296387e+00 2.077552378177642822e-01
6.479000000000000000e+03 6.096241760253906250e+01 -1.394643497467041016e+01 -2.611587941646575928e-01 6.314101696014404297e+00 1.815882921218872070e+00 2.445092499256134033e-01
6.480000000000000000e+03 4.872021484375000000e+01 -5.198749065399169922e+00 -3.207425177097320557e-01 3.773882627487182617e+00 1.035942077636718750e+00 1.049408838152885437e-01
6.481000000000000000e+03 4.923658370971679688e+01 -4.366389751434326172e+00 -3.313023149967193604e-01 3.892722606658935547e+00 1.068426012992858887e+00 1.213595271110534668e-01
6.482000000000000000e+03 5.085860061645507812e+01 -9.249388694763183594e+00 -3.393112123012542725e-01 4.319718837738037109e+00 1.194122314453125000e+00 7.209975272417068481e-02
6.483000000000000000e+03 4.951581192016601562e+01 -5.766324996948242188e+00 -3.320132195949554443e-01 3.969315052032470703e+00 1.091190576553344727e+00 9.949590265750885010e-02
6.484000000000000000e+03 5.436873626708984375e+01 -1.199472141265869141e+01 -3.379977643489837646e-01 5.121418476104736328e+00 1.435026288032531738e+00 1.321410089731216431e-01
6.485000000000000000e+03 5.717087554931640625e+01 -1.306887626647949219e+01 -3.146244287490844727e-01 5.653150081634521484e+00 1.601557731628417969e+00 1.829568892717361450e-01
6.486000000000000000e+03 1.905854988098144531e+01 3.533537673950195312e+01 4.246463067829608917e-04 5.446901917457580566e-02 1.646810024976730347e-02 1.583486050367355347e-02
6.487000000000000000e+03 5.854170989990234375e+01 -8.817893981933593750e+00 -3.524790108203887939e-01 5.869525432586669922e+00 1.655113935470581055e+00 1.613793522119522095e-01
6.488000000000000000e+03 5.196299743652343750e+01 -9.676854133605957031e+00 -3.532801866531372070e-01 4.552577018737792969e+00 1.259789109230041504e+00 9.063844382762908936e-02
6.489000000000000000e+03 5.233232498168945312e+01 -8.394829750061035156e+00 -3.567257821559906006e-01 4.641610622406005859e+00 1.285465359687805176e+00 1.040778607130050659e-01
6.490000000000000000e+03 5.619073867797851562e+01 2.865004730224609375e+01 -2.158564776182174683e-01 1.022978210449218750e+01 3.004177808761596680e+00 1.965196251869201660e+00
6.491000000000000000e+03 5.550445175170898438e+01 2.742630767822265625e+01 -2.554100155830383301e-01 8.820161819458007812e+00 2.569425582885742188e+00 2.040616035461425781e+00
6.492000000000000000e+03 5.601416015625000000e+01 2.797816467285156250e+01 -2.889555096626281738e-01 9.601902961730957031e+00 2.793884038925170898e+00 1.910266995429992676e+00
6.493000000000000000e+03 5.590756607055664062e+01 2.768531417846679688e+01 -3.194553256034851074e-01 9.341955184936523438e+00 2.706749916076660156e+00 1.892742514610290527e+00
6.494000000000000000e+03 5.192704772949218750e+01 2.096036720275878906e+01 -3.905560970306396484e-01 5.214909553527832031e+00 1.447306036949157715e+00 1.367904067039489746e+00
6.495000000000000000e+03 5.223629760742187500e+01 2.035569381713867188e+01 -4.723688960075378418e-01 5.348964691162109375e+00 1.462978720664978027e+00 1.280230045318603516e+00
6.496000000000000000e+03 5.114368820190429688e+01 2.024324798583984375e+01 -3.579741418361663818e-01 4.807958602905273438e+00 1.334995269775390625e+00 1.301119089126586914e+00
6.497000000000000000e+03 5.152953338623046875e+01 2.111643600463867188e+01 -3.273837268352508545e-01 5.009077072143554688e+00 1.404507994651794434e+00 1.397491335868835449e+00
6.498000000000000000e+03 5.211812210083007812e+01 2.185661888122558594e+01 -3.338697254657745361e-01 5.359722614288330078e+00 1.507755875587463379e+00 1.484522104263305664e+00
6.499000000000000000e+03 5.252981567382812500e+01 2.176138687133789062e+01 -4.016281664371490479e-01 5.590834140777587891e+00 1.556761860847473145e+00 1.446191906929016113e+00
6.500000000000000000e+03 5.258249282836914062e+01 2.222211074829101562e+01 -3.655619323253631592e-01 5.657992362976074219e+00 1.587729215621948242e+00 1.514061450958251953e+00
6.501000000000000000e+03 6.100011062622070312e+01 2.463870811462402344e+01 -7.934117317199707031e-01 9.422592163085937500e+00 2.588754177093505859e+00 -5.054516196250915527e-01
6.502000000000000000e+03 5.301781082153320312e+01 2.213148689270019531e+01 -4.404435157775878906e-01 5.905775547027587891e+00 1.639599561691284180e+00 1.460714221000671387e+00
6.503000000000000000e+03 5.307026290893554688e+01 2.259574890136718750e+01 -4.046700894832611084e-01 5.988770961761474609e+00 1.675230264663696289e+00 1.530838966369628906e+00
6.504000000000000000e+03 6.077391433715820312e+01 2.372674179077148438e+01 -8.952146172523498535e-01 9.147614479064941406e+00 2.475719928741455078e+00 -3.760288953781127930e-01
6.505000000000000000e+03 4.536540222167968750e+01 1.395548057556152344e+01 -2.639121711254119873e-01 2.588548183441162109e+00 6.973907947540283203e-01 6.681069731712341309e-01
6.506000000000000000e+03 4.239056015014648438e+01 1.206039524078369141e+01 -2.284222692251205444e-01 1.794851064682006836e+00 4.699286520481109619e-01 4.430697262287139893e-01
6.507000000000000000e+03 4.455391693115234375e+01 1.223670387268066406e+01 -2.734366357326507568e-01 2.425702095031738281e+00 6.456795930862426758e-01 5.745594501495361328e-01
6.508000000000000000e+03 5.507954788208007812e+01 2.653898048400878906e+01 -2.974678277969360352e-01 8.172575950622558594e+00 2.362532615661621094e+00 1.955783486366271973e+00
6.509000000000000000e+03 5.481436920166015625e+01 2.611675071716308594e+01 -3.005895018577575684e-01 7.787704467773437500e+00 2.246134519577026367e+00 1.934463739395141602e+00
6.510000000000000000e+03 5.452949523925781250e+01 2.539195632934570312e+01 -3.384824693202972412e-01 7.384755611419677734e+00 2.113881826400756836e+00 1.830018043518066406e+00
6.511000000000000000e+03 5.952513504028320312e+01 2.927885627746582031e+01 1.206749528646469116e-01 1.145646762847900391e+01 3.473142623901367188e+00 -5.069196820259094238e-01
6.512000000000000000e+03 6.121255493164062500e+01 2.765064048767089844e+01 -1.803991794586181641e-01 1.032759284973144531e+01 3.044157981872558594e+00 -9.158883094787597656e-01
6.513000000000000000e+03 5.404605102539062500e+01 2.432525444030761719e+01 -3.818007111549377441e-01 6.813405513763427734e+00 1.929481506347656250e+00 1.706597328186035156e+00
6.514000000000000000e+03 5.398451614379882812e+01 2.473528099060058594e+01 -3.105970025062561035e-01 6.834088325500488281e+00 1.957047343254089355e+00 1.809082031250000000e+00
6.515000000000000000e+03 5.440184783935546875e+01 2.477973365783691406e+01 -3.955591619014739990e-01 7.166090488433837891e+00 2.031159400939941406e+00 1.741767048835754395e+00
6.516000000000000000e+03 5.388819122314453125e+01 2.402843856811523438e+01 -3.875926733016967773e-01 6.678254127502441406e+00 1.887198328971862793e+00 1.679135680198669434e+00
6.517000000000000000e+03 5.359679794311523438e+01 2.299863815307617188e+01 -4.484525620937347412e-01 6.347172737121582031e+00 1.769616007804870605e+00 1.533029556274414062e+00
6.518000000000000000e+03 4.756902694702148438e+01 1.580012321472167969e+01 -3.073377311229705811e-01 3.282214641571044922e+00 8.924630880355834961e-01 8.654239177703857422e-01
6.519000000000000000e+03 4.757131958007812500e+01 1.626763534545898438e+01 -2.893409132957458496e-01 3.258785247802734375e+00 8.908332586288452148e-01 8.929875493049621582e-01
6.520000000000000000e+03 4.644868469238281250e+01 1.537422466278076172e+01 -2.659556269645690918e-01 2.892876386642456055e+00 7.880762815475463867e-01 7.890049815177917480e-01
6.521000000000000000e+03 4.834324264526367188e+01 1.739367103576660156e+01 -2.840529680252075195e-01 3.531603336334228516e+00 9.742650985717773438e-01 9.950063228607177734e-01
6.522000000000000000e+03 4.733677291870117188e+01 1.680732345581054688e+01 -2.519309520721435547e-01 3.158698797225952148e+00 8.720303773880004883e-01 9.118243455886840820e-01
6.523000000000000000e+03 4.893991088867187500e+01 1.901598548889160156e+01 -2.320964634418487549e-01 3.731309890747070312e+00 1.049764037132263184e+00 1.136130452156066895e+00
6.524000000000000000e+03 4.603407287597656250e+01 1.442032527923583984e+01 -2.818377017974853516e-01 2.787409543991088867e+00 7.516715526580810547e-01 7.222069501876831055e-01
6.525000000000000000e+03 4.652975845336914062e+01 1.494900131225585938e+01 -2.864964604377746582e-01 2.925225973129272461e+00 7.916188240051269531e-01 7.693879604339599609e-01
6.526000000000000000e+03 4.173014831542968750e+01 1.203937339782714844e+01 -2.218392193317413330e-01 1.599708080291748047e+00 4.133606553077697754e-01 3.973397910594940186e-01
6.527000000000000000e+03 4.461902999877929688e+01 1.332120323181152344e+01 -2.567524611949920654e-01 2.386960029602050781e+00 6.390622854232788086e-01 6.032701134681701660e-01
6.528000000000000000e+03 4.683307647705078125e+01 1.552073764801025391e+01 -2.801257669925689697e-01 3.036612987518310547e+00 8.269461393356323242e-01 8.139452934265136719e-01
6.529000000000000000e+03 5.794826889038085938e+01 2.880047798156738281e+01 -3.095767199993133545e-01 1.130015373229980469e+01 3.297173261642456055e+00 6.015256047248840332e-01
6.530000000000000000e+03 4.770212936401367188e+01 1.662487220764160156e+01 -2.791159152984619141e-01 3.303627729415893555e+00 9.073535203933715820e-01 9.168835282325744629e-01
6.531000000000000000e+03 4.372072982788085938e+01 1.313951969146728516e+01 -2.353693842887878418e-01 2.117244243621826172e+00 5.645624995231628418e-01 5.483321547508239746e-01
6.532000000000000000e+03 4.326051330566406250e+01 1.320143413543701172e+01 -2.275479882955551147e-01 1.959406614303588867e+00 5.195575952529907227e-01 5.160700082778930664e-01
6.533000000000000000e+03 4.188596343994140625e+01 9.156236648559570312e+00 -2.260080277919769287e-01 1.815409183502197266e+00 4.768203496932983398e-01 3.763170838356018066e-01
6.534000000000000000e+03 4.239875411987304688e+01 9.043034553527832031e+00 -2.331713140010833740e-01 1.957310795783996582e+00 5.172418355941772461e-01 3.946566283702850342e-01
6.535000000000000000e+03 4.172872161865234375e+01 8.645255088806152344e+00 -2.174060791730880737e-01 1.799051523208618164e+00 4.744936525821685791e-01 3.637626171112060547e-01
6.536000000000000000e+03 4.229202651977539062e+01 1.011782264709472656e+01 -2.357861846685409546e-01 1.878013730049133301e+00 4.926682710647583008e-01 4.104163050651550293e-01
6.537000000000000000e+03 6.002238845825195312e+01 2.901367759704589844e+01 1.024828925728797913e-01 1.117772579193115234e+01 3.384062767028808594e+00 -6.730980277061462402e-01
6.538000000000000000e+03 5.919582748413085938e+01 2.927202987670898438e+01 4.223161563277244568e-02 1.149680328369140625e+01 3.461710453033447266e+00 -3.079081475734710693e-01
6.539000000000000000e+03 3.824258804321289062e+01 5.744596004486083984e+00 -1.278830617666244507e-01 1.101052165031433105e+00 2.919507622718811035e-01 1.734450906515121460e-01
6.540000000000000000e+03 4.783904647827148438e+01 1.771875572204589844e+01 -2.360627651214599609e-01 3.316576004028320312e+00 9.241539835929870605e-01 9.963081479072570801e-01
6.541000000000000000e+03 4.161164474487304688e+01 8.082620620727539062e+00 -2.131060510873794556e-01 1.794653892517089844e+00 4.744643568992614746e-01 3.456037938594818115e-01
6.542000000000000000e+03 6.177064132690429688e+01 2.871567916870117188e+01 2.562264800071716309e-01 1.045467376708984375e+01 3.213270187377929688e+00 -1.198345065116882324e+00
6.543000000000000000e+03 3.685603713989257812e+01 4.301812171936035156e+00 -8.494643121957778931e-02 8.613536357879638672e-01 2.329221665859222412e-01 9.963428974151611328e-02
6.544000000000000000e+03 3.801969146728515625e+01 4.946496009826660156e+00 -1.119630411267280579e-01 1.079892754554748535e+00 2.903789281845092773e-01 1.534548401832580566e-01
6.545000000000000000e+03 4.000464630126953125e+01 7.169875621795654297e+00 -1.789420694112777710e-01 1.428343534469604492e+00 3.748204410076141357e-01 2.598156630992889404e-01
6.546000000000000000e+03 4.004043197631835938e+01 7.623870849609375000e+00 -1.867815852165222168e-01 1.419960260391235352e+00 3.699536025524139404e-01 2.714360356330871582e-01
6.547000000000000000e+03 4.846781921386718750e+01 1.885312271118164062e+01 -2.035877108573913574e-01 3.518748044967651367e+00 9.945481419563293457e-01 1.104519248008728027e+00
6.548000000000000000e+03 3.852111053466796875e+01 1.384119987487792969e-01 -7.963770627975463867e-02 1.332330703735351562e+00 3.758078813552856445e-01 8.636928349733352661e-02
6.549000000000000000e+03 4.984095001220703125e+01 1.944607734680175781e+01 -2.808264791965484619e-01 4.163887977600097656e+00 1.164918422698974609e+00 1.213749408721923828e+00
6.550000000000000000e+03 4.307021331787109375e+01 9.344297409057617188e+00 -2.496289908885955811e-01 2.133128166198730469e+00 5.650497078895568848e-01 4.278924465179443359e-01
6.551000000000000000e+03 3.620746612548828125e+01 3.095678567886352539e+00 -6.472917646169662476e-02 7.895932793617248535e-01 2.174592167139053345e-01 6.342603266239166260e-02
6.552000000000000000e+03 3.874696350097656250e+01 6.080844879150390625e+00 -1.417721062898635864e-01 1.195419192314147949e+00 3.160941302776336670e-01 1.968512684106826782e-01
6.553000000000000000e+03 3.576696777343750000e+01 2.728298187255859375e+00 -5.631143227219581604e-02 7.191458940505981445e-01 1.988503485918045044e-01 4.258065670728683472e-02
6.554000000000000000e+03 6.014386749267578125e+01 4.006820678710937500e+00 -5.779299139976501465e-01 6.389458179473876953e+00 1.743458509445190430e+00 1.880508288741111755e-02
6.555000000000000000e+03 5.732011413574218750e+01 2.106265306472778320e+00 -5.312394499778747559e-01 5.768209934234619141e+00 1.571091175079345703e+00 1.271341145038604736e-01
6.556000000000000000e+03 6.086558151245117188e+01 2.244555664062500000e+01 -9.688190221786499023e-01 8.813843727111816406e+00 2.353507280349731445e+00 -3.300614356994628906e-01
6.557000000000000000e+03 3.723681259155273438e+01 8.755934834480285645e-01 -5.901712924242019653e-02 1.046199202537536621e+00 2.961546182632446289e-01 6.376760452985763550e-02
6.558000000000000000e+03 3.781287002563476562e+01 4.104232311248779297e+00 -9.464289993047714233e-02 1.067109465599060059e+00 2.917399704456329346e-01 1.330045610666275024e-01
6.559000000000000000e+03 5.584775161743164062e+01 2.731733894348144531e+01 -3.603242635726928711e-01 9.110309600830078125e+00 2.624995470046997070e+00 1.853307008743286133e+00
6.560000000000000000e+03 6.104682922363281250e+01 2.145202255249023438e+01 -9.958759546279907227e-01 8.591422080993652344e+00 2.278663873672485352e+00 -3.453998863697052002e-01
6.561000000000000000e+03 6.159260177612304688e+01 2.221389579772949219e+01 -9.437226653099060059e-01 8.780880928039550781e+00 2.351147651672363281e+00 -4.966061115264892578e-01
6.562000000000000000e+03 5.937900924682617188e+01 2.776557922363281250e+01 -4.160057008266448975e-01 1.069036388397216797e+01 3.082307577133178711e+00 -1.577857583761215210e-01
6.563000000000000000e+03 6.145641326904296875e+01 1.316423797607421875e+01 -8.838414549827575684e-01 7.273666381835937500e+00 1.916947484016418457e+00 -1.941058039665222168e-01
6.564000000000000000e+03 6.124441909790039062e+01 1.395863151550292969e+01 -9.063271880149841309e-01 7.330219745635986328e+00 1.927167773246765137e+00 -1.934005022048950195e-01
6.565000000000000000e+03 5.906946945190429688e+01 1.784011840820312500e+01 -1.022382140159606934e+00 7.525352478027343750e+00 1.950891137123107910e+00 1.030900925397872925e-01
6.566000000000000000e+03 3.713460540771484375e+01 1.801027655601501465e+00 -6.274359673261642456e-02 1.008555054664611816e+00 2.837434113025665283e-01 7.559482753276824951e-02
6.567000000000000000e+03 5.957054519653320312e+01 1.599311161041259766e+01 -9.797635078430175781e-01 7.313530921936035156e+00 1.900130152702331543e+00 1.014941185712814331e-02
6.568000000000000000e+03 3.894513320922851562e+01 6.544909477233886719e+00 -1.537452042102813721e-01 1.219650030136108398e+00 3.197714388370513916e-01 2.063689380884170532e-01
6.569000000000000000e+03 4.855392456054687500e+01 -3.847647905349731445e+00 -3.204953372478485107e-01 3.728518486022949219e+00 1.022406935691833496e+00 1.286492794752120972e-01
6.570000000000000000e+03 6.128008651733398438e+01 6.555911064147949219e+00 -6.449288725852966309e-01 6.705891132354736328e+00 1.818288683891296387e+00 -7.259912788867950439e-02
6.571000000000000000e+03 6.035694122314453125e+01 9.582245826721191406e+00 -7.664172649383544922e-01 6.754502296447753906e+00 1.796425580978393555e+00 -4.820058122277259827e-02
6.572000000000000000e+03 4.690478515625000000e+01 -2.026308298110961914e+00 -2.910517156124114990e-01 3.313486337661743164e+00 9.067304134368896484e-01 1.598949730396270752e-01
6.573000000000000000e+03 4.569103240966796875e+01 -1.959449887275695801e+00 -2.586838006973266602e-01 3.023971080780029297e+00 8.295862078666687012e-01 1.527714282274246216e-01
6.574000000000000000e+03 6.043758392333984375e+01 1.614112472534179688e+01 -9.784888625144958496e-01 7.489216327667236328e+00 1.953218221664428711e+00 -1.263829022645950317e-01
6.575000000000000000e+03 6.079506301879882812e+01 1.561879444122314453e+01 -9.649257063865661621e-01 7.474560260772705078e+00 1.952890396118164062e+00 -1.611937433481216431e-01
6.576000000000000000e+03 4.222094345092773438e+01 6.218569755554199219e+00 -2.049278318881988525e-01 2.019048452377319336e+00 5.442361831665039062e-01 3.290061056613922119e-01
6.577000000000000000e+03 4.332965469360351562e+01 5.376223921775817871e-01 -1.955808699131011963e-01 2.414965152740478516e+00 6.658152937889099121e-01 1.910859793424606323e-01
6.578000000000000000e+03 6.024203872680664062e+01 1.039746284484863281e+01 -7.981350421905517578e-01 6.804903984069824219e+00 1.802030682563781738e+00 -4.651667177677154541e-02
6.579000000000000000e+03 6.130781555175781250e+01 9.676004409790039062e+00 -7.573876976966857910e-01 6.924643516540527344e+00 1.850176692008972168e+00 -1.246776804327964783e-01
6.580000000000000000e+03 6.126064682006835938e+01 1.056777763366699219e+01 -7.899476289749145508e-01 6.992214202880859375e+00 1.860679984092712402e+00 -1.360033154487609863e-01
6.581000000000000000e+03 5.143814086914062500e+01 -6.572101593017578125e+00 -3.614739775657653809e-01 4.418092727661132812e+00 1.216985583305358887e+00 1.096179038286209106e-01
6.582000000000000000e+03 5.872597122192382812e+01 3.636011123657226562e+00 -5.737342834472656250e-01 6.092009544372558594e+00 1.655482530593872070e+00 7.809605449438095093e-02
6.583000000000000000e+03 6.029217910766601562e+01 5.511159420013427734e+00 -6.231443881988525391e-01 6.472807884216308594e+00 1.754899024963378906e+00 -1.975568011403083801e-03
6.584000000000000000e+03 5.632238006591796875e+01 -1.113100624084472656e+01 -3.322339951992034912e-01 5.470239639282226562e+00 1.541401743888854980e+00 1.552234888076782227e-01
6.585000000000000000e+03 5.332598876953125000e+01 -8.980402946472167969e+00 -3.674476146697998047e-01 4.843322277069091797e+00 1.342762351036071777e+00 1.206159368157386780e-01
6.586000000000000000e+03 5.924998092651367188e+01 4.512403488159179688e+00 -5.991322398185729980e-01 6.249174594879150391e+00 1.695012688636779785e+00 4.605396836996078491e-02
6.587000000000000000e+03 5.964404678344726562e+01 3.022850751876831055e+00 -5.516291856765747070e-01 6.248981952667236328e+00 1.709205865859985352e+00 4.464738443493843079e-02
6.588000000000000000e+03 6.131748962402343750e+01 -1.189511680603027344e+01 -2.831909358501434326e-01 6.365771293640136719e+00 1.824774026870727539e+00 2.100096940994262695e-01
6.589000000000000000e+03 5.931011962890625000e+01 -1.055561637878417969e+01 -3.285160362720489502e-01 6.016916751861572266e+00 1.706520318984985352e+00 1.806859374046325684e-01
6.590000000000000000e+03 4.522518539428710938e+01 -1.259722232818603516e+00 -2.439407557249069214e-01 2.908435821533203125e+00 7.993485331535339355e-01 1.675485372543334961e-01
6.591000000000000000e+03 4.305083847045898438e+01 1.303834915161132812e+00 -1.943329870700836182e-01 2.328845977783203125e+00 6.403539180755615234e-01 2.085703462362289429e-01
6.592000000000000000e+03 5.890948486328125000e+01 -7.486109733581542969e+00 -3.566714823246002197e-01 5.925351142883300781e+00 1.670603871345520020e+00 1.482272744178771973e-01
6.593000000000000000e+03 5.782213592529296875e+01 -3.823627710342407227e+00 -4.084748327732086182e-01 5.749718189239501953e+00 1.602373003959655762e+00 1.285637170076370239e-01
6.594000000000000000e+03 5.914448165893554688e+01 -4.951835632324218750e+00 -3.817665874958038330e-01 5.987975120544433594e+00 1.681862592697143555e+00 1.184173524379730225e-01
6.595000000000000000e+03 4.792566680908203125e+01 -3.289701223373413086e+00 -3.114007711410522461e-01 3.583811759948730469e+00 9.817233085632324219e-01 1.390895247459411621e-01
6.596000000000000000e+03 6.035744857788085938e+01 7.109155654907226562e+00 -6.737732887268066406e-01 6.580041408538818359e+00 1.771880507469177246e+00 -2.424798719584941864e-02
6.597000000000000000e+03 5.411777877807617188e+01 -9.709622383117675781e+00 -3.683225512504577637e-01 5.026621341705322266e+00 1.397489666938781738e+00 1.119273900985717773e-01
6.598000000000000000e+03 5.302806472778320312e+01 -7.346674919128417969e+00 -3.737423717975616455e-01 4.747579574584960938e+00 1.312151074409484863e+00 1.281069666147232056e-01
6.599000000000000000e+03 5.762574768066406250e+01 -1.152770161628723145e+00 -4.597685039043426514e-01 5.749720096588134766e+00 1.586985468864440918e+00 1.211751550436019897e-01
6.600000000000000000e+03 5.542977905273437500e+01 2.706021308898925781e+01 -3.003792464733123779e-01 8.633713722229003906e+00 2.500000238418579102e+00 1.959533572196960449e+00
6.601000000000000000e+03 5.735768127441406250e+01 2.709700012207031250e+01 -6.128085851669311523e-01 9.922419548034667969e+00 2.792883396148681641e+00 9.873663783073425293e-01
6.602000000000000000e+03 5.245558547973632812e+01 2.129493331909179688e+01 -4.308554530143737793e-01 5.518329620361328125e+00 1.526242256164550781e+00 1.386730074882507324e+00
6.603000000000000000e+03 5.204411315917968750e+01 2.140826988220214844e+01 -3.666738569736480713e-01 5.294779777526855469e+00 1.478431701660156250e+00 1.423417568206787109e+00
6.604000000000000000e+03 5.690785980224609375e+01 2.870244407653808594e+01 -3.198714554309844971e-01 1.075704669952392578e+01 3.131152629852294922e+00 1.421424508094787598e+00
6.605000000000000000e+03 5.289450454711914062e+01 2.118657875061035156e+01 -4.985066354274749756e-01 5.748910427093505859e+00 1.575121045112609863e+00 1.338044762611389160e+00
6.606000000000000000e+03 5.505433273315429688e+01 2.684214591979980469e+01 -2.411468476057052612e-01 8.224071502685546875e+00 2.394877433776855469e+00 2.047433614730834961e+00
6.607000000000000000e+03 5.296062850952148438e+01 2.166214370727539062e+01 -4.706285595893859863e-01 5.829905509948730469e+00 1.607783079147338867e+00 1.399459242820739746e+00
6.608000000000000000e+03 5.613194656372070312e+01 2.603379249572753906e+01 -5.763083696365356445e-01 8.734291076660156250e+00 2.447394847869873047e+00 1.451593756675720215e+00
6.609000000000000000e+03 5.922799301147460938e+01 2.244314193725585938e+01 -1.006273269653320312e+00 8.605495452880859375e+00 2.279766559600830078e+00 1.025752052664756775e-01
6.610000000000000000e+03 4.529185867309570312e+01 1.335761356353759766e+01 -2.795064151287078857e-01 2.594544887542724609e+00 6.945115327835083008e-01 6.472944021224975586e-01
6.611000000000000000e+03 4.601073837280273438e+01 1.388095283508300781e+01 -2.938608825206756592e-01 2.823126554489135742e+00 7.587797045707702637e-01 6.980385184288024902e-01
6.612000000000000000e+03 5.740658950805664062e+01 2.871612167358398438e+01 -3.450337350368499756e-01 1.105771255493164062e+01 3.213803529739379883e+00 1.032446503639221191e+00
6.613000000000000000e+03 5.670499801635742188e+01 2.898994636535644531e+01 -2.467392832040786743e-01 1.087799358367919922e+01 3.189376354217529297e+00 1.637977480888366699e+00
6.614000000000000000e+03 5.359688186645507812e+01 2.350817108154296875e+01 -3.936390578746795654e-01 6.412906169891357422e+00 1.805780172348022461e+00 1.618269324302673340e+00
6.615000000000000000e+03 5.452343750000000000e+01 2.380788993835449219e+01 -5.197420716285705566e-01 7.048779487609863281e+00 1.958711147308349609e+00 1.533156633377075195e+00
6.616000000000000000e+03 5.351667404174804688e+01 2.250847434997558594e+01 -4.809395968914031982e-01 6.231230735778808594e+00 1.725087285041809082e+00 1.465802073478698730e+00
6.617000000000000000e+03 5.488745498657226562e+01 2.570607185363769531e+01 -3.739158511161804199e-01 7.759594917297363281e+00 2.215703725814819336e+00 1.828078985214233398e+00
6.618000000000000000e+03 5.488515472412109375e+01 2.527168273925781250e+01 -4.278703331947326660e-01 7.611924648284912109e+00 2.155216217041015625e+00 1.719002366065979004e+00
6.619000000000000000e+03 5.531684494018554688e+01 2.672233581542968750e+01 -3.268706500530242920e-01 8.394313812255859375e+00 2.420233011245727539e+00 1.918561697006225586e+00
6.620000000000000000e+03 5.517733383178710938e+01 2.616428947448730469e+01 -3.713864684104919434e-01 8.110198974609375000e+00 2.321643590927124023e+00 1.847233057022094727e+00
6.621000000000000000e+03 5.432567214965820312e+01 2.315299797058105469e+01 -5.490674972534179688e-01 6.806019783020019531e+00 1.877085685729980469e+00 1.445147037506103516e+00
6.622000000000000000e+03 5.345749664306640625e+01 2.203837585449218750e+01 -5.136973857879638672e-01 6.150063514709472656e+00 1.690909743309020996e+00 1.404974102973937988e+00
6.623000000000000000e+03 5.407997131347656250e+01 2.362307739257812500e+01 -4.641487896442413330e-01 6.744863510131835938e+00 1.884214401245117188e+00 1.573947548866271973e+00
6.624000000000000000e+03 5.395850372314453125e+01 2.239979743957519531e+01 -5.536449551582336426e-01 6.468560695648193359e+00 1.774474740028381348e+00 1.401420354843139648e+00
6.625000000000000000e+03 5.009604263305664062e+01 1.898901367187500000e+01 -3.370673060417175293e-01 4.280362129211425781e+00 1.182988405227661133e+00 1.164827585220336914e+00
6.626000000000000000e+03 5.023534774780273438e+01 1.968949508666992188e+01 -3.012935221195220947e-01 4.335085868835449219e+00 1.210137724876403809e+00 1.238518476486206055e+00
6.627000000000000000e+03 5.697274398803710938e+01 2.816766166687011719e+01 -4.238083958625793457e-01 1.041687488555908203e+01 2.997920036315917969e+00 1.321951031684875488e+00
6.628000000000000000e+03 5.636405944824218750e+01 2.841304206848144531e+01 -3.017692267894744873e-01 1.020703220367431641e+01 2.971578836441040039e+00 1.788325905799865723e+00
6.629000000000000000e+03 4.961686325073242188e+01 1.874808883666992188e+01 -3.104857206344604492e-01 4.067202568054199219e+00 1.127015113830566406e+00 1.143457055091857910e+00
6.630000000000000000e+03 4.806535720825195312e+01 1.592840003967285156e+01 -3.291451334953308105e-01 3.464583635330200195e+00 9.406315088272094727e-01 8.902944922447204590e-01
6.631000000000000000e+03 5.068518447875976562e+01 2.051193428039550781e+01 -2.793457210063934326e-01 4.549968719482421875e+00 1.281186819076538086e+00 1.331107258796691895e+00
6.632000000000000000e+03 6.053244400024414062e+01 2.800514030456542969e+01 -1.951441019773483276e-01 1.062606239318847656e+01 3.129275560379028320e+00 -7.054159045219421387e-01
6.633000000000000000e+03 6.004058074951171875e+01 2.768542098999023438e+01 -3.412746191024780273e-01 1.060889625549316406e+01 3.080286502838134766e+00 -4.715945124626159668e-01
6.634000000000000000e+03 4.798928833007812500e+01 1.697171783447265625e+01 -2.811000645160675049e-01 3.396311998367309570e+00 9.345635175704956055e-01 9.517241716384887695e-01
6.635000000000000000e+03 4.399303054809570312e+01 1.241945552825927734e+01 -2.544205486774444580e-01 2.230725765228271484e+00 5.928915739059448242e-01 5.475886464118957520e-01
6.636000000000000000e+03 4.769103622436523438e+01 1.521629524230957031e+01 -3.364831209182739258e-01 3.362487554550170898e+00 9.078013896942138672e-01 8.339814543724060059e-01
6.637000000000000000e+03 4.706510162353515625e+01 1.508198642730712891e+01 -3.073218762874603271e-01 3.124398469924926758e+00 8.451229929924011230e-01 8.012011647224426270e-01
6.638000000000000000e+03 4.258209991455078125e+01 9.499554634094238281e+00 -2.403360307216644287e-01 1.985844612121582031e+00 5.236526131629943848e-01 4.114573597908020020e-01
6.639000000000000000e+03 4.095301437377929688e+01 8.293557167053222656e+00 -2.039934843778610229e-01 1.611777901649475098e+00 4.223353266716003418e-01 3.162344098091125488e-01
6.640000000000000000e+03 4.227223968505859375e+01 8.576323509216308594e+00 -2.302199006080627441e-01 1.937214493751525879e+00 5.120983719825744629e-01 3.767511844635009766e-01
6.641000000000000000e+03 4.225747299194335938e+01 1.121121978759765625e+01 -2.303108870983123779e-01 1.809830546379089355e+00 4.738559126853942871e-01 4.269813895225524902e-01
6.642000000000000000e+03 4.147272109985351562e+01 7.489529132843017578e+00 -2.036234140396118164e-01 1.783571362495422363e+00 4.739843606948852539e-01 3.264765441417694092e-01
6.643000000000000000e+03 4.322202301025390625e+01 1.210216617584228516e+01 -2.424776107072830200e-01 2.024574756622314453e+00 5.346291661262512207e-01 4.950727820396423340e-01
6.644000000000000000e+03 4.246167373657226562e+01 1.166603755950927734e+01 -2.354454100131988525e-01 1.835934877395629883e+00 4.801468551158905029e-01 4.460355937480926514e-01
6.645000000000000000e+03 6.190617752075195312e+01 2.041809082031250000e+01 -9.813929796218872070e-01 8.422389030456542969e+00 2.232298851013183594e+00 -4.909469783306121826e-01
6.646000000000000000e+03 6.031193923950195312e+01 1.929657745361328125e+01 -1.035902857780456543e+00 8.019220352172851562e+00 2.094995260238647461e+00 -1.267228573560714722e-01
6.647000000000000000e+03 4.205296707153320312e+01 1.178398704528808594e+01 -2.329709529876708984e-01 1.696741819381713867e+00 4.391312599182128906e-01 4.143911898136138916e-01
6.648000000000000000e+03 4.009698486328125000e+01 6.709534645080566406e+00 -1.700913459062576294e-01 1.477279901504516602e+00 3.921565711498260498e-01 2.607034742832183838e-01
6.649000000000000000e+03 3.859190368652343750e+01 5.279074192047119141e+00 -1.282932460308074951e-01 1.186778068542480469e+00 3.175454437732696533e-01 1.774755120277404785e-01
6.650000000000000000e+03 3.953020095825195312e+01 6.564188480377197266e+00 -1.600411683320999146e-01 1.341504335403442383e+00 3.544389605522155762e-01 2.370605170726776123e-01
6.651000000000000000e+03 3.930776596069335938e+01 9.436621665954589844e-01 -9.465844184160232544e-02 1.476784586906433105e+00 4.146378636360168457e-01 1.167160272598266602e-01
6.652000000000000000e+03 5.978302764892578125e+01 2.813242149353027344e+01 -2.621015012264251709e-01 1.084637737274169922e+01 3.175282716751098633e+00 -4.151732325553894043e-01
6.653000000000000000e+03 4.857204437255859375e+01 1.831408119201660156e+01 -2.489703446626663208e-01 3.592821598052978516e+00 1.003155350685119629e+00 1.068477392196655273e+00
6.654000000000000000e+03 4.911661148071289062e+01 1.852516365051269531e+01 -2.792072296142578125e-01 3.843727588653564453e+00 1.069356083869934082e+00 1.102618455886840820e+00
6.655000000000000000e+03 3.915372467041015625e+01 5.656291961669921875e+00 -1.406693011522293091e-01 1.300029039382934570e+00 3.478079438209533691e-01 2.067212313413619995e-01
6.656000000000000000e+03 3.869451904296875000e+01 1.296395063400268555e+00 -8.820869028568267822e-02 1.333913803100585938e+00 3.737115263938903809e-01 1.133297383785247803e-01
6.657000000000000000e+03 4.227098464965820312e+01 1.004684686660766602e+00 -1.697875261306762695e-01 2.163791894912719727e+00 5.982013344764709473e-01 1.871830224990844727e-01
6.658000000000000000e+03 3.670410919189453125e+01 3.431394815444946289e+00 -7.119701802730560303e-02 8.661304116249084473e-01 2.384800165891647339e-01 8.417984098196029663e-02
6.659000000000000000e+03 4.266499328613281250e+01 6.755559444427490234e+00 -2.222168743610382080e-01 2.123537540435791016e+00 5.703961849212646484e-01 3.540798127651214600e-01
6.660000000000000000e+03 4.255028152465820312e+01 1.944697946310043335e-01 -1.737167388200759888e-01 2.239540815353393555e+00 6.197472214698791504e-01 1.684610545635223389e-01
6.661000000000000000e+03 4.349796295166015625e+01 1.260381984710693359e+01 -2.403673976659774780e-01 2.081195592880249023e+00 5.522484779357910156e-01 5.201708674430847168e-01
6.662000000000000000e+03 6.007127761840820312e+01 2.235480880737304688e+01 -9.987761378288269043e-01 8.695886611938476562e+00 2.309133291244506836e+00 -1.275598853826522827e-01
6.663000000000000000e+03 6.022554779052734375e+01 2.328254127502441406e+01 -9.452638030052185059e-01 8.973047256469726562e+00 2.408335208892822266e+00 -2.007139921188354492e-01
6.664000000000000000e+03 6.083843231201171875e+01 2.585151481628417969e+01 -6.455277800559997559e-01 9.797270774841308594e+00 2.745522737503051758e+00 -5.583412051200866699e-01
6.665000000000000000e+03 5.716820144653320312e+01 2.843450355529785156e+01 -3.990100026130676270e-01 1.070746707916259766e+01 3.092536926269531250e+00 1.209185600280761719e+00
6.666000000000000000e+03 5.664181137084960938e+01 4.347226142883300781e+00 -5.895098447799682617e-01 5.690132617950439453e+00 1.530186772346496582e+00 1.630632132291793823e-01
6.667000000000000000e+03 5.726542663574218750e+01 4.362522661685943604e-01 -4.961307644844055176e-01 5.690034866333007812e+00 1.558171153068542480e+00 1.275413334369659424e-01
6.668000000000000000e+03 4.844953155517578125e+01 -2.672497987747192383e+00 -3.222658336162567139e-01 3.698107004165649414e+00 1.012752294540405273e+00 1.563396304845809937e-01
6.669000000000000000e+03 4.996603393554687500e+01 -4.850530624389648438e+00 -3.439528048038482666e-01 4.068824768066406250e+00 1.117461562156677246e+00 1.231398507952690125e-01
6.670000000000000000e+03 4.067092895507812500e+01 1.131525635719299316e+00 -1.307508498430252075e-01 1.785540223121643066e+00 4.964368045330047607e-01 1.601410955190658569e-01
6.671000000000000000e+03 5.382746887207031250e+01 2.052821350097656250e+01 -6.540011763572692871e-01 6.150938510894775391e+00 1.649081230163574219e+00 1.150929927825927734e+00
6.672000000000000000e+03 6.070474243164062500e+01 1.770086669921875000e+01 -1.012616515159606934e+00 7.779447078704833984e+00 2.030049085617065430e+00 -1.832263469696044922e-01
6.673000000000000000e+03 6.050476455688476562e+01 2.201935005187988281e+01 -9.991167783737182617e-01 8.660227775573730469e+00 2.298333406448364258e+00 -2.203479260206222534e-01
6.674000000000000000e+03 6.034310913085937500e+01 1.399653530120849609e+01 -9.209805727005004883e-01 7.184850692749023438e+00 1.879161000251770020e+00 -8.267000317573547363e-02
6.675000000000000000e+03 4.596228027343750000e+01 -7.213735580444335938e-01 -2.694946527481079102e-01 3.080299854278564453e+00 8.432415723800659180e-01 1.921438127756118774e-01
6.676000000000000000e+03 5.990181732177734375e+01 1.775763893127441406e+01 -1.021459817886352539e+00 7.670310497283935547e+00 1.994655251502990723e+00 -4.540942981839179993e-02
6.677000000000000000e+03 6.102264785766601562e+01 2.201262664794921875e+01 -9.797744750976562500e-01 8.699858665466308594e+00 2.316025257110595703e+00 -3.577816486358642578e-01
6.678000000000000000e+03 6.112503814697265625e+01 1.207768344879150391e+01 -8.459905385971069336e-01 7.130830287933349609e+00 1.885452032089233398e+00 -1.560009717941284180e-01
6.679000000000000000e+03 6.017801666259765625e+01 1.214297676086425781e+01 -8.582468032836914062e-01 6.931352138519287109e+00 1.821931719779968262e+00 -4.969706758856773376e-02
6.680000000000000000e+03 3.952672958374023438e+01 5.130031585693359375e+00 -1.390852034091949463e-01 1.405120015144348145e+00 3.798104226589202881e-01 2.131023555994033813e-01
6.681000000000000000e+03 4.480008316040039062e+01 -5.401809215545654297e-01 -2.366009652614593506e-01 2.793149709701538086e+00 7.669646143913269043e-01 1.827431470155715942e-01
6.682000000000000000e+03 4.442045211791992188e+01 1.910484433174133301e-01 -2.272135168313980103e-01 2.691877126693725586e+00 7.393990755081176758e-01 1.998226195573806763e-01
6.683000000000000000e+03 5.792257308959960938e+01 4.234698772430419922e+00 -5.913861989974975586e-01 5.960583686828613281e+00 1.610759258270263672e+00 1.086731031537055969e-01
6.684000000000000000e+03 3.757662200927734375e+01 2.278578996658325195e+00 -7.252644002437591553e-02 1.074002027511596680e+00 3.004426658153533936e-01 1.011634096503257751e-01
6.685000000000000000e+03 3.811054229736328125e+01 1.732784032821655273e+00 -7.458940893411636353e-02 1.198457837104797363e+00 3.371605277061462402e-01 1.054426804184913635e-01
6.686000000000000000e+03 6.038972473144531250e+01 7.948238849639892578e+00 -7.068960070610046387e-01 6.643358707427978516e+00 1.780938863754272461e+00 -3.543957322835922241e-02
6.687000000000000000e+03 5.868827819824218750e+01 5.673125743865966797e+00 -6.346384286880493164e-01 6.185787200927734375e+00 1.665344595909118652e+00 7.111424952745437622e-02
6.688000000000000000e+03 5.788932418823242188e+01 -2.544869661331176758e+00 -4.435781538486480713e-01 5.760253429412841797e+00 1.595002532005310059e+00 1.245171725749969482e-01
6.689000000000000000e+03 5.623954010009765625e+01 -8.082854270935058594e+00 -3.770790994167327881e-01 5.424686431884765625e+00 1.514282107353210449e+00 1.486946046352386475e-01
6.690000000000000000e+03 5.930775070190429688e+01 1.015657043457031250e+01 -7.942054271697998047e-01 6.593134880065917969e+00 1.739678859710693359e+00 3.985065594315528870e-02
6.691000000000000000e+03 5.604959869384765625e+01 -3.329921960830688477e+00 -4.194066822528839111e-01 5.388047695159912109e+00 1.490592241287231445e+00 1.318749636411666870e-01
6.692000000000000000e+03 5.222438049316406250e+01 -5.362152099609375000e+00 -3.758473694324493408e-01 4.565618991851806641e+00 1.256931424140930176e+00 1.303299218416213989e-01
6.693000000000000000e+03 5.175849533081054688e+01 -4.781504631042480469e+00 -3.700672388076782227e-01 4.476422786712646484e+00 1.231906652450561523e+00 1.377017796039581299e-01
6.694000000000000000e+03 6.010502624511718750e+01 1.318358993530273438e+01 -8.919405341148376465e-01 7.054233551025390625e+00 1.848687887191772461e+00 -5.850424990057945251e-02
6.695000000000000000e+03 5.654658508300781250e+01 -6.915194034576416016e+00 -3.812330961227416992e-01 5.481422424316406250e+00 1.530056715011596680e+00 1.397035866975784302e-01
6.696000000000000000e+03 5.993603134155273438e+01 -1.349247550964355469e+01 -2.679471969604492188e-01 6.142997264862060547e+00 1.762514948844909668e+00 2.259448170661926270e-01
6.697000000000000000e+03 5.109427642822265625e+01 -4.393663406372070312e+00 -3.671331703662872314e-01 4.326196670532226562e+00 1.187719106674194336e+00 1.487856954336166382e-01
6.698000000000000000e+03 4.905060958862304688e+01 -3.097679853439331055e+00 -3.384880423545837402e-01 3.838515758514404297e+00 1.050008296966552734e+00 1.490467041730880737e-01
6.699000000000000000e+03 5.454973983764648438e+01 -5.415429115295410156e+00 -4.008394777774810791e-01 5.067757606506347656e+00 1.400075435638427734e+00 1.370655298233032227e-01
6.700000000000000000e+03 5.152204132080078125e+01 -3.615075349807739258e+00 -3.808405697345733643e-01 4.423141479492187500e+00 1.212690234184265137e+00 1.558979749679565430e-01
6.701000000000000000e+03 5.888458251953125000e+01 -1.191948604583740234e+01 -3.046167194843292236e-01 5.946923732757568359e+00 1.692692041397094727e+00 1.925053298473358154e-01
6.702000000000000000e+03 5.506349945068359375e+01 -1.053495693206787109e+01 -3.560650050640106201e-01 5.220383167266845703e+00 1.459295511245727539e+00 1.455748528242111206e-01
6.703000000000000000e+03 5.687530899047851562e+01 -9.759880065917968750e+00 -3.566090166568756104e-01 5.557823181152343750e+00 1.560364246368408203e+00 1.605974137783050537e-01
6.704000000000000000e+03 5.561161804199218750e+01 2.657439231872558594e+01 -4.098510146141052246e-01 8.576376914978027344e+00 2.449957847595214844e+00 1.788564324378967285e+00
6.705000000000000000e+03 5.944283676147460938e+01 2.844724082946777344e+01 -2.207028716802597046e-01 1.104645538330078125e+01 3.247725725173950195e+00 -3.025011122226715088e-01
6.706000000000000000e+03 5.618900680541992188e+01 2.715682601928710938e+01 -4.513916373252868652e-01 9.300901412963867188e+00 2.654853105545043945e+00 1.646469593048095703e+00
6.707000000000000000e+03 5.573819732666015625e+01 2.694324493408203125e+01 -3.867538273334503174e-01 8.824093818664550781e+00 2.531202077865600586e+00 1.820283651351928711e+00
6.708000000000000000e+03 5.281682205200195312e+01 2.070923995971679688e+01 -5.197797417640686035e-01 5.665350437164306641e+00 1.543671250343322754e+00 1.283860683441162109e+00
6.709000000000000000e+03 5.235628128051757812e+01 2.082673645019531250e+01 -4.558113515377044678e-01 5.435378074645996094e+00 1.493870019912719727e+00 1.331353425979614258e+00
6.710000000000000000e+03 5.340327453613281250e+01 2.156852912902832031e+01 -5.398373603820800781e-01 6.066191196441650391e+00 1.657906055450439453e+00 1.339266657829284668e+00
6.711000000000000000e+03 5.488630294799804688e+01 2.480103302001953125e+01 -4.817865788936614990e-01 7.478868484497070312e+00 2.099124670028686523e+00 1.628365635871887207e+00
6.712000000000000000e+03 5.404626846313476562e+01 2.285094451904296875e+01 -5.292059779167175293e-01 6.590737342834472656e+00 1.818459391593933105e+00 1.463587403297424316e+00
6.713000000000000000e+03 5.445987319946289062e+01 2.273331451416015625e+01 -6.084394454956054688e-01 6.824867725372314453e+00 1.864928483963012695e+00 1.353537321090698242e+00
6.714000000000000000e+03 5.444388198852539062e+01 2.429978942871093750e+01 -4.611915349960327148e-01 7.088432788848876953e+00 1.988172411918640137e+00 1.634075641632080078e+00
6.715000000000000000e+03 4.793416213989257812e+01 1.634520149230957031e+01 -3.070496618747711182e-01 3.394305467605590820e+00 9.261767268180847168e-01 9.030503034591674805e-01
6.716000000000000000e+03 5.390275573730468750e+01 2.194415664672851562e+01 -5.842540860176086426e-01 6.377040386199951172e+00 1.737835884094238281e+00 1.341052889823913574e+00
6.717000000000000000e+03 5.492879867553710938e+01 2.390824508666992188e+01 -5.839133262634277344e-01 7.342626571655273438e+00 2.027614116668701172e+00 1.464102745056152344e+00
6.718000000000000000e+03 5.491314697265625000e+01 2.264211654663085938e+01 -6.717066764831542969e-01 7.031176567077636719e+00 1.907840967178344727e+00 1.256874442100524902e+00
6.719000000000000000e+03 5.524374008178710938e+01 2.572680854797363281e+01 -4.457517266273498535e-01 8.002780914306640625e+00 2.267108678817749023e+00 1.722249627113342285e+00
6.720000000000000000e+03 5.769487762451171875e+01 2.847062301635742188e+01 -4.019676446914672852e-01 1.095201396942138672e+01 3.165014028549194336e+00 8.174977302551269531e-01
6.721000000000000000e+03 5.586832046508789062e+01 2.615093231201171875e+01 -5.152656435966491699e-01 8.610879898071289062e+00 2.428684234619140625e+00 1.594853997230529785e+00
6.722000000000000000e+03 5.595368194580078125e+01 2.646841430664062500e+01 -4.936257302761077881e-01 8.768478393554687500e+00 2.482455730438232422e+00 1.616023898124694824e+00
6.723000000000000000e+03 5.643504714965820312e+01 2.816098403930664062e+01 -3.558549582958221436e-01 1.004452896118164062e+01 2.906602382659912109e+00 1.681068778038024902e+00
6.724000000000000000e+03 4.875175476074218750e+01 1.693511962890625000e+01 -3.404613435268402100e-01 3.738675117492675781e+00 1.019464135169982910e+00 9.718670845031738281e-01
6.725000000000000000e+03 5.056755065917968750e+01 1.929104232788085938e+01 -3.597503900527954102e-01 4.500343799591064453e+00 1.242178082466125488e+00 1.205977201461791992e+00
6.726000000000000000e+03 6.094437789916992188e+01 2.712273597717285156e+01 -4.003924429416656494e-01 1.018251991271972656e+01 2.934638261795043945e+00 -7.476295232772827148e-01
6.727000000000000000e+03 5.671356582641601562e+01 2.823894309997558594e+01 -3.948126137256622314e-01 1.033500671386718750e+01 2.982058286666870117e+00 1.489927291870117188e+00
6.728000000000000000e+03 5.744367980957031250e+01 2.817938613891601562e+01 -4.559664726257324219e-01 1.065907287597656250e+01 3.060932159423828125e+00 9.883459806442260742e-01
6.729000000000000000e+03 6.067785644531250000e+01 2.506290054321289062e+01 -7.649474143981933594e-01 9.549748420715332031e+00 2.635440349578857422e+00 -4.410647749900817871e-01
6.730000000000000000e+03 5.160646438598632812e+01 2.003664779663085938e+01 -4.209390580654144287e-01 5.014828205108642578e+00 1.378166794776916504e+00 1.271954059600830078e+00
6.731000000000000000e+03 5.272638702392578125e+01 2.023460578918457031e+01 -5.405911803245544434e-01 5.580189228057861328e+00 1.511879444122314453e+00 1.231781482696533203e+00
6.732000000000000000e+03 4.297189712524414062e+01 1.157796478271484375e+01 -2.428233325481414795e-01 1.985002875328063965e+00 5.226538777351379395e-01 4.708305001258850098e-01
6.733000000000000000e+03 4.376026535034179688e+01 1.190579605102539062e+01 -2.549979388713836670e-01 2.200744867324829102e+00 5.837240815162658691e-01 5.208429694175720215e-01
6.734000000000000000e+03 4.225651168823242188e+01 8.071038246154785156e+00 -2.259022146463394165e-01 1.962564110755920410e+00 5.209985375404357910e-01 3.664302825927734375e-01
6.735000000000000000e+03 4.252276992797851562e+01 1.058822345733642578e+01 -2.381721287965774536e-01 1.919420957565307617e+00 5.043746232986450195e-01 4.298183619976043701e-01
6.736000000000000000e+03 4.274261474609375000e+01 8.200305938720703125e+00 -2.381926625967025757e-01 2.099973678588867188e+00 5.585342645645141602e-01 3.882807195186614990e-01
6.737000000000000000e+03 3.724744796752929688e+01 3.764845132827758789e+00 -8.393424004316329956e-02 9.567089676856994629e-01 2.618324160575866699e-01 1.052202582359313965e-01
6.738000000000000000e+03 4.046995544433593750e+01 4.955535411834716797e+00 -1.554409116506576538e-01 1.623539209365844727e+00 4.404294788837432861e-01 2.412009537220001221e-01
6.739000000000000000e+03 4.880463027954101562e+01 1.777489089965820312e+01 -3.011088669300079346e-01 3.710956335067749023e+00 1.022954225540161133e+00 1.034061312675476074e+00
6.740000000000000000e+03 4.933067703247070312e+01 1.804809761047363281e+01 -3.252587914466857910e-01 3.945291519165039062e+00 1.086009860038757324e+00 1.078813433647155762e+00
6.741000000000000000e+03 4.833069610595703125e+01 1.659061813354492188e+01 -3.250312209129333496e-01 3.564257860183715820e+00 9.717679619789123535e-01 9.378486275672912598e-01
6.742000000000000000e+03 5.911048507690429688e+01 2.864169883728027344e+01 -2.053193897008895874e-01 1.121817970275878906e+01 3.303858280181884766e+00 -1.505443751811981201e-01
6.743000000000000000e+03 5.650533294677734375e+01 2.698948860168457031e+01 -5.293030738830566406e-01 9.413424491882324219e+00 2.665236234664916992e+00 1.410439372062683105e+00
6.744000000000000000e+03 4.054664230346679688e+01 6.885863780975341797e+00 -1.777642965316772461e-01 1.577968001365661621e+00 4.200611114501953125e-01 2.881683111190795898e-01
6.745000000000000000e+03 4.402950286865234375e+01 1.001734828948974609e+01 -2.736425101757049561e-01 2.366713285446166992e+00 6.279212236404418945e-01 4.886346161365509033e-01
6.746000000000000000e+03 3.974571228027343750e+01 5.990612030029296875e+00 -1.542043536901473999e-01 1.413883566856384277e+00 3.779037594795227051e-01 2.357489764690399170e-01
6.747000000000000000e+03 6.071037292480468750e+01 2.751230239868164062e+01 -2.930629253387451172e-01 1.044061851501464844e+01 3.044266700744628906e+00 -6.992054581642150879e-01
6.748000000000000000e+03 5.177772140502929688e+01 2.050768089294433594e+01 -4.086481630802154541e-01 5.122852325439453125e+00 1.414261221885681152e+00 1.316340923309326172e+00
6.749000000000000000e+03 6.044227981567382812e+01 2.418701934814453125e+01 -8.754053711891174316e-01 9.271034240722656250e+00 2.518688440322875977e+00 -3.047749400138854980e-01
6.750000000000000000e+03 6.111832427978515625e+01 2.629483795166015625e+01 -5.184962749481201172e-01 9.942963600158691406e+00 2.827340126037597656e+00 -7.028779387474060059e-01
6.751000000000000000e+03 3.859098815917968750e+01 3.087176322937011719e+00 -9.297364205121994019e-02 1.266999602317810059e+00 3.522077798843383789e-01 1.423635631799697876e-01
6.752000000000000000e+03 4.013630676269531250e+01 1.184181213378906250e+00 -1.140724122524261475e-01 1.667968869209289551e+00 4.661689400672912598e-01 1.487955302000045776e-01
6.753000000000000000e+03 4.302957916259765625e+01 1.042097091674804688e+01 -2.504681348800659180e-01 2.068634986877441406e+00 5.454500317573547363e-01 4.521232843399047852e-01
6.754000000000000000e+03 3.854979324340820312e+01 2.214697599411010742e+00 -8.679152280092239380e-02 1.283243060111999512e+00 3.589354455471038818e-01 1.273577958345413208e-01
6.755000000000000000e+03 5.945121383666992188e+01 1.410698318481445312e+01 -9.240258336067199707e-01 7.027428150177001953e+00 1.831020712852478027e+00 1.919535174965858459e-02
6.756000000000000000e+03 6.048802947998046875e+01 2.674459648132324219e+01 -5.179290771484375000e-01 1.016193008422851562e+01 2.893200397491455078e+00 -5.437624454498291016e-01
6.757000000000000000e+03 5.884100341796875000e+01 2.839649963378906250e+01 -3.220796287059783936e-01 1.106859207153320312e+01 3.223953723907470703e+00 4.307211935520172119e-02
6.758000000000000000e+03 5.960505294799804688e+01 2.737020492553710938e+01 -4.851895868778228760e-01 1.050561141967773438e+01 3.006126403808593750e+00 -2.272828370332717896e-01
6.759000000000000000e+03 3.895716094970703125e+01 4.783965587615966797e+00 -1.233797818422317505e-01 1.288861513137817383e+00 3.496445417404174805e-01 1.868340671062469482e-01
6.760000000000000000e+03 4.601103591918945312e+01 1.329583454132080078e+01 -3.021085262298583984e-01 2.844936132431030273e+00 7.628482580184936523e-01 6.772480010986328125e-01
6.761000000000000000e+03 6.041316986083984375e+01 2.071645545959472656e+01 -1.022161006927490234e+00 8.338130950927734375e+00 2.194790840148925781e+00 -1.779097467660903931e-01
6.762000000000000000e+03 5.506311035156250000e+01 2.300471878051757812e+01 -6.728380322456359863e-01 7.178414821624755859e+00 1.951673150062561035e+00 1.291288733482360840e+00
6.763000000000000000e+03 4.820923233032226562e+01 1.381198310852050781e+01 -3.990316390991210938e-01 3.582537174224853516e+00 9.550516605377197266e-01 7.721037268638610840e-01
6.764000000000000000e+03 4.662438964843750000e+01 1.391285991668701172e+01 -3.166148960590362549e-01 3.023428201675415039e+00 8.120440244674682617e-01 7.392189502716064453e-01
6.765000000000000000e+03 4.714721679687500000e+01 1.454069519042968750e+01 -3.240055441856384277e-01 3.171736955642700195e+00 8.543193936347961426e-01 7.810797691345214844e-01
6.766000000000000000e+03 5.659651947021484375e+01 2.973813533782958984e+00 -5.539748072624206543e-01 5.630736827850341797e+00 1.523028612136840820e+00 1.520520150661468506e-01
6.767000000000000000e+03 5.640591049194335938e+01 1.375594496726989746e+00 -5.115125179290771484e-01 5.543121814727783203e+00 1.509482741355895996e+00 1.502192765474319458e-01
6.768000000000000000e+03 5.473778533935546875e+01 2.335137176513671875e+01 -6.039093136787414551e-01 7.099289894104003906e+00 1.948614239692687988e+00 1.405205607414245605e+00
6.769000000000000000e+03 5.324347305297851562e+01 2.012753868103027344e+01 -6.092152595520019531e-01 5.830804824829101562e+00 1.566476941108703613e+00 1.172282457351684570e+00
6.770000000000000000e+03 5.971448898315429688e+01 1.692971420288085938e+01 -1.011444449424743652e+00 7.499992370605468750e+00 1.946564435958862305e+00 -6.189635023474693298e-03
6.771000000000000000e+03 6.118782806396484375e+01 2.009776306152343750e+01 -1.008474826812744141e+00 8.295471191406250000e+00 2.186099052429199219e+00 -3.334628343582153320e-01
6.772000000000000000e+03 6.060655593872070312e+01 1.161373996734619141e+01 -8.315595388412475586e-01 6.970043659210205078e+00 1.841545224189758301e+00 -9.002985805273056030e-02
6.773000000000000000e+03 5.731287384033203125e+01 3.586522340774536133e+00 -5.743085741996765137e-01 5.812366962432861328e+00 1.571417570114135742e+00 1.335936188697814941e-01
6.774000000000000000e+03 5.660300445556640625e+01 -5.754637122154235840e-01 -4.725003540515899658e-01 5.535775661468505859e+00 1.518982648849487305e+00 1.352540552616119385e-01
6.775000000000000000e+03 4.970962142944335938e+01 -3.536842107772827148e+00 -3.497315347194671631e-01 4.000504970550537109e+00 1.095232009887695312e+00 1.471602022647857666e-01
6.776000000000000000e+03 4.146915054321289062e+01 2.360785484313964844e+00 -1.542519479990005493e-01 1.928694128990173340e+00 5.323326587677001953e-01 2.145210355520248413e-01
6.777000000000000000e+03 4.553223037719726562e+01 -5.104394629597663879e-02 -2.578687071800231934e-01 2.968574523925781250e+00 8.132117390632629395e-01 2.062916308641433716e-01
6.778000000000000000e+03 4.408568954467773438e+01 9.114798903465270996e-01 -2.248204648494720459e-01 2.596388816833496094e+00 7.114704847335815430e-01 2.171579450368881226e-01
6.779000000000000000e+03 6.125732040405273438e+01 1.139248657226562500e+01 -8.168463706970214844e-01 7.060750484466552734e+00 1.873171210289001465e+00 -1.501671969890594482e-01
6.780000000000000000e+03 4.642744064331054688e+01 -1.375430107116699219e+00 -2.789548635482788086e-01 3.202895164489746094e+00 8.771820664405822754e-01 1.755606085062026978e-01
6.781000000000000000e+03 4.766327667236328125e+01 -1.431965708732604980e+00 -3.152984678745269775e-01 3.499998092651367188e+00 9.554098844528198242e-01 1.846195310354232788e-01
6.782000000000000000e+03 5.950125885009765625e+01 5.444285392761230469e+00 -6.284638047218322754e-01 6.344512939453125000e+00 1.714814782142639160e+00 3.254031762480735779e-02
6.783000000000000000e+03 5.840085983276367188e+01 4.930536270141601562e+00 -6.177402138710021973e-01 6.083123683929443359e+00 1.639615058898925781e+00 9.390161186456680298e-02
6.784000000000000000e+03 6.040741348266601562e+01 2.002125167846679688e+01 -1.031573772430419922e+00 8.180165290832519531e+00 2.144577503204345703e+00 -1.576784998178482056e-01
6.785000000000000000e+03 5.821990585327148438e+01 8.372524261474609375e+00 -7.315555810928344727e-01 6.254559516906738281e+00 1.656901121139526367e+00 1.096790805459022522e-01
6.786000000000000000e+03 5.935555267333984375e+01 1.335982036590576172e+01 -9.020147323608398438e-01 6.936080932617187500e+00 1.810219883918762207e+00 3.018223866820335388e-02
6.787000000000000000e+03 5.857137298583984375e+01 -3.306453943252563477e+00 -4.202073216438293457e-01 5.896078586578369141e+00 1.642761349678039551e+00 1.109706535935401917e-01
6.788000000000000000e+03 5.962275314331054688e+01 7.126735687255859375e+00 -6.860544681549072266e-01 6.447547435760498047e+00 1.728447794914245605e+00 2.174600958824157715e-02
6.789000000000000000e+03 4.251648712158203125e+01 7.588257789611816406e+00 -2.273704409599304199e-01 2.041444063186645508e+00 5.442220568656921387e-01 3.668638169765472412e-01
6.790000000000000000e+03 5.082948303222656250e+01 -3.157629966735839844e+00 -3.737306892871856689e-01 4.247134685516357422e+00 1.162021279335021973e+00 1.685189008712768555e-01
6.791000000000000000e+03 4.945136642456054688e+01 -2.335402488708496094e+00 -3.519546091556549072e-01 3.948947191238403320e+00 1.079097747802734375e+00 1.775561124086380005e-01
6.792000000000000000e+03 5.891538238525390625e+01 7.146759510040283203e+00 -6.874721050262451172e-01 6.320106029510498047e+00 1.689790248870849609e+00 6.109673902392387390e-02
6.793000000000000000e+03 5.795923233032226562e+01 5.947393417358398438e+00 -6.474260687828063965e-01 6.052012443542480469e+00 1.621375799179077148e+00 1.141987964510917664e-01
6.794000000000000000e+03 5.733970260620117188e+01 -8.457486152648925781e+00 -3.544398546218872070e-01 5.636607170104980469e+00 1.584650158882141113e+00 1.495854854583740234e-01
6.795000000000000000e+03 5.575960159301757812e+01 -9.279400825500488281e+00 -3.533897101879119873e-01 5.345835685729980469e+00 1.497733712196350098e+00 1.393312662839889526e-01
6.796000000000000000e+03 5.671914672851562500e+01 -5.784612655639648438e+00 -3.972359895706176758e-01 5.509228229522705078e+00 1.533597588539123535e+00 1.395189315080642700e-01
6.797000000000000000e+03 5.795994567871093750e+01 -4.836136817932128906e+00 -4.015905857086181641e-01 5.763684272766113281e+00 1.608628153800964355e+00 1.277723014354705811e-01
6.798000000000000000e+03 5.767179489135742188e+01 -7.205007076263427734e+00 -3.827451467514038086e-01 5.699306964874267578e+00 1.594968557357788086e+00 1.463432908058166504e-01
6.799000000000000000e+03 5.606555557250976562e+01 2.680786323547363281e+01 -4.783442616462707520e-01 9.011221885681152344e+00 2.559863328933715820e+00 1.643356204032897949e+00
6.800000000000000000e+03 5.554401016235351562e+01 2.618181800842285156e+01 -4.432506561279296875e-01 8.380379676818847656e+00 2.381138563156127930e+00 1.727329611778259277e+00
6.801000000000000000e+03 5.491199111938476562e+01 2.432757759094238281e+01 -5.404975414276123047e-01 7.395932197570800781e+00 2.056630373001098633e+00 1.539090991020202637e+00
6.802000000000000000e+03 5.649640655517578125e+01 2.786918830871582031e+01 -4.165721237659454346e-01 9.945929527282714844e+00 2.858807325363159180e+00 1.570386290550231934e+00
6.803000000000000000e+03 5.663561630249023438e+01 2.757249832153320312e+01 -4.735143184661865234e-01 9.828774452209472656e+00 2.806577920913696289e+00 1.447867035865783691e+00
6.804000000000000000e+03 5.826469421386718750e+01 2.849586105346679688e+01 -3.591227531433105469e-01 1.113326835632324219e+01 3.232243776321411133e+00 3.978700935840606689e-01
6.805000000000000000e+03 5.797201156616210938e+01 2.818629455566406250e+01 -4.543338418006896973e-01 1.084824180603027344e+01 3.118172407150268555e+00 6.319876313209533691e-01
6.806000000000000000e+03 5.805939483642578125e+01 1.847116470336914062e+01 -1.010671019554138184e+00 7.414444446563720703e+00 1.921132087707519531e+00 2.892100214958190918e-01
6.807000000000000000e+03 4.850659179687500000e+01 1.614773941040039062e+01 -3.541689217090606689e-01 3.663210153579711914e+00 9.927123188972473145e-01 9.141026139259338379e-01
6.808000000000000000e+03 4.893206405639648438e+01 1.612597656250000000e+01 -3.849690556526184082e-01 3.832392930984497070e+00 1.034227132797241211e+00 9.270685911178588867e-01
6.809000000000000000e+03 5.957234191894531250e+01 1.934897613525390625e+01 -1.042463541030883789e+00 7.913246631622314453e+00 2.061234951019287109e+00 2.208331041038036346e-02
6.810000000000000000e+03 5.335457611083984375e+01 2.109003067016601562e+01 -5.640116333961486816e-01 5.984990119934082031e+00 1.626293540000915527e+00 1.281747221946716309e+00
6.811000000000000000e+03 6.013186264038085938e+01 2.464974784851074219e+01 -8.512373566627502441e-01 9.418874740600585938e+00 2.570291280746459961e+00 -2.366182953119277954e-01
6.812000000000000000e+03 5.531959152221679688e+01 2.527734184265136719e+01 -5.184655189514160156e-01 7.928164958953857422e+00 2.222909927368164062e+00 1.597298741340637207e+00
6.813000000000000000e+03 5.853162002563476562e+01 2.814327239990234375e+01 -4.219752252101898193e-01 1.090645408630371094e+01 3.145343780517578125e+00 2.430735826492309570e-01
6.814000000000000000e+03 5.330735778808593750e+01 2.060657501220703125e+01 -5.898114442825317383e-01 5.908766269683837891e+00 1.595686435699462891e+00 1.223716497421264648e+00
6.815000000000000000e+03 5.954236602783203125e+01 2.193806266784667969e+01 -1.018706202507019043e+00 8.517696380615234375e+00 2.249696969985961914e+00 1.281818468123674393e-02
6.816000000000000000e+03 5.919010925292968750e+01 2.709816932678222656e+01 -5.768287181854248047e-01 1.035050106048583984e+01 2.932101726531982422e+00 -3.860359545797109604e-03
6.817000000000000000e+03 5.911569976806640625e+01 2.809525299072265625e+01 -3.720079958438873291e-01 1.086681079864501953e+01 3.148440837860107422e+00 -6.999357044696807861e-02
6.818000000000000000e+03 5.440145492553710938e+01 2.230176353454589844e+01 -6.304112076759338379e-01 6.727004528045654297e+00 1.828977942466735840e+00 1.315991282463073730e+00
6.819000000000000000e+03 5.484843826293945312e+01 2.222306632995605469e+01 -6.873484849929809570e-01 6.917571544647216797e+00 1.869066953659057617e+00 1.208876967430114746e+00
6.820000000000000000e+03 5.746983337402343750e+01 2.529432678222656250e+01 -8.024696707725524902e-01 9.105880737304687500e+00 2.491023540496826172e+00 8.158416748046875000e-01
6.821000000000000000e+03 5.192819976806640625e+01 1.941700172424316406e+01 -4.993458390235900879e-01 5.175300121307373047e+00 1.402786254882812500e+00 1.183761239051818848e+00
6.822000000000000000e+03 5.092082595825195312e+01 1.973571205139160156e+01 -3.691661357879638672e-01 4.682194232940673828e+00 1.293908357620239258e+00 1.249941468238830566e+00
6.823000000000000000e+03 5.846178436279296875e+01 2.755331802368164062e+01 -5.493546724319458008e-01 1.054134845733642578e+01 2.997598171234130859e+00 3.274508714675903320e-01
6.824000000000000000e+03 4.918162155151367188e+01 1.653571510314941406e+01 -3.836956620216369629e-01 3.913449287414550781e+00 1.058926105499267578e+00 9.554141163825988770e-01
6.825000000000000000e+03 5.719897079467773438e+01 2.792035293579101562e+01 -4.893566370010375977e-01 1.038818359375000000e+01 2.969647884368896484e+00 1.144615173339843750e+00
6.826000000000000000e+03 5.637094879150390625e+01 2.743860244750976562e+01 -4.500135183334350586e-01 9.568723678588867188e+00 2.735612869262695312e+00 1.589231252670288086e+00
6.827000000000000000e+03 5.677586364746093750e+01 2.797443199157714844e+01 -4.396414756774902344e-01 1.016379451751708984e+01 2.917245864868164062e+00 1.427057862281799316e+00
6.828000000000000000e+03 3.820063018798828125e+01 3.586207389831542969e+00 -9.405949711799621582e-02 1.163336157798767090e+00 3.207829892635345459e-01 1.367680877447128296e-01
6.829000000000000000e+03 3.838473129272460938e+01 4.443930625915527344e+00 -1.096927523612976074e-01 1.173184394836425781e+00 3.190475106239318848e-01 1.567237377166748047e-01
6.830000000000000000e+03 4.983725357055664062e+01 1.826938819885253906e+01 -3.526042103767395020e-01 4.176122665405273438e+00 1.147055506706237793e+00 1.098559260368347168e+00
6.831000000000000000e+03 4.916504669189453125e+01 1.730658721923828125e+01 -3.512744605541229248e-01 3.896298170089721680e+00 1.063507080078125000e+00 1.013041853904724121e+00
6.832000000000000000e+03 5.086056518554687500e+01 1.876125526428222656e+01 -4.189933538436889648e-01 4.629610538482666016e+00 1.263185262680053711e+00 1.148765683174133301e+00
6.833000000000000000e+03 5.142060470581054688e+01 1.951779365539550781e+01 -4.343505799770355225e-01 4.910737514495849609e+00 1.342916131019592285e+00 1.213712692260742188e+00
6.834000000000000000e+03 5.210307312011718750e+01 1.986937332153320312e+01 -4.941127300262451172e-01 5.256294250488281250e+00 1.428654432296752930e+00 1.226251006126403809e+00
6.835000000000000000e+03 4.433165740966796875e+01 1.170734596252441406e+01 -2.696993052959442139e-01 2.383488416671752930e+00 6.341367363929748535e-01 5.497354865074157715e-01
6.836000000000000000e+03 4.288135910034179688e+01 8.924879074096679688e+00 -2.471161484718322754e-01 2.093243122100830078e+00 5.538380742073059082e-01 4.094702601432800293e-01
6.837000000000000000e+03 4.351537322998046875e+01 1.139812183380126953e+01 -2.535168528556823730e-01 2.157584190368652344e+00 5.712201595306396484e-01 5.005319714546203613e-01
6.838000000000000000e+03 4.279661178588867188e+01 9.957191467285156250e+00 -2.449305057525634766e-01 2.027610540390014648e+00 5.348040461540222168e-01 4.298933744430541992e-01
6.839000000000000000e+03 4.327199172973632812e+01 1.089961147308349609e+01 -2.516860365867614746e-01 2.111047267913818359e+00 5.578083395957946777e-01 4.767166376113891602e-01
6.840000000000000000e+03 3.906993484497070312e+01 1.823760867118835449e+00 -9.100066870450973511e-02 1.405418992042541504e+00 3.943254947662353516e-01 1.306345909833908081e-01
6.841000000000000000e+03 4.353527450561523438e+01 9.161935806274414062e+00 -2.617398798465728760e-01 2.276139497756958008e+00 6.043198704719543457e-01 4.467454552650451660e-01
6.842000000000000000e+03 4.420535278320312500e+01 1.295761775970458984e+01 -2.472144961357116699e-01 2.263397216796875000e+00 6.048548221588134766e-01 5.755026936531066895e-01
6.843000000000000000e+03 4.033168411254882812e+01 6.251824855804443359e+00 -1.680230051279067993e-01 1.551395535469055176e+00 4.150117635726928711e-01 2.652731835842132568e-01
6.844000000000000000e+03 3.765187835693359375e+01 3.222132444381713867e+00 -7.953782379627227783e-02 1.064670920372009277e+00 2.955399155616760254e-01 1.157348975539207458e-01
6.845000000000000000e+03 5.971814346313476562e+01 1.254198837280273438e+01 -8.700165748596191406e-01 6.896028518676757812e+00 1.807803511619567871e+00 -7.637389004230499268e-03
6.846000000000000000e+03 5.997270584106445312e+01 1.113177490234375000e+01 -8.233200311660766602e-01 6.823639392852783203e+00 1.800095796585083008e+00 -2.932269684970378876e-02
6.847000000000000000e+03 3.961258316040039062e+01 1.488104820251464844e+00 -1.067906692624092102e-01 1.538225173950195312e+00 4.294303655624389648e-01 1.325132101774215698e-01
6.848000000000000000e+03 4.006062316894531250e+01 3.129405498504638672e+00 -1.277103275060653687e-01 1.588960409164428711e+00 4.383750259876251221e-01 1.904784440994262695e-01
6.849000000000000000e+03 5.156420898437500000e+01 1.839149475097656250e+01 -5.084799528121948242e-01 4.930052757263183594e+00 1.326471805572509766e+00 1.085736036300659180e+00
6.850000000000000000e+03 3.807982635498046875e+01 2.695614337921142578e+00 -8.427248895168304443e-02 1.162167549133300781e+00 3.233685195446014404e-01 1.188827604055404663e-01
6.851000000000000000e+03 4.955146789550781250e+01 1.691689872741699219e+01 -4.003439247608184814e-01 4.073928833007812500e+00 1.102075457572937012e+00 9.864317178726196289e-01
6.852000000000000000e+03 4.777238464355468750e+01 1.458730888366699219e+01 -3.628732562065124512e-01 3.419458389282226562e+00 9.169755578041076660e-01 7.999297380447387695e-01
6.853000000000000000e+03 4.766372299194335938e+01 1.400855541229248047e+01 -3.701516091823577881e-01 3.412364482879638672e+00 9.126638174057006836e-01 7.626463174819946289e-01
6.854000000000000000e+03 5.988062286376953125e+01 2.375301551818847656e+01 -9.313461780548095703e-01 9.076745986938476562e+00 2.443619966506958008e+00 -1.058100685477256775e-01
6.855000000000000000e+03 6.025710296630859375e+01 2.721494483947753906e+01 -4.415464103221893311e-01 1.038135433197021484e+01 2.981942176818847656e+00 -5.032525658607482910e-01
6.856000000000000000e+03 6.016945648193359375e+01 2.596393775939941406e+01 -6.864123344421386719e-01 9.899170875549316406e+00 2.763827562332153320e+00 -3.370310068130493164e-01
6.857000000000000000e+03 5.877869796752929688e+01 2.690585899353027344e+01 -6.465578079223632812e-01 1.022800636291503906e+01 2.874434471130371094e+00 2.170018404722213745e-01
6.858000000000000000e+03 4.275745010375976562e+01 1.106474971771240234e+01 -2.426377236843109131e-01 1.955807209014892578e+00 5.139508247375488281e-01 4.497476518154144287e-01
6.859000000000000000e+03 5.973016357421875000e+01 2.133165359497070312e+01 -1.024641752243041992e+00 8.394064903259277344e+00 2.210826873779296875e+00 -3.015301190316677094e-02
6.860000000000000000e+03 6.065224456787109375e+01 2.626221275329589844e+01 -5.731408596038818359e-01 9.975424766540527344e+00 2.820685148239135742e+00 -5.490022897720336914e-01
6.861000000000000000e+03 5.034353256225585938e+01 1.848826789855957031e+01 -3.847129344940185547e-01 4.382955551147460938e+00 1.199472665786743164e+00 1.132299304008483887e+00
6.862000000000000000e+03 3.933006286621093750e+01 4.267103672027587891e+00 -1.242578849196434021e-01 1.391062021255493164e+00 3.800412118434906006e-01 1.903712898492813110e-01
6.863000000000000000e+03 4.601234817504882812e+01 1.265775680541992188e+01 -3.163834512233734131e-01 2.859237194061279297e+00 7.628561258316040039e-01 6.571018099784851074e-01
6.864000000000000000e+03 4.786180496215820312e+01 1.320338058471679688e+01 -3.909744024276733398e-01 3.466307163238525391e+00 9.225998520851135254e-01 7.277725934982299805e-01
6.865000000000000000e+03 4.189608001708984375e+01 1.732945919036865234e+00 -1.673216670751571655e-01 2.066133499145507812e+00 5.696435570716857910e-01 1.979464143514633179e-01
6.866000000000000000e+03 5.930152893066406250e+01 1.863066101074218750e+01 -1.030857443809509277e+00 7.706440448760986328e+00 2.002674818038940430e+00 7.207881659269332886e-02
6.867000000000000000e+03 5.860105514526367188e+01 1.401091957092285156e+01 -9.189666509628295898e-01 6.861278533935546875e+00 1.782693505287170410e+00 1.197786182165145874e-01
6.868000000000000000e+03 5.890918731689453125e+01 1.700230598449707031e+01 -9.972282648086547852e-01 7.342370510101318359e+00 1.903542637825012207e+00 1.088932529091835022e-01
6.869000000000000000e+03 4.328548049926757812e+01 6.403814792633056641e+00 -2.346574664115905762e-01 2.297457933425903320e+00 6.188400983810424805e-01 3.646762967109680176e-01
6.870000000000000000e+03 5.971577835083007812e+01 2.284226799011230469e+01 -9.868646264076232910e-01 8.785198211669921875e+00 2.339500188827514648e+00 -3.388474509119987488e-02
6.871000000000000000e+03 5.952490615844726562e+01 2.424151611328125000e+01 -9.109265208244323730e-01 9.205259323120117188e+00 2.488299846649169922e+00 1.892268541269004345e-03
6.872000000000000000e+03 4.469152832031250000e+01 1.277796840667724609e+01 -2.672239840030670166e-01 2.459437608718872070e+00 6.576641201972961426e-01 5.920514464378356934e-01
6.873000000000000000e+03 4.673964309692382812e+01 1.332181930541992188e+01 -3.361513912677764893e-01 3.098674535751342773e+00 8.287569284439086914e-01 7.104806303977966309e-01
6.874000000000000000e+03 5.949819183349609375e+01 1.500203037261962891e+01 -9.499971270561218262e-01 7.164061546325683594e+00 1.864219427108764648e+00 1.058459840714931488e-02
6.875000000000000000e+03 5.935813140869140625e+01 2.331028175354003906e+01 -9.672898650169372559e-01 8.885277748107910156e+00 2.375396251678466797e+00 5.938254669308662415e-02
6.876000000000000000e+03 5.530062866210937500e+01 2.386161804199218750e+01 -6.456156969070434570e-01 7.537631034851074219e+00 2.067604780197143555e+00 1.359229922294616699e+00
6.877000000000000000e+03 4.804638671875000000e+01 -2.113590240478515625e+00 -3.191002607345581055e-01 3.595384359359741211e+00 9.828852415084838867e-01 1.681554019451141357e-01
6.878000000000000000e+03 5.399019622802734375e+01 -2.596768856048583984e+00 -4.193736612796783447e-01 4.970882415771484375e+00 1.365452647209167480e+00 1.565420925617218018e-01
6.879000000000000000e+03 4.122171401977539062e+01 6.959994316101074219e+00 -1.949150115251541138e-01 1.748025298118591309e+00 4.659330844879150391e-01 3.077243268489837646e-01
6.880000000000000000e+03 4.265002059936523438e+01 2.825562238693237305e+00 -1.920436620712280273e-01 2.222786903381347656e+00 6.092230081558227539e-01 2.497110217809677124e-01
6.881000000000000000e+03 4.621504974365234375e+01 4.247009456157684326e-01 -2.846441268920898438e-01 3.130393743515014648e+00 8.537248969078063965e-01 2.277552485466003418e-01
6.882000000000000000e+03 4.514812469482421875e+01 6.374691128730773926e-01 -2.548949420452117920e-01 2.863862752914428711e+00 7.826903462409973145e-01 2.212358117103576660e-01
6.883000000000000000e+03 5.723930740356445312e+01 4.863743782043457031e+00 -6.115346550941467285e-01 5.848511695861816406e+00 1.571093082427978516e+00 1.431731134653091431e-01
6.884000000000000000e+03 4.874300384521484375e+01 -2.017888307571411133e+00 -3.355954885482788086e-01 3.759781360626220703e+00 1.027255773544311523e+00 1.766780167818069458e-01
6.885000000000000000e+03 5.225992202758789062e+01 -4.094002723693847656e+00 -3.861382901668548584e-01 4.576457023620605469e+00 1.257095694541931152e+00 1.508835256099700928e-01
6.886000000000000000e+03 5.203976440429687500e+01 -2.105059385299682617e+00 -3.974581062793731689e-01 4.513721942901611328e+00 1.234879136085510254e+00 1.773698776960372925e-01
6.887000000000000000e+03 5.976266479492187500e+01 2.067027664184570312e+01 -1.035433530807495117e+00 8.235569953918457031e+00 2.160040855407714844e+00 -3.062323480844497681e-02
6.888000000000000000e+03 5.299570846557617188e+01 -4.743798255920410156e+00 -3.901079297065734863e-01 4.741111278533935547e+00 1.305300951004028320e+00 1.318145245313644409e-01
6.889000000000000000e+03 5.271884918212890625e+01 -3.257799863815307617e+00 -3.961540162563323975e-01 4.657991409301757812e+00 1.278551220893859863e+00 1.552852094173431396e-01
6.890000000000000000e+03 5.387536239624023438e+01 -8.083217620849609375e+00 -3.664056062698364258e-01 4.936627864837646484e+00 1.371066689491271973e+00 1.129227355122566223e-01
6.891000000000000000e+03 5.767083358764648438e+01 9.553279876708984375e+00 -7.625845670700073242e-01 6.214037895202636719e+00 1.635435938835144043e+00 1.580247133970260620e-01
6.892000000000000000e+03 5.866830444335937500e+01 1.613950157165527344e+01 -9.740132689476013184e-01 7.139004230499267578e+00 1.849497318267822266e+00 1.359864175319671631e-01
6.893000000000000000e+03 5.822566604614257812e+01 7.192431449890136719e+00 -6.841004490852355957e-01 6.186851978302001953e+00 1.650825381278991699e+00 9.800229966640472412e-02
6.894000000000000000e+03 4.839741134643554688e+01 -7.795446515083312988e-01 -3.374333977699279785e-01 3.684991836547851562e+00 1.004267454147338867e+00 2.030628621578216553e-01
6.895000000000000000e+03 5.683306884765625000e+01 -4.711977958679199219e+00 -4.037488400936126709e-01 5.537697792053222656e+00 1.540184617042541504e+00 1.352067142724990845e-01
6.896000000000000000e+03 5.578533935546875000e+01 2.422853946685791016e+00 -5.321269631385803223e-01 5.433846950531005859e+00 1.470516085624694824e+00 1.809013336896896362e-01
6.897000000000000000e+03 5.695521926879882812e+01 -3.784370660781860352e+00 -4.117545783519744873e-01 5.569694519042968750e+00 1.547381997108459473e+00 1.300771534442901611e-01
6.898000000000000000e+03 5.812423706054687500e+01 6.578751564025878906e+00 -6.645716428756713867e-01 6.114523887634277344e+00 1.634985685348510742e+00 1.044273376464843750e-01
6.899000000000000000e+03 5.883542251586914062e+01 6.422259807586669922e+00 -6.613859534263610840e-01 6.263741493225097656e+00 1.680706620216369629e+00 6.121731549501419067e-02
6.900000000000000000e+03 4.665685272216796875e+01 -1.835303753614425659e-01 -2.888910472393035889e-01 3.251388549804687500e+00 8.887492418289184570e-01 2.122828364372253418e-01
6.901000000000000000e+03 5.542883682250976562e+01 -3.268483877182006836e-01 -4.752691090106964111e-01 5.311926364898681641e+00 1.450997114181518555e+00 1.609367877244949341e-01
6.902000000000000000e+03 5.552307510375976562e+01 -6.640231609344482422e+00 -3.942074477672576904e-01 5.266025066375732422e+00 1.461545348167419434e+00 1.406586021184921265e-01
6.903000000000000000e+03 5.822672271728515625e+01 2.787022590637207031e+01 -5.029342174530029297e-01 1.070471191406250000e+01 3.060533523559570312e+00 4.664370119571685791e-01
6.904000000000000000e+03 5.559497070312500000e+01 2.577486801147460938e+01 -5.119913220405578613e-01 8.262702941894531250e+00 2.325213432312011719e+00 1.617299795150756836e+00
6.905000000000000000e+03 5.693151092529296875e+01 2.769858741760253906e+01 -4.946792423725128174e-01 1.008021831512451172e+01 2.875661611557006836e+00 1.311325192451477051e+00
6.906000000000000000e+03 5.640557479858398438e+01 2.665855979919433594e+01 -5.587859749794006348e-01 9.170054435729980469e+00 2.583380699157714844e+00 1.439400196075439453e+00
6.907000000000000000e+03 5.508060455322265625e+01 2.357572364807128906e+01 -6.359673142433166504e-01 7.336737155914306641e+00 2.010231018066406250e+00 1.370319604873657227e+00
6.908000000000000000e+03 5.875327682495117188e+01 2.211987304687500000e+01 -1.008887648582458496e+00 8.401970863342285156e+00 2.217924833297729492e+00 2.403036206960678101e-01
6.909000000000000000e+03 5.590571212768554688e+01 2.585334777832031250e+01 -5.598253011703491211e-01 8.504057884216308594e+00 2.383269786834716797e+00 1.524657607078552246e+00
6.910000000000000000e+03 5.542037200927734375e+01 2.478845596313476562e+01 -5.899740457534790039e-01 7.858721256256103516e+00 2.180624246597290039e+00 1.473965883255004883e+00
6.911000000000000000e+03 5.561696243286132812e+01 2.220443916320800781e+01 -7.905745506286621094e-01 7.315315723419189453e+00 1.957422256469726562e+00 1.057322263717651367e+00
6.912000000000000000e+03 5.878176879882812500e+01 2.781578445434570312e+01 -4.744166433811187744e-01 1.073477077484130859e+01 3.078106164932250977e+00 1.393835544586181641e-01
6.913000000000000000e+03 5.382538223266601562e+01 2.101933288574218750e+01 -6.320986747741699219e-01 6.230476379394531250e+00 1.679513335227966309e+00 1.208827972412109375e+00
6.914000000000000000e+03 5.436783981323242188e+01 2.184710884094238281e+01 -6.596243381500244141e-01 6.615459918975830078e+00 1.786750674247741699e+00 1.254910349845886230e+00
6.915000000000000000e+03 5.534552383422851562e+01 2.266333580017089844e+01 -7.362173199653625488e-01 7.269091129302978516e+00 1.959862112998962402e+00 1.169442296028137207e+00
6.916000000000000000e+03 4.937670898437500000e+01 1.481931018829345703e+01 -4.485771656036376953e-01 4.003447532653808594e+00 1.066461086273193359e+00 8.458729386329650879e-01
6.917000000000000000e+03 4.957709121704101562e+01 1.761189079284667969e+01 -3.719368875026702881e-01 4.042090415954589844e+00 1.101046085357666016e+00 1.044586896896362305e+00
6.918000000000000000e+03 5.773141479492187500e+01 2.322301101684570312e+01 -9.433594942092895508e-01 8.442690849304199219e+00 2.249799251556396484e+00 5.874540805816650391e-01
6.919000000000000000e+03 5.591031646728515625e+01 2.491960144042968750e+01 -6.537515521049499512e-01 8.170855522155761719e+00 2.255131244659423828e+00 1.356430411338806152e+00
6.920000000000000000e+03 5.607448196411132812e+01 2.554245376586914062e+01 -6.234444379806518555e-01 8.480713844299316406e+00 2.357180595397949219e+00 1.398345351219177246e+00
6.921000000000000000e+03 5.263154220581054688e+01 1.975949859619140625e+01 -5.567334294319152832e-01 5.503169536590576172e+00 1.483930826187133789e+00 1.184587240219116211e+00
6.922000000000000000e+03 5.744910430908203125e+01 1.717143249511718750e+01 -9.689401984214782715e-01 7.011204242706298828e+00 1.812679171562194824e+00 3.689421117305755615e-01
6.923000000000000000e+03 5.690444946289062500e+01 2.716291999816894531e+01 -5.616511702537536621e-01 9.757355690002441406e+00 2.758711338043212891e+00 1.253842592239379883e+00
6.924000000000000000e+03 5.225043106079101562e+01 1.914939880371093750e+01 -5.471513271331787109e-01 5.316802978515625000e+00 1.430895566940307617e+00 1.147284388542175293e+00
6.925000000000000000e+03 5.315614318847656250e+01 1.966597938537597656e+01 -6.164595484733581543e-01 5.755298614501953125e+00 1.541651725769042969e+00 1.130550861358642578e+00
6.926000000000000000e+03 5.385134887695312500e+01 2.148755455017089844e+01 -6.104909777641296387e-01 6.307442188262939453e+00 1.709085345268249512e+00 1.282612919807434082e+00
6.927000000000000000e+03 5.934312438964843750e+01 2.666011238098144531e+01 -6.433905959129333496e-01 1.017031097412109375e+01 2.858076095581054688e+00 -4.418634623289108276e-02
6.928000000000000000e+03 5.900786209106445312e+01 2.747937011718750000e+01 -5.218449831008911133e-01 1.054648399353027344e+01 3.007391691207885742e+00 6.065395846962928772e-02
6.929000000000000000e+03 5.663266372680664062e+01 2.728846359252929688e+01 -5.132465362548828125e-01 9.663218498229980469e+00 2.744991540908813477e+00 1.404672741889953613e+00
6.930000000000000000e+03 5.713872909545898438e+01 2.740090942382812500e+01 -5.598728060722351074e-01 1.000900840759277344e+01 2.834740638732910156e+00 1.154337882995605469e+00
6.931000000000000000e+03 5.367562103271484375e+01 1.950873756408691406e+01 -6.781270503997802734e-01 5.980821609497070312e+00 1.590808272361755371e+00 1.068981647491455078e+00
6.932000000000000000e+03 5.439455795288085938e+01 2.051361274719238281e+01 -7.215862274169921875e-01 6.437882423400878906e+00 1.714888930320739746e+00 1.078818321228027344e+00
6.933000000000000000e+03 4.309962463378906250e+01 8.390312194824218750e+00 -2.469560205936431885e-01 2.193993806838989258e+00 5.841112732887268066e-01 4.115847647190093994e-01
6.934000000000000000e+03 4.273680877685546875e+01 8.544647216796875000e+00 -2.401622682809829712e-01 2.081694841384887695e+00 5.524597167968750000e-01 3.960442245006561279e-01
6.935000000000000000e+03 4.964123916625976562e+01 1.619277954101562500e+01 -4.307793974876403809e-01 4.109907627105712891e+00 1.103738427162170410e+00 9.253707528114318848e-01
6.936000000000000000e+03 4.845105743408203125e+01 1.445007133483886719e+01 -3.998284637928009033e-01 3.660945892333984375e+00 9.783352017402648926e-01 8.123488426208496094e-01
6.937000000000000000e+03 3.876188659667968750e+01 3.933971166610717773e+00 -1.070087403059005737e-01 1.278257727622985840e+00 3.513747155666351318e-01 1.638884842395782471e-01
6.938000000000000000e+03 3.945740127563476562e+01 2.885041713714599609e+00 -1.096237599849700928e-01 1.472062349319458008e+00 4.087315797805786133e-01 1.632157415151596069e-01
6.939000000000000000e+03 4.717253494262695312e+01 1.402097225189208984e+01 -3.390268087387084961e-01 3.197021484375000000e+00 8.573983907699584961e-01 7.557686567306518555e-01
6.940000000000000000e+03 4.868487930297851562e+01 1.576839160919189453e+01 -3.816463053226470947e-01 3.746808290481567383e+00 1.009548544883728027e+00 8.872892260551452637e-01
6.941000000000000000e+03 4.329109954833984375e+01 9.782010078430175781e+00 -2.571294009685516357e-01 2.174080610275268555e+00 5.750853419303894043e-01 4.491322636604309082e-01
6.942000000000000000e+03 4.379087066650390625e+01 1.070443725585937500e+01 -2.677458524703979492e-01 2.273975133895874023e+00 6.018687486648559570e-01 4.977092444896697998e-01
6.943000000000000000e+03 5.950065231323242188e+01 2.617471313476562500e+01 -7.073752880096435547e-01 9.968392372131347656e+00 2.778305053710937500e+00 -7.572132349014282227e-02
6.944000000000000000e+03 4.735066223144531250e+01 1.355187606811523438e+01 -3.632490634918212891e-01 3.293488025665283203e+00 8.790717124938964844e-01 7.336208224296569824e-01
6.945000000000000000e+03 4.170089340209960938e+01 6.631234169006347656e+00 -1.990014612674713135e-01 1.858910679817199707e+00 4.979727566242218018e-01 3.164592981338500977e-01
6.946000000000000000e+03 5.003001785278320312e+01 1.776209259033203125e+01 -3.975467681884765625e-01 4.256153106689453125e+00 1.157581925392150879e+00 1.062715053558349609e+00
6.947000000000000000e+03 5.304758071899414062e+01 1.925034332275390625e+01 -6.210632920265197754e-01 5.667572498321533203e+00 1.513952732086181641e+00 1.100014925003051758e+00
6.948000000000000000e+03 3.990092849731445312e+01 4.605992794036865234e+00 -1.382608860731124878e-01 1.508218050003051758e+00 4.109871387481689453e-01 2.165016978979110718e-01
6.949000000000000000e+03 3.997041320800781250e+01 2.048174858093261719e+00 -1.170398890972137451e-01 1.605666637420654297e+00 4.465880095958709717e-01 1.602851599454879761e-01
6.950000000000000000e+03 5.980235290527343750e+01 2.692228889465332031e+01 -5.542143583297729492e-01 1.028915786743164062e+01 2.920483112335205078e+00 -2.763496339321136475e-01
6.951000000000000000e+03 5.987439727783203125e+01 2.513937187194824219e+01 -8.140060305595397949e-01 9.564912796020507812e+00 2.625272035598754883e+00 -1.725953817367553711e-01
6.952000000000000000e+03 4.994060897827148438e+01 1.655942344665527344e+01 -4.427131712436676025e-01 4.233739852905273438e+00 1.137308001518249512e+00 9.722437858581542969e-01
6.953000000000000000e+03 4.993064880371093750e+01 1.729655075073242188e+01 -4.156202971935272217e-01 4.227024555206298828e+00 1.143421292304992676e+00 1.034034013748168945e+00
6.954000000000000000e+03 5.967226028442382812e+01 2.565938568115234375e+01 -7.622338533401489258e-01 9.743924140930175781e+00 2.694507122039794922e+00 -1.197755932807922363e-01
6.955000000000000000e+03 5.998678970336914062e+01 2.644852066040039062e+01 -6.194024682044982910e-01 1.007053947448730469e+01 2.835341215133666992e+00 -3.065373599529266357e-01
6.956000000000000000e+03 5.915398025512695312e+01 2.062422752380371094e+01 -1.036734461784362793e+00 8.117927551269531250e+00 2.124357700347900391e+00 1.141194105148315430e-01
6.957000000000000000e+03 5.542416000366210938e+01 2.428631401062011719e+01 -6.323562860488891602e-01 7.727251052856445312e+00 2.128468513488769531e+00 1.397762537002563477e+00
6.958000000000000000e+03 4.083304595947265625e+01 6.554980278015136719e+00 -1.828211694955825806e-01 1.659098267555236816e+00 4.428831040859222412e-01 2.874289751052856445e-01
6.959000000000000000e+03 4.009817886352539062e+01 5.464418888092041016e+00 -1.537795215845108032e-01 1.522098898887634277e+00 4.104958176612854004e-01 2.400787919759750366e-01
6.960000000000000000e+03 5.910402679443359375e+01 2.117011451721191406e+01 -1.032505273818969727e+00 8.236744880676269531e+00 2.161271810531616211e+00 1.333281099796295166e-01
6.961000000000000000e+03 5.843845367431640625e+01 1.970515441894531250e+01 -1.022684574127197266e+00 7.712437152862548828e+00 2.006925821304321289e+00 2.628749012947082520e-01
6.962000000000000000e+03 4.715161895751953125e+01 -7.857459187507629395e-01 -3.035522699356079102e-01 3.368708372116088867e+00 9.195468425750732422e-01 1.999146342277526855e-01
6.963000000000000000e+03 4.379434967041015625e+01 1.593224763870239258e+00 -2.160893976688385010e-01 2.518246412277221680e+00 6.906470656394958496e-01 2.337937355041503906e-01
6.964000000000000000e+03 5.596392059326171875e+01 3.841931104660034180e+00 -5.688410401344299316e-01 5.520394325256347656e+00 1.485465884208679199e+00 1.892672926187515259e-01
6.965000000000000000e+03 4.530036163330078125e+01 1.271049022674560547e+01 -2.873265445232391357e-01 2.637364387512207031e+00 7.050113677978515625e-01 6.192952394485473633e-01
6.966000000000000000e+03 5.015188217163085938e+01 -2.708369970321655273e+00 -3.675594925880432129e-01 4.099653244018554688e+00 1.119628071784973145e+00 1.579907238483428955e-01
6.967000000000000000e+03 4.127630233764648438e+01 3.908688545227050781e+00 -1.604024916887283325e-01 1.849772095680236816e+00 5.068109035491943359e-01 2.447155714035034180e-01
6.968000000000000000e+03 5.908341598510742188e+01 1.089030075073242188e+01 -8.150889277458190918e-01 6.614936351776123047e+00 1.739954233169555664e+00 5.398355424404144287e-02
6.969000000000000000e+03 4.679285049438476562e+01 1.266275310516357422e+01 -3.509884774684906006e-01 3.135953664779663086e+00 8.354895114898681641e-01 6.781550645828247070e-01
6.970000000000000000e+03 5.896763992309570312e+01 2.167363929748535156e+01 -1.018541812896728516e+00 8.321466445922851562e+00 2.190877437591552734e+00 1.701024919748306274e-01
6.971000000000000000e+03 4.353353118896484375e+01 1.023373031616210938e+01 -2.631121277809143066e-01 2.220565557479858398e+00 5.872360467910766602e-01 4.727397561073303223e-01
6.972000000000000000e+03 5.964321517944335938e+01 7.904989719390869141e+00 -7.069686651229858398e-01 6.500533580780029297e+00 1.738069415092468262e+00 1.434861589223146439e-02
6.973000000000000000e+03 5.731268310546875000e+01 5.922703266143798828e+00 -6.410347223281860352e-01 5.910601139068603516e+00 1.580869913101196289e+00 1.498879045248031616e-01
6.974000000000000000e+03 5.608348083496093750e+01 5.130400180816650391e+00 -6.055545210838317871e-01 5.597719669342041016e+00 1.497649550437927246e+00 1.984405815601348877e-01
6.975000000000000000e+03 5.531049728393554688e+01 9.050041437149047852e-01 -4.893924295902252197e-01 5.307566165924072266e+00 1.445452094078063965e+00 1.736714392900466919e-01
6.976000000000000000e+03 4.446180725097656250e+01 1.997175216674804688e+00 -2.414471358060836792e-01 2.678187608718872070e+00 7.310221195220947266e-01 2.558790743350982666e-01
6.977000000000000000e+03 4.326831817626953125e+01 7.655481338500976562e+00 -2.475589364767074585e-01 2.248211145401000977e+00 6.001956462860107422e-01 3.953697383403778076e-01
6.978000000000000000e+03 5.562054061889648438e+01 5.930627346038818359e+00 -6.244866251945495605e-01 5.531391143798828125e+00 1.472071290016174316e+00 2.312112152576446533e-01
6.979000000000000000e+03 5.503728485107421875e+01 -2.898524522781372070e+00 -4.317470192909240723e-01 5.188438892364501953e+00 1.427007555961608887e+00 1.494447737932205200e-01
6.980000000000000000e+03 5.888656997680664062e+01 2.288013839721679688e+01 -9.940949678421020508e-01 8.660450935363769531e+00 2.299906730651855469e+00 2.183136790990829468e-01
6.981000000000000000e+03 5.606452560424804688e+01 2.331416702270507812e+01 -7.890146374702453613e-01 7.799540042877197266e+00 2.103157758712768555e+00 1.086103439331054688e+00
6.982000000000000000e+03 5.851930618286132812e+01 1.479151344299316406e+01 -9.441146850585937500e-01 6.942895889282226562e+00 1.799634456634521484e+00 1.467933207750320435e-01
6.983000000000000000e+03 5.767740249633789062e+01 1.445859050750732422e+01 -9.134380817413330078e-01 6.668947696685791016e+00 1.726652860641479492e+00 2.496578097343444824e-01
6.984000000000000000e+03 5.818692779541015625e+01 1.063164710998535156e+01 -8.052052855491638184e-01 6.416601181030273438e+00 1.683418750762939453e+00 1.277650743722915649e-01
6.985000000000000000e+03 4.976762008666992188e+01 -1.536138415336608887e+00 -3.592431247234344482e-01 4.021611690521240234e+00 1.098710536956787109e+00 1.963258236646652222e-01
6.986000000000000000e+03 5.192037963867187500e+01 -2.884906291961669922e+00 -3.939796090126037598e-01 4.504333019256591797e+00 1.233106017112731934e+00 1.653614640235900879e-01
6.987000000000000000e+03 5.041928100585937500e+01 -3.139989376068115234e-01 -3.874909281730651855e-01 4.142930984497070312e+00 1.126632094383239746e+00 2.154794037342071533e-01
6.988000000000000000e+03 5.131034469604492188e+01 -2.404643535614013672e+00 -3.866053521633148193e-01 4.362244129180908203e+00 1.192691564559936523e+00 1.774184703826904297e-01
6.989000000000000000e+03 5.845867919921875000e+01 9.899870872497558594e+00 -7.787239551544189453e-01 6.411657333374023438e+00 1.689880013465881348e+00 9.770931303501129150e-02
6.990000000000000000e+03 5.921235656738281250e+01 1.276593971252441406e+01 -8.802014589309692383e-01 6.845456123352050781e+00 1.789576411247253418e+00 4.539891332387924194e-02
6.991000000000000000e+03 5.904531860351562500e+01 1.155391216278076172e+01 -8.373226523399353027e-01 6.667711257934570312e+00 1.749116539955139160e+00 5.810711160302162170e-02
6.992000000000000000e+03 5.250295257568359375e+01 -6.339828014373779297e+00 -3.812464773654937744e-01 4.626803874969482422e+00 1.273667216300964355e+00 1.212544590234756470e-01
6.993000000000000000e+03 5.461822891235351562e+01 -6.460605621337890625e+00 -3.799600899219512939e-01 5.087709426879882812e+00 1.412324786186218262e+00 1.271393448114395142e-01
6.994000000000000000e+03 5.749085617065429688e+01 1.774986839294433594e+01 -9.766350984573364258e-01 7.107320785522460938e+00 1.839205741882324219e+00 3.825690746307373047e-01
6.995000000000000000e+03 5.814332580566406250e+01 1.709800910949707031e+01 -9.825774431228637695e-01 7.173976898193359375e+00 1.857419729232788086e+00 2.389047145843505859e-01
6.996000000000000000e+03 5.424595260620117188e+01 -3.205455839633941650e-01 -4.568291604518890381e-01 5.045384883880615234e+00 1.376566767692565918e+00 1.796030700206756592e-01
6.997000000000000000e+03 5.528463363647460938e+01 -1.615743517875671387e+00 -4.412258565425872803e-01 5.260475158691406250e+00 1.445774793624877930e+00 1.497534811496734619e-01
6.998000000000000000e+03 5.299301147460937500e+01 -2.299315690994262695e+00 -4.156909584999084473e-01 4.740749359130859375e+00 1.297517538070678711e+00 1.702508628368377686e-01
6.999000000000000000e+03 5.350196456909179688e+01 -5.702611923217773438e+00 -3.836959302425384521e-01 4.861536979675292969e+00 1.343352317810058594e+00 1.331987380981445312e-01
7.000000000000000000e+03 5.522565841674804688e+01 3.376582145690917969e+00 -5.513224005699157715e-01 5.344885826110839844e+00 1.438068985939025879e+00 2.071569263935089111e-01
7.001000000000000000e+03 5.444444274902343750e+01 2.981197834014892578e+00 -5.283498167991638184e-01 5.156196117401123047e+00 1.388353824615478516e+00 2.266617566347122192e-01
7.002000000000000000e+03 5.571927261352539062e+01 2.536599159240722656e+01 -5.784893631935119629e-01 8.200231552124023438e+00 2.286522626876831055e+00 1.500276923179626465e+00
7.003000000000000000e+03 5.567825317382812500e+01 2.363286209106445312e+01 -7.112925648689270020e-01 7.665234565734863281e+00 2.086182594299316406e+00 1.237496256828308105e+00
7.004000000000000000e+03 5.628728485107421875e+01 2.632558822631835938e+01 -5.761750936508178711e-01 8.960443496704101562e+00 2.515280485153198242e+00 1.445945262908935547e+00
7.005000000000000000e+03 5.538399887084960938e+01 2.328364944458007812e+01 -6.936652660369873047e-01 7.413385391235351562e+00 2.015916109085083008e+00 1.261504292488098145e+00
7.006000000000000000e+03 5.823377609252929688e+01 1.783337974548339844e+01 -1.002480387687683105e+00 7.335910797119140625e+00 1.900029063224792480e+00 2.424842715263366699e-01
7.007000000000000000e+03 5.518124389648437500e+01 2.197857475280761719e+01 -7.494705319404602051e-01 7.040492534637451172e+00 1.887306690216064453e+00 1.115443110466003418e+00
7.008000000000000000e+03 5.427872467041015625e+01 2.100201797485351562e+01 -6.891826987266540527e-01 6.451838016510009766e+00 1.728796601295471191e+00 1.155776143074035645e+00
7.009000000000000000e+03 5.787039566040039062e+01 2.182672500610351562e+01 -9.860290288925170898e-01 8.062313079833984375e+00 2.122885227203369141e+00 4.836188554763793945e-01
7.010000000000000000e+03 5.464576721191406250e+01 2.116600990295410156e+01 -7.258712649345397949e-01 6.639321327209472656e+00 1.774034976959228516e+00 1.138915657997131348e+00
7.011000000000000000e+03 5.914577865600585938e+01 2.540019989013671875e+01 -8.212776780128479004e-01 9.600328445434570312e+00 2.633715152740478516e+00 1.141873821616172791e-01
7.012000000000000000e+03 5.885940933227539062e+01 2.645538902282714844e+01 -7.015131115913391113e-01 1.003061008453369141e+01 2.798729181289672852e+00 1.987933069467544556e-01
7.013000000000000000e+03 5.867452239990234375e+01 2.725330352783203125e+01 -5.903485417366027832e-01 1.043077468872070312e+01 2.952127933502197266e+00 2.408981025218963623e-01
7.014000000000000000e+03 5.677474594116210938e+01 2.652795982360839844e+01 -6.231508255004882812e-01 9.339811325073242188e+00 2.614998102188110352e+00 1.228355050086975098e+00
7.015000000000000000e+03 5.686460876464843750e+01 1.725046157836914062e+01 -9.438436031341552734e-01 6.855480194091796875e+00 1.773490905761718750e+00 4.434070289134979248e-01
7.016000000000000000e+03 5.851900100708007812e+01 2.103582763671875000e+01 -1.018823027610778809e+00 8.053901672363281250e+00 2.110523700714111328e+00 2.764830589294433594e-01
7.017000000000000000e+03 5.738857650756835938e+01 1.827912521362304688e+01 -9.775810241699218750e-01 7.157620906829833984e+00 1.854011893272399902e+00 4.147509336471557617e-01
7.018000000000000000e+03 5.764718627929687500e+01 2.733088111877441406e+01 -6.026229858398437500e-01 1.019045162200927734e+01 2.876348495483398438e+00 8.325378894805908203e-01
7.019000000000000000e+03 5.139221191406250000e+01 1.894277763366699219e+01 -4.639540612697601318e-01 4.886917591094970703e+00 1.326889157295227051e+00 1.154079794883728027e+00
7.020000000000000000e+03 5.108935165405273438e+01 1.816838836669921875e+01 -4.752649068832397461e-01 4.739105701446533203e+00 1.279152274131774902e+00 1.080710887908935547e+00
7.021000000000000000e+03 5.742076492309570312e+01 2.763710784912109375e+01 -5.419719815254211426e-01 1.029388523101806641e+01 2.925573825836181641e+00 9.905499815940856934e-01
7.022000000000000000e+03 5.754833602905273438e+01 2.675951385498046875e+01 -6.649749279022216797e-01 9.840913772583007812e+00 2.752781629562377930e+00 8.458101749420166016e-01
7.023000000000000000e+03 4.935408782958984375e+01 1.583055019378662109e+01 -4.218705296516418457e-01 3.998820304870605469e+00 1.073084950447082520e+00 9.119692444801330566e-01
7.024000000000000000e+03 4.904314041137695312e+01 1.548783016204833984e+01 -4.094252586364746094e-01 3.851019859313964844e+00 1.032478332519531250e+00 8.802397251129150391e-01
7.025000000000000000e+03 4.913150787353515625e+01 1.420837402343750000e+01 -4.468001425266265869e-01 3.921026945114135742e+00 1.042268037796020508e+00 8.074020743370056152e-01
7.026000000000000000e+03 4.333975219726562500e+01 8.738956451416015625e+00 -2.548719346523284912e-01 2.240619659423828125e+00 5.957242846488952637e-01 4.279408454895019531e-01
7.027000000000000000e+03 4.422948837280273438e+01 9.335479736328125000e+00 -2.790024280548095703e-01 2.446979284286499023e+00 6.503930687904357910e-01 4.788418710231781006e-01
7.028000000000000000e+03 5.862148666381835938e+01 1.890746116638183594e+01 -1.022964954376220703e+00 7.611107826232910156e+00 1.976442933082580566e+00 1.993964612483978271e-01
7.029000000000000000e+03 5.858295059204101562e+01 2.011538505554199219e+01 -1.028749942779541016e+00 7.869869709014892578e+00 2.052335977554321289e+00 2.378163337707519531e-01
7.030000000000000000e+03 5.429673767089843750e+01 2.141256332397460938e+01 -6.759061813354492188e-01 6.515632629394531250e+00 1.751917839050292969e+00 1.208295106887817383e+00
7.031000000000000000e+03 5.378930664062500000e+01 2.001844406127929688e+01 -6.698330044746398926e-01 6.076533794403076172e+00 1.622010231018066406e+00 1.108458280563354492e+00
7.032000000000000000e+03 4.363266754150390625e+01 6.975552082061767578e+00 -2.499752044677734375e-01 2.370387315750122070e+00 6.361236572265625000e-01 3.891262710094451904e-01
7.033000000000000000e+03 4.292697143554687500e+01 7.874071121215820312e+00 -2.373272776603698730e-01 2.135159492492675781e+00 5.693497061729431152e-01 3.895383775234222412e-01
7.034000000000000000e+03 5.182064437866210938e+01 1.791783905029296875e+01 -5.520094037055969238e-01 5.049976825714111328e+00 1.349390268325805664e+00 1.038624167442321777e+00
7.035000000000000000e+03 5.481066131591796875e+01 2.182930183410644531e+01 -7.089576721191406250e-01 6.796473503112792969e+00 1.826254725456237793e+00 1.164224267005920410e+00
7.036000000000000000e+03 4.521435928344726562e+01 1.205253791809082031e+01 -2.958256602287292480e-01 2.649357795715332031e+00 7.060596346855163574e-01 5.934010744094848633e-01
7.037000000000000000e+03 4.597226715087890625e+01 1.196410179138183594e+01 -3.198031485080718994e-01 2.880352973937988281e+00 7.681649923324584961e-01 6.259970664978027344e-01
7.038000000000000000e+03 4.948681640625000000e+01 1.333075237274169922e+01 -4.836570024490356445e-01 4.047881603240966797e+00 1.069267392158508301e+00 7.442930340766906738e-01
7.039000000000000000e+03 5.036159133911132812e+01 1.693565559387207031e+01 -4.583980441093444824e-01 4.368943691253662109e+00 1.173163771629333496e+00 1.000883460044860840e+00
7.040000000000000000e+03 4.165707015991210938e+01 5.723471164703369141e+00 -1.904946863651275635e-01 1.889119029045104980e+00 5.095872879028320312e-01 2.976257205009460449e-01
7.041000000000000000e+03 5.897015762329101562e+01 2.375498008728027344e+01 -9.463948607444763184e-01 8.960741996765136719e+00 2.404304027557373047e+00 1.901092976331710815e-01
7.042000000000000000e+03 5.927788162231445312e+01 2.480436134338378906e+01 -8.756055831909179688e-01 9.369505882263183594e+00 2.548170089721679688e+00 7.155910879373550415e-02
7.043000000000000000e+03 3.942892837524414062e+01 2.343671560287475586e+00 -1.076223105192184448e-01 1.480139493942260742e+00 4.117551743984222412e-01 1.539299637079238892e-01
7.044000000000000000e+03 4.172726821899414062e+01 3.355073213577270508e+00 -1.663338840007781982e-01 1.981080055236816406e+00 5.444238781929016113e-01 2.411939948797225952e-01
7.045000000000000000e+03 5.084576034545898438e+01 1.733139419555664062e+01 -4.841709136962890625e-01 4.585346698760986328e+00 1.230352640151977539e+00 1.007575631141662598e+00
7.046000000000000000e+03 4.512079620361328125e+01 2.437027931213378906e+00 -2.609453499317169189e-01 2.838996171951293945e+00 7.734152674674987793e-01 2.731840908527374268e-01
7.047000000000000000e+03 4.302275466918945312e+01 7.230840206146240234e+00 -2.362374663352966309e-01 2.188369750976562500e+00 5.856397151947021484e-01 3.761356174945831299e-01
7.048000000000000000e+03 4.548737335205078125e+01 1.750957369804382324e+00 -2.706151008605957031e-01 2.931689977645874023e+00 7.983224987983703613e-01 2.590698897838592529e-01
7.049000000000000000e+03 5.845938110351562500e+01 2.250739860534667969e+01 -9.912841320037841797e-01 8.438168525695800781e+00 2.234065294265747070e+00 3.330122232437133789e-01
7.050000000000000000e+03 5.892615509033203125e+01 1.232403087615966797e+01 -8.652008175849914551e-01 6.746603012084960938e+00 1.764420628547668457e+00 7.004348933696746826e-02
7.051000000000000000e+03 5.863455200195312500e+01 1.330629539489746094e+01 -8.966140151023864746e-01 6.778481006622314453e+00 1.764559984207153320e+00 1.069119349122047424e-01
7.052000000000000000e+03 4.459082412719726562e+01 1.095817184448242188e+01 -2.878900468349456787e-01 2.499326705932617188e+00 6.634309887886047363e-01 5.347528457641601562e-01
7.053000000000000000e+03 4.377105712890625000e+01 9.580211639404296875e+00 -2.672961950302124023e-01 2.317783594131469727e+00 6.151462793350219727e-01 4.696337282657623291e-01
7.054000000000000000e+03 5.781304550170898438e+01 1.377059745788574219e+01 -8.987924456596374512e-01 6.643942356109619141e+00 1.723544955253601074e+00 2.166997343301773071e-01
7.055000000000000000e+03 4.085742950439453125e+01 4.440528869628906250e+00 -1.575036346912384033e-01 1.737157702445983887e+00 4.738962352275848389e-01 2.436797767877578735e-01
7.056000000000000000e+03 4.067036056518554688e+01 5.793225288391113281e+00 -1.696983426809310913e-01 1.644026160240173340e+00 4.422983527183532715e-01 2.668959200382232666e-01
7.057000000000000000e+03 5.423073959350585938e+01 1.931680107116699219e+01 -7.371715307235717773e-01 6.191939830780029297e+00 1.636430382728576660e+00 9.751894474029541016e-01
7.058000000000000000e+03 4.728078842163085938e+01 3.840854763984680176e-01 -3.172909617424011230e-01 3.401607275009155273e+00 9.252948760986328125e-01 2.351271659135818481e-01
7.059000000000000000e+03 4.479994583129882812e+01 1.324867844581604004e+00 -2.473354488611221313e-01 2.773909807205200195e+00 7.579723000526428223e-01 2.380084097385406494e-01
7.060000000000000000e+03 4.583985137939453125e+01 1.077933073043823242e+00 -2.780921459197998047e-01 3.028856039047241211e+00 8.252291679382324219e-01 2.430534213781356812e-01
7.061000000000000000e+03 4.965479660034179688e+01 -7.241086959838867188e-01 -3.774881064891815186e-01 3.976012229919433594e+00 1.079557299613952637e+00 2.082800269126892090e-01
7.062000000000000000e+03 5.627747344970703125e+01 8.532210350036621094e+00 -7.083576321601867676e-01 5.822469711303710938e+00 1.534233570098876953e+00 2.415948212146759033e-01
7.063000000000000000e+03 5.773445129394531250e+01 8.041159629821777344e+00 -7.093905806541442871e-01 6.118874073028564453e+00 1.622845053672790527e+00 1.331952959299087524e-01
7.064000000000000000e+03 4.046997070312500000e+01 2.538744688034057617e+00 -1.310744881629943848e-01 1.698421597480773926e+00 4.702041149139404297e-01 1.901807785034179688e-01
7.065000000000000000e+03 4.380699920654296875e+01 8.583119392395019531e+00 -2.637327313423156738e-01 2.362332582473754883e+00 6.295799612998962402e-01 4.422483444213867188e-01
7.066000000000000000e+03 4.396104431152343750e+01 8.963756561279296875e+00 -2.704064846038818359e-01 2.394648075103759766e+00 6.372724771499633789e-01 4.619740545749664307e-01
7.067000000000000000e+03 5.831202697753906250e+01 2.188121986389160156e+01 -1.006511569023132324e+00 8.219910621643066406e+00 2.164019823074340820e+00 3.482882082462310791e-01
7.068000000000000000e+03 5.932974243164062500e+01 1.205570697784423828e+01 -8.630999326705932617e-01 6.773267745971679688e+00 1.773050308227539062e+00 3.986170142889022827e-02
7.069000000000000000e+03 5.869527435302734375e+01 1.272543334960937500e+01 -8.773997426033020020e-01 6.740530014038085938e+00 1.758939146995544434e+00 9.142768383026123047e-02
7.070000000000000000e+03 5.571577835083007812e+01 2.294251060485839844e+01 -7.666188478469848633e-01 7.497080802917480469e+00 2.019138574600219727e+00 1.128036975860595703e+00
7.071000000000000000e+03 5.061330795288085938e+01 -1.828089237213134766e+00 -3.818169832229614258e-01 4.207595825195312500e+00 1.147733569145202637e+00 1.820810437202453613e-01
7.072000000000000000e+03 5.213044738769531250e+01 -2.242273539304733276e-01 -4.259558618068695068e-01 4.549324035644531250e+00 1.237010478973388672e+00 2.102439403533935547e-01
7.073000000000000000e+03 4.107698059082031250e+01 2.944332361221313477e+00 -1.489620059728622437e-01 1.823401570320129395e+00 5.023318529129028320e-01 2.135363370180130005e-01
7.074000000000000000e+03 4.205415344238281250e+01 2.755808115005493164e+00 -1.725839972496032715e-01 2.067284822463989258e+00 5.684102177619934082e-01 2.268572151660919189e-01
7.075000000000000000e+03 3.913383483886718750e+01 3.419879436492919922e+00 -1.094617694616317749e-01 1.378818988800048828e+00 3.808071613311767578e-01 1.665012091398239136e-01
7.076000000000000000e+03 5.205351257324218750e+01 -1.193136334419250488e+00 -4.166311025619506836e-01 4.524963378906250000e+00 1.232499718666076660e+00 1.917062848806381226e-01
7.077000000000000000e+03 3.896584701538085938e+01 2.634556531906127930e+00 -9.899996221065521240e-02 1.347845554351806641e+00 3.746536970138549805e-01 1.441165506839752197e-01
7.078000000000000000e+03 5.363207626342773438e+01 -3.769942760467529297e+00 -4.077958166599273682e-01 4.883371829986572266e+00 1.342672824859619141e+00 1.488405317068099976e-01
7.079000000000000000e+03 5.311404418945312500e+01 -1.298704028129577637e+00 -4.258286058902740479e-01 4.780047416687011719e+00 1.306265592575073242e+00 1.799256801605224609e-01
7.080000000000000000e+03 5.700134277343750000e+01 6.620833396911621094e+00 -6.649567484855651855e-01 5.870427131652832031e+00 1.561641097068786621e+00 1.748709082603454590e-01
7.081000000000000000e+03 5.489145660400390625e+01 2.009097814559936523e+00 -5.128600597381591797e-01 5.239274978637695312e+00 1.417924523353576660e+00 1.968524158000946045e-01
7.082000000000000000e+03 5.467538833618164062e+01 -4.175627708435058594e+00 -4.029920995235443115e-01 5.095282077789306641e+00 1.407687067985534668e+00 1.404119282960891724e-01
7.083000000000000000e+03 5.869208908081054688e+01 9.215735435485839844e+00 -7.593748569488525391e-01 6.403846263885498047e+00 1.693341374397277832e+00 8.162692189216613770e-02
7.084000000000000000e+03 5.694714355468750000e+01 9.105337142944335938e+00 -7.345070838928222656e-01 6.018798828125000000e+00 1.585287570953369141e+00 2.066313773393630981e-01
7.085000000000000000e+03 5.791345977783203125e+01 1.638215827941894531e+01 -9.704830646514892578e-01 7.000849723815917969e+00 1.809109926223754883e+00 2.706629335880279541e-01
7.086000000000000000e+03 5.418325042724609375e+01 -1.447304606437683105e+00 -4.425145983695983887e-01 5.018838882446289062e+00 1.372897267341613770e+00 1.712724715471267700e-01
7.087000000000000000e+03 4.296241760253906250e+01 3.459846019744873047e+00 -1.991216093301773071e-01 2.274449825286865234e+00 6.225984692573547363e-01 2.761116623878479004e-01
7.088000000000000000e+03 4.229744338989257812e+01 4.784794807434082031e+00 -1.971705406904220581e-01 2.076645851135253906e+00 5.638425946235656738e-01 2.855401635169982910e-01
7.089000000000000000e+03 4.853819274902343750e+01 4.295851886272430420e-01 -3.531078398227691650e-01 3.687393665313720703e+00 1.000285744667053223e+00 2.394840568304061890e-01
7.090000000000000000e+03 4.652879333496093750e+01 1.488765478134155273e+00 -2.999835908412933350e-01 3.190613746643066406e+00 8.671890497207641602e-01 2.619167864322662354e-01
7.091000000000000000e+03 5.576610565185546875e+01 -4.439738273620605469e+00 -4.138424694538116455e-01 5.321127891540527344e+00 1.472185611724853516e+00 1.407699137926101685e-01
7.092000000000000000e+03 5.625214385986328125e+01 2.449766731262207031e+01 -7.340818047523498535e-01 8.235445976257324219e+00 2.250409364700317383e+00 1.193575501441955566e+00
7.093000000000000000e+03 5.661420440673828125e+01 2.486898994445800781e+01 -7.538287043571472168e-01 8.558732032775878906e+00 2.341470956802368164e+00 1.118321657180786133e+00
7.094000000000000000e+03 5.630664825439453125e+01 2.520222473144531250e+01 -6.920614242553710938e-01 8.517247200012207031e+00 2.347555875778198242e+00 1.258133530616760254e+00
7.095000000000000000e+03 5.796395874023437500e+01 2.091710853576660156e+01 -1.007736206054687500e+00 7.888811111450195312e+00 2.064322471618652344e+00 4.300017356872558594e-01
7.096000000000000000e+03 5.816939926147460938e+01 2.727880287170410156e+01 -6.114395856857299805e-01 1.031428813934326172e+01 2.910854578018188477e+00 5.299691557884216309e-01
7.097000000000000000e+03 5.717224884033203125e+01 2.655878829956054688e+01 -6.646136045455932617e-01 9.557931900024414062e+00 2.667995452880859375e+00 1.045493602752685547e+00
7.098000000000000000e+03 5.696105575561523438e+01 2.587256240844726562e+01 -7.093980908393859863e-01 9.144544601440429688e+00 2.530543804168701172e+00 1.078360557556152344e+00
7.099000000000000000e+03 5.637990951538085938e+01 2.580335235595703125e+01 -6.466162204742431641e-01 8.792530059814453125e+00 2.443773984909057617e+00 1.311654090881347656e+00
7.100000000000000000e+03 5.842952346801757812e+01 2.697849082946777344e+01 -6.476003527641296387e-01 1.020402145385742188e+01 2.866926431655883789e+00 3.859595060348510742e-01
7.101000000000000000e+03 5.663872909545898438e+01 2.614039230346679688e+01 -6.502227783203125000e-01 9.098242759704589844e+00 2.534406185150146484e+00 1.245563030242919922e+00
7.102000000000000000e+03 5.800307846069335938e+01 2.048896598815917969e+01 -1.008388638496398926e+00 7.756841182708740234e+00 2.024535655975341797e+00 3.915326595306396484e-01
7.103000000000000000e+03 5.684825897216796875e+01 2.338069343566894531e+01 -8.704853653907775879e-01 8.191060066223144531e+00 2.196172237396240234e+00 8.668253421783447266e-01
7.104000000000000000e+03 5.744699859619140625e+01 2.435143089294433594e+01 -8.692862987518310547e-01 8.745516777038574219e+00 2.362869262695312500e+00 7.486487030982971191e-01
7.105000000000000000e+03 5.664382171630859375e+01 2.552234077453613281e+01 -7.087233662605285645e-01 8.816802978515625000e+00 2.432423830032348633e+00 1.180815696716308594e+00
7.106000000000000000e+03 5.187382507324218750e+01 1.899726486206054688e+01 -5.118206143379211426e-01 5.118268013000488281e+00 1.381934165954589844e+00 1.141876935958862305e+00
7.107000000000000000e+03 4.982556152343750000e+01 1.398752498626708984e+01 -4.989696145057678223e-01 4.174040794372558594e+00 1.102521419525146484e+00 7.830464243888854980e-01
7.108000000000000000e+03 5.727446746826171875e+01 1.927573585510253906e+01 -9.787157773971557617e-01 7.328465938568115234e+00 1.904925107955932617e+00 4.911088049411773682e-01
7.109000000000000000e+03 5.720782089233398438e+01 1.878677749633789062e+01 -9.710317850112915039e-01 7.211246013641357422e+00 1.872064232826232910e+00 4.759981930255889893e-01
7.110000000000000000e+03 5.591335296630859375e+01 1.939620780944824219e+01 -8.873748183250427246e-01 6.895240783691406250e+00 1.802359819412231445e+00 7.105679512023925781e-01
7.111000000000000000e+03 4.406086349487304688e+01 1.119710731506347656e+01 -2.666809558868408203e-01 2.332616329193115234e+00 6.197806000709533691e-01 5.215436220169067383e-01
7.112000000000000000e+03 5.006935119628906250e+01 1.469803142547607422e+01 -5.026555657386779785e-01 4.271754264831542969e+00 1.130729675292968750e+00 8.265287280082702637e-01
7.113000000000000000e+03 4.757316589355468750e+01 1.257613754272460938e+01 -3.891389369964599609e-01 3.386325836181640625e+00 8.991560935974121094e-01 6.938610076904296875e-01
7.114000000000000000e+03 5.763953781127929688e+01 1.972823143005371094e+01 -1.001257300376892090e+00 7.539951801300048828e+00 1.961608290672302246e+00 4.368810355663299561e-01
7.115000000000000000e+03 4.377836608886718750e+01 7.566369056701660156e+00 -2.618428766727447510e-01 2.392072439193725586e+00 6.390689015388488770e-01 4.123989939689636230e-01
7.116000000000000000e+03 4.028363800048828125e+01 4.067742824554443359e+00 -1.404079049825668335e-01 1.610826849937438965e+00 4.411256909370422363e-01 2.154602408409118652e-01
7.117000000000000000e+03 5.498385620117187500e+01 1.976683807373046875e+01 -8.093497157096862793e-01 6.609144687652587891e+00 1.739938497543334961e+00 9.365988373756408691e-01
7.118000000000000000e+03 4.952640151977539062e+01 1.539278888702392578e+01 -4.458097219467163086e-01 4.047152519226074219e+00 1.080402851104736328e+00 8.849498629570007324e-01
7.119000000000000000e+03 5.398095321655273438e+01 1.875041770935058594e+01 -7.329050898551940918e-01 6.020486354827880859e+00 1.586274385452270508e+00 9.630216360092163086e-01
7.120000000000000000e+03 5.900812530517578125e+01 2.594555664062500000e+01 -7.632989883422851562e-01 9.808359146118164062e+00 2.713518142700195312e+00 1.489683389663696289e-01
7.121000000000000000e+03 5.494719696044921875e+01 2.072530174255371094e+01 -7.818064689636230469e-01 6.731671333312988281e+00 1.784959435462951660e+00 1.029875874519348145e+00
7.122000000000000000e+03 5.439080047607421875e+01 1.992567443847656250e+01 -7.400513887405395508e-01 6.357906341552734375e+00 1.685356378555297852e+00 1.016246080398559570e+00
7.123000000000000000e+03 4.459169387817382812e+01 4.540436744689941406e+00 -2.628764808177947998e-01 2.679408788681030273e+00 7.249596714973449707e-01 3.353879749774932861e-01
7.124000000000000000e+03 5.019324111938476562e+01 1.543639945983886719e+01 -4.917634725570678711e-01 4.323687076568603516e+00 1.149577021598815918e+00 8.829461336135864258e-01
7.125000000000000000e+03 5.018618011474609375e+01 1.609068489074707031e+01 -4.745578169822692871e-01 4.313651561737060547e+00 1.151728153228759766e+00 9.335098266601562500e-01
7.126000000000000000e+03 4.494661712646484375e+01 1.146249866485595703e+01 -2.920226454734802246e-01 2.596320390701293945e+00 6.912893056869506836e-01 5.675361752510070801e-01
7.127000000000000000e+03 4.122064590454101562e+01 6.168445110321044922e+00 -1.840068995952606201e-01 1.769748330116271973e+00 4.757224321365356445e-01 2.935503721237182617e-01
7.128000000000000000e+03 5.810508346557617188e+01 2.218650817871093750e+01 -9.889255166053771973e-01 8.261298179626464844e+00 2.181711673736572266e+00 4.327872395515441895e-01
7.129000000000000000e+03 5.851884841918945312e+01 2.325140190124511719e+01 -9.694357514381408691e-01 8.690300941467285156e+00 2.316259622573852539e+00 3.409857153892517090e-01
7.130000000000000000e+03 5.075084686279296875e+01 1.641335487365722656e+01 -5.097705125808715820e-01 4.539803504943847656e+00 1.209009885787963867e+00 9.379221796989440918e-01
7.131000000000000000e+03 5.865786743164062500e+01 2.465485954284667969e+01 -8.887780904769897461e-01 9.198494911193847656e+00 2.492915153503417969e+00 3.003780841827392578e-01
7.132000000000000000e+03 5.138874816894531250e+01 1.762191009521484375e+01 -5.239936709403991699e-01 4.857887268066406250e+00 1.300168037414550781e+00 1.021616935729980469e+00
7.133000000000000000e+03 5.812304687500000000e+01 1.243179798126220703e+01 -8.567314743995666504e-01 6.565722465515136719e+00 1.712697267532348633e+00 1.534208506345748901e-01
7.134000000000000000e+03 4.854129028320312500e+01 1.295378971099853516e+01 -4.333017468452453613e-01 3.713312625885009766e+00 9.840032458305358887e-01 7.241182327270507812e-01
7.135000000000000000e+03 4.829116439819335938e+01 1.234545803070068359e+01 -4.272007942199707031e-01 3.638943433761596680e+00 9.635227322578430176e-01 6.922683119773864746e-01
7.136000000000000000e+03 4.692570495605468750e+01 2.559959888458251953e+00 -3.231618404388427734e-01 3.290415287017822266e+00 8.901760578155517578e-01 2.975006103515625000e-01
7.137000000000000000e+03 4.471295928955078125e+01 3.155743598937988281e+00 -2.568432092666625977e-01 2.723639965057373047e+00 7.400390505790710449e-01 2.880374491214752197e-01
7.138000000000000000e+03 4.354528427124023438e+01 2.180223226547241211e+00 -2.186998426914215088e-01 2.448861598968505859e+00 6.690485477447509766e-01 2.408362776041030884e-01
7.139000000000000000e+03 4.542230987548828125e+01 1.105757713317871094e+01 -3.103963732719421387e-01 2.755308389663696289e+00 7.334736585617065430e-01 5.726609230041503906e-01
7.140000000000000000e+03 4.674211502075195312e+01 1.197819423675537109e+01 -3.575914502143859863e-01 3.141275882720947266e+00 8.351052999496459961e-01 6.444448232650756836e-01
7.141000000000000000e+03 5.727934646606445312e+01 7.592981338500976562e+00 -6.890255212783813477e-01 6.002115726470947266e+00 1.593927025794982910e+00 1.569591760635375977e-01
7.142000000000000000e+03 5.641001510620117188e+01 1.745745849609375000e+01 -9.240523576736450195e-01 6.752579689025878906e+00 1.748558163642883301e+00 5.351643562316894531e-01
7.143000000000000000e+03 5.761959457397460938e+01 6.991991996765136719e+00 -6.752240061759948730e-01 6.040748119354248047e+00 1.609657287597656250e+00 1.349673569202423096e-01
7.144000000000000000e+03 5.847499084472656250e+01 1.185688018798828125e+01 -8.417462110519409180e-01 6.593450546264648438e+00 1.725511312484741211e+00 1.046135202050209045e-01
7.145000000000000000e+03 5.574164962768554688e+01 1.118169116973876953e+01 -7.706831097602844238e-01 5.879594802856445312e+00 1.532673478126525879e+00 3.429163694381713867e-01
7.146000000000000000e+03 4.918968582153320312e+01 1.271785068511962891e+01 -4.699287712574005127e-01 3.929901599884033203e+00 1.037991881370544434e+00 7.134149074554443359e-01
7.147000000000000000e+03 4.884144973754882812e+01 1.357758712768554688e+01 -4.405458569526672363e-01 3.809932470321655273e+00 1.010815978050231934e+00 7.651503086090087891e-01
7.148000000000000000e+03 4.380549240112304688e+01 8.106536865234375000e+00 -2.651876211166381836e-01 2.369380474090576172e+00 6.312578916549682617e-01 4.297354221343994141e-01
7.149000000000000000e+03 5.671297836303710938e+01 5.554716587066650391e+00 -6.263584494590759277e-01 5.753369808197021484e+00 1.538103461265563965e+00 1.764199435710906982e-01
7.150000000000000000e+03 5.583634948730468750e+01 2.164560317993164062e+01 -8.377870321273803711e-01 7.293838500976562500e+00 1.936815500259399414e+00 9.553785324096679688e-01
7.151000000000000000e+03 4.683580780029296875e+01 8.579133152961730957e-01 -3.072295188903808594e-01 3.270145654678344727e+00 8.888748288154602051e-01 2.471401542425155640e-01
7.152000000000000000e+03 4.467698669433593750e+01 5.415321826934814453e+00 -2.697889804840087891e-01 2.682774305343627930e+00 7.238956093788146973e-01 3.610621392726898193e-01
7.153000000000000000e+03 4.451564025878906250e+01 9.765850067138671875e+00 -2.853000760078430176e-01 2.522649288177490234e+00 6.712047457695007324e-01 4.984180927276611328e-01
7.154000000000000000e+03 5.748504257202148438e+01 1.509424209594726562e+01 -9.234580397605895996e-01 6.711520671844482422e+00 1.736418724060058594e+00 2.878842055797576904e-01
7.155000000000000000e+03 5.693271255493164062e+01 1.419332218170166016e+01 -8.871863484382629395e-01 6.471304416656494141e+00 1.675235390663146973e+00 3.234755396842956543e-01
7.156000000000000000e+03 5.541093063354492188e+01 4.690329074859619141e+00 -5.867595076560974121e-01 5.430581092834472656e+00 1.453146457672119141e+00 2.195184379816055298e-01
7.157000000000000000e+03 5.692163467407226562e+01 2.227529716491699219e+01 -9.236821532249450684e-01 7.892130851745605469e+00 2.090534687042236328e+00 7.607285976409912109e-01
7.158000000000000000e+03 5.364986038208007812e+01 2.661733388900756836e+00 -5.065146088600158691e-01 4.967761039733886719e+00 1.338373899459838867e+00 2.355020940303802490e-01
7.159000000000000000e+03 4.784315490722656250e+01 -1.337730288505554199e-01 -3.235306143760681152e-01 3.532032489776611328e+00 9.625505805015563965e-01 2.195986509323120117e-01
7.160000000000000000e+03 5.121656799316406250e+01 -1.470596939325332642e-01 -4.100398421287536621e-01 4.355353832244873047e+00 1.183594107627868652e+00 2.224257290363311768e-01
7.161000000000000000e+03 5.655778884887695312e+01 9.754390716552734375e+00 -7.503216862678527832e-01 5.973638057708740234e+00 1.566994905471801758e+00 2.411815226078033447e-01
7.162000000000000000e+03 5.734079360961914062e+01 1.022234344482421875e+01 -7.771591544151306152e-01 6.189054489135742188e+00 1.623568534851074219e+00 1.957674622535705566e-01
7.163000000000000000e+03 5.691529846191406250e+01 1.594214534759521484e+01 -9.287729263305664062e-01 6.696043014526367188e+00 1.730181097984313965e+00 3.848443627357482910e-01
7.164000000000000000e+03 5.756972122192382812e+01 1.571582412719726562e+01 -9.428806304931640625e-01 6.832177162170410156e+00 1.766788959503173828e+00 2.909180819988250732e-01
7.165000000000000000e+03 4.183049392700195312e+01 4.343802928924560547e+00 -1.812442094087600708e-01 1.976504087448120117e+00 5.385779738426208496e-01 2.702906429767608643e-01
7.166000000000000000e+03 4.314568710327148438e+01 5.006615161895751953e+00 -2.239939272403717041e-01 2.282937765121459961e+00 6.176831722259521484e-01 3.267018496990203857e-01
7.167000000000000000e+03 4.826586151123046875e+01 1.229874968528747559e+00 -3.478920161724090576e-01 3.626037359237670898e+00 9.834436178207397461e-01 2.571192085742950439e-01
7.168000000000000000e+03 4.581053543090820312e+01 2.845376729965209961e+00 -2.901537120342254639e-01 2.997695207595825195e+00 8.122624754905700684e-01 2.974467277526855469e-01
7.169000000000000000e+03 5.416761398315429688e+01 7.515017986297607422e-01 -4.801768064498901367e-01 5.042714118957519531e+00 1.368761181831359863e+00 1.926715970039367676e-01
7.170000000000000000e+03 5.563426971435546875e+01 -5.556106090545654297e+00 -3.923094868659973145e-01 5.298499584197998047e+00 1.471857070922851562e+00 1.362060904502868652e-01
7.171000000000000000e+03 5.525170516967773438e+01 -7.687242984771728516e+00 -3.758535087108612061e-01 5.223239421844482422e+00 1.454215764999389648e+00 1.300705671310424805e-01
7.172000000000000000e+03 5.700268173217773438e+01 2.457714271545410156e+01 -8.165457844734191895e-01 8.633111953735351562e+00 2.344969749450683594e+00 9.373767375946044922e-01
7.173000000000000000e+03 5.776740646362304688e+01 2.243920326232910156e+01 -9.708052277565002441e-01 8.235736846923828125e+00 2.179479360580444336e+00 5.170199275016784668e-01
7.174000000000000000e+03 5.606155776977539062e+01 2.253884315490722656e+01 -8.301644325256347656e-01 7.591164112091064453e+00 2.028299808502197266e+00 1.001373410224914551e+00
7.175000000000000000e+03 5.707795333862304688e+01 2.691641616821289062e+01 -6.147898435592651367e-01 9.726639747619628906e+00 2.733554840087890625e+00 1.127060294151306152e+00
7.176000000000000000e+03 5.733605575561523438e+01 2.617095947265625000e+01 -7.151859998703002930e-01 9.446589469909667969e+00 2.619421005249023438e+00 9.340022802352905273e-01
7.177000000000000000e+03 4.480260848999023438e+01 1.022098255157470703e+01 -2.958630323410034180e-01 2.583777427673339844e+00 6.863743066787719727e-01 5.265862941741943359e-01
7.178000000000000000e+03 5.281978225708007812e+01 1.894419097900390625e+01 -6.073982715606689453e-01 5.528698921203613281e+00 1.476390123367309570e+00 1.084212899208068848e+00
7.179000000000000000e+03 5.787796783447265625e+01 2.700503349304199219e+01 -6.541195511817932129e-01 1.010045623779296875e+01 2.833900928497314453e+00 6.935784816741943359e-01
7.180000000000000000e+03 5.710639190673828125e+01 2.014799118041992188e+01 -9.728485941886901855e-01 7.461817264556884766e+00 1.946690559387207031e+00 5.642164349555969238e-01
7.181000000000000000e+03 5.816184234619140625e+01 2.517158126831054688e+01 -8.392339348793029785e-01 9.276857376098632812e+00 2.531286954879760742e+00 5.089665651321411133e-01
7.182000000000000000e+03 5.593503189086914062e+01 2.407177162170410156e+01 -7.199264168739318848e-01 7.946113586425781250e+00 2.167856216430664062e+00 1.227062702178955078e+00
7.183000000000000000e+03 5.639950942993164062e+01 2.372938537597656250e+01 -8.073475360870361328e-01 8.102416038513183594e+00 2.188520431518554688e+00 1.038669586181640625e+00
7.184000000000000000e+03 5.814450454711914062e+01 2.666290664672851562e+01 -6.960693001747131348e-01 9.997451782226562500e+00 2.790414810180664062e+00 5.368006825447082520e-01
7.185000000000000000e+03 5.810207748413085938e+01 2.562261772155761719e+01 -8.016713261604309082e-01 9.477916717529296875e+00 2.602873802185058594e+00 5.488392710685729980e-01
7.186000000000000000e+03 5.773375320434570312e+01 2.549917030334472656e+01 -7.956613302230834961e-01 9.291627883911132812e+00 2.548789739608764648e+00 7.112867236137390137e-01
7.187000000000000000e+03 5.263143539428710938e+01 1.931141090393066406e+01 -5.718756914138793945e-01 5.475468635559082031e+00 1.471077799797058105e+00 1.144891977310180664e+00
7.188000000000000000e+03 5.652627944946289062e+01 2.105102729797363281e+01 -9.193880558013916016e-01 7.432586669921875000e+00 1.953959584236145020e+00 7.487038969993591309e-01
7.189000000000000000e+03 5.347487640380859375e+01 1.902629852294921875e+01 -6.774092912673950195e-01 5.849139690399169922e+00 1.551519155502319336e+00 1.036212563514709473e+00
7.190000000000000000e+03 5.047555160522460938e+01 1.365582942962646484e+01 -5.404025912284851074e-01 4.394124984741210938e+00 1.156116724014282227e+00 7.535974979400634766e-01
7.191000000000000000e+03 5.092160034179687500e+01 1.415393924713134766e+01 -5.625138878822326660e-01 4.538270950317382812e+00 1.192727088928222656e+00 7.807809114456176758e-01
7.192000000000000000e+03 5.584143447875976562e+01 2.104508972167968750e+01 -8.560295104980468750e-01 7.158705711364746094e+00 1.890802860260009766e+00 8.970786333084106445e-01
7.193000000000000000e+03 4.437747192382812500e+01 7.551201820373535156e+00 -2.746084928512573242e-01 2.541203260421752930e+00 6.799784302711486816e-01 4.350045919418334961e-01
7.194000000000000000e+03 5.862984466552734375e+01 2.523837852478027344e+01 -8.420705795288085938e-01 9.442066192626953125e+00 2.579998731613159180e+00 3.102278113365173340e-01
7.195000000000000000e+03 4.330625915527343750e+01 8.055762290954589844e+00 -2.515521347522735596e-01 2.254753351211547852e+00 6.009603738784790039e-01 4.096995592117309570e-01
7.196000000000000000e+03 5.484235000610351562e+01 1.911019897460937500e+01 -8.018002510070800781e-01 6.429921627044677734e+00 1.688436388969421387e+00 8.743107318878173828e-01
7.197000000000000000e+03 5.549959182739257812e+01 1.959922027587890625e+01 -8.563744425773620605e-01 6.773445129394531250e+00 1.775121212005615234e+00 8.203728199005126953e-01
7.198000000000000000e+03 4.842900466918945312e+01 1.146319580078125000e+01 -4.418821930885314941e-01 3.695590257644653320e+00 9.761124253273010254e-01 6.544831991195678711e-01
7.199000000000000000e+03 5.074743270874023438e+01 1.467632484436035156e+01 -5.460015535354614258e-01 4.496601581573486328e+00 1.185180068016052246e+00 8.121756911277770996e-01
7.200000000000000000e+03 4.282081985473632812e+01 5.850330352783203125e+00 -2.187127470970153809e-01 2.180970191955566406e+00 5.886772274971008301e-01 3.319252729415893555e-01
7.201000000000000000e+03 5.118333053588867188e+01 1.684976005554199219e+01 -5.320791602134704590e-01 4.722172260284423828e+00 1.257027864456176758e+00 9.650899171829223633e-01
7.202000000000000000e+03 5.848200225830078125e+01 2.405834579467773438e+01 -9.319369792938232422e-01 8.953618049621582031e+00 2.406504392623901367e+00 3.482903242111206055e-01
7.203000000000000000e+03 5.853421401977539062e+01 2.576529312133789062e+01 -7.935011386871337891e-01 9.650932312011718750e+00 2.657229423522949219e+00 3.552062213420867920e-01
7.204000000000000000e+03 4.141431045532226562e+01 4.836161136627197266e+00 -1.738691776990890503e-01 1.846963047981262207e+00 5.019281506538391113e-01 2.720938622951507568e-01
7.205000000000000000e+03 5.707577896118164062e+01 1.349918079376220703e+01 -8.728845715522766113e-01 6.420070171356201172e+00 1.664155721664428711e+00 2.886228263378143311e-01
7.206000000000000000e+03 5.743653869628906250e+01 1.206164360046386719e+01 -8.420391082763671875e-01 6.389256000518798828e+00 1.664165139198303223e+00 2.186817824840545654e-01
7.207000000000000000e+03 5.793456649780273438e+01 1.307681179046630859e+01 -8.808429241180419922e-01 6.600388050079345703e+00 1.715863466262817383e+00 1.857677847146987915e-01
7.208000000000000000e+03 5.093594360351562500e+01 1.535576057434082031e+01 -5.440816283226013184e-01 4.588167190551757812e+00 1.213225722312927246e+00 8.612287044525146484e-01
7.209000000000000000e+03 5.128517532348632812e+01 1.600869369506835938e+01 -5.583422780036926270e-01 4.742664337158203125e+00 1.255296587944030762e+00 8.988948464393615723e-01
7.210000000000000000e+03 5.665090942382812500e+01 1.863484573364257812e+01 -9.422169327735900879e-01 7.009373188018798828e+00 1.820146918296813965e+00 5.620831251144409180e-01
7.211000000000000000e+03 5.685586166381835938e+01 1.770026206970214844e+01 -9.476258158683776855e-01 6.917188644409179688e+00 1.790868878364562988e+00 4.762643873691558838e-01
7.212000000000000000e+03 5.749258422851562500e+01 2.065226745605468750e+01 -9.827128648757934570e-01 7.663585186004638672e+00 2.004261732101440430e+00 5.180588364601135254e-01
7.213000000000000000e+03 5.647691345214843750e+01 2.225580978393554688e+01 -8.756054043769836426e-01 7.690933704376220703e+00 2.044598579406738281e+00 8.764128088951110840e-01
7.214000000000000000e+03 5.808057022094726562e+01 2.284176826477050781e+01 -9.696971774101257324e-01 8.419055938720703125e+00 2.234807729721069336e+00 4.619543552398681641e-01
7.215000000000000000e+03 5.810859680175781250e+01 2.469367027282714844e+01 -8.794931173324584961e-01 9.065550804138183594e+00 2.455817461013793945e+00 5.237046480178833008e-01
7.216000000000000000e+03 5.165008926391601562e+01 1.709371376037597656e+01 -5.604526400566101074e-01 4.929034709930419922e+00 1.310574531555175781e+00 9.673938155174255371e-01
7.217000000000000000e+03 4.505934524536132812e+01 1.067846584320068359e+01 -3.012381792068481445e-01 2.623298645019531250e+00 6.966181397438049316e-01 5.460830330848693848e-01
7.218000000000000000e+03 5.492347717285156250e+01 5.515214920043945312e+00 -5.974954366683959961e-01 5.345851898193359375e+00 1.424506902694702148e+00 2.564044594764709473e-01
7.219000000000000000e+03 4.067647552490234375e+01 3.508487462997436523e+00 -1.405968070030212402e-01 1.727770090103149414e+00 4.761520028114318848e-01 2.169858813285827637e-01
7.220000000000000000e+03 4.977901077270507812e+01 1.246426582336425781e+01 -5.062438249588012695e-01 4.133064746856689453e+00 1.088046193122863770e+00 6.838450431823730469e-01
7.221000000000000000e+03 4.558797454833984375e+01 8.800735473632812500e+00 -3.218245804309844971e-01 2.850059986114501953e+00 7.584705948829650879e-01 4.989421665668487549e-01
7.222000000000000000e+03 5.544150924682617188e+01 1.668443489074707031e+01 -8.621215820312500000e-01 6.321867465972900391e+00 1.637923717498779297e+00 6.290680766105651855e-01
7.223000000000000000e+03 5.666857910156250000e+01 1.676881980895996094e+01 -9.287497997283935547e-01 6.746017932891845703e+00 1.745180487632751465e+00 4.549667537212371826e-01
7.224000000000000000e+03 4.104410934448242188e+01 5.323163986206054688e+00 -1.731098592281341553e-01 1.748776555061340332e+00 4.727000296115875244e-01 2.682712376117706299e-01
7.225000000000000000e+03 4.360160446166992188e+01 3.101392269134521484e+00 -2.191786766052246094e-01 2.443228006362915039e+00 6.672147512435913086e-01 2.715025246143341064e-01
7.226000000000000000e+03 4.618820571899414062e+01 2.164296388626098633e+00 -2.917350530624389648e-01 3.103999376296997070e+00 8.436793088912963867e-01 2.772903442382812500e-01
7.227000000000000000e+03 4.233592987060546875e+01 3.858661413192749023e+00 -1.882825344800949097e-01 2.113628864288330078e+00 5.776038765907287598e-01 2.641371488571166992e-01
7.228000000000000000e+03 4.281049346923828125e+01 4.437631607055664062e+00 -2.081739902496337891e-01 2.209758758544921875e+00 6.004754304885864258e-01 2.992505133152008057e-01
7.229000000000000000e+03 5.697479629516601562e+01 1.093232631683349609e+01 -7.937400341033935547e-01 6.159659862518310547e+00 1.609776020050048828e+00 2.339100241661071777e-01
7.230000000000000000e+03 5.781383132934570312e+01 1.136380004882812500e+01 -8.238881826400756836e-01 6.402724266052246094e+00 1.673650860786437988e+00 1.713056862354278564e-01
7.231000000000000000e+03 4.413567733764648438e+01 3.733098268508911133e+00 -2.410226762294769287e-01 2.577805280685424805e+00 7.010347843170166016e-01 3.032369911670684814e-01
7.232000000000000000e+03 5.630681610107421875e+01 6.307206153869628906e+00 -6.409064531326293945e-01 5.698946475982666016e+00 1.517412066459655762e+00 2.016732990741729736e-01
7.233000000000000000e+03 5.397009277343750000e+01 3.858329057693481445e+00 -5.425149202346801758e-01 5.070208072662353516e+00 1.358307957649230957e+00 2.521054744720458984e-01
7.234000000000000000e+03 5.470297241210937500e+01 4.261386394500732422e+00 -5.620660781860351562e-01 5.249786853790283203e+00 1.406316280364990234e+00 2.408479750156402588e-01
7.235000000000000000e+03 5.590962219238281250e+01 1.655154037475585938e+01 -8.940454125404357910e-01 6.492853164672851562e+00 1.679642319679260254e+00 5.576349496841430664e-01
7.236000000000000000e+03 5.720544815063476562e+01 2.118913841247558594e+01 -9.631314277648925781e-01 7.701253890991210938e+00 2.021436691284179688e+00 6.013523340225219727e-01
7.237000000000000000e+03 5.582632827758789062e+01 2.050676727294921875e+01 -8.692675828933715820e-01 7.046328067779541016e+00 1.853118062019348145e+00 8.594168424606323242e-01
7.238000000000000000e+03 4.744415283203125000e+01 1.194139957427978516e+01 -3.866958916187286377e-01 3.359190464019775391e+00 8.917483687400817871e-01 6.590090990066528320e-01
7.239000000000000000e+03 5.009138870239257812e+01 1.303489017486572266e+01 -5.234886407852172852e-01 4.250109195709228516e+00 1.117986083030700684e+00 7.209701538085937500e-01
7.240000000000000000e+03 4.931584167480468750e+01 6.088019609451293945e-01 -3.751337528228759766e-01 3.904328584671020508e+00 1.058758497238159180e+00 2.472056299448013306e-01
7.241000000000000000e+03 4.885134887695312500e+01 2.344811439514160156e+00 -3.758733868598937988e-01 3.770308494567871094e+00 1.018330454826354980e+00 2.903887033462524414e-01
7.242000000000000000e+03 5.019753265380859375e+01 6.780765056610107422e-01 -3.981826305389404297e-01 4.101941585540771484e+00 1.111127614974975586e+00 2.385951131582260132e-01
7.243000000000000000e+03 3.970365142822265625e+01 3.726743936538696289e+00 -1.227121874690055847e-01 1.491974592208862305e+00 4.107787311077117920e-01 1.930232793092727661e-01
7.244000000000000000e+03 5.106026077270507812e+01 -9.697176218032836914e-01 -3.975541591644287109e-01 4.294107437133789062e+00 1.168965935707092285e+00 2.009075433015823364e-01
7.245000000000000000e+03 5.196482086181640625e+01 3.677880287170410156e+00 -4.864021539688110352e-01 4.569486618041992188e+00 1.224925279617309570e+00 3.023141622543334961e-01
7.246000000000000000e+03 5.659846115112304688e+01 1.168217754364013672e+01 -8.048350811004638672e-01 6.133804321289062500e+00 1.598690867424011230e+00 2.873501777648925781e-01
7.247000000000000000e+03 4.725200653076171875e+01 1.821248054504394531e+00 -3.219523727893829346e-01 3.387494325637817383e+00 9.196625947952270508e-01 2.745315730571746826e-01
7.248000000000000000e+03 4.605627059936523438e+01 3.887361526489257812e+00 -3.012756407260894775e-01 3.083029985427856445e+00 8.345263004302978516e-01 3.336613178253173828e-01
7.249000000000000000e+03 5.421261596679687500e+01 5.091363906860351562e+00 -5.749009251594543457e-01 5.164880275726318359e+00 1.376993894577026367e+00 2.719606459140777588e-01
7.250000000000000000e+03 5.511043167114257812e+01 8.736640930175781250e+00 -6.895497441291809082e-01 5.552688598632812500e+00 1.458941698074340820e+00 3.190969824790954590e-01
7.251000000000000000e+03 5.315240097045898438e+01 -2.857235968112945557e-01 -4.507502913475036621e-01 4.793817520141601562e+00 1.302920222282409668e+00 1.960997432470321655e-01
7.252000000000000000e+03 5.764642715454101562e+01 2.478611946105957031e+01 -8.547596335411071777e-01 8.976089477539062500e+00 2.436398744583129883e+00 7.077255845069885254e-01
7.253000000000000000e+03 5.671318817138671875e+01 2.415544891357421875e+01 -8.152001500129699707e-01 8.349036216735839844e+00 2.260150671005249023e+00 9.924012422561645508e-01
7.254000000000000000e+03 5.643989562988281250e+01 2.169771194458007812e+01 -8.920125961303710938e-01 7.550420761108398438e+00 1.997522354125976562e+00 8.362596035003662109e-01
7.255000000000000000e+03 5.795017623901367188e+01 2.603311157226562500e+01 -7.620496749877929688e-01 9.618804931640625000e+00 2.657026529312133789e+00 6.374491453170776367e-01
7.256000000000000000e+03 5.244790267944335938e+01 1.873300552368164062e+01 -5.842856168746948242e-01 5.394005775451660156e+00 1.442916035652160645e+00 1.097114205360412598e+00
7.257000000000000000e+03 5.162252426147460938e+01 1.656830024719238281e+01 -5.761014819145202637e-01 4.895645141601562500e+00 1.295863151550292969e+00 9.302552342414855957e-01
7.258000000000000000e+03 5.526231765747070312e+01 1.807511329650878906e+01 -8.499471545219421387e-01 6.437145709991455078e+00 1.676159501075744629e+00 7.388820052146911621e-01
7.259000000000000000e+03 5.630270767211914062e+01 1.905346298217773438e+01 -9.182413220405578613e-01 6.990520477294921875e+00 1.821683764457702637e+00 6.352071762084960938e-01
7.260000000000000000e+03 5.838172912597656250e+01 2.625242042541503906e+01 -7.386017441749572754e-01 9.851504325866699219e+00 2.733870983123779297e+00 4.228947460651397705e-01
7.261000000000000000e+03 4.497310256958007812e+01 9.485471725463867188e+00 -3.022119998931884766e-01 2.673001289367675781e+00 7.112367749214172363e-01 5.074527263641357422e-01
7.262000000000000000e+03 5.722240066528320312e+01 2.555680274963378906e+01 -7.661423683166503906e-01 9.123038291931152344e+00 2.507068634033203125e+00 9.322687387466430664e-01
7.263000000000000000e+03 5.643553924560546875e+01 2.296816635131835938e+01 -8.551110625267028809e-01 7.887815952301025391e+00 2.109811544418334961e+00 9.439296126365661621e-01
7.264000000000000000e+03 5.704393386840820312e+01 2.178382492065429688e+01 -9.417263269424438477e-01 7.815108299255371094e+00 2.062014579772949219e+00 6.756385564804077148e-01
7.265000000000000000e+03 5.755849838256835938e+01 2.582172203063964844e+01 -7.599089145660400391e-01 9.366552352905273438e+00 2.581992864608764648e+00 7.982513904571533203e-01
7.266000000000000000e+03 5.314450073242187500e+01 1.859390068054199219e+01 -6.586502194404602051e-01 5.656610965728759766e+00 1.499388217926025391e+00 1.018497228622436523e+00
7.267000000000000000e+03 5.674692535400390625e+01 1.956103324890136719e+01 -9.492719769477844238e-01 7.209457874298095703e+00 1.878055810928344727e+00 6.009473204612731934e-01
7.268000000000000000e+03 5.646778869628906250e+01 2.042015075683593750e+01 -9.280104041099548340e-01 7.299691200256347656e+00 1.911504149436950684e+00 7.103792428970336914e-01
7.269000000000000000e+03 5.529967117309570312e+01 2.030316162109375000e+01 -8.188115358352661133e-01 6.795220851898193359e+00 1.792922854423522949e+00 9.327777028083801270e-01
7.270000000000000000e+03 5.575063705444335938e+01 1.862501335144042969e+01 -8.833480477333068848e-01 6.676440715789794922e+00 1.737927794456481934e+00 7.099382281303405762e-01
7.271000000000000000e+03 4.806352615356445312e+01 1.181448841094970703e+01 -4.225845336914062500e-01 3.570330858230590820e+00 9.443238973617553711e-01 6.635907888412475586e-01
7.272000000000000000e+03 4.343493270874023438e+01 4.100591659545898438e+00 -2.203564345836639404e-01 2.377619504928588867e+00 6.471788883209228516e-01 3.064714968204498291e-01
7.273000000000000000e+03 4.519828414916992188e+01 6.391856670379638672e+00 -2.975568473339080811e-01 2.784213781356811523e+00 7.459970712661743164e-01 4.109379053115844727e-01
7.274000000000000000e+03 5.776701736450195312e+01 2.516693687438964844e+01 -8.305227160453796387e-01 9.160442352294921875e+00 2.498975992202758789e+00 6.813540458679199219e-01
7.275000000000000000e+03 4.604180526733398438e+01 1.124846172332763672e+01 -3.325611054897308350e-01 2.921367168426513672e+00 7.766417860984802246e-01 5.964384078979492188e-01
7.276000000000000000e+03 5.130196762084960938e+01 1.457205772399902344e+01 -5.825028419494628906e-01 4.705731391906738281e+00 1.236968517303466797e+00 7.972301840782165527e-01
7.277000000000000000e+03 4.339422607421875000e+01 5.547261714935302734e+00 -2.310590744018554688e-01 2.323167085647583008e+00 6.276323795318603516e-01 3.429368734359741211e-01
7.278000000000000000e+03 4.433118820190429688e+01 6.898286342620849609e+00 -2.739784121513366699e-01 2.556343317031860352e+00 6.847094893455505371e-01 4.083253741264343262e-01
7.279000000000000000e+03 4.500085830688476562e+01 7.556425571441650391e+00 -3.014954924583435059e-01 2.719460010528564453e+00 7.253893017768859863e-01 4.415574371814727783e-01
7.280000000000000000e+03 5.572501373291015625e+01 2.004686355590820312e+01 -8.621203899383544922e-01 6.917954921722412109e+00 1.816750407218933105e+00 8.142549991607666016e-01
7.281000000000000000e+03 4.255683517456054688e+01 5.277132987976074219e+00 -2.137172073125839233e-01 2.122838020324707031e+00 5.727362036705017090e-01 3.141996264457702637e-01
7.282000000000000000e+03 4.896428298950195312e+01 1.213441848754882812e+01 -4.643391370773315430e-01 3.850444078445434570e+00 1.015831470489501953e+00 6.803960204124450684e-01
7.283000000000000000e+03 5.102301406860351562e+01 1.334443473815917969e+01 -5.735968351364135742e-01 4.558347702026367188e+00 1.195425271987915039e+00 7.167491316795349121e-01
7.284000000000000000e+03 4.197486114501953125e+01 5.221894264221191406e+00 -1.920258551836013794e-01 1.982437372207641602e+00 5.371234416961669922e-01 2.961417436599731445e-01
7.285000000000000000e+03 4.957885360717773438e+01 1.191435623168945312e+01 -4.948582649230957031e-01 4.051946163177490234e+00 1.067126274108886719e+00 6.659519076347351074e-01
7.286000000000000000e+03 5.159841537475585938e+01 1.512524604797363281e+01 -6.004392504692077637e-01 4.849031448364257812e+00 1.274577617645263672e+00 8.107189536094665527e-01
7.287000000000000000e+03 4.853350830078125000e+01 3.167244911193847656e+00 -3.734513223171234131e-01 3.699697732925415039e+00 9.978739023208618164e-01 3.186263442039489746e-01
7.288000000000000000e+03 5.323433303833007812e+01 3.472799062728881836e+00 -5.176916122436523438e-01 4.877585411071777344e+00 1.307968139648437500e+00 2.678454220294952393e-01
7.289000000000000000e+03 5.793876647949218750e+01 2.420175170898437500e+01 -9.012410044670104980e-01 8.853679656982421875e+00 2.385731458663940430e+00 5.690540671348571777e-01
7.290000000000000000e+03 5.361687469482421875e+01 1.516484069824218750e+01 -7.325342297554016113e-01 5.540394783020019531e+00 1.442358136177062988e+00 6.942602396011352539e-01
7.291000000000000000e+03 5.675600051879882812e+01 2.264572715759277344e+01 -8.908606767654418945e-01 7.910980701446533203e+00 2.106035947799682617e+00 8.558821082115173340e-01
7.292000000000000000e+03 5.556462097167968750e+01 7.978379249572753906e+00 -6.772242784500122070e-01 5.624445438385009766e+00 1.484166264533996582e+00 2.726034224033355713e-01
7.293000000000000000e+03 5.405841445922851562e+01 7.092638492584228516e+00 -6.173573732376098633e-01 5.203833580017089844e+00 1.375942826271057129e+00 3.284693360328674316e-01
7.294000000000000000e+03 5.224029541015625000e+01 1.772084808349609375e+01 -5.987834930419921875e-01 5.201738357543945312e+00 1.380886435508728027e+00 1.008033156394958496e+00
7.295000000000000000e+03 4.549831390380859375e+01 5.673734664916992188e+00 -2.991152405738830566e-01 2.884311199188232422e+00 7.755588293075561523e-01 3.914666771888732910e-01
7.296000000000000000e+03 5.674651718139648438e+01 1.485560226440429688e+01 -8.956533670425415039e-01 6.506891250610351562e+00 1.683371305465698242e+00 3.678581118583679199e-01
7.297000000000000000e+03 5.721362686157226562e+01 1.277542781829833984e+01 -8.537526726722717285e-01 6.393980503082275391e+00 1.662068367004394531e+00 2.534862756729125977e-01
7.298000000000000000e+03 4.440285491943359375e+01 8.153638839721679688e+00 -2.833642959594726562e-01 2.535237312316894531e+00 6.755619049072265625e-01 4.491699635982513428e-01
7.299000000000000000e+03 5.267890930175781250e+01 1.830244636535644531e+01 -6.197249889373779297e-01 5.432495117187500000e+00 1.443831086158752441e+00 1.023750543594360352e+00
7.300000000000000000e+03 5.614841842651367188e+01 1.700591850280761719e+01 -9.068614244461059570e-01 6.603082180023193359e+00 1.708866238594055176e+00 5.491940975189208984e-01
7.301000000000000000e+03 5.594125366210937500e+01 1.582410812377929688e+01 -8.869315385818481445e-01 6.391802310943603516e+00 1.651461243629455566e+00 5.164103507995605469e-01
7.302000000000000000e+03 5.622931671142578125e+01 1.985967636108398438e+01 -9.136745929718017578e-01 7.079136371612548828e+00 1.849638462066650391e+00 7.081125974655151367e-01
7.303000000000000000e+03 5.008280563354492188e+01 1.737595200538635254e+00 -4.062196314334869385e-01 4.094104766845703125e+00 1.106365561485290527e+00 2.711670994758605957e-01
7.304000000000000000e+03 4.652043533325195312e+01 3.262044191360473633e+00 -3.156139552593231201e-01 3.187511205673217773e+00 8.615691661834716797e-01 3.148628473281860352e-01
7.305000000000000000e+03 4.379240798950195312e+01 4.754426956176757812e+00 -2.415322363376617432e-01 2.448860645294189453e+00 6.621985435485839844e-01 3.310573697090148926e-01
7.306000000000000000e+03 5.217719650268554688e+01 1.297292232513427734e+01 -6.413990259170532227e-01 4.953296184539794922e+00 1.293569207191467285e+00 6.556878089904785156e-01
7.307000000000000000e+03 5.180646896362304688e+01 1.337292671203613281e+01 -6.216509938240051270e-01 4.821779251098632812e+00 1.260038495063781738e+00 7.016177177429199219e-01
7.308000000000000000e+03 5.216050720214843750e+01 2.481456041336059570e+00 -4.671095013618469238e-01 4.611696720123291016e+00 1.243376135826110840e+00 2.598994076251983643e-01
7.309000000000000000e+03 5.114009857177734375e+01 7.684181332588195801e-01 -4.181777536869049072e-01 4.338813781738281250e+00 1.176190733909606934e+00 2.350282818078994751e-01
7.310000000000000000e+03 5.641006469726562500e+01 1.249070739746093750e+01 -8.267600536346435547e-01 6.155105113983154297e+00 1.598503589630126953e+00 3.285218775272369385e-01
7.311000000000000000e+03 4.913733673095703125e+01 1.491533756256103516e+00 -3.776808977127075195e-01 3.854099512100219727e+00 1.042925596237182617e+00 2.706145346164703369e-01
7.312000000000000000e+03 5.625819396972656250e+01 1.395966053009033203e+01 -8.623769879341125488e-01 6.269651889801025391e+00 1.622182369232177734e+00 3.994172513484954834e-01
7.313000000000000000e+03 5.573929214477539062e+01 1.318271064758300781e+01 -8.228215575218200684e-01 6.059504985809326172e+00 1.571005105972290039e+00 4.121908247470855713e-01
7.314000000000000000e+03 4.548519515991210938e+01 7.285317897796630859e+00 -3.130005002021789551e-01 2.852785348892211914e+00 7.619354128837585449e-01 4.451870620250701904e-01
7.315000000000000000e+03 5.141616439819335938e+01 1.304312896728515625e+01 -5.932148694992065430e-01 4.690762996673583984e+00 1.229264497756958008e+00 6.944623589515686035e-01
7.316000000000000000e+03 5.582557296752929688e+01 9.238841056823730469e+00 -7.197042107582092285e-01 5.755826473236083984e+00 1.510836720466613770e+00 2.870040535926818848e-01
7.317000000000000000e+03 5.520996856689453125e+01 6.739216804504394531e+00 -6.365327835083007812e-01 5.466503620147705078e+00 1.448991179466247559e+00 2.686422467231750488e-01
7.318000000000000000e+03 5.348602676391601562e+01 4.665106296539306641e+00 -5.444181561470031738e-01 4.973968029022216797e+00 1.328864932060241699e+00 2.879675328731536865e-01
7.319000000000000000e+03 5.310999679565429688e+01 6.996744871139526367e-01 -4.574096500873565674e-01 4.803359508514404297e+00 1.303784966468811035e+00 2.105914354324340820e-01
7.320000000000000000e+03 5.395476150512695312e+01 1.749553084373474121e+00 -4.830333292484283447e-01 5.021425724029541016e+00 1.361517786979675293e+00 2.101707458496093750e-01
7.321000000000000000e+03 5.274004745483398438e+01 4.217352867126464844e+00 -5.210909843444824219e-01 4.788470268249511719e+00 1.280213832855224609e+00 2.963981926441192627e-01
7.322000000000000000e+03 5.775010681152343750e+01 2.640525054931640625e+01 -7.147895097732543945e-01 9.734125137329101562e+00 2.705800771713256836e+00 7.349975109100341797e-01
7.323000000000000000e+03 5.721204757690429688e+01 2.295359230041503906e+01 -9.128372669219970703e-01 8.178435325622558594e+00 2.179679393768310547e+00 7.169434428215026855e-01
7.324000000000000000e+03 5.227994155883789062e+01 1.716109657287597656e+01 -6.178989410400390625e-01 5.213032245635986328e+00 1.378540039062500000e+00 9.480268955230712891e-01
7.325000000000000000e+03 5.545122909545898438e+01 1.909786033630371094e+01 -8.598830699920654297e-01 6.671433925628662109e+00 1.743465185165405273e+00 7.898979187011718750e-01
7.326000000000000000e+03 5.735993957519531250e+01 2.246707153320312500e+01 -9.377380013465881348e-01 8.083212852478027344e+00 2.143642425537109375e+00 6.379547715187072754e-01
7.327000000000000000e+03 5.770678329467773438e+01 2.370019721984863281e+01 -9.134443402290344238e-01 8.582534790039062500e+00 2.300727128982543945e+00 6.156302690505981445e-01
7.328000000000000000e+03 5.719651031494140625e+01 2.385582733154296875e+01 -8.760960102081298828e-01 8.470995903015136719e+00 2.278470039367675781e+00 8.026983737945556641e-01
7.329000000000000000e+03 5.200892639160156250e+01 1.574716091156005859e+01 -6.232803463935852051e-01 5.031379222869873047e+00 1.322429656982421875e+00 8.380585908889770508e-01
7.330000000000000000e+03 5.286547470092773438e+01 1.735363388061523438e+01 -6.658421754837036133e-01 5.439391613006591797e+00 1.432064771652221680e+00 9.153064489364624023e-01
7.331000000000000000e+03 5.141768646240234375e+01 1.378635692596435547e+01 -6.007099747657775879e-01 4.697948455810546875e+00 1.229171514511108398e+00 7.365415692329406738e-01
7.332000000000000000e+03 5.459002685546875000e+01 1.842332267761230469e+01 -7.990770339965820312e-01 6.238293647766113281e+00 1.631765007972717285e+00 8.498713374137878418e-01
7.333000000000000000e+03 5.591076660156250000e+01 1.776487159729003906e+01 -8.952599167823791504e-01 6.632978916168212891e+00 1.721315741539001465e+00 6.167902350425720215e-01
7.334000000000000000e+03 5.623767852783203125e+01 1.826041603088378906e+01 -9.171646237373352051e-01 6.795147895812988281e+00 1.763394951820373535e+00 6.078953742980957031e-01
7.335000000000000000e+03 4.618034362792968750e+01 1.053547477722167969e+01 -3.394362330436706543e-01 2.987591266632080078e+00 7.944464683532714844e-01 5.665662288665771484e-01
7.336000000000000000e+03 5.179967498779296875e+01 1.427174091339111328e+01 -6.191505789756774902e-01 4.865834712982177734e+00 1.274005293846130371e+00 7.475204467773437500e-01
7.337000000000000000e+03 4.676261138916015625e+01 1.130669784545898438e+01 -3.616534769535064697e-01 3.155092477798461914e+00 8.380317091941833496e-01 6.162308454513549805e-01
7.338000000000000000e+03 4.797694015502929688e+01 1.133176231384277344e+01 -4.156313538551330566e-01 3.530048131942749023e+00 9.343250393867492676e-01 6.349495649337768555e-01
7.339000000000000000e+03 5.606558609008789062e+01 1.455352973937988281e+01 -8.662026524543762207e-01 6.281451225280761719e+00 1.624574542045593262e+00 4.445623159408569336e-01
7.340000000000000000e+03 4.379280853271484375e+01 5.965695858001708984e+00 -2.478934526443481445e-01 2.440850257873535156e+00 6.578870415687561035e-01 3.591921627521514893e-01
7.341000000000000000e+03 4.802530670166015625e+01 2.090476512908935547e+00 -3.510402441024780273e-01 3.575925111770629883e+00 9.674654603004455566e-01 2.853391170501708984e-01
7.342000000000000000e+03 4.885660552978515625e+01 1.038831996917724609e+01 -4.629010558128356934e-01 3.822952270507812500e+00 1.008015394210815430e+00 5.938168168067932129e-01
7.343000000000000000e+03 4.555240631103515625e+01 1.049845504760742188e+01 -3.207688033580780029e-01 2.819005966186523438e+00 7.494711875915527344e-01 5.609266757965087891e-01
7.344000000000000000e+03 5.443354415893554688e+01 1.676097869873046875e+01 -7.975202798843383789e-01 5.992307662963867188e+00 1.558436274528503418e+00 7.374722957611083984e-01
7.345000000000000000e+03 5.562174224853515625e+01 1.723101425170898438e+01 -8.816198110580444336e-01 6.467139720916748047e+00 1.675655961036682129e+00 6.363828778266906738e-01
7.346000000000000000e+03 5.214542388916015625e+01 1.481732749938964844e+01 -6.378087997436523438e-01 5.022565364837646484e+00 1.315427064895629883e+00 7.754589319229125977e-01
7.347000000000000000e+03 4.533495712280273438e+01 9.957157135009765625e+00 -3.139732480049133301e-01 2.762427330017089844e+00 7.345362305641174316e-01 5.378518700599670410e-01
7.348000000000000000e+03 4.465344619750976562e+01 9.014009475708007812e+00 -2.916225194931030273e-01 2.586385488510131836e+00 6.884289383888244629e-01 4.789706766605377197e-01
7.349000000000000000e+03 4.628851699829101562e+01 8.507242202758789062e+00 -3.469382822513580322e-01 3.076660394668579102e+00 8.189166188240051270e-01 4.948744475841522217e-01
7.350000000000000000e+03 4.536198806762695312e+01 9.189754486083984375e+00 -3.156385421752929688e-01 2.767462253570556641e+00 7.355471253395080566e-01 5.092301964759826660e-01
7.351000000000000000e+03 5.301542282104492188e+01 5.447378158569335938e+00 -5.537273287773132324e-01 4.887741088867187500e+00 1.300204038619995117e+00 3.215821981430053711e-01
7.352000000000000000e+03 5.438712310791015625e+01 8.275503158569335938e+00 -6.540743112564086914e-01 5.343221187591552734e+00 1.406744122505187988e+00 3.441671729087829590e-01
7.353000000000000000e+03 5.375014114379882812e+01 5.886790275573730469e+00 -5.804724693298339844e-01 5.078367233276367188e+00 1.349368333816528320e+00 3.095175027847290039e-01
7.354000000000000000e+03 5.596021652221679688e+01 7.141456127166748047e+00 -6.623252630233764648e-01 5.671177864074707031e+00 1.502655863761901855e+00 2.324005514383316040e-01
7.355000000000000000e+03 5.582783508300781250e+01 1.505094242095947266e+01 -8.587704300880432129e-01 6.272026538848876953e+00 1.623976826667785645e+00 4.753218591213226318e-01
7.356000000000000000e+03 5.636814498901367188e+01 1.626711845397949219e+01 -9.107230305671691895e-01 6.574346542358398438e+00 1.699087023735046387e+00 4.846291840076446533e-01
7.357000000000000000e+03 5.616248321533203125e+01 1.045664024353027344e+01 -7.606160640716552734e-01 5.931359291076660156e+00 1.551222920417785645e+00 2.887539565563201904e-01
7.358000000000000000e+03 4.498830032348632812e+01 6.998896121978759766e+00 -2.918080091476440430e-01 2.725318670272827148e+00 7.300531864166259766e-01 4.208138883113861084e-01
7.359000000000000000e+03 4.598482131958007812e+01 7.673912525177001953e+00 -3.337395191192626953e-01 2.986304283142089844e+00 7.957694530487060547e-01 4.636315703392028809e-01
7.360000000000000000e+03 5.359284210205078125e+01 1.824011611938476562e+01 -7.069292068481445312e-01 5.820801258087158203e+00 1.534161567687988281e+00 9.511429071426391602e-01
7.361000000000000000e+03 5.230597305297851562e+01 1.645375633239746094e+01 -6.363339424133300781e-01 5.162650108337402344e+00 1.357894778251647949e+00 8.794942498207092285e-01
7.362000000000000000e+03 4.542737197875976562e+01 4.306725025177001953e+00 -2.846836447715759277e-01 2.884297370910644531e+00 7.798841595649719238e-01 3.360255956649780273e-01
7.363000000000000000e+03 4.771751022338867188e+01 2.950760841369628906e+00 -3.495518565177917480e-01 3.500620841979980469e+00 9.453207254409790039e-01 3.096891343593597412e-01
7.364000000000000000e+03 4.725748825073242188e+01 3.751329898834228516e+00 -3.412433862686157227e-01 3.385614395141601562e+00 9.133113026618957520e-01 3.324574828147888184e-01
7.365000000000000000e+03 5.123633956909179688e+01 1.233660793304443359e+01 -5.835380554199218750e-01 4.592834472656250000e+00 1.202788949012756348e+00 6.557318568229675293e-01
7.366000000000000000e+03 5.540485000610351562e+01 9.942035675048828125e+00 -7.289319634437561035e-01 5.699758529663085938e+00 1.491248011589050293e+00 3.344922065734863281e-01
7.367000000000000000e+03 5.210504913330078125e+01 7.279858589172363281e-01 -4.413867592811584473e-01 4.562139987945556641e+00 1.236225843429565430e+00 2.370077669620513916e-01
7.368000000000000000e+03 5.132502365112304688e+01 2.855406045913696289e+00 -4.502965211868286133e-01 4.397617816925048828e+00 1.184196472167968750e+00 2.817859053611755371e-01
7.369000000000000000e+03 4.394697189331054688e+01 5.392188072204589844e+00 -2.450027018785476685e-01 2.493527173995971680e+00 6.745573282241821289e-01 3.467928767204284668e-01
7.370000000000000000e+03 5.447929382324218750e+01 6.316393852233886719e+00 -6.119691729545593262e-01 5.274195671081542969e+00 1.398667931556701660e+00 2.897279560565948486e-01
7.371000000000000000e+03 5.035618972778320312e+01 5.058910369873046875e+00 -4.627437889575958252e-01 4.185605525970458984e+00 1.116858601570129395e+00 3.594140708446502686e-01
7.372000000000000000e+03 5.567555999755859375e+01 1.379034900665283203e+01 -8.302573561668395996e-01 6.088248252868652344e+00 1.577397346496582031e+00 4.451902508735656738e-01
7.373000000000000000e+03 5.637063217163085938e+01 1.327511310577392578e+01 -8.468266725540161133e-01 6.225579738616943359e+00 1.613626003265380859e+00 3.607217967510223389e-01
7.374000000000000000e+03 5.501387786865234375e+01 1.275085258483886719e+01 -7.793577313423156738e-01 5.788120269775390625e+00 1.502628803253173828e+00 4.620547890663146973e-01
7.375000000000000000e+03 5.020501708984375000e+01 6.740190982818603516e+00 -4.810681641101837158e-01 4.170052528381347656e+00 1.106695294380187988e+00 4.196937978267669678e-01
7.376000000000000000e+03 4.741825485229492188e+01 1.132887649536132812e+01 -3.940539062023162842e-01 3.369627714157104492e+00 8.926721215248107910e-01 6.267687678337097168e-01
7.377000000000000000e+03 5.397605895996093750e+01 8.988006591796875000e+00 -6.622146964073181152e-01 5.271726131439208984e+00 1.382853388786315918e+00 3.849272131919860840e-01
7.378000000000000000e+03 5.028646469116210938e+01 1.221255970001220703e+01 -5.315967798233032227e-01 4.298795700073242188e+00 1.130159616470336914e+00 6.800962686538696289e-01
7.379000000000000000e+03 5.544074630737304688e+01 1.541483592987060547e+01 -8.442640900611877441e-01 6.172227382659912109e+00 1.598389029502868652e+00 5.423237085342407227e-01
7.380000000000000000e+03 4.445885467529296875e+01 6.190003871917724609e+00 -2.704936265945434570e-01 2.601781606674194336e+00 6.993863582611083984e-01 3.860971629619598389e-01
7.381000000000000000e+03 4.705365371704101562e+01 8.242819786071777344e+00 -3.745068609714508057e-01 3.304421663284301758e+00 8.789744973182678223e-01 4.969353377819061279e-01
7.382000000000000000e+03 4.939215087890625000e+01 1.143861961364746094e+01 -4.880657792091369629e-01 3.993610143661499023e+00 1.051663279533386230e+00 6.517522931098937988e-01
7.383000000000000000e+03 4.637846755981445312e+01 7.130934715270996094e+00 -3.441336750984191895e-01 3.115265130996704102e+00 8.313394188880920410e-01 4.454509913921356201e-01
7.384000000000000000e+03 5.437419128417968750e+01 1.733477401733398438e+01 -7.895821928977966309e-01 6.029150009155273438e+00 1.571870326995849609e+00 7.844315767288208008e-01
7.385000000000000000e+03 5.750408172607421875e+01 2.204946708679199219e+01 -9.585776329040527344e-01 7.993008613586425781e+00 2.110329389572143555e+00 5.645678639411926270e-01
7.386000000000000000e+03 4.686215209960937500e+01 1.064487361907958984e+01 -3.719613552093505859e-01 3.200804948806762695e+00 8.486530780792236328e-01 5.874594449996948242e-01
7.387000000000000000e+03 5.256584548950195312e+01 1.448532772064208984e+01 -6.685134768486022949e-01 5.142879486083984375e+00 1.342309832572937012e+00 7.355177402496337891e-01
7.388000000000000000e+03 5.522747421264648438e+01 1.366196155548095703e+01 -8.108402490615844727e-01 5.961350440979003906e+00 1.545153021812438965e+00 4.773065149784088135e-01
7.389000000000000000e+03 5.365518569946289062e+01 7.842777252197265625e+00 -6.244826316833496094e-01 5.133605003356933594e+00 1.352736711502075195e+00 3.652896881103515625e-01
7.390000000000000000e+03 5.553746795654296875e+01 1.620774841308593750e+01 -8.632939457893371582e-01 6.304007053375244141e+00 1.632213830947875977e+00 5.883015394210815430e-01
7.391000000000000000e+03 5.311917495727539062e+01 1.643697547912597656e+01 -6.926041841506958008e-01 5.457551956176757812e+00 1.429484367370605469e+00 8.328422307968139648e-01
7.392000000000000000e+03 4.923237609863281250e+01 3.414660930633544922e+00 -4.033551514148712158e-01 3.894584655761718750e+00 1.047368884086608887e+00 3.278888463973999023e-01
7.393000000000000000e+03 5.409849166870117188e+01 1.786363410949707031e+01 -7.597290873527526855e-01 5.983802795410156250e+00 1.567222118377685547e+00 8.501715064048767090e-01
7.394000000000000000e+03 5.276982879638671875e+01 1.782810783386230469e+01 -6.419765353202819824e-01 5.437914371490478516e+00 1.438781380653381348e+00 9.739838242530822754e-01
7.395000000000000000e+03 4.670300674438476562e+01 5.576225280761718750e+00 -3.433644175529479980e-01 3.216990709304809570e+00 8.620879054069519043e-01 3.984087705612182617e-01
7.396000000000000000e+03 5.452157211303710938e+01 1.121293354034423828e+01 -7.263190150260925293e-01 5.548845767974853516e+00 1.446758031845092773e+00 4.293940961360931396e-01
7.397000000000000000e+03 5.054432296752929688e+01 1.264764595031738281e+01 -5.489839911460876465e-01 4.397638320922851562e+00 1.154596328735351562e+00 6.969608068466186523e-01
7.398000000000000000e+03 5.468420410156250000e+01 9.446970939636230469e+00 -6.936441063880920410e-01 5.478783607482910156e+00 1.435541868209838867e+00 3.642892539501190186e-01
7.399000000000000000e+03 5.519513702392578125e+01 1.178147602081298828e+01 -7.679795622825622559e-01 5.786167621612548828e+00 1.505456447601318359e+00 4.058436155319213867e-01
7.400000000000000000e+03 4.680200958251953125e+01 8.740588188171386719e+00 -3.672588169574737549e-01 3.214298725128173828e+00 8.541119694709777832e-01 5.113970041275024414e-01
7.401000000000000000e+03 4.578732299804687500e+01 9.567812919616699219e+00 -3.307194411754608154e-01 2.895360469818115234e+00 7.693923711776733398e-01 5.288324952125549316e-01
7.402000000000000000e+03 5.330968093872070312e+01 6.667465686798095703e+00 -5.898735523223876953e-01 4.996522903442382812e+00 1.321994781494140625e+00 3.454418480396270752e-01
7.403000000000000000e+03 5.109447860717773438e+01 1.796353936195373535e+00 -4.370830059051513672e-01 4.323634147644042969e+00 1.165965318679809570e+00 2.635408639907836914e-01
7.404000000000000000e+03 5.256039810180664062e+01 3.068692684173583984e+00 -4.932335317134857178e-01 4.713093757629394531e+00 1.265958070755004883e+00 2.645666003227233887e-01
7.405000000000000000e+03 5.480367660522460938e+01 7.526650428771972656e+00 -6.476801037788391113e-01 5.407868385314941406e+00 1.428056478500366211e+00 3.031527698040008545e-01
7.406000000000000000e+03 4.864553070068359375e+01 3.906610488891601562e+00 -3.957717120647430420e-01 3.722499370574951172e+00 9.980183243751525879e-01 3.404828906059265137e-01
7.407000000000000000e+03 4.972714233398437500e+01 2.676990509033203125e+00 -4.097836315631866455e-01 4.028553009033203125e+00 1.085630774497985840e+00 3.005194067955017090e-01
7.408000000000000000e+03 5.056583023071289062e+01 4.224246025085449219e+00 -4.513654708862304688e-01 4.246366024017333984e+00 1.138500094413757324e+00 3.247732222080230713e-01
7.409000000000000000e+03 5.562825775146484375e+01 1.247921848297119141e+01 -7.973309159278869629e-01 5.954946041107177734e+00 1.547284483909606934e+00 3.904359340667724609e-01
7.410000000000000000e+03 5.293450927734375000e+01 1.353635120391845703e+01 -6.930792331695556641e-01 5.226432323455810547e+00 1.360005974769592285e+00 6.526324748992919922e-01
7.411000000000000000e+03 5.319464492797851562e+01 1.292589759826660156e+01 -6.985124945640563965e-01 5.264614105224609375e+00 1.369830489158630371e+00 6.045359373092651367e-01
7.412000000000000000e+03 5.497882461547851562e+01 1.060876941680908203e+01 -7.304793000221252441e-01 5.624810695648193359e+00 1.468299388885498047e+00 3.837628364562988281e-01
7.413000000000000000e+03 5.524088287353515625e+01 1.489964962005615234e+01 -8.315535783767700195e-01 6.065812110900878906e+00 1.570277571678161621e+00 5.430099368095397949e-01
7.414000000000000000e+03 5.280632400512695312e+01 1.408532428741455078e+01 -6.870263814926147461e-01 5.217525005340576172e+00 1.359149694442749023e+00 6.913735866546630859e-01
7.415000000000000000e+03 5.231397247314453125e+01 1.404366397857666016e+01 -6.531966328620910645e-01 5.032524108886718750e+00 1.313798189163208008e+00 7.173163294792175293e-01
7.416000000000000000e+03 5.261887359619140625e+01 1.535607242584228516e+01 -6.637427210807800293e-01 5.213077068328857422e+00 1.364800333976745605e+00 7.869032621383666992e-01
7.417000000000000000e+03 5.499119949340820312e+01 1.583373260498046875e+01 -8.258389830589294434e-01 6.089552879333496094e+00 1.579114198684692383e+00 6.122462749481201172e-01
7.418000000000000000e+03 5.360073089599609375e+01 1.747537612915039062e+01 -7.207840085029602051e-01 5.733273029327392578e+00 1.503746628761291504e+00 8.915323019027709961e-01
7.419000000000000000e+03 5.493687057495117188e+01 1.677166557312011719e+01 -8.292953372001647949e-01 6.162920951843261719e+00 1.600087642669677734e+00 6.734733581542968750e-01
7.420000000000000000e+03 5.501779174804687500e+01 1.740135192871093750e+01 -8.379297256469726562e-01 6.269329071044921875e+00 1.629419803619384766e+00 7.218235135078430176e-01
7.421000000000000000e+03 4.635694122314453125e+01 9.866615295410156250e+00 -3.526513278484344482e-01 3.052846670150756836e+00 8.100585937500000000e-01 5.463874340057373047e-01
7.422000000000000000e+03 5.099098587036132812e+01 1.285462856292724609e+01 -5.706339478492736816e-01 4.534202575683593750e+00 1.189070582389831543e+00 6.979724764823913574e-01
7.423000000000000000e+03 4.889881515502929688e+01 1.159476947784423828e+01 -4.608430266380310059e-01 3.827494144439697266e+00 1.009995341300964355e+00 6.533779501914978027e-01
7.424000000000000000e+03 4.959924316406250000e+01 6.289675235748291016e+00 -4.589179456233978271e-01 4.036564350128173828e+00 1.073294043540954590e+00 4.119422137737274170e-01
7.425000000000000000e+03 4.599976348876953125e+01 5.008805751800537109e+00 -3.160172700881958008e-01 3.016828298568725586e+00 8.102432489395141602e-01 3.681364655494689941e-01
7.426000000000000000e+03 5.357044982910156250e+01 9.663301467895507812e+00 -6.610051393508911133e-01 5.193803787231445312e+00 1.359839558601379395e+00 4.321968555450439453e-01
7.427000000000000000e+03 5.232336044311523438e+01 1.348240947723388672e+01 -6.534417271614074707e-01 5.008242130279541016e+00 1.306440114974975586e+00 6.798880100250244141e-01
7.428000000000000000e+03 4.809286499023437500e+01 1.079649543762207031e+01 -4.234801530838012695e-01 3.580439329147338867e+00 9.470877647399902344e-01 6.173073649406433105e-01
7.429000000000000000e+03 5.017742919921875000e+01 1.162881374359130859e+01 -5.255738496780395508e-01 4.254141807556152344e+00 1.118570327758789062e+00 6.439461112022399902e-01
7.430000000000000000e+03 4.659541320800781250e+01 9.275360107421875000e+00 -3.630422353744506836e-01 3.143410205841064453e+00 8.341103792190551758e-01 5.267260670661926270e-01
7.431000000000000000e+03 5.426542663574218750e+01 1.011239433288574219e+01 -6.963531970977783203e-01 5.409068584442138672e+00 1.413814663887023926e+00 4.069949686527252197e-01
7.432000000000000000e+03 4.728392028808593750e+01 5.000179290771484375e+00 -3.615305423736572266e-01 3.363975048065185547e+00 9.007333517074584961e-01 3.771433532238006592e-01
7.433000000000000000e+03 5.226379013061523438e+01 4.986088752746582031e+00 -5.189242959022521973e-01 4.691445350646972656e+00 1.251756310462951660e+00 3.273236453533172607e-01
7.434000000000000000e+03 5.386259460449218750e+01 1.459986591339111328e+01 -7.467215061187744141e-01 5.583558559417724609e+00 1.451051115989685059e+00 6.459217667579650879e-01
7.435000000000000000e+03 4.664689254760742188e+01 4.419003963470458984e+00 -3.267266154289245605e-01 3.213968515396118164e+00 8.661725521087646484e-01 3.541068136692047119e-01
7.436000000000000000e+03 4.622047805786132812e+01 6.145976066589355469e+00 -3.314094543457031250e-01 3.086779356002807617e+00 8.266109824180603027e-01 4.109328389167785645e-01
7.437000000000000000e+03 5.412670516967773438e+01 1.273441123962402344e+01 -7.452373504638671875e-01 5.539348602294921875e+00 1.438233375549316406e+00 5.277911424636840820e-01
7.438000000000000000e+03 4.793340682983398438e+01 4.383508205413818359e+00 -3.717096745967864990e-01 3.552148818969726562e+00 9.541317224502563477e-01 3.626592159271240234e-01
7.439000000000000000e+03 5.290457153320312500e+01 7.434985160827636719e+00 -5.905660390853881836e-01 4.924925804138183594e+00 1.300307869911193848e+00 3.848132193088531494e-01
7.440000000000000000e+03 5.145286560058593750e+01 4.489841461181640625e+00 -4.894064068794250488e-01 4.474437713623046875e+00 1.195509314537048340e+00 3.349046111106872559e-01
7.441000000000000000e+03 4.607083511352539062e+01 9.041474342346191406e+00 -3.430680334568023682e-01 2.996433496475219727e+00 7.960096001625061035e-01 5.096632838249206543e-01
7.442000000000000000e+03 4.685222244262695312e+01 7.505475521087646484e+00 -3.662611544132232666e-01 3.226821660995483398e+00 8.581681251525878906e-01 4.662875831127166748e-01
7.443000000000000000e+03 5.045592880249023438e+01 3.325921058654785156e+00 -4.378705918788909912e-01 4.209713935852050781e+00 1.131553053855895996e+00 3.115809857845306396e-01
7.444000000000000000e+03 4.717426300048828125e+01 9.428388595581054688e+00 -3.851936161518096924e-01 3.295416355133056641e+00 8.730668425559997559e-01 5.445553064346313477e-01
7.445000000000000000e+03 5.456193161010742188e+01 1.311624336242675781e+01 -7.661502361297607422e-01 5.688559532165527344e+00 1.476722836494445801e+00 5.096578598022460938e-01
7.446000000000000000e+03 5.463093566894531250e+01 1.630733489990234375e+01 -8.067227602005004883e-01 6.018427848815917969e+00 1.563511610031127930e+00 6.808061003684997559e-01
7.447000000000000000e+03 4.788697052001953125e+01 8.015892028808593750e+00 -4.075151085853576660e-01 3.514013528823852539e+00 9.319495558738708496e-01 4.944962859153747559e-01
7.448000000000000000e+03 5.211148071289062500e+01 1.054631614685058594e+01 -6.146574020385742188e-01 4.816581249237060547e+00 1.260577201843261719e+00 5.392212271690368652e-01
7.449000000000000000e+03 5.384607315063476562e+01 1.073830032348632812e+01 -6.929036378860473633e-01 5.331958770751953125e+00 1.391716480255126953e+00 4.579267501831054688e-01
7.450000000000000000e+03 5.489647674560546875e+01 1.345017528533935547e+01 -7.795756459236145020e-01 5.800271987915039062e+00 1.506208896636962891e+00 5.033766627311706543e-01
7.451000000000000000e+03 5.544582748413085938e+01 1.433762168884277344e+01 -8.328489065170288086e-01 6.066658496856689453e+00 1.570142865180969238e+00 4.944447875022888184e-01
7.452000000000000000e+03 5.302248001098632812e+01 1.484473991394042969e+01 -6.966438889503479004e-01 5.332641601562500000e+00 1.390799283981323242e+00 7.239342927932739258e-01
7.453000000000000000e+03 4.989682388305664062e+01 1.106247520446777344e+01 -5.136033892631530762e-01 4.158580303192138672e+00 1.093493103981018066e+00 6.236600279808044434e-01
7.454000000000000000e+03 5.288358688354492188e+01 9.246647834777832031e+00 -6.281653046607971191e-01 4.985408306121826172e+00 1.307172894477844238e+00 4.454729557037353516e-01
7.455000000000000000e+03 5.206267166137695312e+01 1.210074901580810547e+01 -6.305471062660217285e-01 4.867495059967041016e+00 1.271084427833557129e+00 6.124489307403564453e-01
7.456000000000000000e+03 5.342733001708984375e+01 1.134129524230957031e+01 -6.848079562187194824e-01 5.247464179992675781e+00 1.368796944618225098e+00 5.060105919837951660e-01
7.457000000000000000e+03 4.861627960205078125e+01 1.093616199493408203e+01 -4.485005736351013184e-01 3.760691881179809570e+00 9.936574101448059082e-01 6.234055757522583008e-01
7.458000000000000000e+03 4.765596389770507812e+01 1.010702133178710938e+01 -4.044703841209411621e-01 3.452847480773925781e+00 9.145131707191467285e-01 5.771489143371582031e-01
7.459000000000000000e+03 4.750500488281250000e+01 1.071660041809082031e+01 -3.971623182296752930e-01 3.397158622741699219e+00 8.999989032745361328e-01 5.998013615608215332e-01
7.460000000000000000e+03 4.701363372802734375e+01 1.001471138000488281e+01 -3.738866448402404785e-01 3.253551006317138672e+00 8.638992905616760254e-01 5.619750022888183594e-01
7.461000000000000000e+03 5.523932647705078125e+01 1.323097896575927734e+01 -7.963556051254272461e-01 5.908284187316894531e+00 1.533578515052795410e+00 4.523840248584747314e-01
7.462000000000000000e+03 5.379055786132812500e+01 1.708766555786132812e+01 -7.517809867858886719e-01 5.762923240661621094e+00 1.503342628479003906e+00 8.253641128540039062e-01
7.463000000000000000e+03 5.110021591186523438e+01 5.365281105041503906e+00 -4.953047931194305420e-01 4.391552925109863281e+00 1.168874502182006836e+00 3.657099604606628418e-01
7.464000000000000000e+03 5.454384613037109375e+01 1.481333065032958984e+01 -7.917591929435729980e-01 5.839751720428466797e+00 1.514397740364074707e+00 5.950752496719360352e-01
7.465000000000000000e+03 5.350563430786132812e+01 1.379593849182128906e+01 -7.203605175018310547e-01 5.425682067871093750e+00 1.411596417427062988e+00 6.238760352134704590e-01
7.466000000000000000e+03 5.255703735351562500e+01 6.239941120147705078e+00 -5.569922924041748047e-01 4.791685581207275391e+00 1.270408034324645996e+00 3.550701439380645752e-01
7.467000000000000000e+03 4.654428863525390625e+01 7.987706184387207031e+00 -3.515119850635528564e-01 3.152608394622802734e+00 8.403289318084716797e-01 4.786478877067565918e-01
7.468000000000000000e+03 4.681684875488281250e+01 6.634958744049072266e+00 -3.517597019672393799e-01 3.247910499572753906e+00 8.688452243804931641e-01 4.362970590591430664e-01
7.469000000000000000e+03 4.583351135253906250e+01 6.729913711547851562e+00 -3.185694217681884766e-01 2.969272136688232422e+00 7.952107787132263184e-01 4.295238554477691650e-01
7.470000000000000000e+03 5.255743408203125000e+01 8.170051574707031250e+00 -5.978007316589355469e-01 4.856089591979980469e+00 1.277486681938171387e+00 4.153288602828979492e-01
7.471000000000000000e+03 4.779683685302734375e+01 8.892666816711425781e+00 -4.071907103061676025e-01 3.497115373611450195e+00 9.269774556159973145e-01 5.247820615768432617e-01
7.472000000000000000e+03 5.326926040649414062e+01 8.561430931091308594e+00 -6.270031929016113281e-01 5.061472415924072266e+00 1.330340743064880371e+00 4.059544503688812256e-01
7.473000000000000000e+03 5.404648208618164062e+01 1.177557086944580078e+01 -7.188444137573242188e-01 5.459439277648925781e+00 1.422178387641906738e+00 4.868191778659820557e-01
7.474000000000000000e+03 5.317001342773437500e+01 1.030822658538818359e+01 -6.582177877426147461e-01 5.115890502929687500e+00 1.337301850318908691e+00 4.757823944091796875e-01
7.475000000000000000e+03 5.328915405273437500e+01 1.575804424285888672e+01 -7.094455957412719727e-01 5.472380161285400391e+00 1.428880333900451660e+00 7.719426751136779785e-01
7.476000000000000000e+03 4.789015197753906250e+01 5.628760814666748047e+00 -3.837226629257202148e-01 3.532168626785278320e+00 9.445337653160095215e-01 4.014437198638916016e-01
7.477000000000000000e+03 4.827228927612304688e+01 1.021347332000732422e+01 -4.335437119007110596e-01 3.644106864929199219e+00 9.631689786911010742e-01 5.882632732391357422e-01
7.478000000000000000e+03 5.376044845581054688e+01 1.325653457641601562e+01 -7.346188426017761230e-01 5.474367618560791016e+00 1.421924710273742676e+00 5.805509686470031738e-01
7.479000000000000000e+03 5.385195159912109375e+01 1.656632614135742188e+01 -7.549437880516052246e-01 5.789909839630126953e+00 1.510489821434020996e+00 7.808760404586791992e-01
7.480000000000000000e+03 5.261725997924804688e+01 1.252207756042480469e+01 -6.642325520515441895e-01 5.062989234924316406e+00 1.319627046585083008e+00 6.091648936271667480e-01
7.481000000000000000e+03 5.403542327880859375e+01 1.406180763244628906e+01 -7.540084719657897949e-01 5.617758750915527344e+00 1.459125041961669922e+00 6.033581495285034180e-01
7.482000000000000000e+03 5.301905441284179688e+01 1.193474102020263672e+01 -6.758069992065429688e-01 5.166450977325439453e+00 1.347193241119384766e+00 5.586854815483093262e-01
7.483000000000000000e+03 5.359775543212890625e+01 1.233931732177734375e+01 -7.132456898689270020e-01 5.357064723968505859e+00 1.393145680427551270e+00 5.421174764633178711e-01
7.484000000000000000e+03 5.172593307495117188e+01 1.260193347930908203e+01 -6.173023581504821777e-01 4.791285037994384766e+00 1.252194881439208984e+00 6.538178920745849609e-01
7.485000000000000000e+03 5.105670547485351562e+01 1.086670780181884766e+01 -5.679119825363159180e-01 4.506929874420166016e+00 1.181705355644226074e+00 5.855033397674560547e-01
7.486000000000000000e+03 5.432246398925781250e+01 1.544553565979003906e+01 -7.854666113853454590e-01 5.825337409973144531e+00 1.511961340904235840e+00 6.574626564979553223e-01
7.487000000000000000e+03 4.729015350341796875e+01 8.913741111755371094e+00 -3.855289220809936523e-01 3.348197221755981445e+00 8.888005018234252930e-01 5.310675501823425293e-01
7.488000000000000000e+03 4.734931564331054688e+01 7.722605228424072266e+00 -3.849926590919494629e-01 3.394545078277587891e+00 9.028657078742980957e-01 4.698874056339263916e-01
7.489000000000000000e+03 5.083226394653320312e+01 1.156178665161132812e+01 -5.605311989784240723e-01 4.454345226287841797e+00 1.168144226074218750e+00 6.267015337944030762e-01
7.490000000000000000e+03 4.975676345825195312e+01 1.008100414276123047e+01 -4.995289742946624756e-01 4.084106445312500000e+00 1.075373291969299316e+00 5.788251161575317383e-01
7.491000000000000000e+03 5.460336303710937500e+01 1.224742507934570312e+01 -7.567028999328613281e-01 5.645306587219238281e+00 1.466581106185913086e+00 4.723767936229705811e-01
7.492000000000000000e+03 5.182266235351562500e+01 5.794654846191406250e+00 -5.285602807998657227e-01 4.594068527221679688e+00 1.219652533531188965e+00 3.613263964653015137e-01
7.493000000000000000e+03 4.904225540161132812e+01 5.722946643829345703e+00 -4.235988259315490723e-01 3.840601921081542969e+00 1.025100946426391602e+00 4.031623303890228271e-01
7.494000000000000000e+03 4.729348373413085938e+01 7.165199756622314453e+00 -3.750899136066436768e-01 3.374267816543579102e+00 8.997533321380615234e-01 4.572810232639312744e-01
7.495000000000000000e+03 4.850625228881835938e+01 5.083282947540283203e+00 -4.025363028049468994e-01 3.699109554290771484e+00 9.889720082283020020e-01 3.895409703254699707e-01
7.496000000000000000e+03 5.008650970458984375e+01 5.710833072662353516e+00 -4.652039408683776855e-01 4.132913589477539062e+00 1.100312829017639160e+00 3.878022432327270508e-01
7.497000000000000000e+03 5.047560882568359375e+01 8.633934020996093750e+00 -5.201704502105712891e-01 4.283791065216064453e+00 1.129086256027221680e+00 4.877107441425323486e-01
7.498000000000000000e+03 5.278013229370117188e+01 1.093164920806884766e+01 -6.502390503883361816e-01 5.037872791290283203e+00 1.316290259361267090e+00 5.240216255187988281e-01
7.499000000000000000e+03 5.143470382690429688e+01 1.017648124694824219e+01 -5.816357731819152832e-01 4.608568668365478516e+00 1.208079814910888672e+00 5.418143868446350098e-01
7.500000000000000000e+03 4.981779098510742188e+01 3.929208993911743164e+00 -4.320715963840484619e-01 4.015412330627441406e+00 1.075002193450927734e+00 3.402958214282989502e-01
7.501000000000000000e+03 5.182125091552734375e+01 9.513888359069824219e+00 -5.863761305809020996e-01 4.696494579315185547e+00 1.233035445213317871e+00 5.064604282379150391e-01
7.502000000000000000e+03 4.885239410400390625e+01 8.216549873352050781e+00 -4.492256045341491699e-01 3.822144746780395508e+00 1.011875748634338379e+00 4.947313070297241211e-01
7.503000000000000000e+03 4.732557296752929688e+01 6.151801109313964844e+00 -3.692891001701354980e-01 3.376816749572753906e+00 9.022582769393920898e-01 4.157605171203613281e-01
7.504000000000000000e+03 5.176027679443359375e+01 1.117719268798828125e+01 -6.059181690216064453e-01 4.743660926818847656e+00 1.241322875022888184e+00 5.793927311897277832e-01
7.505000000000000000e+03 5.037705993652343750e+01 1.049066162109375000e+01 -5.313568711280822754e-01 4.289016723632812500e+00 1.127297878265380859e+00 5.854386091232299805e-01
7.506000000000000000e+03 4.847820663452148438e+01 9.566202163696289062e+00 -4.416846930980682373e-01 3.707261085510253906e+00 9.796729087829589844e-01 5.562108755111694336e-01
7.507000000000000000e+03 5.134082794189453125e+01 6.609748840332031250e+00 -5.264124870300292969e-01 4.484015941619873047e+00 1.187281012535095215e+00 4.094460010528564453e-01
7.508000000000000000e+03 5.105459213256835938e+01 7.975050926208496094e+00 -5.298665761947631836e-01 4.433834552764892578e+00 1.171190381050109863e+00 4.624920487403869629e-01
7.509000000000000000e+03 4.788227081298828125e+01 6.806139469146728516e+00 -3.931697905063629150e-01 3.530657768249511719e+00 9.412463903427124023e-01 4.415930211544036865e-01
7.510000000000000000e+03 5.209310913085937500e+01 7.061062812805175781e+00 -5.563330054283142090e-01 4.690542697906494141e+00 1.240262866020202637e+00 3.945771455764770508e-01
7.511000000000000000e+03 4.828487777709960938e+01 8.551665306091308594e+00 -4.236291944980621338e-01 3.633759260177612305e+00 9.630390405654907227e-01 5.124458670616149902e-01
7.512000000000000000e+03 4.912892150878906250e+01 9.782599449157714844e+00 -4.710825979709625244e-01 3.909096240997314453e+00 1.031404137611389160e+00 5.684362053871154785e-01
7.513000000000000000e+03 5.220790100097656250e+01 8.857217788696289062e+00 -5.909219384193420410e-01 4.770668506622314453e+00 1.253924012184143066e+00 4.593504965305328369e-01
7.514000000000000000e+03 5.249341964721679688e+01 9.903924942016601562e+00 -6.211492419242858887e-01 4.900560855865478516e+00 1.283823370933532715e+00 4.923772215843200684e-01
7.515000000000000000e+03 5.076612091064453125e+01 9.788235664367675781e+00 -5.476176738739013672e-01 4.402691364288330078e+00 1.156522035598754883e+00 5.368936657905578613e-01
7.516000000000000000e+03 4.847067642211914062e+01 6.279950141906738281e+00 -4.104256033897399902e-01 3.692208528518676758e+00 9.845349192619323730e-01 4.298247396945953369e-01
7.517000000000000000e+03 4.874633026123046875e+01 8.905133247375488281e+00 -4.466631114482879639e-01 3.795392274856567383e+00 1.004618763923645020e+00 5.247521996498107910e-01
7.518000000000000000e+03 5.115130615234375000e+01 9.105176925659179688e+00 -5.561528205871582031e-01 4.510036468505859375e+00 1.186165213584899902e+00 5.041055679321289062e-01
7.519000000000000000e+03 5.068612289428710938e+01 7.284195899963378906e+00 -5.134366750717163086e-01 4.311715126037597656e+00 1.139483571052551270e+00 4.458253383636474609e-01
7.520000000000000000e+03 4.847009658813476562e+01 7.502822399139404297e+00 -4.259743690490722656e-01 3.700374126434326172e+00 9.823199510574340820e-01 4.742680788040161133e-01
7.521000000000000000e+03 4.986024856567382812e+01 7.406063079833984375e+00 -4.811369776725769043e-01 4.096655845642089844e+00 1.084655642509460449e+00 4.607663750648498535e-01
7.522000000000000000e+03 5.010148620605468750e+01 9.395095825195312500e+00 -5.062894225120544434e-01 4.171572685241699219e+00 1.099585056304931641e+00 5.394033789634704590e-01
7.523000000000000000e+03 4.941630554199218750e+01 9.089280128479003906e+00 -4.794959723949432373e-01 3.976666450500488281e+00 1.049151182174682617e+00 5.446438193321228027e-01
7.524000000000000000e+03 5.156118011474609375e+01 8.492827415466308594e+00 -5.623210668563842773e-01 4.589344024658203125e+00 1.208106875419616699e+00 4.775733351707458496e-01
7.525000000000000000e+03 4.909201049804687500e+01 6.935103893280029297e+00 -4.402464628219604492e-01 3.873142719268798828e+00 1.029868841171264648e+00 4.514752924442291260e-01
7.526000000000000000e+03 4.966729354858398438e+01 8.254976272583007812e+00 -4.812009930610656738e-01 4.035332679748535156e+00 1.066239476203918457e+00 5.002424120903015137e-01
7.527000000000000000e+03 5.996263122558593750e+01 -2.802473068237304688e+01 1.290922760963439941e-01 6.255868911743164062e+00 1.915488362312316895e+00 3.782774507999420166e-01
7.528000000000000000e+03 1.305922126770019531e+01 3.460724258422851562e+01 -6.220540031790733337e-03 1.081073191016912460e-03 -1.541840028949081898e-03 1.427161332685500383e-04
7.529000000000000000e+03 2.590353965759277344e+01 -3.519286727905273438e+01 1.712349057197570801e-01 2.940002083778381348e-01 1.395705342292785645e-01 -1.126273944973945618e-01
7.530000000000000000e+03 6.891952514648437500e+01 -3.157868576049804688e+01 1.143764778971672058e-01 7.366177558898925781e+00 2.244166135787963867e+00 2.946195602416992188e-01
7.531000000000000000e+03 7.216527557373046875e+01 -3.796885299682617188e+01 9.885855764150619507e-02 7.701701164245605469e+00 2.340167999267578125e+00 1.016032770276069641e-01
7.532000000000000000e+03 6.928672313690185547e+00 -3.854156112670898438e+01 -1.288774656131863594e-03 -4.030613005161285400e-01 -1.213050261139869690e-01 -9.813287295401096344e-03
7.533000000000000000e+03 5.411077499389648438e+01 -3.109215354919433594e+01 3.690373003482818604e-01 5.620653629302978516e+00 1.796907305717468262e+00 3.104254603385925293e-01
7.534000000000000000e+03 5.271899032592773438e+01 -2.695986747741699219e+01 3.762044012546539307e-02 5.343541622161865234e+00 1.614348649978637695e+00 2.811346054077148438e-01
7.535000000000000000e+03 5.421669769287109375e+01 -2.667683792114257812e+01 3.837886033579707146e-03 5.541590213775634766e+00 1.663628339767456055e+00 3.052123188972473145e-01
7.536000000000000000e+03 1.504341793060302734e+01 -3.056062507629394531e+01 4.924485087394714355e-02 -2.944976277649402618e-02 5.938526708632707596e-03 -7.931727170944213867e-02
7.537000000000000000e+03 1.664146423339843750e+01 -3.206532287597656250e+01 5.400643870234489441e-02 2.996477857232093811e-02 2.519136480987071991e-02 -9.052478522062301636e-02
7.538000000000000000e+03 1.276920986175537109e+01 -2.870588111877441406e+01 3.177629038691520691e-02 -1.040130257606506348e-01 -2.167101949453353882e-02 -7.201559096574783325e-02
7.539000000000000000e+03 5.949710845947265625e+01 -3.196440124511718750e+01 3.086757063865661621e-01 6.178501129150390625e+00 1.946153044700622559e+00 3.271590471267700195e-01
7.540000000000000000e+03 6.491967010498046875e+01 -2.950410270690917969e+01 1.313329339027404785e-01 6.904437065124511719e+00 2.110730886459350586e+00 3.428511321544647217e-01
7.541000000000000000e+03 2.212038230895996094e+01 3.578800582885742188e+01 4.128633532673120499e-03 6.969139724969863892e-02 2.214600890874862671e-02 1.802340336143970490e-02
7.542000000000000000e+03 5.679064178466796875e+01 -2.465221023559570312e+01 -7.408288121223449707e-02 5.817349433898925781e+00 1.722980022430419922e+00 3.504871726036071777e-01
7.543000000000000000e+03 1.211706829071044922e+01 -3.461356353759765625e+01 2.646088227629661560e-02 -1.627677828073501587e-01 -4.089207202196121216e-02 -3.225895762443542480e-02
7.544000000000000000e+03 8.066372871398925781e+00 4.127420806884765625e+01 -5.554212257266044617e-03 -6.249706447124481201e-02 -2.041538432240486145e-02 2.072804782073944807e-04
7.545000000000000000e+03 5.315731811523437500e+01 -4.055063247680664062e+01 5.748978257179260254e-01 5.775425910949707031e+00 1.905097126960754395e+00 -1.423621829599142075e-02
7.546000000000000000e+03 5.081828308105468750e+01 -3.655190658569335938e+01 9.265334010124206543e-01 5.499493598937988281e+00 1.927808046340942383e+00 -5.459254607558250427e-02
7.547000000000000000e+03 1.562365531921386719e+01 -3.689512634277343750e+01 3.746824339032173157e-02 -2.884276583790779114e-02 2.587643451988697052e-03 -4.201583564281463623e-02
7.548000000000000000e+03 2.798386383056640625e+01 -3.847296524047851562e+01 2.174480259418487549e-01 2.925011813640594482e-01 1.529847532510757446e-01 -7.293885946273803711e-02
7.549000000000000000e+03 2.765693473815917969e+01 -4.115355300903320312e+01 2.268658578395843506e-01 2.768586874008178711e-01 1.511173546314239502e-01 -4.598164558410644531e-02
7.550000000000000000e+03 6.408638763427734375e+01 -3.671784973144531250e+01 3.078967034816741943e-01 6.713725566864013672e+00 2.106486797332763672e+00 1.832492649555206299e-01
7.551000000000000000e+03 2.634034729003906250e+01 3.828963470458984375e+01 1.552689913660287857e-02 8.144422620534896851e-02 2.909133769571781158e-02 1.598203554749488831e-02
7.552000000000000000e+03 8.644045829772949219e+00 3.890368652343750000e+01 -6.528285797685384750e-03 -5.381434783339500427e-02 -1.810278929769992828e-02 -3.956058062613010406e-03
7.553000000000000000e+03 1.496465110778808594e+01 3.663110351562500000e+01 -9.215413592755794525e-03 1.850923337042331696e-02 2.788145793601870537e-03 5.095501430332660675e-03
7.554000000000000000e+03 1.812412834167480469e+01 3.808529281616210938e+01 -3.043739125132560730e-03 4.051968455314636230e-02 1.124278362840414047e-02 3.899455536156892776e-03
7.555000000000000000e+03 6.150873184204101562e+01 -3.003479766845703125e+01 2.058192640542984009e-01 6.456571578979492188e+00 1.998717308044433594e+00 3.370804786682128906e-01
7.556000000000000000e+03 6.334420394897460938e+01 -3.196180915832519531e+01 2.108754664659500122e-01 6.696193695068359375e+00 2.072120904922485352e+00 3.104065656661987305e-01
7.557000000000000000e+03 2.041837882995605469e+01 -3.472002410888671875e+01 1.014331355690956116e-01 1.373372972011566162e-01 7.163112610578536987e-02 -9.335020184516906738e-02
7.558000000000000000e+03 5.694570159912109375e+01 -3.331055831909179688e+01 4.504222869873046875e-01 5.909896373748779297e+00 1.908095598220825195e+00 2.741641402244567871e-01
7.559000000000000000e+03 1.096483135223388672e+01 3.595633316040039062e+01 -9.837106801569461823e-03 -2.198752574622631073e-02 -9.547390043735504150e-03 -3.362084273248910904e-03
7.560000000000000000e+03 6.114863204956054688e+01 -3.467897415161132812e+01 3.639428615570068359e-01 6.398331642150878906e+00 2.028682231903076172e+00 2.397547066211700439e-01
7.561000000000000000e+03 1.463855743408203125e+01 -3.392002105712890625e+01 7.082170248031616211e-02 -6.259404122829437256e-02 2.468297258019447327e-03 -6.225216761231422424e-02
7.562000000000000000e+03 5.826745605468750000e+01 -2.960403251647949219e+01 2.301433980464935303e-01 6.036035537719726562e+00 1.879853725433349609e+00 3.730918467044830322e-01
7.563000000000000000e+03 5.720395278930664062e+01 -2.770605087280273438e+01 1.066651269793510437e-01 5.898272037506103516e+00 1.801481246948242188e+00 3.856992423534393311e-01
7.564000000000000000e+03 5.058192443847656250e+01 3.783080673217773438e+01 -6.068309545516967773e-01 6.388667225837707520e-02 -1.628832817077636719e-01 -4.259465932846069336e-01
7.565000000000000000e+03 5.034358596801757812e+01 3.790306854248046875e+01 -6.169811487197875977e-01 -3.110972233116626740e-02 -1.944272667169570923e-01 -2.063872814178466797e-01
7.566000000000000000e+03 4.694484710693359375e+01 3.626797866821289062e+01 4.844482615590095520e-02 8.761593699455261230e-02 4.081822931766510010e-02 9.973645210266113281e-03
7.567000000000000000e+03 3.484283447265625000e+01 2.498265838623046875e+01 7.293479144573211670e-02 1.044238284230232239e-01 5.320758745074272156e-02 8.982486277818679810e-02
7.568000000000000000e+03 3.436821365356445312e+01 2.434922790527343750e+01 6.704600155353546143e-02 9.899687021970748901e-02 4.981286078691482544e-02 8.702641725540161133e-02
7.569000000000000000e+03 3.384069824218750000e+01 2.421903991699218750e+01 6.877545267343521118e-02 9.818301349878311157e-02 5.008753761649131775e-02 8.895539492368698120e-02
7.570000000000000000e+03 5.483164215087890625e+01 3.711734390258789062e+01 9.745202064514160156e-01 1.005773925781250000e+01 3.309677839279174805e+00 -4.624161243438720703e+00
7.571000000000000000e+03 5.520276641845703125e+01 3.714236450195312500e+01 2.248936295509338379e-01 1.331419563293457031e+01 4.061726570129394531e+00 -4.519279479980468750e+00
7.572000000000000000e+03 5.535994720458984375e+01 3.689228439331054688e+01 9.009517729282379150e-02 1.496912765502929688e+01 4.517766475677490234e+00 -4.800042152404785156e+00
7.573000000000000000e+03 5.553906631469726562e+01 3.687520599365234375e+01 -1.705038249492645264e-01 1.643466377258300781e+01 4.879248142242431641e+00 -4.026087760925292969e+00
7.574000000000000000e+03 5.594974517822265625e+01 3.681368637084960938e+01 -2.809246778488159180e-01 1.948283576965332031e+01 5.760573387145996094e+00 -1.724694252014160156e+00
7.575000000000000000e+03 5.636658096313476562e+01 3.667787933349609375e+01 7.676107883453369141e-01 2.044889450073242188e+01 6.364951610565185547e+00 8.548393249511718750e-01
7.576000000000000000e+03 5.742939758300781250e+01 3.517254257202148438e+01 9.688257217407226562e+00 1.622405624389648438e+01 7.773694038391113281e+00 1.501960396766662598e+00
7.577000000000000000e+03 5.746389770507812500e+01 3.474105834960937500e+01 9.238366127014160156e+00 1.612926292419433594e+01 7.610288619995117188e+00 -7.304728776216506958e-02
7.578000000000000000e+03 5.732010650634765625e+01 3.409458541870117188e+01 6.955945968627929688e+00 1.721026802062988281e+01 7.249864101409912109e+00 -1.251552224159240723e+00
7.579000000000000000e+03 5.669800567626953125e+01 3.340744400024414062e+01 3.159972667694091797e+00 1.875401496887207031e+01 6.574196338653564453e+00 2.474966794252395630e-01
7.580000000000000000e+03 5.617826080322265625e+01 3.309543228149414062e+01 1.845611929893493652e+00 1.790169334411621094e+01 5.924191474914550781e+00 2.611838817596435547e+00
7.581000000000000000e+03 5.544522476196289062e+01 3.347705841064453125e+01 2.759298324584960938e+00 1.638442993164062500e+01 5.743118286132812500e+00 6.324382781982421875e+00
7.582000000000000000e+03 5.520750427246093750e+01 3.315251159667968750e+01 2.625038862228393555e+00 1.358385944366455078e+01 4.862669467926025391e+00 6.232962131500244141e+00
7.583000000000000000e+03 5.476441574096679688e+01 3.328145217895507812e+01 3.642158269882202148e+00 1.012223529815673828e+01 4.129318237304687500e+00 6.686646461486816406e+00
7.584000000000000000e+03 5.454744720458984375e+01 3.333581924438476562e+01 4.042668819427490234e+00 8.380553245544433594e+00 3.726966619491577148e+00 6.460612773895263672e+00
7.585000000000000000e+03 5.408885192871093750e+01 3.344223785400390625e+01 4.102854251861572266e+00 5.299188137054443359e+00 2.820612668991088867e+00 5.370309829711914062e+00
7.586000000000000000e+03 5.331186676025390625e+01 3.416559982299804688e+01 2.062612533569335938e+00 5.137650966644287109e-01 7.729132771492004395e-01 1.578771471977233887e+00
7.587000000000000000e+03 5.310338973999023438e+01 3.415793991088867188e+01 1.416313290596008301e+00 3.355613648891448975e-01 5.255624055862426758e-01 1.043257236480712891e+00
7.588000000000000000e+03 1.641110038757324219e+01 -2.894715785980224609e+00 -3.705797791481018066e-01 -4.879277050495147705e-01 -2.575522363185882568e-01 -3.472900986671447754e-01
7.589000000000000000e+03 1.743648147583007812e+01 -2.225177764892578125e+00 -5.632276535034179688e-01 -1.702428460121154785e-01 -2.200411558151245117e-01 -3.094331920146942139e-01
7.590000000000000000e+03 1.776313018798828125e+01 -1.599719762802124023e+00 -9.491509795188903809e-01 -1.683758758008480072e-02 -2.897965908050537109e-01 -4.649471342563629150e-01
7.591000000000000000e+03 1.902918815612792969e+01 -6.443635225296020508e-01 -1.382354974746704102e+00 4.153155386447906494e-01 -2.901118099689483643e-01 -4.645417034626007080e-01
7.592000000000000000e+03 1.917392921447753906e+01 -5.563747286796569824e-01 -1.682829976081848145e+00 3.959818780422210693e-01 -3.860544264316558838e-01 -3.627453744411468506e-01
7.593000000000000000e+03 2.042881202697753906e+01 2.007076293230056763e-01 -1.396188497543334961e+00 -3.100522160530090332e-01 -5.118722319602966309e-01 -6.903561297804117203e-03
7.594000000000000000e+03 2.057296562194824219e+01 2.955425381660461426e-01 -1.107900857925415039e+00 -2.733423411846160889e-01 -4.143729507923126221e-01 -1.861296743154525757e-01
7.595000000000000000e+03 2.087972831726074219e+01 2.105413824319839478e-01 -1.136166810989379883e+00 -2.806502878665924072e-01 -4.250451326370239258e-01 -1.802462339401245117e-01
7.596000000000000000e+03 2.128413391113281250e+01 6.965780258178710938e-01 -9.263878464698791504e-01 -2.230235189199447632e-01 -3.448233902454376221e-01 -2.635119855403900146e-01
7.597000000000000000e+03 2.142945671081542969e+01 8.031152486801147461e-01 -8.801660537719726562e-01 -1.913342028856277466e-01 -3.214500844478607178e-01 -2.832425236701965332e-01
7.598000000000000000e+03 2.172456932067871094e+01 6.873869299888610840e-01 -8.893443346023559570e-01 -1.848197430372238159e-01 -3.222492337226867676e-01 -2.646508216857910156e-01
7.599000000000000000e+03 2.213675880432128906e+01 7.052733898162841797e-01 -8.434597253799438477e-01 -1.514054089784622192e-01 -2.984595298767089844e-01 -2.690056264400482178e-01
7.600000000000000000e+03 2.252712249755859375e+01 1.195112228393554688e+00 -6.609036922454833984e-01 -1.600816696882247925e-01 -2.462956011295318604e-01 -2.801249623298645020e-01
7.601000000000000000e+03 2.276349830627441406e+01 1.225491523742675781e+00 -6.687134504318237305e-01 -1.708208918571472168e-01 -2.518602907657623291e-01 -2.773428559303283691e-01
7.602000000000000000e+03 2.301749992370605469e+01 1.727281689643859863e+00 -5.574228167533874512e-01 -1.837698966264724731e-01 -2.223578095436096191e-01 -2.819361090660095215e-01
7.603000000000000000e+03 2.364536094665527344e+01 2.148921966552734375e+00 -4.788791239261627197e-01 -1.923533231019973755e-01 -2.013697326183319092e-01 -2.867239713668823242e-01
7.604000000000000000e+03 2.423693656921386719e+01 2.086216449737548828e+00 -4.592115283012390137e-01 -1.919840872287750244e-01 -1.953586935997009277e-01 -2.674993574619293213e-01
7.605000000000000000e+03 2.437130928039550781e+01 2.232682704925537109e+00 -4.603179693222045898e-01 -1.934230923652648926e-01 -1.961223185062408447e-01 -2.623135745525360107e-01
7.606000000000000000e+03 2.527467346191406250e+01 2.961931943893432617e+00 -4.002869129180908203e-01 -2.266364544630050659e-01 -1.880770027637481689e-01 -2.788674235343933105e-01
7.607000000000000000e+03 2.561072158813476562e+01 3.024737358093261719e+00 -3.891833722591400146e-01 -2.243368476629257202e-01 -1.840560734272003174e-01 -2.759116888046264648e-01
7.608000000000000000e+03 2.606666564941406250e+01 2.736535310745239258e+00 -3.507801294326782227e-01 -2.262194454669952393e-01 -1.730998754501342773e-01 -2.490657866001129150e-01
7.609000000000000000e+03 2.605967140197753906e+01 3.688918113708496094e+00 -3.915695250034332275e-01 -2.518802881240844727e-01 -1.930349320173263550e-01 -2.961281836032867432e-01
7.610000000000000000e+03 2.623370742797851562e+01 3.611874103546142578e+00 -3.781452178955078125e-01 -2.479596734046936035e-01 -1.878314763307571411e-01 -2.915820479393005371e-01
7.611000000000000000e+03 2.644254112243652344e+01 3.617654561996459961e+00 -3.771537244319915771e-01 -2.504341304302215576e-01 -1.882763504981994629e-01 -2.844843864440917969e-01
7.612000000000000000e+03 2.708821487426757812e+01 4.277920722961425781e+00 -3.722595572471618652e-01 -2.747394144535064697e-01 -1.940996944904327393e-01 -2.992901802062988281e-01
7.613000000000000000e+03 2.707596969604492188e+01 3.908335924148559570e+00 -3.472931385040283203e-01 -2.600008249282836914e-01 -1.821881830692291260e-01 -2.764883935451507568e-01
7.614000000000000000e+03 2.742577552795410156e+01 4.172019958496093750e+00 -3.454516232013702393e-01 -2.633571922779083252e-01 -1.826426386833190918e-01 -2.772066891193389893e-01
7.615000000000000000e+03 2.777185821533203125e+01 4.218362331390380859e+00 -3.332466781139373779e-01 -2.558466792106628418e-01 -1.767280101776123047e-01 -2.648917138576507568e-01
7.616000000000000000e+03 2.758776855468750000e+01 4.619258880615234375e+00 -3.668174743652343750e-01 -2.859962880611419678e-01 -1.958441287279129028e-01 -2.985935807228088379e-01
7.617000000000000000e+03 2.803319358825683594e+01 4.609752178192138672e+00 -3.320403099060058594e-01 -2.603510916233062744e-01 -1.777174174785614014e-01 -2.671151459217071533e-01
7.618000000000000000e+03 2.792464637756347656e+01 4.822675704956054688e+00 -3.595318496227264404e-01 -2.828029394149780273e-01 -1.927004307508468628e-01 -2.890091836452484131e-01
7.619000000000000000e+03 2.879784965515136719e+01 4.890834808349609375e+00 -3.113982975482940674e-01 -1.794479489326477051e-01 -1.472538709640502930e-01 -2.401580661535263062e-01
7.620000000000000000e+03 2.916673851013183594e+01 5.558985710144042969e+00 -3.339031934738159180e-01 -9.623641520738601685e-02 -1.290418803691864014e-01 -2.908533513545989990e-01
7.621000000000000000e+03 2.925286865234375000e+01 5.215471744537353516e+00 -3.243884742259979248e-01 -9.714189171791076660e-02 -1.264591068029403687e-01 -2.690543532371520996e-01
7.622000000000000000e+03 2.742436790466308594e+01 8.270503997802734375e+00 -3.417650699615478516e+00 -1.806379795074462891e+00 -1.567209124565124512e+00 -2.638190031051635742e+00
7.623000000000000000e+03 2.710642814636230469e+01 8.175982475280761719e+00 -3.963906049728393555e+00 -2.673080205917358398e+00 -1.991095900535583496e+00 -3.303933382034301758e+00
7.624000000000000000e+03 3.147677803039550781e+01 2.174792289733886719e+01 8.370263129472732544e-02 9.610360860824584961e-02 5.394187197089195251e-02 9.160700440406799316e-02
7.625000000000000000e+03 2.595827484130859375e+01 7.296055793762207031e+00 -5.675486087799072266e+00 -2.868093252182006836e+00 -2.563073873519897461e+00 -3.490575790405273438e+00
7.626000000000000000e+03 1.501742649078369141e+01 9.274632930755615234e-01 8.621553421020507812e+00 1.380270004272460938e+00 3.000546932220458984e+00 -3.253015995025634766e+00
7.627000000000000000e+03 4.357886886596679688e+01 -3.966691589355468750e+01 8.710098862648010254e-01 2.352440357208251953e+00 9.670350551605224609e-01 1.093414545059204102e+00
7.628000000000000000e+03 4.174599075317382812e+01 -3.979271316528320312e+01 9.064669609069824219e-01 8.261864781379699707e-01 5.197960138320922852e-01 5.059806704521179199e-01
7.629000000000000000e+03 1.934990310668945312e+01 -7.305095791816711426e-01 -1.551683425903320312e+00 4.419552087783813477e-01 -3.329184651374816895e-01 -4.077098667621612549e-01
7.630000000000000000e+03 4.463856506347656250e+01 -4.106908035278320312e+01 2.068012654781341553e-01 4.069652557373046875e+00 1.282936215400695801e+00 1.342871040105819702e-01
7.631000000000000000e+03 4.581570053100585938e+01 -3.815393066406250000e+01 6.821743249893188477e-01 6.015803813934326172e+00 2.009393453598022461e+00 -1.291264891624450684e-01
7.632000000000000000e+03 4.733217239379882812e+01 -3.867395782470703125e+01 6.679729223251342773e-01 5.602856159210205078e+00 1.881248831748962402e+00 -3.434839546680450439e-01
7.633000000000000000e+03 2.481476020812988281e+01 -3.782937240600585938e+01 1.501724570989608765e-01 2.526457011699676514e-01 1.208454519510269165e-01 -9.776403009891510010e-02
7.634000000000000000e+03 5.010818862915039062e+01 3.825565719604492188e+01 -6.403149366378784180e-01 8.520656079053878784e-02 -1.665325164794921875e-01 8.393950760364532471e-03
7.635000000000000000e+03 2.469763755798339844e+01 2.439544916152954102e+00 -4.255298674106597900e-01 -2.066954374313354492e-01 -1.896675825119018555e-01 -2.644227743148803711e-01
7.636000000000000000e+03 2.503343200683593750e+01 2.716828823089599609e+00 -4.189406037330627441e-01 -2.156281620264053345e-01 -1.903706341981887817e-01 -2.717198133468627930e-01
7.637000000000000000e+03 2.511575889587402344e+01 2.328984975814819336e+00 -4.227723777294158936e-01 -2.046412676572799683e-01 -1.882240921258926392e-01 -2.452353686094284058e-01
7.638000000000000000e+03 2.543013954162597656e+01 3.019362449645996094e+00 -4.059865474700927734e-01 -2.310897707939147949e-01 -1.911228895187377930e-01 -2.849986851215362549e-01
7.639000000000000000e+03 2.601039314270019531e+01 3.048774719238281250e+00 -3.787685632705688477e-01 -2.315637916326522827e-01 -1.830997169017791748e-01 -2.683235108852386475e-01
7.640000000000000000e+03 2.957169532775878906e+01 5.252745628356933594e+00 -2.898762226104736328e-01 -5.654388293623924255e-02 -1.039260327816009521e-01 -2.835127711296081543e-01
7.641000000000000000e+03 3.008159828186035156e+01 5.731763839721679688e+00 -1.704993546009063721e-01 -6.057975813746452332e-02 -6.932373344898223877e-02 -3.392044901847839355e-01
7.642000000000000000e+03 2.998952865600585938e+01 5.311195373535156250e+00 -2.210112214088439941e-01 -4.099111631512641907e-02 -7.860070466995239258e-02 -2.857735157012939453e-01
7.643000000000000000e+03 2.772504997253417969e+01 4.421961307525634766e+00 -3.401122689247131348e-01 -2.673779129981994629e-01 -1.822470575571060181e-01 -2.742039263248443604e-01
7.644000000000000000e+03 2.688973045349121094e+01 3.762462615966796875e+00 -3.510050177574157715e-01 -2.563594877719879150e-01 -1.822093576192855835e-01 -2.768355906009674072e-01
7.645000000000000000e+03 5.448655700683593750e+01 3.910840606689453125e+01 -6.606628745794296265e-02 9.303100585937500000e+00 2.771110296249389648e+00 -2.060424327850341797e+00
7.646000000000000000e+03 1.678601837158203125e+01 -2.682707786560058594e+00 -4.240680336952209473e-01 -4.150661826133728027e-01 -2.517402768135070801e-01 -3.456498980522155762e-01
7.647000000000000000e+03 5.071228408813476562e+01 3.883474349975585938e+01 -6.948770880699157715e-01 1.676000803709030151e-01 -1.581830978393554688e-01 3.060984313488006592e-01
7.648000000000000000e+03 5.021416473388671875e+01 3.917573165893554688e+01 -4.984295368194580078e-01 2.523903548717498779e-01 -7.381175458431243896e-02 4.175200462341308594e-01
7.649000000000000000e+03 4.984868240356445312e+01 3.880001068115234375e+01 -3.233633637428283691e-01 1.279271095991134644e-01 -5.863087251782417297e-02 3.421612977981567383e-01
7.650000000000000000e+03 4.976324081420898438e+01 3.956543731689453125e+01 1.569738686084747314e-01 -2.746704034507274628e-02 3.885204717516899109e-02 6.161922216415405273e-01
7.651000000000000000e+03 1.934571075439453125e+01 -9.646629095077514648e-01 -9.179634451866149902e-01 5.309986472129821777e-01 -1.160894483327865601e-01 -2.545323371887207031e-01
7.652000000000000000e+03 1.308305263519287109e+01 4.077341556549072266e+00 2.722880542278289795e-01 1.051387071609497070e+00 3.971025645732879639e-01 -2.070408761501312256e-01
7.653000000000000000e+03 1.141211128234863281e+01 2.946121454238891602e+00 5.885432362556457520e-01 -1.194233894348144531e-01 1.407359689474105835e-01 -4.149940982460975647e-02
7.654000000000000000e+03 5.125025177001953125e+01 4.026689529418945312e+01 4.057931900024414062e-01 1.034583568572998047e+00 4.321130216121673584e-01 1.988418996334075928e-01
7.655000000000000000e+03 6.031484222412109375e+01 3.891995239257812500e+01 7.898067831993103027e-01 1.342018795013427734e+01 4.262998580932617188e+00 1.507658362388610840e+00
7.656000000000000000e+03 1.883248138427734375e+01 -1.388390898704528809e+00 -8.875579833984375000e-01 6.200503706932067871e-01 -8.025227487087249756e-02 -3.550571501255035400e-01
7.657000000000000000e+03 2.532041931152343750e+01 2.776571989059448242e+00 -4.137976169586181641e-01 -2.210306525230407715e-01 -1.904484778642654419e-01 -2.705811858177185059e-01
7.658000000000000000e+03 2.592925643920898438e+01 2.458041191101074219e+00 -3.753803372383117676e-01 -2.127561569213867188e-01 -1.764409542083740234e-01 -2.299555689096450806e-01
7.659000000000000000e+03 2.644689178466796875e+01 3.351761817932128906e+00 -3.519935607910156250e-01 -2.401705980300903320e-01 -1.776492446660995483e-01 -2.675175368785858154e-01
7.660000000000000000e+03 2.222093582153320312e+01 -2.523510903120040894e-02 -9.883190989494323730e-01 -1.460190862417221069e-01 -3.403014540672302246e-01 -6.828329712152481079e-02
7.661000000000000000e+03 4.846361160278320312e+00 -3.854660749435424805e+00 -7.306844741106033325e-02 -5.887096002697944641e-02 -3.958182036876678467e-02 -1.184348911046981812e-01
7.662000000000000000e+03 2.731437110900878906e+01 3.435665845870971680e+00 -3.056337833404541016e-01 -2.334367781877517700e-01 -1.617211699485778809e-01 -2.362426519393920898e-01
7.663000000000000000e+03 1.305015563964843750e+01 1.702912330627441406e+00 1.405448436737060547e+00 4.774783849716186523e-01 5.648780465126037598e-01 -3.493154644966125488e-01
7.664000000000000000e+03 5.242844772338867188e+01 3.960706329345703125e+01 2.327475845813751221e-01 1.189693570137023926e+00 4.267323613166809082e-01 -1.064736604690551758e+00
7.665000000000000000e+03 2.447506332397460938e+01 1.802433371543884277e+00 -4.693866372108459473e-01 -1.783894151449203491e-01 -1.943328231573104858e-01 -2.287336587905883789e-01
7.666000000000000000e+03 2.463279151916503906e+01 1.957149624824523926e+00 -4.455944001674652100e-01 -1.914557665586471558e-01 -1.911150515079498291e-01 -2.404602319002151489e-01
7.667000000000000000e+03 2.525918006896972656e+01 2.560643672943115234e+00 -3.961679339408874512e-01 -2.183452546596527100e-01 -1.843539476394653320e-01 -2.664224505424499512e-01
7.668000000000000000e+03 2.536802101135253906e+01 2.169825315475463867e+00 -3.929764926433563232e-01 -2.090042084455490112e-01 -1.805942058563232422e-01 -2.434308081865310669e-01
7.669000000000000000e+03 2.551652145385742188e+01 2.403314828872680664e+00 -4.011814892292022705e-01 -2.087644636631011963e-01 -1.829837858676910400e-01 -2.411914169788360596e-01
7.670000000000000000e+03 3.230900192260742188e+01 2.312421417236328125e+01 7.479526102542877197e-02 9.376811236143112183e-02 5.056901276111602783e-02 8.976763486862182617e-02
7.671000000000000000e+03 4.571287155151367188e+01 3.643790817260742188e+01 2.460968308150768280e-02 4.141295701265335083e-02 1.980679109692573547e-02 8.108984678983688354e-02
7.672000000000000000e+03 4.608094787597656250e+01 3.717623519897460938e+01 1.979750581085681915e-02 6.078508496284484863e-02 2.417477592825889587e-02 7.105707377195358276e-02
7.673000000000000000e+03 4.654383468627929688e+01 3.696159362792968750e+01 -1.255519129335880280e-02 4.842291399836540222e-02 1.076031662523746490e-02 7.718797773122787476e-02
7.674000000000000000e+03 4.675453186035156250e+01 3.746822357177734375e+01 -4.298111796379089355e-02 8.296055346727371216e-02 1.199383102357387543e-02 8.954790979623794556e-02
7.675000000000000000e+03 4.628758621215820312e+01 3.776727294921875000e+01 1.302968151867389679e-02 3.657071292400360107e-02 1.488011796027421951e-02 1.333953440189361572e-01
7.676000000000000000e+03 2.440315246582031250e+01 1.556669712066650391e+01 1.218139976263046265e-01 1.426583528518676758e-01 7.934170961380004883e-02 1.351431459188461304e-01
7.677000000000000000e+03 5.543477249145507812e+01 3.707968902587890625e+01 -6.814032047986984253e-02 1.517768383026123047e+01 4.532863140106201172e+00 -4.128173828125000000e+00
7.678000000000000000e+03 5.346204376220703125e+01 3.386181259155273438e+01 2.854459285736083984e+00 1.695777416229248047e+00 1.365071058273315430e+00 2.806134939193725586e+00
7.679000000000000000e+03 5.326250839233398438e+01 3.374270248413085938e+01 2.537023544311523438e+00 1.654796123504638672e+00 1.257545948028564453e+00 2.604847192764282227e+00
7.680000000000000000e+03 5.469729232788085938e+01 3.296482086181640625e+01 3.092078208923339844e+00 9.724954605102539062e+00 3.845109701156616211e+00 6.213500976562500000e+00
7.681000000000000000e+03 5.541951751708984375e+01 3.269129180908203125e+01 1.676978349685668945e+00 1.383503341674804688e+01 4.653603553771972656e+00 5.025920391082763672e+00
7.682000000000000000e+03 5.634062194824218750e+01 3.310742568969726562e+01 2.117188453674316406e+00 1.827398681640625000e+01 6.117352485656738281e+00 1.768193364143371582e+00
7.683000000000000000e+03 5.652316284179687500e+01 3.312506484985351562e+01 2.215972661972045898e+00 1.838338279724121094e+01 6.179806232452392578e+00 1.293642878532409668e+00
7.684000000000000000e+03 5.729868698120117188e+01 3.358497619628906250e+01 4.737955570220947266e+00 1.722793960571289062e+01 6.589768409729003906e+00 -1.035134792327880859e+00
7.685000000000000000e+03 5.735523986816406250e+01 3.496463775634765625e+01 9.988488197326660156e+00 1.642013740539550781e+01 7.922587871551513672e+00 6.925047039985656738e-01
7.686000000000000000e+03 5.766725540161132812e+01 3.550300216674804688e+01 8.066185951232910156e+00 1.573275661468505859e+01 7.139682292938232422e+00 2.146596193313598633e+00
7.687000000000000000e+03 5.753944396972656250e+01 3.602603530883789062e+01 6.396887302398681641e+00 1.705773162841796875e+01 7.036386013031005859e+00 3.354525089263916016e+00
7.688000000000000000e+03 2.698923110961914062e+01 3.271342515945434570e+00 -3.205634951591491699e-01 -2.347231805324554443e-01 -1.665860116481781006e-01 -2.461148947477340698e-01
7.689000000000000000e+03 3.082064247131347656e+01 1.069256496429443359e+01 -8.633985519409179688e-01 -5.305806994438171387e-01 -4.181937873363494873e-01 -6.329864859580993652e-01
7.690000000000000000e+03 4.080691528320312500e+01 3.266785812377929688e+01 8.038736134767532349e-02 6.663203984498977661e-02 4.410582035779953003e-02 7.135840505361557007e-02
7.691000000000000000e+03 2.312257003784179688e+01 5.550405383110046387e-01 -7.079043388366699219e-01 -1.177855283021926880e-01 -2.477069497108459473e-01 -1.628237366676330566e-01
7.692000000000000000e+03 2.282073020935058594e+01 9.296059608459472656e-01 -6.724401116371154785e-01 -1.441156566143035889e-01 -2.449667304754257202e-01 -2.453018724918365479e-01
7.693000000000000000e+03 2.487063407897949219e+01 1.755354642868041992e+00 -4.526595175266265869e-01 -1.887900382280349731e-01 -1.924348771572113037e-01 -2.215123921632766724e-01
7.694000000000000000e+03 5.661480712890625000e+01 3.783503723144531250e+01 -2.978651821613311768e-01 1.640476608276367188e+01 4.832070350646972656e+00 1.040436774492263794e-01
7.695000000000000000e+03 5.374469757080078125e+01 3.956680297851562500e+01 -3.637364804744720459e-01 6.422137737274169922e+00 1.817520380020141602e+00 -2.999654054641723633e+00
7.696000000000000000e+03 4.683080291748046875e+01 3.805244827270507812e+01 -1.436576526612043381e-02 9.378898143768310547e-02 2.382696606218814850e-02 1.367797553539276123e-01
7.697000000000000000e+03 5.314033126831054688e+01 3.355990600585937500e+01 2.700442075729370117e+00 1.942462205886840820e+00 1.392871260643005371e+00 2.720065355300903320e+00
7.698000000000000000e+03 4.784848785400390625e+01 3.867133712768554688e+01 -3.559179604053497314e-02 8.634556829929351807e-02 1.522613130509853363e-02 2.312816381454467773e-01
7.699000000000000000e+03 5.593231201171875000e+00 -3.174872589111328125e+01 1.429460663348436356e-02 -4.524604380130767822e-01 -1.314497590065002441e-01 -2.359791286289691925e-02
7.700000000000000000e+03 5.420781326293945312e+01 3.780710983276367188e+01 1.807492971420288086e+00 8.154124259948730469e+00 2.988485336303710938e+00 -3.417464017868041992e+00
7.701000000000000000e+03 3.117666244506835938e+01 2.325934982299804688e+01 7.219009846448898315e-02 1.003552153706550598e-01 5.176359415054321289e-02 9.300926327705383301e-02
7.702000000000000000e+03 3.176197242736816406e+01 2.316576576232910156e+01 7.411891222000122070e-02 9.595878422260284424e-02 5.102331191301345825e-02 9.225168079137802124e-02
7.703000000000000000e+03 2.757296180725097656e+01 3.965008735656738281e+00 -3.196570873260498047e-01 -2.544427514076232910e-01 -1.722299605607986450e-01 -2.610067427158355713e-01
7.704000000000000000e+03 5.339305114746093750e+01 3.342527389526367188e+01 3.426342248916625977e+00 2.563829898834228516e+00 1.797051668167114258e+00 3.593839168548583984e+00
7.705000000000000000e+03 5.633040237426757812e+01 3.291284179687500000e+01 1.593812704086303711e+00 1.747122955322265625e+01 5.719512462615966797e+00 2.144011259078979492e+00
7.706000000000000000e+03 5.763753128051757812e+01 3.474193954467773438e+01 8.686529159545898438e+00 1.562099742889404297e+01 7.292257785797119141e+00 4.599223658442497253e-02
7.707000000000000000e+03 5.765636444091796875e+01 3.506453323364257812e+01 9.051923751831054688e+00 1.559492206573486328e+01 7.394053936004638672e+00 9.920652508735656738e-01
7.708000000000000000e+03 5.781081771850585938e+01 3.486297988891601562e+01 8.399750709533691406e+00 1.500176620483398438e+01 7.020454883575439453e+00 3.850224614143371582e-01
7.709000000000000000e+03 2.802029228210449219e+01 4.169109344482421875e+00 -3.018448054790496826e-01 -2.365727424621582031e-01 -1.615252643823623657e-01 -2.437040507793426514e-01
7.710000000000000000e+03 2.828495025634765625e+01 4.381488323211669922e+00 -3.011319339275360107e-01 -2.243409305810928345e-01 -1.576418578624725342e-01 -2.368319928646087646e-01
7.711000000000000000e+03 2.855039215087890625e+01 4.314824104309082031e+00 -3.006527423858642578e-01 -1.883554160594940186e-01 -1.467024534940719604e-01 -2.275301367044448853e-01
7.712000000000000000e+03 5.659111022949218750e+01 3.288940429687500000e+01 1.881305336952209473e+00 1.722959327697753906e+01 5.733269691467285156e+00 1.253831863403320312e+00
7.713000000000000000e+03 1.930918693542480469e+01 -1.893514156341552734e+00 1.414730213582515717e-02 6.850646734237670898e-01 2.097636014223098755e-01 -9.646170586347579956e-02
7.714000000000000000e+03 1.985214614868164062e+01 -1.356534838676452637e+00 -6.342092156410217285e-01 5.594282746315002441e-01 -2.243428863584995270e-02 -5.659778043627738953e-02
7.715000000000000000e+03 5.704688262939453125e+01 3.292078399658203125e+01 2.412481069564819336e+00 1.685132026672363281e+01 5.779140472412109375e+00 1.173663809895515442e-01
7.716000000000000000e+03 2.600759887695312500e+01 1.986801981925964355e+00 -3.671022951602935791e-01 -1.987564265727996826e-01 -1.697576195001602173e-01 -1.978427320718765259e-01
7.717000000000000000e+03 2.628146934509277344e+01 1.732813358306884766e+00 -3.429320156574249268e-01 -1.918336898088455200e-01 -1.604297161102294922e-01 -1.865865737199783325e-01
7.718000000000000000e+03 8.232881546020507812e+00 -5.464794635772705078e+00 -1.037834957242012024e-01 -1.063294410705566406e-01 -6.303387880325317383e-02 -2.541594505310058594e-01
7.719000000000000000e+03 4.246973800659179688e+01 3.408876800537109375e+01 8.055850863456726074e-02 6.139870360493659973e-02 4.258716478943824768e-02 7.601071894168853760e-02
7.720000000000000000e+03 4.319593429565429688e+01 3.434472274780273438e+01 8.842202275991439819e-02 6.669242680072784424e-02 4.653433337807655334e-02 6.893958151340484619e-02
7.721000000000000000e+03 3.685184478759765625e+01 3.040692520141601562e+01 6.443648040294647217e-02 8.553323894739151001e-02 4.499091580510139465e-02 7.218644022941589355e-02
7.722000000000000000e+03 3.605819702148437500e+01 3.003566932678222656e+01 5.983280390501022339e-02 9.001903235912322998e-02 4.495555162429809570e-02 7.547215372323989868e-02
7.723000000000000000e+03 4.380230712890625000e+01 3.574685668945312500e+01 6.970655173063278198e-02 7.725962996482849121e-02 4.408985376358032227e-02 7.512375712394714355e-02
7.724000000000000000e+03 3.638920974731445312e+01 2.870807838439941406e+01 7.908801734447479248e-02 9.763137251138687134e-02 5.301581695675849915e-02 7.401118427515029907e-02
7.725000000000000000e+03 2.917975807189941406e+01 2.104089164733886719e+01 8.501724153757095337e-02 1.105641499161720276e-01 5.867441743612289429e-02 9.782164543867111206e-02
7.726000000000000000e+03 5.359125137329101562e+01 3.351800918579101562e+01 3.576764106750488281e+00 2.861929178237915039e+00 1.931608080863952637e+00 3.852627515792846680e+00
7.727000000000000000e+03 5.449610519409179688e+01 3.303403854370117188e+01 3.368490695953369141e+00 8.512180328369140625e+00 3.564201354980468750e+00 6.163777351379394531e+00
7.728000000000000000e+03 5.420248413085937500e+01 3.261150360107421875e+01 3.057244777679443359e+00 7.643797874450683594e+00 3.210312843322753906e+00 5.529752731323242188e+00
7.729000000000000000e+03 5.459559249877929688e+01 3.266320419311523438e+01 2.747095108032226562e+00 9.204352378845214844e+00 3.585434198379516602e+00 5.804304122924804688e+00
7.730000000000000000e+03 5.504305267333984375e+01 3.245021438598632812e+01 1.985103487968444824e+00 1.161841964721679688e+01 4.081057071685791016e+00 5.420298576354980469e+00
7.731000000000000000e+03 5.553068161010742188e+01 3.202619171142578125e+01 1.091671466827392578e+00 1.298532104492187500e+01 4.223097801208496094e+00 4.184222698211669922e+00
7.732000000000000000e+03 2.793293190002441406e+01 3.763443946838378906e+00 -2.890715003013610840e-01 -2.194932401180267334e-01 -1.525694131851196289e-01 -2.320665121078491211e-01
7.733000000000000000e+03 2.792122459411621094e+01 3.532460451126098633e+00 -2.925110161304473877e-01 -2.088804990053176880e-01 -1.504174470901489258e-01 -2.200309038162231445e-01
7.734000000000000000e+03 1.375189399719238281e+01 -5.690367221832275391e+00 1.691806502640247345e-02 -2.188584804534912109e-01 -6.058212742209434509e-02 -3.194558024406433105e-01
7.735000000000000000e+03 5.762286376953125000e+01 3.365303802490234375e+01 5.205043792724609375e+00 1.608586120605468750e+01 6.387271404266357422e+00 -1.165438532829284668e+00
7.736000000000000000e+03 5.790771484375000000e+01 3.446789550781250000e+01 7.602943897247314453e+00 1.495834636688232422e+01 6.768386840820312500e+00 -3.661062419414520264e-01
7.737000000000000000e+03 5.815273666381835938e+01 3.413996887207031250e+01 6.300557613372802734e+00 1.450803184509277344e+01 6.242577075958251953e+00 -7.610028982162475586e-01
7.738000000000000000e+03 5.703794860839843750e+01 3.252874755859375000e+01 1.677907943725585938e+00 1.608325195312500000e+01 5.328348159790039062e+00 5.321208238601684570e-01
7.739000000000000000e+03 7.215075969696044922e+00 -3.032143974304199219e+01 1.924602128565311432e-02 -3.563828468322753906e-01 -1.011410430073738098e-01 -4.503368586301803589e-02
7.740000000000000000e+03 5.809072494506835938e+01 3.352690124511718750e+01 4.872125148773193359e+00 1.495318984985351562e+01 5.947594642639160156e+00 -1.113012552261352539e+00
7.741000000000000000e+03 5.789250183105468750e+01 3.375144577026367188e+01 5.414348602294921875e+00 1.535468769073486328e+01 6.230710983276367188e+00 -1.138168811798095703e+00
7.742000000000000000e+03 5.413760757446289062e+01 -2.877628135681152344e+01 1.989424377679824829e-01 5.588551998138427734e+00 1.736248373985290527e+00 3.610844910144805908e-01
7.743000000000000000e+03 5.152462768554687500e+01 -2.664576530456542969e+01 -4.496639221906661987e-02 5.185427188873291016e+00 1.542138338088989258e+00 2.219800204038619995e-01
7.744000000000000000e+03 2.820304870605468750e+01 3.508295297622680664e+00 -2.638081014156341553e-01 -1.878532171249389648e-01 -1.354983896017074585e-01 -2.020707726478576660e-01
7.745000000000000000e+03 2.812936210632324219e+01 3.787380695343017578e+00 -2.923420369625091553e-01 -2.072857618331909180e-01 -1.498883366584777832e-01 -2.267269790172576904e-01
7.746000000000000000e+03 3.281886672973632812e+01 2.474309539794921875e+01 6.839223951101303101e-02 9.798256307840347290e-02 4.991244152188301086e-02 8.508857339620590210e-02
7.747000000000000000e+03 2.825946807861328125e+01 4.121015548706054688e+00 -3.058612048625946045e-01 -2.104798406362533569e-01 -1.549023091793060303e-01 -2.353916317224502563e-01
7.748000000000000000e+03 5.486781311035156250e+01 3.773048400878906250e+01 8.616757392883300781e-01 1.040307521820068359e+01 3.379425287246704102e+00 -3.807954788208007812e+00
7.749000000000000000e+03 3.693632125854492188e+01 3.374440383911132812e+01 8.080196380615234375e-02 7.957188040018081665e-02 4.811215400695800781e-02 5.801663175225257874e-02
7.750000000000000000e+03 5.830138397216796875e+01 3.504271697998046875e+01 7.308621406555175781e+00 1.403279590606689453e+01 6.402425289154052734e+00 7.943027615547180176e-01
7.751000000000000000e+03 3.698566055297851562e+01 2.995294570922851562e+01 7.202911376953125000e-02 8.534137159585952759e-02 4.721114411950111389e-02 8.137303590774536133e-02
7.752000000000000000e+03 5.801120758056640625e+01 3.211354446411132812e+01 1.844936251640319824e+00 1.433228206634521484e+01 4.853165149688720703e+00 -5.099453926086425781e-01
7.753000000000000000e+03 9.838522911071777344e+00 -6.131600856781005859e+00 -7.620266079902648926e-02 -1.395272612571716309e-01 -6.471897661685943604e-02 -3.006250560283660889e-01
7.754000000000000000e+03 1.567926025390625000e+01 -5.556869983673095703e+00 1.209833174943923950e-01 -1.337482929229736328e-01 -3.829491557553410530e-03 -1.840363740921020508e-01
7.755000000000000000e+03 1.702238082885742188e+01 -6.241225242614746094e+00 1.608067452907562256e-01 1.742889434099197388e-01 1.005287095904350281e-01 -4.973367601633071899e-02
7.756000000000000000e+03 3.848452091217041016e+00 3.770658493041992188e+00 -2.215423062443733215e-02 -8.679691702127456665e-02 -3.268534317612648010e-02 1.223850473761558533e-01
7.757000000000000000e+03 1.745150566101074219e+01 8.908587455749511719e+00 1.705719679594039917e-01 2.447111457586288452e-01 1.245849356055259705e-01 1.939874589443206787e-01
7.758000000000000000e+03 5.259360885620117188e+01 3.254613494873046875e+01 2.633603334426879883e+00 2.964192867279052734e+00 1.679338812828063965e+00 2.994017362594604492e+00
7.759000000000000000e+03 5.278330993652343750e+01 3.212681961059570312e+01 2.751228809356689453e+00 3.802236557006835938e+00 1.966039657592773438e+00 3.521082401275634766e+00
7.760000000000000000e+03 5.295540237426757812e+01 3.272352218627929688e+01 2.927333593368530273e+00 3.099823951721191406e+00 1.808147192001342773e+00 3.464375972747802734e+00
7.761000000000000000e+03 5.342129135131835938e+01 3.321975326538085938e+01 3.247538805007934570e+00 3.246686220169067383e+00 1.948267459869384766e+00 3.921594381332397461e+00
7.762000000000000000e+03 5.910108566284179688e+01 3.535867691040039062e+01 5.931897163391113281e+00 1.310833549499511719e+01 5.712069988250732422e+00 1.180778980255126953e+00
7.763000000000000000e+03 5.338819503784179688e+01 3.297108078002929688e+01 3.338692426681518555e+00 3.732483625411987305e+00 2.121352672576904297e+00 4.093993663787841797e+00
7.764000000000000000e+03 3.308826065063476562e+01 7.568289756774902344e+00 -2.041895240545272827e-01 3.413798287510871887e-02 -5.101545900106430054e-02 -7.435403019189834595e-02
7.765000000000000000e+03 3.357627868652343750e+01 7.460223197937011719e+00 -1.915533095598220825e-01 1.046366989612579346e-01 -2.607498317956924438e-02 -5.013987421989440918e-02
7.766000000000000000e+03 4.279544067382812500e+01 3.476252365112304688e+01 7.643859088420867920e-02 4.876216500997543335e-02 3.756022825837135315e-02 6.572989374399185181e-02
7.767000000000000000e+03 4.255414199829101562e+01 3.447201156616210938e+01 7.798442244529724121e-02 7.682594656944274902e-02 4.644310846924781799e-02 6.231916323304176331e-02
7.768000000000000000e+03 3.248091125488281250e+01 2.488279342651367188e+01 6.989148259162902832e-02 1.013748720288276672e-01 5.137990415096282959e-02 8.460561931133270264e-02
7.769000000000000000e+03 2.822550392150878906e+01 3.164631605148315430e+00 -2.677913606166839600e-01 -1.752791404724121094e-01 -1.329211443662643433e-01 -1.925015449523925781e-01
7.770000000000000000e+03 5.862995910644531250e+01 3.384663772583007812e+01 5.297695159912109375e+00 1.374794006347656250e+01 5.713690757751464844e+00 -8.210986256599426270e-01
7.771000000000000000e+03 2.694905090332031250e+01 2.139270782470703125e+00 -3.107984960079193115e-01 -1.936839520931243896e-01 -1.513447314500808716e-01 -1.804854720830917358e-01
7.772000000000000000e+03 2.723922538757324219e+01 2.104188680648803711e+00 -2.734689116477966309e-01 -1.825924366712570190e-01 -1.368183940649032593e-01 -1.596102267503738403e-01
7.773000000000000000e+03 5.636515045166015625e+01 3.173787879943847656e+01 6.052175164222717285e-01 1.414369773864746094e+01 4.424674510955810547e+00 2.349960327148437500e+00
7.774000000000000000e+03 4.174700546264648438e+01 3.474085998535156250e+01 8.466775715351104736e-02 6.952212750911712646e-02 4.625696688890457153e-02 7.222928851842880249e-02
7.775000000000000000e+03 1.017802619934082031e+01 3.709895133972167969e+00 3.324534893035888672e-01 -1.922466009855270386e-01 4.206207022070884705e-02 6.712985038757324219e-02
7.776000000000000000e+03 7.376959800720214844e+00 -2.539801979064941406e+01 1.969768479466438293e-02 -3.189025521278381348e-01 -8.976146578788757324e-02 -5.736923590302467346e-02
7.777000000000000000e+03 3.637538528442382812e+01 3.307724761962890625e+01 6.379208713769912720e-02 7.802702486515045166e-02 4.254573583602905273e-02 6.889179348945617676e-02
7.778000000000000000e+03 2.889566230773925781e+01 3.738441705703735352e+00 -2.564038634300231934e-01 -1.444250196218490601e-01 -1.202486604452133179e-01 -1.940793246030807495e-01
7.779000000000000000e+03 5.439983749389648438e+01 3.278574371337890625e+01 3.066951751708984375e+00 8.151965141296386719e+00 3.365675210952758789e+00 5.806427955627441406e+00
7.780000000000000000e+03 2.887094306945800781e+01 3.949080705642700195e+00 -2.637010216712951660e-01 -1.341703534126281738e-01 -1.193614155054092407e-01 -1.942736357450485229e-01
7.781000000000000000e+03 5.315906143188476562e+01 3.268243789672851562e+01 3.111873626708984375e+00 3.777615547180175781e+00 2.066846847534179688e+00 3.991674900054931641e+00
7.782000000000000000e+03 5.894672775268554688e+01 3.472838211059570312e+01 6.177016258239746094e+00 1.316970443725585938e+01 5.804016113281250000e+00 2.548586428165435791e-01
7.783000000000000000e+03 5.338774108886718750e+01 3.272121810913085938e+01 3.106207609176635742e+00 4.244032859802246094e+00 2.205072164535522461e+00 4.166088104248046875e+00
7.784000000000000000e+03 5.341760635375976562e+01 3.244495010375976562e+01 3.023415803909301758e+00 4.603109836578369141e+00 2.287957668304443359e+00 4.289842128753662109e+00
7.785000000000000000e+03 5.313580322265625000e+01 3.240576934814453125e+01 2.932834625244140625e+00 4.074571132659912109e+00 2.102221727371215820e+00 3.944787979125976562e+00
7.786000000000000000e+03 7.024471282958984375e+00 -7.592383384704589844e+00 -1.516494061797857285e-02 -1.598800718784332275e-01 -5.251350253820419312e-02 -2.302197515964508057e-01
7.787000000000000000e+03 8.582127571105957031e+00 -2.711376762390136719e+01 1.814048178493976593e-02 -2.800015211105346680e-01 -7.855831086635589600e-02 -5.586902797222137451e-02
7.788000000000000000e+03 5.473046875000000000e+01 3.199863624572753906e+01 1.868892431259155273e+00 9.950068473815917969e+00 3.545688152313232422e+00 5.037356853485107422e+00
7.789000000000000000e+03 1.202735328674316406e+01 -6.940728187561035156e+00 3.741855174303054810e-02 -1.825796067714691162e-01 -4.354831576347351074e-02 -3.036234080791473389e-01
7.790000000000000000e+03 2.647064399719238281e+01 1.382753252983093262e+00 -3.213519155979156494e-01 -1.776579916477203369e-01 -1.497029662132263184e-01 -1.413835138082504272e-01
7.791000000000000000e+03 5.666085815429687500e+01 3.136554336547851562e+01 4.756687879562377930e-01 1.371609973907470703e+01 4.257530689239501953e+00 1.810019493103027344e+00
7.792000000000000000e+03 2.829818344116210938e+01 1.977933406829833984e+00 -2.325494289398193359e-01 -1.284722983837127686e-01 -1.083065196871757507e-01 -1.256000548601150513e-01
7.793000000000000000e+03 2.811316490173339844e+01 2.028494834899902344e+01 8.852519094944000244e-02 1.165374740958213806e-01 6.151879951357841492e-02 1.047775745391845703e-01
7.794000000000000000e+03 1.912137794494628906e+01 1.096587562561035156e+01 1.411775201559066772e-01 1.995609402656555176e-01 1.022215411067008972e-01 1.718058288097381592e-01
7.795000000000000000e+03 1.858893394470214844e+01 1.135999774932861328e+01 1.251514852046966553e-01 2.057085335254669189e-01 9.925800561904907227e-02 1.605939418077468872e-01
7.796000000000000000e+03 5.384140777587890625e+01 3.194068527221679688e+01 2.538825035095214844e+00 6.672738552093505859e+00 2.763468980789184570e+00 4.763172149658203125e+00
7.797000000000000000e+03 2.934478759765625000e+01 3.258014202117919922e+00 -2.108265906572341919e-01 -8.358047902584075928e-02 -8.832211792469024658e-02 -1.593340486288070679e-01
7.798000000000000000e+03 6.220855331420898438e+01 3.119731521606445312e+01 1.584982991218566895e+00 1.056996250152587891e+01 3.646483898162841797e+00 -1.351088643074035645e+00
7.799000000000000000e+03 9.253238677978515625e+00 3.884441375732421875e+00 2.275691181421279907e-01 -2.281557470560073853e-01 -1.759915321599692106e-04 1.495473682880401611e-01
7.800000000000000000e+03 8.685758590698242188e+00 2.835916900634765625e+01 -6.549142301082611084e-03 -3.911949694156646729e-02 -1.370059140026569366e-02 -1.139316055923700333e-02
7.801000000000000000e+03 2.908484649658203125e+01 3.696448087692260742e+00 -2.379637956619262695e-01 -1.201462224125862122e-01 -1.074330061674118042e-01 -1.856968998908996582e-01
7.802000000000000000e+03 5.906630325317382812e+01 3.444987869262695312e+01 5.850974559783935547e+00 1.304831409454345703e+01 5.669786453247070312e+00 -1.090251952409744263e-01
7.803000000000000000e+03 3.252195358276367188e+01 9.739605903625488281e+00 -5.357828140258789062e-01 -1.428420841693878174e-01 -2.035874724388122559e-01 -2.382360994815826416e-01
7.804000000000000000e+03 4.122983551025390625e+01 2.010674476623535156e+01 4.775762557983398438e-03 5.280509591102600098e-01 1.598480194807052612e-01 2.444979399442672729e-01
7.805000000000000000e+03 3.270277404785156250e+01 4.410175323486328125e+00 -8.610814064741134644e-02 1.855710744857788086e-01 2.983888052403926849e-02 -1.041577905416488647e-01
7.806000000000000000e+03 3.574638366699218750e+01 3.138188362121582031e+01 7.329293340444564819e-02 9.098555147647857666e-02 4.928354173898696899e-02 6.179846078157424927e-02
7.807000000000000000e+03 7.335993194580078125e+01 2.582490921020507812e+01 6.817353889346122742e-03 7.062646389007568359e+00 2.120839118957519531e+00 -1.311436176300048828e+00
7.808000000000000000e+03 2.698341560363769531e+01 1.152628540992736816e+00 -2.892045974731445312e-01 -1.659098863601684570e-01 -1.365343481302261353e-01 -1.046612113714218140e-01
7.809000000000000000e+03 3.403396987915039062e+01 3.131017684936523438e+01 6.226473674178123474e-02 9.394210577011108398e-02 4.686205089092254639e-02 6.809024512767791748e-02
7.810000000000000000e+03 1.061887168884277344e+01 -2.430087852478027344e+01 4.034655913710594177e-02 -1.659640520811080933e-01 -3.768524900078773499e-02 -9.563515335321426392e-02
7.811000000000000000e+03 1.013233566284179688e+01 -7.613498687744140625e+00 1.330487988889217377e-02 -1.686297059059143066e-01 -4.659744724631309509e-02 -2.846496999263763428e-01
7.812000000000000000e+03 2.441911888122558594e+01 1.672021293640136719e+01 1.080481261014938354e-01 1.405449807643890381e-01 7.457793503999710083e-02 1.246671304106712341e-01
7.813000000000000000e+03 5.646292877197265625e+01 3.113740158081054688e+01 3.782490491867065430e-01 1.320019435882568359e+01 4.073533058166503906e+00 2.114752292633056641e+00
7.814000000000000000e+03 5.877418518066406250e+01 3.223239898681640625e+01 2.373606204986572266e+00 1.345228767395019531e+01 4.747767925262451172e+00 -1.029941678047180176e+00
7.815000000000000000e+03 5.377138137817382812e+01 3.042266845703125000e+01 1.514047861099243164e+00 7.060573577880859375e+00 2.572386503219604492e+00 3.830221891403198242e+00
7.816000000000000000e+03 1.095027637481689453e+01 5.523025512695312500e+00 2.618808448314666748e-01 1.280082762241363525e-01 1.169667318463325500e-01 -1.032043024897575378e-01
7.817000000000000000e+03 9.624377250671386719e+00 4.757595062255859375e+00 2.749413847923278809e-01 -1.343277394771575928e-01 4.218409210443496704e-02 3.508445993065834045e-02
7.818000000000000000e+03 1.399636840820312500e+01 8.362898826599121094e+00 8.607652783393859863e-02 3.469054102897644043e-01 1.298945844173431396e-01 1.033871844410896301e-01
7.819000000000000000e+03 2.710432434082031250e+01 4.804860055446624756e-01 -2.904611527919769287e-01 -1.490360200405120850e-01 -1.318491548299789429e-01 -7.618204504251480103e-02
7.820000000000000000e+03 2.722809982299804688e+01 8.906367421150207520e-01 -2.788643240928649902e-01 -1.537363082170486450e-01 -1.297801882028579712e-01 -1.068738624453544617e-01
7.821000000000000000e+03 6.123736953735351562e+01 3.038106536865234375e+01 1.055701971054077148e+00 1.103713035583496094e+01 3.627849817276000977e+00 -1.257365703582763672e+00
7.822000000000000000e+03 3.415055465698242188e+01 6.654808044433593750e+00 -1.422249227762222290e-01 2.546917200088500977e-01 3.374004364013671875e-02 -1.517653837800025940e-02
7.823000000000000000e+03 1.561515235900878906e+01 9.094735145568847656e+00 1.126519143581390381e-01 2.939837872982025146e-01 1.219907104969024658e-01 1.614468246698379517e-01
7.824000000000000000e+03 3.344523239135742188e+01 -3.305583715438842773e+00 -2.998020313680171967e-02 4.122248888015747070e-01 1.146734058856964111e-01 1.130002737045288086e-02
7.825000000000000000e+03 1.102344036102294922e+01 6.016524314880371094e+00 2.223553955554962158e-01 1.705966889858245850e-01 1.178856268525123596e-01 -9.548435360193252563e-02
7.826000000000000000e+03 9.702183723449707031e+00 5.589887619018554688e+00 2.501105964183807373e-01 -5.882559344172477722e-02 5.738550052046775818e-02 -1.374631281942129135e-02
7.827000000000000000e+03 5.906381225585937500e+01 3.172265243530273438e+01 1.849505066871643066e+00 1.297565746307373047e+01 4.447548866271972656e+00 -9.977461099624633789e-01
7.828000000000000000e+03 6.091369628906250000e+00 2.711985397338867188e+01 -5.783925764262676239e-03 -8.223652094602584839e-02 -2.640613541007041931e-02 -1.424240600317716599e-02
7.829000000000000000e+03 6.666432189941406250e+01 -2.505185508728027344e+01 -1.275987597182393074e-04 7.180428504943847656e+00 2.154090404510498047e+00 3.520397841930389404e-01
7.830000000000000000e+03 2.953509521484375000e+01 2.511165618896484375e+00 -1.872313469648361206e-01 -5.287735536694526672e-02 -7.203261554241180420e-02 -1.270002722740173340e-01
7.831000000000000000e+03 5.424402618408203125e+01 2.976264762878417969e+01 9.058685302734375000e-01 8.044996261596679688e+00 2.685259580612182617e+00 3.449781656265258789e+00
7.832000000000000000e+03 2.288976097106933594e+01 1.672918128967285156e+01 9.360259026288986206e-02 1.495351791381835938e-01 7.294133305549621582e-02 1.198290362954139709e-01
7.833000000000000000e+03 1.250864791870117188e+01 -8.986700057983398438e+00 1.230735406279563904e-01 -1.412487626075744629e-01 -5.452564917504787445e-03 -2.365919798612594604e-01
7.834000000000000000e+03 1.366439628601074219e+01 7.963303565979003906e+00 8.447907865047454834e-02 3.641104400157928467e-01 1.345768570899963379e-01 8.488597720861434937e-02
7.835000000000000000e+03 5.765768051147460938e+01 3.068591308593750000e+01 3.422491550445556641e-01 1.302111148834228516e+01 4.009008407592773438e+00 5.692442655563354492e-01
7.836000000000000000e+03 5.657560729980468750e+01 3.081257247924804688e+01 2.303500324487686157e-01 1.280540847778320312e+01 3.910727739334106445e+00 1.943708181381225586e+00
7.837000000000000000e+03 1.154139995574951172e+01 -2.306857299804687500e+01 6.093753874301910400e-02 -1.265112012624740601e-01 -1.967210136353969574e-02 -9.466658532619476318e-02
7.838000000000000000e+03 7.167404937744140625e+01 -1.918800544738769531e+01 -4.718707501888275146e-02 7.967234134674072266e+00 2.376014232635498047e+00 2.565555572509765625e-01
7.839000000000000000e+03 5.589593887329101562e+01 3.063647270202636719e+01 3.235485851764678955e-01 1.169834899902343750e+01 3.606569051742553711e+00 2.850526094436645508e+00
7.840000000000000000e+03 5.920771789550781250e+01 3.198983192443847656e+01 2.232323884963989258e+00 1.292902183532714844e+01 4.548403739929199219e+00 -1.121758222579956055e+00
7.841000000000000000e+03 6.732660675048828125e+01 -2.380464935302734375e+01 -1.820436492562294006e-02 7.270868778228759766e+00 2.175799369812011719e+00 3.514544665813446045e-01
7.842000000000000000e+03 1.049257564544677734e+01 7.283991813659667969e+00 1.625478267669677734e-01 1.096114292740821838e-01 8.164777606725692749e-02 -5.247996747493743896e-02
7.843000000000000000e+03 5.010764122009277344e+00 5.044061183929443359e+00 3.350418433547019958e-02 -1.254260092973709106e-01 -2.757654897868633270e-02 1.354571729898452759e-01
7.844000000000000000e+03 4.005376052856445312e+01 1.931731796264648438e+01 -7.268332690000534058e-02 3.156610131263732910e-01 7.289329916238784790e-02 9.291451424360275269e-02
7.845000000000000000e+03 1.367729187011718750e+01 7.492494106292724609e+00 8.812675625085830688e-02 4.003676474094390869e-01 1.465483158826828003e-01 9.587746113538742065e-02
7.846000000000000000e+03 3.286617279052734375e+01 -3.146028518676757812e+00 -4.738576710224151611e-02 3.415516316890716553e-01 8.824975788593292236e-02 1.611437834799289703e-02
7.847000000000000000e+03 1.079146385192871094e+01 -1.725509262084960938e+01 7.916953414678573608e-02 -1.321328133344650269e-01 -1.588898524641990662e-02 -1.308961659669876099e-01
7.848000000000000000e+03 1.191684246063232422e+01 -1.578117752075195312e+01 1.007088646292686462e-01 -8.206851035356521606e-02 5.592106375843286514e-03 -1.410175412893295288e-01
7.849000000000000000e+03 2.980557823181152344e+01 2.609179019927978516e+00 -1.848964691162109375e-01 -3.469477221369743347e-02 -6.587737053632736206e-02 -1.319625526666641235e-01
7.850000000000000000e+03 7.621338367462158203e+00 2.489634704589843750e+01 -7.181309163570404053e-03 -5.281786993145942688e-02 -1.799975335597991943e-02 -1.454549189656972885e-02
7.851000000000000000e+03 6.987421417236328125e+01 -3.114002346992492676e-01 -2.140695601701736450e-01 7.853825569152832031e+00 2.291926860809326172e+00 -1.125654652714729309e-01
7.852000000000000000e+03 2.156191825866699219e+01 1.390282821655273438e+01 1.242200136184692383e-01 1.678126603364944458e-01 8.760979771614074707e-02 1.420275121927261353e-01
7.853000000000000000e+03 1.573776912689208984e+01 9.687138557434082031e+00 1.024033501744270325e-01 2.750148177146911621e-01 1.132254526019096375e-01 1.482787728309631348e-01
7.854000000000000000e+03 3.403924942016601562e+01 1.219717502593994141e+01 -4.776538610458374023e-01 -1.911928504705429077e-01 -2.006540149450302124e-01 -3.207091689109802246e-01
7.855000000000000000e+03 1.266912269592285156e+01 8.168474197387695312e+00 8.573071658611297607e-02 3.123266398906707764e-01 1.194172129034996033e-01 1.910972781479358673e-02
7.856000000000000000e+03 1.077763462066650391e+01 -8.788716316223144531e+00 7.134735584259033203e-02 -1.690253317356109619e-01 -2.930339053273200989e-02 -2.597825825214385986e-01
7.857000000000000000e+03 1.035124206542968750e+01 -8.270195007324218750e+00 5.038756877183914185e-02 -1.754679083824157715e-01 -3.752410039305686951e-02 -2.719008326530456543e-01
7.858000000000000000e+03 5.365534591674804688e+01 2.963401603698730469e+01 1.154789090156555176e+00 6.985297203063964844e+00 2.442025899887084961e+00 3.421669006347656250e+00
7.859000000000000000e+03 5.309302520751953125e+01 2.889279747009277344e+01 1.023803353309631348e+00 6.232553958892822266e+00 2.176907300949096680e+00 3.055430650711059570e+00
7.860000000000000000e+03 1.367661857604980469e+01 -1.359068489074707031e+01 1.472477167844772339e-01 -5.583620630204677582e-03 4.249922558665275574e-02 -1.445812135934829712e-01
7.861000000000000000e+03 2.385227584838867188e+01 1.735188102722167969e+01 9.493439644575119019e-02 1.425926089286804199e-01 7.125810533761978149e-02 1.170402839779853821e-01
7.862000000000000000e+03 3.677706527709960938e+01 -5.201417446136474609e+00 -7.038374990224838257e-02 1.044216513633728027e+00 2.921498417854309082e-01 -1.630290225148200989e-02
7.863000000000000000e+03 2.561466598510742188e+01 2.312567520141601562e+01 5.028839409351348877e-02 1.207903027534484863e-01 5.132360756397247314e-02 8.163867890834808350e-02
7.864000000000000000e+03 6.008251571655273438e+01 2.977386856079101562e+01 4.910424947738647461e-01 1.146903705596923828e+01 3.588023900985717773e+00 -8.406760096549987793e-01
7.865000000000000000e+03 7.134469604492187500e+01 -2.306256484985351562e+01 -8.406660519540309906e-03 7.835281848907470703e+00 2.348062515258789062e+00 2.903367578983306885e-01
7.866000000000000000e+03 1.541231918334960938e+01 9.500496864318847656e+00 9.794270992279052734e-02 2.817333340644836426e-01 1.139028072357177734e-01 1.426007300615310669e-01
7.867000000000000000e+03 5.636521530151367188e+01 3.011199569702148438e+01 4.756598547101020813e-02 1.165767288208007812e+01 3.511571645736694336e+00 2.137124538421630859e+00
7.868000000000000000e+03 1.571098899841308594e+01 -2.290741539001464844e+01 8.505798131227493286e-02 6.092731282114982605e-02 4.379558935761451721e-02 -1.280255764722824097e-01
7.869000000000000000e+03 4.077120971679687500e+01 -9.344219207763671875e+00 -1.600650846958160400e-01 1.916170477867126465e+00 5.268316268920898438e-01 -8.507895469665527344e-02
7.870000000000000000e+03 1.325726413726806641e+01 -1.685483551025390625e+01 9.703293442726135254e-02 -2.337820269167423248e-02 2.209641970694065094e-02 -1.328640729188919067e-01
7.871000000000000000e+03 1.423145866394042969e+01 -1.560055255889892578e+01 1.126263141632080078e-01 3.820583969354629517e-02 4.524964839220046997e-02 -1.403127014636993408e-01
7.872000000000000000e+03 3.390887832641601562e+01 -1.562479496002197266e+00 -3.375541046261787415e-02 5.042124390602111816e-01 1.411371082067489624e-01 -8.009818702703341842e-05
7.873000000000000000e+03 2.445747756958007812e+01 1.888362884521484375e+01 8.184050768613815308e-02 1.358968913555145264e-01 6.532122194766998291e-02 1.053997948765754700e-01
7.874000000000000000e+03 2.329521560668945312e+01 1.800603675842285156e+01 8.197946101427078247e-02 1.428046077489852905e-01 6.743521988391876221e-02 1.087503582239151001e-01
7.875000000000000000e+03 2.266552925109863281e+01 1.707695007324218750e+01 8.666735887527465820e-02 1.494955569505691528e-01 7.084887474775314331e-02 1.146673783659934998e-01
7.876000000000000000e+03 3.481584167480468750e+01 3.827557802200317383e+00 -7.032476365566253662e-02 5.002509951591491699e-01 1.289778798818588257e-01 1.356166554614901543e-03
7.877000000000000000e+03 1.243028259277343750e+01 -1.108975028991699219e+01 1.427913755178451538e-01 -1.050545498728752136e-01 1.132104918360710144e-02 -1.909785866737365723e-01
7.878000000000000000e+03 1.242477703094482422e+01 -1.211120796203613281e+01 1.345138102769851685e-01 -8.843886852264404297e-02 1.382248289883136749e-02 -1.730215102434158325e-01
7.879000000000000000e+03 1.770465087890625000e+01 2.260539627075195312e+01 1.192665193229913712e-02 1.038030087947845459e-01 3.471889719367027283e-02 4.314101114869117737e-02
7.880000000000000000e+03 2.568457412719726562e+01 2.175839233398437500e+01 6.129119545221328735e-02 1.252349466085433960e-01 5.595784261822700500e-02 9.037895500659942627e-02
7.881000000000000000e+03 5.688659667968750000e+01 2.974832344055175781e+01 -1.011794432997703552e-01 1.171002864837646484e+01 3.482654571533203125e+00 1.547617435455322266e+00
7.882000000000000000e+03 5.413547897338867188e+01 2.918593788146972656e+01 7.199329733848571777e-01 7.816245079040527344e+00 2.560853481292724609e+00 3.197531223297119141e+00
7.883000000000000000e+03 7.692709922790527344e+00 5.363112449645996094e+00 1.564656049013137817e-01 -1.471807062625885010e-01 2.785470336675643921e-03 1.016111895442008972e-01
7.884000000000000000e+03 5.595888900756835938e+01 2.964107513427734375e+01 3.020929917693138123e-02 1.076081466674804688e+01 3.237307310104370117e+00 2.394612073898315430e+00
7.885000000000000000e+03 5.376708221435546875e+01 2.931456375122070312e+01 9.514173865318298340e-01 7.192903518676757812e+00 2.443296432495117188e+00 3.277629137039184570e+00
7.886000000000000000e+03 5.526636123657226562e+01 2.965022468566894531e+01 3.380565047264099121e-01 9.751711845397949219e+00 3.026930570602416992e+00 2.968652725219726562e+00
7.887000000000000000e+03 5.526373291015625000e+01 2.890026855468750000e+01 1.230348944664001465e-01 9.339327812194824219e+00 2.838708877563476562e+00 2.645717859268188477e+00
7.888000000000000000e+03 6.643398284912109375e+01 -1.073810383677482605e-01 -3.290103673934936523e-01 7.324944019317626953e+00 2.098780155181884766e+00 -8.251582086086273193e-02
7.889000000000000000e+03 6.856755065917968750e+01 1.800436973571777344e+01 -5.639969110488891602e-01 8.044080734252929688e+00 2.244025230407714844e+00 -1.085279464721679688e+00
7.890000000000000000e+03 7.043146514892578125e+01 -6.642819881439208984e+00 -1.427379101514816284e-01 7.914614200592041016e+00 2.331562757492065430e+00 6.248306110501289368e-02
7.891000000000000000e+03 6.939936065673828125e+01 -5.611227512359619141e+00 -1.755109280347824097e-01 7.728076457977294922e+00 2.265769720077514648e+00 4.674215242266654968e-02
7.892000000000000000e+03 2.157328414916992188e+01 1.435720825195312500e+01 1.163190305233001709e-01 1.659370362758636475e-01 8.467681705951690674e-02 1.359872817993164062e-01
7.893000000000000000e+03 2.440985488891601562e+01 1.941476440429687500e+01 7.597573101520538330e-02 1.344726234674453735e-01 6.313450634479522705e-02 1.012906208634376526e-01
7.894000000000000000e+03 2.392514610290527344e+01 1.892499923706054688e+01 7.653181999921798706e-02 1.376982182264328003e-01 6.426901370286941528e-02 1.033877879381179810e-01
7.895000000000000000e+03 1.238263320922851562e+01 7.546781063079833984e+00 1.006494015455245972e-01 3.307586312294006348e-01 1.294224113225936890e-01 -8.713265880942344666e-03
7.896000000000000000e+03 5.664145660400390625e+01 2.966302108764648438e+01 -1.026596501469612122e-01 1.148449993133544922e+01 3.414552211761474609e+00 1.785975933074951172e+00
7.897000000000000000e+03 5.390681076049804688e+01 2.900367736816406250e+01 7.480825781822204590e-01 7.456334114074707031e+00 2.461324930191040039e+00 3.127807855606079102e+00
7.898000000000000000e+03 5.510600280761718750e+01 2.834193801879882812e+01 3.868303075432777405e-02 8.842319488525390625e+00 2.664300680160522461e+00 2.488269329071044922e+00
7.899000000000000000e+03 4.013660430908203125e+01 1.874243545532226562e+01 -8.521934598684310913e-02 4.196958839893341064e-01 1.003429591655731201e-01 1.278942078351974487e-01
7.900000000000000000e+03 4.011632156372070312e+01 1.819744300842285156e+01 -1.031800806522369385e-01 4.930887222290039062e-01 1.169725954532623291e-01 1.473432630300521851e-01
7.901000000000000000e+03 4.120569610595703125e+01 1.904940032958984375e+01 -3.676276654005050659e-02 6.853044033050537109e-01 1.945624947547912598e-01 2.732699811458587646e-01
7.902000000000000000e+03 3.768907165527343750e+01 8.225042343139648438e+00 -1.932675689458847046e-01 8.472480177879333496e-01 1.961941272020339966e-01 1.541483104228973389e-01
7.903000000000000000e+03 1.230511379241943359e+01 8.357336044311523438e+00 8.405711501836776733e-02 2.765006721019744873e-01 1.081673428416252136e-01 6.813010666519403458e-03
7.904000000000000000e+03 5.339013290405273438e+01 2.852500915527343750e+01 7.802013158798217773e-01 6.654246330261230469e+00 2.230334281921386719e+00 2.962592363357543945e+00
7.905000000000000000e+03 6.816481781005859375e+01 9.036068916320800781e+00 -4.731598794460296631e-01 7.746061325073242188e+00 2.181870460510253906e+00 -4.878181219100952148e-01
7.906000000000000000e+03 3.615565109252929688e+01 2.355203390121459961e+00 -6.063083931803703308e-02 7.934681773185729980e-01 2.198512107133865356e-01 5.583505704998970032e-02
7.907000000000000000e+03 2.112438774108886719e+01 1.442561149597167969e+01 1.100596860051155090e-01 1.673385500907897949e-01 8.321946859359741211e-02 1.329173147678375244e-01
7.908000000000000000e+03 6.810327148437500000e+01 1.863702011108398438e+01 -5.906201601028442383e-01 8.092453956604003906e+00 2.250550270080566406e+00 -1.112863898277282715e+00
7.909000000000000000e+03 7.543653964996337891e+00 1.933119201660156250e+01 1.647025346755981445e-04 -3.940511122345924377e-02 -1.177212223410606384e-02 -1.933457888662815094e-02
7.910000000000000000e+03 7.119528961181640625e+01 -1.674316978454589844e+01 -5.902780964970588684e-02 7.931624889373779297e+00 2.361778974533081055e+00 2.389528155326843262e-01
7.911000000000000000e+03 2.390783500671386719e+01 1.938823318481445312e+01 7.236059010028839111e-02 1.361012160778045654e-01 6.253854185342788696e-02 9.978061169385910034e-02
7.912000000000000000e+03 6.817060089111328125e+01 -1.569873428344726562e+01 -1.169341951608657837e-01 7.465648174285888672e+00 2.204614162445068359e+00 2.635835707187652588e-01
7.913000000000000000e+03 6.641309356689453125e+01 1.864840126037597656e+01 -7.314180731773376465e-01 8.181082725524902344e+00 2.234899282455444336e+00 -9.957930445671081543e-01
7.914000000000000000e+03 1.175321769714355469e+01 9.580177307128906250e+00 7.386520504951477051e-02 2.016914188861846924e-01 8.266698569059371948e-02 2.504100324586033821e-03
7.915000000000000000e+03 3.566474151611328125e+01 7.940283417701721191e-01 -4.404511675238609314e-02 7.593592405319213867e-01 2.145942449569702148e-01 2.903833985328674316e-02
7.916000000000000000e+03 2.377633666992187500e+01 2.128694915771484375e+01 5.431557074189186096e-02 1.288683563470840454e-01 5.495517700910568237e-02 8.556941896677017212e-02
7.917000000000000000e+03 5.484680938720703125e+01 2.783222579956054688e+01 1.811120845377445221e-02 8.360045433044433594e+00 2.513446807861328125e+00 2.430553913116455078e+00
7.918000000000000000e+03 5.599194335937500000e+01 2.888253402709960938e+01 -1.221876293420791626e-01 1.019946193695068359e+01 3.023182392120361328e+00 2.148162126541137695e+00
7.919000000000000000e+03 6.186565780639648438e+01 2.674088668823242188e+01 -3.392720818519592285e-01 9.962433815002441406e+00 2.886948585510253906e+00 -9.871714115142822266e-01
7.920000000000000000e+03 4.677982330322265625e+01 -9.276594161987304688e+00 -2.917200922966003418e-01 3.392948389053344727e+00 9.303684830665588379e-01 -1.449294271878898144e-03
7.921000000000000000e+03 4.527663803100585938e+01 -9.386690139770507812e+00 -2.609384953975677490e-01 3.032951354980468750e+00 8.316038250923156738e-01 -3.104412183165550232e-02
7.922000000000000000e+03 5.366734695434570312e+01 2.856603813171386719e+01 6.836402416229248047e-01 7.049994945526123047e+00 2.320090532302856445e+00 2.963431596755981445e+00
7.923000000000000000e+03 6.174072647094726562e+01 2.738136291503906250e+01 -1.970296502113342285e-01 1.013085269927978516e+01 2.980146884918212891e+00 -1.008798360824584961e+00
7.924000000000000000e+03 8.413038253784179688e+00 9.874462127685546875e+00 8.837974071502685547e-02 -2.581225475296378136e-03 2.573955431580543518e-02 -7.879178039729595184e-03
7.925000000000000000e+03 6.134743118286132812e+01 2.685180854797363281e+01 -3.950962722301483154e-01 1.007256031036376953e+01 2.903239011764526367e+00 -8.080896735191345215e-01
7.926000000000000000e+03 2.360039329528808594e+01 1.950070762634277344e+01 6.684435904026031494e-02 1.354140937328338623e-01 6.067753583192825317e-02 9.871643781661987305e-02
7.927000000000000000e+03 2.107106781005859375e+01 1.848914146423339844e+01 5.989321321249008179e-02 1.447791159152984619e-01 6.140169873833656311e-02 9.356965124607086182e-02
7.928000000000000000e+03 4.064027023315429688e+01 1.819339370727539062e+01 -8.451059460639953613e-02 6.407991647720336914e-01 1.668865680694580078e-01 2.179951518774032593e-01
7.929000000000000000e+03 4.127951049804687500e+01 1.858297538757324219e+01 -5.504437163472175598e-02 7.809063196182250977e-01 2.177585810422897339e-01 2.983610332012176514e-01
7.930000000000000000e+03 5.407430648803710938e+01 2.788211250305175781e+01 3.158770799636840820e-01 7.447717189788818359e+00 2.329078197479248047e+00 2.661981821060180664e+00
7.931000000000000000e+03 1.298320865631103516e+01 1.289210414886474609e+01 3.978070989251136780e-02 1.637040078639984131e-01 6.104541569948196411e-02 3.936341777443885803e-02
7.932000000000000000e+03 5.769386672973632812e+01 2.789875984191894531e+01 -5.055588483810424805e-01 1.056268596649169922e+01 3.017138004302978516e+00 8.178954124450683594e-01
7.933000000000000000e+03 5.793342208862304688e+01 2.759355926513671875e+01 -5.622088909149169922e-01 1.044872188568115234e+01 2.965953826904296875e+00 6.669177412986755371e-01
7.934000000000000000e+03 6.156521606445312500e+01 2.606175041198730469e+01 -5.310932993888854980e-01 9.808238029479980469e+00 2.783143520355224609e+00 -8.089272975921630859e-01
7.935000000000000000e+03 6.116460418701171875e+01 2.551807022094726562e+01 -6.675204038619995117e-01 9.685948371887207031e+00 2.705528497695922852e+00 -6.313126087188720703e-01
7.936000000000000000e+03 4.814243316650390625e+01 -1.214948368072509766e+01 -3.207518458366394043e-01 3.757119178771972656e+00 1.030910253524780273e+00 -1.534145139157772064e-02
7.937000000000000000e+03 2.038831520080566406e+01 1.583471488952636719e+01 8.020147681236267090e-02 1.630869060754776001e-01 7.298651337623596191e-02 1.136781871318817139e-01
7.938000000000000000e+03 6.229691314697265625e+01 2.103102302551269531e+01 -9.424582719802856445e-01 8.565260887145996094e+00 2.286840677261352539e+00 -6.033500432968139648e-01
7.939000000000000000e+03 1.766015243530273438e+01 1.948632431030273438e+01 2.390729449689388275e-02 1.281825155019760132e-01 4.562694579362869263e-02 6.131813302636146545e-02
7.940000000000000000e+03 6.546408081054687500e+01 -4.471383094787597656e+00 -2.806492745876312256e-01 7.109980106353759766e+00 2.048799276351928711e+00 4.518317803740501404e-02
7.941000000000000000e+03 1.033251571655273438e+01 1.524119091033935547e+01 1.831291243433952332e-02 6.353185325860977173e-02 2.455342933535575867e-02 -1.425695227226242423e-04
7.942000000000000000e+03 4.046826171875000000e+01 -3.495200395584106445e+00 -1.171923279762268066e-01 1.827389240264892578e+00 5.130590796470642090e-01 4.825005680322647095e-02
7.943000000000000000e+03 1.747664451599121094e+01 1.406839752197265625e+01 6.817856431007385254e-02 1.848223954439163208e-01 7.590028643608093262e-02 1.086785793304443359e-01
7.944000000000000000e+03 5.575667953491210938e+01 2.870483398437500000e+01 -9.734168648719787598e-02 9.830849647521972656e+00 2.920052528381347656e+00 2.284476757049560547e+00
7.945000000000000000e+03 5.617998886108398438e+01 2.822005653381347656e+01 -2.996628284454345703e-01 9.882035255432128906e+00 2.874711751937866211e+00 1.884413480758666992e+00
7.946000000000000000e+03 6.039315795898437500e+01 2.549506759643554688e+01 -7.344849705696105957e-01 9.714437484741210938e+00 2.693985700607299805e+00 -3.895582258701324463e-01
7.947000000000000000e+03 6.587641906738281250e+01 6.462516307830810547e+00 -5.116232037544250488e-01 7.400799751281738281e+00 2.066752910614013672e+00 -2.927560508251190186e-01
7.948000000000000000e+03 3.657933425903320312e+01 2.606583356857299805e+00 -6.074372678995132446e-02 8.787282109260559082e-01 2.453953474760055542e-01 6.928557902574539185e-02
7.949000000000000000e+03 3.635773086547851562e+01 1.246724224090576172e+01 -3.391893506050109863e-01 2.436927258968353271e-01 -2.864898554980754852e-02 -7.864731550216674805e-02
7.950000000000000000e+03 2.051617622375488281e+01 1.621354293823242188e+01 7.773490995168685913e-02 1.601201295852661133e-01 7.135651260614395142e-02 1.105398833751678467e-01
7.951000000000000000e+03 3.660826492309570312e+01 1.252390193939208984e+01 -3.201117515563964844e-01 2.978484630584716797e-01 -6.678984966129064560e-03 -4.930417239665985107e-02
7.952000000000000000e+03 5.892412948608398438e+01 2.888946342468261719e+01 -1.573776006698608398e-01 1.138287830352783203e+01 3.367650270462036133e+00 -8.971311151981353760e-02
7.953000000000000000e+03 6.981542205810546875e+01 -1.264469909667968750e+01 -1.110940799117088318e-01 7.756950855255126953e+00 2.293756961822509766e+00 1.923661679029464722e-01
7.954000000000000000e+03 8.574851989746093750e+00 1.687108230590820312e+01 9.318454191088676453e-03 3.107636584900319576e-04 2.888765186071395874e-03 -1.425920426845550537e-02
7.955000000000000000e+03 1.953817176818847656e+01 1.542535209655761719e+01 7.768329977989196777e-02 1.672287285327911377e-01 7.347360998392105103e-02 1.115175411105155945e-01
7.956000000000000000e+03 5.438486480712890625e+01 2.807415962219238281e+01 2.528341114521026611e-01 7.873090267181396484e+00 2.437777280807495117e+00 2.656512737274169922e+00
7.957000000000000000e+03 6.243780517578125000e+01 2.002368545532226562e+01 -9.644139409065246582e-01 8.363463401794433594e+00 2.219714879989624023e+00 -5.585011839866638184e-01
7.958000000000000000e+03 2.145566558837890625e+01 1.853866195678710938e+01 6.089148297905921936e-02 1.438738852739334106e-01 6.142961233854293823e-02 9.523396939039230347e-02
7.959000000000000000e+03 1.992192077636718750e+01 1.602639770507812500e+01 7.289296388626098633e-02 1.631873697042465210e-01 7.082410156726837158e-02 1.079787164926528931e-01
7.960000000000000000e+03 2.012441825866699219e+01 1.568277072906494141e+01 8.092495799064636230e-02 1.648413538932800293e-01 7.372989505529403687e-02 1.139207780361175537e-01
7.961000000000000000e+03 3.688114166259765625e+01 1.271311187744140625e+01 -3.072383701801300049e-01 3.348964154720306396e-01 8.297411724925041199e-03 -3.197026997804641724e-02
7.962000000000000000e+03 3.782146072387695312e+01 1.389287567138671875e+01 -2.727476954460144043e-01 4.221041500568389893e-01 4.480693861842155457e-02 1.997955888509750366e-02
7.963000000000000000e+03 3.792918014526367188e+01 1.421303939819335938e+01 -2.646718323230743408e-01 4.101507365703582764e-01 4.364367201924324036e-02 1.607070490717887878e-02
7.964000000000000000e+03 4.113192367553710938e+01 1.766677284240722656e+01 -9.816499054431915283e-02 8.615464568138122559e-01 2.290144413709640503e-01 2.974794209003448486e-01
7.965000000000000000e+03 3.898931884765625000e+01 4.460932314395904541e-01 -8.957262337207794189e-02 1.427994728088378906e+00 4.015266299247741699e-01 1.081495732069015503e-01
7.966000000000000000e+03 3.741248703002929688e+01 1.270545673370361328e+01 -2.842517495155334473e-01 4.607748389244079590e-01 5.295692756772041321e-02 2.248168177902698517e-02
7.967000000000000000e+03 5.477869415283203125e+01 -8.710515022277832031e+00 -3.688635826110839844e-01 5.150990486145019531e+00 1.434638142585754395e+00 1.268164366483688354e-01
7.968000000000000000e+03 1.879249954223632812e+01 1.661421585083007812e+01 5.763762444257736206e-02 1.579702645540237427e-01 6.468236446380615234e-02 9.343606978654861450e-02
7.969000000000000000e+03 1.369439601898193359e+01 1.434493637084960938e+01 3.221593797206878662e-02 1.536470353603363037e-01 5.575889348983764648e-02 4.572246968746185303e-02
7.970000000000000000e+03 6.421164703369140625e+01 -5.480291366577148438e+00 -3.095957040786743164e-01 6.865925788879394531e+00 1.966899037361145020e+00 9.148705005645751953e-02
7.971000000000000000e+03 6.482911682128906250e+01 -4.994419097900390625e+00 -2.973596751689910889e-01 6.989163875579833984e+00 2.007541179656982422e+00 6.702159345149993896e-02
7.972000000000000000e+03 5.440305328369140625e+01 -7.281072616577148438e+00 -3.882723152637481689e-01 5.044384956359863281e+00 1.396833777427673340e+00 1.272710859775543213e-01
7.973000000000000000e+03 5.383385467529296875e+01 -6.675908088684082031e+00 -3.825721442699432373e-01 4.926462650299072266e+00 1.363167047500610352e+00 1.242497190833091736e-01
7.974000000000000000e+03 6.493471527099609375e+01 -5.758098125457763672e+00 -2.862807214260101318e-01 6.983593463897705078e+00 2.009193897247314453e+00 8.589052408933639526e-02
7.975000000000000000e+03 6.148811721801757812e+01 1.541848850250244141e+01 -9.419655799865722656e-01 7.543786525726318359e+00 1.980546355247497559e+00 -2.551705539226531982e-01
7.976000000000000000e+03 4.087130355834960938e+01 1.687450408935546875e+01 -1.250040978193283081e-01 8.878068923950195312e-01 2.288408428430557251e-01 2.852154970169067383e-01
7.977000000000000000e+03 3.763628005981445312e+01 1.337450790405273438e+01 -2.763765156269073486e-01 4.388771057128906250e-01 4.875017330050468445e-02 1.637497358024120331e-02
7.978000000000000000e+03 6.108623123168945312e+01 2.080346107482910156e+01 -1.011306524276733398e+00 8.465087890625000000e+00 2.236134529113769531e+00 -3.350028097629547119e-01
7.979000000000000000e+03 6.198096084594726562e+01 1.473355102539062500e+01 -9.086124897003173828e-01 7.515125274658203125e+00 1.981953740119934082e+00 -2.972635030746459961e-01
7.980000000000000000e+03 1.440368270874023438e+01 1.577545928955078125e+01 2.609376236796379089e-02 1.403155326843261719e-01 4.992279037833213806e-02 4.728066921234130859e-02
7.981000000000000000e+03 3.801375961303710938e+01 1.330379486083984375e+01 -2.644625902175903320e-01 5.396000742912292480e-01 8.254124969244003296e-02 6.160876899957656860e-02
7.982000000000000000e+03 5.680231857299804688e+01 2.688370895385742188e+01 -5.806998610496520996e-01 9.529580116271972656e+00 2.684664249420166016e+00 1.270643234252929688e+00
7.983000000000000000e+03 3.817116928100585938e+01 1.366879940032958984e+01 -2.667137384414672852e-01 5.157433748245239258e-01 7.470890134572982788e-02 5.704600363969802856e-02
7.984000000000000000e+03 1.258509922027587891e+01 1.486473083496093750e+01 2.439224906265735626e-02 1.217343509197235107e-01 4.383797943592071533e-02 2.581850439310073853e-02
7.985000000000000000e+03 4.673385238647460938e+01 -3.318790674209594727e+00 -2.811851501464843750e-01 3.288657426834106445e+00 9.022416472434997559e-01 1.272218972444534302e-01
7.986000000000000000e+03 4.742663574218750000e+01 2.402264022827148438e+01 4.412895739078521729e-01 2.372142791748046875e+00 8.440297245979309082e-01 1.302802324295043945e+00
7.987000000000000000e+03 4.091070556640625000e+01 1.982203483581542969e+00 -1.374545097351074219e-01 1.817051291465759277e+00 5.038790106773376465e-01 1.839907765388488770e-01
7.988000000000000000e+03 1.410691165924072266e+01 1.521847057342529297e+01 2.726597338914871216e-02 1.449646204710006714e-01 5.166917666792869568e-02 4.736224934458732605e-02
7.989000000000000000e+03 4.044801712036132812e+01 7.212221145629882812e+00 -1.832098513841629028e-01 1.527116060256958008e+00 4.031718373298645020e-01 2.834866642951965332e-01
7.990000000000000000e+03 5.814924621582031250e+01 2.355315589904785156e+01 -9.433535337448120117e-01 8.691694259643554688e+00 2.324502229690551758e+00 4.417031109333038330e-01
7.991000000000000000e+03 6.141357803344726562e+01 2.909717559814453125e+00 -5.270994305610656738e-01 6.575472831726074219e+00 1.814512014389038086e+00 -2.524136751890182495e-02
7.992000000000000000e+03 6.302064514160156250e+01 5.580125331878662109e+00 -5.762209892272949219e-01 6.950771331787109375e+00 1.912365078926086426e+00 -1.474232524633407593e-01
7.993000000000000000e+03 1.371941471099853516e+01 1.601406860351562500e+01 2.154120057821273804e-02 1.271240711212158203e-01 4.459958523511886597e-02 3.671067953109741211e-02
7.994000000000000000e+03 4.126054763793945312e+01 1.367858409881591797e+00 -1.417098641395568848e-01 1.912002801895141602e+00 5.310878753662109375e-01 1.763897538185119629e-01
7.995000000000000000e+03 4.297082138061523438e+01 2.004678487777709961e+00 -1.916793435811996460e-01 2.288643836975097656e+00 6.290893554687500000e-01 2.281430363655090332e-01
7.996000000000000000e+03 4.240265274047851562e+01 2.225868225097656250e+00 -1.816243827342987061e-01 2.172616720199584961e+00 5.972977280616760254e-01 2.180131375789642334e-01
7.997000000000000000e+03 3.870925521850585938e+01 1.431097316741943359e+01 -2.365482151508331299e-01 6.018332242965698242e-01 1.095854938030242920e-01 1.026564463973045349e-01
7.998000000000000000e+03 4.365270614624023438e+01 -2.394293397665023804e-01 -2.045432478189468384e-01 2.509374141693115234e+00 6.914492845535278320e-01 1.741366833448410034e-01
7.999000000000000000e+03 4.784653854370117188e+01 2.407824516296386719e+01 4.347587823867797852e-01 2.601824760437011719e+00 9.109750390052795410e-01 1.384423851966857910e+00
8.000000000000000000e+03 4.049211883544921875e+01 7.566936016082763672e+00 -1.940896362066268921e-01 1.520735740661621094e+00 3.979938328266143799e-01 2.830955684185028076e-01
8.001000000000000000e+03 5.971815109252929688e+01 2.001810646057128906e+01 -1.041183829307556152e+00 8.078372955322265625e+00 2.111156702041625977e+00 -1.250111684203147888e-02
8.002000000000000000e+03 5.911331558227539062e+01 2.006115913391113281e+01 -1.041471481323242188e+00 7.975172519683837891e+00 2.080110311508178711e+00 1.190506368875503540e-01
8.003000000000000000e+03 5.039549255371093750e+01 -3.979079961776733398e+00 -3.573460280895233154e-01 4.165786743164062500e+00 1.142532229423522949e+00 1.385380625724792480e-01
8.004000000000000000e+03 6.091296386718750000e+01 3.480073213577270508e+00 -5.553203225135803223e-01 6.490689277648925781e+00 1.780610680580139160e+00 -1.007487624883651733e-02
8.005000000000000000e+03 3.945820999145507812e+01 1.427827835083007812e+01 -2.182810306549072266e-01 7.960634827613830566e-01 1.733347326517105103e-01 1.834219098091125488e-01
8.006000000000000000e+03 5.731406402587890625e+01 -3.128772974014282227e+00 -4.321200251579284668e-01 5.648019790649414062e+00 1.564769864082336426e+00 1.273119896650314331e-01
8.007000000000000000e+03 5.659759140014648438e+01 -2.549894094467163086e+00 -4.387761056423187256e-01 5.495518207550048828e+00 1.517022609710693359e+00 1.391670554876327515e-01
8.008000000000000000e+03 4.902740097045898438e+01 2.518705177307128906e+01 5.655676126480102539e-01 3.115121603012084961e+00 1.104206800460815430e+00 1.671264648437500000e+00
8.009000000000000000e+03 5.692660522460937500e+01 2.522807312011718750e+01 -7.643584609031677246e-01 8.855161666870117188e+00 2.427241086959838867e+00 1.033217549324035645e+00
8.010000000000000000e+03 4.933839035034179688e+01 2.460253524780273438e+01 4.283161759376525879e-01 3.427922487258911133e+00 1.156871676445007324e+00 1.679613828659057617e+00
8.011000000000000000e+03 5.725484848022460938e+01 2.496707916259765625e+01 -8.132264018058776855e-01 8.899695396423339844e+00 2.425940752029418945e+00 8.764055371284484863e-01
8.012000000000000000e+03 4.068604660034179688e+01 7.897367954254150391e+00 -1.976960450410842896e-01 1.569525957107543945e+00 4.115490019321441650e-01 3.000262081623077393e-01
8.013000000000000000e+03 4.091284561157226562e+01 7.565052509307861328e+00 -1.945101916790008545e-01 1.634527206420898438e+00 4.320050776004791260e-01 3.126413226127624512e-01
8.014000000000000000e+03 4.081781768798828125e+01 7.163370132446289062e+00 -1.843029558658599854e-01 1.638468503952026367e+00 4.362496435642242432e-01 3.037820160388946533e-01
8.015000000000000000e+03 6.303465270996093750e+01 8.361047744750976562e+00 -6.728500723838806152e-01 7.106728076934814453e+00 1.930163383483886719e+00 -2.199388146400451660e-01
8.016000000000000000e+03 5.149247360229492188e+01 -5.524341106414794922e+00 -3.723401427268981934e-01 4.415246009826660156e+00 1.212871670722961426e+00 1.341417878866195679e-01
8.017000000000000000e+03 5.631081390380859375e+01 -1.691499590873718262e+00 -4.527489244937896729e-01 5.451674461364746094e+00 1.499677777290344238e+00 1.362761110067367554e-01
8.018000000000000000e+03 5.819282150268554688e+01 1.542877578735351562e+01 -9.501054883003234863e-01 6.952536582946777344e+00 1.800729274749755859e+00 1.884792745113372803e-01
8.019000000000000000e+03 4.129311370849609375e+01 1.354617595672607422e+01 -2.041188031435012817e-01 1.356847286224365234e+00 3.458185493946075439e-01 3.673190176486968994e-01
8.020000000000000000e+03 4.872237014770507812e+01 2.352419281005859375e+01 2.954454123973846436e-01 3.211168766021728516e+00 1.051984310150146484e+00 1.499413251876831055e+00
8.021000000000000000e+03 4.318944168090820312e+01 2.569635629653930664e+00 -2.066365480422973633e-01 2.339318752288818359e+00 6.398047208786010742e-01 2.572431266307830811e-01
8.022000000000000000e+03 5.841844940185546875e+01 2.148225212097167969e+01 -1.012274861335754395e+00 8.159043312072753906e+00 2.144030332565307617e+00 3.202685713768005371e-01
8.023000000000000000e+03 5.857507705688476562e+01 2.057023429870605469e+01 -1.030298829078674316e+00 7.962238311767578125e+00 2.079581737518310547e+00 2.491147071123123169e-01
8.024000000000000000e+03 5.894734191894531250e+01 1.949134635925292969e+01 -1.035163402557373047e+00 7.809461593627929688e+00 2.032289505004882812e+00 1.436157524585723877e-01
8.025000000000000000e+03 3.955267333984375000e+01 1.383102321624755859e+01 -2.228541523218154907e-01 8.660126924514770508e-01 1.929475665092468262e-01 2.010688930749893188e-01
8.026000000000000000e+03 4.879048538208007812e+01 2.501183891296386719e+01 5.496061444282531738e-01 2.996943235397338867e+00 1.063964843750000000e+00 1.616662621498107910e+00
8.027000000000000000e+03 4.858505249023437500e+01 2.446323394775390625e+01 4.663961827754974365e-01 2.930062532424926758e+00 1.018937706947326660e+00 1.539495944976806641e+00
8.028000000000000000e+03 4.408896255493164062e+01 2.613652229309082031e+00 -2.342185378074645996e-01 2.567648887634277344e+00 7.000290751457214355e-01 2.660547494888305664e-01
8.029000000000000000e+03 5.271643447875976562e+01 2.388950157165527344e+01 -1.857287138700485229e-01 5.839706420898437500e+00 1.696193337440490723e+00 1.770813465118408203e+00
8.030000000000000000e+03 4.887077331542968750e+01 2.442790794372558594e+01 4.299664497375488281e-01 3.177442789077758789e+00 1.082222700119018555e+00 1.591722130775451660e+00
8.031000000000000000e+03 4.110611343383789062e+01 1.607788276672363281e+01 -1.496909558773040771e-01 1.049652576446533203e+00 2.699884772300720215e-01 3.221257627010345459e-01
8.032000000000000000e+03 4.895016860961914062e+01 2.390455627441406250e+01 3.306695520877838135e-01 3.286237239837646484e+00 1.085072040557861328e+00 1.557659983634948730e+00
8.033000000000000000e+03 4.207481765747070312e+01 1.360377216339111328e+01 -2.090083509683609009e-01 1.588071942329406738e+00 4.137190878391265869e-01 4.332787096500396729e-01
8.034000000000000000e+03 4.869076919555664062e+01 2.414899635314941406e+01 3.901447951793670654e-01 3.083970308303833008e+00 1.042234539985656738e+00 1.536492586135864258e+00
8.035000000000000000e+03 5.724716949462890625e+01 1.656471824645996094e+01 -9.508005976676940918e-01 6.877665996551513672e+00 1.778059720993041992e+00 3.612119257450103760e-01
8.036000000000000000e+03 4.516093826293945312e+01 2.000325393676757812e+01 4.027791321277618408e-02 1.964446306228637695e+00 6.014172434806823730e-01 8.389676809310913086e-01
8.037000000000000000e+03 4.520567321777343750e+01 1.968218612670898438e+01 1.159091759473085403e-02 2.018632888793945312e+00 6.090670824050903320e-01 8.384040594100952148e-01
8.038000000000000000e+03 4.541969680786132812e+01 1.964387321472167969e+01 7.269652560353279114e-03 2.105781555175781250e+00 6.339153051376342773e-01 8.617529869079589844e-01
8.039000000000000000e+03 4.482357406616210938e+01 1.928870582580566406e+01 -2.435088390484452248e-03 1.919889211654663086e+00 5.752362608909606934e-01 7.809703946113586426e-01
8.040000000000000000e+03 5.262376022338867188e+01 2.267565155029296875e+01 -3.225336074829101562e-01 5.711893081665039062e+00 1.616807818412780762e+00 1.581495881080627441e+00
8.041000000000000000e+03 5.966287994384765625e+01 1.169705295562744141e+01 -8.468641042709350586e-01 6.801987648010253906e+00 1.786537051200866699e+00 -4.459213596419431269e-05
8.042000000000000000e+03 6.040400314331054688e+01 8.766201972961425781e+00 -7.347291111946105957e-01 6.699973106384277344e+00 1.789573192596435547e+00 -4.380584135651588440e-02
8.043000000000000000e+03 5.948545837402343750e+01 9.422050476074218750e+00 -7.649561166763305664e-01 6.577853679656982422e+00 1.743869304656982422e+00 2.244277298450469971e-02
8.044000000000000000e+03 5.808554077148437500e+01 2.004253578186035156e+01 -1.008936047554016113e+00 7.695328235626220703e+00 2.005917549133300781e+00 3.589648604393005371e-01
8.045000000000000000e+03 5.811059951782226562e+01 1.931444168090820312e+01 -1.013777732849121094e+00 7.561981201171875000e+00 1.964460968971252441e+00 3.145325779914855957e-01
8.046000000000000000e+03 5.770978927612304688e+01 1.895532608032226562e+01 -1.004524827003479004e+00 7.431485652923583984e+00 1.928088307380676270e+00 3.721142113208770752e-01
8.047000000000000000e+03 5.640749359130859375e+01 1.541236114501953125e+01 -8.980503678321838379e-01 6.481304645538330078e+00 1.674976229667663574e+00 4.341318905353546143e-01
8.048000000000000000e+03 5.772371292114257812e+01 5.366974830627441406e+00 -6.268550157546997070e-01 5.966507911682128906e+00 1.601895809173583984e+00 1.214759424328804016e-01
8.049000000000000000e+03 4.694557571411132812e+01 2.202729797363281250e+01 1.867170035839080811e-01 2.470370054244995117e+00 7.971261143684387207e-01 1.148494482040405273e+00
8.050000000000000000e+03 5.783683776855468750e+01 2.136859512329101562e+01 -9.912298917770385742e-01 7.964368820190429688e+00 2.091941595077514648e+00 4.604079127311706543e-01
8.051000000000000000e+03 4.560395431518554688e+01 1.993643951416015625e+01 2.626403979957103729e-02 2.153918504714965820e+00 6.540547609329223633e-01 8.935883045196533203e-01
8.052000000000000000e+03 4.605889511108398438e+01 1.965426826477050781e+01 -1.314195338636636734e-02 2.392500400543212891e+00 7.138075828552246094e-01 9.399268031120300293e-01
8.053000000000000000e+03 4.905553436279296875e+01 -1.260563582181930542e-01 -3.558747470378875732e-01 3.848438978195190430e+00 1.047769308090209961e+00 2.291693240404129028e-01
8.054000000000000000e+03 4.542123031616210938e+01 3.539213657379150391e+00 -2.794825732707977295e-01 2.881653308868408203e+00 7.806512713432312012e-01 3.176186382770538330e-01
8.055000000000000000e+03 4.508490753173828125e+01 1.826895141601562500e+01 -7.320067286491394043e-02 2.139476776123046875e+00 6.198828220367431641e-01 7.855277061462402344e-01
8.056000000000000000e+03 4.518402862548828125e+01 1.851226234436035156e+01 -6.326957046985626221e-02 2.154045581817626953e+00 6.272327899932861328e-01 8.042247891426086426e-01
8.057000000000000000e+03 4.429958724975585938e+01 1.047685241699218750e+01 -2.834948003292083740e-01 2.426701784133911133e+00 6.429620981216430664e-01 5.081212520599365234e-01
8.058000000000000000e+03 5.677694320678710938e+01 1.816238021850585938e+01 -9.484932422637939453e-01 6.965181827545166016e+00 1.805006623268127441e+00 5.079762339591979980e-01
8.059000000000000000e+03 5.886389541625976562e+01 8.537265777587890625e+00 -7.331964373588562012e-01 6.389175891876220703e+00 1.696793794631958008e+00 6.693860888481140137e-02
8.060000000000000000e+03 4.134352874755859375e+01 1.464397621154785156e+01 -1.822216510772705078e-01 1.276124835014343262e+00 3.281709551811218262e-01 3.718175292015075684e-01
8.061000000000000000e+03 4.539874649047851562e+01 1.830041313171386719e+01 -8.259652554988861084e-02 2.283277750015258789e+00 6.602043509483337402e-01 8.252249956130981445e-01
8.062000000000000000e+03 4.696317291259765625e+01 2.156756591796875000e+01 1.413159817457199097e-01 2.548184633255004883e+00 8.068501949310302734e-01 1.134220123291015625e+00
8.063000000000000000e+03 4.768912124633789062e+01 2.189240074157714844e+01 1.315465122461318970e-01 2.880427360534667969e+00 9.035921692848205566e-01 1.243238091468811035e+00
8.064000000000000000e+03 4.545397186279296875e+01 1.800487327575683594e+01 -1.011455729603767395e-01 2.328240871429443359e+00 6.681286096572875977e-01 8.221640586853027344e-01
8.065000000000000000e+03 4.506103897094726562e+01 8.173017501831054688e+00 -3.003059923648834229e-01 2.712029933929443359e+00 7.235171794891357422e-01 4.670132398605346680e-01
8.066000000000000000e+03 4.566601181030273438e+01 1.848263359069824219e+01 -8.436580002307891846e-02 2.353255033493041992e+00 6.806667447090148926e-01 8.584179282188415527e-01
8.067000000000000000e+03 4.688161087036132812e+01 2.114907073974609375e+01 9.556733071804046631e-02 2.563993692398071289e+00 7.978682518005371094e-01 1.103192567825317383e+00
8.068000000000000000e+03 5.893277740478515625e+01 7.849000930786132812e+00 -7.098996639251708984e-01 6.362022876739501953e+00 1.695636987686157227e+00 6.164558231830596924e-02
8.069000000000000000e+03 5.301403808593750000e+01 1.621451139450073242e+00 -4.707004427909851074e-01 4.799651622772216797e+00 1.298685312271118164e+00 2.307530194520950317e-01
8.070000000000000000e+03 5.207437515258789062e+01 1.653505682945251465e+00 -4.542534649372100830e-01 4.582701683044433594e+00 1.238534569740295410e+00 2.492015957832336426e-01
8.071000000000000000e+03 5.797126007080078125e+01 8.936033248901367188e+00 -7.429835200309753418e-01 6.239213943481445312e+00 1.648869156837463379e+00 1.252696216106414795e-01
8.072000000000000000e+03 4.653224182128906250e+01 1.920932006835937500e+01 -6.333722174167633057e-02 2.642425537109375000e+00 7.737264633178710938e-01 9.818858504295349121e-01
8.073000000000000000e+03 4.113079833984375000e+01 1.452263927459716797e+01 -1.868957281112670898e-01 1.228419303894042969e+00 3.124570846557617188e-01 3.448320329189300537e-01
8.074000000000000000e+03 4.123881149291992188e+01 1.500408649444580078e+01 -1.840797811746597290e-01 1.183327198028564453e+00 2.997742295265197754e-01 3.484379053115844727e-01
8.075000000000000000e+03 4.097429275512695312e+01 1.502989959716796875e+01 -1.833872646093368530e-01 1.125689983367919922e+00 2.826908230781555176e-01 3.244584500789642334e-01
8.076000000000000000e+03 4.268896484375000000e+01 1.304315471649169922e+01 -2.233805060386657715e-01 1.800163984298706055e+00 4.730350375175476074e-01 4.717882573604583740e-01
8.077000000000000000e+03 4.874876785278320312e+01 2.183813476562500000e+01 5.578796938061714172e-02 3.439712047576904297e+00 1.048650026321411133e+00 1.366309404373168945e+00
8.078000000000000000e+03 5.289182662963867188e+01 2.430057048797607422e+00 -4.781974852085113525e-01 4.788957595825195312e+00 1.293228030204772949e+00 2.462220191955566406e-01
8.079000000000000000e+03 4.294282531738281250e+01 1.336758041381835938e+01 -2.231236547231674194e-01 1.863492369651794434e+00 4.921106100082397461e-01 4.944227933883666992e-01
8.080000000000000000e+03 4.581315994262695312e+01 1.918647766113281250e+01 -3.310495242476463318e-02 2.335217475891113281e+00 6.906337738037109375e-01 8.956727385520935059e-01
8.081000000000000000e+03 4.571638107299804688e+01 8.258056640625000000e+00 -3.234844505786895752e-01 2.904685258865356445e+00 7.743602395057678223e-01 4.779396057128906250e-01
8.082000000000000000e+03 5.734259033203125000e+01 8.543272018432617188e+00 -7.270117402076721191e-01 6.056845664978027344e+00 1.598950147628784180e+00 1.705480962991714478e-01
8.083000000000000000e+03 5.825746536254882812e+01 7.807743072509765625e+00 -7.037908434867858887e-01 6.222187995910644531e+00 1.655519127845764160e+00 1.038695722818374634e-01
8.084000000000000000e+03 4.658120727539062500e+01 1.445412731170654297e+01 -3.027884066104888916e-01 2.973052978515625000e+00 8.010793328285217285e-01 7.551968693733215332e-01
8.085000000000000000e+03 5.402509689331054688e+01 1.601197814941406250e+01 -7.683042883872985840e-01 5.793505191802978516e+00 1.507560253143310547e+00 7.234666347503662109e-01
8.086000000000000000e+03 5.667899703979492188e+01 7.360239982604980469e+00 -6.782111525535583496e-01 5.841341018676757812e+00 1.548938870429992676e+00 2.025244832038879395e-01
8.087000000000000000e+03 4.510451889038085938e+01 8.761622428894042969e+00 -3.027712106704711914e-01 2.710134983062744141e+00 7.222091555595397949e-01 4.841987490653991699e-01
8.088000000000000000e+03 4.427791213989257812e+01 8.657391548156738281e+00 -2.792499959468841553e-01 2.498009920120239258e+00 6.656279563903808594e-01 4.600957036018371582e-01
8.089000000000000000e+03 5.534487533569335938e+01 2.156005477905273438e+01 -7.878736257553100586e-01 7.064417362213134766e+00 1.882963180541992188e+00 1.046303391456604004e+00
8.090000000000000000e+03 5.457621383666992188e+01 1.423572540283203125e+01 -7.806869149208068848e-01 5.801175117492675781e+00 1.506146430969238281e+00 5.533971786499023438e-01
8.091000000000000000e+03 5.499937057495117188e+01 1.407689094543457031e+01 -8.030544519424438477e-01 5.909937858581542969e+00 1.532064914703369141e+00 5.193569064140319824e-01
8.092000000000000000e+03 4.552484512329101562e+01 1.447161960601806641e+01 -2.580481171607971191e-01 2.620097875595092773e+00 7.086148858070373535e-01 7.009345293045043945e-01
8.093000000000000000e+03 5.329875564575195312e+01 1.433154201507568359e+01 -7.153688073158264160e-01 5.385096073150634766e+00 1.400918126106262207e+00 6.654136776924133301e-01
8.094000000000000000e+03 5.048142623901367188e+01 2.005145454406738281e+01 -2.955755889415740967e-01 4.438939094543457031e+00 1.243008971214294434e+00 1.285908341407775879e+00
8.095000000000000000e+03 5.323104476928710938e+01 1.776827239990234375e+01 -6.923791170120239258e-01 5.645980358123779297e+00 1.486080408096313477e+00 9.315415620803833008e-01
8.096000000000000000e+03 5.424317169189453125e+01 1.356487369537353516e+01 -7.582334876060485840e-01 5.636526107788085938e+00 1.463487744331359863e+00 5.521501302719116211e-01
8.097000000000000000e+03 5.466015625000000000e+01 1.380692195892333984e+01 -7.798486948013305664e-01 5.766907215118408203e+00 1.496117591857910156e+00 5.246006250381469727e-01
8.098000000000000000e+03 4.920503997802734375e+01 4.552457809448242188e+00 -4.196785688400268555e-01 3.874638795852661133e+00 1.036488056182861328e+00 3.625676631927490234e-01
8.099000000000000000e+03 4.788274383544921875e+01 2.005686759948730469e+01 -6.426735222339630127e-02 3.177328348159790039e+00 9.339182972908020020e-01 1.159612655639648438e+00
8.100000000000000000e+03 5.496881103515625000e+01 2.142689704895019531e+01 -7.385091185569763184e-01 6.796329021453857422e+00 1.817345976829528809e+00 1.108945369720458984e+00
8.101000000000000000e+03 5.529995346069335938e+01 2.113266563415527344e+01 -8.008365035057067871e-01 6.942823886871337891e+00 1.842596173286437988e+00 1.004101753234863281e+00
8.102000000000000000e+03 4.965416717529296875e+01 5.197895526885986328e+00 -4.402365088462829590e-01 4.018610000610351562e+00 1.073512077331542969e+00 3.679026067256927490e-01
8.103000000000000000e+03 5.240954971313476562e+01 1.153561115264892578e+01 -6.387382745742797852e-01 4.951025962829589844e+00 1.293686389923095703e+00 5.713586211204528809e-01
8.104000000000000000e+03 5.680434417724609375e+01 8.026105880737304688e+00 -7.024151682853698730e-01 5.904222011566162109e+00 1.560541987419128418e+00 1.997924000024795532e-01
8.105000000000000000e+03 4.796160125732421875e+01 1.920771026611328125e+01 -1.437017321586608887e-01 3.272536277770996094e+00 9.386503696441650391e-01 1.102814555168151855e+00
8.106000000000000000e+03 5.325779724121093750e+01 1.705425262451171875e+01 -6.985871195793151855e-01 5.543075084686279297e+00 1.453346490859985352e+00 8.784068822860717773e-01
8.107000000000000000e+03 5.069465255737304688e+01 6.113929748535156250e+00 -4.885062873363494873e-01 4.269226551055908203e+00 1.134216070175170898e+00 3.979896605014801025e-01
8.108000000000000000e+03 4.781206512451171875e+01 9.476177215576171875e+00 -4.088377654552459717e-01 3.509551286697387695e+00 9.302140474319458008e-01 5.461235642433166504e-01
8.109000000000000000e+03 5.147579193115234375e+01 1.177954578399658203e+01 -5.961222052574157715e-01 4.677114963531494141e+00 1.224297761917114258e+00 6.143209934234619141e-01
8.110000000000000000e+03 4.750550842285156250e+01 8.492117881774902344e+00 -3.956839144229888916e-01 3.417007207870483398e+00 9.063969850540161133e-01 5.090731382369995117e-01
8.111000000000000000e+03 5.201642990112304688e+01 1.856258392333984375e+01 -5.482468605041503906e-01 5.173298835754394531e+00 1.387515544891357422e+00 1.097428679466247559e+00
8.112000000000000000e+03 5.219773864746093750e+01 1.814997482299804688e+01 -5.792961120605468750e-01 5.221234798431396484e+00 1.392581582069396973e+00 1.058236479759216309e+00
8.113000000000000000e+03 5.056183242797851562e+01 1.790856170654296875e+01 -4.315133988857269287e-01 4.481375217437744141e+00 1.214958548545837402e+00 1.075172901153564453e+00
8.114000000000000000e+03 4.940408325195312500e+01 1.065743732452392578e+01 -4.855296909809112549e-01 3.994954824447631836e+00 1.052827477455139160e+00 6.050391197204589844e-01
8.115000000000000000e+03 4.907502365112304688e+01 1.112708187103271484e+01 -4.697750806808471680e-01 3.890344381332397461e+00 1.026170849800109863e+00 6.278969049453735352e-01
8.116000000000000000e+03 5.075191879272460938e+01 1.216546726226806641e+01 -5.588656663894653320e-01 4.459839344024658203e+00 1.170292139053344727e+00 6.612728238105773926e-01
8.117000000000000000e+03 5.181573104858398438e+01 7.847237110137939453e+00 -5.614521503448486328e-01 4.628836631774902344e+00 1.220215320587158203e+00 4.290389120578765869e-01
8.118000000000000000e+03 2.584251785278320312e+01 7.212073326110839844e+00 -5.059357166290283203e+00 -2.698673248291015625e+00 -2.327409029006958008e+00 -3.853677988052368164e+00
8.119000000000000000e+03 2.572043228149414062e+01 7.138077259063720703e+00 -5.233843803405761719e+00 -2.591597557067871094e+00 -2.347632408142089844e+00 -3.610472202301025391e+00
8.120000000000000000e+03 2.634952735900878906e+01 7.597554206848144531e+00 -4.729625225067138672e+00 -2.897336959838867188e+00 -2.288088560104370117e+00 -3.775901794433593750e+00
8.121000000000000000e+03 2.616312980651855469e+01 7.453005313873291016e+00 -5.314953804016113281e+00 -3.312682390213012695e+00 -2.588290929794311523e+00 -3.953909873962402344e+00
8.122000000000000000e+03 2.604695129394531250e+01 7.367554187774658203e+00 -4.090213775634765625e+00 -2.404396533966064453e+00 -1.948383212089538574e+00 -3.693296432495117188e+00
8.123000000000000000e+03 2.604695320129394531e+01 7.350741386413574219e+00 -4.764806747436523438e+00 -2.654161930084228516e+00 -2.225690603256225586e+00 -3.943880558013916016e+00
8.124000000000000000e+03 2.595564842224121094e+01 7.305611610412597656e+00 -6.138386249542236328e+00 -3.235540151596069336e+00 -2.812177896499633789e+00 -3.883277177810668945e+00
8.125000000000000000e+03 2.575144386291503906e+01 7.166223526000976562e+00 -5.232415676116943359e+00 -2.651563644409179688e+00 -2.365193843841552734e+00 -3.692005634307861328e+00
8.126000000000000000e+03 2.577326011657714844e+01 7.178963184356689453e+00 -5.120996952056884766e+00 -2.360108137130737305e+00 -2.244331598281860352e+00 -3.228075504302978516e+00
8.127000000000000000e+03 2.584209442138671875e+01 7.227762699127197266e+00 -5.084422588348388672e+00 -2.637668848037719727e+00 -2.316627502441406250e+00 -3.914032459259033203e+00
8.128000000000000000e+03 2.585127258300781250e+01 7.226669788360595703e+00 -5.052206516265869141e+00 -2.772492885589599609e+00 -2.347409963607788086e+00 -4.099943637847900391e+00
8.129000000000000000e+03 2.605712127685546875e+01 7.387417793273925781e+00 -4.992942333221435547e+00 -2.897250413894653320e+00 -2.367057800292968750e+00 -3.844381332397460938e+00
8.130000000000000000e+03 1.440204238891601562e+01 9.619241356849670410e-01 2.846079349517822266e+00 2.368168115615844727e+00 1.564274311065673828e+00 -1.882820129394531250e+00
8.131000000000000000e+03 1.114653110504150391e+01 1.993262022733688354e-01 -1.890393376350402832e+00 -1.607383638620376587e-01 -6.153395175933837891e-01 5.741611719131469727e-01
8.132000000000000000e+03 1.121876430511474609e+01 9.378392100334167480e-01 -8.560816049575805664e-01 -3.840741813182830811e-01 -3.720467388629913330e-01 6.695610284805297852e-01
8.133000000000000000e+03 1.040455722808837891e+01 3.265222907066345215e-01 -1.520446300506591797e+00 -1.764405965805053711e-01 -5.090660452842712402e-01 4.066258370876312256e-01
8.134000000000000000e+03 1.188854217529296875e+01 7.071893662214279175e-02 -2.431517362594604492e+00 -2.459019124507904053e-01 -8.032258152961730957e-01 7.413327693939208984e-01
8.135000000000000000e+03 1.271423625946044922e+01 6.772393584251403809e-01 -9.874656200408935547e-01 -3.351707756519317627e-01 -3.967909216880798340e-01 9.334417581558227539e-01
8.136000000000000000e+03 1.263056278228759766e+01 -5.929099395871162415e-02 -3.065062284469604492e+00 -1.514462530612945557e-01 -9.649525284767150879e-01 8.682166934013366699e-01
8.137000000000000000e+03 1.047107124328613281e+01 1.066026568412780762e+00 -7.289878726005554199e-01 -3.058637082576751709e-01 -3.104554712772369385e-01 5.250106453895568848e-01
8.138000000000000000e+03 1.196649551391601562e+01 8.082405924797058105e-01 -8.840315937995910645e-01 -3.386380970478057861e-01 -3.668009042739868164e-01 7.919633984565734863e-01
8.139000000000000000e+03 9.729189872741699219e+00 1.127164006233215332e+00 -6.482318043708801270e-01 -2.338481247425079346e-01 -2.646239697933197021e-01 4.463813006877899170e-01
8.140000000000000000e+03 8.895327568054199219e+00 3.831142783164978027e-01 -8.004922866821289062e-01 -2.900188229978084564e-02 -2.488482594490051270e-01 1.212364807724952698e-01
8.141000000000000000e+03 8.136641502380371094e+00 3.810498118400573730e-01 -5.876275897026062012e-01 -8.576469495892524719e-03 -1.788612306118011475e-01 8.449269831180572510e-02
8.142000000000000000e+03 6.620836257934570312e+00 3.807878792285919189e-01 -3.218397796154022217e-01 -2.920402446761727333e-03 -9.742805361747741699e-02 4.805154725909233093e-02
8.143000000000000000e+03 5.863288402557373047e+00 3.777014017105102539e-01 -2.337206304073333740e-01 -6.536419037729501724e-03 -7.207711040973663330e-02 3.695908933877944946e-02
8.144000000000000000e+03 5.318059444427490234e+00 1.113148808479309082e+00 -1.705107688903808594e-01 -1.820296235382556915e-02 -5.661411955952644348e-02 8.879328519105911255e-02
8.145000000000000000e+03 4.347115039825439453e+00 3.710395395755767822e-01 -1.079419329762458801e-01 -3.703893162310123444e-03 -3.349374607205390930e-02 2.313071303069591522e-02
8.146000000000000000e+03 2.831676959991455078e+00 3.606979846954345703e-01 -3.262293711304664612e-02 -3.116521751508116722e-03 -1.072183717042207718e-02 1.229092758148908615e-02
8.147000000000000000e+03 2.076213359832763672e+00 3.580279946327209473e-01 -1.168295275419950485e-02 -1.519641140475869179e-03 -3.960778005421161652e-03 7.790511939674615860e-03
8.148000000000000000e+03 2.380638122558593750e+00 1.098027944564819336e+00 -3.325140103697776794e-02 -1.219036150723695755e-02 -1.363252848386764526e-02 2.854603715240955353e-02
8.149000000000000000e+03 1.333085298538208008e+00 3.664900958538055420e-01 -2.025221008807420731e-03 -2.425746992230415344e-03 -1.335290493443608284e-03 2.790695987641811371e-03
8.150000000000000000e+03 1.660440564155578613e+00 1.106490135192871094e+00 -1.694592088460922241e-02 -1.041266042739152908e-02 -8.207574486732482910e-03 1.714085228741168976e-02
8.151000000000000000e+03 6.547182202339172363e-01 3.947406113147735596e-01 4.051741561852395535e-04 -6.142804631963372231e-04 -6.273189501371234655e-05 5.792673327960073948e-04
8.152000000000000000e+03 3.519233465194702148e-01 9.575628638267517090e-01 -1.509221154265105724e-03 -1.528481836430728436e-03 -9.113108972087502480e-04 9.896323317661881447e-04
8.153000000000000000e+03 3.113171100616455078e+00 1.100697994232177734e+00 -5.614060536026954651e-02 -1.107482425868511200e-02 -2.016462944447994232e-02 4.233765602111816406e-02
8.154000000000000000e+03 3.588829517364501953e+00 3.677253723144531250e-01 -6.444250792264938354e-02 -1.562011195346713066e-03 -1.980135589838027954e-02 1.821051537990570068e-02
8.155000000000000000e+03 5.105357170104980469e+00 3.731488585472106934e-01 -1.637841612100601196e-01 -1.576583017595112324e-03 -4.960822686553001404e-02 2.968550100922584534e-02
8.156000000000000000e+03 6.053060531616210938e+00 1.117701411247253418e+00 -2.269575446844100952e-01 -1.881961151957511902e-02 -7.373315095901489258e-02 1.104338318109512329e-01
8.157000000000000000e+03 7.522262096405029297e+00 1.121038317680358887e+00 -3.777166306972503662e-01 -3.883274272084236145e-02 -1.249648109078407288e-01 1.765664219856262207e-01
8.158000000000000000e+03 7.378351211547851562e+00 3.810383677482604980e-01 -4.355776607990264893e-01 -1.196433324366807938e-02 -1.342626065015792847e-01 6.184532865881919861e-02
8.159000000000000000e+03 8.257620811462402344e+00 1.121049761772155762e+00 -4.781672954559326172e-01 -6.546309590339660645e-02 -1.630891114473342896e-01 2.330695986747741699e-01
8.160000000000000000e+03 8.993377685546875000e+00 1.123114228248596191e+00 -6.053085923194885254e-01 -1.120684817433357239e-01 -2.152131199836730957e-01 3.286519348621368408e-01
8.161000000000000000e+03 9.654070854187011719e+00 3.871639966964721680e-01 -1.156664609909057617e+00 -7.811958342790603638e-02 -3.704352676868438721e-01 2.286651581525802612e-01
8.162000000000000000e+03 6.787677288055419922e+00 1.120787858963012695e+00 -2.948187589645385742e-01 -3.120351955294609070e-02 -9.780668467283248901e-02 1.385916322469711304e-01
8.163000000000000000e+03 4.582747936248779297e+00 1.111039519309997559e+00 -1.245295405387878418e-01 -1.199912745505571365e-02 -4.095860198140144348e-02 7.155747711658477783e-02
8.164000000000000000e+03 3.847393035888671875e+00 1.107725381851196289e+00 -8.662193268537521362e-02 -1.313416939228773117e-02 -2.992683090269565582e-02 5.641081184148788452e-02
8.165000000000000000e+03 1.005004048347473145e+00 1.134740591049194336e+00 -7.806779816746711731e-03 -1.059817150235176086e-02 -5.521485581994056702e-03 7.802761159837245941e-03
8.166000000000000000e+03 9.574274063110351562e+00 -3.935540616512298584e-01 -2.825895249843597412e-01 7.610946893692016602e-03 -8.249357342720031738e-02 -1.149219274520874023e-02
8.167000000000000000e+03 8.789978027343750000e+00 -3.986168801784515381e-01 -2.513039708137512207e-01 1.089661382138729095e-03 -7.506429404020309448e-02 -2.125260606408119202e-02
8.168000000000000000e+03 8.686211585998535156e+00 -1.138616919517517090e+00 -2.551557719707489014e-01 1.825424260459840298e-03 -7.599910348653793335e-02 -6.455475836992263794e-02
8.169000000000000000e+03 8.006248474121093750e+00 -3.998050093650817871e-01 -2.070213705301284790e-01 -3.488080401439219713e-04 -6.221105158329010010e-02 -2.218880318105220795e-02
8.170000000000000000e+03 7.223060607910156250e+00 -3.997795581817626953e-01 -1.639210581779479980e-01 -1.144764246419072151e-03 -4.951974749565124512e-02 -2.091853879392147064e-02
8.171000000000000000e+03 6.439927577972412109e+00 -4.006183743476867676e-01 -1.227910071611404419e-01 -9.976100409403443336e-04 -3.713658452033996582e-02 -1.866194605827331543e-02
8.172000000000000000e+03 5.657042503356933594e+00 -4.034312665462493896e-01 -8.764486014842987061e-02 -1.589691033586859703e-03 -2.677036635577678680e-02 -1.629778556525707245e-02
8.173000000000000000e+03 4.874185085296630859e+00 -4.075828790664672852e-01 -5.654139071702957153e-02 -1.095079351216554642e-03 -1.729094050824642181e-02 -1.340925693511962891e-02
8.174000000000000000e+03 4.091480255126953125e+00 -4.106692969799041748e-01 -3.261857107281684875e-02 -2.263946691527962685e-03 -1.046475488692522049e-02 -1.056958083063364029e-02
8.175000000000000000e+03 3.310033082962036133e+00 -4.133046567440032959e-01 -1.356952823698520660e-02 -1.170942676253616810e-03 -4.422141239047050476e-03 -6.726767867803573608e-03
8.176000000000000000e+03 2.531398296356201172e+00 -4.163123965263366699e-01 -2.823620336130261421e-03 -2.351344795897603035e-03 -1.552489469759166241e-03 -3.841093042865395546e-03
8.177000000000000000e+03 6.962535381317138672e-01 -1.126455783843994141e+00 1.655339845456182957e-03 1.239920151419937611e-03 8.685779757797718048e-04 1.706741517409682274e-03
8.178000000000000000e+03 3.739950358867645264e-01 -5.643373131752014160e-01 5.970382480882108212e-04 1.744116423651576042e-03 7.023463840596377850e-04 9.176070452667772770e-04
8.179000000000000000e+03 9.497249603271484375e+00 -1.133554100990295410e+00 -3.243975341320037842e-01 1.545737124979496002e-02 -9.268204867839813232e-02 -6.155700236558914185e-02
8.180000000000000000e+03 7.875741004943847656e+00 -1.139804959297180176e+00 -2.094946205615997314e-01 -2.328929957002401352e-03 -6.354706734418869019e-02 -6.354069709777832031e-02
8.181000000000000000e+03 7.065812587738037109e+00 -1.139779567718505859e+00 -1.647057384252548218e-01 -5.184515845030546188e-03 -5.096707493066787720e-02 -5.879872292280197144e-02
8.182000000000000000e+03 6.255938053131103516e+00 -1.140618443489074707e+00 -1.286079436540603638e-01 -5.589225795120000839e-03 -4.025914892554283142e-02 -5.202221497893333435e-02
8.183000000000000000e+03 5.446311473846435547e+00 -1.143431305885314941e+00 -9.349376708269119263e-02 -6.537544075399637222e-03 -3.000939451158046722e-02 -4.469943046569824219e-02
8.184000000000000000e+03 4.636712551116943359e+00 -1.147582888603210449e+00 -6.772731989622116089e-02 -6.915004458278417587e-03 -2.239269763231277466e-02 -3.647691011428833008e-02
8.185000000000000000e+03 3.827266693115234375e+00 -1.150669336318969727e+00 -4.288378730416297913e-02 -7.093916647136211395e-03 -1.499331183731555939e-02 -2.826807647943496704e-02
8.186000000000000000e+03 3.019078254699707031e+00 -1.153304696083068848e+00 -2.662364579737186432e-02 -8.605736307799816132e-03 -1.056881435215473175e-02 -1.913915760815143585e-02
8.187000000000000000e+03 2.213702201843261719e+00 -1.156312346458435059e+00 -1.187939476221799850e-02 -6.394737400114536285e-03 -5.482239648699760437e-03 -8.904977701604366302e-03
8.188000000000000000e+03 1.420517802238464355e+00 -1.151062846183776855e+00 -7.063386030495166779e-03 -4.630349110811948776e-03 -3.508120542392134666e-03 -2.561660716310143471e-03
8.189000000000000000e+03 1.764955043792724609e+00 -4.110628962516784668e-01 3.255555639043450356e-03 -6.035324768163263798e-04 7.956069312058389187e-04 -1.961305242730304599e-04
8.190000000000000000e+03 1.067432165145874023e+00 -3.864558041095733643e-01 2.137084957212209702e-03 -1.166423317044973373e-03 2.911984629463404417e-04 1.288488274440169334e-03
8.191000000000000000e+03 1.107046413421630859e+01 -5.791122317314147949e-01 -4.613682627677917480e-01 -6.462424644269049168e-04 -1.386043578386306763e-01 1.794869080185890198e-02
8.192000000000000000e+03 1.172848224639892578e+01 -1.444193720817565918e+00 -6.130668520927429199e-01 -9.224911336787045002e-04 -1.841967999935150146e-01 -1.260640174150466919e-01
8.193000000000000000e+03 1.026795482635498047e+01 -1.192459702491760254e+00 -4.000120162963867188e-01 1.741932518780231476e-02 -1.147778108716011047e-01 -7.447542250156402588e-02
8.194000000000000000e+03 1.245870399475097656e+01 -1.572161674499511719e+00 -7.325029969215393066e-01 -1.546996831893920898e-02 -2.243918925523757935e-01 -1.739563494920730591e-01
8.195000000000000000e+03 1.254237651824951172e+01 -8.356313705444335938e-01 -8.150361180305480957e-01 -1.794053427875041962e-02 -2.498929947614669800e-01 1.147359702736139297e-02
8.196000000000000000e+03 1.180643558502197266e+01 -7.066720724105834961e-01 -6.040498018264770508e-01 1.613709173398092389e-04 -1.811665296554565430e-01 2.495297417044639587e-02
8.197000000000000000e+03 1.099823093414306641e+01 -1.317625284194946289e+00 -4.898523986339569092e-01 1.870322041213512421e-02 -1.413447558879852295e-01 -9.098964929580688477e-02
8.198000000000000000e+03 1.033446884155273438e+01 -4.529553353786468506e-01 -3.472270071506500244e-01 8.816857822239398956e-03 -1.015230491757392883e-01 6.354755721986293793e-03
8.199000000000000000e+03 1.412816143035888672e+01 -9.967193007469177246e-01 -1.328722238540649414e+00 -2.992865815758705139e-02 -4.075952768325805664e-01 -1.004160046577453613e-01
8.200000000000000000e+03 1.524391746520996094e+01 -1.466321945190429688e+00 -1.678214788436889648e+00 -3.198285400867462158e-01 -5.994129776954650879e-01 -6.699896454811096191e-01
8.201000000000000000e+03 1.616965675354003906e+01 -1.725686669349670410e+00 -1.234717249870300293e+00 -6.760940551757812500e-01 -5.732433795928955078e-01 -6.247239112854003906e-01
8.202000000000000000e+03 1.574865627288818359e+01 -1.673639893531799316e+00 -1.202058196067810059e+00 -6.505792737007141113e-01 -5.557912588119506836e-01 -5.789771080017089844e-01
8.203000000000000000e+03 1.561703586578369141e+01 -9.138993620872497559e-01 -2.823058605194091797e+00 -3.279196619987487793e-01 -9.452934861183166504e-01 -4.054413735866546631e-01
8.204000000000000000e+03 1.330834674835205078e+01 -9.333403110504150391e-01 -1.055213451385498047e+00 -2.788128890097141266e-02 -3.249284029006958008e-01 -3.643625229597091675e-02
8.205000000000000000e+03 1.325672912597656250e+01 -1.671557903289794922e+00 -8.850808143615722656e-01 -7.230315357446670532e-02 -2.872151732444763184e-01 -2.382425665855407715e-01
8.206000000000000000e+03 1.414637279510498047e+01 -1.739302992820739746e+00 -1.089779138565063477e+00 -7.424084842205047607e-02 -3.492060005664825439e-01 -3.285189867019653320e-01
8.207000000000000000e+03 1.646326637268066406e+01 -1.909508228302001953e+00 -9.865824580192565918e-01 -6.930928826332092285e-01 -5.039026141166687012e-01 -4.898570477962493896e-01
8.208000000000000000e+03 1.419766807556152344e+01 -2.838388085365295410e-01 -5.358917236328125000e+00 2.032845169305801392e-01 -1.546689867973327637e+00 8.950964212417602539e-01
8.209000000000000000e+03 1.352537155151367188e+01 5.852731466293334961e-01 -5.395528674125671387e-01 5.476199090480804443e-02 -1.454372555017471313e-01 8.326172232627868652e-01
8.210000000000000000e+03 1.342303657531738281e+01 -1.497735083103179932e-01 -4.081554412841796875e+00 -1.422086954116821289e-01 -1.267128944396972656e+00 9.499953389167785645e-01
8.211000000000000000e+03 1.515072631835937500e+01 6.366986036300659180e-01 4.102025508880615234e+00 1.158936977386474609e+00 1.578288674354553223e+00 -1.340293526649475098e+00
8.212000000000000000e+03 1.436956024169921875e+01 6.066150665283203125e-01 1.382765412330627441e+00 1.460306286811828613e+00 8.529214859008789062e-01 -5.137612223625183105e-01
8.213000000000000000e+03 2.157444953918457031e+01 4.003563880920410156e+00 -1.852034568786621094e+00 -1.066948413848876953e+00 -8.756948709487915039e-01 -1.440942287445068359e+00
8.214000000000000000e+03 2.389948272705078125e+01 5.596093177795410156e+00 -3.955530166625976562e+00 -1.911121368408203125e+00 -1.759995460510253906e+00 -2.686959505081176758e+00
8.215000000000000000e+03 2.412474632263183594e+01 4.887040615081787109e+00 8.317887187004089355e-01 -1.325664371252059937e-01 2.097666859626770020e-01 3.084951341152191162e-01
8.216000000000000000e+03 1.590177440643310547e+01 -5.061372518539428711e-01 -3.605628252029418945e+00 -2.280151546001434326e-01 -1.150093078613281250e+00 -1.070663571357727051e+00
8.217000000000000000e+03 1.952704048156738281e+01 2.294429063796997070e+00 -4.819293916225433350e-01 -7.927308678627014160e-01 -3.823980689048767090e-01 -8.003867864608764648e-01
8.218000000000000000e+03 2.090116500854492188e+01 2.502764463424682617e+00 -3.960376381874084473e-01 -2.665251493453979492e-01 -1.987688392400741577e-01 -3.397820293903350830e-01
8.219000000000000000e+03 2.118369483947753906e+01 2.726105928421020508e+00 -1.974955387413501740e-02 -1.501422673463821411e-01 -5.096754804253578186e-02 -1.761877089738845825e-01
8.220000000000000000e+03 2.619468307495117188e+01 6.949645519256591797e+00 -2.526500701904296875e+00 -1.474196910858154297e+00 -1.200209259986877441e+00 -1.869117259979248047e+00
8.221000000000000000e+03 2.673808860778808594e+01 7.608308792114257812e+00 -3.461109638214111328e+00 -2.137727022171020508e+00 -1.679651021957397461e+00 -2.691747903823852539e+00
8.222000000000000000e+03 2.781131172180175781e+01 8.301882743835449219e+00 -2.571574211120605469e+00 -1.029947638511657715e+00 -1.080456495285034180e+00 -1.876144409179687500e+00
8.223000000000000000e+03 2.843750381469726562e+01 8.249814033508300781e+00 -1.552631258964538574e+00 4.310893416404724121e-01 -3.364625573158264160e-01 -6.076048612594604492e-01
8.224000000000000000e+03 2.872324943542480469e+01 8.505600929260253906e+00 -1.727784752845764160e+00 -4.820162057876586914e-01 -6.629402637481689453e-01 -5.465125441551208496e-01
8.225000000000000000e+03 2.901180076599121094e+01 8.513568878173828125e+00 -1.432644009590148926e+00 -3.061459574382752180e-05 -4.298023879528045654e-01 -2.321937680244445801e-01
8.226000000000000000e+03 2.951800727844238281e+01 8.114252090454101562e+00 -3.808995783329010010e-01 1.977401599287986755e-02 -1.083376705646514893e-01 1.859686225652694702e-01
8.227000000000000000e+03 2.974779701232910156e+01 7.457363605499267578e+00 2.700518965721130371e-01 -3.543848395347595215e-01 -2.529988251626491547e-02 -1.407588869333267212e-01
8.228000000000000000e+03 2.969834518432617188e+01 6.596699714660644531e+00 -2.465142868459224701e-02 -8.877919614315032959e-02 -3.402918949723243713e-02 -5.078089833259582520e-01
8.229000000000000000e+03 2.914324760437011719e+01 6.185403347015380859e+00 -3.566656410694122314e-01 -2.434731274843215942e-02 -1.143038868904113770e-01 -3.885484933853149414e-01
8.230000000000000000e+03 2.731749725341796875e+01 6.180770397186279297e+00 -7.259486913681030273e-01 -3.255442678928375244e-01 -3.154478967189788818e-01 -4.816069304943084717e-01
8.231000000000000000e+03 2.667770767211914062e+01 5.437873363494873047e+00 -5.649455785751342773e-01 -2.828030586242675781e-01 -2.543245851993560791e-01 -3.917786478996276855e-01
8.232000000000000000e+03 2.510387229919433594e+01 4.538621902465820312e+00 -4.867448806762695312e-01 -2.211576849222183228e-01 -2.123707681894302368e-01 -3.288978636264801025e-01
8.233000000000000000e+03 2.605690193176269531e+01 5.097530364990234375e+00 -5.356615781784057617e-01 -2.535478174686431885e-01 -2.367628067731857300e-01 -3.675628006458282471e-01
8.234000000000000000e+03 2.561135482788085938e+01 5.157556533813476562e+00 -5.498257875442504883e-01 -2.269327789545059204e-01 -2.330275624990463257e-01 -3.541429042816162109e-01
8.235000000000000000e+03 2.728079605102539062e+01 4.737926959991455078e+00 -4.011153280735015869e-01 -2.997794449329376221e-01 -2.102684378623962402e-01 -3.266385197639465332e-01
8.236000000000000000e+03 2.848536109924316406e+01 5.469244956970214844e+00 -3.683505058288574219e-01 -2.584840953350067139e-01 -1.880503892898559570e-01 -2.823128700256347656e-01
8.237000000000000000e+03 2.787462043762207031e+01 6.200993061065673828e+00 -6.250896453857421875e-01 -4.295946359634399414e-01 -3.164052963256835938e-01 -4.950756132602691650e-01
8.238000000000000000e+03 2.660818672180175781e+01 6.537590503692626953e+00 1.022538185119628906e+00 2.112937122583389282e-01 3.701495826244354248e-01 5.121206045150756836e-01
8.239000000000000000e+03 2.734742164611816406e+01 6.542398452758789062e+00 3.230583429336547852e+00 1.198055148124694824e+00 1.328591585159301758e+00 1.983301877975463867e+00
8.240000000000000000e+03 2.703376388549804688e+01 6.653264045715332031e+00 1.607136964797973633e+00 6.879839897155761719e-01 6.885362863540649414e-01 1.044157981872558594e+00
8.241000000000000000e+03 2.627173042297363281e+01 4.064880847930908203e+00 -4.060338437557220459e-01 -2.613928318023681641e-01 -2.002280056476593018e-01 -3.151370882987976074e-01
8.242000000000000000e+03 2.386675453186035156e+01 2.603332996368408203e+00 -4.574163556098937988e-01 -2.036236077547073364e-01 -1.983119994401931763e-01 -2.942639291286468506e-01
8.243000000000000000e+03 2.220455932617187500e+01 3.039056539535522461e+00 -4.105994105339050293e-01 -1.641718000173568726e-01 -1.724313646554946899e-01 -2.628910541534423828e-01
8.244000000000000000e+03 2.217053604125976562e+01 1.547746300697326660e+00 -6.299737095832824707e-01 -1.898563802242279053e-01 -2.459490299224853516e-01 -3.036146759986877441e-01
8.245000000000000000e+03 2.025352096557617188e+01 4.149144887924194336e-01 -1.202122926712036133e+00 -8.482361584901809692e-02 -3.860839605331420898e-01 -1.199137791991233826e-01
8.246000000000000000e+03 1.814858818054199219e+01 4.918190240859985352e-01 -1.632108807563781738e+00 -4.715411961078643799e-01 -6.310949921607971191e-01 -9.208936095237731934e-01
8.247000000000000000e+03 1.820799827575683594e+01 -8.796090483665466309e-01 -1.440762877464294434e+00 6.587778776884078979e-02 -4.124655127525329590e-01 -5.802397727966308594e-01
8.248000000000000000e+03 2.170348358154296875e+01 2.723834276199340820e+00 -4.014007449150085449e-01 -1.631337404251098633e-01 -1.693603396415710449e-01 -2.506343424320220947e-01
8.249000000000000000e+03 2.102823257446289062e+01 2.260757684707641602e+00 -3.906030356884002686e-01 -1.530359387397766113e-01 -1.630916893482208252e-01 -2.460649460554122925e-01
8.250000000000000000e+03 1.607972335815429688e+01 -8.520542383193969727e-01 -3.426380634307861328e+00 -1.017128586769104004e+00 -1.333052754402160645e+00 -1.137849092483520508e+00
8.251000000000000000e+03 1.663420677185058594e+01 -1.785859823226928711e+00 -1.085641860961914062e+00 -5.866882801055908203e-01 -5.016990303993225098e-01 -4.337098002433776855e-01
8.252000000000000000e+03 1.890606498718261719e+01 -4.218147695064544678e-01 -1.585365414619445801e+00 2.535671293735504150e-01 -3.995394706726074219e-01 -4.536888897418975830e-01
8.253000000000000000e+03 2.062004280090332031e+01 6.062549352645874023e-01 -1.025647759437561035e+00 -2.033883482217788696e-01 -3.687108159065246582e-01 -2.215081751346588135e-01
8.254000000000000000e+03 2.088251113891601562e+01 1.380865573883056641e+00 -6.900337934494018555e-01 -2.058756202459335327e-01 -2.687728106975555420e-01 -2.899157106876373291e-01
8.255000000000000000e+03 2.300205802917480469e+01 2.110841751098632812e+00 -5.050058960914611816e-01 -1.911533921957015991e-01 -2.088477909564971924e-01 -2.939830124378204346e-01
8.256000000000000000e+03 2.438932991027832031e+01 2.960635662078857422e+00 -4.376350939273834229e-01 -2.078936994075775146e-01 -1.936586499214172363e-01 -2.893664538860321045e-01
8.257000000000000000e+03 2.521880340576171875e+01 3.450610637664794922e+00 -4.226641356945037842e-01 -2.301332801580429077e-01 -1.958392262458801270e-01 -2.988348603248596191e-01
8.258000000000000000e+03 2.289822006225585938e+01 3.422800064086914062e+00 -4.306474924087524414e-01 -1.794963926076889038e-01 -1.830431669950485229e-01 -2.742564678192138672e-01
8.259000000000000000e+03 2.307255363464355469e+01 3.524418592453002930e+00 -4.361685812473297119e-01 -1.768288165330886841e-01 -1.838992238044738770e-01 -2.813335657119750977e-01
8.260000000000000000e+03 2.407131767272949219e+01 4.178638458251953125e+00 -4.720998108386993408e-01 -1.928892731666564941e-01 -1.994967311620712280e-01 -3.016331493854522705e-01
8.261000000000000000e+03 1.780109024047851562e+01 1.569384574890136719e+00 1.424623847007751465e+00 2.934634983539581299e-01 5.154262185096740723e-01 6.420597434043884277e-01
8.262000000000000000e+03 2.510248374938964844e+01 4.799768447875976562e+00 -5.200939178466796875e-01 -2.167988270521163940e-01 -2.210678309202194214e-01 -3.328181207180023193e-01
8.263000000000000000e+03 2.383655929565429688e+01 3.735404729843139648e+00 -4.452784657478332520e-01 -1.963222324848175049e-01 -1.924802213907241821e-01 -2.977409064769744873e-01
8.264000000000000000e+03 2.356903648376464844e+01 3.872204303741455078e+00 -4.522416293621063232e-01 -1.840889751911163330e-01 -1.908991783857345581e-01 -2.903958261013031006e-01
8.265000000000000000e+03 2.272424316406250000e+01 3.322763919830322266e+00 -4.270381033420562744e-01 -1.723891794681549072e-01 -1.798281818628311157e-01 -2.711664140224456787e-01
8.266000000000000000e+03 2.186722183227539062e+01 2.835867881774902344e+00 -4.014157950878143311e-01 -1.580464541912078857e-01 -1.678386777639389038e-01 -2.566839754581451416e-01
8.267000000000000000e+03 1.797665786743164062e+01 3.892868459224700928e-01 -1.716520428657531738e+00 -5.564974546432495117e-01 -6.819053292274475098e-01 -9.971037507057189941e-01
8.268000000000000000e+03 1.780901718139648438e+01 2.828388810157775879e-01 -1.804799914360046387e+00 -6.105722784996032715e-01 -7.246116399765014648e-01 -1.049998998641967773e+00
8.269000000000000000e+03 1.786056327819824219e+01 -7.438153028488159180e-01 -1.591987729072570801e+00 -1.419968008995056152e-01 -5.201953649520874023e-01 -6.968025565147399902e-01
8.270000000000000000e+03 1.490975666046142578e+01 -9.672126770019531250e-01 -1.684648990631103516e+00 8.341751992702484131e-02 -4.803694486618041992e-01 -8.964084833860397339e-02
8.271000000000000000e+03 1.553082847595214844e+01 -5.301201939582824707e-01 -5.419854164123535156e+00 4.078203737735748291e-01 -1.503610134124755859e+00 -1.196308359503746033e-01
8.272000000000000000e+03 2.761780357360839844e+01 7.930091857910156250e+00 -2.037801027297973633e+00 -7.093793749809265137e-01 -8.241541385650634766e-01 -1.471377253532409668e+00
8.273000000000000000e+03 2.491459465026855469e+01 6.318172931671142578e+00 -3.643089294433593750e+00 -2.098854541778564453e+00 -1.722583174705505371e+00 -2.823204517364501953e+00
8.274000000000000000e+03 2.509618377685546875e+01 5.497509956359863281e+00 1.309013724327087402e+00 5.215915441513061523e-01 5.491815805435180664e-01 5.992186069488525391e-01
8.275000000000000000e+03 2.355752754211425781e+01 5.373759746551513672e+00 -3.937083959579467773e+00 -1.742375254631042480e+00 -1.703837752342224121e+00 -2.566027164459228516e+00
8.276000000000000000e+03 2.223781585693359375e+01 4.491950511932373047e+00 -2.437006473541259766e+00 -1.210730552673339844e+00 -1.094321012496948242e+00 -1.732174515724182129e+00
8.277000000000000000e+03 2.086944961547851562e+01 3.572295188903808594e+00 -1.545887470245361328e+00 -8.677556514739990234e-01 -7.240929007530212402e-01 -1.207344770431518555e+00
8.278000000000000000e+03 2.071192550659179688e+01 3.059936761856079102e+00 -6.366118788719177246e-01 -8.407921195030212402e-01 -4.432212114334106445e-01 -8.922340273857116699e-01
8.279000000000000000e+03 2.016724014282226562e+01 3.137828350067138672e+00 -1.037742733955383301e+00 -6.647418737411499023e-01 -5.107453465461730957e-01 -8.712046146392822266e-01
8.280000000000000000e+03 2.013880538940429688e+01 2.411051511764526367e+00 -6.563406586647033691e-01 -8.032200336456298828e-01 -4.378682076930999756e-01 -8.529868721961975098e-01
8.281000000000000000e+03 1.905813980102539062e+01 1.327856063842773438e+00 -2.916301250457763672e+00 -1.073176026344299316e+00 -1.196843147277832031e+00 -1.717104315757751465e+00
8.282000000000000000e+03 1.744436645507812500e+01 1.317501544952392578e+00 1.811251401901245117e+00 3.479175567626953125e-01 6.477506756782531738e-01 7.092496752738952637e-01
8.283000000000000000e+03 1.628603553771972656e+01 8.226152062416076660e-01 3.414195060729980469e+00 1.953116208314895630e-01 1.082852005958557129e+00 9.902459979057312012e-01
8.284000000000000000e+03 1.592049598693847656e+01 7.100230455398559570e-01 3.927070140838623047e+00 5.225363373756408691e-01 1.334881901741027832e+00 5.389643311500549316e-01
8.285000000000000000e+03 1.661206626892089844e+01 8.281219750642776489e-03 -4.367448329925537109e+00 -1.018400192260742188e+00 -1.615754604339599609e+00 -2.400601863861083984e+00
8.286000000000000000e+03 1.869659805297851562e+01 1.178386449813842773e+00 -3.075376272201538086e+00 -1.340278267860412598e+00 -1.324696421623229980e+00 -1.962673544883728027e+00
8.287000000000000000e+03 1.813349723815917969e+01 1.811456799507141113e+00 1.077589988708496094e+00 1.790369600057601929e-01 3.769880831241607666e-01 4.818036258220672607e-01
8.288000000000000000e+03 1.867108726501464844e+01 1.794123888015747070e+00 -1.561489254236221313e-01 -6.385647058486938477e-01 -2.384140938520431519e-01 -5.569082498550415039e-01
8.289000000000000000e+03 2.021986579895019531e+01 2.136486768722534180e+00 -1.033886790275573730e+00 -6.181544661521911621e-01 -4.956123828887939453e-01 -7.884431481361389160e-01
8.290000000000000000e+03 2.072131156921386719e+01 2.411337137222290039e+00 -5.295889973640441895e-01 -3.000051379203796387e-01 -2.488782405853271484e-01 -4.192843437194824219e-01
8.291000000000000000e+03 2.134403800964355469e+01 2.867102384567260742e+00 1.711349934339523315e-01 -1.346218585968017578e-01 1.095394324511289597e-02 -9.386565536260604858e-02
8.292000000000000000e+03 2.052456855773925781e+01 3.346909999847412109e+00 -1.350593924522399902e+00 -8.251292705535888672e-01 -6.527169346809387207e-01 -1.047446727752685547e+00
8.293000000000000000e+03 2.190268898010253906e+01 3.133645534515380859e+00 6.371718049049377441e-01 1.382259130477905273e-01 2.326193153858184814e-01 2.399456501007080078e-01
8.294000000000000000e+03 2.170759963989257812e+01 3.228340387344360352e+00 3.025259971618652344e-01 -3.238229751586914062e-01 -6.389094982296228409e-03 -1.153549030423164368e-01
8.295000000000000000e+03 2.218294525146484375e+01 3.758147478103637695e+00 -1.667275726795196533e-01 -5.009310841560363770e-01 -2.002975940704345703e-01 -4.844727218151092529e-01
8.296000000000000000e+03 2.309049415588378906e+01 3.885665655136108398e+00 1.590522646903991699e+00 4.982043504714965820e-01 6.266180872917175293e-01 8.175737857818603516e-01
8.297000000000000000e+03 2.343356513977050781e+01 4.924833297729492188e+00 -1.674754142761230469e+00 -1.160234451293945312e+00 -8.504965901374816895e-01 -1.448500871658325195e+00
8.298000000000000000e+03 2.389833259582519531e+01 4.438695907592773438e+00 2.428312778472900391e+00 6.871122121810913086e-01 9.346274733543395996e-01 1.261892080307006836e+00
8.299000000000000000e+03 2.493483924865722656e+01 5.057234764099121094e+00 2.859549283981323242e+00 9.508817195892333984e-01 1.143129348754882812e+00 1.726947426795959473e+00
8.300000000000000000e+03 2.634406471252441406e+01 5.882075309753417969e+00 3.292886018753051758e+00 1.120267033576965332e+00 1.323945879936218262e+00 1.976905584335327148e+00
8.301000000000000000e+03 2.651717948913574219e+01 6.223111629486083984e+00 2.483073234558105469e+00 7.731373310089111328e-01 9.768632054328918457e-01 1.452656269073486328e+00
8.302000000000000000e+03 2.752372932434082031e+01 6.642493247985839844e+00 3.217919826507568359e+00 1.218410730361938477e+00 1.330899238586425781e+00 1.994308948516845703e+00
8.303000000000000000e+03 2.770738792419433594e+01 6.731254100799560547e+00 3.268598556518554688e+00 1.243250370025634766e+00 1.353554725646972656e+00 1.961282134056091309e+00
8.304000000000000000e+03 2.837801170349121094e+01 8.509162902832031250e+00 -2.159684419631958008e+00 -3.038222789764404297e-01 -7.390519976615905762e-01 -1.183616399765014648e+00
8.305000000000000000e+03 2.877238655090332031e+01 8.255836486816406250e+00 -9.666774272918701172e-01 4.185926020145416260e-01 -1.644254624843597412e-01 -2.450906299054622650e-02
8.306000000000000000e+03 2.819168090820312500e+01 8.265731811523437500e+00 -2.063155174255371094e+00 -3.383541405200958252e-01 -7.204527854919433594e-01 -1.145217180252075195e+00
8.307000000000000000e+03 2.762212753295898438e+01 6.936492919921875000e+00 2.056945323944091797e+00 8.054189085960388184e-01 8.587092757225036621e-01 1.283483266830444336e+00
8.308000000000000000e+03 2.782902908325195312e+01 6.540134429931640625e+00 -8.489894270896911621e-01 -4.150983989238739014e-01 -3.792263269424438477e-01 -5.927440524101257324e-01
8.309000000000000000e+03 2.816375541687011719e+01 6.255253791809082031e+00 -5.483024120330810547e-01 -4.709140658378601074e-01 -3.057649433612823486e-01 -4.609870612621307373e-01
8.310000000000000000e+03 2.855319404602050781e+01 6.142180919647216797e+00 -4.367113411426544189e-01 -3.154595792293548584e-01 -2.256512790918350220e-01 -3.242774009704589844e-01
8.311000000000000000e+03 2.994088172912597656e+01 7.355839729309082031e+00 2.000218033790588379e-01 -3.730086088180541992e-01 -5.189604312181472778e-02 -2.364355772733688354e-01
8.312000000000000000e+03 2.965469932556152344e+01 6.280673980712890625e+00 -1.762291640043258667e-01 -2.602966688573360443e-02 -6.067764759063720703e-02 -4.852333068847656250e-01
8.313000000000000000e+03 2.813894844055175781e+01 5.262156963348388672e+00 -3.777032792568206787e-01 -3.013761937618255615e-01 -2.037238478660583496e-01 -3.018389642238616943e-01
8.314000000000000000e+03 2.796563339233398438e+01 5.154746055603027344e+00 -3.867959976196289062e-01 -3.109968900680541992e-01 -2.093378603458404541e-01 -3.132322728633880615e-01
8.315000000000000000e+03 2.745028686523437500e+01 4.845677852630615234e+00 -3.961989581584930420e-01 -3.018449246883392334e-01 -2.094131708145141602e-01 -3.237149119377136230e-01
8.316000000000000000e+03 2.690469741821289062e+01 4.545875072479248047e+00 -4.083894491195678711e-01 -2.854769229888916016e-01 -2.081599086523056030e-01 -3.277406394481658936e-01
8.317000000000000000e+03 2.642532920837402344e+01 4.458956241607666016e+00 -4.332458674907684326e-01 -2.720422148704528809e-01 -2.115864157676696777e-01 -3.315174579620361328e-01
8.318000000000000000e+03 2.658790779113769531e+01 4.286829948425292969e+00 -4.081732034683227539e-01 -2.709531188011169434e-01 -2.037378996610641479e-01 -3.209935426712036133e-01
8.319000000000000000e+03 2.574311637878417969e+01 3.786098003387451172e+00 -4.155505299568176270e-01 -2.411258816719055176e-01 -1.970029175281524658e-01 -3.053804039955139160e-01
8.320000000000000000e+03 2.541836547851562500e+01 3.930738449096679688e+00 -4.363759756088256836e-01 -2.360432595014572144e-01 -2.017257660627365112e-01 -3.136212825775146484e-01
8.321000000000000000e+03 2.420208168029785156e+01 2.860757350921630859e+00 -4.450665414333343506e-01 -2.118972688913345337e-01 -1.970891505479812622e-01 -2.951471805572509766e-01
8.322000000000000000e+03 2.345994377136230469e+01 2.607226133346557617e+00 -4.532918930053710938e-01 -1.986323446035385132e-01 -1.955772787332534790e-01 -2.913387715816497803e-01
8.323000000000000000e+03 2.318541145324707031e+01 2.221759319305419922e+00 -5.029944181442260742e-01 -1.944680213928222656e-01 -2.092387378215789795e-01 -2.964330315589904785e-01
8.324000000000000000e+03 2.254116249084472656e+01 2.054912328720092773e+00 -5.227822661399841309e-01 -1.962148249149322510e-01 -2.156991213560104370e-01 -3.105770647525787354e-01
8.325000000000000000e+03 2.216105842590332031e+01 1.763288617134094238e+00 -5.522058606147766113e-01 -1.889982819557189941e-01 -2.223612368106842041e-01 -3.070944249629974365e-01
8.326000000000000000e+03 2.199205207824707031e+01 1.458675265312194824e+00 -6.267488002777099609e-01 -1.861186772584915161e-01 -2.438602447509765625e-01 -3.070139586925506592e-01
8.327000000000000000e+03 2.183944702148437500e+01 1.690778493881225586e+00 -5.844606161117553711e-01 -1.919696480035781860e-01 -2.329290807247161865e-01 -3.120576739311218262e-01
8.328000000000000000e+03 2.182098770141601562e+01 1.338136911392211914e+00 -6.910257935523986816e-01 -1.921770423650741577e-01 -2.649608552455902100e-01 -3.101888895034790039e-01
8.329000000000000000e+03 2.131197357177734375e+01 1.024908065795898438e+00 -7.985430359840393066e-01 -1.992804259061813354e-01 -2.993470430374145508e-01 -2.994324564933776855e-01
8.330000000000000000e+03 2.114123344421386719e+01 9.171155691146850586e-01 -8.669387698173522949e-01 -2.312158942222595215e-01 -3.294464051723480225e-01 -2.781145274639129639e-01
8.331000000000000000e+03 2.067724800109863281e+01 9.409630894660949707e-01 -8.705173134803771973e-01 -1.796390116214752197e-01 -3.150468766689300537e-01 -2.707830965518951416e-01
8.332000000000000000e+03 2.001682472229003906e+01 1.637134432792663574e+00 -5.049746036529541016e-01 -1.567489802837371826e-01 -1.985170692205429077e-01 -2.752002179622650146e-01
8.333000000000000000e+03 2.044163322448730469e+01 5.099294185638427734e-01 -1.140362620353698730e+00 -2.473289370536804199e-01 -4.163074493408203125e-01 -1.394278705120086670e-01
8.334000000000000000e+03 1.973522758483886719e+01 4.402073472738265991e-02 -1.667293190956115723e+00 1.027269959449768066e-01 -4.693698585033416748e-01 -1.494064480066299438e-01
8.335000000000000000e+03 2.007245063781738281e+01 2.987338006496429443e-01 -1.407057046890258789e+00 -7.459854334592819214e-02 -4.444966912269592285e-01 -1.316430121660232544e-01
8.336000000000000000e+03 1.928709983825683594e+01 -2.650651633739471436e-01 -1.853680729866027832e+00 3.860469162464141846e-01 -4.402901530265808105e-01 -3.268703222274780273e-01
8.337000000000000000e+03 1.904242515563964844e+01 -6.172461062669754028e-02 -1.712407231330871582e+00 1.944945901632308960e-01 -4.553737938404083252e-01 -4.036406576633453369e-01
8.338000000000000000e+03 1.837055206298828125e+01 -4.188842475414276123e-01 -1.547087311744689941e+00 6.992232799530029297e-02 -4.431494772434234619e-01 -6.018631458282470703e-01
8.339000000000000000e+03 1.854799652099609375e+01 -6.623200178146362305e-01 -1.540660738945007324e+00 2.441401034593582153e-01 -3.889562189579010010e-01 -5.110592842102050781e-01
8.340000000000000000e+03 1.837671661376953125e+01 -7.712314128875732422e-01 -1.433254718780517578e+00 2.216091006994247437e-01 -3.634937107563018799e-01 -5.768051147460937500e-01
8.341000000000000000e+03 2.547790527343750000e+01 6.817430019378662109e+00 -4.309065818786621094e+00 -2.125600099563598633e+00 -1.930399656295776367e+00 -3.033525466918945312e+00
8.342000000000000000e+03 2.751976966857910156e+01 8.118475914001464844e+00 -2.795679092407226562e+00 -1.589055061340332031e+00 -1.315420269966125488e+00 -2.165374755859375000e+00
8.343000000000000000e+03 2.774594306945800781e+01 8.091825485229492188e+00 -2.204853057861328125e+00 -9.065521359443664551e-01 -9.334215521812438965e-01 -1.547222018241882324e+00
8.344000000000000000e+03 2.639754867553710938e+01 7.404555320739746094e+00 -3.805498123168945312e+00 -2.348067045211791992e+00 -1.846069574356079102e+00 -2.873014211654663086e+00
8.345000000000000000e+03 2.606106948852539062e+01 7.185231208801269531e+00 -4.241534709930419922e+00 -2.396573781967163086e+00 -1.991432547569274902e+00 -3.106804132461547852e+00
8.346000000000000000e+03 2.798363685607910156e+01 8.158415794372558594e+00 -2.158932924270629883e+00 -5.482434034347534180e-01 -8.121529221534729004e-01 -1.373161196708679199e+00
8.347000000000000000e+03 2.766287040710449219e+01 7.594291687011718750e+00 -7.457828521728515625e-01 -8.458347618579864502e-02 -2.491099089384078979e-01 -6.572655439376831055e-01
8.348000000000000000e+03 2.922995376586914062e+01 8.264119148254394531e+00 -7.734155654907226562e-01 -3.997065499424934387e-02 -2.440158724784851074e-01 1.352881938219070435e-01
8.349000000000000000e+03 2.787303733825683594e+01 7.956303119659423828e+00 -1.757050037384033203e+00 -1.189673766493797302e-01 -5.628052353858947754e-01 -1.171399593353271484e+00
8.350000000000000000e+03 2.732738494873046875e+01 7.844492435455322266e+00 -2.422687530517578125e+00 -1.274175524711608887e+00 -1.109058976173400879e+00 -1.879194498062133789e+00
8.351000000000000000e+03 2.705543899536132812e+01 7.530703067779541016e+00 -2.060779333114624023e+00 -1.155848622322082520e+00 -9.649884104728698730e-01 -1.554383277893066406e+00
8.352000000000000000e+03 2.968653678894042969e+01 7.849141120910644531e+00 -3.563246130943298340e-02 -2.141287475824356079e-01 -7.492836564779281616e-02 -2.229944569990038872e-03
8.353000000000000000e+03 2.835629081726074219e+01 6.176811218261718750e+00 -4.882755577564239502e-01 -4.135673046112060547e-01 -2.705528736114501953e-01 -3.883073925971984863e-01
8.354000000000000000e+03 2.950033187866210938e+01 6.448091506958007812e+00 -1.685988754034042358e-01 2.314124628901481628e-02 -4.363729059696197510e-02 -5.649452209472656250e-01
8.355000000000000000e+03 2.894675827026367188e+01 6.136587142944335938e+00 -4.007022976875305176e-01 -8.496963977813720703e-02 -1.457015872001647949e-01 -3.364628255367279053e-01
8.356000000000000000e+03 2.874980735778808594e+01 6.135490417480468750e+00 -4.343773722648620605e-01 -2.017910033464431763e-01 -1.908505111932754517e-01 -3.130613267421722412e-01
8.357000000000000000e+03 2.767642974853515625e+01 6.402858257293701172e+00 -7.836578488349914551e-01 -3.824204206466674805e-01 -3.498234748840332031e-01 -5.483571887016296387e-01
8.358000000000000000e+03 2.937743759155273438e+01 6.025830745697021484e+00 -3.003289699554443359e-01 -3.656698763370513916e-02 -1.010687872767448425e-01 -3.753670752048492432e-01
8.359000000000000000e+03 2.971186447143554688e+01 7.641345977783203125e+00 3.923181295394897461e-01 -3.137873113155364990e-01 2.355924434959888458e-02 3.193555166944861412e-04
8.360000000000000000e+03 1.572074985504150391e+01 2.189624011516571045e-01 -6.789826154708862305e-01 1.233579635620117188e+00 1.663790941238403320e-01 -1.074499964714050293e+00
8.361000000000000000e+03 2.408654022216796875e+01 4.547325134277343750e+00 2.606636047363281250e+00 7.088169455528259277e-01 9.946358799934387207e-01 1.364073395729064941e+00
8.362000000000000000e+03 2.037843704223632812e+01 2.863221883773803711e+00 -6.644774675369262695e-01 -8.370727300643920898e-01 -4.504650533199310303e-01 -8.561139106750488281e-01
8.363000000000000000e+03 2.261888504028320312e+01 3.930613756179809570e+00 5.494102835655212402e-01 -2.165744453668594360e-01 9.985075891017913818e-02 -1.601090282201766968e-02
8.364000000000000000e+03 2.189883041381835938e+01 4.254463672637939453e+00 -2.092141628265380859e+00 -1.106111168861389160e+00 -9.594758152961730957e-01 -1.570863842964172363e+00
8.365000000000000000e+03 1.715502357482910156e+01 2.484077364206314087e-01 -4.574341297149658203e+00 -1.569410204887390137e+00 -1.843125462532043457e+00 -2.931203842163085938e+00
8.366000000000000000e+03 1.699773979187011719e+01 1.264773458242416382e-01 -4.724969387054443359e+00 -1.397780179977416992e+00 -1.836824893951416016e+00 -2.720990896224975586e+00
8.367000000000000000e+03 1.885128974914550781e+01 2.235883474349975586e+00 3.240469396114349365e-01 -1.853229105472564697e-01 4.161720722913742065e-02 -8.451886475086212158e-02
8.368000000000000000e+03 1.847843170166015625e+01 2.026584863662719727e+00 7.233684062957763672e-01 -5.210977420210838318e-02 2.013775855302810669e-01 2.300838232040405273e-01
8.369000000000000000e+03 2.543092918395996094e+01 5.707922935485839844e+00 9.644004702568054199e-01 1.185337528586387634e-01 3.248802721500396729e-01 5.099601149559020996e-01
8.370000000000000000e+03 2.457446861267089844e+01 5.008879184722900391e+00 2.043549060821533203e+00 3.920270204544067383e-01 7.306728363037109375e-01 9.413418769836425781e-01
8.371000000000000000e+03 2.325514793395996094e+01 3.987225294113159180e+00 1.782734870910644531e+00 4.703210890293121338e-01 6.759167909622192383e-01 8.757182955741882324e-01
8.372000000000000000e+03 2.463901519775390625e+01 4.825169563293457031e+00 2.726294755935668945e+00 9.902073144912719727e-01 1.114950656890869141e+00 1.781735897064208984e+00
8.373000000000000000e+03 2.104832649230957031e+01 2.598700046539306641e+00 -2.273970991373062134e-01 -1.955908089876174927e-01 -1.268963664770126343e-01 -2.263036817312240601e-01
8.374000000000000000e+03 2.219436645507812500e+01 3.388534784317016602e+00 9.781134128570556641e-01 1.733124703168869019e-01 3.454277813434600830e-01 3.750202953815460205e-01
8.375000000000000000e+03 2.275546455383300781e+01 3.693754434585571289e+00 1.355368018150329590e+00 3.060874640941619873e-01 4.984366297721862793e-01 6.767982840538024902e-01
8.376000000000000000e+03 2.191262245178222656e+01 3.660018205642700195e+00 -3.392688035964965820e-01 -5.647042989730834961e-01 -2.711919248104095459e-01 -5.992798805236816406e-01
8.377000000000000000e+03 2.427522277832031250e+01 4.646494388580322266e+00 2.786183357238769531e+00 7.672808170318603516e-01 1.066039323806762695e+00 1.487013697624206543e+00
8.378000000000000000e+03 2.446111488342285156e+01 4.740173339843750000e+00 2.861039876937866211e+00 8.355033397674560547e-01 1.108963012695312500e+00 1.660403847694396973e+00
8.379000000000000000e+03 2.528694915771484375e+01 5.271379947662353516e+00 2.956448316574096680e+00 1.073903083801269531e+00 1.209105372428894043e+00 1.675083041191101074e+00
8.380000000000000000e+03 2.717264175415039062e+01 6.434658527374267578e+00 3.225074291229248047e+00 1.129360198974609375e+00 1.306330323219299316e+00 1.956952691078186035e+00
8.381000000000000000e+03 1.733164405822753906e+01 3.668887019157409668e-01 -4.616967201232910156e+00 -1.922979354858398438e+00 -1.961984038352966309e+00 -2.712250232696533203e+00
8.382000000000000000e+03 1.705279922485351562e+01 1.104628801345825195e+00 2.313151359558105469e+00 3.460359573364257812e-01 7.977561950683593750e-01 7.492741346359252930e-01
8.383000000000000000e+03 1.820470809936523438e+01 1.020192623138427734e+00 -2.458408355712890625e+00 -1.411695003509521484e+00 -1.161031007766723633e+00 -1.980613946914672852e+00
8.384000000000000000e+03 1.934757041931152344e+01 1.523654103279113770e+00 -2.279025316238403320e+00 -1.035002231597900391e+00 -9.942082166671752930e-01 -1.482134222984313965e+00
8.385000000000000000e+03 1.620856475830078125e+01 -2.564688026905059814e-01 -4.055329322814941406e+00 -9.751502275466918945e-01 -1.509143829345703125e+00 -1.916620850563049316e+00
8.386000000000000000e+03 1.637600135803222656e+01 -1.055432707071304321e-01 -4.257062435150146484e+00 -9.770448207855224609e-01 -1.570232272148132324e+00 -2.131179571151733398e+00
8.387000000000000000e+03 1.682551574707031250e+01 6.590063869953155518e-02 -4.536654472351074219e+00 -1.409160971641540527e+00 -1.783744573593139648e+00 -2.483107805252075195e+00
8.388000000000000000e+03 2.681288909912109375e+01 6.210831165313720703e+00 3.112388134002685547e+00 1.253627538681030273e+00 1.309804677963256836e+00 1.970751881599426270e+00
8.389000000000000000e+03 2.041065216064453125e+01 2.207756280899047852e+00 -8.566743135452270508e-01 -4.916099607944488525e-01 -4.044852852821350098e-01 -6.559095382690429688e-01
8.390000000000000000e+03 1.647114562988281250e+01 -6.173247694969177246e-01 -2.436402559280395508e+00 -8.011825084686279297e-01 -9.712755084037780762e-01 -1.323728203773498535e+00
8.391000000000000000e+03 2.714648437500000000e+01 6.079617023468017578e+00 -6.974329948425292969e-01 -3.066290616989135742e-01 -3.012186288833618164e-01 -4.654720425605773926e-01
8.392000000000000000e+03 2.610667991638183594e+01 3.989916086196899414e+00 -4.056411385536193848e-01 -2.562839686870574951e-01 -1.985775232315063477e-01 -3.142189085483551025e-01
8.393000000000000000e+03 1.833070755004882812e+01 5.895792841911315918e-01 -1.524802684783935547e+00 -4.639000892639160156e-01 -5.966108441352844238e-01 -8.137677311897277832e-01
8.394000000000000000e+03 2.237835693359375000e+01 3.131584405899047852e+00 -4.183251559734344482e-01 -1.699836105108261108e-01 -1.764926314353942871e-01 -2.643250524997711182e-01
8.395000000000000000e+03 1.764385032653808594e+01 1.744001954793930054e-01 -1.881050944328308105e+00 -6.391409635543823242e-01 -7.560575604438781738e-01 -1.103470325469970703e+00
8.396000000000000000e+03 1.916730690002441406e+01 1.125744342803955078e+00 -9.193677306175231934e-01 -2.230527549982070923e-01 -3.427261412143707275e-01 -4.841094613075256348e-01
8.397000000000000000e+03 2.649093246459960938e+01 5.643176078796386719e+00 -6.083042025566101074e-01 -2.650731503963470459e-01 -2.620131969451904297e-01 -4.018986225128173828e-01
8.398000000000000000e+03 2.631550598144531250e+01 5.527283191680908203e+00 -5.965898633003234863e-01 -2.600482106208801270e-01 -2.569914162158966064e-01 -3.884997963905334473e-01
8.399000000000000000e+03 2.612833976745605469e+01 5.438388347625732422e+00 -5.849709510803222656e-01 -2.472168803215026855e-01 -2.496563494205474854e-01 -3.782814145088195801e-01
8.400000000000000000e+03 2.492999267578125000e+01 4.705292224884033203e+00 -5.095534920692443848e-01 -2.079240679740905762e-01 -2.152432650327682495e-01 -3.268662095069885254e-01
8.401000000000000000e+03 2.546989440917968750e+01 4.657116889953613281e+00 -4.930590987205505371e-01 -2.334216237068176270e-01 -2.179442197084426880e-01 -3.397524356842041016e-01
8.402000000000000000e+03 2.545153236389160156e+01 5.036966800689697266e+00 -5.372545123100280762e-01 -2.231777310371398926e-01 -2.281296849250793457e-01 -3.465934395790100098e-01
8.403000000000000000e+03 2.459490013122558594e+01 4.509659290313720703e+00 -4.926815629005432129e-01 -1.986302584409713745e-01 -2.073935568332672119e-01 -3.178323805332183838e-01
8.404000000000000000e+03 2.469862174987792969e+01 4.145606040954589844e+00 -4.725737273693084717e-01 -2.175852358341217041e-01 -2.070476859807968140e-01 -3.154738545417785645e-01
8.405000000000000000e+03 2.373550224304199219e+01 3.974582195281982422e+00 -4.613797366619110107e-01 -1.850824058055877686e-01 -1.939386427402496338e-01 -2.936003506183624268e-01
8.406000000000000000e+03 2.424369049072265625e+01 4.286685943603515625e+00 -4.789536893367767334e-01 -1.943000555038452148e-01 -2.019761204719543457e-01 -3.059112131595611572e-01
8.407000000000000000e+03 2.339944267272949219e+01 3.365537881851196289e+00 -4.393209517002105713e-01 -1.926822215318679810e-01 -1.896009594202041626e-01 -2.924589812755584717e-01
8.408000000000000000e+03 1.737028121948242188e+01 -1.417335867881774902e+00 -1.283655405044555664e+00 -2.656941115856170654e-01 -4.648048579692840576e-01 -5.577281117439270020e-01
8.409000000000000000e+03 1.628935050964355469e+01 -7.278177142143249512e-01 -2.672511577606201172e+00 -8.006353974342346191e-01 -1.041944146156311035e+00 -1.362576603889465332e+00
8.410000000000000000e+03 1.664281463623046875e+01 -5.031195878982543945e-01 -2.278766155242919922e+00 -7.812534570693969727e-01 -9.180058836936950684e-01 -1.304335474967956543e+00
8.411000000000000000e+03 2.750169563293457031e+01 6.282786369323730469e+00 -7.537993788719177246e-01 -3.648282587528228760e-01 -3.355882763862609863e-01 -5.075542926788330078e-01
8.412000000000000000e+03 2.573222351074218750e+01 4.982469081878662109e+00 -5.266081690788269043e-01 -2.359787821769714355e-01 -2.287760823965072632e-01 -3.534866869449615479e-01
8.413000000000000000e+03 2.255205917358398438e+01 3.223788022994995117e+00 -4.211220145225524902e-01 -1.699315011501312256e-01 -1.773160547018051147e-01 -2.686116993427276611e-01
8.414000000000000000e+03 2.247628593444824219e+01 2.902311563491821289e+00 -4.280452430248260498e-01 -1.783512532711029053e-01 -1.819189488887786865e-01 -2.796491682529449463e-01
8.415000000000000000e+03 2.120512962341308594e+01 2.366119623184204102e+00 -3.913466632366180420e-01 -1.556486189365386963e-01 -1.640985757112503052e-01 -2.450791448354721069e-01
8.416000000000000000e+03 1.982842826843261719e+01 1.562138557434082031e+00 -5.358688235282897949e-01 -1.589473485946655273e-01 -2.084448635578155518e-01 -3.076989054679870605e-01
8.417000000000000000e+03 1.685240936279296875e+01 -8.052365779876708984e-01 -2.067145824432373047e+00 -5.543665289878845215e-01 -7.864537239074707031e-01 -9.658498764038085938e-01
8.418000000000000000e+03 2.866297340393066406e+01 5.560963630676269531e+00 -3.801697790622711182e-01 -2.305826842784881592e-01 -1.832257360219955444e-01 -2.866688072681427002e-01
8.419000000000000000e+03 2.709033966064453125e+01 4.650040626525878906e+00 -4.063355028629302979e-01 -2.907423079013824463e-01 -2.091233432292938232e-01 -3.265922367572784424e-01
8.420000000000000000e+03 1.701620674133300781e+01 -1.598754167556762695e+00 -1.082775354385375977e+00 -4.453001916408538818e-01 -4.584226906299591064e-01 -5.241373777389526367e-01
8.421000000000000000e+03 1.990662193298339844e+01 1.681541800498962402e-01 -1.359448075294494629e+00 6.269018352031707764e-02 -3.890273571014404297e-01 -1.144643649458885193e-01
8.422000000000000000e+03 2.402393531799316406e+01 2.738673686981201172e+00 -4.549535512924194336e-01 -2.025710046291351318e-01 -1.972573697566986084e-01 -2.915875315666198730e-01
8.423000000000000000e+03 2.919072723388671875e+01 5.915001869201660156e+00 -3.539079725742340088e-01 -4.830722510814666748e-02 -1.206645593047142029e-01 -3.419570326805114746e-01
8.424000000000000000e+03 2.800765800476074219e+01 5.494798660278320312e+00 -4.209081232547760010e-01 -3.455976247787475586e-01 -2.299517244100570679e-01 -3.456639051437377930e-01
8.425000000000000000e+03 2.761833190917968750e+01 4.951700210571289062e+00 -3.932772278785705566e-01 -3.068118989467620850e-01 -2.100267410278320312e-01 -3.218250274658203125e-01
8.426000000000000000e+03 2.456723022460937500e+01 3.055789470672607422e+00 -4.370850324630737305e-01 -2.186683863401412964e-01 -1.967260241508483887e-01 -2.972019910812377930e-01
8.427000000000000000e+03 2.249617195129394531e+01 1.752540349960327148e+00 -5.734884142875671387e-01 -1.898056417703628540e-01 -2.289882153272628784e-01 -3.042280972003936768e-01
8.428000000000000000e+03 2.233315849304199219e+01 1.638239860534667969e+00 -5.896160602569580078e-01 -1.864518821239471436e-01 -2.328203916549682617e-01 -3.049750924110412598e-01
8.429000000000000000e+03 2.148179817199707031e+01 1.128484606742858887e+00 -7.729568481445312500e-01 -2.026674598455429077e-01 -2.926872968673706055e-01 -2.879331409931182861e-01
8.430000000000000000e+03 2.096979713439941406e+01 8.090916872024536133e-01 -8.910648226737976074e-01 -2.035046368837356567e-01 -3.283708393573760986e-01 -2.733563482761383057e-01
8.431000000000000000e+03 2.354416084289550781e+01 2.388252258300781250e+00 -4.855338335037231445e-01 -1.970825791358947754e-01 -2.047849297523498535e-01 -2.898724675178527832e-01
8.432000000000000000e+03 2.522423934936523438e+01 4.140122890472412109e+00 -4.500694572925567627e-01 -2.325541526079177856e-01 -2.047870904207229614e-01 -3.237555325031280518e-01
8.433000000000000000e+03 2.577788734436035156e+01 4.142484188079833984e+00 -4.359595179557800293e-01 -2.502420842647552490e-01 -2.058604806661605835e-01 -3.242178559303283691e-01
8.434000000000000000e+03 2.091345596313476562e+01 1.713690042495727539e+00 -5.640109777450561523e-01 -1.859092712402343750e-01 -2.249760776758193970e-01 -2.966168224811553955e-01
8.435000000000000000e+03 2.337233734130859375e+01 2.300741434097290039e+00 -4.810708463191986084e-01 -1.902400851249694824e-01 -2.013932764530181885e-01 -2.917733788490295410e-01
8.436000000000000000e+03 2.489199066162109375e+01 3.406341314315795898e+00 -4.246679544448852539e-01 -2.202790826559066772e-01 -1.934841126203536987e-01 -2.999052405357360840e-01
8.437000000000000000e+03 2.883820724487304688e+01 5.658454418182373047e+00 -3.777424991130828857e-01 -1.775346100330352783e-01 -1.665831357240676880e-01 -2.830702364444732666e-01
8.438000000000000000e+03 2.854191970825195312e+01 5.962574481964111328e+00 -4.222336113452911377e-01 -2.958053648471832275e-01 -2.154116928577423096e-01 -3.195451796054840088e-01
8.439000000000000000e+03 2.817785644531250000e+01 5.623554706573486328e+00 -4.155907332897186279e-01 -3.369439840316772461e-01 -2.257604151964187622e-01 -3.317100703716278076e-01
8.440000000000000000e+03 2.474594879150390625e+01 3.141265630722045898e+00 -4.249099195003509521e-01 -2.170855849981307983e-01 -1.925986558198928833e-01 -2.923132777214050293e-01
8.441000000000000000e+03 2.469014930725097656e+01 3.378220081329345703e+00 -4.391193985939025879e-01 -2.236977368593215942e-01 -1.988451480865478516e-01 -3.028247058391571045e-01
8.442000000000000000e+03 2.319405364990234375e+01 2.760295867919921875e+00 -4.617531597614288330e-01 -1.968881189823150635e-01 -1.975923776626586914e-01 -2.904474139213562012e-01
8.443000000000000000e+03 2.271275901794433594e+01 2.695827960968017578e+00 -4.458168447017669678e-01 -1.854743957519531250e-01 -1.893873661756515503e-01 -2.914067506790161133e-01
8.444000000000000000e+03 2.165103340148925781e+01 1.230265378952026367e+00 -6.819559335708618164e-01 -1.952702701091766357e-01 -2.631678581237792969e-01 -3.066285550594329834e-01
8.445000000000000000e+03 2.101836776733398438e+01 1.156368136405944824e+00 -7.583003640174865723e-01 -1.904729157686233521e-01 -2.846319675445556641e-01 -2.914222478866577148e-01
8.446000000000000000e+03 1.959152603149414062e+01 -8.714351803064346313e-02 -1.403278708457946777e+00 2.497346699237823486e-01 -3.460631966590881348e-01 -1.703409254550933838e-01
8.447000000000000000e+03 1.910376167297363281e+01 -3.396536111831665039e-01 -1.482768654823303223e+00 3.517313301563262939e-01 -3.393112123012542725e-01 -4.244878888130187988e-01
8.448000000000000000e+03 1.737996482849121094e+01 -1.082728028297424316e+00 -1.482559561729431152e+00 -2.877760827541351318e-01 -5.311006903648376465e-01 -6.527062654495239258e-01
8.449000000000000000e+03 1.665299797058105469e+01 -1.366106986999511719e+00 -1.456732630729675293e+00 -6.204379796981811523e-01 -6.231511831283569336e-01 -5.267251729965209961e-01
8.450000000000000000e+03 2.560299110412597656e+01 4.036937236785888672e+00 -4.390892386436462402e-01 -2.440993636846542358e-01 -2.049565762281417847e-01 -3.205783069133758545e-01
8.451000000000000000e+03 2.556997489929199219e+01 3.676821708679199219e+00 -4.196066856384277344e-01 -2.419121563434600830e-01 -1.984556615352630615e-01 -3.078688979148864746e-01
8.452000000000000000e+03 2.267225265502929688e+01 1.856473326683044434e+00 -5.403000116348266602e-01 -1.833527535200119019e-01 -2.170958220958709717e-01 -2.936531007289886475e-01
8.453000000000000000e+03 1.875694274902343750e+01 1.500918716192245483e-01 -1.703650951385498047e+00 1.475604530423879623e-02 -5.066684484481811523e-01 -5.411274433135986328e-01
8.454000000000000000e+03 1.945619201660156250e+01 -1.930207461118698120e-01 -1.579291224479675293e+00 2.438475191593170166e-01 -4.006331264972686768e-01 -6.670153141021728516e-02
8.455000000000000000e+03 2.010481643676757812e+01 1.357575654983520508e+00 -7.124525308609008789e-01 -1.397269368171691895e-01 -2.556538581848144531e-01 -3.030781745910644531e-01
8.456000000000000000e+03 1.841072654724121094e+01 5.619067698717117310e-02 -1.642620563507080078e+00 -9.969756752252578735e-02 -5.226954221725463867e-01 -6.487798094749450684e-01
8.457000000000000000e+03 2.293848037719726562e+01 3.778915882110595703e+00 1.411989092826843262e+00 3.684253692626953125e-01 5.341243147850036621e-01 8.030900359153747559e-01
8.458000000000000000e+03 2.319155120849609375e+01 4.172224521636962891e+00 1.094159245491027832e+00 8.174275606870651245e-02 3.527705967426300049e-01 3.945666253566741943e-01
8.459000000000000000e+03 2.230008888244628906e+01 2.838378667831420898e+00 -4.293378591537475586e-01 -1.802337765693664551e-01 -1.828714907169342041e-01 -2.742830514907836914e-01
8.460000000000000000e+03 2.168866348266601562e+01 2.394690036773681641e+00 -4.337736368179321289e-01 -1.778804659843444824e-01 -1.834962218999862671e-01 -2.770760655403137207e-01
8.461000000000000000e+03 1.698645019531250000e+01 5.031378865242004395e-01 -1.702526926994323730e+00 -5.806584358215332031e-01 -6.849555969238281250e-01 -1.179347395896911621e+00
8.462000000000000000e+03 1.666123962402343750e+01 9.482248425483703613e-01 2.941961050033569336e+00 2.995332479476928711e-01 9.724482893943786621e-01 8.019893169403076172e-01
8.463000000000000000e+03 1.766868972778320312e+01 5.414660573005676270e-01 -4.247883796691894531e+00 -1.818579077720642090e+00 -1.819938778877258301e+00 -2.768076181411743164e+00
8.464000000000000000e+03 2.321248054504394531e+01 5.169775009155273438e+00 -3.708549976348876953e+00 -1.540637612342834473e+00 -1.574756264686584473e+00 -2.386401414871215820e+00
8.465000000000000000e+03 2.459815216064453125e+01 6.050763130187988281e+00 -3.698023080825805664e+00 -2.110023975372314453e+00 -1.742414116859436035e+00 -2.701133966445922852e+00
8.466000000000000000e+03 2.424361228942871094e+01 5.820015430450439453e+00 -3.827753543853759766e+00 -1.996696949005126953e+00 -1.747335195541381836e+00 -2.724363565444946289e+00
8.467000000000000000e+03 2.288629722595214844e+01 4.957085609436035156e+00 -3.253991365432739258e+00 -1.399520635604858398e+00 -1.396053552627563477e+00 -2.184199810028076172e+00
8.468000000000000000e+03 2.257455825805664062e+01 4.721637248992919922e+00 -2.760707855224609375e+00 -1.301170706748962402e+00 -1.218563556671142578e+00 -1.938006281852722168e+00
8.469000000000000000e+03 1.947818183898925781e+01 2.024142265319824219e+00 -8.327400088310241699e-01 -8.960465192794799805e-01 -5.186359882354736328e-01 -9.731981754302978516e-01
8.470000000000000000e+03 1.982610702514648438e+01 2.928222179412841797e+00 -7.651363611221313477e-01 -5.474506616592407227e-01 -3.937761187553405762e-01 -6.315283775329589844e-01
8.471000000000000000e+03 2.083228874206542969e+01 2.681646585464477539e+00 -3.231575787067413330e-01 -4.998100996017456055e-01 -2.468903064727783203e-01 -4.879932999610900879e-01
8.472000000000000000e+03 1.949709129333496094e+01 2.715226173400878906e+00 -4.523137807846069336e-01 -3.697640001773834229e-01 -2.466233372688293457e-01 -4.571405947208404541e-01
8.473000000000000000e+03 1.919207572937011719e+01 2.472609281539916992e+00 -6.638967990875244141e-02 -2.806749343872070312e-01 -1.041193902492523193e-01 -2.602312862873077393e-01
8.474000000000000000e+03 2.121676445007324219e+01 3.790680646896362305e+00 -1.752231240272521973e+00 -1.018393039703369141e+00 -8.311873078346252441e-01 -1.286117076873779297e+00
8.475000000000000000e+03 2.519695091247558594e+01 6.583257198333740234e+00 -3.962118625640869141e+00 -2.073699712753295898e+00 -1.810745477676391602e+00 -2.935288190841674805e+00
8.476000000000000000e+03 1.563149452209472656e+01 6.393854022026062012e-01 4.580579280853271484e+00 8.366008996963500977e-01 1.625154018402099609e+00 -2.236634045839309692e-01
8.477000000000000000e+03 2.067097282409667969e+01 2.069600105285644531e+00 -4.003253877162933350e-01 -1.513835340738296509e-01 -1.655126810073852539e-01 -2.422705590724945068e-01
8.478000000000000000e+03 1.747878456115722656e+01 6.543330848217010498e-02 -1.930342912673950195e+00 -6.707544326782226562e-01 -7.803292274475097656e-01 -1.160777330398559570e+00
8.479000000000000000e+03 2.746684837341308594e+01 5.217572212219238281e+00 -4.406495690345764160e-01 -3.239642083644866943e-01 -2.293841242790222168e-01 -3.568505048751831055e-01
8.480000000000000000e+03 2.720285987854003906e+01 7.952029705047607422e+00 -3.137718915939331055e+00 -1.928943395614624023e+00 -1.519998669624328613e+00 -2.382908344268798828e+00
8.481000000000000000e+03 2.720083045959472656e+01 7.676205158233642578e+00 -2.250306606292724609e+00 -1.289532065391540527e+00 -1.061951637268066406e+00 -1.731716394424438477e+00
8.482000000000000000e+03 2.689942932128906250e+01 7.720446586608886719e+00 -3.347524881362915039e+00 -2.063844680786132812e+00 -1.623410820960998535e+00 -2.649753093719482422e+00
8.483000000000000000e+03 2.759079551696777344e+01 7.387093544006347656e+00 -9.032512456178665161e-02 2.017400041222572327e-02 -2.104533649981021881e-02 -1.404683440923690796e-01
8.484000000000000000e+03 2.735442161560058594e+01 8.031585693359375000e+00 -2.965160846710205078e+00 -1.476523995399475098e+00 -1.332505464553833008e+00 -2.237262964248657227e+00
8.485000000000000000e+03 2.757423591613769531e+01 7.161364555358886719e+00 8.839063644409179688e-01 4.698509275913238525e-01 4.061271846294403076e-01 5.250005125999450684e-01
8.486000000000000000e+03 1.913147354125976562e+01 1.708049178123474121e+00 -1.340525746345520020e+00 -9.990688562393188477e-01 -7.018783688545227051e-01 -1.223041057586669922e+00
8.487000000000000000e+03 1.783256149291992188e+01 6.709766387939453125e-01 -4.100259780883789062e+00 -1.731987357139587402e+00 -1.749674081802368164e+00 -2.608469009399414062e+00
8.488000000000000000e+03 2.203362846374511719e+01 3.262252807617187500e+00 7.795852422714233398e-01 1.232281327247619629e-01 2.708440124988555908e-01 3.386576175689697266e-01
8.489000000000000000e+03 2.494200134277343750e+01 5.372527599334716797e+00 1.257572770118713379e+00 3.060607910156250000e-01 4.690900743007659912e-01 7.829476594924926758e-01
8.490000000000000000e+03 2.355599021911621094e+01 4.197517395019531250e+00 2.109693288803100586e+00 6.130282282829284668e-01 8.168164491653442383e-01 1.122149109840393066e+00
8.491000000000000000e+03 1.835742568969726562e+01 9.198219180107116699e-01 -3.532407522201538086e+00 -1.399897098541259766e+00 -1.479691386222839355e+00 -2.288661718368530273e+00
8.492000000000000000e+03 1.981208992004394531e+01 1.908708810806274414e+00 -1.333790302276611328e+00 -7.426155805587768555e-01 -6.229217648506164551e-01 -1.086066365242004395e+00
8.493000000000000000e+03 1.889168930053710938e+01 1.260418415069580078e+00 -2.961656332015991211e+00 -1.174677848815917969e+00 -1.240900278091430664e+00 -1.853426337242126465e+00
8.494000000000000000e+03 2.579296684265136719e+01 5.605371475219726562e+00 3.055162906646728516e+00 1.144311904907226562e+00 1.259842395782470703e+00 1.803621172904968262e+00
8.495000000000000000e+03 2.328168487548828125e+01 4.355839252471923828e+00 7.251626253128051758e-01 -2.151427865028381348e-01 1.530059427022933960e-01 4.309814423322677612e-02
8.496000000000000000e+03 1.962993812561035156e+01 1.788683295249938965e+00 -1.664626717567443848e+00 -8.958963155746459961e-01 -7.681568861007690430e-01 -1.175728201866149902e+00
8.497000000000000000e+03 2.154427337646484375e+01 2.975977420806884766e+00 3.256796896457672119e-01 -1.114619895815849304e-01 6.426531076431274414e-02 -9.233530610799789429e-03
8.498000000000000000e+03 2.562596130371093750e+01 5.488987922668457031e+00 2.999752283096313477e+00 1.035010457038879395e+00 1.210428833961486816e+00 1.855984210968017578e+00
8.499000000000000000e+03 2.240906715393066406e+01 3.824522256851196289e+00 3.160534799098968506e-01 -3.564373254776000977e-01 -1.211515720933675766e-02 -1.930875778198242188e-01
8.500000000000000000e+03 1.945355224609375000e+01 1.662100911140441895e+00 -1.750111818313598633e+00 -9.087991118431091309e-01 -7.976732850074768066e-01 -1.381321907043457031e+00
8.501000000000000000e+03 2.344686126708984375e+01 4.526854038238525391e+00 4.653610885143280029e-01 -3.442887365818023682e-01 3.632170334458351135e-02 -1.431649625301361084e-01
8.502000000000000000e+03 2.002790832519531250e+01 2.680840253829956055e+00 -5.784438252449035645e-01 -7.822083830833435059e-01 -4.081956446170806885e-01 -7.976261973381042480e-01
8.503000000000000000e+03 1.999521446228027344e+01 2.037484884262084961e+00 -1.193634390830993652e+00 -7.308582663536071777e-01 -5.773478150367736816e-01 -9.245256185531616211e-01
8.504000000000000000e+03 2.472340774536132812e+01 5.524893760681152344e+00 -6.862461566925048828e-01 -6.860229969024658203e-01 -4.116807281970977783e-01 -5.714119672775268555e-01
8.505000000000000000e+03 1.850706863403320312e+01 1.045880794525146484e+00 -3.226899147033691406e+00 -1.389263272285461426e+00 -1.384848713874816895e+00 -2.151304006576538086e+00
8.506000000000000000e+03 1.807388114929199219e+01 1.353222250938415527e+00 -1.622629612684249878e-01 -7.662156820297241211e-01 -2.785435914993286133e-01 -6.892204284667968750e-01
8.507000000000000000e+03 2.476775360107421875e+01 5.282151699066162109e+00 1.004131317138671875e+00 1.306602507829666138e-01 3.404374420642852783e-01 5.352697372436523438e-01
8.508000000000000000e+03 1.802577590942382812e+01 7.688775658607482910e-01 -3.975798845291137695e+00 -1.596192717552185059e+00 -1.671597480773925781e+00 -2.510402917861938477e+00
8.509000000000000000e+03 1.751261901855468750e+01 4.459056854248046875e-01 -4.514776229858398438e+00 -1.452042222023010254e+00 -1.790045619010925293e+00 -2.861074209213256836e+00
8.510000000000000000e+03 1.748308944702148438e+01 7.161186337471008301e-01 -1.814814329147338867e+00 -8.648114800453186035e-01 -8.038877844810485840e-01 -1.622546195983886719e+00
8.511000000000000000e+03 2.175073432922363281e+01 3.445808649063110352e+00 -1.765026450157165527e-01 -5.225410461425781250e-01 -2.097131013870239258e-01 -4.442503154277801514e-01
8.512000000000000000e+03 2.698365974426269531e+01 6.330865859985351562e+00 3.198600530624389648e+00 1.244168758392333984e+00 1.332830786705017090e+00 1.886193990707397461e+00
8.513000000000000000e+03 2.316289901733398438e+01 4.730809688568115234e+00 -1.471845746040344238e+00 -1.030805826187133789e+00 -7.507954835891723633e-01 -1.320696473121643066e+00
8.514000000000000000e+03 2.390306663513183594e+01 4.072781562805175781e+00 -4.664602875709533691e-01 -1.901778727769851685e-01 -1.969914436340332031e-01 -2.958137094974517822e-01
8.515000000000000000e+03 2.434104156494140625e+01 4.051373481750488281e+00 -4.661704599857330322e-01 -2.067244946956634521e-01 -2.018684893846511841e-01 -3.103719353675842285e-01
8.516000000000000000e+03 1.749348831176757812e+01 -2.773938775062561035e-01 -1.868702411651611328e+00 -4.935691952705383301e-01 -7.086814641952514648e-01 -1.009934782981872559e+00
8.517000000000000000e+03 1.681100463867187500e+01 -3.843196630477905273e-01 -2.181785106658935547e+00 -7.600060105323791504e-01 -8.825373053550720215e-01 -1.278168082237243652e+00
8.518000000000000000e+03 2.064845657348632812e+01 1.720833301544189453e+00 -5.278124213218688965e-01 -1.747759431600570679e-01 -2.107765078544616699e-01 -2.914085388183593750e-01
8.519000000000000000e+03 2.354714202880859375e+01 3.523911237716674805e+00 -4.471561908721923828e-01 -1.925068646669387817e-01 -1.918989121913909912e-01 -2.912993431091308594e-01
8.520000000000000000e+03 2.284470939636230469e+01 3.051742553710937500e+00 -4.368840157985687256e-01 -1.868114173412322998e-01 -1.871086359024047852e-01 -2.874065041542053223e-01
8.521000000000000000e+03 2.114830780029296875e+01 1.961969375610351562e+00 -4.769913256168365479e-01 -1.784735918045043945e-01 -1.966394782066345215e-01 -2.882275879383087158e-01
8.522000000000000000e+03 2.664954948425292969e+01 5.772653579711914062e+00 -6.295834183692932129e-01 -2.732172906398773193e-01 -2.708401978015899658e-01 -4.155073761940002441e-01
8.523000000000000000e+03 2.085013771057128906e+01 2.169435262680053711e+00 -3.912618160247802734e-01 -1.552737057209014893e-01 -1.639606654644012451e-01 -2.422913610935211182e-01
8.524000000000000000e+03 2.347192382812500000e+01 2.782396554946899414e+00 -4.762696325778961182e-01 -1.929377019405364990e-01 -2.007621973752975464e-01 -2.910132110118865967e-01
8.525000000000000000e+03 2.442706489562988281e+01 4.389493942260742188e+00 -4.865564107894897461e-01 -2.022133767604827881e-01 -2.066309303045272827e-01 -3.105600774288177490e-01
8.526000000000000000e+03 1.697849273681640625e+01 -2.681143581867218018e-01 -2.105160951614379883e+00 -7.653771638870239258e-01 -8.611614108085632324e-01 -1.242287993431091309e+00
8.527000000000000000e+03 1.953655624389648438e+01 1.334767699241638184e+00 -7.316548824310302734e-01 -1.966196298599243164e-01 -2.784823477268218994e-01 -3.592398762702941895e-01
8.528000000000000000e+03 1.868786430358886719e+01 5.500091910362243652e-01 -1.565046668052673340e+00 -1.967494189739227295e-01 -5.285388231277465820e-01 -6.203535199165344238e-01
8.529000000000000000e+03 1.882062339782714844e+01 9.368521571159362793e-01 -1.126951813697814941e+00 -3.240710496902465820e-01 -4.353068768978118896e-01 -6.369734406471252441e-01
8.530000000000000000e+03 2.038509559631347656e+01 1.609160423278808594e+00 -5.732842087745666504e-01 -1.705102324485778809e-01 -2.231383323669433594e-01 -2.881498038768768311e-01
8.531000000000000000e+03 2.033870124816894531e+01 1.899681448936462402e+00 -4.296526312828063965e-01 -1.660227775573730469e-01 -1.787026226520538330e-01 -2.429306805133819580e-01
8.532000000000000000e+03 1.850164413452148438e+01 7.063417434692382812e-01 -1.394230246543884277e+00 -4.062857627868652344e-01 -5.401548147201538086e-01 -7.749583125114440918e-01
8.533000000000000000e+03 2.476949882507324219e+01 4.374063491821289062e+00 -4.772237241268157959e-01 -2.103288620710372925e-01 -2.062657773494720459e-01 -3.195419609546661377e-01
8.534000000000000000e+03 2.643661117553710938e+01 5.221018314361572266e+00 -5.349321365356445312e-01 -2.755835652351379395e-01 -2.431547045707702637e-01 -3.785665929317474365e-01
8.535000000000000000e+03 1.714562606811523438e+01 -1.553380340337753296e-01 -2.038682699203491211e+00 -7.140710949897766113e-01 -8.258261084556579590e-01 -1.235569953918457031e+00
8.536000000000000000e+03 2.687044715881347656e+01 5.361169338226318359e+00 -5.226919054985046387e-01 -3.028255403041839600e-01 -2.476552277803421021e-01 -3.929042518138885498e-01
8.537000000000000000e+03 2.709128570556640625e+01 5.285356521606445312e+00 -4.970079660415649414e-01 -3.175963759422302246e-01 -2.443813085556030273e-01 -3.856885731220245361e-01
8.538000000000000000e+03 2.118954086303710938e+01 1.274497270584106445e+00 -7.230750322341918945e-01 -2.139432430267333984e-01 -2.811054885387420654e-01 -2.942689359188079834e-01
8.539000000000000000e+03 2.019433784484863281e+01 1.759514331817626953e+00 -4.684588015079498291e-01 -1.463286280632019043e-01 -1.844362318515777588e-01 -2.612872421741485596e-01
8.540000000000000000e+03 2.018190765380859375e+01 1.064736366271972656e+00 -9.134211540222167969e-01 -1.430042833089828491e-01 -3.169276118278503418e-01 -2.632653415203094482e-01
8.541000000000000000e+03 1.935871696472167969e+01 1.216935992240905762e+00 -8.295932412147521973e-01 -2.027368247509002686e-01 -3.096990287303924561e-01 -4.061403274536132812e-01
8.542000000000000000e+03 2.539921188354492188e+01 3.561335802078247070e+00 -4.141488373279571533e-01 -2.364329546689987183e-01 -1.951745450496673584e-01 -3.037916719913482666e-01
8.543000000000000000e+03 1.571566581726074219e+01 -1.323912382125854492e+00 -1.784665226936340332e+00 -6.121131777763366699e-01 -7.190335392951965332e-01 -7.192049026489257812e-01
8.544000000000000000e+03 2.263900375366210938e+01 2.504871845245361328e+00 -4.726565182209014893e-01 -1.894385367631912231e-01 -1.986285150051116943e-01 -2.888569831848144531e-01
8.545000000000000000e+03 2.800488471984863281e+01 5.848486900329589844e+00 -4.794031381607055664e-01 -3.907551169395446777e-01 -2.610474824905395508e-01 -3.946211934089660645e-01
8.546000000000000000e+03 1.719545364379882812e+01 -1.510667562484741211e+00 -1.265888214111328125e+00 -3.356698453426361084e-01 -4.804674088954925537e-01 -4.987341165542602539e-01
8.547000000000000000e+03 1.787138938903808594e+01 -1.097423791885375977e+00 -1.361814737319946289e+00 -8.493612706661224365e-02 -4.340252578258514404e-01 -5.787330865859985352e-01
8.548000000000000000e+03 2.079612731933593750e+01 7.050688266754150391e-01 -9.920096397399902344e-01 -2.386625558137893677e-01 -3.692016601562500000e-01 -2.254242151975631714e-01
8.549000000000000000e+03 2.169133377075195312e+01 1.558170557022094727e+00 -5.996341109275817871e-01 -1.958599686622619629e-01 -2.386482357978820801e-01 -3.085276782512664795e-01
8.550000000000000000e+03 2.729758262634277344e+01 5.097759246826171875e+00 -4.415878951549530029e-01 -3.154319524765014648e-01 -2.271059453487396240e-01 -3.558539450168609619e-01
8.551000000000000000e+03 2.415109443664550781e+01 3.541301012039184570e+00 -4.483910799026489258e-01 -2.057277560234069824e-01 -1.962356567382812500e-01 -2.982119917869567871e-01
8.552000000000000000e+03 2.448440170288085938e+01 3.341402530670166016e+00 -4.325933456420898438e-01 -2.115198075771331787e-01 -1.932339370250701904e-01 -2.970330715179443359e-01
8.553000000000000000e+03 1.683305740356445312e+01 -1.691916942596435547e+00 -1.137406945228576660e+00 -5.204980969429016113e-01 -4.973715245723724365e-01 -5.163313150405883789e-01
8.554000000000000000e+03 2.622740745544433594e+01 7.297908306121826172e+00 -3.989993333816528320e+00 -2.318603277206420898e+00 -1.892578959465026855e+00 -3.013024568557739258e+00
8.555000000000000000e+03 2.697657012939453125e+01 5.983730792999267578e+00 -6.760921478271484375e-01 -2.996824979782104492e-01 -2.927323877811431885e-01 -4.419696927070617676e-01
8.556000000000000000e+03 2.779113769531250000e+01 5.052097320556640625e+00 -3.874778449535369873e-01 -3.089077174663543701e-01 -2.089156657457351685e-01 -3.172782659530639648e-01
8.557000000000000000e+03 2.248469924926757812e+01 4.194937229156494141e+00 -8.576535582542419434e-01 -8.033716678619384766e-01 -4.983075559139251709e-01 -9.184820055961608887e-01
8.558000000000000000e+03 2.810100364685058594e+01 6.046474933624267578e+00 -5.068660974502563477e-01 -4.184101819992065430e-01 -2.775828838348388672e-01 -4.161061942577362061e-01
8.559000000000000000e+03 2.771772384643554688e+01 5.859869003295898438e+00 -5.332263708114624023e-01 -3.814300596714019775e-01 -2.743969261646270752e-01 -4.319859147071838379e-01
8.560000000000000000e+03 2.727552604675292969e+01 5.811677932739257812e+00 -5.953270196914672852e-01 -3.371798992156982422e-01 -2.797520756721496582e-01 -4.393705427646636963e-01
8.561000000000000000e+03 1.802574157714843750e+01 -6.289025545120239258e-01 -1.566563248634338379e+00 -3.702718392014503479e-02 -4.810771048069000244e-01 -6.912436485290527344e-01
8.562000000000000000e+03 2.210570907592773438e+01 2.492837190628051758e+00 -4.456624686717987061e-01 -1.826708018779754639e-01 -1.884999871253967285e-01 -2.803618907928466797e-01
8.563000000000000000e+03 2.677413558959960938e+01 6.737572669982910156e+00 4.795393943786621094e-01 8.826507627964019775e-02 1.703413426876068115e-01 2.704170942306518555e-01
8.564000000000000000e+03 2.137590599060058594e+01 2.484710216522216797e+00 -3.927959203720092773e-01 -1.601908057928085327e-01 -1.658960133790969849e-01 -2.480741739273071289e-01
8.565000000000000000e+03 2.203787803649902344e+01 2.063200950622558594e+00 -5.009680390357971191e-01 -1.912577599287033081e-01 -2.076677381992340088e-01 -3.090123832225799561e-01
8.566000000000000000e+03 2.509796905517578125e+01 3.919186592102050781e+00 -4.513281583786010742e-01 -2.282895892858505249e-01 -2.038853317499160767e-01 -3.131921291351318359e-01
8.567000000000000000e+03 2.195049285888671875e+01 1.871048808097839355e+00 -5.540092587471008301e-01 -1.972590088844299316e-01 -2.253804802894592285e-01 -3.078901469707489014e-01
8.568000000000000000e+03 2.650942611694335938e+01 5.975653648376464844e+00 3.288032293319702148e+00 1.219039201736450195e+00 1.352121472358703613e+00 2.021090030670166016e+00
8.569000000000000000e+03 2.526243782043457031e+01 3.778376102447509766e+00 -4.344971179962158203e-01 -2.332679033279418945e-01 -2.003294974565505981e-01 -3.095400631427764893e-01
8.570000000000000000e+03 2.581404304504394531e+01 5.989075660705566406e+00 1.044853448867797852e+00 2.416445314884185791e-01 3.859493732452392578e-01 4.666877985000610352e-01
8.571000000000000000e+03 2.056393432617187500e+01 2.613148450851440430e+00 -4.592506587505340576e-01 -6.776230335235595703e-01 -3.410620987415313721e-01 -6.734824180603027344e-01
8.572000000000000000e+03 2.220507812500000000e+01 4.010235309600830078e+00 -8.646178841590881348e-01 -7.575701475143432617e-01 -4.866563975811004639e-01 -9.048994779586791992e-01
8.573000000000000000e+03 2.517549514770507812e+01 5.827631950378417969e+00 -6.736490726470947266e-01 -3.501331806182861328e-01 -3.071346580982208252e-01 -5.092191696166992188e-01
8.574000000000000000e+03 2.293656158447265625e+01 4.501118659973144531e+00 -9.424220323562622070e-01 -8.205414414405822754e-01 -5.288890600204467773e-01 -9.933202862739562988e-01
8.575000000000000000e+03 2.442124557495117188e+01 5.519610404968261719e+00 -1.602870464324951172e+00 -1.107712268829345703e+00 -8.131747841835021973e-01 -1.229016780853271484e+00
8.576000000000000000e+03 2.104181480407714844e+01 3.073762416839599609e+00 -4.221618473529815674e-01 -6.985437273979187012e-01 -3.362116813659667969e-01 -7.177804112434387207e-01
8.577000000000000000e+03 2.142096900939941406e+01 3.482760190963745117e+00 -6.841606497764587402e-01 -8.249711990356445312e-01 -4.527395665645599365e-01 -8.832371234893798828e-01
8.578000000000000000e+03 2.412429046630859375e+01 5.373105525970458984e+00 -1.910158634185791016e+00 -1.190960884094238281e+00 -9.303358197212219238e-01 -1.435545086860656738e+00
8.579000000000000000e+03 2.116611099243164062e+01 3.312534093856811523e+00 -6.883885264396667480e-01 -8.693255782127380371e-01 -4.673142135143280029e-01 -8.640626072883605957e-01
8.580000000000000000e+03 1.517877674102783203e+01 2.289497256278991699e-01 -4.616634547710418701e-01 1.551069617271423340e+00 3.268218636512756348e-01 -9.996449947357177734e-01
8.581000000000000000e+03 2.783670806884765625e+01 5.383440017700195312e+00 -4.255828857421875000e-01 -3.356839418411254883e-01 -2.283800542354583740e-01 -3.488800227642059326e-01
8.582000000000000000e+03 1.819314384460449219e+01 -5.126250386238098145e-01 -1.602428913116455078e+00 -3.466912358999252319e-02 -4.911294281482696533e-01 -6.550091505050659180e-01
8.583000000000000000e+03 2.597503852844238281e+01 5.709755897521972656e+00 3.136011123657226562e+00 1.092853665351867676e+00 1.268659472465515137e+00 1.821285367012023926e+00
8.584000000000000000e+03 1.796308708190917969e+01 1.059279084205627441e+00 -1.272770881652832031e+00 -1.031079053878784180e+00 -6.911549568176269531e-01 -1.367092490196228027e+00
8.585000000000000000e+03 2.720183753967285156e+01 6.784772396087646484e+00 1.495572805404663086e+00 5.511906147003173828e-01 6.140290498733520508e-01 9.922049045562744141e-01
8.586000000000000000e+03 1.673983955383300781e+01 5.516457557678222656e-01 -8.035827279090881348e-01 -2.138226628303527832e-01 -3.052216172218322754e-01 -6.501827239990234375e-01
8.587000000000000000e+03 2.389292526245117188e+01 4.802043437957763672e+00 5.994016528129577637e-01 -1.829601526260375977e-01 1.249324530363082886e-01 -3.036910668015480042e-02
8.588000000000000000e+03 1.610945892333984375e+01 3.070570528507232666e-01 -5.523322820663452148e-01 1.168649941682815552e-01 -1.306401789188385010e-01 -6.918593645095825195e-01
8.589000000000000000e+03 2.368414306640625000e+01 3.659442424774169922e+00 -4.495406448841094971e-01 -1.917360723018646240e-01 -1.923830211162567139e-01 -2.914906442165374756e-01
8.590000000000000000e+03 2.561004066467285156e+01 4.838339805603027344e+00 -5.164582729339599609e-01 -2.349517047405242920e-01 -2.254229784011840820e-01 -3.473464250564575195e-01
8.591000000000000000e+03 2.371541023254394531e+01 2.803117275238037109e+00 -4.594123959541320801e-01 -2.016559243202209473e-01 -1.983204931020736694e-01 -2.925669252872467041e-01
8.592000000000000000e+03 2.558269309997558594e+01 4.275063514709472656e+00 -4.473183453083038330e-01 -2.426225692033767700e-01 -2.069822698831558228e-01 -3.271974623203277588e-01
8.593000000000000000e+03 2.534510612487792969e+01 4.405199050903320312e+00 -4.779825508594512939e-01 -2.337810099124908447e-01 -2.135290652513504028e-01 -3.303796350955963135e-01
8.594000000000000000e+03 2.360383987426757812e+01 3.146109819412231445e+00 -4.541960358619689941e-01 -2.006217390298843384e-01 -1.964453309774398804e-01 -2.936008870601654053e-01
8.595000000000000000e+03 2.136069869995117188e+01 1.376713991165161133e+00 -6.619899868965148926e-01 -1.976866126060485840e-01 -2.579029798507690430e-01 -3.134055733680725098e-01
8.596000000000000000e+03 1.911192321777343750e+01 8.317236304283142090e-01 -1.164602875709533691e+00 -1.459460258483886719e-01 -3.931646645069122314e-01 -4.735346734523773193e-01
8.597000000000000000e+03 2.709817886352539062e+01 5.751211166381835938e+00 -5.953392982482910156e-01 -3.170454800128936768e-01 -2.737154364585876465e-01 -4.308057725429534912e-01
8.598000000000000000e+03 2.756222724914550781e+01 5.541855812072753906e+00 -4.805731475353240967e-01 -3.482978343963623047e-01 -2.486612945795059204e-01 -3.909128904342651367e-01
8.599000000000000000e+03 1.706620979309082031e+01 -1.017040967941284180e+00 -1.742451906204223633e+00 -4.085220396518707275e-01 -6.452921628952026367e-01 -7.364900112152099609e-01
8.600000000000000000e+03 2.030491447448730469e+01 7.856969833374023438e-01 -1.011997461318969727e+00 -1.179869323968887329e-01 -3.389953374862670898e-01 -2.099449783563613892e-01
8.601000000000000000e+03 2.607737541198730469e+01 4.842619895935058594e+00 -4.896323382854461670e-01 -2.603129148483276367e-01 -2.249835729598999023e-01 -3.558726906776428223e-01
8.602000000000000000e+03 2.666492843627929688e+01 4.805519580841064453e+00 -4.581493437290191650e-01 -2.840666174888610840e-01 -2.226647883653640747e-01 -3.489574491977691650e-01
8.603000000000000000e+03 2.630720329284667969e+01 4.768382549285888672e+00 -4.782382249832153320e-01 -2.703047692775726318e-01 -2.245628982782363892e-01 -3.525284528732299805e-01
8.604000000000000000e+03 2.283657073974609375e+01 1.973399281501770020e+00 -5.315809845924377441e-01 -1.931518763303756714e-01 -2.174198627471923828e-01 -3.021493852138519287e-01
8.605000000000000000e+03 2.334562683105468750e+01 2.934128522872924805e+00 -4.466582834720611572e-01 -2.019931674003601074e-01 -1.945954412221908569e-01 -3.013605773448944092e-01
8.606000000000000000e+03 1.984938049316406250e+01 5.231701135635375977e-01 -1.187130689620971680e+00 5.357007030397653580e-03 -3.545320928096771240e-01 -1.827668994665145874e-01
8.607000000000000000e+03 2.011395072937011719e+01 7.077939510345458984e-01 -1.135628461837768555e+00 -1.164408400654792786e-01 -3.756207823753356934e-01 -2.123302519321441650e-01
8.608000000000000000e+03 1.963491249084472656e+01 7.110378742218017578e-01 -1.269035696983337402e+00 -4.043385386466979980e-02 -3.928408622741699219e-01 -2.904676496982574463e-01
8.609000000000000000e+03 1.723280715942382812e+01 -1.188942551612854004e+00 -1.528685212135314941e+00 -3.289645910263061523e-01 -5.572949051856994629e-01 -6.483582854270935059e-01
8.610000000000000000e+03 1.616164016723632812e+01 -1.410947084426879883e+00 -1.544349789619445801e+00 -8.437088727951049805e-01 -7.164176106452941895e-01 -5.621385574340820312e-01
8.611000000000000000e+03 2.569254302978515625e+01 4.493881225585937500e+00 -4.769851863384246826e-01 -2.443266063928604126e-01 -2.163935452699661255e-01 -3.373431861400604248e-01
8.612000000000000000e+03 1.685601615905761719e+01 -1.279227972030639648e+00 -1.676726222038269043e+00 -4.777957797050476074e-01 -6.463565826416015625e-01 -5.608063936233520508e-01
8.613000000000000000e+03 1.799986267089843750e+01 -2.705654203891754150e-01 -1.717370152473449707e+00 -1.894792765378952026e-01 -5.720548033714294434e-01 -7.793005108833312988e-01
8.614000000000000000e+03 2.143686676025390625e+01 1.690131187438964844e+00 -5.565494298934936523e-01 -1.827265322208404541e-01 -2.217827886343002319e-01 -3.112133145332336426e-01
8.615000000000000000e+03 2.634053611755371094e+01 6.562598705291748047e+00 -1.025919988751411438e-01 -3.405526280403137207e-01 -1.329433917999267578e-01 -1.496443003416061401e-01
8.616000000000000000e+03 2.582064056396484375e+01 6.539969921112060547e+00 -1.925631523132324219e+00 -1.129254817962646484e+00 -9.164658784866333008e-01 -1.477772235870361328e+00
8.617000000000000000e+03 2.690040969848632812e+01 7.386531829833984375e+00 -2.042499303817749023e+00 -1.179099559783935547e+00 -9.664796590805053711e-01 -1.548043966293334961e+00
8.618000000000000000e+03 2.739855003356933594e+01 6.886539459228515625e+00 1.661192417144775391e+00 6.750513315200805664e-01 7.008731365203857422e-01 1.011756539344787598e+00
8.619000000000000000e+03 2.546012306213378906e+01 6.374949455261230469e+00 -2.201284646987915039e+00 -1.262870907783508301e+00 -1.039246678352355957e+00 -1.748068451881408691e+00
8.620000000000000000e+03 2.576717567443847656e+01 6.282899379730224609e+00 -7.415332794189453125e-01 -4.568479955196380615e-01 -3.595143854618072510e-01 -6.465821266174316406e-01
8.621000000000000000e+03 2.224742889404296875e+01 2.353343725204467773e+00 -4.636076390743255615e-01 -1.938738077878952026e-01 -1.972444355487823486e-01 -3.049215078353881836e-01
8.622000000000000000e+03 1.846948242187500000e+01 3.501643538475036621e-01 -1.627025008201599121e+00 -2.140285521745681763e-01 -5.523160696029663086e-01 -6.954732537269592285e-01
8.623000000000000000e+03 2.635047340393066406e+01 7.097494602203369141e+00 -2.722445726394653320e+00 -1.589631319046020508e+00 -1.293623089790344238e+00 -1.964685320854187012e+00
8.624000000000000000e+03 1.812079811096191406e+01 1.768802553415298462e-01 -1.713888883590698242e+00 -3.277335762977600098e-01 -6.124867200851440430e-01 -8.328586220741271973e-01
8.625000000000000000e+03 2.571139526367187500e+01 6.977231502532958984e+00 -4.401653766632080078e+00 -2.306222677230834961e+00 -2.012362957000732422e+00 -3.103672981262207031e+00
8.626000000000000000e+03 2.285479354858398438e+01 4.230628013610839844e+00 -1.082432791590690613e-01 -5.049328207969665527e-01 -1.839528232812881470e-01 -4.580359756946563721e-01
8.627000000000000000e+03 1.606735420227050781e+01 -3.954804837703704834e-01 -3.524469375610351562e+00 -2.550314068794250488e-01 -1.133850216865539551e+00 -1.921963214874267578e+00
8.628000000000000000e+03 1.644632148742675781e+01 -1.453485488891601562e+00 -1.486107587814331055e+00 -6.985402703285217285e-01 -6.553943157196044922e-01 -6.286024451255798340e-01
8.629000000000000000e+03 1.625562286376953125e+01 -1.167083740234375000e+00 -2.070935010910034180e+00 -7.839342355728149414e-01 -8.564607501029968262e-01 -4.860530197620391846e-01
8.630000000000000000e+03 1.906036376953125000e+01 1.955818653106689453e+00 -5.174458622932434082e-01 -7.558127641677856445e-01 -3.819775879383087158e-01 -8.157695531845092773e-01
8.631000000000000000e+03 1.830961990356445312e+01 -2.198664695024490356e-01 -1.737315654754638672e+00 -1.266515552997589111e-01 -5.591901540756225586e-01 -7.300940155982971191e-01
8.632000000000000000e+03 1.897157478332519531e+01 5.663049221038818359e-01 -1.508233785629272461e+00 -9.088180959224700928e-02 -4.797346889972686768e-01 -5.259099602699279785e-01
8.633000000000000000e+03 2.714145660400390625e+01 5.515115261077880859e+00 -5.284144878387451172e-01 -3.198491632938385010e-01 -2.544790804386138916e-01 -4.034490883350372314e-01
8.634000000000000000e+03 2.736359596252441406e+01 5.513992786407470703e+00 -5.058475136756896973e-01 -3.416362702846527100e-01 -2.542451322078704834e-01 -3.994720280170440674e-01
8.635000000000000000e+03 2.710399055480957031e+01 7.190565109252929688e+00 -6.824033856391906738e-01 -2.845671474933624268e-01 -2.900911569595336914e-01 -4.194025695323944092e-01
8.636000000000000000e+03 2.526805114746093750e+01 6.093179225921630859e+00 -1.543870806694030762e+00 -7.855846285820007324e-01 -6.988366246223449707e-01 -1.199680447578430176e+00
8.637000000000000000e+03 2.039383125305175781e+01 1.114218592643737793e+00 -8.291010856628417969e-01 -1.407697945833206177e-01 -2.909612655639648438e-01 -2.710129618644714355e-01
8.638000000000000000e+03 2.417414855957031250e+01 3.933209896087646484e+00 -4.599170088768005371e-01 -2.017316073179244995e-01 -1.984945833683013916e-01 -3.036822080612182617e-01
8.639000000000000000e+03 2.251664733886718750e+01 2.358477115631103516e+00 -4.707204997539520264e-01 -1.962461471557617188e-01 -2.000899910926818848e-01 -3.049809038639068604e-01
8.640000000000000000e+03 1.867271995544433594e+01 3.759214282035827637e-01 -1.434211492538452148e+00 -1.506503969430923462e-01 -4.754585623741149902e-01 -5.816671848297119141e-01
8.641000000000000000e+03 1.949674224853515625e+01 9.525567889213562012e-01 -1.043023586273193359e+00 -1.193855181336402893e-01 -3.487227261066436768e-01 -3.611717522144317627e-01
8.642000000000000000e+03 1.783939170837402344e+01 -3.905213475227355957e-01 -1.726400971412658691e+00 -2.616433799266815186e-01 -5.964133143424987793e-01 -8.186672329902648926e-01
8.643000000000000000e+03 2.321898460388183594e+01 3.217948198318481445e+00 -4.402983188629150391e-01 -1.884103268384933472e-01 -1.886125952005386353e-01 -2.860231399536132812e-01
8.644000000000000000e+03 2.300796318054199219e+01 2.877877712249755859e+00 -4.352682232856750488e-01 -1.901292055845260620e-01 -1.876192241907119751e-01 -2.933246493339538574e-01
8.645000000000000000e+03 2.580160903930664062e+01 4.695583820343017578e+00 -4.842958152294158936e-01 -2.469493597745895386e-01 -2.193735539913177490e-01 -3.461804687976837158e-01
8.646000000000000000e+03 2.489657402038574219e+01 4.026909351348876953e+00 -4.502012133598327637e-01 -2.221088558435440063e-01 -2.016930282115936279e-01 -3.185938596725463867e-01
8.647000000000000000e+03 1.720486450195312500e+01 -8.704810738563537598e-01 -1.849743485450744629e+00 -3.819466531276702881e-01 -6.695070862770080566e-01 -8.281680941581726074e-01
8.648000000000000000e+03 1.967807006835937500e+01 1.468261122703552246e+00 -6.233287453651428223e-01 -1.975669711828231812e-01 -2.462687194347381592e-01 -3.279930353164672852e-01
8.649000000000000000e+03 1.999178695678710938e+01 9.750122427940368652e-01 -9.335317611694335938e-01 -9.086634963750839233e-02 -3.073194324970245361e-01 -2.669088840484619141e-01
8.650000000000000000e+03 1.881453514099121094e+01 -1.145941466093063354e-01 -1.550672531127929688e+00 2.139765024185180664e-01 -4.010087847709655762e-01 -4.826581776142120361e-01
8.651000000000000000e+03 2.476461601257324219e+01 3.816526651382446289e+00 -4.521001279354095459e-01 -2.191944122314453125e-01 -2.013883590698242188e-01 -3.057507276535034180e-01
8.652000000000000000e+03 2.222923851013183594e+01 2.596244335174560547e+00 -4.393725395202636719e-01 -1.872985661029815674e-01 -1.880013346672058105e-01 -2.840341627597808838e-01
8.653000000000000000e+03 2.157818603515625000e+01 1.730562210083007812e+00 -5.792374014854431152e-01 -2.054459601640701294e-01 -2.354050129652023315e-01 -3.149498701095581055e-01
8.654000000000000000e+03 1.753607368469238281e+01 -9.707576036453247070e-01 -1.589043498039245605e+00 -2.407624274492263794e-01 -5.489417910575866699e-01 -6.999745368957519531e-01
8.655000000000000000e+03 1.557396507263183594e+01 -2.852958738803863525e-01 -4.451873302459716797e+00 1.106176137924194336e+00 -1.003709197044372559e+00 -1.020491242408752441e+00
8.656000000000000000e+03 1.580789661407470703e+01 -2.014942407608032227e+00 -9.673180580139160156e-01 -6.356506943702697754e-01 -4.808906316757202148e-01 -5.992735028266906738e-01
8.657000000000000000e+03 2.779977416992187500e+01 6.011123180389404297e+00 -5.800608992576599121e-01 -4.062300622463226318e-01 -2.958872914314270020e-01 -4.562611281871795654e-01
8.658000000000000000e+03 2.430105209350585938e+01 3.707533121109008789e+00 -4.470200836658477783e-01 -2.075788229703903198e-01 -1.963796764612197876e-01 -3.042432665824890137e-01
8.659000000000000000e+03 1.976152992248535156e+01 8.037325739860534668e-01 -1.145810484886169434e+00 -1.755337230861186981e-02 -3.490091562271118164e-01 -2.960198521614074707e-01
8.660000000000000000e+03 2.400750732421875000e+01 3.809019565582275391e+00 -4.542176127433776855e-01 -2.010568380355834961e-01 -1.965823322534561157e-01 -3.021242916584014893e-01
8.661000000000000000e+03 2.676595687866210938e+01 6.886943340301513672e+00 -2.049970477819442749e-01 -2.479424029588699341e-01 -1.358818411827087402e-01 -1.347473859786987305e-01
8.662000000000000000e+03 2.651888465881347656e+01 7.204801559448242188e+00 -2.610691547393798828e+00 -1.573132276535034180e+00 -1.255147099494934082e+00 -1.890870571136474609e+00
8.663000000000000000e+03 1.628826141357421875e+01 -2.017508745193481445e+00 -9.161083102226257324e-01 -6.076297760009765625e-01 -4.571214318275451660e-01 -5.098181962966918945e-01
8.664000000000000000e+03 2.591839790344238281e+01 4.346871852874755859e+00 -4.402804970741271973e-01 -2.543717622756958008e-01 -2.083956748247146606e-01 -3.307316899299621582e-01
8.665000000000000000e+03 1.501998519897460938e+01 -1.876763939857482910e+00 -1.246476769447326660e+00 -2.990409135818481445e-01 -4.636552929878234863e-01 -5.790508985519409180e-01
8.666000000000000000e+03 2.733472442626953125e+01 7.141497611999511719e+00 2.311292439699172974e-01 1.732642650604248047e-01 1.213180571794509888e-01 2.338225394487380981e-01
8.667000000000000000e+03 2.684387207031250000e+01 6.556024074554443359e+00 1.479247808456420898e+00 6.522797346115112305e-01 6.394582986831665039e-01 9.131506681442260742e-01
8.668000000000000000e+03 2.666568374633789062e+01 6.083534240722656250e+00 3.194031953811645508e+00 1.237702965736389160e+00 1.329520463943481445e+00 2.027463197708129883e+00
8.669000000000000000e+03 2.625601196289062500e+01 6.063596248626708984e+00 2.154188156127929688e+00 6.398034691810607910e-01 8.381975293159484863e-01 1.235645174980163574e+00
8.670000000000000000e+03 2.616489219665527344e+01 5.798119544982910156e+00 3.234473705291748047e+00 1.088215589523315430e+00 1.296806812286376953e+00 1.874057531356811523e+00
8.671000000000000000e+03 2.606442070007324219e+01 6.034417629241943359e+00 1.626118421554565430e+00 4.446225464344024658e-01 6.212223172187805176e-01 8.999111056327819824e-01
8.672000000000000000e+03 2.558020401000976562e+01 5.873181343078613281e+00 8.759398460388183594e-01 1.179790720343589783e-01 2.981756925582885742e-01 3.195560276508331299e-01
8.673000000000000000e+03 2.528006172180175781e+01 5.593722820281982422e+00 1.167226433753967285e+00 3.273974359035491943e-01 4.483871757984161377e-01 6.506248116493225098e-01
8.674000000000000000e+03 2.545791816711425781e+01 5.377339839935302734e+00 3.036638498306274414e+00 9.895227551460266113e-01 1.207848310470581055e+00 1.761193871498107910e+00
8.675000000000000000e+03 2.511786651611328125e+01 5.163075447082519531e+00 2.831894636154174805e+00 1.038712263107299805e+00 1.161182045936584473e+00 1.738367915153503418e+00
8.676000000000000000e+03 2.478065109252929688e+01 4.935214519500732422e+00 2.882839441299438477e+00 1.114286303520202637e+00 1.199137687683105469e+00 1.596264362335205078e+00
8.677000000000000000e+03 2.434786415100097656e+01 4.955834388732910156e+00 1.185391545295715332e+00 1.281886845827102661e-01 3.940740525722503662e-01 6.347085237503051758e-01
8.678000000000000000e+03 2.371851730346679688e+01 4.320669174194335938e+00 2.246611118316650391e+00 6.408406496047973633e-01 8.662355542182922363e-01 1.202349781990051270e+00
8.679000000000000000e+03 2.365928649902343750e+01 4.679716110229492188e+00 4.033185541629791260e-01 -3.241523802280426025e-01 2.374985255300998688e-02 -1.473470628261566162e-01
8.680000000000000000e+03 2.341914558410644531e+01 4.077101707458496094e+00 1.941113591194152832e+00 5.070214867591857910e-01 7.344405651092529297e-01 1.070712447166442871e+00
8.681000000000000000e+03 2.287387466430664062e+01 3.978004455566406250e+00 9.842405915260314941e-01 -9.261947125196456909e-02 2.674863338470458984e-01 2.534828484058380127e-01
8.682000000000000000e+03 2.257127761840820312e+01 3.593299865722656250e+00 1.219192743301391602e+00 2.724537551403045654e-01 4.474939405918121338e-01 5.771035552024841309e-01
8.683000000000000000e+03 2.238205909729003906e+01 3.494225025177001953e+00 1.073151588439941406e+00 1.625088751316070557e-01 3.706981539726257324e-01 5.112031698226928711e-01
8.684000000000000000e+03 2.175230789184570312e+01 3.041884422302246094e+00 4.280475378036499023e-01 -6.883674860000610352e-02 1.077632382512092590e-01 1.814430207014083862e-01
8.685000000000000000e+03 2.091606521606445312e+01 2.871060132980346680e+00 -2.787023186683654785e-01 -5.791689157485961914e-01 -2.573613822460174561e-01 -5.737116932868957520e-01
8.686000000000000000e+03 2.039735031127929688e+01 2.418879747390747070e+00 -6.460911035537719727e-01 -6.916314959526062012e-01 -4.013167917728424072e-01 -7.394219636917114258e-01
8.687000000000000000e+03 2.056420326232910156e+01 2.295139312744140625e+00 -6.629810333251953125e-01 -3.832030296325683594e-01 -3.138552308082580566e-01 -4.891761541366577148e-01
8.688000000000000000e+03 1.985025787353515625e+01 2.300310134887695312e+00 -7.407351732254028320e-01 -8.844736814498901367e-01 -4.875626564025878906e-01 -9.471753239631652832e-01
8.689000000000000000e+03 1.921669578552246094e+01 1.422919631004333496e+00 -2.623096227645874023e+00 -1.000873684883117676e+00 -1.087190985679626465e+00 -1.758976936340332031e+00
8.690000000000000000e+03 1.834779357910156250e+01 1.595245122909545898e+00 1.051024869084358215e-01 -6.318891048431396484e-01 -1.580359786748886108e-01 -4.310478270053863525e-01
8.691000000000000000e+03 1.854553031921386719e+01 1.398307919502258301e+00 -1.369809985160827637e+00 -1.143888711929321289e+00 -7.541096210479736328e-01 -1.338072776794433594e+00
8.692000000000000000e+03 1.820831489562988281e+01 8.324990868568420410e-01 -3.837809085845947266e+00 -1.524897694587707520e+00 -1.608812093734741211e+00 -2.393213272094726562e+00
8.693000000000000000e+03 1.684770965576171875e+01 3.050752580165863037e-01 -2.823183059692382812e+00 -1.145555615425109863e+00 -1.190621614456176758e+00 -2.174804449081420898e+00
8.694000000000000000e+03 1.643051910400390625e+01 4.287737011909484863e-01 -3.316945433616638184e-01 -2.534241378307342529e-01 -1.755356043577194214e-01 -6.993038654327392578e-01
8.695000000000000000e+03 1.508499240875244141e+01 -1.196102350950241089e-01 -3.960759401321411133e+00 5.830860137939453125e-01 -1.013302087783813477e+00 -3.506940901279449463e-01
8.696000000000000000e+03 1.489139747619628906e+01 -4.429558813571929932e-01 -6.635213375091552734e+00 -1.665779203176498413e-01 -2.040537357330322266e+00 4.628871381282806396e-01
8.697000000000000000e+03 1.458994865417480469e+01 1.278747320175170898e-01 -2.016131877899169922e+00 5.207908749580383301e-01 -4.486023485660552979e-01 2.436528205871582031e-01
8.698000000000000000e+03 2.798352813720703125e+01 6.378621101379394531e+00 -6.884142160415649414e-01 -4.634383618831634521e-01 -3.455557823181152344e-01 -5.494756698608398438e-01
8.699000000000000000e+03 2.744732856750488281e+01 5.919847488403320312e+00 -6.006309986114501953e-01 -3.667040467262268066e-01 -2.902005314826965332e-01 -4.600221216678619385e-01
8.700000000000000000e+03 2.681096076965332031e+01 5.881733417510986328e+00 -6.528251767158508301e-01 -2.783719599246978760e-01 -2.793591320514678955e-01 -4.295990467071533203e-01
8.701000000000000000e+03 2.695290946960449219e+01 5.657287120819091797e+00 -5.829011797904968262e-01 -3.058458268642425537e-01 -2.666241228580474854e-01 -4.160917401313781738e-01
8.702000000000000000e+03 2.680890464782714844e+01 5.554503917694091797e+00 -5.783231258392333984e-01 -2.896935939788818359e-01 -2.604050040245056152e-01 -4.072919487953186035e-01
8.703000000000000000e+03 2.595121192932128906e+01 5.348055839538574219e+00 -5.745646357536315918e-01 -2.395506501197814941e-01 -2.442345917224884033e-01 -3.687399625778198242e-01
8.704000000000000000e+03 2.624352073669433594e+01 5.168264389038085938e+00 -5.376569032669067383e-01 -2.615479230880737305e-01 -2.397614419460296631e-01 -3.721168935298919678e-01
8.705000000000000000e+03 2.577732086181640625e+01 5.259509563446044922e+00 -5.638104677200317383e-01 -2.316084057092666626e-01 -2.386256605386734009e-01 -3.617283105850219727e-01
8.706000000000000000e+03 2.587140464782714844e+01 5.063723564147949219e+00 -5.309797525405883789e-01 -2.432792931795120239e-01 -2.322777062654495239e-01 -3.598004579544067383e-01
8.707000000000000000e+03 2.528497123718261719e+01 4.897889137268066406e+00 -5.262694358825683594e-01 -2.191033512353897095e-01 -2.236118316650390625e-01 -3.396072387695312500e-01
8.708000000000000000e+03 2.476001930236816406e+01 4.607118606567382812e+00 -5.052615404129028320e-01 -2.079705297946929932e-01 -2.139696180820465088e-01 -3.203191161155700684e-01
8.709000000000000000e+03 2.340548515319824219e+01 3.757633924484252930e+00 -4.485313892364501953e-01 -1.843891292810440063e-01 -1.898761540651321411e-01 -2.834759652614593506e-01
8.710000000000000000e+03 2.324150848388671875e+01 3.638243675231933594e+00 -4.432747364044189453e-01 -1.767191290855407715e-01 -1.859981566667556763e-01 -2.819137573242187500e-01
8.711000000000000000e+03 2.301863098144531250e+01 3.138655900955200195e+00 -4.453968405723571777e-01 -1.876064091920852661e-01 -1.899009793996810913e-01 -2.862536013126373291e-01
8.712000000000000000e+03 2.266702651977539062e+01 2.957285165786743164e+00 -4.371924102306365967e-01 -1.871522068977355957e-01 -1.873033791780471802e-01 -2.825618386268615723e-01
8.713000000000000000e+03 2.203386688232421875e+01 2.941110372543334961e+00 -4.090649783611297607e-01 -1.668387651443481445e-01 -1.727711260318756104e-01 -2.563841640949249268e-01
8.714000000000000000e+03 2.213482093811035156e+01 2.759301662445068359e+00 -4.210282564163208008e-01 -1.741373687982559204e-01 -1.785496920347213745e-01 -2.731466889381408691e-01
8.715000000000000000e+03 2.154034233093261719e+01 2.606009721755981445e+00 -3.948274850845336914e-01 -1.546749621629714966e-01 -1.648507416248321533e-01 -2.522113919258117676e-01
8.716000000000000000e+03 2.183447265625000000e+01 2.533674716949462891e+00 -4.240078628063201904e-01 -1.750648915767669678e-01 -1.797218322753906250e-01 -2.711403667926788330e-01
8.717000000000000000e+03 2.136129570007324219e+01 2.078829288482666016e+00 -4.730099141597747803e-01 -1.860272288322448730e-01 -1.977111399173736572e-01 -2.894208729267120361e-01
8.718000000000000000e+03 2.154104804992675781e+01 2.237478971481323242e+00 -4.538285434246063232e-01 -1.792008131742477417e-01 -1.899088025093078613e-01 -2.814543247222900391e-01
8.719000000000000000e+03 2.077692985534667969e+01 1.859538793563842773e+00 -4.759196639060974121e-01 -1.644241064786911011e-01 -1.921031326055526733e-01 -2.777904272079467773e-01
8.720000000000000000e+03 2.049374771118164062e+01 1.987400770187377930e+00 -3.965319097042083740e-01 -1.445797234773635864e-01 -1.623334884643554688e-01 -2.537133395671844482e-01
8.721000000000000000e+03 2.048386955261230469e+01 1.801054954528808594e+00 -4.716166257858276367e-01 -1.563691198825836182e-01 -1.883957237005233765e-01 -2.551851868629455566e-01
8.722000000000000000e+03 2.034474945068359375e+01 1.374484896659851074e+00 -7.005135416984558105e-01 -1.631242185831069946e-01 -2.590913474559783936e-01 -2.873583436012268066e-01
8.723000000000000000e+03 1.986848831176757812e+01 1.354785084724426270e+00 -7.107859253883361816e-01 -1.339324712753295898e-01 -2.534155249595642090e-01 -3.137435913085937500e-01
8.724000000000000000e+03 1.977758979797363281e+01 1.160026073455810547e+00 -9.074184894561767578e-01 -1.310630589723587036e-01 -3.115444779396057129e-01 -3.143753707408905029e-01
8.725000000000000000e+03 1.899002265930175781e+01 1.033178091049194336e+00 -1.037828445434570312e+00 -2.917846143245697021e-01 -3.988839089870452881e-01 -5.474596619606018066e-01
8.726000000000000000e+03 1.865701293945312500e+01 8.324456810951232910e-01 -1.276367306709289551e+00 -3.974394798278808594e-01 -5.021420121192932129e-01 -6.824170947074890137e-01
8.727000000000000000e+03 1.796325874328613281e+01 6.934621185064315796e-02 -1.761884927749633789e+00 -3.841157853603363037e-01 -6.438001990318298340e-01 -8.985161185264587402e-01
8.728000000000000000e+03 1.781099510192871094e+01 -4.681610688567161560e-02 -1.788864612579345703e+00 -4.380919933319091797e-01 -6.680870056152343750e-01 -9.357469677925109863e-01
8.729000000000000000e+03 1.731255149841308594e+01 -4.446045309305191040e-02 -2.001078844070434570e+00 -7.174006104469299316e-01 -8.155438303947448730e-01 -1.177816152572631836e+00
8.730000000000000000e+03 1.716968917846679688e+01 -5.165702104568481445e-01 -1.963926315307617188e+00 -5.396208763122558594e-01 -7.510641813278198242e-01 -1.043537735939025879e+00
8.731000000000000000e+03 1.733124160766601562e+01 -3.948403298854827881e-01 -1.904114246368408203e+00 -5.268551111221313477e-01 -7.292907834053039551e-01 -1.021640419960021973e+00
8.732000000000000000e+03 1.700969696044921875e+01 -6.479260325431823730e-01 -1.974201798439025879e+00 -5.687851309776306152e-01 -7.628960609436035156e-01 -1.030489802360534668e+00
8.733000000000000000e+03 1.667558479309082031e+01 -9.449340701103210449e-01 -2.129805088043212891e+00 -5.463956594467163086e-01 -8.028602004051208496e-01 -9.189724326133728027e-01
8.734000000000000000e+03 2.749036979675292969e+01 7.732102394104003906e+00 -1.666575551033020020e+00 -7.847943305969238281e-01 -7.354109883308410645e-01 -1.280421257019042969e+00
8.735000000000000000e+03 2.737743186950683594e+01 7.516111850738525391e+00 -1.165928959846496582e+00 -4.802337586879730225e-01 -4.938488304615020752e-01 -8.783805370330810547e-01
8.736000000000000000e+03 2.775899505615234375e+01 7.781839847564697266e+00 -1.262683510780334473e+00 -3.243824243545532227e-01 -4.761197865009307861e-01 -9.842649102210998535e-01
8.737000000000000000e+03 2.767353057861328125e+01 8.236301422119140625e+00 -2.775225162506103516e+00 -1.217528462409973145e+00 -1.197826147079467773e+00 -1.967135906219482422e+00
8.738000000000000000e+03 2.705670928955078125e+01 7.836090087890625000e+00 -3.101313591003417969e+00 -1.927826642990112305e+00 -1.508742094039916992e+00 -2.490552902221679688e+00
8.739000000000000000e+03 2.657050704956054688e+01 7.504411220550537109e+00 -3.609547376632690430e+00 -2.300719976425170898e+00 -1.773080229759216309e+00 -2.826388835906982422e+00
8.740000000000000000e+03 2.671600341796875000e+01 7.279695510864257812e+00 -2.245192766189575195e+00 -1.297425031661987305e+00 -1.062785387039184570e+00 -1.588356256484985352e+00
8.741000000000000000e+03 2.589096641540527344e+01 7.078425884246826172e+00 -4.289385318756103516e+00 -2.329010963439941406e+00 -1.985518932342529297e+00 -3.140913248062133789e+00
8.742000000000000000e+03 2.600694847106933594e+01 6.826173305511474609e+00 -2.643173456192016602e+00 -1.546509265899658203e+00 -1.256904840469360352e+00 -1.931687951087951660e+00
8.743000000000000000e+03 2.562108039855957031e+01 6.621604919433593750e+00 -2.832457304000854492e+00 -1.617329239845275879e+00 -1.334936022758483887e+00 -2.181936264038085938e+00
8.744000000000000000e+03 2.579959106445312500e+01 6.754337787628173828e+00 -2.971955537796020508e+00 -1.714817881584167480e+00 -1.406032085418701172e+00 -2.132133722305297852e+00
8.745000000000000000e+03 2.861095428466796875e+01 8.252856254577636719e+00 -1.421614050865173340e+00 1.460517942905426025e-01 -3.826686739921569824e-01 -5.674342513084411621e-01
8.746000000000000000e+03 2.853674888610839844e+01 8.360008239746093750e+00 -1.542160034179687500e+00 3.034163713455200195e-01 -3.716230988502502441e-01 -6.405427455902099609e-01
8.747000000000000000e+03 2.883415985107421875e+01 8.333746910095214844e+00 -1.097509860992431641e+00 2.072020173072814941e-01 -2.670923769474029541e-01 2.091123163700103760e-01
8.748000000000000000e+03 2.870514488220214844e+01 8.375977516174316406e+00 -1.601560950279235840e+00 -2.302292287349700928e-01 -5.495370626449584961e-01 -6.046782135963439941e-01
8.749000000000000000e+03 1.971903610229492188e+01 2.516002416610717773e+00 -3.974297344684600830e-01 -7.294951081275939941e-01 -3.380774557590484619e-01 -6.783241033554077148e-01
8.750000000000000000e+03 2.373731422424316406e+01 5.086797237396240234e+00 -1.571620941162109375e+00 -1.060089826583862305e+00 -7.895132303237915039e-01 -1.302422404289245605e+00
8.751000000000000000e+03 2.900718116760253906e+01 8.279201507568359375e+00 -1.099517345428466797e+00 3.570081591606140137e-01 -2.227527648210525513e-01 1.826564036309719086e-02
8.752000000000000000e+03 2.995883560180664062e+01 7.631362438201904297e+00 1.474977880716323853e-01 -4.007138609886169434e-01 -7.596482336521148682e-02 -1.031427904963493347e-01
8.753000000000000000e+03 2.986109924316406250e+01 7.173797130584716797e+00 2.849690318107604980e-01 -3.538186550140380859e-01 -2.065488509833812714e-02 -3.594789505004882812e-01
8.754000000000000000e+03 2.977012825012207031e+01 7.303269386291503906e+00 4.722481667995452881e-01 -3.714761734008789062e-01 3.023159317672252655e-02 -3.286750614643096924e-01
8.755000000000000000e+03 1.753824615478515625e+01 -1.313276886940002441e+00 -1.359572172164916992e+00 -1.863070428371429443e-01 -4.637637436389923096e-01 -5.864296555519104004e-01
8.756000000000000000e+03 1.770430946350097656e+01 -1.205825805664062500e+00 -1.288988828659057617e+00 -7.016634196043014526e-02 -4.077465236186981201e-01 -5.603945255279541016e-01
8.757000000000000000e+03 1.803942489624023438e+01 -9.887551069259643555e-01 -1.345049619674682617e+00 6.449536234140396118e-02 -3.841662704944610596e-01 -6.125482320785522461e-01
8.758000000000000000e+03 1.769699668884277344e+01 -8.576623797416687012e-01 -1.544470310211181641e+00 -1.483175307512283325e-01 -5.078363418579101562e-01 -7.073416709899902344e-01
8.759000000000000000e+03 1.871887207031250000e+01 -5.354961752891540527e-01 -1.498016834259033203e+00 2.321761399507522583e-01 -3.797522187232971191e-01 -4.917600452899932861e-01
8.760000000000000000e+03 1.851503944396972656e+01 -2.948162555694580078e-01 -1.584360718727111816e+00 1.438072621822357178e-01 -4.321660101413726807e-01 -5.692905187606811523e-01
8.761000000000000000e+03 1.856393241882324219e+01 1.237389743328094482e-01 -1.541014909744262695e+00 -5.565071851015090942e-02 -4.789997041225433350e-01 -6.107364296913146973e-01
8.762000000000000000e+03 1.924990653991699219e+01 -5.019795522093772888e-02 -1.455734133720397949e+00 2.552188336849212646e-01 -3.601545989513397217e-01 -2.909619212150573730e-01
8.763000000000000000e+03 1.943012428283691406e+01 -4.136993363499641418e-02 -1.597374200820922852e+00 1.243579164147377014e-01 -4.419048726558685303e-01 -3.160881698131561279e-01
8.764000000000000000e+03 1.920506477355957031e+01 2.889018356800079346e-01 -1.510442018508911133e+00 8.411167562007904053e-02 -4.278990924358367920e-01 -4.112533926963806152e-01
8.765000000000000000e+03 1.935403060913085938e+01 1.091038063168525696e-01 -1.655857324600219727e+00 1.930521875619888306e-01 -4.388415217399597168e-01 -2.062852084636688232e-01
8.766000000000000000e+03 1.970587158203125000e+01 3.779152035713195801e-01 -1.470164775848388672e+00 6.970637943595647812e-03 -4.389582276344299316e-01 -2.127930521965026855e-01
8.767000000000000000e+03 2.085043907165527344e+01 1.039960861206054688e+00 -8.328669071197509766e-01 -2.199507653713226318e-01 -3.158453106880187988e-01 -2.701686620712280273e-01
8.768000000000000000e+03 2.049315261840820312e+01 8.613141179084777832e-01 -9.632788896560668945e-01 -2.077181041240692139e-01 -3.512991070747375488e-01 -2.204503864049911499e-01
8.769000000000000000e+03 2.152845191955566406e+01 1.460379362106323242e+00 -6.689087748527526855e-01 -1.976351141929626465e-01 -2.599631845951080322e-01 -3.114518523216247559e-01
8.770000000000000000e+03 2.228789710998535156e+01 2.100796222686767578e+00 -5.006272196769714355e-01 -1.966459006071090698e-01 -2.091819494962692261e-01 -3.165631890296936035e-01
8.771000000000000000e+03 2.268266296386718750e+01 2.183539867401123047e+00 -5.028099417686462402e-01 -1.907709687948226929e-01 -2.080742716789245605e-01 -2.935441732406616211e-01
8.772000000000000000e+03 2.282362365722656250e+01 2.349183797836303711e+00 -4.794099330902099609e-01 -1.948637813329696655e-01 -2.022821158170700073e-01 -3.054849505424499512e-01
8.773000000000000000e+03 2.291903305053710938e+01 2.602031946182250977e+00 -4.694084823131561279e-01 -1.986854225397109985e-01 -2.004281580448150635e-01 -2.913915812969207764e-01
8.774000000000000000e+03 2.312372589111328125e+01 2.517670631408691406e+00 -4.607005119323730469e-01 -1.915494203567504883e-01 -1.956749856472015381e-01 -2.988248169422149658e-01
8.775000000000000000e+03 2.329864883422851562e+01 2.554312467575073242e+00 -4.692269861698150635e-01 -2.039646506309509277e-01 -2.019574940204620361e-01 -2.979978621006011963e-01
8.776000000000000000e+03 2.370875740051269531e+01 2.486496210098266602e+00 -4.574822187423706055e-01 -2.000206559896469116e-01 -1.972508579492568970e-01 -2.870686352252960205e-01
8.777000000000000000e+03 2.360039710998535156e+01 2.670200109481811523e+00 -4.613747596740722656e-01 -1.997042596340179443e-01 -1.983237117528915405e-01 -2.971284687519073486e-01
8.778000000000000000e+03 2.383144950866699219e+01 2.970955133438110352e+00 -4.391946196556091309e-01 -2.044198215007781982e-01 -1.930843293666839600e-01 -2.978233695030212402e-01
8.779000000000000000e+03 2.428691291809082031e+01 3.261617898941040039e+00 -4.399388432502746582e-01 -2.174494415521621704e-01 -1.972164958715438843e-01 -3.029555380344390869e-01
8.780000000000000000e+03 2.491758537292480469e+01 3.217509746551513672e+00 -4.295616745948791504e-01 -2.209541350603103638e-01 -1.951547414064407349e-01 -2.934159934520721436e-01
8.781000000000000000e+03 2.506211090087890625e+01 3.325509548187255859e+00 -4.206320643424987793e-01 -2.279908210039138794e-01 -1.945868581533432007e-01 -2.975776791572570801e-01
8.782000000000000000e+03 2.508978843688964844e+01 3.686359405517578125e+00 -4.290234744548797607e-01 -2.266283333301544189e-01 -1.966955363750457764e-01 -3.084901571273803711e-01
8.783000000000000000e+03 2.592293930053710938e+01 3.904886245727539062e+00 -4.152084290981292725e-01 -2.483676522970199585e-01 -1.990728229284286499e-01 -3.086956739425659180e-01
8.784000000000000000e+03 2.642688369750976562e+01 4.173763751983642578e+00 -4.047959148883819580e-01 -2.651284933090209961e-01 -2.009773254394531250e-01 -3.129897415637969971e-01
8.785000000000000000e+03 2.612514495849609375e+01 4.211234092712402344e+00 -4.287227392196655273e-01 -2.582858800888061523e-01 -2.061025798320770264e-01 -3.210915327072143555e-01
8.786000000000000000e+03 2.628206062316894531e+01 4.349055767059326172e+00 -4.315788745880126953e-01 -2.639853358268737793e-01 -2.086692601442337036e-01 -3.308595120906829834e-01
8.787000000000000000e+03 2.674450492858886719e+01 4.412423610687255859e+00 -4.113789498805999756e-01 -2.771417498588562012e-01 -2.065562009811401367e-01 -3.230844438076019287e-01
8.788000000000000000e+03 2.653885078430175781e+01 4.620157718658447266e+00 -4.365305602550506592e-01 -2.768668234348297119e-01 -2.140192240476608276e-01 -3.397842049598693848e-01
8.789000000000000000e+03 2.699238395690917969e+01 4.901086807250976562e+00 -4.498166441917419434e-01 -2.951379716396331787e-01 -2.234863787889480591e-01 -3.485909700393676758e-01
8.790000000000000000e+03 2.765724372863769531e+01 5.295273303985595703e+00 -4.374087452888488770e-01 -3.328371047973632812e-01 -2.310737520456314087e-01 -3.537566065788269043e-01
8.791000000000000000e+03 2.831085968017578125e+01 5.369943618774414062e+00 -3.755576610565185547e-01 -2.898514270782470703e-01 -1.996227204799652100e-01 -2.971699237823486328e-01
8.792000000000000000e+03 2.837192344665527344e+01 5.715072154998779297e+00 -4.141736626625061035e-01 -3.205797672271728516e-01 -2.204260379076004028e-01 -3.219733536243438721e-01
8.793000000000000000e+03 2.900979804992675781e+01 5.785435676574707031e+00 -3.677993416786193848e-01 -1.185218170285224915e-01 -1.458963453769683838e-01 -3.040352761745452881e-01
8.794000000000000000e+03 2.888737106323242188e+01 5.938385963439941406e+00 -3.900690674781799316e-01 -1.389803141355514526e-01 -1.587148159742355347e-01 -3.102746307849884033e-01
8.795000000000000000e+03 2.932737922668457031e+01 6.294694900512695312e+00 -2.477794885635375977e-01 8.209913969039916992e-03 -7.187087088823318481e-02 -4.856416583061218262e-01
8.796000000000000000e+03 2.987050247192382812e+01 6.886860370635986328e+00 2.029709368944168091e-01 -2.329013645648956299e-01 -8.979126811027526855e-03 -4.649877250194549561e-01
8.797000000000000000e+03 2.857546615600585938e+01 5.763775825500488281e+00 -3.917969167232513428e-01 -2.601965069770812988e-01 -1.955980360507965088e-01 -2.944090664386749268e-01
8.798000000000000000e+03 2.832865715026855469e+01 5.965070724487304688e+00 -4.388989210128784180e-01 -3.666723370552062988e-01 -2.416713833808898926e-01 -3.499578535556793213e-01
8.799000000000000000e+03 1.585226917266845703e+01 -1.314679533243179321e-01 -4.019175052642822266e+00 1.082869172096252441e+00 -8.808917403221130371e-01 -1.508159041404724121e+00
8.800000000000000000e+03 2.700904464721679688e+01 6.986386775970458984e+00 -1.399780213832855225e-01 -2.237415127456188202e-02 -4.870565235614776611e-02 -3.970478102564811707e-02
8.801000000000000000e+03 1.915440750122070312e+01 1.539692163467407227e+00 -1.879650473594665527e+00 -1.041626453399658203e+00 -8.763830661773681641e-01 -1.497612953186035156e+00
8.802000000000000000e+03 1.895336532592773438e+01 1.434279918670654297e+00 -2.124334335327148438e+00 -1.222342848777770996e+00 -1.004003167152404785e+00 -1.710911273956298828e+00
8.803000000000000000e+03 1.832626342773437500e+01 1.212554574012756348e+00 -1.939115047454833984e+00 -1.239776968955993652e+00 -9.536676406860351562e-01 -1.577493906021118164e+00
8.804000000000000000e+03 1.881803703308105469e+01 1.581102371215820312e+00 -1.161851048469543457e+00 -1.000550270080566406e+00 -6.487203836441040039e-01 -1.211815714836120605e+00
8.805000000000000000e+03 1.720338821411132812e+01 7.016548514366149902e-01 -1.257655978202819824e+00 -6.709699630737304688e-01 -5.785877704620361328e-01 -1.116578698158264160e+00
8.806000000000000000e+03 1.766154289245605469e+01 9.660823345184326172e-01 -1.066411018371582031e+00 -9.980253577232360840e-01 -6.193309426307678223e-01 -1.148504614830017090e+00
8.807000000000000000e+03 2.660479927062988281e+01 6.350921630859375000e+00 1.758006334304809570e+00 5.323737859725952148e-01 6.871140599250793457e-01 1.097645044326782227e+00
8.808000000000000000e+03 2.639602661132812500e+01 6.356693744659423828e+00 9.718775153160095215e-01 1.369266808032989502e-01 3.326412737369537354e-01 5.596650838851928711e-01
8.809000000000000000e+03 2.637787246704101562e+01 6.789946079254150391e+00 -1.217488288879394531e+00 -7.685142159461975098e-01 -5.958007574081420898e-01 -8.968507647514343262e-01
8.810000000000000000e+03 2.639554023742675781e+01 6.124566555023193359e+00 2.432610034942626953e+00 7.234468460083007812e-01 9.468171000480651855e-01 1.444324970245361328e+00
8.811000000000000000e+03 2.626122474670410156e+01 6.240300655364990234e+00 1.252153754234313965e+00 2.433433830738067627e-01 4.486491382122039795e-01 6.632536053657531738e-01
8.812000000000000000e+03 2.605123901367187500e+01 6.284544944763183594e+00 5.382639169692993164e-01 -8.383058756589889526e-02 1.363300085067749023e-01 1.436618417501449585e-01
8.813000000000000000e+03 2.451865959167480469e+01 5.238244056701660156e+00 6.105307340621948242e-01 -9.432365745306015015e-02 1.548621207475662231e-01 1.625296920537948608e-01
8.814000000000000000e+03 2.402710723876953125e+01 5.146443367004394531e+00 -1.027271866798400879e+00 -9.356504678726196289e-01 -5.888767242431640625e-01 -8.917789459228515625e-01
8.815000000000000000e+03 2.145628166198730469e+01 3.227499723434448242e+00 -5.791787803173065186e-02 -3.184174597263336182e-01 -1.129005998373031616e-01 -3.147738575935363770e-01
8.816000000000000000e+03 2.426770591735839844e+01 5.176071166992187500e+00 1.098669618368148804e-01 -5.112108588218688965e-01 -1.204031705856323242e-01 -2.881793379783630371e-01
8.817000000000000000e+03 2.872770690917968750e+01 5.972564697265625000e+00 -4.021669924259185791e-01 -2.079323381185531616e-01 -1.830298006534576416e-01 -3.007136583328247070e-01
8.818000000000000000e+03 2.875193977355957031e+01 5.821742534637451172e+00 -3.857511579990386963e-01 -2.084278464317321777e-01 -1.782537102699279785e-01 -2.950920164585113525e-01
8.819000000000000000e+03 2.641004180908203125e+01 4.976247310638427734e+00 -4.880881905555725098e-01 -2.775388360023498535e-01 -2.296881079673767090e-01 -3.661856353282928467e-01
8.820000000000000000e+03 2.677645301818847656e+01 4.986546516418457031e+00 -4.651877582073211670e-01 -2.933252751827239990e-01 -2.275539189577102661e-01 -3.613766431808471680e-01
8.821000000000000000e+03 2.664482498168945312e+01 5.213761329650878906e+00 -5.211194157600402832e-01 -2.817241251468658447e-01 -2.408530712127685547e-01 -3.821864724159240723e-01
8.822000000000000000e+03 2.723494148254394531e+01 7.353139877319335938e+00 -1.013283252716064453e+00 -5.273035764694213867e-01 -4.621760547161102295e-01 -7.732158303260803223e-01
8.823000000000000000e+03 2.647268295288085938e+01 6.952697277069091797e+00 -1.733191967010498047e+00 -1.088340401649475098e+00 -8.464596867561340332e-01 -1.252456903457641602e+00
8.824000000000000000e+03 2.488064193725585938e+01 5.748773574829101562e+00 -1.015449881553649902e+00 -7.019635438919067383e-01 -5.152240395545959473e-01 -8.405440449714660645e-01
8.825000000000000000e+03 2.606977462768554688e+01 6.554043769836425781e+00 -1.082913994789123535e+00 -6.716126203536987305e-01 -5.263580083847045898e-01 -7.451282739639282227e-01
8.826000000000000000e+03 1.970203399658203125e+01 9.767117500305175781e-01 -9.764406681060791016e-01 -8.600910753011703491e-02 -3.187349438667297363e-01 -3.151396811008453369e-01
8.827000000000000000e+03 2.451392555236816406e+01 4.150055408477783203e+00 -4.705615043640136719e-01 -2.021161466836929321e-01 -2.018032968044281006e-01 -3.102282583713531494e-01
8.828000000000000000e+03 2.222106933593750000e+01 1.953441381454467773e+00 -5.456118583679199219e-01 -1.981593668460845947e-01 -2.231313735246658325e-01 -3.035363554954528809e-01
8.829000000000000000e+03 2.499477386474609375e+01 4.285282135009765625e+00 -4.772920310497283936e-01 -2.236698716878890991e-01 -2.102885693311691284e-01 -3.234500885009765625e-01
8.830000000000000000e+03 2.772571945190429688e+01 5.587497234344482422e+00 -4.658642709255218506e-01 -3.589689433574676514e-01 -2.474499642848968506e-01 -3.826615512371063232e-01
8.831000000000000000e+03 2.786710739135742188e+01 5.700411319732666016e+00 -4.714776575565338135e-01 -3.646128773689270020e-01 -2.508271634578704834e-01 -3.801957964897155762e-01
8.832000000000000000e+03 2.761308097839355469e+01 6.036466598510742188e+00 -6.114313006401062012e-01 -3.850241899490356445e-01 -2.989366650581359863e-01 -4.726820588111877441e-01
8.833000000000000000e+03 2.683716011047363281e+01 5.168988704681396484e+00 -4.954123198986053467e-01 -3.060426712036132812e-01 -2.404364943504333496e-01 -3.811766207218170166e-01
8.834000000000000000e+03 2.701836776733398438e+01 5.092906475067138672e+00 -4.644255340099334717e-01 -3.047637343406677246e-01 -2.307567745447158813e-01 -3.678566515445709229e-01
8.835000000000000000e+03 2.715846061706542969e+01 4.960176944732666016e+00 -4.386457502841949463e-01 -3.021566271781921387e-01 -2.222407162189483643e-01 -3.474735319614410400e-01
8.836000000000000000e+03 2.239185333251953125e+01 1.953694581985473633e+00 -5.293722748756408691e-01 -1.840253770351409912e-01 -2.140192985534667969e-01 -2.993474900722503662e-01
8.837000000000000000e+03 2.253596496582031250e+01 2.679699420928955078e+00 -4.464555680751800537e-01 -1.940326243638992310e-01 -1.921464651823043823e-01 -2.900921404361724854e-01
8.838000000000000000e+03 2.059241485595703125e+01 1.542418837547302246e+00 -6.298151612281799316e-01 -1.748344153165817261e-01 -2.413948774337768555e-01 -2.847121655941009521e-01
8.839000000000000000e+03 1.705965614318847656e+01 -1.238278031349182129e+00 -1.593708753585815430e+00 -3.955911695957183838e-01 -5.967900156974792480e-01 -6.539205908775329590e-01
8.840000000000000000e+03 1.735778236389160156e+01 -7.449176907539367676e-01 -1.749698162078857422e+00 -3.682139515876770020e-01 -6.353736519813537598e-01 -8.458237648010253906e-01
8.841000000000000000e+03 1.751641082763671875e+01 -6.253772377967834473e-01 -1.767723917961120605e+00 -3.414786159992218018e-01 -6.327607631683349609e-01 -8.540117740631103516e-01
8.842000000000000000e+03 1.767763137817382812e+01 -5.077363848686218262e-01 -1.726477026939392090e+00 -2.782622873783111572e-01 -6.014217734336853027e-01 -8.375316262245178223e-01
8.843000000000000000e+03 1.858691024780273438e+01 -9.391445666551589966e-02 -1.702021002769470215e+00 1.119584124535322189e-02 -5.072475671768188477e-01 -5.663016438484191895e-01
8.844000000000000000e+03 1.897811508178710938e+01 2.083240002393722534e-01 -1.533318042755126953e+00 9.916059672832489014e-02 -4.302472472190856934e-01 -3.847221732139587402e-01
8.845000000000000000e+03 1.828685569763183594e+01 2.713023126125335693e-01 -1.637155413627624512e+00 -3.092208504676818848e-01 -5.839129090309143066e-01 -7.980056405067443848e-01
8.846000000000000000e+03 2.410520935058593750e+01 3.153629302978515625e+00 -4.418530762195587158e-01 -2.022368460893630981e-01 -1.932269781827926636e-01 -2.943251430988311768e-01
8.847000000000000000e+03 2.391318130493164062e+01 3.180729627609252930e+00 -4.501679837703704834e-01 -2.088735401630401611e-01 -1.977124512195587158e-01 -2.950365841388702393e-01
8.848000000000000000e+03 2.399816131591796875e+01 3.385308742523193359e+00 -4.412237405776977539e-01 -2.054845392704010010e-01 -1.940124928951263428e-01 -3.043307065963745117e-01
8.849000000000000000e+03 2.488282585144042969e+01 3.632354021072387695e+00 -4.385880231857299805e-01 -2.279740273952484131e-01 -1.999686211347579956e-01 -3.069722950458526611e-01
8.850000000000000000e+03 2.444554328918457031e+01 3.841858625411987305e+00 -4.491800367832183838e-01 -2.124479711055755615e-01 -1.984883993864059448e-01 -3.030822575092315674e-01
8.851000000000000000e+03 2.601859092712402344e+01 4.594632148742675781e+00 -4.705640077590942383e-01 -2.586439549922943115e-01 -2.187623977661132812e-01 -3.426372110843658447e-01
8.852000000000000000e+03 2.623686027526855469e+01 4.541726589202880859e+00 -4.433089196681976318e-01 -2.654956579208374023e-01 -2.126413732767105103e-01 -3.368507027626037598e-01
8.853000000000000000e+03 1.928930854797363281e+01 8.976932168006896973e-01 -1.096597194671630859e+00 -1.006478518247604370e-01 -3.591735363006591797e-01 -4.126312136650085449e-01
8.854000000000000000e+03 1.927956962585449219e+01 6.948968768119812012e-01 -1.387316823005676270e+00 -5.932325497269630432e-02 -4.339920282363891602e-01 -4.457921683788299561e-01
8.855000000000000000e+03 1.991943740844726562e+01 6.985806822776794434e-01 -1.191453456878662109e+00 -5.893197655677795410e-02 -3.751156330108642578e-01 -2.221527397632598877e-01
8.856000000000000000e+03 2.460322952270507812e+01 3.955327272415161133e+00 -4.523988366127014160e-01 -2.166229933500289917e-01 -2.007065415382385254e-01 -3.170058131217956543e-01
8.857000000000000000e+03 2.382778739929199219e+01 3.521178722381591797e+00 -4.547865390777587891e-01 -2.014107704162597656e-01 -1.968591958284378052e-01 -2.949601709842681885e-01
8.858000000000000000e+03 2.198137664794921875e+01 2.655979156494140625e+00 -4.238465428352355957e-01 -1.776789277791976929e-01 -1.804576367139816284e-01 -2.718248367309570312e-01
8.859000000000000000e+03 2.185815811157226562e+01 2.212323427200317383e+00 -4.755790829658508301e-01 -1.899915337562561035e-01 -1.996711790561676025e-01 -2.895503938198089600e-01
8.860000000000000000e+03 2.198051834106445312e+01 2.364504098892211914e+00 -4.541239738464355469e-01 -1.865891367197036743e-01 -1.922139376401901245e-01 -2.931145727634429932e-01
8.861000000000000000e+03 2.148756027221679688e+01 1.866619586944580078e+00 -5.317294597625732422e-01 -1.838212162256240845e-01 -2.146652042865753174e-01 -2.945550680160522461e-01
8.862000000000000000e+03 2.106024551391601562e+01 1.529556989669799805e+00 -6.132789254188537598e-01 -1.852812021970748901e-01 -2.395680397748947144e-01 -3.031373620033264160e-01
8.863000000000000000e+03 2.125181007385253906e+01 1.653330326080322266e+00 -5.944715738296508789e-01 -1.996169090270996094e-01 -2.382265478372573853e-01 -3.011958599090576172e-01
8.864000000000000000e+03 2.094637107849121094e+01 1.918027877807617188e+00 -4.805201292037963867e-01 -1.848306506872177124e-01 -1.996052414178848267e-01 -2.768085002899169922e-01
8.865000000000000000e+03 2.076650810241699219e+01 1.574730277061462402e+00 -6.051679253578186035e-01 -1.658735126256942749e-01 -2.313124239444732666e-01 -2.823663651943206787e-01
8.866000000000000000e+03 2.587970352172851562e+01 4.881956577301025391e+00 -5.140972733497619629e-01 -2.480515241622924805e-01 -2.286446392536163330e-01 -3.550534546375274658e-01
8.867000000000000000e+03 1.765451049804687500e+01 -1.619453579187393188e-01 -1.837883949279785156e+00 -4.484772682189941406e-01 -6.859083771705627441e-01 -9.627161026000976562e-01
8.868000000000000000e+03 1.812890052795410156e+01 -1.340038925409317017e-01 -1.688536286354064941e+00 -1.667019128799438477e-01 -5.565714240074157715e-01 -7.464813590049743652e-01
8.869000000000000000e+03 1.826277923583984375e+01 -2.977999858558177948e-02 -1.665283560752868652e+00 -1.611860543489456177e-01 -5.479409098625183105e-01 -7.165152430534362793e-01
8.870000000000000000e+03 1.880193901062011719e+01 6.758607029914855957e-01 -1.342093467712402344e+00 -2.035560011863708496e-01 -4.636948406696319580e-01 -5.994016528129577637e-01
8.871000000000000000e+03 1.894854354858398438e+01 7.549192905426025391e-01 -1.258626580238342285e+00 -1.701654940843582153e-01 -4.286376237869262695e-01 -5.132339596748352051e-01
8.872000000000000000e+03 2.678519821166992188e+01 7.062376022338867188e+00 -1.246146321296691895e+00 -7.331241965293884277e-01 -5.937811136245727539e-01 -8.685486912727355957e-01
8.873000000000000000e+03 2.690731239318847656e+01 6.818960189819335938e+00 4.051757156848907471e-01 2.437533289194107056e-01 1.946787089109420776e-01 2.824234366416931152e-01
8.874000000000000000e+03 2.660069084167480469e+01 7.038652420043945312e+00 -1.744233369827270508e+00 -1.052364468574523926e+00 -8.389793634414672852e-01 -1.216586947441101074e+00
8.875000000000000000e+03 2.659112930297851562e+01 6.734062194824218750e+00 7.031912356615066528e-02 -1.835487484931945801e-01 -3.396888449788093567e-02 -2.858024323359131813e-03
8.876000000000000000e+03 2.661147308349609375e+01 6.894548892974853516e+00 -9.843062162399291992e-01 -6.200228333473205566e-01 -4.812986850738525391e-01 -6.805825233459472656e-01
8.877000000000000000e+03 2.073003196716308594e+01 1.245025277137756348e+00 -7.353913187980651855e-01 -1.748084574937820435e-01 -2.730599343776702881e-01 -2.895381450653076172e-01
8.878000000000000000e+03 2.058207511901855469e+01 1.154570817947387695e+00 -8.054482340812683105e-01 -1.979898214340209961e-01 -3.010314106941223145e-01 -2.653046250343322754e-01
8.879000000000000000e+03 2.174007797241210938e+01 2.035988092422485352e+00 -4.921614527702331543e-01 -1.899185478687286377e-01 -2.046239972114562988e-01 -3.021757602691650391e-01
8.880000000000000000e+03 1.986181449890136719e+01 8.778309226036071777e-01 -1.021252274513244629e+00 -1.216685250401496887e-01 -3.428762555122375488e-01 -2.427687942981719971e-01
8.881000000000000000e+03 1.949866867065429688e+01 5.670157074928283691e-01 -1.226543426513671875e+00 4.180682823061943054e-02 -3.554210066795349121e-01 -2.621497213840484619e-01
8.882000000000000000e+03 1.954581260681152344e+01 2.329013496637344360e-01 -1.374177098274230957e+00 1.275810599327087402e-01 -3.739787936210632324e-01 -2.277595996856689453e-01
8.883000000000000000e+03 2.056551742553710938e+01 1.350121736526489258e+00 -6.912425756454467773e-01 -1.722278743982315063e-01 -2.590411305427551270e-01 -2.763637602329254150e-01
8.884000000000000000e+03 2.213665390014648438e+01 2.220813751220703125e+00 -4.864019453525543213e-01 -1.918646097183227539e-01 -2.034799605607986450e-01 -2.897616922855377197e-01
8.885000000000000000e+03 2.759283638000488281e+01 5.736433982849121094e+00 -5.297201871871948242e-01 -3.598364889621734619e-01 -2.668670117855072021e-01 -4.093786478042602539e-01
8.886000000000000000e+03 1.647349929809570312e+01 -1.049277424812316895e+00 -2.436573028564453125e+00 -6.169651150703430176e-01 -9.160614013671875000e-01 -7.205317616462707520e-01
8.887000000000000000e+03 2.371811103820800781e+01 3.334536314010620117e+00 -4.381714165210723877e-01 -1.986496448516845703e-01 -1.910463124513626099e-01 -3.000954389572143555e-01
8.888000000000000000e+03 1.918312644958496094e+01 5.033789277076721191e-01 -1.303952455520629883e+00 3.963955119252204895e-02 -3.792938888072967529e-01 -3.243754506111145020e-01
8.889000000000000000e+03 2.467941284179687500e+01 3.614620447158813477e+00 -4.349802434444427490e-01 -2.145634442567825317e-01 -1.948631107807159424e-01 -3.046821355819702148e-01
8.890000000000000000e+03 1.937634086608886719e+01 4.028036594390869141e-01 -1.495838642120361328e+00 4.612566158175468445e-02 -4.349139034748077393e-01 -3.164414465427398682e-01
8.891000000000000000e+03 1.885597801208496094e+01 4.195890128612518311e-01 -1.406357526779174805e+00 -8.929871022701263428e-02 -4.486968815326690674e-01 -5.299477577209472656e-01
8.892000000000000000e+03 2.240024375915527344e+01 2.218441963195800781e+00 -4.943473041057586670e-01 -1.899164617061614990e-01 -2.052791267633438110e-01 -2.910189032554626465e-01
8.893000000000000000e+03 2.447861862182617188e+01 3.615789175033569336e+00 -4.531983733177185059e-01 -2.178402692079544067e-01 -2.013115882873535156e-01 -3.096583485603332520e-01
8.894000000000000000e+03 2.235301589965820312e+01 2.481110811233520508e+00 -4.700751602649688721e-01 -1.851229667663574219e-01 -1.965594440698623657e-01 -2.870102822780609131e-01
8.895000000000000000e+03 2.166055107116699219e+01 1.858121275901794434e+00 -5.471069216728210449e-01 -1.980149298906326294e-01 -2.235365658998489380e-01 -3.058916330337524414e-01
8.896000000000000000e+03 2.237258148193359375e+01 2.643537998199462891e+00 -4.353036582469940186e-01 -1.838527917861938477e-01 -1.857469379901885986e-01 -2.857228815555572510e-01
8.897000000000000000e+03 2.353147506713867188e+01 2.949220895767211914e+00 -4.346204996109008789e-01 -1.987504661083221436e-01 -1.900112926959991455e-01 -2.991739213466644287e-01
8.898000000000000000e+03 2.845718574523925781e+01 7.030216693878173828e+00 -1.874735593795776367e+00 -1.123027324676513672e+00 -8.993288874626159668e-01 -1.414444088935852051e+00
8.899000000000000000e+03 2.829931449890136719e+01 6.909000873565673828e+00 -1.286138296127319336e+00 -6.514388918876647949e-01 -5.812731385231018066e-01 -9.186455011367797852e-01
8.900000000000000000e+03 2.814144515991210938e+01 6.787785530090332031e+00 -1.072225451469421387e+00 -5.338348150253295898e-01 -4.818180799484252930e-01 -7.462318539619445801e-01
8.901000000000000000e+03 2.798357582092285156e+01 6.666570186614990234e+00 -9.420741200447082520e-01 -4.537963271141052246e-01 -4.187611341476440430e-01 -6.580451130867004395e-01
8.902000000000000000e+03 2.849719047546386719e+01 6.987525463104248047e+00 -1.140691995620727539e+00 -1.140285849571228027e+00 -6.842933297157287598e-01 -1.097606420516967773e+00
8.903000000000000000e+03 2.836599349975585938e+01 6.837849140167236328e+00 -9.696409106254577637e-01 -8.364604711532592773e-01 -5.418304204940795898e-01 -8.295699954032897949e-01
8.904000000000000000e+03 2.823479461669921875e+01 6.688172817230224609e+00 -8.323913812637329102e-01 -5.994938611984252930e-01 -4.295655786991119385e-01 -6.909955739974975586e-01
8.905000000000000000e+03 2.810359573364257812e+01 6.538496494293212891e+00 -7.493426799774169922e-01 -5.306215286254882812e-01 -3.839892446994781494e-01 -6.043462753295898438e-01
8.906000000000000000e+03 2.854475593566894531e+01 6.953455924987792969e+00 -7.922815680503845215e-01 -1.005948424339294434e+00 -5.394690036773681641e-01 -8.262606263160705566e-01
8.907000000000000000e+03 2.844526672363281250e+01 6.781066894531250000e+00 -7.280969619750976562e-01 -7.781018018722534180e-01 -4.518596231937408447e-01 -6.250029802322387695e-01
8.908000000000000000e+03 2.834577941894531250e+01 6.608678340911865234e+00 -6.419529914855957031e-01 -6.332703232765197754e-01 -3.825670182704925537e-01 -5.745626091957092285e-01
8.909000000000000000e+03 2.824629020690917969e+01 6.436289310455322266e+00 -6.075190901756286621e-01 -5.229544639587402344e-01 -3.391420841217041016e-01 -5.125103592872619629e-01
8.910000000000000000e+03 2.859805107116699219e+01 6.929316997528076172e+00 -6.139365434646606445e-01 -7.667107582092285156e-01 -4.141941964626312256e-01 -5.774765014648437500e-01
8.911000000000000000e+03 2.853409385681152344e+01 6.740835666656494141e+00 -6.022806167602539062e-01 -6.073874831199645996e-01 -3.629004359245300293e-01 -4.835381805896759033e-01
8.912000000000000000e+03 2.847013473510742188e+01 6.552354335784912109e+00 -5.472829341888427734e-01 -5.290064215660095215e-01 -3.228867948055267334e-01 -4.376898705959320068e-01
8.913000000000000000e+03 2.840617561340332031e+01 6.363872528076171875e+00 -5.008214116096496582e-01 -4.680063426494598389e-01 -2.906483113765716553e-01 -4.122190177440643311e-01
8.914000000000000000e+03 2.865503120422363281e+01 6.916035652160644531e+00 -5.552844405174255371e-01 -4.159736335277557373e-01 -2.913774251937866211e-01 -4.374914765357971191e-01
8.915000000000000000e+03 2.862905883789062500e+01 6.718699932098388672e+00 -5.578774213790893555e-01 -3.792114853858947754e-01 -2.811266779899597168e-01 -4.007981717586517334e-01
8.916000000000000000e+03 2.860308647155761719e+01 6.521364212036132812e+00 -4.915184378623962402e-01 -3.636629283428192139e-01 -2.565543949604034424e-01 -3.639030754566192627e-01
8.917000000000000000e+03 2.857711601257324219e+01 6.324028491973876953e+00 -4.729531407356262207e-01 -3.381492197513580322e-01 -2.433307170867919922e-01 -3.422604799270629883e-01
8.918000000000000000e+03 2.871350669860839844e+01 6.914121627807617188e+00 -5.729099512100219727e-01 -3.491367772221565247e-02 -1.823470890522003174e-01 -4.396859705448150635e-01
8.919000000000000000e+03 2.872651863098144531e+01 6.715509891510009766e+00 -5.139892697334289551e-01 -1.361969113349914551e-01 -1.950558423995971680e-01 -4.042301476001739502e-01
8.920000000000000000e+03 2.873953056335449219e+01 6.516898155212402344e+00 -4.838150739669799805e-01 -1.739911437034606934e-01 -1.973418593406677246e-01 -3.594649732112884521e-01
8.921000000000000000e+03 2.875254249572753906e+01 6.318286418914794922e+00 -4.381744861602783203e-01 -1.878245621919631958e-01 -1.877997219562530518e-01 -3.268581926822662354e-01
8.922000000000000000e+03 2.877123260498046875e+01 6.923648357391357422e+00 -5.334380865097045898e-01 3.033014535903930664e-01 -6.904099136590957642e-02 -5.824828147888183594e-01
8.923000000000000000e+03 2.882272911071777344e+01 6.731388092041015625e+00 -4.738886654376983643e-01 7.219337671995162964e-02 -1.205085888504981995e-01 -4.922182559967041016e-01
8.924000000000000000e+03 2.887422561645507812e+01 6.539127349853515625e+00 -4.364720284938812256e-01 -8.660440333187580109e-03 -1.335397511720657349e-01 -4.165782630443572998e-01
8.925000000000000000e+03 2.892572212219238281e+01 6.346867084503173828e+00 -4.165050685405731201e-01 -5.142879113554954529e-02 -1.403801590204238892e-01 -3.745200932025909424e-01
8.926000000000000000e+03 2.882599258422851562e+01 6.944250583648681641e+00 -3.944531977176666260e-01 5.036160349845886230e-01 3.274885565042495728e-02 -8.367905020713806152e-01
8.927000000000000000e+03 2.891399574279785156e+01 6.765724658966064453e+00 -3.626030981540679932e-01 2.109579890966415405e-01 -4.549353197216987610e-02 -6.199440956115722656e-01
8.928000000000000000e+03 2.900199890136718750e+01 6.587198734283447266e+00 -3.653209805488586426e-01 1.066106185317039490e-01 -7.761311531066894531e-02 -5.303658246994018555e-01
8.929000000000000000e+03 2.909000015258789062e+01 6.408672809600830078e+00 -3.395830392837524414e-01 3.342485800385475159e-02 -9.184745699167251587e-02 -4.609983861446380615e-01
8.930000000000000000e+03 2.887568473815917969e+01 6.975136280059814453e+00 -1.272771507501602173e-01 5.503042936325073242e-01 1.269081383943557739e-01 -1.091389179229736328e+00
8.931000000000000000e+03 2.899681282043457031e+01 6.817201137542724609e+00 -1.629544943571090698e-01 2.511514425277709961e-01 2.645908668637275696e-02 -7.819662094116210938e-01
8.932000000000000000e+03 2.911794281005859375e+01 6.659265518188476562e+00 -2.323132306337356567e-01 1.389104127883911133e-01 -2.802084200084209442e-02 -6.311908960342407227e-01
8.933000000000000000e+03 2.923907279968261719e+01 6.501330375671386719e+00 -2.438445091247558594e-01 7.871487736701965332e-02 -4.953889176249504089e-02 -5.740547776222229004e-01
8.934000000000000000e+03 2.891839790344238281e+01 7.015120029449462891e+00 3.226681053638458252e-01 4.297038912773132324e-01 2.257115989923477173e-01 -1.275905370712280273e+00
8.935000000000000000e+03 2.906800079345703125e+01 6.883840560913085938e+00 5.693207681179046631e-02 2.090381830930709839e-01 7.979107648134231567e-02 -9.025018811225891113e-01
8.936000000000000000e+03 2.921760559082031250e+01 6.752560615539550781e+00 8.088272996246814728e-03 8.953893929719924927e-02 2.928816527128219604e-02 -7.354942560195922852e-01
8.937000000000000000e+03 2.936721229553222656e+01 6.621281147003173828e+00 -1.109839975833892822e-01 3.741396963596343994e-02 -2.207100950181484222e-02 -6.108593940734863281e-01
8.938000000000000000e+03 2.895249176025390625e+01 7.062665939331054688e+00 7.612124085426330566e-01 2.084559947252273560e-01 2.909005284309387207e-01 -1.343302726745605469e+00
8.939000000000000000e+03 2.912482643127441406e+01 6.963083744049072266e+00 4.045125544071197510e-01 1.000514924526214600e-01 1.513692140579223633e-01 -9.349480867385864258e-01
8.940000000000000000e+03 2.929716110229492188e+01 6.863501071929931641e+00 1.938166022300720215e-01 -7.396759930998086929e-03 5.592595413327217102e-02 -7.966189980506896973e-01
8.941000000000000000e+03 2.946949577331542969e+01 6.763918876647949219e+00 1.829247921705245972e-01 -8.658131957054138184e-02 2.890303917229175568e-02 -6.443880796432495117e-01
8.942000000000000000e+03 2.897665977478027344e+01 7.115948200225830078e+00 1.282562017440795898e+00 8.509510196745395660e-03 3.873214423656463623e-01 -1.204239487648010254e+00
8.943000000000000000e+03 2.916510581970214844e+01 7.051887512207031250e+00 6.685116291046142578e-01 -7.237122952938079834e-02 1.788421273231506348e-01 -9.191275835037231445e-01
8.944000000000000000e+03 2.935355186462402344e+01 6.987826824188232422e+00 4.671718478202819824e-01 -1.055636182427406311e-01 1.084824651479721069e-01 -7.306649088859558105e-01
8.945000000000000000e+03 2.954199981689453125e+01 6.923766136169433594e+00 3.245142698287963867e-01 -1.877978742122650146e-01 4.101492464542388916e-02 -7.002485990524291992e-01
8.946000000000000000e+03 2.898997116088867188e+01 7.172920703887939453e+00 1.616025328636169434e+00 -2.241841703653335571e-01 4.175523221492767334e-01 -9.981591701507568359e-01
8.947000000000000000e+03 2.918729400634765625e+01 7.146841526031494141e+00 9.901496767997741699e-01 -1.443040221929550171e-01 2.537536919116973877e-01 -7.435954213142395020e-01
8.948000000000000000e+03 2.938461494445800781e+01 7.120762348175048828e+00 6.337164044380187988e-01 -2.754401862621307373e-01 1.074828654527664185e-01 -6.475849747657775879e-01
8.949000000000000000e+03 2.958193588256835938e+01 7.094683170318603516e+00 4.173426032066345215e-01 -1.921860128641128540e-01 6.754697114229202271e-02 -5.431695580482482910e-01
8.950000000000000000e+03 2.899191665649414062e+01 7.231395721435546875e+00 1.914393305778503418e+00 -1.745579987764358521e-01 5.219506025314331055e-01 -6.414738893508911133e-01
8.951000000000000000e+03 2.919053649902343750e+01 7.244299411773681641e+00 1.152677655220031738e+00 -3.323696255683898926e-01 2.460923939943313599e-01 -5.631925463676452637e-01
8.952000000000000000e+03 2.938915443420410156e+01 7.257203578948974609e+00 8.090373873710632324e-01 -2.487097382545471191e-01 1.680983006954193115e-01 -4.271086454391479492e-01
8.953000000000000000e+03 2.958777427673339844e+01 7.270107746124267578e+00 4.738587737083435059e-01 -3.712642490863800049e-01 3.077835775911808014e-02 -3.350844681262969971e-01
8.954000000000000000e+03 2.898242187500000000e+01 7.289126873016357422e+00 1.985695600509643555e+00 -2.582918703556060791e-01 5.182211399078369141e-01 -3.330666124820709229e-01
8.955000000000000000e+03 2.917471122741699219e+01 7.340518474578857422e+00 1.303147196769714355e+00 -2.031290382146835327e-01 3.300054371356964111e-01 -2.788413465023040771e-01
8.956000000000000000e+03 2.936699867248535156e+01 7.391910076141357422e+00 8.157837390899658203e-01 -3.877365291118621826e-01 1.284141689538955688e-01 -2.161710411310195923e-01
8.957000000000000000e+03 2.955928802490234375e+01 7.443301677703857422e+00 6.111645698547363281e-01 -3.142350912094116211e-01 8.907884359359741211e-02 -1.232597231864929199e-01
8.958000000000000000e+03 2.896185111999511719e+01 7.343897819519042969e+00 2.031784772872924805e+00 3.472455963492393494e-02 6.199527978897094727e-01 -4.211432859301567078e-02
8.959000000000000000e+03 2.914042282104492188e+01 7.431803703308105469e+00 1.281355977058410645e+00 -2.687857747077941895e-01 3.037710487842559814e-01 -1.430624164640903473e-02
8.960000000000000000e+03 2.931899642944335938e+01 7.519709587097167969e+00 8.156587481498718262e-01 -1.868167370557785034e-01 1.886526048183441162e-01 4.290813952684402466e-02
8.961000000000000000e+03 2.949757194519042969e+01 7.607614994049072266e+00 4.446485042572021484e-01 -3.633177578449249268e-01 2.439921908080577850e-02 -4.446877632290124893e-03
8.962000000000000000e+03 2.893099212646484375e+01 7.393605232238769531e+00 1.953198075294494629e+00 8.940180391073226929e-02 6.127799749374389648e-01 1.838496476411819458e-01
8.963000000000000000e+03 2.908899307250976562e+01 7.514648914337158203e+00 1.223491787910461426e+00 2.300343289971351624e-02 3.739485442638397217e-01 2.327926754951477051e-01
8.964000000000000000e+03 2.924699401855468750e+01 7.635693073272705078e+00 6.897538900375366211e-01 -1.809544861316680908e-01 1.526398211717605591e-01 2.416595518589019775e-01
8.965000000000000000e+03 2.940499496459960938e+01 7.756736755371093750e+00 2.062704116106033325e-01 -5.248172208666801453e-02 4.613660648465156555e-02 2.476112842559814453e-01
8.966000000000000000e+03 2.889103126525878906e+01 7.436339855194091797e+00 1.915722250938415527e+00 4.590708613395690918e-01 7.124379277229309082e-01 3.067636489868164062e-01
8.967000000000000000e+03 2.902239227294921875e+01 7.585873603820800781e+00 1.057506799697875977e+00 7.933501899242401123e-02 3.410525321960449219e-01 4.565847814083099365e-01
8.968000000000000000e+03 2.915375137329101562e+01 7.735406875610351562e+00 4.680768251419067383e-01 1.736805438995361328e-01 1.925272047519683838e-01 3.615216314792633057e-01
8.969000000000000000e+03 2.928511238098144531e+01 7.884940624237060547e+00 1.584791839122772217e-01 -6.656659394502639771e-02 2.757377550005912781e-02 4.389668703079223633e-01
8.970000000000000000e+03 2.884350395202636719e+01 7.470460414886474609e+00 1.782943606376647949e+00 5.547973513603210449e-01 7.013222575187683105e-01 4.847381114959716797e-01
8.971000000000000000e+03 2.894317817687988281e+01 7.642741680145263672e+00 9.086140394210815430e-01 4.552454352378845215e-01 4.091578423976898193e-01 4.839194715023040771e-01
8.972000000000000000e+03 2.904285430908203125e+01 7.815021991729736328e+00 1.969095170497894287e-01 2.329464852809906006e-01 1.289568096399307251e-01 5.301854610443115234e-01
8.973000000000000000e+03 2.914253044128417969e+01 7.987303256988525391e+00 -2.265051193535327911e-02 2.318215966224670410e-01 6.275132298469543457e-02 2.769402265548706055e-01
8.974000000000000000e+03 2.879023361206054688e+01 7.494657516479492188e+00 1.795941591262817383e+00 8.319751620292663574e-01 7.883750200271606445e-01 5.247555375099182129e-01
8.975000000000000000e+03 2.885439682006835938e+01 7.683069229125976562e+00 6.234045624732971191e-01 6.727811098098754883e-01 3.888556957244873047e-01 5.726533532142639160e-01
8.976000000000000000e+03 2.891856002807617188e+01 7.871481418609619141e+00 2.451537735760211945e-02 4.867016673088073730e-01 1.533651053905487061e-01 3.942678272724151611e-01
8.977000000000000000e+03 2.898272323608398438e+01 8.059893608093261719e+00 -5.376023054122924805e-01 2.676335573196411133e-01 -8.099061995744705200e-02 2.046801447868347168e-01
8.978000000000000000e+03 2.873326873779296875e+01 7.508000850677490234e+00 1.758536696434020996e+00 1.096935868263244629e+00 8.566417694091796875e-01 5.642747879028320312e-01
8.979000000000000000e+03 2.875945472717285156e+01 7.705308437347412109e+00 4.254830777645111084e-01 8.844140768051147461e-01 3.929691612720489502e-01 5.016933083534240723e-01
8.980000000000000000e+03 2.878564071655273438e+01 7.902615547180175781e+00 -2.225021421909332275e-01 6.805191040039062500e-01 1.374050825834274292e-01 2.796498537063598633e-01
8.981000000000000000e+03 2.881182670593261719e+01 8.099923133850097656e+00 -9.443145990371704102e-01 4.804175496101379395e-01 -1.391691267490386963e-01 9.182427078485488892e-03
8.982000000000000000e+03 2.867479515075683594e+01 7.509978294372558594e+00 1.509904265403747559e+00 1.281466364860534668e+00 8.374111652374267578e-01 5.595057010650634766e-01
8.983000000000000000e+03 2.866199874877929688e+01 7.708603858947753906e+00 5.278730988502502441e-01 1.101139783859252930e+00 4.887038767337799072e-01 3.683001995086669922e-01
8.984000000000000000e+03 2.864920234680175781e+01 7.907229900360107422e+00 -6.227591037750244141e-01 7.799342870712280273e-01 4.715254902839660645e-02 1.087811067700386047e-01
8.985000000000000000e+03 2.863640785217285156e+01 8.105855941772460938e+00 -9.904085993766784668e-01 6.152094006538391113e-01 -1.125597581267356873e-01 -1.120546534657478333e-01
8.986000000000000000e+03 2.861705780029296875e+01 7.500514030456542969e+00 1.761292815208435059e+00 1.589399099349975586e+00 1.005207538604736328e+00 5.498845577239990234e-01
8.987000000000000000e+03 2.856577110290527344e+01 7.692830562591552734e+00 2.591808438301086426e-01 1.149733185768127441e+00 4.226742088794708252e-01 1.271451860666275024e-01
8.988000000000000000e+03 2.851448440551757812e+01 7.885146617889404297e+00 -3.738143146038055420e-01 9.041836261749267578e-01 1.591107994318008423e-01 1.691354997456073761e-02
8.989000000000000000e+03 2.846319770812988281e+01 8.077463150024414062e+00 -1.448336362838745117e+00 3.944536447525024414e-01 -3.161647915840148926e-01 -4.246711134910583496e-01
8.990000000000000000e+03 2.856227684020996094e+01 7.479971885681152344e+00 1.775355815887451172e+00 1.597778081893920898e+00 1.011940121650695801e+00 3.088569641113281250e-01
8.991000000000000000e+03 2.847446632385253906e+01 7.658593177795410156e+00 4.958337843418121338e-01 1.270772814750671387e+00 5.299819707870483398e-01 1.031823679804801941e-01
8.992000000000000000e+03 2.838665962219238281e+01 7.837214469909667969e+00 -4.151994287967681885e-01 7.604907155036926270e-01 1.035873889923095703e-01 -2.670548558235168457e-01
8.993000000000000000e+03 2.829885101318359375e+01 8.015835762023925781e+00 -1.257154822349548340e+00 6.599576473236083984e-01 -1.791591644287109375e-01 -4.939139187335968018e-01
8.994000000000000000e+03 2.851255226135253906e+01 7.449139595031738281e+00 1.919808268547058105e+00 1.638133883476257324e+00 1.067382693290710449e+00 1.760053932666778564e-01
8.995000000000000000e+03 2.839159393310546875e+01 7.607206821441650391e+00 8.865443468093872070e-01 1.146751165390014648e+00 6.099886298179626465e-01 4.967800900340080261e-02
8.996000000000000000e+03 2.827063560485839844e+01 7.765273571014404297e+00 -3.645662665367126465e-01 7.928698658943176270e-01 1.284910887479782104e-01 -3.755423128604888916e-01
8.997000000000000000e+03 2.814967727661132812e+01 7.923340797424316406e+00 -8.794775605201721191e-01 4.615627229213714600e-01 -1.253744512796401978e-01 -4.650421738624572754e-01
8.998000000000000000e+03 2.846979522705078125e+01 7.409202575683593750e+00 2.555934429168701172e+00 1.591678857803344727e+00 1.244283914566040039e+00 1.974298357963562012e-01
8.999000000000000000e+03 2.832033348083496094e+01 7.540644645690917969e+00 1.095624089241027832e+00 9.186280965805053711e-01 6.042756438255310059e-01 -3.025462664663791656e-02
9.000000000000000000e+03 2.817087173461914062e+01 7.672087192535400391e+00 1.383541673421859741e-01 8.524981141090393066e-01 2.972556948661804199e-01 -1.302043497562408447e-01
9.001000000000000000e+03 2.802140998840332031e+01 7.803529262542724609e+00 -7.899053096771240234e-01 -1.839899271726608276e-02 -2.424912899732589722e-01 -7.008243203163146973e-01
9.002000000000000000e+03 2.843564987182617188e+01 7.361693859100341797e+00 2.935136556625366211e+00 1.079399466514587402e+00 1.204360842704772949e+00 1.960456520318984985e-01
9.003000000000000000e+03 2.826342201232910156e+01 7.461463451385498047e+00 1.689646601676940918e+00 1.051788210868835449e+00 8.224304318428039551e-01 2.660927176475524902e-01
9.004000000000000000e+03 2.809119606018066406e+01 7.561233043670654297e+00 5.320391058921813965e-01 4.626799523830413818e-01 2.984157204627990723e-01 -5.626954883337020874e-02
9.005000000000000000e+03 2.791897010803222656e+01 7.661002635955810547e+00 -3.819698989391326904e-01 3.087003231048583984e-01 -2.198087610304355621e-02 -4.860718548297882080e-01
9.006000000000000000e+03 2.841142272949218750e+01 7.308437824249267578e+00 3.618668794631958008e+00 1.087416172027587891e+00 1.411825418472290039e+00 5.513780713081359863e-01
9.007000000000000000e+03 2.822304725646972656e+01 7.372703552246093750e+00 2.084969997406005859e+00 6.922755241394042969e-01 8.331736326217651367e-01 5.195870399475097656e-01
9.008000000000000000e+03 2.803466987609863281e+01 7.436968803405761719e+00 1.157405257225036621e+00 6.811838150024414062e-01 5.515767335891723633e-01 2.865960896015167236e-01
9.009000000000000000e+03 2.784629249572753906e+01 7.501234531402587891e+00 1.295276284217834473e-01 2.411025762557983398e-01 1.111890673637390137e-01 -1.300095468759536743e-01
9.010000000000000000e+03 2.839804840087890625e+01 7.251480102539062500e+00 3.988693475723266602e+00 6.770450472831726074e-01 1.399721503257751465e+00 1.043612957000732422e+00
9.011000000000000000e+03 2.820075607299804688e+01 7.277773380279541016e+00 2.628794670104980469e+00 9.106446504592895508e-01 1.061831831932067871e+00 9.289355874061584473e-01
9.012000000000000000e+03 2.800346374511718750e+01 7.304067134857177734e+00 1.672205805778503418e+00 5.365415811538696289e-01 6.626242399215698242e-01 6.640595197677612305e-01
9.013000000000000000e+03 2.780616950988769531e+01 7.330360889434814453e+00 9.446005821228027344e-01 5.843463540077209473e-01 4.586840867996215820e-01 4.072031378746032715e-01
9.014000000000000000e+03 2.839603996276855469e+01 7.193007469177246094e+00 4.303674221038818359e+00 8.754559755325317383e-01 1.553739070892333984e+00 1.611755967140197754e+00
9.015000000000000000e+03 2.819740867614746094e+01 7.180319309234619141e+00 2.978717327117919922e+00 8.239408135414123535e-01 1.140797495841979980e+00 1.383924007415771484e+00
9.016000000000000000e+03 2.799877548217773438e+01 7.167631149291992188e+00 2.297405958175659180e+00 8.698119521141052246e-01 9.501653909683227539e-01 1.121184825897216797e+00
9.017000000000000000e+03 2.780014228820800781e+01 7.154942989349365234e+00 1.699042201042175293e+00 5.929786562919616699e-01 6.876062154769897461e-01 9.183257818222045898e-01
9.018000000000000000e+03 2.840547180175781250e+01 7.135265827178955078e+00 4.227623939514160156e+00 9.861588478088378906e-01 1.564134836196899414e+00 2.215915918350219727e+00
9.019000000000000000e+03 2.821312904357910156e+01 7.084083080291748047e+00 3.352115392684936523e+00 1.129262924194335938e+00 1.344413518905639648e+00 1.741808891296386719e+00
9.020000000000000000e+03 2.802078437805175781e+01 7.032900810241699219e+00 2.888581037521362305e+00 9.545823335647583008e-01 1.152948975563049316e+00 1.620201826095581055e+00
9.021000000000000000e+03 2.782843971252441406e+01 6.981718063354492188e+00 2.457798242568969727e+00 9.611960649490356445e-01 1.025698304176330566e+00 1.481000065803527832e+00
9.022000000000000000e+03 2.842598533630371094e+01 7.080472469329833984e+00 4.023076057434082031e+00 1.405659317970275879e+00 1.628620624542236328e+00 2.464861392974853516e+00
9.023000000000000000e+03 2.824731636047363281e+01 6.992761135101318359e+00 3.721729278564453125e+00 1.273819446563720703e+00 1.498664617538452148e+00 2.133275747299194336e+00
9.024000000000000000e+03 2.806864738464355469e+01 6.905049324035644531e+00 3.410553216934204102e+00 1.266330242156982422e+00 1.403064966201782227e+00 2.057394266128540039e+00
9.025000000000000000e+03 2.788997840881347656e+01 6.817337989807128906e+00 3.327263116836547852e+00 1.183451056480407715e+00 1.353214263916015625e+00 2.018012285232543945e+00
9.026000000000000000e+03 2.861505317687988281e+01 7.151432037353515625e+00 -2.789015293121337891e+00 -8.543893694877624512e-01 -1.093021392822265625e+00 -1.716179251670837402e+00
9.027000000000000000e+03 2.862838935852050781e+01 7.137201309204101562e+00 -2.588016033172607422e+00 -6.596776247024536133e-01 -9.743081331253051758e-01 -1.795662403106689453e+00
9.028000000000000000e+03 2.864424514770507812e+01 7.125844955444335938e+00 -2.061144828796386719e+00 -5.678823590278625488e-01 -7.887080907821655273e-01 -1.851611852645874023e+00
9.029000000000000000e+03 2.866201019287109375e+01 7.117798805236816406e+00 -1.486798286437988281e+00 -3.941926956176757812e-01 -5.642972588539123535e-01 -1.874110341072082520e+00
9.030000000000000000e+03 2.868100357055664062e+01 7.113371372222900391e+00 -9.144324660301208496e-01 -1.690893024206161499e-01 -3.250565528869628906e-01 -1.881930708885192871e+00
9.031000000000000000e+03 2.870049476623535156e+01 7.112733364105224609e+00 -3.155938386917114258e-01 9.015482664108276367e-02 -6.763169914484024048e-02 -1.916913986206054688e+00
9.032000000000000000e+03 2.871973609924316406e+01 7.115909099578857422e+00 2.880192399024963379e-01 3.024103939533233643e-01 1.771288812160491943e-01 -1.984102606773376465e+00
9.033000000000000000e+03 2.873798942565917969e+01 7.122776508331298828e+00 9.430515170097351074e-01 4.422048926353454590e-01 4.155769348144531250e-01 -2.035554885864257812e+00
9.034000000000000000e+03 2.875455474853515625e+01 7.133071899414062500e+00 1.651777029037475586e+00 4.547256529331207275e-01 6.319507956504821777e-01 -2.045169353485107422e+00
9.035000000000000000e+03 2.876879119873046875e+01 7.146399497985839844e+00 2.301429271697998047e+00 3.888706862926483154e-01 8.070899844169616699e-01 -1.950550675392150879e+00
9.036000000000000000e+03 2.878015708923339844e+01 7.162248134613037109e+00 2.963685035705566406e+00 2.816745936870574951e-01 9.736078977584838867e-01 -1.701538324356079102e+00
9.037000000000000000e+03 2.878821182250976562e+01 7.180008888244628906e+00 3.388962268829345703e+00 1.536612510681152344e-01 1.062787055969238281e+00 -1.378720283508300781e+00
9.038000000000000000e+03 2.879265022277832031e+01 7.198999881744384766e+00 3.723190784454345703e+00 1.944512575864791870e-01 1.175292611122131348e+00 -9.099529981613159180e-01
9.039000000000000000e+03 2.879329872131347656e+01 7.218491554260253906e+00 3.744307041168212891e+00 1.578411161899566650e-01 1.170644402503967285e+00 -5.104780793190002441e-01
9.040000000000000000e+03 2.879013252258300781e+01 7.237735271453857422e+00 3.681907415390014648e+00 4.672675728797912598e-01 1.244752526283264160e+00 -1.173435673117637634e-01
9.041000000000000000e+03 2.878327560424804688e+01 7.255992412567138672e+00 3.413136243820190430e+00 5.448850393295288086e-01 1.187406420707702637e+00 1.380032151937484741e-01
9.042000000000000000e+03 2.877298927307128906e+01 7.272561550140380859e+00 3.179957866668701172e+00 9.248396158218383789e-01 1.231439232826232910e+00 2.564679980278015137e-01
9.043000000000000000e+03 2.875966835021972656e+01 7.286806106567382812e+00 2.922169208526611328e+00 9.760572314262390137e-01 1.169467926025390625e+00 3.080385327339172363e-01
9.044000000000000000e+03 2.874382781982421875e+01 7.298179626464843750e+00 2.872861385345458984e+00 1.267757892608642578e+00 1.242185831069946289e+00 1.990522742271423340e-01
9.045000000000000000e+03 2.872607040405273438e+01 7.306245326995849609e+00 2.796211957931518555e+00 1.336828112602233887e+00 1.239912033081054688e+00 1.372386962175369263e-01
9.046000000000000000e+03 2.870708084106445312e+01 7.310693264007568359e+00 2.904766559600830078e+00 1.433407068252563477e+00 1.301452040672302246e+00 5.671001598238945007e-02
9.047000000000000000e+03 2.868759155273437500e+01 7.311352252960205078e+00 3.363584280014038086e+00 1.640332698822021484e+00 1.501175045967102051e+00 -5.660030990839004517e-02
9.048000000000000000e+03 2.866834640502929688e+01 7.308197498321533203e+00 3.526839971542358398e+00 1.627884268760681152e+00 1.546417236328125000e+00 -2.219055891036987305e-01
9.049000000000000000e+03 2.865008544921875000e+01 7.301350116729736328e+00 4.168805599212646484e+00 1.840590596199035645e+00 1.802818894386291504e+00 -2.075160741806030273e-01
9.050000000000000000e+03 2.863351058959960938e+01 7.291072845458984375e+00 4.998342514038085938e+00 1.783703088760375977e+00 2.034613609313964844e+00 -2.540882527828216553e-01
9.051000000000000000e+03 2.861925697326660156e+01 7.277760505676269531e+00 5.574572086334228516e+00 1.567711114883422852e+00 2.142684936523437500e+00 -2.081439942121505737e-01
9.052000000000000000e+03 2.860787582397460938e+01 7.261924266815185547e+00 6.575474739074707031e+00 1.660973787307739258e+00 2.470934629440307617e+00 1.764406412839889526e-01
9.053000000000000000e+03 2.859980010986328125e+01 7.244172573089599609e+00 7.135447502136230469e+00 1.223233938217163086e+00 2.507604360580444336e+00 6.452723741531372070e-01
9.054000000000000000e+03 2.859534263610839844e+01 7.225186347961425781e+00 7.673600673675537109e+00 1.404755115509033203e+00 2.723506689071655273e+00 1.329557657241821289e+00
9.055000000000000000e+03 2.859467124938964844e+01 7.205695629119873047e+00 7.707506179809570312e+00 1.303196430206298828e+00 2.703210830688476562e+00 2.127485036849975586e+00
9.056000000000000000e+03 2.859781646728515625e+01 7.186448097229003906e+00 7.525220870971679688e+00 1.662440538406372070e+00 2.756298303604125977e+00 2.822106599807739258e+00
9.057000000000000000e+03 2.860465431213378906e+01 7.168183803558349609e+00 6.811434268951416016e+00 2.025581598281860352e+00 2.651104688644409180e+00 3.547735452651977539e+00
9.058000000000000000e+03 5.548392868041992188e+01 3.517055130004882812e+01 2.586894798278808594e+01 1.284994125366210938e+00 8.146183013916015625e+00 4.796364307403564453e+00
9.059000000000000000e+03 5.548225784301757812e+01 3.515117645263671875e+01 3.016289329528808594e+01 6.413957118988037109e+00 1.097305488586425781e+01 1.688825225830078125e+01
9.060000000000000000e+03 5.548439025878906250e+01 3.513184738159179688e+01 3.144794082641601562e+01 1.507614707946777344e+01 1.395722579956054688e+01 2.282238197326660156e+01
9.061000000000000000e+03 5.549023818969726562e+01 3.511329650878906250e+01 3.033424949645996094e+01 2.528493118286132812e+01 1.668575477600097656e+01 2.719490623474121094e+01
9.062000000000000000e+03 5.549958038330078125e+01 3.509624099731445312e+01 2.825226402282714844e+01 3.617137145996093750e+01 1.932709121704101562e+01 2.893062400817871094e+01
9.063000000000000000e+03 5.551206588745117188e+01 3.508132934570312500e+01 2.490941619873046875e+01 4.702726745605468750e+01 2.158100509643554688e+01 2.841273117065429688e+01
9.064000000000000000e+03 5.552721023559570312e+01 3.506912994384765625e+01 2.175666999816894531e+01 5.668448638916015625e+01 2.353234672546386719e+01 2.545802116394042969e+01
9.065000000000000000e+03 5.554443740844726562e+01 3.506010437011718750e+01 1.911375999450683594e+01 6.433425903320312500e+01 2.503440475463867188e+01 2.043942070007324219e+01
9.066000000000000000e+03 5.556309127807617188e+01 3.505460739135742188e+01 1.809948921203613281e+01 6.924191284179687500e+01 2.620242118835449219e+01 1.413859272003173828e+01
9.067000000000000000e+03 5.558245849609375000e+01 3.505284118652343750e+01 1.877818107604980469e+01 7.113018035888671875e+01 2.697250747680664062e+01 7.373164653778076172e+00
9.068000000000000000e+03 5.560179901123046875e+01 3.505487442016601562e+01 2.130802917480468750e+01 7.022779846191406250e+01 2.746074867248535156e+01 1.256181240081787109e+00
9.069000000000000000e+03 5.562037658691406250e+01 3.506063079833984375e+01 2.523754692077636719e+01 6.706050109863281250e+01 2.768941497802734375e+01 -3.554431438446044922e+00
9.070000000000000000e+03 5.563747787475585938e+01 3.506988906860351562e+01 2.987537002563476562e+01 6.256630325317382812e+01 2.773250198364257812e+01 -6.461197853088378906e+00
9.071000000000000000e+03 5.565245437622070312e+01 3.508229827880859375e+01 3.485647201538085938e+01 5.762105560302734375e+01 2.774325752258300781e+01 -7.371364116668701172e+00
9.072000000000000000e+03 5.566473007202148438e+01 3.509737777709960938e+01 3.911721801757812500e+01 5.293086624145507812e+01 2.761442565917968750e+01 -6.517319679260253906e+00
9.073000000000000000e+03 5.567383575439453125e+01 3.511456298828125000e+01 4.273325729370117188e+01 4.938649368286132812e+01 2.763592529296875000e+01 -4.059496879577636719e+00
9.074000000000000000e+03 5.567943191528320312e+01 3.513319015502929688e+01 4.490760803222656250e+01 4.701922988891601562e+01 2.757805061340332031e+01 -6.721247434616088867e-01
9.075000000000000000e+03 5.568129348754882812e+01 3.515254592895507812e+01 4.585886383056640625e+01 4.660742187500000000e+01 2.773988533020019531e+01 3.453030586242675781e+00
9.076000000000000000e+03 5.567935562133789062e+01 3.517189788818359375e+01 4.508993530273437500e+01 4.760244369506835938e+01 2.780771446228027344e+01 7.535195827484130859e+00
9.077000000000000000e+03 5.567369461059570312e+01 3.519050216674804688e+01 4.283020782470703125e+01 5.080792999267578125e+01 2.809144210815429688e+01 1.125065231323242188e+01
9.078000000000000000e+03 5.566452026367187500e+01 3.520765304565429688e+01 3.892099761962890625e+01 5.501935195922851562e+01 2.818210411071777344e+01 1.387962532043457031e+01
9.079000000000000000e+03 5.565218734741210938e+01 3.522268676757812500e+01 3.388245391845703125e+01 6.071789932250976562e+01 2.838010597229003906e+01 1.481825065612792969e+01
9.080000000000000000e+03 5.563716506958007812e+01 3.523503875732421875e+01 2.807958602905273438e+01 6.634847259521484375e+01 2.832841873168945312e+01 1.374415779113769531e+01
9.081000000000000000e+03 5.562002944946289062e+01 3.524423217773437500e+01 2.227983856201171875e+01 7.154131317138671875e+01 2.814634513854980469e+01 1.029043388366699219e+01
9.082000000000000000e+03 5.560143280029296875e+01 3.524991989135742188e+01 1.737770462036132812e+01 7.482290649414062500e+01 2.766018295288085938e+01 4.928431510925292969e+00
9.083000000000000000e+03 5.558208084106445312e+01 3.525188064575195312e+01 1.400618648529052734e+01 7.562806701660156250e+01 2.689027595520019531e+01 -2.157280683517456055e+00
9.084000000000000000e+03 5.556272125244140625e+01 3.525004196166992188e+01 1.270340156555175781e+01 7.326416778564453125e+01 2.579026985168457031e+01 -9.618126869201660156e+00
9.085000000000000000e+03 5.554409027099609375e+01 3.524447250366210938e+01 1.335389614105224609e+01 6.732238769531250000e+01 2.420288467407226562e+01 -1.693787574768066406e+01
9.086000000000000000e+03 5.552689361572265625e+01 3.523538208007812500e+01 1.604713439941406250e+01 5.877861404418945312e+01 2.244772338867187500e+01 -2.247551345825195312e+01
9.087000000000000000e+03 5.551179504394531250e+01 3.522312545776367188e+01 2.029576683044433594e+01 4.679674148559570312e+01 2.012775230407714844e+01 -2.607839965820312500e+01
9.088000000000000000e+03 5.549937057495117188e+01 3.520816421508789062e+01 2.489771080017089844e+01 3.398957061767578125e+01 1.766618537902832031e+01 -2.647209930419921875e+01
9.089000000000000000e+03 5.549008941650390625e+01 3.519107437133789062e+01 3.324626541137695312e+01 1.634220314025878906e+01 1.487654018402099609e+01 -2.098229217529296875e+01
