# el_label, x, y, sXX, sYY, sZZ, sXY
1.000000000000000000e+00 7.021563720703125000e+01 3.388777923583984375e+01 -7.540742874145507812e+00 -2.495276689529418945e+00 -3.010805845260620117e+00 -2.762546539306640625e+00
2.000000000000000000e+00 7.001748657226562500e+01 3.386900711059570312e+01 -3.103172302246093750e+00 9.476356506347656250e-01 -6.466610431671142578e-01 6.486777067184448242e-01
3.000000000000000000e+00 6.981933593750000000e+01 3.385023498535156250e+01 -4.252776145935058594e+00 -4.417486786842346191e-01 -1.408357501029968262e+00 -3.546580299735069275e-02
4.000000000000000000e+00 6.962117767333984375e+01 3.383146667480468750e+01 -4.526669025421142578e+00 2.550079822540283203e-01 -1.281498312950134277e+00 1.241112947463989258e-01
5.000000000000000000e+00 7.022680664062500000e+01 3.383045578002929688e+01 7.588540554046630859e+00 -2.432622432708740234e+00 1.546775460243225098e+00 1.641842007637023926e+00
6.000000000000000000e+00 7.003610229492187500e+01 3.377346420288085938e+01 8.362037539482116699e-01 3.079171776771545410e-01 3.432362973690032959e-01 1.168406963348388672e+00
7.000000000000000000e+00 6.984539031982421875e+01 3.371647262573242188e+01 7.701806426048278809e-01 6.990332007408142090e-01 4.407641291618347168e-01 1.978381514549255371e+00
8.000000000000000000e+00 6.965468597412109375e+01 3.365948486328125000e+01 -3.143702149391174316e-01 2.490277290344238281e-01 -1.960274949669837952e-02 1.274376988410949707e+00
9.000000000000000000e+00 7.024892425537109375e+01 3.377639770507812500e+01 1.275716018676757812e+01 2.422627925872802734e+00 4.553936481475830078e+00 8.457649230957031250e+00
1.000000000000000000e+01 7.007295989990234375e+01 3.368337249755859375e+01 6.685023784637451172e+00 1.423165321350097656e+00 2.432456731796264648e+00 4.927405834197998047e+00
1.100000000000000000e+01 6.989699554443359375e+01 3.359034347534179688e+01 3.706219673156738281e+00 1.899139046669006348e+00 1.681607604026794434e+00 3.882021427154541016e+00
1.200000000000000000e+01 6.972103118896484375e+01 3.349731826782226562e+01 2.839589595794677734e+00 1.763157963752746582e+00 1.380824208259582520e+00 3.738987445831298828e+00
1.300000000000000000e+01 7.028114318847656250e+01 3.372768402099609375e+01 1.444150829315185547e+01 9.180320739746093750e+00 7.086548805236816406e+00 1.372828197479248047e+01
1.400000000000000000e+01 7.012665557861328125e+01 3.360217666625976562e+01 8.418767929077148438e+00 5.617592811584472656e+00 4.210907936096191406e+00 8.967948913574218750e+00
1.500000000000000000e+01 6.997216796875000000e+01 3.347667694091796875e+01 6.116620540618896484e+00 4.632501125335693359e+00 3.224736452102661133e+00 7.026429176330566406e+00
1.600000000000000000e+01 6.981768035888671875e+01 3.335116958618164062e+01 4.254505634307861328e+00 4.024974822998046875e+00 2.483844280242919922e+00 5.980841159820556641e+00
1.700000000000000000e+01 7.032222747802734375e+01 3.368617248535156250e+01 1.268039321899414062e+01 1.755497550964355469e+01 9.070610046386718750e+00 1.700672721862792969e+01
1.800000000000000000e+01 7.019512939453125000e+01 3.353299331665039062e+01 8.533480644226074219e+00 1.139662361145019531e+01 5.979031562805175781e+00 1.190242385864257812e+01
1.900000000000000000e+01 7.006803131103515625e+01 3.337981414794921875e+01 6.065098285675048828e+00 8.985086441040039062e+00 4.515055179595947266e+00 9.509790420532226562e+00
2.000000000000000000e+01 6.994093322753906250e+01 3.322663497924804688e+01 4.807124137878417969e+00 7.774252891540527344e+00 3.774413108825683594e+00 8.277549743652343750e+00
2.100000000000000000e+01 7.037060546875000000e+01 3.365345382690429688e+01 1.001864814758300781e+01 2.627870368957519531e+01 1.088920593261718750e+01 1.768676376342773438e+01
2.200000000000000000e+01 7.027575683593750000e+01 3.347846221923828125e+01 6.804297924041748047e+00 1.794186592102050781e+01 7.423849105834960938e+00 1.307075786590576172e+01
2.300000000000000000e+01 7.018091583251953125e+01 3.330347061157226562e+01 5.197285652160644531e+00 1.434488677978515625e+01 5.862651348114013672e+00 1.085781002044677734e+01
2.400000000000000000e+01 7.008607482910156250e+01 3.312847900390625000e+01 3.894629001617431641e+00 1.221659183502197266e+01 4.833366394042968750e+00 9.387174606323242188e+00
2.500000000000000000e+01 7.042443084716796875e+01 3.363077926635742188e+01 6.951260089874267578e+00 3.427023315429687500e+01 1.236644744873046875e+01 1.576448822021484375e+01
2.600000000000000000e+01 7.036546325683593750e+01 3.344067001342773438e+01 5.002415180206298828e+00 2.432666206359863281e+01 8.798723220825195312e+00 1.246695518493652344e+01
2.700000000000000000e+01 7.030650329589843750e+01 3.325056457519531250e+01 3.524899721145629883e+00 1.978463363647460938e+01 6.992859840393066406e+00 1.054929256439208984e+01
2.800000000000000000e+01 7.024754333496093750e+01 3.306045532226562500e+01 2.627893924713134766e+00 1.711567115783691406e+01 5.923069477081298828e+00 9.325154304504394531e+00
2.900000000000000000e+01 7.048163604736328125e+01 3.361901473999023438e+01 5.137238025665283203e+00 4.053331375122070312e+01 1.370116519927978516e+01 1.193838405609130859e+01
3.000000000000000000e+01 7.046080780029296875e+01 3.342106628417968750e+01 3.425243616104125977e+00 2.973842430114746094e+01 9.949100494384765625e+00 1.013693237304687500e+01
3.100000000000000000e+01 7.043998718261718750e+01 3.322311782836914062e+01 2.221014022827148438e+00 2.464339447021484375e+01 8.059322357177734375e+00 8.912282943725585938e+00
3.200000000000000000e+01 7.041916656494140625e+01 3.302516937255859375e+01 1.416431784629821777e+00 2.152953910827636719e+01 6.883791446685791016e+00 7.960671901702880859e+00
3.300000000000000000e+01 7.054003906250000000e+01 3.361861419677734375e+01 4.940452575683593750e+00 4.443185806274414062e+01 1.481169319152832031e+01 6.922078609466552734e+00
3.400000000000000000e+01 7.055815124511718750e+01 3.342040252685546875e+01 2.949482202529907227e+00 3.367940521240234375e+01 1.098866653442382812e+01 6.794862747192382812e+00
3.500000000000000000e+01 7.057626342773437500e+01 3.322218704223632812e+01 1.645382165908813477e+00 2.824749946594238281e+01 8.967864036560058594e+00 6.134306907653808594e+00
3.600000000000000000e+01 7.059437561035156250e+01 3.302397155761718750e+01 9.283135533332824707e-01 2.486586570739746094e+01 7.738253593444824219e+00 5.690558910369873047e+00
3.700000000000000000e+01 7.059740447998046875e+01 3.362959289550781250e+01 6.693645477294921875e+00 4.593342590332031250e+01 1.578812122344970703e+01 1.921694159507751465e+00
3.800000000000000000e+01 7.065375518798828125e+01 3.343869781494140625e+01 3.742229223251342773e+00 3.576555252075195312e+01 1.185233497619628906e+01 2.930141448974609375e+00
3.900000000000000000e+01 7.071011352539062500e+01 3.324780273437500000e+01 2.231369495391845703e+00 3.037516975402832031e+01 9.781961441040039062e+00 2.952431917190551758e+00
4.000000000000000000e+01 7.076647186279296875e+01 3.305690383911132812e+01 1.342626094818115234e+00 2.679503631591796875e+01 8.441298484802246094e+00 2.782385587692260742e+00
4.100000000000000000e+01 7.065153503417968750e+01 3.365153121948242188e+01 9.975145339965820312e+00 4.525362777709960938e+01 1.656863212585449219e+01 -2.308792591094970703e+00
4.200000000000000000e+01 7.074397277832031250e+01 3.347525787353515625e+01 5.892758369445800781e+00 3.616668319702148438e+01 1.261783313751220703e+01 -5.974171161651611328e-01
4.300000000000000000e+01 7.083641052246093750e+01 3.329898452758789062e+01 3.940203905105590820e+00 3.086159133911132812e+01 1.044053840637207031e+01 -1.858762949705123901e-01
4.400000000000000000e+01 7.092884826660156250e+01 3.312271118164062500e+01 2.768213510513305664e+00 2.744687461853027344e+01 9.064526557922363281e+00 2.048436179757118225e-02
4.500000000000000000e+01 7.070035552978515625e+01 3.368358612060546875e+01 1.422207164764404297e+01 4.324078369140625000e+01 1.723885726928710938e+01 -5.037197589874267578e+00
4.600000000000000000e+01 7.082534027099609375e+01 3.352868270874023438e+01 9.040617942810058594e+00 3.501799011230468750e+01 1.321758174896240234e+01 -3.324554443359375000e+00
4.700000000000000000e+01 7.095033264160156250e+01 3.337377929687500000e+01 6.589766979217529297e+00 3.015453147888183594e+01 1.102328968048095703e+01 -2.579493284225463867e+00
4.800000000000000000e+01 7.107531738281250000e+01 3.321887207031250000e+01 5.052915573120117188e+00 2.677844619750976562e+01 9.549408912658691406e+00 -2.215087175369262695e+00
4.900000000000000000e+01 7.074200439453125000e+01 3.372452926635742188e+01 1.866856193542480469e+01 4.046373748779296875e+01 1.773969078063964844e+01 -6.136788845062255859e+00
5.000000000000000000e+01 7.089475250244140625e+01 3.359692382812500000e+01 1.266975975036621094e+01 3.306832122802734375e+01 1.372142410278320312e+01 -4.752140522003173828e+00
5.100000000000000000e+01 7.104750823974609375e+01 3.346931838989257812e+01 9.758705139160156250e+00 2.847226524353027344e+01 1.146929073333740234e+01 -3.937740564346313477e+00
5.200000000000000000e+01 7.120026397705078125e+01 3.334170913696289062e+01 7.824398040771484375e+00 2.546857261657714844e+01 9.987891197204589844e+00 -3.479813337326049805e+00
5.300000000000000000e+01 7.077487945556640625e+01 3.377280044555664062e+01 2.257949638366699219e+01 3.784764862060546875e+01 1.812814331054687500e+01 -5.691157817840576172e+00
5.400000000000000000e+01 7.094955444335937500e+01 3.367737579345703125e+01 1.621303558349609375e+01 3.074440002441406250e+01 1.408723068237304688e+01 -4.781968593597412109e+00
5.500000000000000000e+01 7.112423706054687500e+01 3.358194732666015625e+01 1.282857894897460938e+01 2.657364654541015625e+01 1.182066726684570312e+01 -4.074129581451416016e+00
5.600000000000000000e+01 7.129890441894531250e+01 3.348651885986328125e+01 1.064119720458984375e+01 2.381117630004882812e+01 1.033571243286132812e+01 -3.616570472717285156e+00
5.700000000000000000e+01 7.079772949218750000e+01 3.382654571533203125e+01 2.552579498291015625e+01 3.576010131835937500e+01 1.838576889038085938e+01 -4.016565322875976562e+00
5.800000000000000000e+01 7.098764801025390625e+01 3.376695251464843750e+01 1.897881126403808594e+01 2.882399559020996094e+01 1.434084224700927734e+01 -3.583154201507568359e+00
5.900000000000000000e+01 7.117755889892578125e+01 3.370735931396484375e+01 1.533602142333984375e+01 2.485480880737304688e+01 1.205724906921386719e+01 -3.064954280853271484e+00
6.000000000000000000e+01 7.136746978759765625e+01 3.364776229858398438e+01 1.287124061584472656e+01 2.236195945739746094e+01 1.056995964050292969e+01 -2.710993528366088867e+00
6.100000000000000000e+01 7.080968475341796875e+01 3.388371658325195312e+01 2.709955024719238281e+01 3.463385391235351562e+01 1.852002143859863281e+01 -1.660336494445800781e+00
6.200000000000000000e+01 7.100756835937500000e+01 3.386223220825195312e+01 2.060527420043945312e+01 2.767383003234863281e+01 1.448373126983642578e+01 -1.447048544883728027e+00
6.300000000000000000e+01 7.120544433593750000e+01 3.384075164794921875e+01 1.671109008789062500e+01 2.388291549682617188e+01 1.217820167541503906e+01 -1.302523851394653320e+00
6.400000000000000000e+01 7.140332031250000000e+01 3.381927108764648438e+01 1.421341133117675781e+01 2.136310386657714844e+01 1.067295455932617188e+01 -1.053010106086730957e+00
6.500000000000000000e+01 7.081027984619140625e+01 3.394211578369140625e+01 2.724423789978027344e+01 3.460158538818359375e+01 1.855374717712402344e+01 1.033849120140075684e+00
6.600000000000000000e+01 7.100855255126953125e+01 3.395956802368164062e+01 2.074001502990722656e+01 2.758237266540527344e+01 1.449671649932861328e+01 9.442703127861022949e-01
6.700000000000000000e+01 7.120683288574218750e+01 3.397702407836914062e+01 1.683579444885253906e+01 2.385463714599609375e+01 1.220712947845458984e+01 8.848556280136108398e-01
6.800000000000000000e+01 7.140510559082031250e+01 3.399447250366210938e+01 1.424588775634765625e+01 2.124110794067382812e+01 1.064609909057617188e+01 7.606381177902221680e-01
6.900000000000000000e+01 7.079949951171875000e+01 3.399951934814453125e+01 2.592417526245117188e+01 3.558560180664062500e+01 1.845293235778808594e+01 3.436472654342651367e+00
7.000000000000000000e+01 7.099057769775390625e+01 3.405523681640625000e+01 1.940235710144042969e+01 2.864167976379394531e+01 1.441321086883544922e+01 3.156583547592163086e+00
7.100000000000000000e+01 7.118166351318359375e+01 3.411095428466796875e+01 1.566360569000244141e+01 2.470089340209960938e+01 1.210934925079345703e+01 2.744538784027099609e+00
7.200000000000000000e+01 7.137274169921875000e+01 3.416667175292968750e+01 1.313686370849609375e+01 2.211720848083496094e+01 1.057622146606445312e+01 2.522528886795043945e+00
7.300000000000000000e+01 7.077774047851562500e+01 3.405371856689453125e+01 2.325662422180175781e+01 3.759837341308593750e+01 1.825650024414062500e+01 5.206881523132324219e+00
7.400000000000000000e+01 7.095432281494140625e+01 3.414557266235351562e+01 1.685186195373535156e+01 3.046051979064941406e+01 1.419371414184570312e+01 4.497802257537841797e+00
7.500000000000000000e+01 7.113089752197265625e+01 3.423742294311523438e+01 1.337174797058105469e+01 2.636209487915039062e+01 1.192015266418457031e+01 3.921278715133666992e+00
7.600000000000000000e+01 7.130747985839843750e+01 3.432927703857421875e+01 1.121752262115478516e+01 2.352599525451660156e+01 1.042305564880371094e+01 3.518426656723022461e+00
7.700000000000000000e+01 7.074584960937500000e+01 3.410264587402343750e+01 1.957283592224121094e+01 4.010993957519531250e+01 1.790483283996582031e+01 5.809925079345703125e+00
7.800000000000000000e+01 7.090116882324218750e+01 3.422711944580078125e+01 1.348134040832519531e+01 3.280275726318359375e+01 1.388522911071777344e+01 4.654715538024902344e+00
7.900000000000000000e+01 7.105648803710937500e+01 3.435159301757812500e+01 1.047688007354736328e+01 2.820523452758789062e+01 1.160463428497314453e+01 3.964359283447265625e+00
8.000000000000000000e+01 7.121180725097656250e+01 3.447606277465820312e+01 8.552726745605468750e+00 2.528690528869628906e+01 1.015188980102539062e+01 3.483318567276000977e+00
8.100000000000000000e+01 7.070503997802734375e+01 3.414443206787109375e+01 1.532590579986572266e+01 4.292963027954101562e+01 1.747666168212890625e+01 4.900401115417480469e+00
8.200000000000000000e+01 7.083315277099609375e+01 3.429676055908203125e+01 9.924593925476074219e+00 3.476425552368164062e+01 1.340665435791015625e+01 3.441751956939697266e+00
8.300000000000000000e+01 7.096127319335937500e+01 3.444908905029296875e+01 7.419012069702148438e+00 2.998565864562988281e+01 1.122140121459960938e+01 2.743072271347045898e+00
8.400000000000000000e+01 7.108938598632812500e+01 3.460141754150390625e+01 5.783383369445800781e+00 2.665386962890625000e+01 9.731175422668457031e+00 2.405268669128417969e+00
8.500000000000000000e+01 7.065688323974609375e+01 3.417747116088867188e+01 1.111136436462402344e+01 4.500671768188476562e+01 1.683542442321777344e+01 2.417438507080078125e+00
8.600000000000000000e+01 7.075289154052734375e+01 3.435182952880859375e+01 6.843451499938964844e+00 3.606677627563476562e+01 1.287306880950927734e+01 8.457153439521789551e-01
8.700000000000000000e+01 7.084889984130859375e+01 3.452618408203125000e+01 4.736109733581542969e+00 3.078169822692871094e+01 1.065534210205078125e+01 5.161450505256652832e-01
8.800000000000000000e+01 7.094490814208984375e+01 3.470053863525390625e+01 3.506584644317626953e+00 2.746053123474121094e+01 9.290134429931640625e+00 2.957532107830047607e-01
8.900000000000000000e+01 7.060321044921875000e+01 3.420050430297851562e+01 7.846270561218261719e+00 4.591075897216796875e+01 1.612710762023925781e+01 -1.626256465911865234e+00
9.000000000000000000e+01 7.066343688964843750e+01 3.439021682739257812e+01 4.608266830444335938e+00 3.583917236328125000e+01 1.213423252105712891e+01 -2.587031841278076172e+00
9.100000000000000000e+01 7.072366333007812500e+01 3.457992553710937500e+01 3.046257972717285156e+00 3.044282341003417969e+01 1.004672431945800781e+01 -2.557957410812377930e+00
9.200000000000000000e+01 7.078388977050781250e+01 3.476963424682617188e+01 1.979146718978881836e+00 2.690802001953125000e+01 8.666150093078613281e+00 -2.332009792327880859e+00
9.300000000000000000e+01 7.054608154296875000e+01 3.421264648437500000e+01 5.946986675262451172e+00 4.467773818969726562e+01 1.518741798400878906e+01 -6.527256965637207031e+00
9.400000000000000000e+01 7.056822204589843750e+01 3.441045379638671875e+01 3.776452302932739258e+00 3.398730850219726562e+01 1.132912826538085938e+01 -6.442309856414794922e+00
9.500000000000000000e+01 7.059036254882812500e+01 3.460825729370117188e+01 2.385380506515502930e+00 2.847745704650878906e+01 9.258851051330566406e+00 -5.764348030090332031e+00
9.600000000000000000e+01 7.061250305175781250e+01 3.480606460571289062e+01 1.591842532157897949e+00 2.502803039550781250e+01 7.985961437225341797e+00 -5.223221778869628906e+00
9.700000000000000000e+01 7.048768615722656250e+01 3.421343612670898438e+01 6.040378093719482422e+00 4.111412429809570312e+01 1.414635086059570312e+01 -1.158770656585693359e+01
9.800000000000000000e+01 7.047089385986328125e+01 3.441176605224609375e+01 4.164550304412841797e+00 3.021836280822753906e+01 1.031487369537353516e+01 -9.852519035339355469e+00
9.900000000000000000e+01 7.045410156250000000e+01 3.461009979248046875e+01 2.938454389572143555e+00 2.508724021911621094e+01 8.407708168029785156e+00 -8.629244804382324219e+00
1.000000000000000000e+02 7.043730926513671875e+01 3.480842971801757812e+01 2.090929985046386719e+00 2.181150245666503906e+01 7.170729637145996094e+00 -7.659023284912109375e+00
1.010000000000000000e+02 7.043024444580078125e+01 3.420283889770507812e+01 7.729293823242187500e+00 3.510444641113281250e+01 1.285012245178222656e+01 -1.558968830108642578e+01
1.020000000000000000e+02 7.037516784667968750e+01 3.439410781860351562e+01 5.774325847625732422e+00 2.495715522766113281e+01 9.219444274902343750e+00 -1.233666896820068359e+01
1.030000000000000000e+02 7.032008361816406250e+01 3.458537673950195312e+01 4.213890075683593750e+00 2.032111930847167969e+01 7.360502719879150391e+00 -1.036773586273193359e+01
1.040000000000000000e+02 7.026499938964843750e+01 3.477664184570312500e+01 3.308092832565307617e+00 1.774423027038574219e+01 6.315696716308593750e+00 -9.171067237854003906e+00
1.050000000000000000e+02 7.037597656250000000e+01 3.418126678466796875e+01 1.078805351257324219e+01 2.723652267456054688e+01 1.140737247467041016e+01 -1.779532051086425781e+01
1.060000000000000000e+02 7.028470611572265625e+01 3.435815048217773438e+01 7.674489974975585938e+00 1.864373207092285156e+01 7.895466804504394531e+00 -1.310738945007324219e+01
1.070000000000000000e+02 7.019344329833984375e+01 3.453503799438476562e+01 5.970108032226562500e+00 1.493082523345947266e+01 6.270279884338378906e+00 -1.085725402832031250e+01
1.080000000000000000e+02 7.010218048095703125e+01 3.471191787719726562e+01 4.644007682800292969e+00 1.279677295684814453e+01 5.232234001159667969e+00 -9.190718650817871094e+00
1.090000000000000000e+02 7.032694244384765625e+01 3.414953994750976562e+01 1.372871017456054688e+01 1.855670928955078125e+01 9.685626029968261719e+00 -1.736032104492187500e+01
1.100000000000000000e+02 7.020298767089843750e+01 3.430527114868164062e+01 9.474828720092773438e+00 1.199699115753173828e+01 6.441545963287353516e+00 -1.217766094207763672e+01
1.110000000000000000e+02 7.007903289794921875e+01 3.446100234985351562e+01 7.093520641326904297e+00 9.591155052185058594e+00 5.005402565002441406e+00 -9.576645851135253906e+00
1.120000000000000000e+02 6.995507812500000000e+01 3.461673355102539062e+01 5.744532585144042969e+00 8.094436645507812500e+00 4.151690959930419922e+00 -8.326347351074218750e+00
1.130000000000000000e+02 7.028501892089843750e+01 3.410887145996093750e+01 1.575703239440917969e+01 9.836448669433593750e+00 7.678044319152832031e+00 -1.437588310241699219e+01
1.140000000000000000e+02 7.013311767578125000e+01 3.423749160766601562e+01 9.670363426208496094e+00 6.236689090728759766e+00 4.772115707397460938e+00 -9.269418716430664062e+00
1.150000000000000000e+02 6.998121643066406250e+01 3.436611175537109375e+01 7.283292293548583984e+00 4.951513290405273438e+00 3.670441627502441406e+00 -7.299419879913330078e+00
1.160000000000000000e+02 6.982931518554687500e+01 3.449473571777343750e+01 5.505993843078613281e+00 4.546886444091796875e+00 3.015864133834838867e+00 -6.131010055541992188e+00
1.170000000000000000e+02 7.025181579589843750e+01 3.406082153320312500e+01 1.452046489715576172e+01 2.914272308349609375e+00 5.230421066284179688e+00 -9.155709266662597656e+00
1.180000000000000000e+02 7.007778167724609375e+01 3.415740585327148438e+01 8.239603996276855469e+00 1.703991413116455078e+00 2.983078718185424805e+00 -5.273011207580566406e+00
1.190000000000000000e+02 6.990374755859375000e+01 3.425399780273437500e+01 5.084209918975830078e+00 2.244969129562377930e+00 2.198753833770751953e+00 -4.152354240417480469e+00
1.200000000000000000e+02 6.972971343994140625e+01 3.435058593750000000e+01 4.169497966766357422e+00 1.996963500976562500e+00 1.849938392639160156e+00 -3.879128456115722656e+00
1.210000000000000000e+02 7.022860717773437500e+01 3.400722503662109375e+01 9.840784072875976562e+00 -2.352361917495727539e+00 2.246526479721069336e+00 -2.184150934219360352e+00
1.220000000000000000e+02 7.003909301757812500e+01 3.406808471679687500e+01 2.668257951736450195e+00 4.493721127510070801e-01 9.352890253067016602e-01 -1.441131472587585449e+00
1.230000000000000000e+02 6.984958648681640625e+01 3.412894439697265625e+01 2.378888368606567383e+00 9.046579599380493164e-01 9.850639104843139648e-01 -2.108737468719482422e+00
1.240000000000000000e+02 6.966007995605468750e+01 3.418980407714843750e+01 1.135966539382934570e+00 2.059651762247085571e-01 4.025795161724090576e-01 -1.362247943878173828e+00
1.250000000000000000e+02 7.021627044677734375e+01 3.395013809204101562e+01 -4.952435016632080078e+00 -2.616529941558837891e+00 -2.270689487457275391e+00 2.647176265716552734e+00
1.260000000000000000e+02 7.001853942871093750e+01 3.397293853759765625e+01 -1.124053001403808594e+00 1.022841334342956543e+00 -3.036348894238471985e-02 -7.520258426666259766e-01
1.270000000000000000e+02 6.982080841064453125e+01 3.399573898315429688e+01 -2.417794942855834961e+00 -4.265273511409759521e-01 -8.532966971397399902e-01 3.828654065728187561e-02
1.280000000000000000e+02 6.962308502197265625e+01 3.401853942871093750e+01 -2.755564689636230469e+00 2.242722809314727783e-01 -7.593877315521240234e-01 -1.389348655939102173e-01
1.290000000000000000e+02 5.662155914306640625e+01 3.460263824462890625e+01 -1.439184665679931641e+00 2.494071796536445618e-02 -4.242731630802154541e-01 1.896435953676700592e-02
1.300000000000000000e+02 5.648379135131835938e+01 3.387492752075195312e+01 -1.488452792167663574e+00 1.053317859768867493e-01 -4.149363040924072266e-01 -2.911280393600463867e-01
1.310000000000000000e+02 5.571845626831054688e+01 3.398872375488281250e+01 -1.200708150863647461e+00 1.218459308147430420e-01 -3.236586451530456543e-01 -3.346797525882720947e-01
1.320000000000000000e+02 5.801555252075195312e+01 3.365230941772460938e+01 -2.039118289947509766e+00 8.682473003864288330e-02 -5.856880545616149902e-01 -2.239611297845840454e-01
1.330000000000000000e+02 5.812237167358398438e+01 3.438455963134765625e+01 -2.191016912460327148e+00 4.271769430488348007e-03 -6.560235619544982910e-01 1.133214458823204041e-01
1.340000000000000000e+02 5.737181472778320312e+01 3.449321365356445312e+01 -1.807638049125671387e+00 1.446926780045032501e-02 -5.379506349563598633e-01 6.958092004060745239e-02
1.350000000000000000e+02 5.724952316284179688e+01 3.376323318481445312e+01 -1.771212339401245117e+00 1.049163118004798889e-01 -4.998888075351715088e-01 -2.594702541828155518e-01
1.360000000000000000e+02 5.587170028686523438e+01 3.471416091918945312e+01 -1.076354980468750000e+00 2.221455983817577362e-02 -3.162421286106109619e-01 -2.810960076749324799e-02
1.370000000000000000e+02 6.036611557006835938e+01 3.409850692749023438e+01 -3.199979066848754883e+00 -9.025954641401767731e-03 -9.627015590667724609e-01 2.108653932809829712e-01
1.380000000000000000e+02 6.028128051757812500e+01 3.336336135864257812e+01 -2.802552461624145508e+00 5.007117986679077148e-02 -8.257443904876708984e-01 -1.250180304050445557e-01
1.390000000000000000e+02 5.877515792846679688e+01 3.354987716674804688e+01 -2.302176713943481445e+00 7.537020742893218994e-02 -6.680419445037841797e-01 -1.800959408283233643e-01
1.400000000000000000e+02 6.103430938720703125e+01 3.327088928222656250e+01 -2.989020586013793945e+00 2.135300636291503906e-02 -8.903003334999084473e-01 -1.090053021907806396e-01
1.410000000000000000e+02 6.111344909667968750e+01 3.400674057006835938e+01 -3.572404623031616211e+00 -2.938378043472766876e-02 -1.080536603927612305e+00 2.217702269554138184e-01
1.420000000000000000e+02 5.961875534057617188e+01 3.419079971313476562e+01 -2.868001937866210938e+00 -2.685214160010218620e-03 -8.612061142921447754e-01 1.769863516092300415e-01
1.430000000000000000e+02 5.887139129638671875e+01 3.428361511230468750e+01 -2.547234535217285156e+00 -4.738188814371824265e-03 -7.655918002128601074e-01 1.454492211341857910e-01
1.440000000000000000e+02 5.952822113037109375e+01 3.345635986328125000e+01 -2.560307741165161133e+00 6.587920337915420532e-02 -7.483285069465637207e-01 -1.397874802350997925e-01
1.450000000000000000e+02 6.330451965332031250e+01 3.306448745727539062e+01 -3.464158773422241211e+00 2.425990253686904907e-02 -1.031969666481018066e+00 -3.136529028415679932e-02
1.460000000000000000e+02 6.254696655273437500e+01 3.312799835205078125e+01 -3.343361377716064453e+00 1.656747423112392426e-02 -9.980381727218627930e-01 -3.689302876591682434e-02
1.470000000000000000e+02 6.178956222534179688e+01 3.319244766235351562e+01 -3.167359590530395508e+00 8.564918301999568939e-03 -9.476383924484252930e-01 -6.656027585268020630e-02
1.480000000000000000e+02 6.406219482421875000e+01 3.300191879272460938e+01 -3.501060485839843750e+00 -3.026541881263256073e-02 -1.059397697448730469e+00 -1.695747859776020050e-02
1.490000000000000000e+02 6.336417388916015625e+01 3.380208206176757812e+01 -4.342986583709716797e+00 -7.549946196377277374e-03 -1.305160880088806152e+00 2.170160859823226929e-01
1.500000000000000000e+02 6.261327362060546875e+01 3.386503601074218750e+01 -4.099849224090576172e+00 -9.693930856883525848e-03 -1.232862949371337891e+00 2.012894302606582642e-01
1.510000000000000000e+02 6.411519622802734375e+01 3.374007415771484375e+01 -4.627480506896972656e+00 -3.846554830670356750e-02 -1.399783849716186523e+00 2.014640122652053833e-01
1.520000000000000000e+02 6.186252593994140625e+01 3.392892837524414062e+01 -3.878078460693359375e+00 -2.870991826057434082e-02 -1.172036528587341309e+00 2.059912532567977905e-01
1.530000000000000000e+02 6.565020751953125000e+01 3.370534515380859375e+01 -5.026981830596923828e+00 -9.676648303866386414e-03 -1.510997533798217773e+00 1.162507236003875732e-01
1.540000000000000000e+02 6.488288116455078125e+01 3.368951034545898438e+01 -4.856761455535888672e+00 -3.488636016845703125e-02 -1.467494368553161621e+00 1.499867439270019531e-01
1.550000000000000000e+02 6.734922790527343750e+01 3.280271911621093750e+01 -2.178938388824462891e+00 2.746071293950080872e-02 -6.454432606697082520e-01 7.283223867416381836e-01
1.560000000000000000e+02 6.479846191406250000e+01 3.295283889770507812e+01 -3.442540168762207031e+00 -4.641465377062559128e-03 -1.034154534339904785e+00 5.721620842814445496e-02
1.570000000000000000e+02 6.593511962890625000e+01 3.273981094360351562e+01 -2.801899671554565430e+00 1.424388885498046875e-01 -7.978382110595703125e-01 2.105450481176376343e-01
1.580000000000000000e+02 6.637295532226562500e+01 3.323969650268554688e+01 -3.993970155715942383e+00 -1.914852764457464218e-03 -1.198765516281127930e+00 1.429662406444549561e-01
1.590000000000000000e+02 6.734132385253906250e+01 3.336833190917968750e+01 -4.003785133361816406e+00 9.090570360422134399e-02 -1.173863768577575684e+00 2.494983971118927002e-01
1.600000000000000000e+02 6.723715972900390625e+01 3.258934402465820312e+01 -1.705021023750305176e+00 2.823073267936706543e-01 -4.268140792846679688e-01 9.041964411735534668e-01
1.610000000000000000e+02 6.738056182861328125e+01 3.298558425903320312e+01 -2.697682142257690430e+00 2.384508214890956879e-02 -8.021510839462280273e-01 5.204260349273681641e-01
1.620000000000000000e+02 6.685063934326171875e+01 3.324478912353515625e+01 -3.862125158309936523e+00 3.558172285556793213e-02 -1.147963047027587891e+00 2.396110147237777710e-01
1.630000000000000000e+02 6.716427612304687500e+01 3.320766067504882812e+01 -3.538396596908569336e+00 -3.379015251994132996e-02 -1.071655988693237305e+00 3.630145192146301270e-01
1.640000000000000000e+02 6.730049133300781250e+01 3.357871246337890625e+01 -4.709933757781982422e+00 1.471496820449829102e-01 -1.368835210800170898e+00 6.776812672615051270e-02
1.650000000000000000e+02 6.692214965820312500e+01 3.283362197875976562e+01 -2.503137350082397461e+00 1.942477077245712280e-01 -6.926669478416442871e-01 4.923291802406311035e-01
1.660000000000000000e+02 6.718183135986328125e+01 3.295911026000976562e+01 -2.737805604934692383e+00 -3.200553357601165771e-02 -8.309433460235595703e-01 5.631141066551208496e-01
1.670000000000000000e+02 6.738040161132812500e+01 3.317922210693359375e+01 -3.109851360321044922e+00 8.296252787113189697e-02 -9.080666303634643555e-01 3.170829117298126221e-01
1.680000000000000000e+02 6.722110748291015625e+01 3.382128906250000000e+01 -5.904337882995605469e+00 6.118183955550193787e-02 -1.752946853637695312e+00 1.364622563123703003e-01
1.690000000000000000e+02 6.648282623291015625e+01 3.274645996093750000e+01 -2.558475255966186523e+00 1.226019933819770813e-01 -7.307620048522949219e-01 4.280143082141876221e-01
1.700000000000000000e+02 6.689685821533203125e+01 3.363513946533203125e+01 -5.189912796020507812e+00 -1.067318022251129150e-01 -1.588993430137634277e+00 1.371780931949615479e-01
1.710000000000000000e+02 6.636042785644531250e+01 3.373162078857421875e+01 -5.298319339752197266e+00 1.980001479387283325e-02 -1.583555698394775391e+00 1.452025324106216431e-01
1.720000000000000000e+02 6.540938568115234375e+01 3.283320999145507812e+01 -3.268944978713989258e+00 -1.176166813820600510e-02 -9.842119812965393066e-01 1.233344078063964844e-01
1.730000000000000000e+02 6.579474639892578125e+01 3.317228317260742188e+01 -3.849694490432739258e+00 3.148614242672920227e-02 -1.145462512969970703e+00 1.367527097463607788e-01
1.740000000000000000e+02 6.865055847167968750e+01 3.351955795288085938e+01 -3.186646699905395508e+00 9.917969256639480591e-02 -9.262400865554809570e-01 4.639282822608947754e-01
1.750000000000000000e+02 6.959566497802734375e+01 3.258343124389648438e+01 2.224460363388061523e+00 6.976600646972656250e+00 2.760318279266357422e+00 6.400006771087646484e+00
1.760000000000000000e+02 7.141761779785156250e+01 3.493629455566406250e+01 3.959530115127563477e+00 2.211783599853515625e+01 7.823210239410400391e+00 2.138451576232910156e+00
1.770000000000000000e+02 6.761830902099609375e+01 3.407335662841796875e+01 -4.194359302520751953e+00 -1.199980005621910095e-01 -1.294307231903076172e+00 5.375916138291358948e-02
1.780000000000000000e+02 7.122161865234375000e+01 3.305720520019531250e+01 4.130663871765136719e+00 2.437170791625976562e+01 8.550711631774902344e+00 -2.002419233322143555e+00
1.790000000000000000e+02 7.058525085449218750e+01 3.280059051513671875e+01 2.921798527240753174e-01 2.182930374145507812e+01 6.636445045471191406e+00 5.439664363861083984e+00
1.800000000000000000e+02 7.028108978271484375e+01 3.264723587036132812e+01 9.433763623237609863e-01 1.652759933471679688e+01 5.241292953491210938e+00 7.104181766510009766e+00
1.810000000000000000e+02 6.757584381103515625e+01 3.255339050292968750e+01 -1.162119746208190918e+00 5.823493003845214844e-01 -1.739311218261718750e-01 1.366947293281555176e+00
1.820000000000000000e+02 6.781406402587890625e+01 3.277035522460937500e+01 -1.319720983505249023e+00 5.027951002120971680e-01 -2.450777441263198853e-01 1.160327553749084473e+00
1.830000000000000000e+02 6.944374084472656250e+01 3.359885025024414062e+01 -9.746233224868774414e-01 3.690409660339355469e-01 -1.816747039556503296e-01 1.232659578323364258e+00
1.840000000000000000e+02 7.017567443847656250e+01 3.288068008422851562e+01 2.076353549957275391e+00 1.499456691741943359e+01 5.121276378631591797e+00 8.508318901062011719e+00
1.850000000000000000e+02 6.951788330078125000e+01 3.338715362548828125e+01 1.699961662292480469e+00 1.394562602043151855e+00 9.283573031425476074e-01 3.046840667724609375e+00
1.860000000000000000e+02 6.862200164794921875e+01 3.378691864013671875e+01 -5.455171585083007812e+00 2.017437480390071869e-02 -1.630499124526977539e+00 2.130411192774772644e-02
1.870000000000000000e+02 6.798587036132812500e+01 3.254399871826171875e+01 -3.920845091342926025e-01 1.003416776657104492e+00 1.833996921777725220e-01 1.736778140068054199e+00
1.880000000000000000e+02 7.041290283203125000e+01 3.502978134155273438e+01 1.466076254844665527e+00 1.938474655151367188e+01 6.255247116088867188e+00 -6.830706119537353516e+00
1.890000000000000000e+02 7.123875427246093750e+01 3.475949096679687500e+01 4.850594520568847656e+00 2.423023605346679688e+01 8.724248886108398438e+00 2.230101108551025391e+00
1.900000000000000000e+02 7.113517761230468750e+01 3.516535949707031250e+01 1.399260044097900391e+00 2.243308067321777344e+01 7.149702072143554688e+00 -7.586882263422012329e-02
1.910000000000000000e+02 7.155208587646484375e+01 3.479764556884765625e+01 5.621477127075195312e+00 2.143978118896484375e+01 8.118377685546875000e+00 2.733364582061767578e+00
1.920000000000000000e+02 7.177687835693359375e+01 3.449533081054687500e+01 8.218149185180664062e+00 1.919397544860839844e+01 8.223637580871582031e+00 2.737399816513061523e+00
1.930000000000000000e+02 7.139684295654296875e+01 3.287680053710937500e+01 3.245996475219726562e+00 2.200469398498535156e+01 7.575207233428955078e+00 -1.900021314620971680e+00
1.940000000000000000e+02 6.766302490234375000e+01 3.531828308105468750e+01 -2.852141112089157104e-02 9.884570240974426270e-01 2.879807054996490479e-01 -1.216216206550598145e+00
1.950000000000000000e+02 6.762767028808593750e+01 3.450265884399414062e+01 -2.370231628417968750e+00 1.264186352491378784e-01 -6.731438636779785156e-01 -3.518822044134140015e-02
1.960000000000000000e+02 6.864273834228515625e+01 3.532032394409179688e+01 1.747816801071166992e+00 1.997402071952819824e+00 1.123565673828125000e+00 -2.833024263381958008e+00
1.970000000000000000e+02 6.981961059570312500e+01 3.479809570312500000e+01 4.555681228637695312e+00 7.276513576507568359e+00 3.549658536911010742e+00 -7.138526439666748047e+00
1.980000000000000000e+02 7.020305633544921875e+01 3.498393630981445312e+01 2.619997978210449219e+00 1.563661861419677734e+01 5.476984977722167969e+00 -8.030010223388671875e+00
1.990000000000000000e+02 6.763976287841796875e+01 3.510318756103515625e+01 -4.285975098609924316e-01 5.627651214599609375e-01 4.025028273463249207e-02 -7.387453317642211914e-01
2.000000000000000000e+02 6.844977569580078125e+01 3.532822799682617188e+01 1.401771783828735352e+00 1.710561275482177734e+00 9.336999058723449707e-01 -2.458857774734497070e+00
2.010000000000000000e+02 6.823840332031250000e+01 3.409190368652343750e+01 -4.068163394927978516e+00 1.487589348107576370e-02 -1.215986251831054688e+00 7.011796534061431885e-02
2.020000000000000000e+02 6.925653076171875000e+01 3.431216812133789062e+01 -2.786064520478248596e-02 2.702757418155670166e-01 7.272452861070632935e-02 -1.097204685211181641e+00
2.030000000000000000e+02 6.921546173095703125e+01 3.406303024291992188e+01 -3.358607530593872070e+00 4.653448611497879028e-02 -9.936218857765197754e-01 -8.458290994167327881e-02
2.040000000000000000e+02 6.942357635498046875e+01 3.404127120971679688e+01 -3.098890304565429688e+00 -9.579778462648391724e-02 -9.584064483642578125e-01 -5.432826280593872070e-02
2.050000000000000000e+02 7.189279174804687500e+01 3.401415634155273438e+01 1.046627712249755859e+01 1.764988708496093750e+01 8.434848785400390625e+00 4.376896917819976807e-01
2.060000000000000000e+02 7.148496246337890625e+01 3.446808624267578125e+01 9.156670570373535156e+00 2.187925529479980469e+01 9.310777664184570312e+00 3.195698261260986328e+00
2.070000000000000000e+02 7.137271881103515625e+01 3.462112426757812500e+01 6.980018138885498047e+00 2.313351058959960938e+01 9.034058570861816406e+00 3.212813854217529297e+00
2.080000000000000000e+02 7.098392486572265625e+01 3.522927856445312500e+01 5.601778030395507812e-01 2.212600326538085938e+01 6.805854797363281250e+00 -1.668578267097473145e+00
2.090000000000000000e+02 7.080632019042968750e+01 3.499673843383789062e+01 1.213361144065856934e+00 2.419584274291992188e+01 7.622761249542236328e+00 -2.686285734176635742e+00
2.100000000000000000e+02 7.061852264404296875e+01 3.502443313598632812e+01 8.617682456970214844e-01 2.238413047790527344e+01 6.973769664764404297e+00 -4.840637207031250000e+00
2.110000000000000000e+02 7.021709442138671875e+01 3.531445312500000000e+01 1.405996680259704590e+00 1.513329792022705078e+01 4.961788177490234375e+00 -6.716327190399169922e+00
2.120000000000000000e+02 6.935856628417968750e+01 3.454711532592773438e+01 2.563711881637573242e+00 1.513088583946228027e+00 1.223040223121643066e+00 -2.883480310440063477e+00
2.130000000000000000e+02 6.946589660644531250e+01 3.425081253051757812e+01 5.456973314285278320e-01 4.859617948532104492e-01 3.094977438449859619e-01 -1.385483145713806152e+00
2.140000000000000000e+02 6.942098999023437500e+01 3.381579208374023438e+01 -4.806661605834960938e+00 -1.416547894477844238e-01 -1.484494924545288086e+00 5.512589961290359497e-02
2.150000000000000000e+02 6.946882629394531250e+01 3.301958847045898438e+01 2.648010492324829102e+00 3.555481433868408203e+00 1.861047625541687012e+00 5.017542839050292969e+00
2.160000000000000000e+02 7.077942657470703125e+01 3.256800842285156250e+01 -1.455000489950180054e-01 2.096621894836425781e+01 6.246215343475341797e+00 3.579074382781982422e+00
2.170000000000000000e+02 6.820444488525390625e+01 3.378958129882812500e+01 -5.640162467956542969e+00 7.496611680835485458e-03 -1.689799666404724121e+00 3.729943931102752686e-02
2.180000000000000000e+02 6.836991882324218750e+01 3.272213745117187500e+01 -1.512291729450225830e-01 9.416733980178833008e-01 2.371332645416259766e-01 2.057007074356079102e+00
2.190000000000000000e+02 6.816930389404296875e+01 3.351525878906250000e+01 -3.978932619094848633e+00 1.012136507779359818e-02 -1.190643429756164551e+00 2.467186599969863892e-01
2.200000000000000000e+02 6.760472106933593750e+01 3.298315429687500000e+01 -2.411678075790405273e+00 1.791167259216308594e-01 -6.697683930397033691e-01 5.519294738769531250e-01
2.210000000000000000e+02 6.780773162841796875e+01 3.381855010986328125e+01 -5.863700389862060547e+00 2.415023930370807648e-02 -1.751865029335021973e+00 1.958314701914787292e-02
2.220000000000000000e+02 6.782550048828125000e+01 3.343562698364257812e+01 -3.866490602493286133e+00 -9.106396138668060303e-02 -1.187266349792480469e+00 3.019745945930480957e-01
2.230000000000000000e+02 6.760867309570312500e+01 3.382076644897460938e+01 -6.110500335693359375e+00 -1.985140889883041382e-01 -1.892704367637634277e+00 1.779411137104034424e-01
2.240000000000000000e+02 7.161873626708984375e+01 3.381896972656250000e+01 1.232451248168945312e+01 1.949285507202148438e+01 9.545209884643554688e+00 -8.691294789314270020e-01
2.250000000000000000e+02 6.991439056396484375e+01 3.509759140014648438e+01 3.320310354232788086e+00 1.051000022888183594e+01 4.149093151092529297e+00 -7.512748718261718750e+00
2.260000000000000000e+02 7.000612640380859375e+01 3.489811706542968750e+01 3.884784460067749023e+00 1.135548591613769531e+01 4.572081089019775391e+00 -8.301121711730957031e+00
2.270000000000000000e+02 7.098872375488281250e+01 3.502867889404296875e+01 1.554721713066101074e+00 2.367654991149902344e+01 7.569381713867187500e+00 -9.546012878417968750e-01
2.280000000000000000e+02 6.883538818359375000e+01 3.531746292114257812e+01 1.880455493927001953e+00 2.707948684692382812e+00 1.376521229743957520e+00 -3.323883771896362305e+00
2.290000000000000000e+02 6.966367340087890625e+01 3.464418411254882812e+01 4.530813694000244141e+00 3.993878126144409180e+00 2.557407617568969727e+00 -5.595740795135498047e+00
2.300000000000000000e+02 7.162255859375000000e+01 3.433931732177734375e+01 1.019893264770507812e+01 2.019425010681152344e+01 9.117955207824707031e+00 2.598198652267456055e+00
2.310000000000000000e+02 7.166998291015625000e+01 3.464788818359375000e+01 7.009485721588134766e+00 2.011274719238281250e+01 8.136670112609863281e+00 2.969805955886840820e+00
2.320000000000000000e+02 7.159358978271484375e+01 3.362626647949218750e+01 1.121773815155029297e+01 2.007782745361328125e+01 9.388669967651367188e+00 -2.287854909896850586e+00
2.330000000000000000e+02 7.037622070312500000e+01 3.282123565673828125e+01 9.173860549926757812e-01 1.900980186462402344e+01 5.978156566619873047e+00 7.385560512542724609e+00
2.340000000000000000e+02 7.107239532470703125e+01 3.294485473632812500e+01 2.137120723724365234e+00 2.478377914428710938e+01 8.076270103454589844e+00 -2.215093970298767090e-01
2.350000000000000000e+02 7.125073242187500000e+01 3.275907516479492188e+01 1.858528733253479004e+00 2.216022109985351562e+01 7.205625057220458984e+00 -7.507568597793579102e-01
2.360000000000000000e+02 6.980803680419921875e+01 3.306055450439453125e+01 3.714518785476684570e+00 6.870839595794677734e+00 3.175607681274414062e+00 7.208497524261474609e+00
2.370000000000000000e+02 7.176258850097656250e+01 3.329412841796875000e+01 7.649785995483398438e+00 1.940849685668945312e+01 8.117485046386718750e+00 -2.897893667221069336e+00
2.380000000000000000e+02 7.135852050781250000e+01 3.319171142578125000e+01 6.378836154937744141e+00 2.325299263000488281e+01 8.889548301696777344e+00 -3.075446128845214844e+00
2.390000000000000000e+02 6.998599243164062500e+01 3.295564651489257812e+01 3.129586696624755859e+00 1.098783683776855469e+01 4.235227108001708984e+00 8.458086013793945312e+00
2.400000000000000000e+02 6.902413177490234375e+01 3.380886459350585938e+01 -5.172260761260986328e+00 -7.520303130149841309e-02 -1.574239253997802734e+00 4.214921593666076660e-02
2.410000000000000000e+02 7.078178405761718750e+01 3.282622909545898438e+01 5.081790685653686523e-01 2.393075180053710938e+01 7.331679344177246094e+00 3.065758943557739258e+00
2.420000000000000000e+02 7.177207183837890625e+01 3.424012374877929688e+01 1.017234611511230469e+01 1.856619834899902344e+01 8.621563911437988281e+00 1.800080776214599609e+00
2.430000000000000000e+02 7.061971282958984375e+01 3.527617645263671875e+01 5.224977731704711914e-01 2.024136543273925781e+01 6.229158878326416016e+00 -4.627535820007324219e+00
2.440000000000000000e+02 7.041301727294921875e+01 3.528441619873046875e+01 9.745625853538513184e-01 1.774185943603515625e+01 5.614926338195800781e+00 -5.875020980834960938e+00
2.450000000000000000e+02 7.080921936035156250e+01 3.525495529174804688e+01 3.125851750373840332e-01 2.101588249206542969e+01 6.398540496826171875e+00 -2.976127624511718750e+00
2.460000000000000000e+02 7.153425598144531250e+01 3.301157760620117188e+01 4.946849346160888672e+00 2.131687927246093750e+01 7.879118442535400391e+00 -2.698319196701049805e+00
2.470000000000000000e+02 7.096457672119140625e+01 3.279222106933593750e+01 1.047056674957275391e+00 2.357335662841796875e+01 7.386124134063720703e+00 1.381718635559082031e+00
2.480000000000000000e+02 7.155727386474609375e+01 3.417485427856445312e+01 1.197389411926269531e+01 2.039099311828613281e+01 9.709465980529785156e+00 2.136676073074340820e+00
2.490000000000000000e+02 7.147375488281250000e+01 3.333829879760742188e+01 8.597430229187011719e+00 2.185403060913085938e+01 9.135438919067382812e+00 -3.321347475051879883e+00
2.500000000000000000e+02 7.185130310058593750e+01 3.362178802490234375e+01 9.876855850219726562e+00 1.789734077453613281e+01 8.332259178161621094e+00 -1.693288803100585938e+00
2.510000000000000000e+02 7.187030029296875000e+01 3.381613159179687500e+01 1.056816482543945312e+01 1.768213272094726562e+01 8.475089073181152344e+00 -6.266812682151794434e-01
2.520000000000000000e+02 7.190887451171875000e+01 3.419189834594726562e+01 9.728625297546386719e+00 1.767273139953613281e+01 8.220406532287597656e+00 1.366629362106323242e+00
2.530000000000000000e+02 7.110878753662109375e+01 3.265380859375000000e+01 9.154667258262634277e-01 2.233345985412597656e+01 6.974678039550781250e+00 3.340536355972290039e-01
2.540000000000000000e+02 7.182621002197265625e+01 3.344571304321289062e+01 9.098363876342773438e+00 1.833303451538085938e+01 8.229419708251953125e+00 -2.328661918640136719e+00
2.550000000000000000e+02 6.970880126953125000e+01 3.502978897094726562e+01 3.645322561264038086e+00 7.273430347442626953e+00 3.275625944137573242e+00 -6.629779338836669922e+00
2.560000000000000000e+02 6.944390106201171875e+01 3.527152252197265625e+01 2.922114133834838867e+00 5.702555179595947266e+00 2.587400674819946289e+00 -5.608742237091064453e+00
2.570000000000000000e+02 6.916048431396484375e+01 3.501525115966796875e+01 2.644335269927978516e+00 2.800966739654541016e+00 1.633590579032897949e+00 -3.913904666900634766e+00
2.580000000000000000e+02 6.786998748779296875e+01 3.530579376220703125e+01 3.383894860744476318e-01 9.550659060478210449e-01 3.880366086959838867e-01 -1.375552535057067871e+00
2.590000000000000000e+02 6.793164062500000000e+01 3.503745651245117188e+01 -2.032792866230010986e-01 6.428917050361633301e-01 1.318837255239486694e-01 -1.083334922790527344e+00
2.600000000000000000e+02 6.965438842773437500e+01 3.529145431518554688e+01 3.001098394393920898e+00 7.713502883911132812e+00 3.214380264282226562e+00 -6.403539657592773438e+00
2.610000000000000000e+02 6.857225799560546875e+01 3.423816680908203125e+01 -2.708030700683593750e+00 2.977664954960346222e-02 -8.034762144088745117e-01 -1.444550901651382446e-01
2.620000000000000000e+02 6.810652923583984375e+01 3.510100555419921875e+01 2.505781054496765137e-01 8.052347302436828613e-01 3.167438507080078125e-01 -1.363691687583923340e+00
2.630000000000000000e+02 6.862799072265625000e+01 3.405524826049804688e+01 -3.998795032501220703e+00 2.200131677091121674e-02 -1.193038105964660645e+00 7.496643066406250000e-02
2.640000000000000000e+02 6.892115020751953125e+01 3.421606826782226562e+01 -2.175805330276489258e+00 7.061949372291564941e-02 -6.315557360649108887e-01 -2.291661053895950317e-01
2.650000000000000000e+02 6.882202911376953125e+01 3.404889678955078125e+01 -3.918139457702636719e+00 9.430884569883346558e-02 -1.147149205207824707e+00 -9.586163796484470367e-03
2.660000000000000000e+02 6.856180572509765625e+01 3.277115631103515625e+01 2.409003078937530518e-01 1.348288416862487793e+00 4.767566025257110596e-01 2.471821308135986328e+00
2.670000000000000000e+02 6.779373168945312500e+01 3.361619949340820312e+01 -4.983219623565673828e+00 -9.762794524431228638e-02 -1.524254202842712402e+00 1.846726238727569580e-01
2.680000000000000000e+02 6.882582855224609375e+01 3.379737472534179688e+01 -5.335581302642822266e+00 3.646728023886680603e-02 -1.589734196662902832e+00 6.146511808037757874e-02
2.690000000000000000e+02 6.818292999267578125e+01 3.253391265869140625e+01 -2.608765959739685059e-01 1.024141788482666016e+00 2.289795577526092529e-01 2.006273746490478516e+00
2.700000000000000000e+02 6.886763000488281250e+01 3.355126190185546875e+01 -3.067813396453857422e+00 5.430796369910240173e-02 -9.040516614913940430e-01 4.375008344650268555e-01
2.710000000000000000e+02 6.841248321533203125e+01 3.378327560424804688e+01 -5.543783664703369141e+00 -2.267737686634063721e-02 -1.669938325881958008e+00 2.473153173923492432e-02
2.720000000000000000e+02 6.800460815429687500e+01 3.380603790283203125e+01 -5.751458168029785156e+00 -5.446426570415496826e-03 -1.727071404457092285e+00 3.441076353192329407e-02
2.730000000000000000e+02 7.038532257080078125e+01 3.251470184326171875e+01 3.029559552669525146e-01 1.735119628906250000e+01 5.296245574951171875e+00 6.324349403381347656e+00
2.740000000000000000e+02 7.058132171630859375e+01 3.254887771606445312e+01 3.715465217828750610e-02 1.968109893798828125e+01 5.915476322174072266e+00 5.098281383514404297e+00
2.750000000000000000e+02 6.878807830810546875e+01 3.253071594238281250e+01 9.058931469917297363e-01 2.385969877243041992e+00 9.875589013099670410e-01 3.430896759033203125e+00
2.760000000000000000e+02 6.906697082519531250e+01 3.276958847045898438e+01 1.369552373886108398e+00 2.575901985168457031e+00 1.183636307716369629e+00 3.875664234161376953e+00
2.770000000000000000e+02 6.988624572753906250e+01 3.277043533325195312e+01 2.560887098312377930e+00 9.994287490844726562e+00 3.766552448272705078e+00 7.659541130065917969e+00
2.780000000000000000e+02 7.001842498779296875e+01 3.252135467529296875e+01 1.391177892684936523e+00 1.233281135559082031e+01 4.117197036743164062e+00 7.258449077606201172e+00
2.790000000000000000e+02 6.936844635009765625e+01 3.258556747436523438e+01 2.004397630691528320e+00 5.082409858703613281e+00 2.126042366027832031e+00 5.508604049682617188e+00
2.800000000000000000e+02 6.837985229492187500e+01 3.253471755981445312e+01 7.743614912033081055e-02 1.445919990539550781e+00 4.570068717002868652e-01 2.497139215469360352e+00
2.810000000000000000e+02 6.926850891113281250e+01 3.286713409423828125e+01 2.026089668273925781e+00 3.291737794876098633e+00 1.595348238945007324e+00 4.498723983764648438e+00
2.820000000000000000e+02 6.782043457031250000e+01 3.407631301879882812e+01 -4.161459922790527344e+00 9.314283728599548340e-02 -1.220495223999023438e+00 8.604563772678375244e-02
2.830000000000000000e+02 6.782075500488281250e+01 3.452229309082031250e+01 -2.087844610214233398e+00 1.236509084701538086e-01 -5.892581343650817871e-01 -1.513674706220626831e-01
2.840000000000000000e+02 6.761159515380859375e+01 3.319638824462890625e+01 -3.098277091979980469e+00 -2.487510675564408302e-03 -9.302293658256530762e-01 4.252032637596130371e-01
2.850000000000000000e+02 6.760610961914062500e+01 3.340418624877929688e+01 -3.842575788497924805e+00 -4.575068131089210510e-02 -1.166497945785522461e+00 1.371222585439682007e-01
2.860000000000000000e+02 6.922126007080078125e+01 3.381161117553710938e+01 -4.996478080749511719e+00 1.158509477972984314e-01 -1.464188098907470703e+00 5.818848311901092529e-02
2.870000000000000000e+02 6.932032012939453125e+01 3.488364791870117188e+01 3.044066429138183594e+00 3.076974153518676758e+00 1.836312174797058105e+00 -4.251225471496582031e+00
2.880000000000000000e+02 6.892474365234375000e+01 3.448632812500000000e+01 -3.257901668548583984e-01 5.060834288597106934e-01 5.408798158168792725e-02 -1.121737360954284668e+00
2.890000000000000000e+02 6.762509155273437500e+01 3.428898620605468750e+01 -3.252749443054199219e+00 2.493719197809696198e-02 -9.683436751365661621e-01 8.298580348491668701e-02
2.900000000000000000e+02 6.782686614990234375e+01 3.430194091796875000e+01 -3.148262262344360352e+00 2.265300042927265167e-02 -9.376827478408813477e-01 -9.017500095069408417e-03
2.910000000000000000e+02 6.930131530761718750e+01 3.324044036865234375e+01 1.149147629737854004e+00 1.414570569992065430e+00 7.691155076026916504e-01 2.887650251388549805e+00
2.920000000000000000e+02 6.802342987060546875e+01 3.275362396240234375e+01 -1.008169293403625488e+00 6.975613832473754883e-01 -9.318238496780395508e-02 1.531538724899291992e+00
2.930000000000000000e+02 6.826595306396484375e+01 3.513441467285156250e+01 7.740898728370666504e-01 1.046856760978698730e+00 5.462840199470520020e-01 -1.768766403198242188e+00
2.940000000000000000e+02 6.824728393554687500e+01 3.436027145385742188e+01 -2.351079940795898438e+00 8.329029195010662079e-03 -7.028253078460693359e-01 -1.762904226779937744e-01
2.950000000000000000e+02 6.759071350097656250e+01 3.276845550537109375e+01 -1.778170585632324219e+00 3.873431682586669922e-01 -4.172482192516326904e-01 9.530184864997863770e-01
2.960000000000000000e+02 6.876401519775390625e+01 3.474451828002929688e+01 7.144581079483032227e-01 8.386514186859130859e-01 4.659328460693359375e-01 -1.686967492103576660e+00
2.970000000000000000e+02 6.905596160888671875e+01 3.454677581787109375e+01 1.095197916030883789e+00 6.045554280281066895e-01 5.099260210990905762e-01 -1.630248188972473145e+00
2.980000000000000000e+02 6.888768768310546875e+01 3.492168045043945312e+01 1.768219709396362305e+00 1.605916142463684082e+00 1.012240767478942871e+00 -2.693478584289550781e+00
2.990000000000000000e+02 6.858278656005859375e+01 3.484697341918945312e+01 6.622579693794250488e-01 8.227815628051757812e-01 4.455118477344512939e-01 -1.656561970710754395e+00
3.000000000000000000e+02 6.864219665527343750e+01 3.454397964477539062e+01 -5.833773612976074219e-01 3.473448157310485840e-01 -7.080976665019989014e-02 -9.013819098472595215e-01
3.010000000000000000e+02 6.870039367675781250e+01 3.326300048828125000e+01 -1.331638693809509277e+00 3.728384077548980713e-01 -2.876400947570800781e-01 1.210133075714111328e+00
3.020000000000000000e+02 6.967073822021484375e+01 3.285633468627929688e+01 2.846533060073852539e+00 6.599895954132080078e+00 2.833928823471069336e+00 6.639826297760009766e+00
3.030000000000000000e+02 6.784770202636718750e+01 3.299373626708984375e+01 -2.089576721191406250e+00 2.440176457166671753e-01 -5.536677241325378418e-01 8.320938348770141602e-01
3.040000000000000000e+02 6.776366424560546875e+01 3.496676635742187500e+01 -6.146253347396850586e-01 5.621543526649475098e-01 -1.574129424989223480e-02 -7.452346086502075195e-01
3.050000000000000000e+02 6.819253540039062500e+01 3.458421325683593750e+01 -1.231527924537658691e+00 2.203786969184875488e-01 -3.033447861671447754e-01 -4.847057461738586426e-01
3.060000000000000000e+02 6.841310119628906250e+01 3.350571441650390625e+01 -3.540049552917480469e+00 7.456170022487640381e-02 -1.039646387100219727e+00 3.554513752460479736e-01
3.070000000000000000e+02 6.796589660644531250e+01 3.357413864135742188e+01 -4.461122512817382812e+00 6.931350380182266235e-02 -1.317542672157287598e+00 1.789470016956329346e-01
3.080000000000000000e+02 6.814057159423828125e+01 3.323397445678710938e+01 -2.552308320999145508e+00 1.487665772438049316e-01 -7.210624814033508301e-01 7.040110826492309570e-01
3.090000000000000000e+02 6.923439788818359375e+01 3.359282302856445312e+01 -1.955877780914306641e+00 2.075945436954498291e-01 -5.244849920272827148e-01 8.697315454483032227e-01
3.100000000000000000e+02 6.778382873535156250e+01 3.255190658569335938e+01 -8.008527159690856934e-01 6.919674277305603027e-01 -3.266558796167373657e-02 1.552614569664001465e+00
3.110000000000000000e+02 6.820485687255859375e+01 3.271807098388671875e+01 -5.820382237434387207e-01 8.403122425079345703e-01 7.748220115900039673e-02 1.802149653434753418e+00
3.120000000000000000e+02 6.858768463134765625e+01 3.254805755615234375e+01 4.980583488941192627e-01 1.964143514633178711e+00 7.386605739593505859e-01 2.992397308349609375e+00
3.130000000000000000e+02 6.847944641113281250e+01 3.299188613891601562e+01 -8.184344172477722168e-01 5.621424913406372070e-01 -7.688758522272109985e-02 1.578176259994506836e+00
3.140000000000000000e+02 6.786552429199218750e+01 3.322867584228515625e+01 -2.966804027557373047e+00 1.067183539271354675e-01 -8.580257296562194824e-01 4.796603918075561523e-01
3.150000000000000000e+02 6.760263061523437500e+01 3.361068725585937500e+01 -4.879993915557861328e+00 -2.313456386327743530e-01 -1.533401846885681152e+00 1.603773683309555054e-01
3.160000000000000000e+02 6.761847686767578125e+01 3.491781997680664062e+01 -9.586648344993591309e-01 2.357711791992187500e-01 -2.168680876493453979e-01 -4.713587164878845215e-01
3.170000000000000000e+02 6.806472778320312500e+01 3.532462310791015625e+01 6.921070218086242676e-01 1.143516063690185547e+00 5.506869554519653320e-01 -1.765199184417724609e+00
3.180000000000000000e+02 6.762699127197265625e+01 3.471503067016601562e+01 -1.596704244613647461e+00 2.451250702142715454e-01 -4.054737389087677002e-01 -2.836485207080841064e-01
3.190000000000000000e+02 6.780596160888671875e+01 3.474405288696289062e+01 -1.229983329772949219e+00 2.535098493099212646e-01 -2.929420471191406250e-01 -4.402679800987243652e-01
3.200000000000000000e+02 6.825655364990234375e+01 3.533337783813476562e+01 9.577218294143676758e-01 1.205730080604553223e+00 6.490355730056762695e-01 -1.983324050903320312e+00
3.210000000000000000e+02 6.881947326660156250e+01 3.509039306640625000e+01 1.817015647888183594e+00 1.838603258132934570e+00 1.096685647964477539e+00 -2.833785295486450195e+00
3.220000000000000000e+02 6.898736572265625000e+01 3.508525085449218750e+01 2.202398300170898438e+00 2.574322223663330078e+00 1.433016180992126465e+00 -3.395370960235595703e+00
3.230000000000000000e+02 6.902930450439453125e+01 3.530826568603515625e+01 2.341898441314697266e+00 3.372022390365600586e+00 1.714176177978515625e+00 -4.017593383789062500e+00
3.240000000000000000e+02 6.923076629638671875e+01 3.527992630004882812e+01 2.846454381942749023e+00 4.280809402465820312e+00 2.138179063796997070e+00 -4.848405361175537109e+00
3.250000000000000000e+02 6.918891143798828125e+01 3.467880630493164062e+01 2.061403274536132812e+00 1.480231165885925293e+00 1.062490344047546387e+00 -2.668922185897827148e+00
3.260000000000000000e+02 6.985416412353515625e+01 3.531110763549804688e+01 2.647866487503051758e+00 9.985782623291015625e+00 3.790094852447509766e+00 -6.773516178131103516e+00
3.270000000000000000e+02 7.010855102539062500e+01 3.516978836059570312e+01 2.347205400466918945e+00 1.377435016632080078e+01 4.836466789245605469e+00 -7.355870723724365234e+00
3.280000000000000000e+02 7.004084014892578125e+01 3.533243942260742188e+01 2.055678844451904297e+00 1.224084758758544922e+01 4.288958072662353516e+00 -6.726833820343017578e+00
3.290000000000000000e+02 6.802419281005859375e+01 3.408187484741210938e+01 -4.123223781585693359e+00 -4.986231774091720581e-02 -1.251925706863403320e+00 3.896141052246093750e-02
3.300000000000000000e+02 6.802902984619140625e+01 3.432155990600585938e+01 -2.906063556671142578e+00 6.557345390319824219e-02 -8.521470427513122559e-01 -2.741158567368984222e-02
3.310000000000000000e+02 6.843846130371093750e+01 3.406893920898437500e+01 -4.042130470275878906e+00 -2.676439844071865082e-02 -1.220668435096740723e+00 6.644200533628463745e-02
3.320000000000000000e+02 6.901174163818359375e+01 3.405026245117187500e+01 -3.606113433837890625e+00 -3.816968947649002075e-02 -1.093284964561462402e+00 -7.952068001031875610e-02
3.330000000000000000e+02 6.954888153076171875e+01 3.445002365112304688e+01 3.083771228790283203e+00 1.401872038841247559e+00 1.345692992210388184e+00 -3.202282190322875977e+00
3.340000000000000000e+02 6.948043060302734375e+01 3.476167678833007812e+01 3.708102464675903320e+00 3.503275871276855469e+00 2.163413524627685547e+00 -4.728202342987060547e+00
3.350000000000000000e+02 6.905459594726562500e+01 3.359554672241210938e+01 -3.004722356796264648e+00 1.836434155702590942e-01 -8.463236689567565918e-01 5.687386393547058105e-01
3.360000000000000000e+02 7.127460479736328125e+01 3.505754089355468750e+01 2.344293355941772461e+00 2.207193756103515625e+01 7.324869632720947266e+00 1.021860003471374512e+00
3.370000000000000000e+02 7.186882781982421875e+01 3.434684753417968750e+01 9.357716560363769531e+00 1.816769027709960938e+01 8.257621765136718750e+00 2.132233619689941406e+00
3.380000000000000000e+02 7.171224212646484375e+01 3.409242630004882812e+01 1.130995845794677734e+01 1.870248985290527344e+01 9.003734588623046875e+00 1.104334712028503418e+00
3.390000000000000000e+02 7.162617492675781250e+01 3.344197845458984375e+01 9.386345863342285156e+00 2.032087898254394531e+01 8.912167549133300781e+00 -2.789187908172607422e+00
3.400000000000000000e+02 7.165507507324218750e+01 3.315476989746093750e+01 6.386709213256835938e+00 2.027647781372070312e+01 7.998956203460693359e+00 -2.959589958190917969e+00
3.410000000000000000e+02 7.095622253417968750e+01 3.259156417846679688e+01 2.603693306446075439e-02 2.175630378723144531e+01 6.534702301025390625e+00 2.170863389968872070e+00
3.420000000000000000e+02 7.020654296875000000e+01 3.249864578247070312e+01 8.044923543930053711e-01 1.453798198699951172e+01 4.602742195129394531e+00 7.000075340270996094e+00
3.430000000000000000e+02 7.008878326416015625e+01 3.270875549316406250e+01 1.844374060630798340e+00 1.349008369445800781e+01 4.600337505340576172e+00 7.920496463775634766e+00
3.440000000000000000e+02 6.981485748291015625e+01 3.254688644409179688e+01 1.980003714561462402e+00 9.628890991210937500e+00 3.482668399810791016e+00 7.119501590728759766e+00
3.450000000000000000e+02 6.915678405761718750e+01 3.254991149902343750e+01 1.632739901542663574e+00 3.829269886016845703e+00 1.638602972030639648e+00 4.665966987609863281e+00
3.460000000000000000e+02 6.896850585937500000e+01 3.251977539062500000e+01 1.350822329521179199e+00 3.080148696899414062e+00 1.329291343688964844e+00 4.065757274627685547e+00
3.470000000000000000e+02 6.888528442382812500e+01 3.267548370361328125e+01 9.637796878814697266e-01 2.294717073440551758e+00 9.775490164756774902e-01 3.428647994995117188e+00
3.480000000000000000e+02 6.965007019042968750e+01 3.320473861694335938e+01 3.494232654571533203e+00 3.887990474700927734e+00 2.214667081832885742e+00 5.523365497589111328e+00
3.490000000000000000e+02 7.109252929687500000e+01 3.487542343139648438e+01 2.893699407577514648e+00 2.476447486877441406e+01 8.297451972961425781e+00 5.256083011627197266e-01
3.500000000000000000e+02 7.159359741210937500e+01 3.400944137573242188e+01 1.253805255889892578e+01 1.966921615600585938e+01 9.662180900573730469e+00 6.843031644821166992e-01
3.510000000000000000e+02 6.809317779541015625e+01 3.297676086425781250e+01 -1.506010532379150391e+00 4.058477878570556641e-01 -3.300488293170928955e-01 1.114243865013122559e+00
3.520000000000000000e+02 6.914854431152343750e+01 3.342173767089843750e+01 -6.199321746826171875e-01 3.934450745582580566e-01 -6.794612854719161987e-02 1.469653725624084473e+00
3.530000000000000000e+02 6.842303466796875000e+01 3.323511505126953125e+01 -1.967559933662414551e+00 3.009166121482849121e-01 -4.999929964542388916e-01 9.439444541931152344e-01
3.540000000000000000e+02 6.909322357177734375e+01 3.309689331054687500e+01 8.536624908447265625e-01 1.369362354278564453e+00 6.669074892997741699e-01 2.790222883224487305e+00
3.550000000000000000e+02 6.876723480224609375e+01 3.283793640136718750e+01 4.405836164951324463e-01 1.614479422569274902e+00 6.165189146995544434e-01 2.815539360046386719e+00
3.560000000000000000e+02 6.798603820800781250e+01 3.478239059448242188e+01 -7.590861916542053223e-01 3.364628851413726807e-01 -1.267869919538497925e-01 -7.136829495429992676e-01
3.570000000000000000e+02 6.822526550292968750e+01 3.496506881713867188e+01 4.729777202010154724e-02 6.746223568916320801e-01 2.165760397911071777e-01 -1.300159811973571777e+00
3.580000000000000000e+02 6.844126892089843750e+01 3.511184310913085938e+01 9.510876536369323730e-01 1.107756257057189941e+00 6.176531910896301270e-01 -1.944095373153686523e+00
3.590000000000000000e+02 6.848627471923828125e+01 3.463251113891601562e+01 -4.990905523300170898e-01 4.010670185089111328e-01 -2.940705418586730957e-02 -9.379229545593261719e-01
3.600000000000000000e+02 6.800814819335937500e+01 3.454790115356445312e+01 -1.751775860786437988e+00 7.093585282564163208e-02 -5.042520165443420410e-01 -2.636926770210266113e-01
3.610000000000000000e+02 6.863239288330078125e+01 3.508250427246093750e+01 1.309817314147949219e+00 1.507984995841979980e+00 8.453406691551208496e-01 -2.368116140365600586e+00
3.620000000000000000e+02 6.949372100830078125e+01 3.499066925048828125e+01 3.671263694763183594e+00 4.743770122528076172e+00 2.524510145187377930e+00 -5.528720855712890625e+00
3.630000000000000000e+02 6.903874969482421875e+01 3.481453323364257812e+01 1.736387372016906738e+00 1.602317214012145996e+00 1.001611351966857910e+00 -2.765134096145629883e+00
3.640000000000000000e+02 6.828676605224609375e+01 3.288475799560546875e+01 -8.898902535438537598e-01 6.653862595558166504e-01 -6.735118478536605835e-02 1.552259683609008789e+00
3.650000000000000000e+02 6.846778106689453125e+01 3.442209625244140625e+01 -1.656213641166687012e+00 1.665359288454055786e-01 -4.469033181667327881e-01 -4.158541858196258545e-01
3.660000000000000000e+02 6.832623291015625000e+01 3.470820236206054688e+01 -4.500647187232971191e-01 3.990391492843627930e-01 -1.530767045915126801e-02 -9.229298233985900879e-01
3.670000000000000000e+02 6.816703033447265625e+01 3.478303909301757812e+01 -4.783404469490051270e-01 4.663898646831512451e-01 -3.585170721635222435e-03 -9.307267069816589355e-01
3.680000000000000000e+02 6.872471618652343750e+01 3.303556823730468750e+01 -1.678040474653244019e-01 8.463049530982971191e-01 2.035502642393112183e-01 1.972203493118286133e+00
3.690000000000000000e+02 6.892533111572265625e+01 3.295882034301757812e+01 6.511426568031311035e-01 1.557350039482116699e+00 6.625478267669677734e-01 2.810130357742309570e+00
3.700000000000000000e+02 6.840014648437500000e+01 3.490693664550781250e+01 3.352825641632080078e-01 7.923445701599121094e-01 3.382881283760070801e-01 -1.483954668045043945e+00
3.710000000000000000e+02 6.877011108398437500e+01 3.437327575683593750e+01 -1.124402761459350586e+00 2.582646310329437256e-01 -2.598414421081542969e-01 -6.717175245285034180e-01
3.720000000000000000e+02 6.905834197998046875e+01 3.437497329711914062e+01 -2.729739248752593994e-01 4.544831514358520508e-01 5.445276573300361633e-02 -1.047499656677246094e+00
3.730000000000000000e+02 6.892805480957031250e+01 3.464756011962890625e+01 1.086278557777404785e+00 6.682273745536804199e-01 5.263517498970031738e-01 -1.756835937500000000e+00
3.740000000000000000e+02 6.894805145263671875e+01 3.331650924682617188e+01 -7.286613583564758301e-01 5.757135152816772461e-01 -4.588434472680091858e-02 1.517278552055358887e+00
3.750000000000000000e+02 6.740629577636718750e+01 3.493386077880859375e+01 -1.049171805381774902e+00 4.180399775505065918e-01 -1.893395483493804932e-01 -4.249090552330017090e-01
3.760000000000000000e+02 6.679724121093750000e+01 3.432007217407226562e+01 -3.605749130249023438e+00 -7.499970495700836182e-02 -1.104224681854248047e+00 2.506048679351806641e-01
3.770000000000000000e+02 6.715708160400390625e+01 3.491092681884765625e+01 -1.501130819320678711e+00 3.013226985931396484e-01 -3.599424362182617188e-01 -2.194977253675460815e-01
3.780000000000000000e+02 6.555965423583984375e+01 3.514741134643554688e+01 -1.804829835891723633e+00 7.445580512285232544e-02 -5.191122293472290039e-01 3.735806345939636230e-01
3.790000000000000000e+02 6.740036773681640625e+01 3.513587570190429688e+01 -6.634092926979064941e-01 4.310734570026397705e-01 -6.970074772834777832e-02 -6.049479246139526367e-01
3.800000000000000000e+02 6.710461425781250000e+01 3.520233535766601562e+01 -8.585550189018249512e-01 5.058209896087646484e-01 -1.058202087879180908e-01 -4.663076996803283691e-01
3.810000000000000000e+02 6.491104125976562500e+01 3.519960403442382812e+01 -1.760616302490234375e+00 -4.588712379336357117e-02 -5.419510602951049805e-01 4.099170267581939697e-01
3.820000000000000000e+02 6.563044738769531250e+01 3.440286636352539062e+01 -3.273550271987915039e+00 -4.444790631532669067e-02 -9.953994154930114746e-01 3.172407448291778564e-01
3.830000000000000000e+02 6.632975769042968750e+01 3.429168701171875000e+01 -3.585685491561889648e+00 4.115727264434099197e-03 -1.074470996856689453e+00 3.228434622287750244e-01
3.840000000000000000e+02 6.490152740478515625e+01 3.445913696289062500e+01 -2.917054653167724609e+00 3.381478041410446167e-02 -8.649719357490539551e-01 3.416670858860015869e-01
3.850000000000000000e+02 6.705952453613281250e+01 3.450376892089843750e+01 -2.857512235641479492e+00 1.155510991811752319e-01 -8.225883841514587402e-01 8.133620023727416992e-02
3.860000000000000000e+02 6.733532714843750000e+01 3.432726669311523438e+01 -3.282439231872558594e+00 1.771847903728485107e-01 -9.315763115882873535e-01 1.712186038494110107e-01
3.870000000000000000e+02 6.721765136718750000e+01 3.410876464843750000e+01 -4.006268024444580078e+00 7.852938026189804077e-02 -1.178321480751037598e+00 2.759727835655212402e-01
3.880000000000000000e+02 6.684952545166015625e+01 3.482369995117187500e+01 -1.976419568061828613e+00 1.353257596492767334e-01 -5.523281693458557129e-01 -6.683463603258132935e-02
3.890000000000000000e+02 6.733463287353515625e+01 3.534869003295898438e+01 -3.942020833492279053e-01 6.485891938209533691e-01 7.631613314151763916e-02 -7.957575321197509766e-01
3.900000000000000000e+02 6.646202850341796875e+01 3.466777801513671875e+01 -2.579074859619140625e+00 7.724538445472717285e-02 -7.505488395690917969e-01 1.707937717437744141e-01
3.910000000000000000e+02 6.670185852050781250e+01 3.525085830688476562e+01 -9.693942070007324219e-01 3.253059387207031250e-01 -1.932264864444732666e-01 -1.722261756658554077e-01
3.920000000000000000e+02 6.616807556152343750e+01 3.518074417114257812e+01 -1.537252187728881836e+00 2.502101659774780273e-01 -3.861126005649566650e-01 8.281351625919342041e-02
3.930000000000000000e+02 6.735645294189453125e+01 3.453527069091796875e+01 -2.487536668777465820e+00 2.263972163200378418e-01 -6.783418655395507812e-01 3.584595629945397377e-03
3.940000000000000000e+02 6.737744140625000000e+01 3.474022293090820312e+01 -1.821157455444335938e+00 2.731247842311859131e-01 -4.644097983837127686e-01 -1.943238675594329834e-01
3.950000000000000000e+02 6.268238067626953125e+01 3.464594268798828125e+01 -2.018671512603759766e+00 -9.470736235380172729e-02 -6.340136528015136719e-01 3.070039451122283936e-01
3.960000000000000000e+02 6.274868774414062500e+01 3.538298034667968750e+01 -1.366315484046936035e+00 1.283637713640928268e-03 -4.095095694065093994e-01 5.201750993728637695e-01
3.970000000000000000e+02 6.193933486938476562e+01 3.470622634887695312e+01 -1.718724012374877930e+00 3.008288703858852386e-02 -5.065923333168029785e-01 3.054582476615905762e-01
3.980000000000000000e+02 6.342625427246093750e+01 3.458350372314453125e+01 -2.307435989379882812e+00 3.537649521604180336e-03 -6.911695003509521484e-01 3.505688905715942383e-01
3.990000000000000000e+02 6.422395324707031250e+01 3.525720977783203125e+01 -1.682491898536682129e+00 6.605101376771926880e-02 -4.849322736263275146e-01 4.820398986339569092e-01
4.000000000000000000e+02 6.417095184326171875e+01 3.451905822753906250e+01 -2.594321012496948242e+00 -6.689026951789855957e-02 -7.983633875846862793e-01 3.490939140319824219e-01
4.010000000000000000e+02 6.201229858398437500e+01 3.544270706176757812e+01 -1.166893243789672852e+00 -1.222629845142364502e-01 -3.867468535900115967e-01 4.972020983695983887e-01
4.020000000000000000e+02 6.348590850830078125e+01 3.532109832763671875e+01 -1.546950936317443848e+00 -1.361318230628967285e-01 -5.049248337745666504e-01 4.871316552162170410e-01
4.030000000000000000e+02 5.980386352539062500e+01 3.570315170288085938e+01 -7.356059551239013672e-01 -8.727059513330459595e-02 -2.468629628419876099e-01 3.423905670642852783e-01
4.040000000000000000e+02 5.971332931518554688e+01 3.496871185302734375e+01 -1.030625462532043457e+00 -6.249248236417770386e-02 -3.279353678226470947e-01 2.289398759603500366e-01
4.050000000000000000e+02 5.897272491455078125e+01 3.505795669555664062e+01 -8.444613218307495117e-01 -2.929847501218318939e-02 -2.621279358863830566e-01 1.922426074743270874e-01
4.060000000000000000e+02 6.045466995239257812e+01 3.487708282470703125e+01 -1.231648802757263184e+00 -1.805221848189830780e-02 -3.749103248119354248e-01 2.541612684726715088e-01
4.070000000000000000e+02 6.127589035034179688e+01 3.551908111572265625e+01 -1.044612884521484375e+00 -6.388407945632934570e-02 -3.325490951538085938e-01 4.120025932788848877e-01
4.080000000000000000e+02 6.119675064086914062e+01 3.478322982788085938e+01 -1.443088889122009277e+00 -9.385557472705841064e-02 -4.610833525657653809e-01 2.911439538002014160e-01
4.090000000000000000e+02 5.906895828247070312e+01 3.579169464111328125e+01 -6.287620067596435547e-01 -9.813066571950912476e-02 -2.180678099393844604e-01 3.176194131374359131e-01
4.100000000000000000e+02 6.053950500488281250e+01 3.561222839355468750e+01 -8.773784041404724121e-01 -1.217435449361801147e-01 -2.997365891933441162e-01 4.147316515445709229e-01
4.110000000000000000e+02 5.676622772216796875e+01 3.537297821044921875e+01 -4.014379680156707764e-01 -3.887277469038963318e-02 -1.320932209491729736e-01 1.288570016622543335e-01
4.120000000000000000e+02 5.690399551391601562e+01 3.610068511962890625e+01 -3.148218989372253418e-01 -6.515736132860183716e-02 -1.139937788248062134e-01 2.336183339357376099e-01
4.130000000000000000e+02 5.603319931030273438e+01 3.547965621948242188e+01 -2.657357454299926758e-01 -2.023689635097980499e-02 -8.579178899526596069e-02 1.065680086612701416e-01
4.140000000000000000e+02 5.750018692016601562e+01 3.526519775390625000e+01 -5.434464216232299805e-01 -2.581208758056163788e-02 -1.707775443792343140e-01 1.537926793098449707e-01
4.150000000000000000e+02 5.834177017211914062e+01 3.588873672485351562e+01 -5.112566351890563965e-01 -6.326719373464584351e-02 -1.723571419715881348e-01 2.790704071521759033e-01
4.160000000000000000e+02 5.823495101928710938e+01 3.515648651123046875e+01 -6.867817640304565430e-01 -3.999284282326698303e-02 -2.180323898792266846e-01 1.708505898714065552e-01
4.170000000000000000e+02 5.618644332885742188e+01 3.620509338378906250e+01 -2.115158438682556152e-01 -6.234068050980567932e-02 -8.215695619583129883e-02 2.259639799594879150e-01
4.180000000000000000e+02 5.762247848510742188e+01 3.599517822265625000e+01 -4.029222428798675537e-01 -7.575196027755737305e-02 -1.436022520065307617e-01 2.563324570655822754e-01
4.190000000000000000e+02 5.384532546997070312e+01 3.667871856689453125e+01 1.395072322338819504e-02 -1.612220406532287598e-01 -4.418139532208442688e-02 1.424037851393222809e-02
4.200000000000000000e+02 5.390139770507812500e+01 3.633741760253906250e+01 -4.216919478494673967e-04 -5.911440402269363403e-02 -1.786082796752452850e-02 4.319482669234275818e-02
4.210000000000000000e+02 5.457950592041015625e+01 3.674075698852539062e+01 -5.008683353662490845e-02 -1.231631338596343994e-01 -5.197498947381973267e-02 1.417783647775650024e-01
4.220000000000000000e+02 5.383747482299804688e+01 3.704690551757812500e+01 -8.291370235383510590e-03 -2.014088481664657593e-01 -6.291006505489349365e-02 1.374941784888505936e-02
4.230000000000000000e+02 5.522666168212890625e+01 3.569715881347656250e+01 -1.300971806049346924e-01 -3.364933654665946960e-02 -4.912395402789115906e-02 9.181519597768783569e-02
4.240000000000000000e+02 5.406111526489257812e+01 3.588264846801757812e+01 -2.210208959877490997e-02 -1.255699153989553452e-02 -1.039772480726242065e-02 1.628177613019943237e-02
4.250000000000000000e+02 5.539877319335937500e+01 3.641811752319335938e+01 -1.302512884140014648e-01 -9.392264485359191895e-02 -6.725218147039413452e-02 1.840988248586654663e-01
4.260000000000000000e+02 5.409225845336914062e+01 3.654366683959960938e+01 6.204573903232812881e-03 -9.108225256204605103e-02 -2.546330355107784271e-02 8.071555942296981812e-02
4.270000000000000000e+02 5.450753784179687500e+01 3.614347457885742188e+01 -5.475628748536109924e-02 -7.833953946828842163e-02 -3.992874920368194580e-02 8.094730973243713379e-02
4.280000000000000000e+02 5.406600952148437500e+01 3.695836257934570312e+01 -3.424325259402394295e-03 -2.135606408119201660e-01 -6.509548425674438477e-02 8.399353176355361938e-02
4.290000000000000000e+02 5.344662094116210938e+01 3.479689788818359375e+01 -1.375589072704315186e-01 -9.374475479125976562e-02 -6.939110159873962402e-02 -1.189140081405639648e-01
4.300000000000000000e+02 5.366340637207031250e+01 3.510863113403320312e+01 -7.940122485160827637e-02 -2.582898363471031189e-02 -3.156906366348266602e-02 -8.866506814956665039e-02
4.310000000000000000e+02 5.494368743896484375e+01 3.414394760131835938e+01 -9.192844033241271973e-01 7.275787740945816040e-02 -2.539579570293426514e-01 -3.475790917873382568e-01
4.320000000000000000e+02 5.424127578735351562e+01 3.501722717285156250e+01 -2.644999027252197266e-01 -5.051346495747566223e-03 -8.086537569761276245e-02 -1.001830399036407471e-01
4.330000000000000000e+02 5.503524398803710938e+01 3.488909530639648438e+01 -5.894569754600524902e-01 2.973291464149951935e-02 -1.679172217845916748e-01 -6.057472154498100281e-02
4.340000000000000000e+02 5.318430709838867188e+01 3.449492645263671875e+01 -2.332331985235214233e-01 -1.658581495285034180e-01 -1.197274029254913330e-01 -1.969956606626510620e-01
4.350000000000000000e+02 5.394946670532226562e+01 3.541463851928710938e+01 -8.493869006633758545e-02 -3.290050954092293978e-04 -2.558030746877193451e-02 -5.359822884202003479e-03
4.360000000000000000e+02 5.366458129882812500e+01 3.433396148681640625e+01 -4.359845221042633057e-01 -7.919407635927200317e-02 -1.545535773038864136e-01 -2.921541631221771240e-01
4.370000000000000000e+02 5.396925354003906250e+01 3.460595321655273438e+01 -4.324975907802581787e-01 5.260124802589416504e-03 -1.281712353229522705e-01 -1.811170876026153564e-01
4.380000000000000000e+02 5.424771118164062500e+01 3.423815917968750000e+01 -6.845093965530395508e-01 2.779366075992584229e-02 -1.970147192478179932e-01 -3.214549124240875244e-01
4.390000000000000000e+02 5.296909332275390625e+01 3.413451766967773438e+01 -3.004122078418731689e-01 -3.041511476039886475e-01 -1.813690066337585449e-01 -3.273124992847442627e-01
4.400000000000000000e+02 5.424341583251953125e+01 3.290935134887695312e+01 -1.110444784164428711e+00 2.602780796587467194e-02 -3.253250718116760254e-01 -6.561682820320129395e-01
4.410000000000000000e+02 5.943286132812500000e+01 3.223824310302734375e+01 -2.043728113174438477e+00 1.704492568969726562e-01 -5.619836449623107910e-01 -4.916239380836486816e-01
4.420000000000000000e+02 5.276152420043945312e+01 3.375191879272460938e+01 -4.262765645980834961e-01 -4.163764715194702148e-01 -2.527959048748016357e-01 -4.023804366588592529e-01
4.430000000000000000e+02 4.949691390991210938e+01 3.019594192504882812e+01 -1.429490089416503906e+00 -1.322530746459960938e+00 -8.256062269210815430e-01 -1.372792005538940430e+00
4.440000000000000000e+02 4.745215988159179688e+01 2.828125190734863281e+01 -1.632100701332092285e+00 -1.341089844703674316e+00 -8.919571638107299805e-01 -1.480484127998352051e+00
4.450000000000000000e+02 5.455621337890625000e+01 2.194254493713378906e+01 -4.670313298702239990e-01 6.168676614761352539e-01 4.495090246200561523e-02 -3.343307077884674072e-01
4.460000000000000000e+02 6.514292144775390625e+01 1.085268020629882812e+01 1.536145061254501343e-01 4.476862907409667969e+00 1.389143228530883789e+00 7.728849649429321289e-01
4.470000000000000000e+02 7.200473785400390625e+01 4.239836215972900391e+00 8.025646209716796875e-02 6.513216495513916016e+00 1.978041887283325195e+00 5.461531281471252441e-01
4.480000000000000000e+02 7.804692840576171875e+01 -2.830008029937744141e+00 5.452388897538185120e-03 7.671623706817626953e+00 2.303122758865356445e+00 1.200380176305770874e-01
4.490000000000000000e+02 7.935281372070312500e+01 2.774467706680297852e+00 1.598071306943893433e-03 8.413684844970703125e+00 2.524585008621215820e+00 3.950204700231552124e-02
4.500000000000000000e+02 7.808216094970703125e+01 4.155441761016845703e+00 6.088273599743843079e-03 8.206523895263671875e+00 2.463783740997314453e+00 1.576385200023651123e-01
4.510000000000000000e+02 7.936660003662109375e+01 8.362174034118652344e+00 1.230088644661009312e-03 8.987116813659667969e+00 2.696504116058349609e+00 4.555385187268257141e-02
4.520000000000000000e+02 7.316476440429687500e+01 1.723262023925781250e+01 -1.705998927354812622e-01 7.659112930297851562e+00 2.246553897857666016e+00 5.829846262931823730e-01
4.530000000000000000e+02 6.324809265136718750e+01 2.867971992492675781e+01 -3.174765110015869141e-01 1.097320318222045898e+00 2.339531332254409790e-01 4.754854440689086914e-01
4.540000000000000000e+02 5.872325897216796875e+01 3.292064285278320312e+01 -2.113505125045776367e+00 1.386328339576721191e-01 -5.924617052078247070e-01 -3.949337899684906006e-01
4.550000000000000000e+02 5.776189422607421875e+01 2.913838005065917969e+01 -1.130451083183288574e+00 4.317086637020111084e-01 -2.096227258443832397e-01 -7.108011841773986816e-01
4.560000000000000000e+02 5.868663406372070312e+01 2.844318199157714844e+01 -9.095622301101684570e-01 5.410845279693603516e-01 -1.105433031916618347e-01 -5.628854036331176758e-01
4.570000000000000000e+02 3.280928421020507812e+01 -1.420077228546142578e+01 -5.888009443879127502e-02 -4.066312015056610107e-01 -1.396533846855163574e-01 1.972801834344863892e-01
4.580000000000000000e+02 3.326413345336914062e+01 -1.047008228302001953e+01 4.125530719757080078e-01 -3.397060334682464600e-01 2.185411192476749420e-02 -1.201223358511924744e-01
4.590000000000000000e+02 4.035196685791015625e+01 -1.010091114044189453e+01 5.032268166542053223e-01 -9.382981806993484497e-02 1.228191033005714417e-01 -1.162096392363309860e-03
4.600000000000000000e+02 4.641364288330078125e+01 -1.280828666687011719e+01 3.607723414897918701e-01 8.279291391372680664e-01 3.566104471683502197e-01 8.306507766246795654e-02
4.610000000000000000e+02 5.570206069946289062e+01 -1.528330421447753906e+01 1.983058452606201172e-01 2.644570589065551758e+00 8.528629541397094727e-01 2.612564861774444580e-01
4.620000000000000000e+02 6.752458953857421875e+01 -1.110706615447998047e+01 1.133549585938453674e-01 5.047410964965820312e+00 1.548229694366455078e+00 3.883554637432098389e-01
4.630000000000000000e+02 7.308747100830078125e+01 -1.237141418457031250e+01 3.718785569071769714e-02 6.182372093200683594e+00 1.865867972373962402e+00 2.583135366439819336e-01
4.640000000000000000e+02 7.937847900390625000e+01 -1.252546215057373047e+01 7.742856541881337762e-05 7.398895740509033203e+00 2.219691991806030273e+00 1.812261901795864105e-02
4.650000000000000000e+02 7.813938903808593750e+01 -9.746034622192382812e+00 3.345340257510542870e-03 7.296233654022216797e+00 2.189873695373535156e+00 8.281395584344863892e-02
4.660000000000000000e+02 7.936733245849609375e+01 -5.583619594573974609e+00 9.862602455541491508e-04 7.774428367614746094e+00 2.332624435424804688e+00 2.527733892202377319e-02
4.670000000000000000e+02 7.132738494873046875e+01 -2.720056056976318359e+00 8.082684874534606934e-02 6.065474510192871094e+00 1.843890428543090820e+00 4.454290270805358887e-01
4.680000000000000000e+02 6.724182128906250000e+01 -3.642665147781372070e+00 1.582040786743164062e-01 5.047681808471679688e+00 1.561765789985656738e+00 5.121950507164001465e-01
4.690000000000000000e+02 5.991920471191406250e+01 -7.439478039741516113e-01 2.867199480533599854e-01 3.278599500656127930e+00 1.069595813751220703e+00 5.336793661117553711e-01
4.700000000000000000e+02 4.596709823608398438e+01 -5.374523639678955078e+00 4.436221122741699219e-01 6.020019650459289551e-01 3.136872351169586182e-01 1.672166436910629272e-01
4.710000000000000000e+02 4.146749496459960938e+01 -6.432433605194091797e+00 5.128821730613708496e-01 -1.970285363495349884e-02 1.479538083076477051e-01 7.735840231180191040e-02
4.720000000000000000e+02 3.521997833251953125e+01 -7.318215847015380859e+00 6.689944267272949219e-01 -4.970507323741912842e-01 5.158311501145362854e-02 -8.723011612892150879e-02
4.730000000000000000e+02 2.745396995544433594e+01 -6.282140254974365234e+00 8.029258847236633301e-01 7.086969614028930664e-01 4.534868597984313965e-01 -8.630452752113342285e-01
4.740000000000000000e+02 2.560877990722656250e+01 -4.111424922943115234e+00 1.398684859275817871e+00 1.095697760581970215e+00 7.483147978782653809e-01 -1.370862007141113281e+00
4.750000000000000000e+02 2.843681907653808594e+01 -5.726444244384765625e+00 1.070058822631835938e+00 3.023211658000946045e-01 4.117139875888824463e-01 -6.615217924118041992e-01
4.760000000000000000e+02 3.230228424072265625e+01 -1.119048881530761719e+01 2.057476937770843506e-01 -2.591204643249511719e-01 -1.601182855665683746e-02 -8.104814589023590088e-02
4.770000000000000000e+02 3.131157875061035156e+01 -1.189586830139160156e+01 6.859710812568664551e-02 -1.603951305150985718e-01 -2.753940969705581665e-02 3.421753272414207458e-02
4.780000000000000000e+02 3.241496276855468750e+01 1.294255638122558594e+01 -1.441166758537292480e+00 -1.558914422988891602e+00 -9.000243544578552246e-01 -1.524516463279724121e+00
4.790000000000000000e+02 3.186906433105468750e+01 1.235835456848144531e+01 -1.503165841102600098e+00 -1.686820626258850098e+00 -9.569959640502929688e-01 -1.586300253868103027e+00
4.800000000000000000e+02 3.214340972900390625e+01 1.264968967437744141e+01 -1.444084286689758301e+00 -1.620939731597900391e+00 -9.195072054862976074e-01 -1.539455652236938477e+00
4.810000000000000000e+02 3.130646705627441406e+01 1.178141117095947266e+01 -1.696103692054748535e+00 -1.662580609321594238e+00 -1.007605314254760742e+00 -1.643220067024230957e+00
4.820000000000000000e+02 3.074123573303222656e+01 1.119712448120117188e+01 -1.693357825279235840e+00 -1.441965579986572266e+00 -9.405969977378845215e-01 -1.550907492637634277e+00
4.830000000000000000e+02 3.062590026855468750e+01 7.423349380493164062e+00 -1.207325220108032227e+00 -1.529915690422058105e+00 -8.211722970008850098e-01 -1.463984727859497070e+00
4.840000000000000000e+02 2.990621948242187500e+01 6.024299621582031250e+00 -2.148295879364013672e+00 -1.276337265968322754e+00 -1.027389883995056152e+00 -1.386221408843994141e+00
4.850000000000000000e+02 3.048262214660644531e+01 6.251615524291992188e+00 -1.849598050117492676e+00 -1.175945997238159180e+00 -9.076632261276245117e-01 -1.386478662490844727e+00
4.860000000000000000e+02 2.284248924255371094e+01 1.591814279556274414e+00 -3.391978263854980469e+00 -6.527613401412963867e-01 -1.213421821594238281e+00 -1.938091039657592773e+00
4.870000000000000000e+02 2.281904411315917969e+01 1.156052708625793457e+00 -2.770622253417968750e+00 -2.811249792575836182e-01 -9.155241250991821289e-01 -1.706331491470336914e+00
4.880000000000000000e+02 2.258969688415527344e+01 1.163586735725402832e+00 -2.881526470184326172e+00 -2.616792917251586914e-01 -9.429616928100585938e-01 -1.906983256340026855e+00
4.890000000000000000e+02 2.212686920166015625e+01 1.204545140266418457e+00 -3.073311567306518555e+00 -6.797674894332885742e-01 -1.125923752784729004e+00 -2.378857374191284180e+00
4.900000000000000000e+02 1.952346229553222656e+01 -4.269100129604339600e-01 -2.628642320632934570e+00 -4.081860065460205078e+00 -2.013150691986083984e+00 -2.420870542526245117e+00
4.910000000000000000e+02 2.047666358947753906e+01 5.749809741973876953e-02 -1.536882519721984863e+00 -3.288506746292114258e+00 -1.447616815567016602e+00 -4.501127719879150391e+00
4.920000000000000000e+02 1.588025283813476562e+01 -2.471527814865112305e+00 -1.584139347076416016e+00 -6.381855010986328125e-01 -6.666974425315856934e-01 -8.435889482498168945e-01
4.930000000000000000e+02 1.169807910919189453e+01 -2.197413206100463867e+00 -6.202225089073181152e-01 -1.092130970209836960e-02 -1.893431395292282104e-01 -2.198364883661270142e-01
4.940000000000000000e+02 1.096381282806396484e+01 -2.092086076736450195e+00 -5.048602819442749023e-01 -1.052779797464609146e-02 -1.546164155006408691e-01 -1.752265840768814087e-01
4.950000000000000000e+02 9.737112998962402344e+00 -6.684589385986328125e+00 -3.411234319210052490e-01 -2.887839078903198242e-01 -1.889722049236297607e-01 -5.394085049629211426e-01
4.960000000000000000e+02 7.038506984710693359e+00 -1.952299690246582031e+01 8.089119940996170044e-02 -7.983448505401611328e-01 -2.152360975742340088e-01 -3.675082027912139893e-01
4.970000000000000000e+02 7.099281787872314453e+00 -2.688729667663574219e+01 7.114477455615997314e-02 -9.696051478385925293e-01 -2.695381045341491699e-01 -2.445138990879058838e-01
4.980000000000000000e+02 7.573875427246093750e+00 -4.103015518188476562e+01 5.674382671713829041e-02 -1.101944565773010254e+00 -3.135602176189422607e-01 -2.480075322091579437e-02
4.990000000000000000e+02 1.208990287780761719e+01 -3.744829559326171875e+01 1.499266475439071655e-01 -7.122721672058105469e-01 -1.687036603689193726e-01 -1.029967516660690308e-01
5.000000000000000000e+02 2.485904121398925781e+01 -3.794227981567382812e+01 4.821696877479553223e-01 2.068742513656616211e-01 2.067131847143173218e-01 -1.860003918409347534e-01
5.010000000000000000e+02 1.675269126892089844e+01 -4.056393051147460938e+01 2.626848816871643066e-01 -3.342665135860443115e-01 -2.147449180483818054e-02 -5.027363821864128113e-02
5.020000000000000000e+02 1.382191085815429688e+01 -2.907048034667968750e+01 1.746461689472198486e-01 -5.265408158302307129e-01 -1.055683866143226624e-01 -2.696653008460998535e-01
5.030000000000000000e+02 1.804991149902343750e+01 -2.515074157714843750e+01 2.342121452093124390e-01 -1.871524155139923096e-01 1.411791797727346420e-02 -3.441130816936492920e-01
5.040000000000000000e+02 1.918492889404296875e+01 -1.764532470703125000e+01 2.409577071666717529e-01 -1.342219263315200806e-01 3.202073276042938232e-02 -3.288704752922058105e-01
5.050000000000000000e+02 2.224323654174804688e+01 -1.321493816375732422e+01 1.865042001008987427e-01 2.816040813922882080e-01 1.404324918985366821e-01 -2.072176486253738403e-01
5.060000000000000000e+02 1.981414794921875000e+01 -8.214123725891113281e+00 6.246566772460937500e-02 -7.057725191116333008e-01 -1.929920613765716553e-01 1.037090569734573364e-01
5.070000000000000000e+02 1.921823692321777344e+01 -1.003579998016357422e+01 1.914802789688110352e-01 -5.523506999015808105e-01 -1.082611158490180969e-01 -1.579758971929550171e-01
5.080000000000000000e+02 1.943846130371093750e+01 -6.879232883453369141e+00 -9.752627462148666382e-02 -1.313012838363647461e+00 -4.231617450714111328e-01 4.407268390059471130e-02
5.090000000000000000e+02 1.899122428894042969e+01 -4.067475795745849609e+00 -3.919145166873931885e-01 -3.795825004577636719e+00 -1.256321787834167480e+00 -5.524610280990600586e-01
5.100000000000000000e+02 1.887761116027832031e+01 -7.750486135482788086e-01 -2.684270381927490234e+00 -2.765144586563110352e+00 -1.634824514389038086e+00 -2.121645689010620117e+00
5.110000000000000000e+02 1.916945075988769531e+01 -5.606937408447265625e-01 -2.685335159301757812e+00 -3.493266820907592773e+00 -1.853580594062805176e+00 -2.026286840438842773e+00
5.120000000000000000e+02 1.023125553131103516e+01 -1.989151358604431152e+00 -4.059488773345947266e-01 3.287281375378370285e-03 -1.207984760403633118e-01 -1.432449370622634888e-01
5.130000000000000000e+02 3.768728256225585938e+00 -1.976030826568603516e+00 -4.044242948293685913e-02 -1.818961091339588165e-02 -1.758961193263530731e-02 -2.183436788618564606e-02
5.140000000000000000e+02 1.648780345916748047e+00 -1.066536808013916016e+01 -4.668196197599172592e-03 -3.713469207286834717e-01 -1.128045320510864258e-01 -1.320749372243881226e-01
5.150000000000000000e+02 1.822667956352233887e+00 -1.755469131469726562e+01 3.760959021747112274e-03 -8.927781581878662109e-01 -2.667051553726196289e-01 -1.410676687955856323e-01
5.160000000000000000e+02 6.365738511085510254e-01 -2.472421264648437500e+01 1.385176903568208218e-03 -1.420736670494079590e+00 -4.258054494857788086e-01 -3.115850314497947693e-02
5.170000000000000000e+02 7.931482195854187012e-01 -3.175097084045410156e+01 1.030771294608712196e-03 -1.675501823425292969e+00 -5.023413300514221191e-01 -1.749764755368232727e-02
5.180000000000000000e+02 4.022335529327392578e+00 -3.896638488769531250e+01 4.964182153344154358e-02 -1.466358423233032227e+00 -4.250149726867675781e-01 -4.182352125644683838e-02
5.190000000000000000e+02 1.236465573310852051e+00 -3.749233627319335938e+01 1.005577202886343002e-02 -1.754429817199707031e+00 -5.233122110366821289e-01 -5.359199363738298416e-03
5.200000000000000000e+02 2.335686302185058594e+01 -4.088511657714843750e+01 4.416919052600860596e-01 7.235141843557357788e-02 1.542129963636398315e-01 -5.480012670159339905e-02
5.210000000000000000e+02 2.228241729736328125e+01 -3.652856826782226562e+01 4.092868864536285400e-01 7.728965580463409424e-02 1.459729671478271484e-01 -1.937371939420700073e-01
5.220000000000000000e+02 2.671271705627441406e+01 -3.310291290283203125e+01 4.434503316879272461e-01 4.569880664348602295e-01 2.701315283775329590e-01 -3.604206442832946777e-01
5.230000000000000000e+02 2.636594772338867188e+01 -2.034172248840332031e+01 1.911847293376922607e-01 6.426236033439636230e-01 2.501424849033355713e-01 -3.455639481544494629e-01
5.240000000000000000e+02 2.579463768005371094e+01 -2.221677780151367188e+01 2.144843637943267822e-01 5.701844692230224609e-01 2.354006469249725342e-01 -3.620904088020324707e-01
5.250000000000000000e+02 2.367103385925292969e+01 -1.557945156097412109e+01 2.195203304290771484e-01 4.185784757137298584e-01 1.914296448230743408e-01 -2.844801247119903564e-01
5.260000000000000000e+02 2.322653579711914062e+01 -1.746535873413085938e+01 2.057820111513137817e-01 3.416152298450469971e-01 1.642191708087921143e-01 -2.932709157466888428e-01
5.270000000000000000e+02 3.121072387695312500e+01 -3.660020446777343750e+01 6.577739715576171875e-01 5.936148166656494141e-01 3.754166364669799805e-01 -4.546347856521606445e-01
5.280000000000000000e+02 3.708850479125976562e+01 -3.762602996826171875e+01 1.018085837364196777e+00 6.630616784095764160e-01 5.043442249298095703e-01 -7.360208630561828613e-01
5.290000000000000000e+02 3.281767654418945312e+01 -3.252259826660156250e+01 5.986530184745788574e-01 8.966434597969055176e-01 4.485889375209808350e-01 -6.877862811088562012e-01
5.300000000000000000e+02 3.201014328002929688e+01 -3.138708686828613281e+01 5.144597887992858887e-01 1.020795583724975586e+00 4.605765938758850098e-01 -6.710020303726196289e-01
5.310000000000000000e+02 3.168733215332031250e+01 -3.319628906250000000e+01 5.397276282310485840e-01 8.124349117279052734e-01 4.056487679481506348e-01 -5.478617548942565918e-01
5.320000000000000000e+02 2.998479843139648438e+01 -2.777304077148437500e+01 2.555020451545715332e-01 9.102607369422912598e-01 3.497288525104522705e-01 -4.755497276782989502e-01
5.330000000000000000e+02 2.814048004150390625e+01 -2.405710411071777344e+01 2.166493982076644897e-01 7.979614138603210449e-01 3.043832480907440186e-01 -4.165340960025787354e-01
5.340000000000000000e+02 4.494075393676757812e+01 -3.748855209350585938e+01 7.655349969863891602e-01 1.719433069229125977e+00 7.454903721809387207e-01 7.312906384468078613e-01
5.350000000000000000e+02 4.511244964599609375e+01 -3.899151229858398438e+01 1.564884424209594727e+00 1.400451898574829102e+00 8.896009325981140137e-01 6.313639879226684570e-01
5.360000000000000000e+02 4.788442993164062500e+01 -3.876879119873046875e+01 1.052536964416503906e+00 1.432269930839538574e+00 7.454420924186706543e-01 4.371958673000335693e-01
5.370000000000000000e+02 5.769770812988281250e+01 -3.777795791625976562e+01 4.290596544742584229e-01 3.035421371459960938e+00 1.039344310760498047e+00 2.138768583536148071e-01
5.380000000000000000e+02 5.718410491943359375e+01 -3.444824600219726562e+01 2.991555929183959961e-01 3.013005733489990234e+00 9.936484098434448242e-01 3.336225152015686035e-01
5.390000000000000000e+02 5.520203399658203125e+01 -2.198102188110351562e+01 6.282906979322433472e-02 2.652901172637939453e+00 8.147190809249877930e-01 2.416917979717254639e-01
5.400000000000000000e+02 5.562435150146484375e+01 -1.959851837158203125e+01 1.082463860511779785e-01 2.696875095367431641e+00 8.415364623069763184e-01 2.457006126642227173e-01
5.410000000000000000e+02 5.265548706054687500e+01 -1.961743164062500000e+01 1.059989258646965027e-01 2.130608081817626953e+00 6.709820628166198730e-01 1.789652705192565918e-01
5.420000000000000000e+02 4.800040435791015625e+01 -1.873742103576660156e+01 1.240996047854423523e-01 1.229204416275024414e+00 4.059911966323852539e-01 8.777459710836410522e-02
5.430000000000000000e+02 5.027402496337890625e+01 -1.961120605468750000e+01 1.088907271623611450e-01 1.682867765426635742e+00 5.375275611877441406e-01 1.292039006948471069e-01
5.440000000000000000e+02 4.633626556396484375e+01 -2.499573326110839844e+01 -9.221515059471130371e-02 9.557676911354064941e-01 2.590657770633697510e-01 1.170420125126838684e-01
5.450000000000000000e+02 4.812069702148437500e+01 -3.052905464172363281e+01 -1.150276586413383484e-01 1.494918942451477051e+00 4.139674007892608643e-01 2.717254757881164551e-01
5.460000000000000000e+02 4.684638214111328125e+01 -3.291131591796875000e+01 -6.019081920385360718e-02 1.285781264305114746e+00 3.676771521568298340e-01 3.292762041091918945e-01
5.470000000000000000e+02 5.827197265625000000e+01 -3.035915565490722656e+01 1.432049274444580078e-01 3.201503276824951172e+00 1.003412485122680664e+00 3.341520130634307861e-01
5.480000000000000000e+02 6.237047958374023438e+01 -4.104207611083984375e+01 3.114096820354461670e-01 3.817568778991699219e+00 1.238693594932556152e+00 4.697593674063682556e-02
5.490000000000000000e+02 6.648800659179687500e+01 -3.281728363037109375e+01 1.140451803803443909e-01 4.603596687316894531e+00 1.415292620658874512e+00 2.137510627508163452e-01
5.500000000000000000e+02 6.681747436523437500e+01 -2.572616577148437500e+01 5.575090646743774414e-02 4.775860309600830078e+00 1.449483394622802734e+00 2.764428555965423584e-01
5.510000000000000000e+02 6.344816589355468750e+01 -2.105432128906250000e+01 7.632134109735488892e-02 4.189314365386962891e+00 1.279690742492675781e+00 3.059413135051727295e-01
5.520000000000000000e+02 6.555453491210937500e+01 -1.845356941223144531e+01 7.963824272155761719e-02 4.596735477447509766e+00 1.402912139892578125e+00 3.213283419609069824e-01
5.530000000000000000e+02 7.159876251220703125e+01 -4.106596374511718750e+01 7.783008366823196411e-02 5.462884426116943359e+00 1.662214279174804688e+00 1.236261334270238876e-02
5.540000000000000000e+02 7.211173248291015625e+01 -3.026111030578613281e+01 3.054808452725410461e-02 5.632464408874511719e+00 1.698903799057006836e+00 1.509679704904556274e-01
5.550000000000000000e+02 7.171263122558593750e+01 -2.437073516845703125e+01 2.746877446770668030e-02 5.664610862731933594e+00 1.707623958587646484e+00 2.023307830095291138e-01
5.560000000000000000e+02 7.165335845947265625e+01 -1.752163314819335938e+01 3.629587963223457336e-02 5.777499675750732422e+00 1.744138717651367188e+00 2.492534369230270386e-01
5.570000000000000000e+02 7.284473419189453125e+01 -1.895006179809570312e+01 2.118666656315326691e-02 5.960104942321777344e+00 1.794387459754943848e+00 2.137886136770248413e-01
5.580000000000000000e+02 7.792444610595703125e+01 -4.162918472290039062e+01 6.299456954002380371e-02 6.419562339782714844e+00 1.944766998291015625e+00 1.765722781419754028e-02
5.590000000000000000e+02 7.788337707519531250e+01 -3.685300445556640625e+01 5.505875684320926666e-03 6.438441753387451172e+00 1.933184385299682617e+00 4.767010733485221863e-02
5.600000000000000000e+02 7.930869293212890625e+01 -3.334526824951171875e+01 4.377337638288736343e-03 6.703102588653564453e+00 2.012243986129760742e+00 1.374694332480430603e-02
5.610000000000000000e+02 7.793552398681640625e+01 -3.038357162475585938e+01 2.387983986409381032e-04 6.557242870330810547e+00 1.967244505882263184e+00 4.640684649348258972e-02
5.620000000000000000e+02 7.935172271728515625e+01 -2.639530563354492188e+01 2.984571910928934813e-04 6.889176845550537109e+00 2.066842555999755859e+00 1.443950552493333817e-02
5.630000000000000000e+02 7.806081390380859375e+01 -2.348830604553222656e+01 1.075180480256676674e-03 6.763672351837158203e+00 2.029424190521240234e+00 5.422900617122650146e-02
5.640000000000000000e+02 7.809277343750000000e+01 -1.661585235595703125e+01 1.756751560606062412e-03 6.996971130371093750e+00 2.099618196487426758e+00 6.451870501041412354e-02
5.650000000000000000e+02 7.935562133789062500e+01 -2.223575019836425781e+01 -4.232127394061535597e-04 7.019801139831542969e+00 2.105813503265380859e+00 1.488590519875288010e-02
5.660000000000000000e+02 7.809813690185546875e+01 1.115602684020996094e+01 -1.211215974763035774e-03 8.886109352111816406e+00 2.665469408035278320e+00 1.897981017827987671e-01
5.670000000000000000e+02 7.939250946044921875e+01 1.672441864013671875e+01 -2.860185457393527031e-03 9.961709976196289062e+00 2.987654924392700195e+00 2.438095770776271820e-02
5.680000000000000000e+02 7.377729797363281250e+01 2.205643844604492188e+01 -6.217409372329711914e-01 8.590670585632324219e+00 2.390678882598876953e+00 3.281300961971282959e-01
5.690000000000000000e+02 6.323782730102539062e+01 3.244977188110351562e+01 -2.747123718261718750e+00 4.373902454972267151e-02 -8.110153675079345703e-01 -1.246420219540596008e-01
5.700000000000000000e+02 6.249091720581054688e+01 3.251177978515625000e+01 -2.732380151748657227e+00 5.622186511754989624e-02 -8.028475046157836914e-01 -1.782152503728866577e-01
5.710000000000000000e+02 6.022595596313476562e+01 3.271082687377929688e+01 -2.427087545394897461e+00 8.996316045522689819e-02 -7.011373043060302734e-01 -3.261475563049316406e-01
5.720000000000000000e+02 7.820513153076171875e+01 1.811686515808105469e+01 -3.429456427693367004e-02 9.594150543212890625e+00 2.867956876754760742e+00 1.012481078505516052e-01
5.730000000000000000e+02 7.941017150878906250e+01 2.368866348266601562e+01 -3.220514953136444092e-02 9.942731857299804688e+00 2.973157882690429688e+00 -1.612361371517181396e-01
5.740000000000000000e+02 6.710060882568359375e+01 3.224154663085937500e+01 -1.088671207427978516e+00 5.829750895500183105e-01 -1.517088413238525391e-01 1.174309968948364258e+00
5.750000000000000000e+02 7.824362945556640625e+01 2.227501487731933594e+01 -1.131435185670852661e-01 9.722706794738769531e+00 2.882869005203247070e+00 -1.617962867021560669e-01
5.760000000000000000e+02 7.948217773437500000e+01 2.926865196228027344e+01 -1.508730463683605194e-02 7.208610534667968750e+00 2.158056974411010742e+00 -4.274856746196746826e-01
5.770000000000000000e+02 7.108663177490234375e+01 3.228688812255859375e+01 -2.863382399082183838e-01 1.982953643798828125e+01 5.862959384918212891e+00 1.632586121559143066e+00
5.780000000000000000e+02 7.207795715332031250e+01 3.340246582031250000e+01 8.049276351928710938e+00 1.707421112060546875e+01 7.537046432495117188e+00 -2.229032039642333984e+00
5.790000000000000000e+02 7.924879455566406250e+01 3.747053146362304688e+01 6.618674844503402710e-02 6.581200122833251953e+00 1.994215965270996094e+00 5.666490793228149414e-01
5.800000000000000000e+02 7.104133605957031250e+01 3.550178146362304688e+01 2.087217718362808228e-01 1.993605995178222656e+01 6.043434619903564453e+00 -1.602587580680847168e+00
5.810000000000000000e+02 7.780194854736328125e+01 3.708548736572265625e+01 1.913004070520401001e-01 7.874803066253662109e+00 2.419831037521362305e+00 1.179792165756225586e+00
5.820000000000000000e+02 7.084123229980468750e+01 3.558347702026367188e+01 -3.479399019852280617e-03 1.919620895385742188e+01 5.757819175720214844e+00 -2.962704658508300781e+00
5.830000000000000000e+02 6.765476989746093750e+01 3.564526748657226562e+01 5.721054673194885254e-01 1.189185738563537598e+00 5.283873677253723145e-01 -1.707396984100341797e+00
5.840000000000000000e+02 6.563077545166015625e+01 3.606508255004882812e+01 -3.528400957584381104e-01 5.271853208541870117e-01 5.230356007814407349e-02 -3.713897243142127991e-02
5.850000000000000000e+02 6.262444305419921875e+01 3.774385452270507812e+01 2.121249437332153320e-01 -7.303987443447113037e-02 4.172552004456520081e-02 3.428068459033966064e-01
5.860000000000000000e+02 6.275988388061523438e+01 3.641092300415039062e+01 -5.202244520187377930e-01 -1.272336989641189575e-01 -1.942374408245086670e-01 5.632823705673217773e-01
5.870000000000000000e+02 5.603534317016601562e+01 3.861629104614257812e+01 1.805618703365325928e-01 -3.355122208595275879e-01 -4.648510739207267761e-02 2.148736715316772461e-01
5.880000000000000000e+02 6.003859329223632812e+01 3.738098907470703125e+01 -1.885313093662261963e-01 -1.777850985527038574e-01 -1.098949164152145386e-01 4.577019512653350830e-01
5.890000000000000000e+02 5.699817276000976562e+01 3.688210678100585938e+01 -1.778582930564880371e-01 -1.033477261662483215e-01 -8.436180651187896729e-02 3.257291615009307861e-01
5.900000000000000000e+02 5.384299087524414062e+01 3.740584182739257812e+01 -2.285350486636161804e-02 -3.820933401584625244e-01 -1.214840561151504517e-01 7.449969649314880371e-02
5.910000000000000000e+02 5.464619827270507812e+01 3.725841522216796875e+01 -5.083932727575302124e-02 -1.976519972085952759e-01 -7.454739511013031006e-02 1.511327326297760010e-01
5.920000000000000000e+02 5.405204010009765625e+01 3.766172790527343750e+01 -5.074870213866233826e-02 -2.856701016426086426e-01 -1.009256467223167419e-01 1.380620300769805908e-01
5.930000000000000000e+02 4.556301879882812500e+01 3.527076339721679688e+01 8.169008046388626099e-02 4.049938544631004333e-02 3.665684163570404053e-02 5.540470778942108154e-02
5.940000000000000000e+02 4.132824707031250000e+01 3.901820755004882812e+01 8.745323121547698975e-02 3.981391340494155884e-02 3.818014264106750488e-02 2.471057511866092682e-02
5.950000000000000000e+02 4.000820922851562500e+01 3.587966537475585938e+01 6.915002316236495972e-02 5.068547651171684265e-02 3.595064952969551086e-02 4.140284284949302673e-02
5.960000000000000000e+02 3.698180389404296875e+01 2.744257354736328125e+01 5.898348987102508545e-02 7.792280614376068115e-02 4.107188805937767029e-02 6.613214313983917236e-02
5.970000000000000000e+02 3.194777297973632812e+01 2.169067382812500000e+01 6.431277096271514893e-02 6.268214434385299683e-02 3.809847310185432434e-02 6.517028063535690308e-02
5.980000000000000000e+02 3.537767791748046875e+01 2.561810302734375000e+01 5.677778646349906921e-02 7.351952046155929565e-02 3.908919170498847961e-02 6.426104903221130371e-02
5.990000000000000000e+02 3.216997909545898438e+01 3.900365447998046875e+01 3.642235323786735535e-02 6.329308450222015381e-02 2.991463057696819305e-02 1.517693046480417252e-02
6.000000000000000000e+02 2.807816886901855469e+01 3.855367660522460938e+01 1.973777823150157928e-02 6.716333329677581787e-02 2.607033401727676392e-02 1.469930913299322128e-02
6.010000000000000000e+02 3.111532402038574219e+01 2.085362625122070312e+01 7.952012866735458374e-02 7.484520226716995239e-02 4.630959779024124146e-02 7.635525614023208618e-02
6.020000000000000000e+02 2.648595619201660156e+01 1.637389755249023438e+01 1.001950874924659729e-01 1.093721464276313782e-01 6.287016719579696655e-02 1.042132228612899780e-01
6.030000000000000000e+02 1.754590034484863281e+01 1.296256351470947266e+01 6.405913084745407104e-02 1.716029495000839233e-01 7.069862633943557739e-02 1.006073132157325745e-01
6.040000000000000000e+02 6.405502319335937500e+00 1.765149497985839844e+01 -1.877065515145659447e-04 -4.408363625407218933e-02 -1.328140310943126678e-02 -2.368334867060184479e-02
6.050000000000000000e+02 1.827328920364379883e+00 1.919872856140136719e+01 1.671705467742867768e-05 -1.522402316331863403e-01 -4.566705599427223206e-02 -1.350672077387571335e-02
6.060000000000000000e+02 5.724433064460754395e-01 1.351703357696533203e+01 4.044510569656267762e-05 -2.258059680461883545e-01 -6.772965192794799805e-02 -2.994627458974719048e-03
6.070000000000000000e+02 1.652644395828247070e+00 9.301949501037597656e+00 8.909851312637329102e-03 -1.791338324546813965e-01 -5.106719210743904114e-02 1.905241422355175018e-02
6.080000000000000000e+02 5.408472418785095215e-01 6.466615676879882812e+00 1.950002042576670647e-03 -1.536781638860702515e-01 -4.551844671368598938e-02 1.717831008136272430e-02
6.090000000000000000e+02 1.852464914321899414e+00 3.978565692901611328e+00 -5.436047445982694626e-03 -7.414449751377105713e-02 -2.387416362762451172e-02 5.738525092601776123e-02
6.100000000000000000e+02 1.768075561523437500e+01 4.077149963378906250e+01 -5.117860157042741776e-03 3.591544181108474731e-02 9.239274077117443085e-03 1.933979801833629608e-03
6.110000000000000000e+02 2.273252487182617188e+01 4.086796951293945312e+01 2.734533743932843208e-03 5.685643851757049561e-02 1.787729188799858093e-02 4.206411540508270264e-03
6.120000000000000000e+02 2.474459838867187500e+01 2.946320724487304688e+01 1.446782611310482025e-02 8.105699717998504639e-02 2.865744568407535553e-02 3.915816918015480042e-02
6.130000000000000000e+02 2.756860542297363281e+01 2.272165870666503906e+01 4.735136404633522034e-02 9.296937286853790283e-02 4.209621995687484741e-02 7.034604996442794800e-02
6.140000000000000000e+02 2.614596366882324219e+01 2.174628639221191406e+01 4.732737317681312561e-02 9.888745099306106567e-02 4.386444762349128723e-02 7.200473546981811523e-02
6.150000000000000000e+02 1.735078620910644531e+01 3.743003845214843750e+01 -5.481829866766929626e-03 3.769663348793983459e-02 9.664440527558326721e-03 4.790572915226221085e-03
6.160000000000000000e+02 1.583179759979248047e+01 2.937120246887207031e+01 -7.198637351393699646e-03 4.613925144076347351e-02 1.168218441307544708e-02 8.675961755216121674e-03
6.170000000000000000e+02 1.314761829376220703e+01 2.581112861633300781e+01 -9.510134346783161163e-03 3.798574954271316528e-02 8.542684838175773621e-03 1.605435041710734367e-03
6.180000000000000000e+02 1.276328849792480469e+01 2.453162002563476562e+01 -8.615539409220218658e-03 3.889697790145874023e-02 9.084431454539299011e-03 6.535980501212179661e-04
6.190000000000000000e+02 1.276136207580566406e+01 4.095544815063476562e+01 -7.396040018647909164e-03 1.746282447129487991e-03 -1.694927224889397621e-03 -3.900570445694029331e-04
6.200000000000000000e+02 1.307528781890869141e+01 3.776619338989257812e+01 -7.631934247910976410e-03 5.215749610215425491e-03 -7.248552865348756313e-04 -6.448698695749044418e-04
6.210000000000000000e+02 5.876539707183837891e+00 3.070964622497558594e+01 -4.597291350364685059e-03 -5.795186012983322144e-02 -1.876474544405937195e-02 -1.040528994053602219e-02
6.220000000000000000e+02 7.251253128051757812e+00 2.311099624633789062e+01 -7.036196067929267883e-03 -3.620532900094985962e-02 -1.297245733439922333e-02 -1.897946000099182129e-02
6.230000000000000000e+02 2.036582231521606445e+00 4.161127471923828125e+01 -3.731552045792341232e-03 -8.926362544298171997e-02 -2.789855189621448517e-02 -1.053068670444190502e-03
6.240000000000000000e+02 4.701714992523193359e+00 3.710415267944335938e+01 -7.216846570372581482e-04 -7.120583206415176392e-02 -2.157825417816638947e-02 -1.901751151308417320e-03
6.250000000000000000e+02 1.896924376487731934e+00 3.573096084594726562e+01 6.194144953042268753e-04 -9.408387541770935059e-02 -2.803933806717395782e-02 -4.559459164738655090e-03
6.260000000000000000e+02 1.735916852951049805e+00 2.908561515808105469e+01 -1.104797120206058025e-03 -1.090949252247810364e-01 -3.305991739034652710e-02 -5.929260049015283585e-03
6.270000000000000000e+02 1.866375207901000977e+00 2.063090705871582031e+01 -1.270240172743797302e-03 -1.435219645500183105e-01 -4.343765974044799805e-02 -1.283168513327836990e-02
6.280000000000000000e+02 5.441494941711425781e+00 1.850541949272155762e+00 -1.292519569396972656e-01 -3.340911865234375000e-02 -4.879832267761230469e-02 1.212283894419670105e-01
6.290000000000000000e+02 8.316677093505859375e+00 2.516270637512207031e+00 -8.582402020692825317e-02 -1.869961023330688477e-01 -8.184603601694107056e-02 2.799587845802307129e-01
6.300000000000000000e+02 6.103004455566406250e+00 1.050858211517333984e+01 5.566970258951187134e-02 -6.656196713447570801e-02 -3.267679596319794655e-03 -2.965735038742423058e-03
6.310000000000000000e+02 7.468947887420654297e+00 1.752033805847167969e+01 8.970832568593323231e-04 -1.955856382846832275e-02 -5.598444025963544846e-03 -2.250429242849349976e-02
6.320000000000000000e+02 1.386441230773925781e+01 1.712440848350524902e+00 1.789249539375305176e+00 3.344200134277343750e+00 1.540034890174865723e+00 -1.693079590797424316e+00
6.330000000000000000e+02 1.412698364257812500e+01 1.346319556236267090e+00 3.155276298522949219e+00 3.123865842819213867e+00 1.883742570877075195e+00 -2.343147754669189453e+00
6.340000000000000000e+02 1.541035366058349609e+01 8.580611348152160645e-01 9.280110359191894531e+00 2.336070984601974487e-01 2.854115009307861328e+00 -8.184823393821716309e-01
6.350000000000000000e+02 1.053292274475097656e+01 1.741653800010681152e+00 -1.383607536554336548e-01 -3.956246376037597656e-01 -1.601956188678741455e-01 4.664395153522491455e-01
6.360000000000000000e+02 1.129496574401855469e+01 1.613823890686035156e+00 1.397440955042839050e-02 -4.478130042552947998e-01 -1.301515847444534302e-01 4.773347973823547363e-01
6.370000000000000000e+02 1.411443233489990234e+01 3.721784353256225586e+00 3.646377623081207275e-01 1.308734893798828125e+00 5.020117759704589844e-01 5.567752718925476074e-01
6.380000000000000000e+02 1.637563323974609375e+01 6.144647121429443359e+00 2.355528920888900757e-01 2.709160447120666504e-01 1.519406735897064209e-01 2.484941184520721436e-01
6.390000000000000000e+02 2.143461418151855469e+01 1.130583953857421875e+01 1.355119347572326660e-01 1.439242660999298096e-01 8.383085578680038452e-02 1.399736553430557251e-01
6.400000000000000000e+02 2.482458686828613281e+01 1.466710567474365234e+01 1.123716756701469421e-01 1.005722731351852417e-01 6.388318538665771484e-02 1.077148690819740295e-01
6.410000000000000000e+02 4.940492630004882812e+01 3.755516433715820312e+01 1.697004139423370361e-01 1.531199924647808075e-02 5.550372228026390076e-02 6.135851144790649414e-02
6.420000000000000000e+02 4.870434188842773438e+01 3.771346282958984375e+01 1.682749539613723755e-01 3.474877402186393738e-02 6.090711802244186401e-02 6.740160286426544189e-02
6.430000000000000000e+02 5.195722961425781250e+01 3.863794326782226562e+01 2.969265878200531006e-01 5.948838964104652405e-02 1.069244891405105591e-01 1.116494908928871155e-01
6.440000000000000000e+02 5.263177490234375000e+01 3.886056518554687500e+01 2.985092699527740479e-01 1.816291734576225281e-02 9.500166028738021851e-02 7.271378487348556519e-02
6.450000000000000000e+02 5.284485244750976562e+01 3.929372787475585938e+01 1.880863606929779053e-01 -3.249217569828033447e-02 4.667825251817703247e-02 1.451427042484283447e-01
6.460000000000000000e+02 5.222865676879882812e+01 3.953966903686523438e+01 1.799787580966949463e-01 7.044845726341009140e-03 5.610708147287368774e-02 9.164377301931381226e-02
6.470000000000000000e+02 5.361441040039062500e+01 3.824309539794921875e+01 -1.331597566604614258e-01 -3.629053533077239990e-01 -1.488195359706878662e-01 2.195949852466583252e-01
6.480000000000000000e+02 5.126936721801757812e+01 3.821524047851562500e+01 2.156300246715545654e-01 4.715081676840782166e-02 7.883425056934356689e-02 1.006983220577239990e-01
6.490000000000000000e+02 3.604423904418945312e+01 -1.697800064086914062e+01 -3.622737899422645569e-02 -5.127375125885009766e-01 -1.646894663572311401e-01 2.163206636905670166e-01
6.500000000000000000e+02 4.011426162719726562e+01 -2.415348052978515625e+01 -1.823932975530624390e-01 -3.917399346828460693e-01 -1.722399741411209106e-01 2.909018993377685547e-01
6.510000000000000000e+02 4.046788787841796875e+01 -2.724370002746582031e+01 -2.382948249578475952e-01 -5.502527356147766113e-01 -2.365642637014389038e-01 3.787156343460083008e-01
6.520000000000000000e+02 3.962718582153320312e+01 -1.794985580444335938e+01 6.623642891645431519e-02 -1.780660748481750488e-01 -3.354889526963233948e-02 1.085658892989158630e-01
6.530000000000000000e+02 4.126571655273437500e+01 -1.540987682342529297e+01 2.352765947580337524e-01 7.735006511211395264e-02 9.378799796104431152e-02 2.793128043413162231e-02
6.540000000000000000e+02 3.564793777465820312e+01 -1.892772102355957031e+01 -1.960397660732269287e-01 -6.813405752182006836e-01 -2.632141113281250000e-01 3.760979473590850830e-01
6.550000000000000000e+02 3.425060272216796875e+01 -1.655093383789062500e+01 -1.363858133554458618e-01 -5.785663127899169922e-01 -2.144856303930282593e-01 3.029677271842956543e-01
6.560000000000000000e+02 4.325840377807617188e+01 -2.682327079772949219e+01 -1.721117347478866577e-01 1.570618152618408203e-01 -4.514972679316997528e-03 1.741340756416320801e-01
6.570000000000000000e+02 4.150452423095703125e+01 -2.647185707092285156e+01 -1.975356489419937134e-01 -2.592992484569549561e-01 -1.370504647493362427e-01 2.721171081066131592e-01
6.580000000000000000e+02 4.490784072875976562e+01 -3.469982528686523438e+01 1.395243965089321136e-02 9.112390279769897461e-01 2.775574326515197754e-01 1.734316349029541016e-01
6.590000000000000000e+02 4.703761291503906250e+01 -3.719350433349609375e+01 8.370482921600341797e-01 1.377160191535949707e+00 6.642625331878662109e-01 6.598253250122070312e-01
6.600000000000000000e+02 3.827614974975585938e+01 -4.150277328491210938e+01 1.820717334747314453e+00 5.956387519836425781e-01 7.249068617820739746e-01 -1.214754208922386169e-01
6.610000000000000000e+02 3.565453338623046875e+01 -4.033333206176757812e+01 1.442407250404357910e+00 4.190858006477355957e-01 5.584478974342346191e-01 -3.044200837612152100e-01
6.620000000000000000e+02 6.268243026733398438e+01 2.869617462158203125e+01 -4.281422495841979980e-01 9.285020232200622559e-01 1.501079350709915161e-01 2.611058950424194336e-01
6.630000000000000000e+02 4.625611877441406250e+01 2.665740585327148438e+01 -1.473043799400329590e+00 -1.344048738479614258e+00 -8.451277613639831543e-01 -1.448385477066040039e+00
6.640000000000000000e+02 4.806033706665039062e+01 1.513029193878173828e+01 -4.178636372089385986e-01 -7.453689817339181900e-03 -1.275952011346817017e-01 -4.310227632522583008e-01
6.650000000000000000e+02 4.815822982788085938e+01 5.026126503944396973e-01 2.699363529682159424e-01 8.083723783493041992e-01 3.234926164150238037e-01 2.036236822605133057e-01
6.660000000000000000e+02 4.683541870117187500e+01 1.858752250671386719e+00 1.971071213483810425e-01 5.656300783157348633e-01 2.288211584091186523e-01 1.434762477874755859e-01
6.670000000000000000e+02 6.085581207275390625e+01 1.514971256256103516e+00 2.678643763065338135e-01 3.446594953536987305e+00 1.114337801933288574e+00 5.771075487136840820e-01
6.680000000000000000e+02 5.863764953613281250e+01 2.258315801620483398e+00 2.830078005790710449e-01 2.879840135574340820e+00 9.488543272018432617e-01 5.316549539566040039e-01
6.690000000000000000e+02 6.089554595947265625e+01 1.109981441497802734e+01 1.854669451713562012e-01 3.146027088165283203e+00 9.994481801986694336e-01 6.265779137611389160e-01
6.700000000000000000e+02 6.023608016967773438e+01 1.670193862915039062e+01 8.735721558332443237e-02 2.563152313232421875e+00 7.951529026031494141e-01 5.343518853187561035e-01
6.710000000000000000e+02 4.845818710327148438e+01 2.274226570129394531e+01 -1.000242471694946289e+00 -5.931734442710876465e-01 -4.780247807502746582e-01 -9.025002717971801758e-01
6.720000000000000000e+02 4.016706848144531250e+01 2.148932838439941406e+01 -1.454806804656982422e+00 -1.212028741836547852e+00 -8.000506758689880371e-01 -1.349372625350952148e+00
6.730000000000000000e+02 4.598701095581054688e+01 2.693383598327636719e+01 -1.492113947868347168e+00 -1.397749304771423340e+00 -8.669589757919311523e-01 -1.459989905357360840e+00
6.740000000000000000e+02 4.570182800292968750e+01 2.665682220458984375e+01 -1.469039320945739746e+00 -1.443273544311523438e+00 -8.736938238143920898e-01 -1.473650336265563965e+00
6.750000000000000000e+02 3.356965255737304688e+01 1.360200691223144531e+01 -1.481454253196716309e+00 -1.666435003280639648e+00 -9.443667531013488770e-01 -1.525714516639709473e+00
6.760000000000000000e+02 3.324332046508789062e+01 1.380914402008056641e+01 -1.607107281684875488e+00 -1.690799474716186523e+00 -9.893720149993896484e-01 -1.624188303947448730e+00
6.770000000000000000e+02 3.352911758422851562e+01 6.134275436401367188e+00 -1.178135871887207031e+00 -8.769627809524536133e-01 -6.165296435356140137e-01 -8.094049692153930664e-01
6.780000000000000000e+02 3.271705245971679688e+01 5.618990898132324219e+00 -1.317819595336914062e+00 -8.765627741813659668e-01 -6.583147048950195312e-01 -8.207107186317443848e-01
6.790000000000000000e+02 4.161067962646484375e+01 -9.153206348419189453e-01 2.516806721687316895e-01 -7.017289102077484131e-02 5.445233732461929321e-02 8.908205479383468628e-02
6.800000000000000000e+02 4.080996704101562500e+01 -1.610580533742904663e-01 1.702467203140258789e-01 -1.775974184274673462e-01 -2.205207711085677147e-03 5.916872993111610413e-02
6.810000000000000000e+02 3.944198989868164062e+01 1.268946456909179688e+01 -8.991331458091735840e-01 -9.495390057563781738e-01 -5.546016097068786621e-01 -9.114788174629211426e-01
6.820000000000000000e+02 3.972789764404296875e+01 1.977483558654785156e+01 -1.201195359230041504e+00 -1.340215325355529785e+00 -7.624232172966003418e-01 -1.378479838371276855e+00
6.830000000000000000e+02 4.030336761474609375e+01 1.987234687805175781e+01 -1.196910142898559570e+00 -1.304530620574951172e+00 -7.504322528839111328e-01 -1.373610615730285645e+00
6.840000000000000000e+02 6.631398773193359375e+01 1.862451934814453125e+01 -4.882095009088516235e-02 4.748290538787841797e+00 1.409840941429138184e+00 1.014268994331359863e+00
6.850000000000000000e+02 6.567030334472656250e+01 1.905115699768066406e+01 -1.758892647922039032e-02 4.478685855865478516e+00 1.338328957557678223e+00 1.015562057495117188e+00
6.860000000000000000e+02 7.266036224365234375e+01 1.980958557128906250e+01 -3.794831931591033936e-01 7.774602413177490234e+00 2.218535900115966797e+00 5.978945493698120117e-01
6.870000000000000000e+02 3.929838180541992188e+01 1.231756401062011719e+01 -8.909007906913757324e-01 -9.360874891281127930e-01 -5.480964779853820801e-01 -8.931192755699157715e-01
6.880000000000000000e+02 3.879167175292968750e+01 2.005584335327148438e+01 -1.120566248893737793e+00 -1.470620870590209961e+00 -7.773561477661132812e-01 -1.312265753746032715e+00
6.890000000000000000e+02 7.290631866455078125e+01 9.374630928039550781e+00 4.417404904961585999e-02 7.031084537506103516e+00 2.122577428817749023e+00 5.825097560882568359e-01
6.900000000000000000e+02 7.217142486572265625e+01 1.046558952331542969e+01 4.497307538986206055e-02 6.873430252075195312e+00 2.075520992279052734e+00 6.315096616744995117e-01
6.910000000000000000e+02 6.657846069335937500e+01 9.171198844909667969e+00 1.521733105182647705e-01 4.959792137145996094e+00 1.533589720726013184e+00 7.509971261024475098e-01
6.920000000000000000e+02 6.500065612792968750e+01 -6.237105727195739746e-01 2.094798684120178223e-01 4.511518955230712891e+00 1.416299700736999512e+00 5.812939405441284180e-01
6.930000000000000000e+02 7.277610015869140625e+01 1.513296484947204590e+00 6.849927455186843872e-02 6.620329380035400391e+00 2.006648540496826172e+00 4.634478986263275146e-01
6.940000000000000000e+02 6.588231658935546875e+01 2.549418210983276367e+00 1.925460994243621826e-01 4.748939514160156250e+00 1.482445716857910156e+00 6.384848356246948242e-01
6.950000000000000000e+02 1.271213340759277344e+01 -9.979734420776367188e+00 -4.666945710778236389e-02 -6.394762396812438965e-01 -2.058437019586563110e-01 -7.107890248298645020e-01
6.960000000000000000e+02 2.003000259399414062e+01 -1.916639900207519531e+01 2.427376657724380493e-01 -4.816485568881034851e-02 5.837184190750122070e-02 -3.309746384620666504e-01
6.970000000000000000e+02 6.748116970062255859e+00 -1.681874084472656250e+01 5.999326333403587341e-02 -7.195199728012084961e-01 -1.978580206632614136e-01 -4.060255885124206543e-01
6.980000000000000000e+02 5.441353321075439453e-01 -1.068468284606933594e+01 -6.014712620526552200e-03 -3.387610316276550293e-01 -1.034327223896980286e-01 -4.536816477775573730e-02
6.990000000000000000e+02 1.771404647827148438e+01 -2.373663902282714844e+01 2.496565133333206177e-01 -2.062023282051086426e-01 1.303625758737325668e-02 -3.460083305835723877e-01
7.000000000000000000e+02 7.392003059387207031e+00 -2.386890029907226562e+01 8.417014032602310181e-02 -8.952602744102478027e-01 -2.433270364999771118e-01 -3.014650046825408936e-01
7.010000000000000000e+02 6.052054166793823242e-01 -1.769345855712890625e+01 4.734720103442668915e-03 -9.568554759025573730e-01 -2.856362164020538330e-01 -4.837941005825996399e-02
7.020000000000000000e+02 1.844671440124511719e+01 -3.597496795654296875e+01 2.659064829349517822e-01 -2.313122898340225220e-01 1.037825644016265869e-02 -1.709535568952560425e-01
7.030000000000000000e+02 2.407326126098632812e+01 -2.601813507080078125e+01 2.692307829856872559e-01 3.610832691192626953e-01 1.890942156314849854e-01 -3.666595816612243652e-01
7.040000000000000000e+02 6.357275247573852539e-01 -2.332060050964355469e+01 2.663281047716736794e-03 -1.345344781875610352e+00 -4.028044641017913818e-01 -3.581982851028442383e-02
7.050000000000000000e+02 2.682949447631835938e+01 -3.121211242675781250e+01 3.927338421344757080e-01 5.150536298751831055e-01 2.723362445831298828e-01 -3.932162821292877197e-01
7.060000000000000000e+02 7.219689488410949707e-01 -3.034021949768066406e+01 5.404413677752017975e-04 -1.640351533889770508e+00 -4.919433295726776123e-01 -1.867999322712421417e-02
7.070000000000000000e+02 7.348233032226562500e+01 -3.080858230590820312e+01 2.818423882126808167e-02 5.844583988189697266e+00 1.761830449104309082e+00 1.300481706857681274e-01
7.080000000000000000e+02 6.625739288330078125e+01 -3.544210433959960938e+01 1.504637151956558228e-01 4.557750225067138672e+00 1.412464141845703125e+00 1.604754775762557983e-01
7.090000000000000000e+02 7.289402770996093750e+01 -2.441894912719726562e+01 2.037810534238815308e-02 5.853633880615234375e+00 1.762203574180603027e+00 1.826050132513046265e-01
7.100000000000000000e+02 6.744575500488281250e+01 -2.405229949951171875e+01 4.833723232150077820e-02 4.900623798370361328e+00 1.484688282012939453e+00 2.727816998958587646e-01
7.110000000000000000e+02 5.653473281860351562e+01 -2.093117523193359375e+01 9.114783257246017456e-02 2.873249292373657227e+00 8.893191218376159668e-01 2.553158104419708252e-01
7.120000000000000000e+02 4.506927108764648438e+01 -3.331669998168945312e+01 -9.935388714075088501e-02 7.119703292846679688e-01 1.837849318981170654e-01 2.031280547380447388e-01
7.130000000000000000e+02 7.306135559082031250e+01 -5.946997165679931641e+00 5.536686629056930542e-02 6.400418281555175781e+00 1.936735510826110840e+00 3.379869163036346436e-01
7.140000000000000000e+02 7.192090606689453125e+01 -1.106160926818847656e+01 4.913784936070442200e-02 5.976144313812255859e+00 1.807584643363952637e+00 3.042341172695159912e-01
7.150000000000000000e+02 6.695223236083984375e+01 -1.939680695533752441e+00 1.745799034833908081e-01 5.020021915435791016e+00 1.558380484580993652e+00 5.493894219398498535e-01
7.160000000000000000e+02 6.658289337158203125e+01 -1.252709102630615234e+01 1.144343018531799316e-01 4.830265522003173828e+00 1.483410000801086426e+00 3.750901520252227783e-01
7.170000000000000000e+02 5.995197296142578125e+01 -3.924090862274169922e+00 2.868815660476684570e-01 3.338711023330688477e+00 1.087677836418151855e+00 5.000926256179809570e-01
7.180000000000000000e+02 5.264449310302734375e+01 -1.343348121643066406e+01 2.718577086925506592e-01 1.997398614883422852e+00 6.807768940925598145e-01 2.147681713104248047e-01
7.190000000000000000e+02 4.813637924194335938e+01 -3.741147279739379883e+00 3.952808976173400879e-01 9.159479141235351562e-01 3.933686316013336182e-01 2.193274796009063721e-01
7.200000000000000000e+02 4.655774307250976562e+01 -1.093298053741455078e+01 4.079070985317230225e-01 8.218181133270263672e-01 3.689175546169281006e-01 1.045596897602081299e-01
7.210000000000000000e+02 4.011265182495117188e+01 -6.619680881500244141e+00 5.275828838348388672e-01 -1.706358194351196289e-01 1.070841178297996521e-01 4.412316903471946716e-02
7.220000000000000000e+02 3.607885742187500000e+01 -6.666905879974365234e+00 6.231470704078674316e-01 -4.927381873130798340e-01 3.912265598773956299e-02 -3.261584416031837463e-02
7.230000000000000000e+02 6.214411258697509766e+00 3.372431945800781250e+01 -2.805507509037852287e-03 -5.236038565635681152e-02 -1.654976792633533478e-02 -6.759257055819034576e-03
7.240000000000000000e+02 1.737136650085449219e+01 2.742595481872558594e+01 -4.767442122101783752e-03 6.305221468210220337e-02 1.748543232679367065e-02 1.779242418706417084e-02
7.250000000000000000e+02 3.299245834350585938e+01 3.070837783813476562e+01 4.044264554977416992e-02 7.284314930438995361e-02 3.398573771119117737e-02 4.881873354315757751e-02
7.260000000000000000e+02 3.140149688720703125e+01 2.112639427185058594e+01 7.720528542995452881e-02 6.987714022397994995e-02 4.412472993135452271e-02 7.284408807754516602e-02
7.270000000000000000e+02 1.793094635009765625e+00 3.180958747863769531e+01 -8.396527846343815327e-04 -1.023341640830039978e-01 -3.095214441418647766e-02 -4.568472038954496384e-03
7.280000000000000000e+02 1.724156951904296875e+01 6.955707550048828125e+00 1.799811720848083496e-01 1.963738799095153809e-01 1.129065155982971191e-01 1.867783218622207642e-01
7.290000000000000000e+02 1.938046646118164062e+01 1.418099308013916016e+01 7.219441235065460205e-02 1.501465439796447754e-01 6.670228391885757446e-02 1.021345332264900208e-01
7.300000000000000000e+02 5.900794982910156250e+00 9.175558090209960938e+00 7.077628374099731445e-02 -8.800433576107025146e-02 -5.168417003005743027e-03 1.695851236581802368e-02
7.310000000000000000e+02 1.696065711975097656e+01 6.680443763732910156e+00 1.953516155481338501e-01 1.988983899354934692e-01 1.182750016450881958e-01 2.036840468645095825e-01
7.320000000000000000e+02 9.783650398254394531e+00 1.816290259361267090e+00 -2.059281170368194580e-01 -2.909185290336608887e-01 -1.490539908409118652e-01 3.966353237628936768e-01
7.330000000000000000e+02 5.197671890258789062e+01 3.279463958740234375e+01 -7.171577811241149902e-01 -8.742685317993164062e-01 -4.774278998374938965e-01 -7.934511899948120117e-01
7.340000000000000000e+02 5.421876907348632812e+01 3.362286376953125000e+01 -9.173961281776428223e-01 3.642571344971656799e-02 -2.642911374568939209e-01 -4.988577663898468018e-01
7.350000000000000000e+02 5.144945907592773438e+01 3.219300079345703125e+01 -9.744756221771240234e-01 -1.095389366149902344e+00 -6.209595203399658203e-01 -1.019371390342712402e+00
7.360000000000000000e+02 5.117872619628906250e+01 3.189989089965820312e+01 -1.086867928504943848e+00 -1.151033878326416016e+00 -6.713705658912658691e-01 -1.103598117828369141e+00
7.370000000000000000e+02 5.171421051025390625e+01 3.249102401733398438e+01 -8.486968278884887695e-01 -1.008731603622436523e+00 -5.572285056114196777e-01 -9.134907722473144531e-01
7.380000000000000000e+02 5.090274429321289062e+01 3.161063766479492188e+01 -1.176218509674072266e+00 -1.187143802642822266e+00 -7.090086340904235840e-01 -1.172219395637512207e+00
7.390000000000000000e+02 5.062408828735351562e+01 3.132450485229492188e+01 -1.250007987022399902e+00 -1.216492414474487305e+00 -7.399501800537109375e-01 -1.223480582237243652e+00
7.400000000000000000e+02 4.921115875244140625e+01 2.991585159301757812e+01 -1.476853489875793457e+00 -1.354653596878051758e+00 -8.494521379470825195e-01 -1.410934329032897949e+00
7.410000000000000000e+02 4.863258361816406250e+01 2.936107254028320312e+01 -1.580386161804199219e+00 -1.388147950172424316e+00 -8.905602097511291504e-01 -1.471728563308715820e+00
7.420000000000000000e+02 4.833958816528320312e+01 2.908774566650390625e+01 -1.617745041847229004e+00 -1.382789731025695801e+00 -9.001604318618774414e-01 -1.486005187034606934e+00
7.430000000000000000e+02 4.804465484619140625e+01 2.881719207763671875e+01 -1.636899948120117188e+00 -1.368080854415893555e+00 -9.014942049980163574e-01 -1.490479707717895508e+00
7.440000000000000000e+02 4.686081314086914062e+01 2.774708747863769531e+01 -1.585662484169006348e+00 -1.334669470787048340e+00 -8.760995864868164062e-01 -1.463288903236389160e+00
7.450000000000000000e+02 4.656711578369140625e+01 2.747836494445800781e+01 -1.554399967193603516e+00 -1.344739079475402832e+00 -8.697416782379150391e-01 -1.456820368766784668e+00
7.460000000000000000e+02 4.597019577026367188e+01 2.638488388061523438e+01 -1.473147749900817871e+00 -1.375075578689575195e+00 -8.544669747352600098e-01 -1.464573144912719727e+00
7.470000000000000000e+02 4.627562332153320312e+01 2.720750236511230469e+01 -1.521497368812561035e+00 -1.364832878112792969e+00 -8.658990859985351562e-01 -1.455681443214416504e+00
7.480000000000000000e+02 4.542033767700195312e+01 2.637597846984863281e+01 -1.463285326957702637e+00 -1.506529927253723145e+00 -8.909445405006408691e-01 -1.500047564506530762e+00
7.490000000000000000e+02 4.514199447631835938e+01 2.609150886535644531e+01 -1.490404844284057617e+00 -1.583881497383117676e+00 -9.222859144210815430e-01 -1.543717741966247559e+00
7.500000000000000000e+02 4.312778472900390625e+01 2.415350914001464844e+01 -1.760219335556030273e+00 -1.453287482261657715e+00 -9.640520811080932617e-01 -1.597898721694946289e+00
7.510000000000000000e+02 4.253504180908203125e+01 2.362028503417968750e+01 -1.675707936286926270e+00 -1.414135813713073730e+00 -9.269531369209289551e-01 -1.547690272331237793e+00
7.520000000000000000e+02 4.194805145263671875e+01 2.308023834228515625e+01 -1.644865870475769043e+00 -1.448957562446594238e+00 -9.281470179557800293e-01 -1.546165347099304199e+00
7.530000000000000000e+02 4.165545654296875000e+01 2.280875015258789062e+01 -1.670837759971618652e+00 -1.462922334671020508e+00 -9.401280283927917480e-01 -1.556751489639282227e+00
7.540000000000000000e+02 4.136074829101562500e+01 2.253938865661621094e+01 -1.705837368965148926e+00 -1.445485711097717285e+00 -9.453969001770019531e-01 -1.554223418235778809e+00
7.550000000000000000e+02 4.076240539550781250e+01 2.201350593566894531e+01 -1.660407304763793945e+00 -1.304848909378051758e+00 -8.895768523216247559e-01 -1.467369914054870605e+00
7.560000000000000000e+02 3.987757110595703125e+01 2.121735954284667969e+01 -1.351381659507751465e+00 -1.220219612121582031e+00 -7.714803814888000488e-01 -1.313557863235473633e+00
7.570000000000000000e+02 3.959560775756835938e+01 2.093635749816894531e+01 -1.266149640083312988e+00 -1.256997704505920410e+00 -7.569442391395568848e-01 -1.293395519256591797e+00
7.580000000000000000e+02 3.932125473022460938e+01 2.064772415161132812e+01 -1.197209000587463379e+00 -1.311335563659667969e+00 -7.525633573532104492e-01 -1.286755084991455078e+00
7.590000000000000000e+02 3.938621139526367188e+01 2.006312370300292969e+01 -1.187958359718322754e+00 -1.365607857704162598e+00 -7.660698890686035156e-01 -1.357579708099365234e+00
7.600000000000000000e+02 3.853213500976562500e+01 1.975486755371093750e+01 -1.117560863494873047e+00 -1.566108226776123047e+00 -8.051006793975830078e-01 -1.343289732933044434e+00
7.610000000000000000e+02 3.827384185791015625e+01 1.945156288146972656e+01 -1.133686780929565430e+00 -1.660885572433471680e+00 -8.383716940879821777e-01 -1.385383009910583496e+00
7.620000000000000000e+02 3.905385971069335938e+01 2.035368156433105469e+01 -1.147683382034301758e+00 -1.383416533470153809e+00 -7.593299746513366699e-01 -1.292660951614379883e+00
7.630000000000000000e+02 3.917322921752929688e+01 1.917685890197753906e+01 -1.208836436271667480e+00 -1.407771348953247070e+00 -7.849823236465454102e-01 -1.381605267524719238e+00
7.640000000000000000e+02 3.750344848632812500e+01 1.853740119934082031e+01 -1.290640354156494141e+00 -1.867745876312255859e+00 -9.475158452987670898e-01 -1.538990616798400879e+00
7.650000000000000000e+02 3.724498748779296875e+01 1.823460006713867188e+01 -1.356815218925476074e+00 -1.877049922943115234e+00 -9.701595306396484375e-01 -1.579420089721679688e+00
7.660000000000000000e+02 3.672021865844726562e+01 1.763677406311035156e+01 -1.432582974433898926e+00 -1.816071391105651855e+00 -9.745963215827941895e-01 -1.602618217468261719e+00
7.670000000000000000e+02 3.645531845092773438e+01 1.734106063842773438e+01 -1.443501353263854980e+00 -1.781833529472351074e+00 -9.676004648208618164e-01 -1.595983743667602539e+00
7.680000000000000000e+02 3.698369979858398438e+01 1.793439674377441406e+01 -1.406938791275024414e+00 -1.853906393051147461e+00 -9.782535433769226074e-01 -1.598788142204284668e+00
7.690000000000000000e+02 3.538773345947265625e+01 1.616567802429199219e+01 -1.441671609878540039e+00 -1.709292650222778320e+00 -9.452892541885375977e-01 -1.567351102828979492e+00
7.700000000000000000e+02 3.511935806274414062e+01 1.587279129028320312e+01 -1.428590774536132812e+00 -1.696523785591125488e+00 -9.375343918800354004e-01 -1.559395313262939453e+00
7.710000000000000000e+02 3.485118484497070312e+01 1.557960414886474609e+01 -1.413967132568359375e+00 -1.693867921829223633e+00 -9.323505163192749023e-01 -1.550901532173156738e+00
7.720000000000000000e+02 3.431831359863281250e+01 1.498918437957763672e+01 -1.404816508293151855e+00 -1.739106178283691406e+00 -9.431768059730529785e-01 -1.565971374511718750e+00
7.730000000000000000e+02 3.405349731445312500e+01 1.469154453277587891e+01 -1.441556930541992188e+00 -1.778616786003112793e+00 -9.660521149635314941e-01 -1.597591042518615723e+00
7.740000000000000000e+02 3.378741455078125000e+01 1.439422702789306641e+01 -1.511955976486206055e+00 -1.798078656196594238e+00 -9.930104017257690430e-01 -1.629124402999877930e+00
7.750000000000000000e+02 3.351763534545898438e+01 1.409959602355957031e+01 -1.578531980514526367e+00 -1.768149018287658691e+00 -1.004004359245300293e+00 -1.646140217781066895e+00
7.760000000000000000e+02 3.296626281738281250e+01 1.352137088775634766e+01 -1.567610621452331543e+00 -1.602436900138854980e+00 -9.510142207145690918e-01 -1.582091212272644043e+00
7.770000000000000000e+02 3.088028717041015625e+01 1.049681854248046875e+01 -1.510449767112731934e+00 -1.442108750343322754e+00 -8.857675790786743164e-01 -1.446197509765625000e+00
7.780000000000000000e+02 3.014488220214843750e+01 8.766865730285644531e+00 -1.358193039894104004e+00 -1.348586559295654297e+00 -8.120338916778564453e-01 -1.124423146247863770e+00
7.790000000000000000e+02 2.991911697387695312e+01 9.534811973571777344e+00 -1.610747218132019043e+00 -1.262403249740600586e+00 -8.619451522827148438e-01 -1.331517100334167480e+00
7.800000000000000000e+02 2.918379211425781250e+01 9.913417816162109375e+00 -1.640880703926086426e+00 -1.393051743507385254e+00 -9.101797342300415039e-01 -1.478174686431884766e+00
7.810000000000000000e+02 2.891968917846679688e+01 9.626742362976074219e+00 -1.987113356590270996e+00 -1.461835622787475586e+00 -1.034684658050537109e+00 -1.630365610122680664e+00
7.820000000000000000e+02 2.961186790466308594e+01 9.119677543640136719e+00 -1.710287690162658691e+00 -1.231927275657653809e+00 -8.826645016670227051e-01 -1.186404228210449219e+00
7.830000000000000000e+02 2.860813903808593750e+01 9.336109161376953125e+00 -2.222336292266845703e+00 -1.609983563423156738e+00 -1.149695992469787598e+00 -1.962787508964538574e+00
7.840000000000000000e+02 2.831385803222656250e+01 8.783948898315429688e+00 -3.103153228759765625e+00 -1.272235751152038574e+00 -1.312616705894470215e+00 -1.835669875144958496e+00
7.850000000000000000e+02 2.797244071960449219e+01 8.813130378723144531e+00 -3.545254707336425781e+00 -2.083661079406738281e+00 -1.688674688339233398e+00 -2.604163408279418945e+00
7.860000000000000000e+02 2.771314430236816406e+01 8.554718017578125000e+00 -4.014414787292480469e+00 -2.252132415771484375e+00 -1.879964232444763184e+00 -3.187718629837036133e+00
7.870000000000000000e+02 2.727041435241699219e+01 8.159408569335937500e+00 -4.256549835205078125e+00 -2.627158164978027344e+00 -2.065112352371215820e+00 -3.354164123535156250e+00
7.880000000000000000e+02 2.679916191101074219e+01 7.842544555664062500e+00 -4.646956920623779297e+00 -2.900940418243408203e+00 -2.264369249343872070e+00 -4.294841289520263672e+00
7.890000000000000000e+02 2.632369041442871094e+01 7.528412818908691406e+00 -6.248206138610839844e+00 -3.389720201492309570e+00 -2.891377925872802734e+00 -4.527909278869628906e+00
7.900000000000000000e+02 2.598006057739257812e+01 7.298244953155517578e+00 -6.865910053253173828e+00 -3.564306974411010742e+00 -3.129065036773681641e+00 -4.643140316009521484e+00
7.910000000000000000e+02 2.616610527038574219e+01 7.424701690673828125e+00 -6.022282600402832031e+00 -4.018375396728515625e+00 -3.012197256088256836e+00 -4.836013793945312500e+00
7.920000000000000000e+02 2.648073196411132812e+01 7.650238037109375000e+00 -5.725672721862792969e+00 -3.832112789154052734e+00 -2.867335796356201172e+00 -4.760606765747070312e+00
7.930000000000000000e+02 2.664261054992675781e+01 7.755420207977294922e+00 -5.915285110473632812e+00 -3.816026926040649414e+00 -2.919393539428710938e+00 -4.291864871978759766e+00
7.940000000000000000e+02 2.673066902160644531e+01 7.884767055511474609e+00 -5.387834072113037109e+00 -3.733863353729248047e+00 -2.736509084701538086e+00 -4.688506603240966797e+00
7.950000000000000000e+02 2.691510009765625000e+01 7.947913169860839844e+00 -5.463115692138671875e+00 -3.429161071777343750e+00 -2.667682886123657227e+00 -3.911587476730346680e+00
7.960000000000000000e+02 2.707943534851074219e+01 8.053480148315429688e+00 -4.793816566467285156e+00 -3.087312698364257812e+00 -2.364338874816894531e+00 -3.902481317520141602e+00
7.970000000000000000e+02 2.733045387268066406e+01 8.364109039306640625e+00 -4.779481410980224609e+00 -3.224678993225097656e+00 -2.401248216629028320e+00 -3.871953010559082031e+00
7.980000000000000000e+02 2.755171966552734375e+01 8.395728111267089844e+00 -4.513522624969482422e+00 -2.386806488037109375e+00 -2.070098876953125000e+00 -3.162557363510131836e+00
7.990000000000000000e+02 2.888609695434570312e+01 5.123103141784667969e+00 -2.415839195251464844e+00 -1.486507058143615723e+00 -1.170703887939453125e+00 -1.272511959075927734e+00
8.000000000000000000e+02 2.893198966979980469e+01 5.477272510528564453e+00 -2.499943256378173828e+00 -1.645586967468261719e+00 -1.243659019470214844e+00 -1.377073407173156738e+00
8.010000000000000000e+02 2.642749214172363281e+01 3.868466615676879883e+00 -3.136740207672119141e+00 -1.026391506195068359e+00 -1.248939514160156250e+00 -1.587283730506896973e+00
8.020000000000000000e+02 2.688988876342773438e+01 4.211765766143798828e+00 -3.035775661468505859e+00 -1.158799290657043457e+00 -1.258372426033020020e+00 -1.618281006813049316e+00
8.030000000000000000e+02 2.573027801513671875e+01 3.426193237304687500e+00 -3.285591602325439453e+00 -8.751301169395446777e-01 -1.248216509819030762e+00 -1.564919471740722656e+00
8.040000000000000000e+02 2.195519447326660156e+01 1.080110430717468262e+00 -2.889368057250976562e+00 -6.998236775398254395e-01 -1.076757550239562988e+00 -2.513870000839233398e+00
8.050000000000000000e+02 2.229574203491210938e+01 1.317246437072753906e+00 -3.162789821624755859e+00 -5.551288127899169922e-01 -1.115375638008117676e+00 -2.219817876815795898e+00
8.060000000000000000e+02 2.213314056396484375e+01 8.227857947349548340e-01 -2.664518833160400391e+00 -2.888687551021575928e-01 -8.860163092613220215e-01 -2.363216876983642578e+00
8.070000000000000000e+02 2.092492675781250000e+01 4.503546655178070068e-01 -2.290382623672485352e+00 -1.316426277160644531e+00 -1.082042694091796875e+00 -3.567763566970825195e+00
8.080000000000000000e+02 2.027508735656738281e+01 9.750572592020034790e-02 -1.071834444999694824e+00 -3.592479944229125977e+00 -1.399294257164001465e+00 -4.051131248474121094e+00
8.090000000000000000e+02 2.049571418762207031e+01 -1.256420165300369263e-01 -2.128946304321289062e+00 -3.326727390289306641e+00 -1.636702060699462891e+00 -4.920128822326660156e+00
8.100000000000000000e+02 2.001509284973144531e+01 -2.368750721216201782e-01 -1.759197115898132324e+00 -5.204509735107421875e+00 -2.089112043380737305e+00 -2.836372852325439453e+00
8.110000000000000000e+02 1.871505928039550781e+01 -8.907357454299926758e-01 -2.511736631393432617e+00 -2.407050848007202148e+00 -1.475636243820190430e+00 -1.862436890602111816e+00
8.120000000000000000e+02 1.824108695983886719e+01 -1.290990114212036133e+00 -2.356216669082641602e+00 -1.984635591506958008e+00 -1.302255749702453613e+00 -1.609371542930603027e+00
8.130000000000000000e+02 1.805620193481445312e+01 -1.435603618621826172e+00 -2.138916015625000000e+00 -1.760554909706115723e+00 -1.169841289520263672e+00 -1.560955882072448730e+00
8.140000000000000000e+02 1.842217063903808594e+01 -1.169976711273193359e+00 -2.310706615447998047e+00 -2.443167686462402344e+00 -1.426162242889404297e+00 -1.852021336555480957e+00
8.150000000000000000e+02 1.734151268005371094e+01 -1.778465747833251953e+00 -2.126892566680908203e+00 -1.135468721389770508e+00 -9.787083864212036133e-01 -1.132201790809631348e+00
8.160000000000000000e+02 1.749692344665527344e+01 -1.647004246711730957e+00 -2.220128774642944336e+00 -1.252336621284484863e+00 -1.041739583015441895e+00 -1.247008681297302246e+00
8.170000000000000000e+02 1.679657363891601562e+01 -2.104232311248779297e+00 -1.940203309059143066e+00 -8.298864364624023438e-01 -8.310269117355346680e-01 -1.079000711441040039e+00
8.180000000000000000e+02 1.642338752746582031e+01 -2.357881784439086914e+00 -1.770124197006225586e+00 -8.844456076622009277e-01 -7.963709235191345215e-01 -1.013025879859924316e+00
8.190000000000000000e+02 1.736160087585449219e+01 -2.226464033126831055e+00 -1.971463441848754883e+00 -1.328855752944946289e+00 -9.900957942008972168e-01 -1.317966103553771973e+00
8.200000000000000000e+02 1.243943786621093750e+01 -2.299077033996582031e+00 -7.537586092948913574e-01 -5.180518701672554016e-02 -2.416691333055496216e-01 -2.751706838607788086e-01
8.210000000000000000e+02 1.324768829345703125e+01 -2.373295783996582031e+00 -9.252212047576904297e-01 -6.118061020970344543e-02 -2.959205508232116699e-01 -3.388985991477966309e-01
8.220000000000000000e+02 1.412051963806152344e+01 -2.420882940292358398e+00 -1.158601522445678711e+00 -1.767879724502563477e-01 -4.006168246269226074e-01 -4.901268184185028076e-01
8.230000000000000000e+02 1.098008060455322266e+01 -2.886202096939086914e+00 -5.639162659645080566e-01 -3.110709413886070251e-02 -1.785070151090621948e-01 -2.818661928176879883e-01
8.240000000000000000e+02 9.466234207153320312e+00 -1.928835153579711914e+00 -3.195445239543914795e-01 -7.105735130608081818e-03 -9.799508005380630493e-02 -1.201159581542015076e-01
8.250000000000000000e+02 8.662444114685058594e+00 -1.915367960929870605e+00 -2.552789151668548584e-01 -6.672300864011049271e-03 -7.858536392450332642e-02 -1.068814396858215332e-01
8.260000000000000000e+02 7.850449085235595703e+00 -1.912788152694702148e+00 -1.960284411907196045e-01 -1.461450010538101196e-02 -6.319288164377212524e-02 -9.166876226663589478e-02
8.270000000000000000e+02 7.035125255584716797e+00 -1.916886329650878906e+00 -1.535364389419555664e-01 -1.568839699029922485e-02 -5.076745152473449707e-02 -8.009617030620574951e-02
8.280000000000000000e+02 5.401432037353515625e+00 -1.937399744987487793e+00 -8.448065072298049927e-02 -1.894938945770263672e-02 -3.102901205420494080e-02 -5.067150667309761047e-02
8.290000000000000000e+02 2.948688745498657227e+00 -2.011993169784545898e+00 -2.395383827388286591e-02 -1.623919047415256500e-02 -1.205790881067514420e-02 -1.031849160790443420e-02
8.300000000000000000e+02 3.119410276412963867e+00 -2.995884895324707031e+00 -4.806777089834213257e-02 -3.378471732139587402e-02 -2.455574646592140198e-02 -3.265421092510223389e-02
8.310000000000000000e+02 2.119617700576782227e+00 -2.069759845733642578e+00 -1.263498328626155853e-02 -1.358331646770238876e-02 -7.865490391850471497e-03 2.791241568047553301e-04
8.320000000000000000e+02 1.282876729965209961e+00 -2.147144317626953125e+00 -2.901552477851510048e-03 7.375691202469170094e-04 -6.491949898190796375e-04 7.999895140528678894e-03
8.330000000000000000e+02 4.319643676280975342e-01 -2.197928190231323242e+00 -1.185057335533201694e-03 1.752988807857036591e-02 4.903449211269617081e-03 3.320235991850495338e-03
8.340000000000000000e+02 1.921998500823974609e+00 -4.176501464843750000e+01 -5.438037961721420288e-02 -1.691010594367980957e+00 -5.236173272132873535e-01 1.544070150703191757e-02
8.350000000000000000e+02 1.370472908020019531e+00 -4.036214065551757812e+01 1.308707613497972488e-02 -1.719689846038818359e+00 -5.119808316230773926e-01 3.963585570454597473e-02
8.360000000000000000e+02 1.351328134536743164e+00 -3.896364593505859375e+01 3.074998594820499420e-02 -1.747713923454284668e+00 -5.150892138481140137e-01 1.735637895762920380e-02
8.370000000000000000e+02 9.905135035514831543e-01 -3.458467864990234375e+01 -2.579704625532031059e-03 -1.724091887474060059e+00 -5.180014967918395996e-01 -1.439743582159280777e-02
8.380000000000000000e+02 8.840551972389221191e-01 -3.316362380981445312e+01 2.917303936555981636e-03 -1.701976656913757324e+00 -5.097178220748901367e-01 -1.348865404725074768e-02
8.390000000000000000e+02 6.738253235816955566e-01 -2.893008804321289062e+01 1.735478523187339306e-03 -1.598795890808105469e+00 -4.791181087493896484e-01 -2.113666199147701263e-02
8.400000000000000000e+02 6.489031910896301270e-01 -2.752598190307617188e+01 1.921076094731688499e-03 -1.548364162445068359e+00 -4.639329314231872559e-01 -2.459555864334106445e-02
8.410000000000000000e+02 6.391072869300842285e-01 -2.612521362304687500e+01 1.302024931646883488e-03 -1.488832235336303711e+00 -4.462590515613555908e-01 -2.864719554781913757e-02
8.420000000000000000e+02 6.328502297401428223e-01 -2.191455650329589844e+01 -1.700115826679393649e-04 -1.260760784149169922e+00 -3.782792687416076660e-01 -3.853107616305351257e-02
8.430000000000000000e+02 6.262084245681762695e-01 -2.050741958618164062e+01 4.071780014783143997e-03 -1.168623685836791992e+00 -3.493655920028686523e-01 -4.268208518624305725e-02
8.440000000000000000e+02 1.887704730033874512e+00 -2.034355163574218750e+01 6.219942588359117508e-03 -1.074180841445922852e+00 -3.203882873058319092e-01 -1.248704567551612854e-01
8.450000000000000000e+02 5.934446454048156738e-01 -1.628815841674804688e+01 -3.381025278940796852e-03 -8.386344909667968750e-01 -2.526046335697174072e-01 -5.034024640917778015e-02
8.460000000000000000e+02 5.814940333366394043e-01 -1.488483428955078125e+01 4.596149548888206482e-03 -7.152072787284851074e-01 -2.131833434104919434e-01 -5.136455968022346497e-02
8.470000000000000000e+02 5.698796510696411133e-01 -1.348266220092773438e+01 -4.907598253339529037e-03 -5.875715613365173340e-01 -1.777437329292297363e-01 -5.119020864367485046e-02
8.480000000000000000e+02 1.719665169715881348e+00 -1.340566062927246094e+01 2.557266037911176682e-03 -5.826929807662963867e-01 -1.740407198667526245e-01 -1.491908580064773560e-01
8.490000000000000000e+02 5.291001796722412109e-01 -9.291505813598632812e+00 1.119029126130044460e-03 -2.273478209972381592e-01 -6.786863505840301514e-02 -3.922557830810546875e-02
8.500000000000000000e+02 5.148699283599853516e-01 -7.903243541717529297e+00 -6.065108813345432281e-03 -1.306765675544738770e-01 -4.102250561118125916e-02 -3.171850740909576416e-02
8.510000000000000000e+02 3.919003009796142578e+00 -2.912205457687377930e+00 -6.410516053438186646e-02 -3.836224600672721863e-02 -3.074022196233272552e-02 -4.803920909762382507e-02
8.520000000000000000e+02 4.081706047058105469e+00 -3.828940391540527344e+00 -8.684776723384857178e-02 -6.438586115837097168e-02 -4.537009075284004211e-02 -8.442198485136032104e-02
8.530000000000000000e+02 7.016929626464843750e+01 -3.827765274047851562e+01 9.965988248586654663e-02 5.222730159759521484e+00 1.596717119216918945e+00 7.487889379262924194e-02
8.540000000000000000e+02 5.267613983154296875e+01 -4.099628067016601562e+01 8.545419573783874512e-01 2.055550336837768555e+00 8.730276823043823242e-01 1.255272924900054932e-01
8.550000000000000000e+02 1.223030376434326172e+01 -4.079705810546875000e+01 1.412785351276397705e-01 -7.088789343833923340e-01 -1.702801138162612915e-01 -3.116750717163085938e-02
8.560000000000000000e+02 7.685422515869140625e+01 3.950811004638671875e+01 -3.952147364616394043e-01 8.882890701293945312e+00 2.546302795410156250e+00 1.118006944656372070e+00
8.570000000000000000e+02 7.875995635986328125e+01 4.018777847290039062e+01 1.626937985420227051e-01 8.600360870361328125e+00 2.628916501998901367e+00 7.784251570701599121e-01
8.580000000000000000e+02 7.907848358154296875e+01 3.882651138305664062e+01 1.517967600375413895e-02 7.600781440734863281e+00 2.284788370132446289e+00 6.242105960845947266e-01
8.590000000000000000e+02 7.745209503173828125e+01 3.836672210693359375e+01 7.867775112390518188e-02 8.748414993286132812e+00 2.648127794265747070e+00 1.566881060600280762e+00
8.600000000000000000e+02 7.948007202148437500e+01 3.474932861328125000e+01 7.188667356967926025e-02 4.832293987274169922e+00 1.471254110336303711e+00 1.302240192890167236e-01
8.610000000000000000e+02 7.857788085937500000e+01 3.326996994018554688e+01 3.280341327190399170e-01 6.289259910583496094e+00 1.985188126564025879e+00 -3.024953603744506836e-01
8.620000000000000000e+02 7.857206726074218750e+01 3.197424697875976562e+01 2.359229922294616699e-01 6.657020568847656250e+00 2.067883014678955078e+00 -7.476047277450561523e-01
8.630000000000000000e+02 7.950255584716796875e+01 3.064731597900390625e+01 3.647330030798912048e-02 6.155664443969726562e+00 1.857641339302062988e+00 -4.037412405014038086e-01
8.640000000000000000e+02 7.840964508056640625e+01 2.791493034362792969e+01 -1.206188350915908813e-01 8.621324539184570312e+00 2.550211668014526367e+00 -9.688956737518310547e-01
8.650000000000000000e+02 7.944484710693359375e+01 2.648554420471191406e+01 -4.454632848501205444e-02 9.014958381652832031e+00 2.691123485565185547e+00 -3.243668079376220703e-01
8.660000000000000000e+02 7.730890655517578125e+01 2.659501075744628906e+01 -3.738876283168792725e-01 9.341952323913574219e+00 2.690419435501098633e+00 -9.703267812728881836e-01
8.670000000000000000e+02 7.942108154296875000e+01 2.508722305297851562e+01 -2.667112275958061218e-02 9.586520195007324219e+00 2.867954730987548828e+00 -2.336322963237762451e-01
8.680000000000000000e+02 7.941339874267578125e+01 2.089575767517089844e+01 -2.145649865269660950e-02 1.020646953582763672e+01 3.055503845214843750e+00 -4.793526604771614075e-02
8.690000000000000000e+02 7.941002655029296875e+01 1.950388526916503906e+01 -6.655788514763116837e-03 1.017757034301757812e+01 3.051274299621582031e+00 -1.401599589735269547e-02
8.700000000000000000e+02 7.706706237792968750e+01 1.950128364562988281e+01 -1.202664300799369812e-01 9.261747360229492188e+00 2.742444515228271484e+00 1.097471415996551514e-01
8.710000000000000000e+02 7.940215301513671875e+01 1.811378669738769531e+01 -1.167222578078508377e-02 1.008856487274169922e+01 3.023067712783813477e+00 7.734605576843023300e-03
8.720000000000000000e+02 7.937525177001953125e+01 1.394142150878906250e+01 -7.828681846149265766e-04 9.649455070495605469e+00 2.894601821899414062e+00 4.166186228394508362e-02
8.730000000000000000e+02 7.936975860595703125e+01 1.254574489593505859e+01 -2.850592136383056641e-03 9.481468200683593750e+00 2.843585252761840820e+00 4.548880457878112793e-02
8.740000000000000000e+02 7.936701202392578125e+01 1.115077495574951172e+01 8.194527472369372845e-04 9.312680244445800781e+00 2.794049978256225586e+00 4.732241481542587280e-02
8.750000000000000000e+02 7.936659240722656250e+01 6.965917110443115234e+00 -4.648698450182564557e-05 8.833457946777343750e+00 2.650023460388183594e+00 4.403983801603317261e-02
8.760000000000000000e+02 7.936432647705078125e+01 5.568664073944091797e+00 1.088173361495137215e-03 8.686517715454101562e+00 2.606281757354736328e+00 4.257690161466598511e-02
8.770000000000000000e+02 7.935942840576171875e+01 4.171347141265869141e+00 -1.291450316784903407e-04 8.546403884887695312e+00 2.563882350921630859e+00 4.134080559015274048e-02
8.780000000000000000e+02 7.934407806396484375e+01 -1.357196271419525146e-02 1.432989374734461308e-03 8.172100067138671875e+00 2.452059984207153320e+00 3.552965819835662842e-02
8.790000000000000000e+02 7.934503936767578125e+01 -1.405864953994750977e+00 1.288639497943222523e-03 8.062717437744140625e+00 2.419201612472534180e+00 3.252647444605827332e-02
8.800000000000000000e+02 7.807421112060546875e+01 -4.223505496978759766e+00 4.410216584801673889e-03 7.588409423828125000e+00 2.277845859527587891e+00 1.111089438199996948e-01
8.810000000000000000e+02 7.935848999023437500e+01 -4.191563129425048828e+00 1.154190045781433582e-03 7.864736557006835938e+00 2.359767198562622070e+00 2.779838256537914276e-02
8.820000000000000000e+02 7.937884521484375000e+01 -8.362440109252929688e+00 1.274731126613914967e-03 7.609693050384521484e+00 2.283290386199951172e+00 2.151913568377494812e-02
8.830000000000000000e+02 7.813761138916015625e+01 -1.112022590637207031e+01 2.503776457160711288e-03 7.231212139129638672e+00 2.170114755630493164e+00 7.809134572744369507e-02
8.840000000000000000e+02 7.938036346435546875e+01 -1.113798236846923828e+01 7.789179217070341110e-04 7.465073108673095703e+00 2.239755630493164062e+00 1.908392645418643951e-02
8.850000000000000000e+02 7.937050628662109375e+01 -1.529947853088378906e+01 3.073533298447728157e-04 7.276964664459228516e+00 2.183181524276733398e+00 1.670267246663570404e-02
8.860000000000000000e+02 7.807902526855468750e+01 -1.799264907836914062e+01 1.129162148572504520e-03 6.944678306579589844e+00 2.083742141723632812e+00 6.287489831447601318e-02
8.870000000000000000e+02 7.936144256591796875e+01 -1.807473182678222656e+01 5.554901435971260071e-04 7.167212486267089844e+00 2.150330543518066406e+00 1.584091596305370331e-02
8.880000000000000000e+02 7.935540771484375000e+01 -2.362169647216796875e+01 5.563839222304522991e-04 6.974768161773681641e+00 2.092597246170043945e+00 1.467657554894685745e-02
8.890000000000000000e+02 7.806064605712890625e+01 -2.485973739624023438e+01 6.601136410608887672e-04 6.723978996276855469e+00 2.017391681671142578e+00 5.311194434762001038e-02
8.900000000000000000e+02 7.935485076904296875e+01 -2.500808334350585938e+01 -3.301486140117049217e-04 6.931163311004638672e+00 2.079250097274780273e+00 1.443947292864322662e-02
8.910000000000000000e+02 7.933140563964843750e+01 -2.917548942565917969e+01 1.513174502179026604e-03 6.810262203216552734e+00 2.043532609939575195e+00 1.335495337843894958e-02
8.920000000000000000e+02 7.788434600830078125e+01 -3.178120231628417969e+01 -2.185608493164181709e-03 6.528227806091308594e+00 1.957812666893005371e+00 4.271757975220680237e-02
8.930000000000000000e+02 7.930564117431640625e+01 -3.196001434326171875e+01 -2.355654956772923470e-03 6.738816261291503906e+00 2.020938158035278320e+00 1.673899218440055847e-02
8.940000000000000000e+02 7.933996582031250000e+01 -3.607964324951171875e+01 5.268494132906198502e-03 6.619322299957275391e+00 1.987377285957336426e+00 1.912854239344596863e-02
8.950000000000000000e+02 7.923413848876953125e+01 -3.739988708496093750e+01 -1.161565445363521576e-02 6.562100410461425781e+00 1.965145349502563477e+00 3.019436076283454895e-02
8.960000000000000000e+02 7.897907257080078125e+01 -3.869836044311523438e+01 -1.010437379591166973e-03 6.503277301788330078e+00 1.950680017471313477e+00 3.704233467578887939e-02
8.970000000000000000e+02 7.858541107177734375e+01 -4.005359268188476562e+01 -1.813583634793758392e-02 6.443583488464355469e+00 1.927634239196777344e+00 5.368871986865997314e-02
8.980000000000000000e+02 6.985441207885742188e+00 3.537743759155273438e+01 -4.478717688471078873e-03 -4.597246646881103516e-02 -1.513535529375076294e-02 -5.704749841243028641e-03
8.990000000000000000e+02 6.804976654052734375e+01 3.559621810913085938e+01 1.038655519485473633e+00 1.582077145576477051e+00 7.862198352813720703e-01 -2.033575057983398438e+00
9.000000000000000000e+02 3.758026361465454102e-01 2.179778814315795898e+00 -1.080105546861886978e-03 -1.502597611397504807e-02 -4.831824451684951782e-03 6.136127281934022903e-03
9.010000000000000000e+02 2.656592130661010742e+00 3.018181085586547852e+00 -2.666795440018177032e-02 -4.962271824479103088e-02 -2.288720197975635529e-02 6.961658596992492676e-02
9.020000000000000000e+02 5.483839988708496094e+00 2.543696165084838867e+00 -8.852451294660568237e-02 -6.359706819057464600e-02 -4.563647508621215820e-02 1.455546915531158447e-01
9.030000000000000000e+02 1.631204605102539062e+00 6.527284622192382812e+00 8.583870716392993927e-03 -1.382204145193099976e-01 -3.889096528291702271e-02 4.573253169655799866e-02
9.040000000000000000e+02 5.502135753631591797e-01 9.285788536071777344e+00 2.187752863392233849e-03 -2.167740613222122192e-01 -6.437589228153228760e-02 6.672226823866367340e-03
9.050000000000000000e+02 5.648357272148132324e-01 1.210482597351074219e+01 1.610786537639796734e-03 -2.306507229804992676e-01 -6.871198117733001709e-02 -1.016074558719992638e-03
9.060000000000000000e+02 1.695960998535156250e+00 1.210257244110107422e+01 4.506187513470649719e-03 -1.882275491952896118e-01 -5.511640757322311401e-02 -1.528807450085878372e-03
9.070000000000000000e+02 5.890470743179321289e-01 1.634823036193847656e+01 -5.447999574244022369e-04 -2.053284943103790283e-01 -6.176199018955230713e-02 -5.034646950662136078e-03
9.080000000000000000e+02 6.331823468208312988e-01 2.202419662475585938e+01 -7.852714625187218189e-04 -1.593116670846939087e-01 -4.802908003330230713e-02 -4.464365076273679733e-03
9.090000000000000000e+02 6.358028054237365723e-01 2.344109535217285156e+01 4.091425216756761074e-04 -1.498523801565170288e-01 -4.483297094702720642e-02 -4.047508351504802704e-03
9.100000000000000000e+02 1.918450355529785156e+00 2.349907493591308594e+01 -1.518610748462378979e-03 -1.283783912658691406e-01 -3.896909952163696289e-02 -1.091697812080383301e-02
9.110000000000000000e+02 6.285559535026550293e-01 2.485341262817382812e+01 -9.286822169087827206e-04 -1.414739340543746948e-01 -4.272078350186347961e-02 -3.479570150375366211e-03
9.120000000000000000e+02 5.768578052520751953e-01 2.907171249389648438e+01 4.815664142370223999e-04 -1.225376054644584656e-01 -3.661680966615676880e-02 -1.956267748028039932e-03
9.130000000000000000e+02 5.761910676956176758e-01 3.047446250915527344e+01 -5.207821959629654884e-04 -1.178285256028175354e-01 -3.550479188561439514e-02 -1.861606608144938946e-03
9.140000000000000000e+02 1.746957898139953613e+00 3.045612907409667969e+01 9.792871423996984959e-05 -1.053643450140953064e-01 -3.157992660999298096e-02 -4.907489754259586334e-03
9.150000000000000000e+02 5.842461585998535156e-01 3.186907768249511719e+01 2.809776342473924160e-04 -1.135929375886917114e-01 -3.399358689785003662e-02 -1.631292281672358513e-03
9.160000000000000000e+02 6.312592029571533203e-01 3.600843429565429688e+01 -7.348040817305445671e-04 -1.029089987277984619e-01 -3.109314106404781342e-02 -1.408030977472662926e-03
9.170000000000000000e+02 3.276712656021118164e+00 3.671535491943359375e+01 -3.644226817414164543e-04 -8.366582542657852173e-02 -2.520907483994960785e-02 -5.057740956544876099e-03
9.180000000000000000e+02 9.252528548240661621e-01 3.867919540405273438e+01 -4.059377824887633324e-04 -9.477442502975463867e-02 -2.855410985648632050e-02 -2.293222816661000252e-03
9.190000000000000000e+02 1.323862791061401367e+00 4.002544021606445312e+01 1.193547388538718224e-03 -9.075852483510971069e-02 -2.686949260532855988e-02 -3.341344650834798813e-03
9.200000000000000000e+02 9.048921585083007812e+00 1.833619594573974609e+00 -2.472436875104904175e-01 -2.189452648162841797e-01 -1.398566812276840210e-01 3.595129847526550293e-01
9.210000000000000000e+02 8.320652008056640625e+00 1.837315082550048828e+00 -2.634278833866119385e-01 -1.252747625112533569e-01 -1.166107952594757080e-01 2.874383032321929932e-01
9.220000000000000000e+02 7.597015857696533203e+00 1.835528373718261719e+00 -2.317682951688766479e-01 -9.133104234933853149e-02 -9.692980349063873291e-02 2.270455807447433472e-01
9.230000000000000000e+02 6.876985073089599609e+00 1.833960056304931641e+00 -1.976641863584518433e-01 -5.794350057840347290e-02 -7.668230682611465454e-02 1.808317899703979492e-01
9.240000000000000000e+02 4.722630500793457031e+00 1.877670526504516602e+00 -9.920738637447357178e-02 -3.357801586389541626e-02 -3.983562067151069641e-02 1.010300070047378540e-01
9.250000000000000000e+02 4.001877784729003906e+00 1.918619513511657715e+00 -7.455181330442428589e-02 -2.577348612248897552e-02 -3.009759075939655304e-02 8.116251975297927856e-02
9.260000000000000000e+02 3.283278226852416992e+00 1.964174389839172363e+00 -5.340979993343353271e-02 -2.743768505752086639e-02 -2.425424568355083466e-02 6.554606556892395020e-02
9.270000000000000000e+02 1.844352006912231445e+00 2.036407232284545898e+00 -2.161583863198757172e-02 -2.861548215150833130e-02 -1.506939623504877090e-02 3.665763512253761292e-02
9.280000000000000000e+02 1.115576386451721191e+00 2.104187488555908203e+00 -8.394058793783187866e-03 -2.678589336574077606e-02 -1.055398583412170410e-02 1.975884288549423218e-02
9.290000000000000000e+02 1.392961311340332031e+01 3.351290702819824219e+00 3.240170478820800781e-01 1.931113362312316895e+00 6.765391230583190918e-01 4.503914117813110352e-01
9.300000000000000000e+02 1.214648342132568359e+01 2.709358453750610352e+00 8.214362859725952148e-01 7.169242203235626221e-02 2.679386138916015625e-01 -2.404210418462753296e-01
9.310000000000000000e+02 1.328183078765869141e+01 2.164993762969970703e+00 1.289384245872497559e+00 1.869178891181945801e+00 9.475689530372619629e-01 -1.027318358421325684e+00
9.320000000000000000e+02 1.458071041107177734e+01 1.087362170219421387e+00 5.628820419311523438e+00 2.582343339920043945e+00 2.463349103927612305e+00 -3.249177217483520508e+00
9.330000000000000000e+02 1.507588195800781250e+01 8.764250874519348145e-01 9.869765281677246094e+00 1.064341425895690918e+00 3.280231952667236328e+00 -2.651422977447509766e+00
9.340000000000000000e+02 1.376934337615966797e+01 2.542874336242675781e+00 3.759780526161193848e-01 3.165319442749023438e+00 1.062389254570007324e+00 -3.646055161952972412e-01
9.350000000000000000e+02 1.435280609130859375e+01 4.058268070220947266e+00 4.190302789211273193e-01 8.442437052726745605e-01 3.789821863174438477e-01 4.890423119068145752e-01
9.360000000000000000e+02 1.517663002014160156e+01 4.990709781646728516e+00 1.899256259202957153e-01 3.196801841259002686e-01 1.528817415237426758e-01 2.737060785293579102e-01
9.370000000000000000e+02 1.458274936676025391e+01 5.314597129821777344e+00 1.617992520332336426e-01 5.180504918098449707e-01 2.039549201726913452e-01 2.758820354938507080e-01
9.380000000000000000e+02 1.608565139770507812e+01 5.870798587799072266e+00 2.311359047889709473e-01 3.255227208137512207e-01 1.669975817203521729e-01 2.545150518417358398e-01
9.390000000000000000e+02 1.579783821105957031e+01 5.589995384216308594e+00 2.000969797372817993e-01 3.369673192501068115e-01 1.611192822456359863e-01 2.527077198028564453e-01
9.400000000000000000e+02 1.666974258422851562e+01 6.412250041961669922e+00 2.232999056577682495e-01 2.303728163242340088e-01 1.361018121242523193e-01 2.199566662311553955e-01
9.410000000000000000e+02 1.776880836486816406e+01 7.536769390106201172e+00 1.627184301614761353e-01 1.995017677545547485e-01 1.086660549044609070e-01 1.786172538995742798e-01
9.420000000000000000e+02 1.854886245727539062e+01 8.440998077392578125e+00 1.728709042072296143e-01 1.993737369775772095e-01 1.116733923554420471e-01 1.834822595119476318e-01
9.430000000000000000e+02 1.878297424316406250e+01 9.302458763122558594e+00 1.492380350828170776e-01 1.835046410560607910e-01 9.982280433177947998e-02 1.579830646514892578e-01
9.440000000000000000e+02 1.882915687561035156e+01 8.734986305236816406e+00 1.804108023643493652e-01 1.885761469602584839e-01 1.106960847973823547e-01 1.778492480516433716e-01
9.450000000000000000e+02 1.911741638183593750e+01 9.021688461303710938e+00 1.745352894067764282e-01 1.683555990457534790e-01 1.028672680258750916e-01 1.698027253150939941e-01
9.460000000000000000e+02 1.940845680236816406e+01 9.305755615234375000e+00 1.623677909374237061e-01 1.523852646350860596e-01 9.442591667175292969e-02 1.563819497823715210e-01
9.470000000000000000e+02 1.916077232360839844e+01 1.060070896148681641e+01 1.204987093806266785e-01 1.675595045089721680e-01 8.641746640205383301e-02 1.449877023696899414e-01
9.480000000000000000e+02 1.969720840454101562e+01 9.595240592956542969e+00 1.446130573749542236e-01 1.416308730840682983e-01 8.587317913770675659e-02 1.478924453258514404e-01
9.490000000000000000e+02 1.998216247558593750e+01 9.893041610717773438e+00 1.337780207395553589e-01 1.424437910318374634e-01 8.286654204130172729e-02 1.413432210683822632e-01
9.500000000000000000e+02 2.026997375488281250e+01 1.018597793579101562e+01 1.280052512884140015e-01 1.472114175558090210e-01 8.256500214338302612e-02 1.415207535028457642e-01
9.510000000000000000e+02 2.056226921081542969e+01 1.046911621093750000e+01 1.305408924818038940e-01 1.558273732662200928e-01 8.591048419475555420e-02 1.415143311023712158e-01
9.520000000000000000e+02 1.958980941772460938e+01 1.030299091339111328e+01 1.280585825443267822e-01 1.571341454982757568e-01 8.555781841278076172e-02 1.502473801374435425e-01
9.530000000000000000e+02 2.114396476745605469e+01 1.102896213531494141e+01 1.382188647985458374e-01 1.535329073667526245e-01 8.752553164958953857e-02 1.427004635334014893e-01
9.540000000000000000e+02 2.172251129150390625e+01 1.158262157440185547e+01 1.306730061769485474e-01 1.387060135602951050e-01 8.081370592117309570e-02 1.342133432626724243e-01
9.550000000000000000e+02 2.200511360168457031e+01 1.186204433441162109e+01 1.238941699266433716e-01 1.349266171455383301e-01 7.764624059200286865e-02 1.315003037452697754e-01
9.560000000000000000e+02 2.255415916442871094e+01 1.243327426910400391e+01 1.205253824591636658e-01 1.393692344427108765e-01 7.796838134527206421e-02 1.305576562881469727e-01
9.570000000000000000e+02 2.310025596618652344e+01 1.301114273071289062e+01 1.265153437852859497e-01 1.394498944282531738e-01 7.978957146406173706e-02 1.321861296892166138e-01
9.580000000000000000e+02 2.337843132019042969e+01 1.329711341857910156e+01 1.299223601818084717e-01 1.359445601701736450e-01 7.976007461547851562e-02 1.307281702756881714e-01
9.590000000000000000e+02 2.366108131408691406e+01 1.357960510253906250e+01 1.309928447008132935e-01 1.290417015552520752e-01 7.801036536693572998e-02 1.289654821157455444e-01
9.600000000000000000e+02 2.394810867309570312e+01 1.385801506042480469e+01 1.311710327863693237e-01 1.219925731420516968e-01 7.594908028841018677e-02 1.245006918907165527e-01
9.610000000000000000e+02 2.453157997131347656e+01 1.440044307708740234e+01 1.210411265492439270e-01 1.057911217212677002e-01 6.804967671632766724e-02 1.129138022661209106e-01
9.620000000000000000e+02 2.511500740051269531e+01 1.493769454956054688e+01 1.048490256071090698e-01 9.955924749374389648e-02 6.132248044013977051e-02 1.035761833190917969e-01
9.630000000000000000e+02 2.567182731628417969e+01 1.550053882598876953e+01 9.738656133413314819e-02 1.051132306456565857e-01 6.074993684887886047e-02 1.019180268049240112e-01
9.640000000000000000e+02 2.562984657287597656e+01 1.601689720153808594e+01 9.740921854972839355e-02 1.059920191764831543e-01 6.102037057280540466e-02 1.026203855872154236e-01
9.650000000000000000e+02 2.511371994018554688e+01 1.545163536071777344e+01 9.947642683982849121e-02 1.050044894218444824e-01 6.134427711367607117e-02 1.055381745100021362e-01
9.660000000000000000e+02 2.704147911071777344e+01 1.695409393310546875e+01 1.026434153318405151e-01 1.048099920153617859e-01 6.223601847887039185e-02 1.027821302413940430e-01
9.670000000000000000e+02 2.760911369323730469e+01 1.752627182006835938e+01 1.007170751690864563e-01 9.623288363218307495e-02 5.908498913049697876e-02 9.789895266294479370e-02
9.680000000000000000e+02 2.732388496398925781e+01 1.724127578735351562e+01 1.025354266166687012e-01 1.007804423570632935e-01 6.099475920200347900e-02 1.006097346544265747e-01
9.690000000000000000e+02 2.818527603149414062e+01 1.808986282348632812e+01 9.487557411193847656e-02 8.917187899351119995e-02 5.521423369646072388e-02 9.214556217193603516e-02
9.700000000000000000e+02 2.847826576232910156e+01 1.836813545227050781e+01 9.218399226665496826e-02 8.697005361318588257e-02 5.374621599912643433e-02 8.959963172674179077e-02
9.710000000000000000e+02 2.877601242065429688e+01 1.864696121215820312e+01 8.945564180612564087e-02 8.505471050739288330e-02 5.235310643911361694e-02 8.754324167966842651e-02
9.720000000000000000e+02 2.936767005920410156e+01 1.921019744873046875e+01 8.464920520782470703e-02 8.200897276401519775e-02 4.999745264649391174e-02 8.360349386930465698e-02
9.730000000000000000e+02 2.965859794616699219e+01 1.949285507202148438e+01 8.242058008909225464e-02 8.082583546638488770e-02 4.897392541170120239e-02 8.193573355674743652e-02
9.740000000000000000e+02 2.994754600524902344e+01 1.977255058288574219e+01 8.039510995149612427e-02 8.001742511987686157e-02 4.812376201152801514e-02 8.059313893318176270e-02
9.750000000000000000e+02 3.023720932006835938e+01 2.004664993286132812e+01 7.926276326179504395e-02 7.971002161502838135e-02 4.769183322787284851e-02 7.958532124757766724e-02
9.760000000000000000e+02 3.082391929626464844e+01 2.058405303955078125e+01 7.958375662565231323e-02 7.809937745332717896e-02 4.730493947863578796e-02 7.808364927768707275e-02
9.770000000000000000e+02 3.220032882690429688e+01 2.201062583923339844e+01 5.724220350384712219e-02 6.358098983764648438e-02 3.624695912003517151e-02 6.376167386770248413e-02
9.780000000000000000e+02 3.248101806640625000e+01 2.232293319702148438e+01 5.383593961596488953e-02 6.780196726322174072e-02 3.649137169122695923e-02 6.341982632875442505e-02
9.790000000000000000e+02 3.277937698364257812e+01 2.260710906982421875e+01 5.418381839990615845e-02 7.370186597108840942e-02 3.836570307612419128e-02 6.376962363719940186e-02
9.800000000000000000e+02 3.332456970214843750e+01 2.318849563598632812e+01 5.804563313722610474e-02 7.778073102235794067e-02 4.074791073799133301e-02 6.640814244747161865e-02
9.810000000000000000e+02 3.244205093383789062e+01 2.299404716491699219e+01 5.759213864803314209e-02 7.113009691238403320e-02 3.861667215824127197e-02 6.611254066228866577e-02
9.820000000000000000e+02 3.385971069335937500e+01 2.377026748657226562e+01 5.567095056176185608e-02 7.361672818660736084e-02 3.878630325198173523e-02 6.443406641483306885e-02
9.830000000000000000e+02 3.359405136108398438e+01 2.347992515563964844e+01 5.774010345339775085e-02 7.551833987236022949e-02 3.997753188014030457e-02 6.591404974460601807e-02
9.840000000000000000e+02 3.412007141113281250e+01 2.406354331970214844e+01 5.320619046688079834e-02 7.357613742351531982e-02 3.803469985723495483e-02 6.350918859243392944e-02
9.850000000000000000e+02 3.437458801269531250e+01 2.436419677734375000e+01 5.251421034336090088e-02 7.582024484872817993e-02 3.850033506751060486e-02 6.359746307134628296e-02
9.860000000000000000e+02 3.487305068969726562e+01 2.498424911499023438e+01 5.657241865992546082e-02 7.934708893299102783e-02 4.077585041522979736e-02 6.601900607347488403e-02
9.870000000000000000e+02 3.512384033203125000e+01 2.529965019226074219e+01 5.792171508073806763e-02 7.714442908763885498e-02 4.051984474062919617e-02 6.598202139139175415e-02
9.880000000000000000e+02 3.590407562255859375e+01 2.624250411987304688e+01 5.133753642439842224e-02 7.068023830652236938e-02 3.660533204674720764e-02 6.099973618984222412e-02
9.890000000000000000e+02 3.645344543457031250e+01 2.683800125122070312e+01 5.185210332274436951e-02 7.647408545017242432e-02 3.849785774946212769e-02 6.246203184127807617e-02
9.900000000000000000e+02 3.671886825561523438e+01 2.714010238647460938e+01 5.503814667463302612e-02 7.826720923185348511e-02 3.999160975217819214e-02 6.494425982236862183e-02
9.910000000000000000e+02 3.751363372802734375e+01 2.803317451477050781e+01 6.272024661302566528e-02 7.086811214685440063e-02 4.007650911808013916e-02 6.514780968427658081e-02
9.920000000000000000e+02 3.778363037109375000e+01 2.832154655456542969e+01 6.221755966544151306e-02 6.666587293148040771e-02 3.866503015160560608e-02 6.405122578144073486e-02
9.930000000000000000e+02 3.724627685546875000e+01 2.774093437194824219e+01 6.113702803850173950e-02 7.461115717887878418e-02 4.072445631027221680e-02 6.655497103929519653e-02
9.940000000000000000e+02 3.859142303466796875e+01 2.918747711181640625e+01 5.870978161692619324e-02 5.928391963243484497e-02 3.539811074733734131e-02 5.854714289307594299e-02
9.950000000000000000e+02 3.768389511108398438e+01 2.887875747680664062e+01 5.717001855373382568e-02 6.635354459285736084e-02 3.705706819891929626e-02 6.052332744002342224e-02
9.960000000000000000e+02 3.885716629028320312e+01 2.948871231079101562e+01 5.690447613596916199e-02 5.835182592272758484e-02 3.457689285278320312e-02 5.843005329370498657e-02
9.970000000000000000e+02 3.974291229248046875e+01 3.037343406677246094e+01 6.051588431000709534e-02 5.726593732833862305e-02 3.533454611897468567e-02 5.671628937125205994e-02
9.980000000000000000e+02 4.035133361816406250e+01 3.093973159790039062e+01 6.042391061782836914e-02 5.228451639413833618e-02 3.381252661347389221e-02 5.501455441117286682e-02
9.990000000000000000e+02 4.002922439575195312e+01 3.067305564880371094e+01 6.058122962713241577e-02 5.380330234766006470e-02 3.431535884737968445e-02 5.679992586374282837e-02
1.000000000000000000e+03 4.100268554687500000e+01 3.140877532958984375e+01 5.840766057372093201e-02 4.668672010302543640e-02 3.152831271290779114e-02 5.345061793923377991e-02
1.001000000000000000e+03 4.040667343139648438e+01 3.187190055847167969e+01 5.931629985570907593e-02 5.271053314208984375e-02 3.360804915428161621e-02 5.308315902948379517e-02
1.002000000000000000e+03 4.158769226074218750e+01 3.194597434997558594e+01 5.862971767783164978e-02 4.517993703484535217e-02 3.114289604127407074e-02 5.283365398645401001e-02
1.003000000000000000e+03 4.188655090332031250e+01 3.221069717407226562e+01 5.985678359866142273e-02 4.673859104514122009e-02 3.197861462831497192e-02 5.149110034108161926e-02
1.004000000000000000e+03 4.218996429443359375e+01 3.246836853027343750e+01 6.114250794053077698e-02 4.471692815423011780e-02 3.175783157348632812e-02 5.180489644408226013e-02
1.005000000000000000e+03 4.250014495849609375e+01 3.271841430664062500e+01 6.154247745871543884e-02 4.439245164394378662e-02 3.178047761321067810e-02 5.245212465524673462e-02
1.006000000000000000e+03 4.281423950195312500e+01 3.296282958984375000e+01 6.339681893587112427e-02 4.398093372583389282e-02 3.221332654356956482e-02 5.130496621131896973e-02
1.007000000000000000e+03 4.343217086791992188e+01 3.346320343017578125e+01 6.510687619447708130e-02 4.141838103532791138e-02 3.195757791399955750e-02 5.099342763423919678e-02
1.008000000000000000e+03 4.402463531494140625e+01 3.399823379516601562e+01 6.691926717758178711e-02 4.095555096864700317e-02 3.236244618892669678e-02 5.038087069988250732e-02
1.009000000000000000e+03 4.312694931030273438e+01 3.320793151855468750e+01 6.410828977823257446e-02 4.189660027623176575e-02 3.180146962404251099e-02 5.195938050746917725e-02
1.010000000000000000e+03 4.446701431274414062e+01 3.513599395751953125e+01 8.027862757444381714e-02 4.030302539467811584e-02 3.617449477314949036e-02 5.364145338535308838e-02
1.011000000000000000e+03 4.503392410278320312e+01 3.474753570556640625e+01 7.468465715646743774e-02 4.008520022034645081e-02 3.443095833063125610e-02 5.509090423583984375e-02
1.012000000000000000e+03 4.665493774414062500e+01 3.610731124877929688e+01 9.160636365413665771e-02 4.739007726311683655e-02 4.169893264770507812e-02 6.566867977380752563e-02
1.013000000000000000e+03 4.759681320190429688e+01 3.672037506103515625e+01 1.383345276117324829e-01 5.486479029059410095e-02 5.795979499816894531e-02 7.971958070993423462e-02
1.014000000000000000e+03 4.828784561157226562e+01 3.712623214721679688e+01 1.707055121660232544e-01 4.477886483073234558e-02 6.464531272649765015e-02 6.743037700653076172e-02
1.015000000000000000e+03 5.045607376098632812e+01 3.819392013549804688e+01 1.853494793176651001e-01 2.544819377362728119e-02 6.323930621147155762e-02 6.918544322252273560e-02
1.016000000000000000e+03 5.012380981445312500e+01 3.822322463989257812e+01 1.894286572933197021e-01 2.234216406941413879e-02 6.353124231100082397e-02 6.471395492553710938e-02
1.017000000000000000e+03 5.070825576782226562e+01 3.832778930664062500e+01 1.954729706048965454e-01 2.535976469516754150e-02 6.624981760978698730e-02 6.937886029481887817e-02
1.018000000000000000e+03 5.091080856323242188e+01 3.801934051513671875e+01 1.910112053155899048e-01 3.593300282955169678e-02 6.808326393365859985e-02 8.702360838651657104e-02
1.019000000000000000e+03 5.105663681030273438e+01 3.854690170288085938e+01 2.075046747922897339e-01 1.801634579896926880e-02 6.765630841255187988e-02 7.183310389518737793e-02
1.020000000000000000e+03 5.382450103759765625e+01 3.794675827026367188e+01 -1.173210293054580688e-01 -4.475834667682647705e-01 -1.694713532924652100e-01 1.429256349802017212e-01
1.021000000000000000e+03 5.621492767333984375e+01 3.776422119140625000e+01 1.076427847146987915e-02 -1.516660600900650024e-01 -4.227053374052047729e-02 3.224846124649047852e-01
1.022000000000000000e+03 5.843019104003906250e+01 3.658786773681640625e+01 -3.478687107563018799e-01 -1.051689088344573975e-01 -1.359112858772277832e-01 3.548520505428314209e-01
1.023000000000000000e+03 6.055035781860351562e+01 3.654164505004882812e+01 -4.540095031261444092e-01 -1.640301942825317383e-01 -1.854119151830673218e-01 4.283502399921417236e-01
1.024000000000000000e+03 6.201682281494140625e+01 3.637952423095703125e+01 -5.377826690673828125e-01 -1.317248493432998657e-01 -2.008522450923919678e-01 4.929389059543609619e-01
1.025000000000000000e+03 6.129021072387695312e+01 3.648547744750976562e+01 -4.837225079536437988e-01 -1.545444577932357788e-01 -1.914801001548767090e-01 4.959560036659240723e-01
1.026000000000000000e+03 6.355173492431640625e+01 3.637368774414062500e+01 -5.470082759857177734e-01 1.050872281193733215e-01 -1.325763165950775146e-01 5.119211673736572266e-01
1.027000000000000000e+03 6.431898498535156250e+01 3.628995132446289062e+01 -5.485763549804687500e-01 6.548442691564559937e-02 -1.449275761842727661e-01 3.951804339885711670e-01
1.028000000000000000e+03 6.501246643066406250e+01 3.617865753173828125e+01 -5.030675530433654785e-01 3.126951754093170166e-01 -5.711172148585319519e-02 3.025733530521392822e-01
1.029000000000000000e+03 6.620865631103515625e+01 3.593218612670898438e+01 -2.221851348876953125e-01 4.604110717773437500e-01 7.146778702735900879e-02 -2.277060300111770630e-01
1.030000000000000000e+03 6.676626586914062500e+01 3.581544876098632812e+01 -2.488340735435485840e-01 8.263328671455383301e-01 1.732496321201324463e-01 -4.960435628890991211e-01
1.031000000000000000e+03 6.729068756103515625e+01 3.571773910522460938e+01 7.566228508949279785e-02 1.191675186157226562e+00 3.802012503147125244e-01 -1.136094331741333008e+00
1.032000000000000000e+03 6.786307525634765625e+01 3.559637832641601562e+01 7.932819724082946777e-01 1.257859110832214355e+00 6.153423786163330078e-01 -1.840570688247680664e+00
1.033000000000000000e+03 6.846762847900390625e+01 3.564636993408203125e+01 1.598876118659973145e+00 2.032542705535888672e+00 1.089425683021545410e+00 -2.838784217834472656e+00
1.034000000000000000e+03 6.884870147705078125e+01 3.558538055419921875e+01 2.071108341217041016e+00 3.696074008941650391e+00 1.730154752731323242e+00 -3.876764297485351562e+00
1.035000000000000000e+03 6.825150299072265625e+01 3.564203262329101562e+01 1.386556267738342285e+00 1.979293823242187500e+00 1.009755015373229980e+00 -2.582828760147094727e+00
1.036000000000000000e+03 6.944715118408203125e+01 3.559458923339843750e+01 2.319626092910766602e+00 6.932002067565917969e+00 2.775488376617431641e+00 -5.739264488220214844e+00
1.037000000000000000e+03 7.002538299560546875e+01 3.559392166137695312e+01 1.639043331146240234e+00 1.164372158050537109e+01 3.984829425811767578e+00 -6.181509971618652344e+00
1.038000000000000000e+03 7.042118072509765625e+01 3.562150573730468750e+01 2.421064674854278564e-01 1.636905479431152344e+01 4.983348369598388672e+00 -5.109186649322509766e+00
1.039000000000000000e+03 7.170792388916015625e+01 3.663494491577148438e+01 -8.799977898597717285e-01 1.577365112304687500e+01 4.468095779418945312e+00 -3.123983144760131836e-01
1.040000000000000000e+03 7.142366790771484375e+01 3.533627319335937500e+01 1.414227604866027832e+00 2.054992866516113281e+01 6.589246749877929688e+00 8.892999291419982910e-01
1.041000000000000000e+03 7.192840576171875000e+01 3.488547134399414062e+01 5.135612487792968750e+00 1.849372100830078125e+01 7.088799953460693359e+00 2.664317369461059570e+00
1.042000000000000000e+03 7.844065856933593750e+01 2.929286575317382812e+01 -2.317561209201812744e-02 7.973957061767578125e+00 2.385234594345092773e+00 -1.075009107589721680e+00
1.043000000000000000e+03 7.194231414794921875e+01 3.298894119262695312e+01 5.320174217224121094e+00 1.835286331176757812e+01 7.101911544799804688e+00 -2.701051235198974609e+00
1.044000000000000000e+03 7.209430694580078125e+01 3.259179687500000000e+01 3.136131286621093750e+00 1.763828849792480469e+01 6.232326030731201172e+00 -2.298151969909667969e+00
1.045000000000000000e+03 7.128551483154296875e+01 3.238932037353515625e+01 3.962825834751129150e-01 2.032812309265136719e+01 6.217321395874023438e+00 2.282970398664474487e-01
1.046000000000000000e+03 7.086674499511718750e+01 3.219680786132812500e+01 -6.211861371994018555e-01 1.864840698242187500e+01 5.408166408538818359e+00 3.135350227355957031e+00
1.047000000000000000e+03 7.062532806396484375e+01 3.217687225341796875e+01 -6.337941288948059082e-01 1.731728935241699219e+01 5.005048274993896484e+00 4.346782684326171875e+00
1.048000000000000000e+03 6.788678741455078125e+01 3.225863647460937500e+01 -3.266622722148895264e-01 1.184267520904541016e+00 2.572815716266632080e-01 2.011319875717163086e+00
1.049000000000000000e+03 6.772566223144531250e+01 3.232427215576171875e+01 -4.941447079181671143e-01 7.324936985969543457e-01 7.150470465421676636e-02 1.765750885009765625e+00
1.050000000000000000e+03 6.527318572998046875e+01 3.230261230468750000e+01 -2.359979629516601562e+00 9.186363965272903442e-02 -6.804347634315490723e-01 2.541241049766540527e-01
1.051000000000000000e+03 6.588516998291015625e+01 3.227699661254882812e+01 -2.132942676544189453e+00 2.060586363077163696e-01 -5.780651569366455078e-01 4.491805434226989746e-01
1.052000000000000000e+03 6.173915481567382812e+01 3.257112503051757812e+01 -2.659401893615722656e+00 5.967932567000389099e-02 -7.799167633056640625e-01 -2.362536936998367310e-01
1.053000000000000000e+03 6.098372268676757812e+01 3.263558959960937500e+01 -2.553356647491455078e+00 7.761310786008834839e-02 -7.427230477333068848e-01 -2.813452780246734619e-01
1.054000000000000000e+03 5.796735763549804688e+01 3.301892089843750000e+01 -1.927859783172607422e+00 1.465893536806106567e-01 -5.343811511993408203e-01 -4.308356046676635742e-01
1.055000000000000000e+03 5.947245025634765625e+01 3.280980682373046875e+01 -2.289690494537353516e+00 1.195068061351776123e-01 -6.510550975799560547e-01 -3.599140048027038574e-01
1.056000000000000000e+03 5.566802215576171875e+01 3.328367996215820312e+01 -1.341390609741210938e+00 1.703003644943237305e-01 -3.513270914554595947e-01 -5.291962623596191406e-01
1.057000000000000000e+03 5.224081039428710938e+01 3.310342407226562500e+01 -6.011131405830383301e-01 -7.066258192062377930e-01 -3.923216760158538818e-01 -6.658608317375183105e-01
1.058000000000000000e+03 2.449717903137207031e+01 -3.104236841201782227e+00 2.080635309219360352e+00 1.461312055587768555e+00 1.062584280967712402e+00 -1.493348002433776855e+00
1.059000000000000000e+03 2.835614967346191406e+01 -7.298513889312744141e+00 8.435698747634887695e-01 6.483852863311767578e-01 4.475865662097930908e-01 -6.470268964767456055e-01
1.060000000000000000e+03 3.003846168518066406e+01 -7.819633007049560547e+00 7.290202975273132324e-01 5.340750515460968018e-02 2.347283363342285156e-01 -3.848318159580230713e-01
1.061000000000000000e+03 2.919386672973632812e+01 -8.378959655761718750e+00 4.266411364078521729e-01 4.506847262382507324e-01 2.631977498531341553e-01 -4.825403988361358643e-01
1.062000000000000000e+03 3.155515861511230469e+01 -1.006441688537597656e+01 3.524189889430999756e-01 -1.573992520570755005e-01 5.850591510534286499e-02 -1.676475703716278076e-01
1.063000000000000000e+03 3.354137420654296875e+01 -1.536980915069580078e+01 -1.272670477628707886e-01 -5.142012238502502441e-01 -1.924404799938201904e-01 2.442597597837448120e-01
1.064000000000000000e+03 3.494847488403320312e+01 -1.773817825317382812e+01 -1.789376735687255859e-01 -6.318396329879760742e-01 -2.432332038879394531e-01 3.344101011753082275e-01
1.065000000000000000e+03 3.633420562744140625e+01 -2.012682342529296875e+01 -2.194521874189376831e-01 -7.209590077400207520e-01 -2.821233570575714111e-01 3.908959329128265381e-01
1.066000000000000000e+03 3.765924072265625000e+01 -2.253912544250488281e+01 -2.137410789728164673e-01 -6.803361177444458008e-01 -2.682231664657592773e-01 3.967123031616210938e-01
1.067000000000000000e+03 3.905870056152343750e+01 -2.489487648010253906e+01 -2.571569383144378662e-01 -6.593707203865051270e-01 -2.749583125114440918e-01 4.132450520992279053e-01
1.068000000000000000e+03 4.051293945312500000e+01 -2.224941825866699219e+01 -1.014314740896224976e-01 -2.120005488395690918e-01 -9.402960538864135742e-02 2.162582874298095703e-01
1.069000000000000000e+03 4.223278808593750000e+01 -2.761506652832031250e+01 -1.959483474493026733e-01 -1.558713912963867188e-01 -1.055459231138229370e-01 2.498999685049057007e-01
1.070000000000000000e+03 4.194958877563476562e+01 -2.955644226074218750e+01 -2.298930436372756958e-01 -4.087418317794799805e-01 -1.915904581546783447e-01 3.222163319587707520e-01
1.071000000000000000e+03 4.335836029052734375e+01 -3.186569595336914062e+01 -1.531937718391418457e-01 -1.019960790872573853e-01 -7.655695825815200806e-02 1.887299567461013794e-01
1.072000000000000000e+03 4.395292282104492188e+01 -3.294454574584960938e+01 -1.097977682948112488e-01 2.476453185081481934e-01 4.135426133871078491e-02 1.039848998188972473e-01
1.073000000000000000e+03 4.497692871093750000e+01 -3.609938430786132812e+01 9.178467094898223877e-02 1.390729069709777832e+00 4.447541534900665283e-01 2.860602736473083496e-01
1.074000000000000000e+03 3.808201980590820312e+01 -3.878017425537109375e+01 1.613251924514770508e+00 6.724389195442199707e-01 6.857072710990905762e-01 -8.083356618881225586e-01
1.075000000000000000e+03 3.559686279296875000e+01 -3.560986709594726562e+01 6.706084012985229492e-01 6.810788512229919434e-01 4.055061638355255127e-01 -6.330913901329040527e-01
1.076000000000000000e+03 3.458773422241210938e+01 -3.469231414794921875e+01 6.158013939857482910e-01 7.116184234619140625e-01 3.982259631156921387e-01 -6.584717631340026855e-01
1.077000000000000000e+03 3.367689895629882812e+01 -3.362631225585937500e+01 6.262584328651428223e-01 7.747479081153869629e-01 4.203019142150878906e-01 -6.682115793228149414e-01
1.078000000000000000e+03 3.061708259582519531e+01 -2.900703430175781250e+01 2.965980470180511475e-01 9.783138036727905273e-01 3.824735581874847412e-01 -5.251989960670471191e-01
1.079000000000000000e+03 3.128255653381347656e+01 -3.021149253845214844e+01 3.878001868724822998e-01 1.037892818450927734e+00 4.277079105377197266e-01 -5.954766869544982910e-01
1.080000000000000000e+03 2.696834373474121094e+01 -2.157480621337890625e+01 1.863991022109985352e-01 6.951771974563598633e-01 2.644729018211364746e-01 -3.741282820701599121e-01
1.081000000000000000e+03 2.520457649230957031e+01 -2.099608993530273438e+01 1.989488601684570312e-01 5.064181685447692871e-01 2.116101086139678955e-01 -3.574036359786987305e-01
1.082000000000000000e+03 2.755875015258789062e+01 -2.281316184997558594e+01 2.038381844758987427e-01 7.488317489624023438e-01 2.858009934425354004e-01 -3.862983286380767822e-01
1.083000000000000000e+03 2.508950805664062500e+01 -1.792222595214843750e+01 1.929188072681427002e-01 5.228844881057739258e-01 2.147409766912460327e-01 -3.086595833301544189e-01
1.084000000000000000e+03 2.294010353088378906e+01 -1.441276550292968750e+01 1.762996613979339600e-01 3.515318632125854492e-01 1.583494544029235840e-01 -2.840038239955902100e-01
1.085000000000000000e+03 2.090534591674804688e+01 -1.077169609069824219e+01 1.316900849342346191e-01 -2.838132344186306000e-02 3.099262714385986328e-02 -7.026004046201705933e-02
1.086000000000000000e+03 2.029565811157226562e+01 -9.518533706665039062e+00 1.058366615325212479e-02 -3.543114066123962402e-01 -1.031183227896690369e-01 -3.681554272770881653e-02
1.087000000000000000e+03 1.715273094177246094e+01 -2.640769720077514648e+00 -1.765338659286499023e+00 -1.421201586723327637e+00 -9.559620618820190430e-01 -1.307013154029846191e+00
1.088000000000000000e+03 4.486480331420898438e+01 2.580510330200195312e+01 -1.555895447731018066e+00 -1.655592322349548340e+00 -9.634463191032409668e-01 -1.599042773246765137e+00
1.089000000000000000e+03 4.458577346801757812e+01 2.551945495605468750e+01 -1.647650718688964844e+00 -1.694212198257446289e+00 -1.002558827400207520e+00 -1.652193069458007812e+00
1.090000000000000000e+03 4.430226898193359375e+01 2.523741531372070312e+01 -1.736305952072143555e+00 -1.681574106216430664e+00 -1.025364041328430176e+00 -1.683436870574951172e+00
1.091000000000000000e+03 4.372045135498046875e+01 2.468865203857421875e+01 -1.805667400360107422e+00 -1.559291362762451172e+00 -1.009487628936767578e+00 -1.662703156471252441e+00
1.092000000000000000e+03 3.158892631530761719e+01 1.207047557830810547e+01 -1.612810850143432617e+00 -1.715921401977539062e+00 -9.986196756362915039e-01 -1.628524541854858398e+00
1.093000000000000000e+03 7.123373413085937500e+01 3.541557312011718750e+01 6.911772489547729492e-01 2.065051841735839844e+01 6.402508735656738281e+00 2.666077762842178345e-02
1.094000000000000000e+03 7.154753112792968750e+01 3.204576110839843750e+01 1.081609055399894714e-01 1.831922149658203125e+01 5.528214454650878906e+00 -1.020723506808280945e-01
1.095000000000000000e+03 7.180335998535156250e+01 3.511692428588867188e+01 3.579734325408935547e+00 1.905251884460449219e+01 6.789676189422607422e+00 2.392892360687255859e+00
1.096000000000000000e+03 7.162647247314453125e+01 3.526696777343750000e+01 2.443813562393188477e+00 1.958731651306152344e+01 6.609339237213134766e+00 1.696452498435974121e+00
1.097000000000000000e+03 7.203551483154296875e+01 3.319240188598632812e+01 6.653527736663818359e+00 1.765584945678710938e+01 7.292813301086425781e+00 -2.660785198211669922e+00
1.098000000000000000e+03 7.215614318847656250e+01 3.381240463256835938e+01 8.963536262512207031e+00 1.631385803222656250e+01 7.583218574523925781e+00 -5.721207261085510254e-01
1.099000000000000000e+03 7.212465667724609375e+01 3.360601806640625000e+01 8.756096839904785156e+00 1.661321258544921875e+01 7.610792636871337891e+00 -1.414498805999755859e+00
1.100000000000000000e+03 7.179009246826171875e+01 3.280924987792968750e+01 3.830762147903442383e+00 1.915060043334960938e+01 6.894408702850341797e+00 -2.415747404098510742e+00
1.101000000000000000e+03 7.172045898437500000e+01 3.572251892089843750e+01 7.690740227699279785e-01 1.840813255310058594e+01 5.753161907196044922e+00 8.205344676971435547e-01
1.102000000000000000e+03 7.192433166503906250e+01 3.239373397827148438e+01 2.013850450515747070e+00 1.804446220397949219e+01 6.017493724822998047e+00 -1.796127319335937500e+00
1.103000000000000000e+03 7.146743774414062500e+01 3.250940322875976562e+01 1.399173617362976074e+00 2.027697753906250000e+01 6.502845287322998047e+00 -9.322586655616760254e-01
1.104000000000000000e+03 7.210054016113281250e+01 3.444978713989257812e+01 7.870251178741455078e+00 1.710988998413085938e+01 7.494042396545410156e+00 2.144634723663330078e+00
1.105000000000000000e+03 7.214645385742187500e+01 3.423641586303710938e+01 8.754874229431152344e+00 1.660293388366699219e+01 7.607342243194580078e+00 1.317193150520324707e+00
1.106000000000000000e+03 6.811076354980468750e+01 3.728183746337890625e+01 8.626699447631835938e-01 4.736784458160400391e+00 1.679836392402648926e+00 -3.271917104721069336e+00
1.107000000000000000e+03 6.796025848388671875e+01 3.586432266235351562e+01 1.054521083831787109e+00 1.619830012321472168e+00 8.023053407669067383e-01 -2.189407587051391602e+00
1.108000000000000000e+03 6.964079284667968750e+01 3.557078170776367188e+01 2.179521560668945312e+00 7.952258586883544922e+00 3.039534091949462891e+00 -6.049046516418457031e+00
1.109000000000000000e+03 6.866566467285156250e+01 3.559816360473632812e+01 1.678316235542297363e+00 2.808126211166381836e+00 1.345932722091674805e+00 -3.079909801483154297e+00
1.110000000000000000e+03 7.022042846679687500e+01 3.558417892456054688e+01 8.293853402137756348e-01 1.479126644134521484e+01 4.686195373535156250e+00 -5.610863208770751953e+00
1.111000000000000000e+03 6.904100799560546875e+01 3.560347747802734375e+01 2.289960622787475586e+00 4.290487289428710938e+00 1.974134445190429688e+00 -4.458922386169433594e+00
1.112000000000000000e+03 2.913274955749511719e+01 5.527759552001953125e+00 -2.414575099945068359e+00 -1.547860264778137207e+00 -1.188730597496032715e+00 -1.299688220024108887e+00
1.113000000000000000e+03 2.955127525329589844e+01 5.754742145538330078e+00 -2.350613594055175781e+00 -1.374762773513793945e+00 -1.117612957954406738e+00 -1.261575341224670410e+00
1.114000000000000000e+03 2.813528060913085938e+01 4.921640396118164062e+00 -2.655875205993652344e+00 -1.521940946578979492e+00 -1.253344893455505371e+00 -1.545395612716674805e+00
1.115000000000000000e+03 2.845315551757812500e+01 4.851368427276611328e+00 -2.505894422531127930e+00 -1.473970293998718262e+00 -1.193959355354309082e+00 -1.370152235031127930e+00
1.116000000000000000e+03 2.781096839904785156e+01 4.645486354827880859e+00 -2.732491731643676758e+00 -1.357437372207641602e+00 -1.226978659629821777e+00 -1.526011824607849121e+00
1.117000000000000000e+03 2.706184768676757812e+01 4.305159091949462891e+00 -2.980981826782226562e+00 -1.170336961746215820e+00 -1.245395660400390625e+00 -1.606753587722778320e+00
1.118000000000000000e+03 2.089796447753906250e+01 2.369342148303985596e-01 -2.010667085647583008e+00 -1.038203358650207520e+00 -9.146611094474792480e-01 -3.703070878982543945e+00
1.119000000000000000e+03 2.177504158020019531e+01 7.741118669509887695e-01 -2.638091564178466797e+00 -5.077900290489196777e-01 -9.437645077705383301e-01 -2.677043914794921875e+00
1.120000000000000000e+03 2.118072509765625000e+01 -8.755805492401123047e-01 3.831441402435302734e-01 5.939961671829223633e-01 2.931421101093292236e-01 -2.107351064682006836e+00
1.121000000000000000e+03 1.933367347717285156e+01 -5.001959204673767090e-01 -1.993828892707824707e+00 -3.648012161254882812e+00 -1.692552328109741211e+00 -2.148990869522094727e+00
1.122000000000000000e+03 1.975644683837890625e+01 -3.573330640792846680e-01 -2.135215282440185547e+00 -4.053695201873779297e+00 -1.856673121452331543e+00 -2.351211071014404297e+00
1.123000000000000000e+03 1.952624511718750000e+01 -7.299969196319580078e-01 -2.413145542144775391e+00 -4.215981483459472656e+00 -1.988738059997558594e+00 -2.174793481826782227e+00
1.124000000000000000e+03 1.828465270996093750e+01 -1.927922248840332031e+00 -2.498676538467407227e+00 -2.565922498703002930e+00 -1.519379734992980957e+00 -1.760061621665954590e+00
1.125000000000000000e+03 1.917913246154785156e+01 -2.681112527847290039e+00 -9.732025861740112305e-01 -5.444250106811523438e+00 -1.925235748291015625e+00 -1.894331932067871094e+00
1.126000000000000000e+03 1.716605949401855469e+01 -1.934106707572937012e+00 -2.142968893051147461e+00 -1.047667980194091797e+00 -9.571911096572875977e-01 -1.124431610107421875e+00
1.127000000000000000e+03 1.764435195922851562e+01 -1.813795089721679688e+00 -2.182320117950439453e+00 -1.343282341957092285e+00 -1.057680726051330566e+00 -1.266609072685241699e+00
1.128000000000000000e+03 2.741616249084472656e+01 4.487925529479980469e+00 -2.884553670883178711e+00 -1.247346639633178711e+00 -1.239570021629333496e+00 -1.580082058906555176e+00
1.129000000000000000e+03 2.265911674499511719e+01 1.494923233985900879e+00 -3.247307538986206055e+00 -5.380167961120605469e-01 -1.135597348213195801e+00 -2.021390676498413086e+00
1.130000000000000000e+03 2.199081993103027344e+01 6.319922208786010742e-01 -2.334317207336425781e+00 -3.023878633975982666e-01 -7.910115122795104980e-01 -2.426205635070800781e+00
1.131000000000000000e+03 2.160808372497558594e+01 9.123760461807250977e-01 -2.714166164398193359e+00 -8.440487980842590332e-01 -1.067464470863342285e+00 -2.909163951873779297e+00
1.132000000000000000e+03 2.338468742370605469e+01 -2.225549697875976562e+00 2.189580440521240234e+00 1.508114933967590332e+00 1.109308600425720215e+00 -2.247470617294311523e+00
1.133000000000000000e+03 2.934429740905761719e+01 5.618259906768798828e+00 -2.383151054382324219e+00 -1.473379373550415039e+00 -1.156959176063537598e+00 -1.288158059120178223e+00
1.134000000000000000e+03 2.864996910095214844e+01 5.259406089782714844e+00 -2.525659799575805664e+00 -1.642036199569702148e+00 -1.250308871269226074e+00 -1.453825592994689941e+00
1.135000000000000000e+03 2.894895935058593750e+01 5.304217338562011719e+00 -2.413875818252563477e+00 -1.572586536407470703e+00 -1.195938706398010254e+00 -1.330979466438293457e+00
1.136000000000000000e+03 2.829408454895019531e+01 5.038758754730224609e+00 -2.630241870880126953e+00 -1.561938881874084473e+00 -1.257654190063476562e+00 -1.523214101791381836e+00
1.137000000000000000e+03 2.715911102294921875e+01 4.107752799987792969e+00 -2.877046585083007812e+00 -1.133728981018066406e+00 -1.203232645988464355e+00 -1.488300204277038574e+00
1.138000000000000000e+03 2.672408676147460938e+01 4.114384174346923828e+00 -3.072469711303710938e+00 -1.108818054199218750e+00 -1.254386305809020996e+00 -1.621317982673645020e+00
1.139000000000000000e+03 2.609411621093750000e+01 3.267146587371826172e+00 -3.021914005279541016e+00 -8.189018368721008301e-01 -1.152244806289672852e+00 -1.370132803916931152e+00
1.140000000000000000e+03 2.624752616882324219e+01 3.411228895187377930e+00 -3.024235248565673828e+00 -8.994597792625427246e-01 -1.177108526229858398e+00 -1.403902292251586914e+00
1.141000000000000000e+03 2.555216598510742188e+01 3.327392578125000000e+00 -3.329252004623413086e+00 -8.755766749382019043e-01 -1.261448621749877930e+00 -1.562879920005798340e+00
1.142000000000000000e+03 2.417092895507812500e+01 2.433146953582763672e+00 -3.506682872772216797e+00 -7.217556238174438477e-01 -1.268531560897827148e+00 -1.615287303924560547e+00
1.143000000000000000e+03 2.333019256591796875e+01 1.972009062767028809e+00 -3.449788808822631836e+00 -6.136672496795654297e-01 -1.219036817550659180e+00 -1.769161462783813477e+00
1.144000000000000000e+03 2.390224075317382812e+01 1.793453931808471680e+00 -2.985562562942504883e+00 -4.429702162742614746e-01 -1.028559803962707520e+00 -1.383076310157775879e+00
1.145000000000000000e+03 2.137312126159667969e+01 2.166741937398910522e-01 -1.836515069007873535e+00 -3.566307425498962402e-01 -6.579437255859375000e-01 -3.138706684112548828e+00
1.146000000000000000e+03 2.111941719055175781e+01 5.289118885993957520e-01 -2.322559356689453125e+00 -1.352275729179382324e+00 -1.102450609207153320e+00 -3.401475191116333008e+00
1.147000000000000000e+03 2.236267662048339844e+01 5.992893576622009277e-01 -2.063800573348999023e+00 2.976047098636627197e-01 -5.298587679862976074e-01 -1.948148131370544434e+00
1.148000000000000000e+03 1.691075325012207031e+01 -2.342642068862915039e+00 -1.787466049194335938e+00 -9.349085092544555664e-01 -8.167123794555664062e-01 -1.022940158843994141e+00
1.149000000000000000e+03 1.767549324035644531e+01 -2.262963294982910156e+00 -2.029509305953979492e+00 -1.851449489593505859e+00 -1.164287567138671875e+00 -1.500554084777832031e+00
1.150000000000000000e+03 1.661725234985351562e+01 -2.206184864044189453e+00 -1.827719926834106445e+00 -7.976161241531372070e-01 -7.876008152961730957e-01 -9.708518981933593750e-01
1.151000000000000000e+03 1.750704193115234375e+01 -2.008150815963745117e+00 -2.394448757171630859e+00 -1.409211158752441406e+00 -1.141097903251647949e+00 -1.301671266555786133e+00
1.152000000000000000e+03 2.452418136596679688e+01 2.675874710083007812e+00 -3.501045465469360352e+00 -7.301633954048156738e-01 -1.269362688064575195e+00 -1.581773042678833008e+00
1.153000000000000000e+03 2.394837951660156250e+01 2.149429321289062500e+00 -3.346297025680541992e+00 -6.257359385490417480e-01 -1.191609859466552734e+00 -1.553776264190673828e+00
1.154000000000000000e+03 2.398022651672363281e+01 2.362338304519653320e+00 -3.518452882766723633e+00 -6.731131076812744141e-01 -1.257469773292541504e+00 -1.659668922424316406e+00
1.155000000000000000e+03 2.799015617370605469e+01 4.771658420562744141e+00 -2.680355787277221680e+00 -1.456438899040222168e+00 -1.241038441658020020e+00 -1.530318021774291992e+00
1.156000000000000000e+03 1.834838676452636719e+01 -2.781988382339477539e+00 -1.744514703750610352e+00 -3.203007936477661133e+00 -1.484256863594055176e+00 -1.761813282966613770e+00
1.157000000000000000e+03 6.957196807861328125e+01 3.229019927978515625e+01 1.384642362594604492e+00 7.738881111145019531e+00 2.737056970596313477e+00 6.124357223510742188e+00
1.158000000000000000e+03 6.751848602294921875e+01 3.228499984741210938e+01 -6.428347229957580566e-01 9.116541147232055664e-01 8.064582943916320801e-02 1.654801607131958008e+00
1.159000000000000000e+03 6.856578063964843750e+01 3.226810836791992188e+01 8.152158856391906738e-01 2.529254913330078125e+00 1.003341197967529297e+00 3.382497787475585938e+00
1.160000000000000000e+03 6.763488006591796875e+01 3.209988021850585938e+01 -3.260730803012847900e-01 1.032893776893615723e+00 2.120462208986282349e-01 1.892269730567932129e+00
1.161000000000000000e+03 6.997230529785156250e+01 3.226139068603515625e+01 7.553881406784057617e-01 1.159910869598388672e+01 3.706349134445190430e+00 6.592516899108886719e+00
1.162000000000000000e+03 6.877185821533203125e+01 3.227456665039062500e+01 1.073311686515808105e+00 3.007659673690795898e+00 1.224291443824768066e+00 3.848747253417968750e+00
1.163000000000000000e+03 6.877299499511718750e+01 3.193922615051269531e+01 1.040925741195678711e+00 3.974826812744140625e+00 1.504725813865661621e+00 4.256901264190673828e+00
1.164000000000000000e+03 6.809732818603515625e+01 3.222957992553710938e+01 1.148661375045776367e-01 1.598326802253723145e+00 5.139579176902770996e-01 2.417403221130371094e+00
1.165000000000000000e+03 7.012079620361328125e+01 3.189896774291992188e+01 -1.217036023736000061e-01 1.280546760559082031e+01 3.805129289627075195e+00 5.740244388580322266e+00
1.166000000000000000e+03 6.952921295166015625e+01 3.202069473266601562e+01 1.050578236579895020e+00 8.012739181518554688e+00 2.718995094299316406e+00 5.815093994140625000e+00
1.167000000000000000e+03 5.302833557128906250e+01 3.872821044921875000e+01 1.223666965961456299e-01 -5.310083925724029541e-02 2.077975682914257050e-02 5.988330021500587463e-02
1.168000000000000000e+03 5.625977706909179688e+01 3.695999145507812500e+01 -1.349472701549530029e-01 -1.228789910674095154e-01 -7.734788209199905396e-02 2.629081904888153076e-01
1.169000000000000000e+03 5.705110549926757812e+01 3.774768829345703125e+01 -2.842369675636291504e-02 -1.628184616565704346e-01 -5.737264454364776611e-02 3.378481864929199219e-01
1.170000000000000000e+03 5.381054306030273438e+01 3.847397994995117188e+01 -3.477765247225761414e-02 -3.292436897754669189e-01 -1.092064008116722107e-01 9.362002462148666382e-02
1.171000000000000000e+03 5.334956359863281250e+01 3.850925827026367188e+01 -8.270276337862014771e-02 -2.077382504940032959e-01 -8.713230490684509277e-02 1.280914098024368286e-01
1.172000000000000000e+03 5.326051330566406250e+01 3.900072097778320312e+01 1.847670525312423706e-01 -2.170020639896392822e-01 -9.670505300164222717e-03 1.217935979366302490e-01
1.173000000000000000e+03 5.355546569824218750e+01 3.870748138427734375e+01 7.663539797067642212e-02 -2.813788950443267822e-01 -6.142304837703704834e-02 1.378489583730697632e-01
1.174000000000000000e+03 5.409959411621093750e+01 3.736211395263671875e+01 -7.446213811635971069e-02 -1.977613121271133423e-01 -8.166703581809997559e-02 1.224732249975204468e-01
1.175000000000000000e+03 3.102463722229003906e+01 1.148935699462890625e+01 -1.732750535011291504e+00 -1.556764841079711914e+00 -9.868546128273010254e-01 -1.599418759346008301e+00
1.176000000000000000e+03 5.170658493041992188e+01 3.192784500122070312e+01 -1.077581405639648438e+00 -8.684118390083312988e-01 -5.837979316711425781e-01 -9.537273645401000977e-01
1.177000000000000000e+03 3.330697250366210938e+01 1.330153751373291016e+01 -1.461973667144775391e+00 -1.636379241943359375e+00 -9.295058846473693848e-01 -1.524739623069763184e+00
1.178000000000000000e+03 3.268936157226562500e+01 1.323328971862792969e+01 -1.503700137138366699e+00 -1.553718924522399902e+00 -9.172257184982299805e-01 -1.537513256072998047e+00
1.179000000000000000e+03 3.291333007812500000e+01 1.210085391998291016e+01 -1.432476282119750977e+00 -1.508753776550292969e+00 -8.823689818382263184e-01 -1.458531618118286133e+00
1.180000000000000000e+03 3.251916503906250000e+01 1.238034152984619141e+01 -1.479703068733215332e+00 -1.544402122497558594e+00 -9.072315692901611328e-01 -1.529715299606323242e+00
1.181000000000000000e+03 3.964376831054687500e+01 2.036614418029785156e+01 -1.212290048599243164e+00 -1.325029134750366211e+00 -7.611957192420959473e-01 -1.353422641754150391e+00
1.182000000000000000e+03 3.990437316894531250e+01 2.066807365417480469e+01 -1.254053950309753418e+00 -1.293556451797485352e+00 -7.642831206321716309e-01 -1.356160640716552734e+00
1.183000000000000000e+03 4.046282958984375000e+01 2.175338745117187500e+01 -1.565458774566650391e+00 -1.240552544593811035e+00 -8.418034315109252930e-01 -1.403931140899658203e+00
1.184000000000000000e+03 2.981103324890136719e+01 1.035163879394531250e+01 -1.554616808891296387e+00 -1.303544640541076660e+00 -8.574484586715698242e-01 -1.428900718688964844e+00
1.185000000000000000e+03 3.013794898986816406e+01 1.063738250732421875e+01 -1.589784145355224609e+00 -1.318120718002319336e+00 -8.723714947700500488e-01 -1.453223109245300293e+00
1.186000000000000000e+03 5.381177902221679688e+01 3.227774429321289062e+01 -1.214781761169433594e+00 -2.775480225682258606e-02 -3.727609515190124512e-01 -7.575113773345947266e-01
1.187000000000000000e+03 4.401347732543945312e+01 2.496061325073242188e+01 -1.789897918701171875e+00 -1.626178860664367676e+00 -1.024823069572448730e+00 -1.684453964233398438e+00
1.188000000000000000e+03 4.425861358642578125e+01 2.471862602233886719e+01 -1.671749949455261230e+00 -1.544873714447021484e+00 -9.649870991706848145e-01 -1.556240081787109375e+00
1.189000000000000000e+03 4.044731903076171875e+01 2.124027824401855469e+01 -1.375539183616638184e+00 -1.289853930473327637e+00 -7.996179461479187012e-01 -1.386004090309143066e+00
1.190000000000000000e+03 3.801662063598632812e+01 1.914697837829589844e+01 -1.170187473297119141e+00 -1.749396085739135742e+00 -8.758750557899475098e-01 -1.433910489082336426e+00
1.191000000000000000e+03 3.912521743774414062e+01 1.976533317565917969e+01 -1.180484414100646973e+00 -1.415165662765502930e+00 -7.786949872970581055e-01 -1.365137815475463867e+00
1.192000000000000000e+03 5.142855072021484375e+01 3.164445686340332031e+01 -1.145009994506835938e+00 -9.496387839317321777e-01 -6.283946037292480469e-01 -1.026249527931213379e+00
1.193000000000000000e+03 4.102014541625976562e+01 2.177043342590332031e+01 -1.508109450340270996e+00 -1.353323221206665039e+00 -8.584297895431518555e-01 -1.426356196403503418e+00
1.194000000000000000e+03 4.106269073486328125e+01 2.227440261840820312e+01 -1.710784792900085449e+00 -1.385130524635314941e+00 -9.287745952606201172e-01 -1.524421811103820801e+00
1.195000000000000000e+03 3.304602813720703125e+01 1.299684143066406250e+01 -1.438442468643188477e+00 -1.597544550895690918e+00 -9.107961058616638184e-01 -1.530866265296936035e+00
1.196000000000000000e+03 3.390025329589843750e+01 1.340385055541992188e+01 -1.422019720077514648e+00 -1.612742304801940918e+00 -9.104285836219787598e-01 -1.462807416915893555e+00
1.197000000000000000e+03 2.984658241271972656e+01 8.401779174804687500e+00 -1.145731449127197266e+00 -1.480202674865722656e+00 -7.877802252769470215e-01 -9.562452435493469238e-01
1.198000000000000000e+03 4.342471694946289062e+01 2.442013740539550781e+01 -1.791921138763427734e+00 -1.498806715011596680e+00 -9.872183203697204590e-01 -1.631286382675170898e+00
1.199000000000000000e+03 4.190727233886718750e+01 2.256200027465820312e+01 -1.602769494056701660e+00 -1.396087288856506348e+00 -8.996570706367492676e-01 -1.481835365295410156e+00
1.200000000000000000e+03 3.885580062866210938e+01 1.947236824035644531e+01 -1.183548927307128906e+00 -1.475345373153686523e+00 -7.976682782173156738e-01 -1.377640724182128906e+00
1.201000000000000000e+03 4.540369796752929688e+01 2.583246421813964844e+01 -1.525064229965209961e+00 -1.451947212219238281e+00 -8.931034207344055176e-01 -1.503579378128051758e+00
1.202000000000000000e+03 5.326425933837890625e+01 3.338455200195312500e+01 -7.694032192230224609e-01 -2.006087452173233032e-01 -2.910035848617553711e-01 -5.616638660430908203e-01
1.203000000000000000e+03 5.250604248046875000e+01 3.341952133178710938e+01 -5.013077855110168457e-01 -5.252856612205505371e-01 -3.079780638217926025e-01 -5.438195466995239258e-01
1.204000000000000000e+03 4.568634796142578125e+01 2.610990333557128906e+01 -1.490391969680786133e+00 -1.410958528518676758e+00 -8.704051375389099121e-01 -1.484609484672546387e+00
1.205000000000000000e+03 3.489078521728515625e+01 1.508357524871826172e+01 -1.389550089836120605e+00 -1.664261817932128906e+00 -9.161435365676879883e-01 -1.530788064002990723e+00
1.206000000000000000e+03 3.458400344848632812e+01 1.528531742095947266e+01 -1.397537112236022949e+00 -1.705419063568115234e+00 -9.308868646621704102e-01 -1.552387237548828125e+00
1.207000000000000000e+03 3.278509902954101562e+01 1.268784809112548828e+01 -1.448952555656433105e+00 -1.565083146095275879e+00 -9.042106866836547852e-01 -1.532618403434753418e+00
1.208000000000000000e+03 4.594663619995117188e+01 2.584067535400390625e+01 -1.484062671661376953e+00 -1.323330402374267578e+00 -8.422179222106933594e-01 -1.439357876777648926e+00
1.209000000000000000e+03 5.034434127807617188e+01 3.104065895080566406e+01 -1.306039333343505859e+00 -1.238830208778381348e+00 -7.634608745574951172e-01 -1.267532825469970703e+00
1.210000000000000000e+03 5.114802932739257812e+01 3.136000442504882812e+01 -1.209707260131835938e+00 -1.012452363967895508e+00 -6.666478514671325684e-01 -1.088862657546997070e+00
1.211000000000000000e+03 3.776009368896484375e+01 1.884193229675292969e+01 -1.222942709922790527e+00 -1.821065187454223633e+00 -9.132024049758911133e-01 -1.487839579582214355e+00
1.212000000000000000e+03 2.949200630187988281e+01 9.740652084350585938e+00 -1.768340945243835449e+00 -1.283517718315124512e+00 -9.155575633049011230e-01 -1.459949493408203125e+00
1.213000000000000000e+03 3.618955612182617188e+01 1.704643630981445312e+01 -1.444510698318481445e+00 -1.755680561065673828e+00 -9.600573778152465820e-01 -1.589253783226013184e+00
1.214000000000000000e+03 3.723949432373046875e+01 1.772704887390136719e+01 -1.358589768409729004e+00 -1.759695291519165039e+00 -9.354854822158813477e-01 -1.510076045989990234e+00
1.215000000000000000e+03 4.741914367675781250e+01 2.773316383361816406e+01 -1.532539367675781250e+00 -1.289000153541564941e+00 -8.464618921279907227e-01 -1.419344544410705566e+00
1.216000000000000000e+03 3.830570220947265625e+01 1.889309310913085938e+01 -1.225379228591918945e+00 -1.611505627632141113e+00 -8.510654568672180176e-01 -1.417278528213500977e+00
1.217000000000000000e+03 4.308400726318359375e+01 2.363696670532226562e+01 -1.626441478729248047e+00 -1.422467350959777832e+00 -9.146726727485656738e-01 -1.529141902923583984e+00
1.218000000000000000e+03 4.224080657958984375e+01 2.335129356384277344e+01 -1.645261883735656738e+00 -1.424461722373962402e+00 -9.209170937538146973e-01 -1.540347695350646973e+00
1.219000000000000000e+03 4.396625518798828125e+01 2.444532394409179688e+01 -1.675962686538696289e+00 -1.517295360565185547e+00 -9.579774141311645508e-01 -1.558100819587707520e+00
1.220000000000000000e+03 3.114484405517578125e+01 1.087315940856933594e+01 -1.529958724975585938e+00 -1.500590562820434570e+00 -9.091647863388061523e-01 -1.455210685729980469e+00
1.221000000000000000e+03 5.006338119506835938e+01 3.075827217102050781e+01 -1.351482629776000977e+00 -1.263429999351501465e+00 -7.844737768173217773e-01 -1.302794814109802246e+00
1.222000000000000000e+03 5.087073135375976562e+01 3.107454490661621094e+01 -1.263031363487243652e+00 -1.059149861335754395e+00 -6.966543793678283691e-01 -1.145535111427307129e+00
1.223000000000000000e+03 2.947483825683593750e+01 1.012528324127197266e+01 -1.533019065856933594e+00 -1.310635566711425781e+00 -8.530963659286499023e-01 -1.439525365829467773e+00
1.224000000000000000e+03 3.592307662963867188e+01 1.675239753723144531e+01 -1.446617960929870605e+00 -1.738570094108581543e+00 -9.555563926696777344e-01 -1.581678867340087891e+00
1.225000000000000000e+03 3.697943878173828125e+01 1.743293380737304688e+01 -1.376111626625061035e+00 -1.751132845878601074e+00 -9.381733536720275879e-01 -1.522421240806579590e+00
1.226000000000000000e+03 4.283087921142578125e+01 2.388730621337890625e+01 -1.718574881553649902e+00 -1.424352765083312988e+00 -9.428783059120178223e-01 -1.568989157676696777e+00
1.227000000000000000e+03 4.279018783569335938e+01 2.336872482299804688e+01 -1.607433438301086426e+00 -1.404658675193786621e+00 -9.036276340484619141e-01 -1.520123839378356934e+00
1.228000000000000000e+03 4.654443359375000000e+01 2.692797851562500000e+01 -1.483572363853454590e+00 -1.321079730987548828e+00 -8.413956165313720703e-01 -1.436635732650756836e+00
1.229000000000000000e+03 4.715603256225585938e+01 2.801444053649902344e+01 -1.613186001777648926e+00 -1.334571957588195801e+00 -8.843274116516113281e-01 -1.471322298049926758e+00
1.230000000000000000e+03 4.017180633544921875e+01 2.096074867248535156e+01 -1.310908079147338867e+00 -1.281317234039306641e+00 -7.776675820350646973e-01 -1.367060303688049316e+00
1.231000000000000000e+03 4.249639511108398438e+01 2.309992599487304688e+01 -1.599913239479064941e+00 -1.394970417022705078e+00 -8.984650969505310059e-01 -1.510675787925720215e+00
1.232000000000000000e+03 4.220219421386718750e+01 2.283067893981933594e+01 -1.600278258323669434e+00 -1.392777204513549805e+00 -8.979166746139526367e-01 -1.498367190361022949e+00
1.233000000000000000e+03 3.222920989990234375e+01 1.208900356292724609e+01 -1.525921583175659180e+00 -1.553336381912231445e+00 -9.237774014472961426e-01 -1.514060020446777344e+00
1.234000000000000000e+03 4.978091812133789062e+01 3.047678375244140625e+01 -1.388306021690368652e+00 -1.289173722267150879e+00 -8.032439351081848145e-01 -1.337676525115966797e+00
1.235000000000000000e+03 5.059731674194335938e+01 3.078850173950195312e+01 -1.308115363121032715e+00 -1.098400712013244629e+00 -7.219548225402832031e-01 -1.189741253852844238e+00
1.236000000000000000e+03 4.073043060302734375e+01 2.150839614868164062e+01 -1.444141983985900879e+00 -1.317156910896301270e+00 -8.283896446228027344e-01 -1.406151413917541504e+00
1.237000000000000000e+03 4.859753036499023438e+01 2.881422996520996094e+01 -1.542638897895812988e+00 -1.278090715408325195e+00 -8.462188839912414551e-01 -1.386194944381713867e+00
1.238000000000000000e+03 4.774860382080078125e+01 2.854853630065917969e+01 -1.641303181648254395e+00 -1.353548169136047363e+00 -8.984553813934326172e-01 -1.487213373184204102e+00
1.239000000000000000e+03 3.858072280883789062e+01 1.918198776245117188e+01 -1.198996543884277344e+00 -1.543530583381652832e+00 -8.227581381797790527e-01 -1.394410729408264160e+00
1.240000000000000000e+03 4.512090301513671875e+01 2.555326080322265625e+01 -1.571168541908264160e+00 -1.494821071624755859e+00 -9.197968840599060059e-01 -1.520641207695007324e+00
1.241000000000000000e+03 4.367253875732421875e+01 2.417447280883789062e+01 -1.667198181152343750e+00 -1.482264637947082520e+00 -9.448388218879699707e-01 -1.551469445228576660e+00
1.242000000000000000e+03 3.409882354736328125e+01 1.419697475433349609e+01 -1.474011421203613281e+00 -1.680988550186157227e+00 -9.465000033378601074e-01 -1.537321686744689941e+00
1.243000000000000000e+03 3.436314392089843750e+01 1.449349212646484375e+01 -1.443077087402343750e+00 -1.674400329589843750e+00 -9.352432489395141602e-01 -1.539092540740966797e+00
1.244000000000000000e+03 3.565574645996093750e+01 1.645882034301757812e+01 -1.444622278213500977e+00 -1.722905755043029785e+00 -9.502583742141723633e-01 -1.576162219047546387e+00
1.245000000000000000e+03 3.672068405151367188e+01 1.713890075683593750e+01 -1.385197281837463379e+00 -1.732918143272399902e+00 -9.354346394538879395e-01 -1.529883503913879395e+00
1.246000000000000000e+03 4.892313385009765625e+01 2.963731002807617188e+01 -1.530541658401489258e+00 -1.379507064819335938e+00 -8.730146288871765137e-01 -1.444631338119506836e+00
1.247000000000000000e+03 4.712649154663085938e+01 2.746534729003906250e+01 -1.516568422317504883e+00 -1.294522881507873535e+00 -8.433274030685424805e-01 -1.423239827156066895e+00
1.248000000000000000e+03 4.771265411376953125e+01 2.800119972229003906e+01 -1.545965552330017090e+00 -1.287272334098815918e+00 -8.499713540077209473e-01 -1.414590835571289062e+00
1.249000000000000000e+03 5.032341766357421875e+01 3.050206375122070312e+01 -1.346782803535461426e+00 -1.128079295158386230e+00 -7.424586415290832520e-01 -1.230037093162536621e+00
1.250000000000000000e+03 3.044946289062500000e+01 1.091010570526123047e+01 -1.643090009689331055e+00 -1.370696544647216797e+00 -9.041359424591064453e-01 -1.490036129951477051e+00
1.251000000000000000e+03 4.683477020263671875e+01 2.719711875915527344e+01 -1.498874425888061523e+00 -1.304389715194702148e+00 -8.409792184829711914e-01 -1.429217100143432617e+00
1.252000000000000000e+03 3.620290756225585938e+01 1.655109024047851562e+01 -1.394004464149475098e+00 -1.697491645812988281e+00 -9.274488091468811035e-01 -1.529282927513122559e+00
1.253000000000000000e+03 3.594229507446289062e+01 1.625733184814453125e+01 -1.395051121711730957e+00 -1.685495734214782715e+00 -9.241640567779541016e-01 -1.525169968605041504e+00
1.254000000000000000e+03 3.515428924560546875e+01 1.537720012664794922e+01 -1.381321907043457031e+00 -1.663908839225769043e+00 -9.135692119598388672e-01 -1.525599002838134766e+00
1.255000000000000000e+03 3.568044662475585938e+01 1.596379375457763672e+01 -1.389831542968750000e+00 -1.675201773643493652e+00 -9.195100069046020508e-01 -1.523350715637207031e+00
1.256000000000000000e+03 3.541765594482421875e+01 1.567048168182373047e+01 -1.386244773864746094e+00 -1.668724656105041504e+00 -9.164908528327941895e-01 -1.521820187568664551e+00
1.257000000000000000e+03 5.004585647583007812e+01 3.021611976623535156e+01 -1.385736942291259766e+00 -1.158001422882080078e+00 -7.631214857101440430e-01 -1.265766978263854980e+00
1.258000000000000000e+03 4.918582153320312500e+01 2.936805343627929688e+01 -1.497040987014770508e+00 -1.240913987159729004e+00 -8.213865160942077637e-01 -1.348901987075805664e+00
1.259000000000000000e+03 4.976363372802734375e+01 2.993150901794433594e+01 -1.423526406288146973e+00 -1.185358166694641113e+00 -7.826653718948364258e-01 -1.298195362091064453e+00
1.260000000000000000e+03 4.681000900268554688e+01 2.664676666259765625e+01 -1.449090480804443359e+00 -1.260585784912109375e+00 -8.129028677940368652e-01 -1.401967048645019531e+00
1.261000000000000000e+03 2.923090362548828125e+01 8.779233932495117188e+00 -1.850848197937011719e+00 -9.540197253227233887e-01 -8.414604067802429199e-01 -9.450914263725280762e-01
1.262000000000000000e+03 1.291268634796142578e+01 1.310083031654357910e+00 1.046543955802917480e+00 -2.514360249042510986e-01 2.385323792695999146e-01 2.917816042900085449e-01
1.263000000000000000e+03 1.381168270111083984e+01 2.953969001770019531e+00 2.134784460067749023e-01 2.616187572479248047e+00 8.488997817039489746e-01 1.643290072679519653e-01
1.264000000000000000e+03 1.317959690093994141e+01 1.767292499542236328e+00 1.681729793548583984e+00 7.464312911033630371e-01 7.284483313560485840e-01 -6.545442938804626465e-01
1.265000000000000000e+03 1.379575824737548828e+01 2.128190994262695312e+00 6.150233149528503418e-01 3.397554636001586914e+00 1.203773379325866699e+00 -9.695691466331481934e-01
1.266000000000000000e+03 9.059694290161132812e+00 3.202871561050415039e+00 1.148789301514625549e-01 -2.463613897562026978e-01 -3.944473713636398315e-02 2.281175851821899414e-01
1.267000000000000000e+03 1.389876270294189453e+01 4.226256370544433594e+00 1.788476109504699707e-01 1.039418101310729980e+00 3.654797077178955078e-01 2.227154970169067383e-01
1.268000000000000000e+03 1.490590572357177734e+01 4.661521434783935547e+00 2.645213007926940918e-01 3.804036676883697510e-01 1.934774965047836304e-01 3.077418506145477295e-01
1.269000000000000000e+03 1.413771247863769531e+01 4.584823131561279297e+00 1.705813258886337280e-01 8.185884952545166016e-01 2.967509329319000244e-01 2.636205554008483887e-01
1.270000000000000000e+03 1.548055171966552734e+01 5.309015274047851562e+00 1.867302805185317993e-01 3.307558596134185791e-01 1.552458405494689941e-01 2.462751716375350952e-01
1.271000000000000000e+03 1.553055572509765625e+01 5.988795280456542969e+00 1.971215158700942993e-01 3.259257972240447998e-01 1.569141894578933716e-01 2.244734615087509155e-01
1.272000000000000000e+03 4.865846252441406250e+01 3.728286743164062500e+01 1.711448282003402710e-01 2.387806773185729980e-02 5.850686877965927124e-02 7.172931730747222900e-02
1.273000000000000000e+03 4.795383071899414062e+01 3.691871261596679688e+01 1.475887596607208252e-01 4.662230610847473145e-02 5.826332047581672668e-02 8.118969947099685669e-02
1.274000000000000000e+03 1.462502384185791016e+01 4.364442825317382812e+00 3.354724347591400146e-01 5.307787060737609863e-01 2.598753571510314941e-01 4.004511833190917969e-01
1.275000000000000000e+03 1.616764259338378906e+01 6.435109138488769531e+00 1.926036030054092407e-01 2.947152853012084961e-01 1.461956650018692017e-01 2.183138132095336914e-01
1.276000000000000000e+03 4.981289672851562500e+01 3.769488906860351562e+01 1.651501506567001343e-01 2.196377702057361603e-02 5.613417923450469971e-02 6.708151102066040039e-02
1.277000000000000000e+03 4.966466522216796875e+01 3.820532989501953125e+01 1.762278228998184204e-01 1.006500795483589172e-02 5.588784813880920410e-02 5.543366074562072754e-02
1.278000000000000000e+03 1.437114334106445312e+01 4.937112808227539062e+00 1.377934366464614868e-01 6.408553123474121094e-01 2.335946261882781982e-01 2.922236323356628418e-01
1.279000000000000000e+03 1.932218933105468750e+01 9.940108299255371094e+00 1.329419910907745361e-01 1.656321436166763306e-01 8.957223594188690186e-02 1.526302695274353027e-01
1.280000000000000000e+03 1.794664764404296875e+01 8.388610839843750000e+00 1.597792357206344604e-01 1.986971944570541382e-01 1.075429320335388184e-01 1.761247515678405762e-01
1.281000000000000000e+03 4.623421859741210938e+01 3.594245529174804688e+01 8.652907609939575195e-02 3.917275369167327881e-02 3.771054744720458984e-02 6.193812564015388489e-02
1.282000000000000000e+03 3.212343215942382812e+01 2.276759719848632812e+01 5.797808617353439331e-02 7.039287686347961426e-02 3.851128742098808289e-02 6.839434802532196045e-02
1.283000000000000000e+03 1.465529441833496094e+01 5.769452571868896484e+00 1.426287144422531128e-01 4.561900198459625244e-01 1.796456277370452881e-01 2.416669428348541260e-01
1.284000000000000000e+03 3.618138122558593750e+01 2.653937339782714844e+01 4.996156692504882812e-02 7.264176011085510254e-02 3.678099811077117920e-02 6.155139580368995667e-02
1.285000000000000000e+03 3.167993354797363281e+01 2.140258407592773438e+01 7.123746722936630249e-02 6.493002176284790039e-02 4.085024818778038025e-02 6.875465810298919678e-02
1.286000000000000000e+03 5.020616912841796875e+01 3.780381393432617188e+01 1.665812730789184570e-01 2.949625253677368164e-02 5.882325768470764160e-02 6.820189207792282104e-02
1.287000000000000000e+03 1.991563606262207031e+01 1.062036037445068359e+01 1.290771812200546265e-01 1.534156799316406250e-01 8.474785834550857544e-02 1.436142176389694214e-01
1.288000000000000000e+03 3.614927291870117188e+01 2.714379501342773438e+01 5.473954603075981140e-02 7.254271954298019409e-02 3.818468004465103149e-02 6.255753338336944580e-02
1.289000000000000000e+03 1.701212120056152344e+01 7.197290897369384766e+00 1.685875803232192993e-01 2.146327942609786987e-01 1.149661168456077576e-01 1.996627002954483032e-01
1.290000000000000000e+03 1.751114463806152344e+01 7.241556167602539062e+00 1.649255752563476562e-01 1.925818026065826416e-01 1.072522178292274475e-01 1.843359172344207764e-01
1.291000000000000000e+03 1.674591827392578125e+01 6.934108734130859375e+00 1.792034953832626343e-01 2.358272373676300049e-01 1.245092228055000305e-01 2.060099393129348755e-01
1.292000000000000000e+03 2.539765930175781250e+01 1.521580791473388672e+01 9.919726848602294922e-02 1.013844236731529236e-01 6.017450988292694092e-02 1.022112146019935608e-01
1.293000000000000000e+03 2.434821510314941406e+01 1.562838172912597656e+01 9.441623836755752563e-02 1.139298528432846069e-01 6.250382959842681885e-02 1.074709072709083557e-01
1.294000000000000000e+03 1.748030090332031250e+01 7.768787860870361328e+00 1.590797007083892822e-01 2.038491666316986084e-01 1.088786572217941284e-01 1.862213909626007080e-01
1.295000000000000000e+03 1.905620002746582031e+01 9.612255096435546875e+00 1.384125947952270508e-01 1.731452941894531250e-01 9.346736222505569458e-02 1.568313390016555786e-01
1.296000000000000000e+03 3.380413818359375000e+01 2.432007408142089844e+01 5.375719442963600159e-02 7.535874843597412109e-02 3.873478248715400696e-02 6.510131061077117920e-02
1.297000000000000000e+03 3.563506698608398438e+01 2.593613052368164062e+01 5.354029685258865356e-02 7.084690034389495850e-02 3.731615841388702393e-02 6.253198534250259399e-02
1.298000000000000000e+03 3.520174789428710938e+01 2.627547264099121094e+01 5.201804637908935547e-02 7.483605295419692993e-02 3.805622830986976624e-02 6.287883967161178589e-02
1.299000000000000000e+03 2.085333442687988281e+01 1.075010776519775391e+01 1.345106512308120728e-01 1.568214595317840576e-01 8.739963173866271973e-02 1.443253159523010254e-01
1.300000000000000000e+03 2.027482604980468750e+01 1.086614704132080078e+01 1.287998110055923462e-01 1.495745033025741577e-01 8.351229131221771240e-02 1.395435780286788940e-01
1.301000000000000000e+03 3.214905548095703125e+01 2.338673591613769531e+01 5.626448616385459900e-02 7.363471388816833496e-02 3.896975889801979065e-02 6.742513924837112427e-02
1.302000000000000000e+03 3.305403900146484375e+01 2.289637565612792969e+01 5.611217767000198364e-02 7.708305120468139648e-02 3.995856642723083496e-02 6.566128879785537720e-02
1.303000000000000000e+03 3.805304718017578125e+01 2.860916328430175781e+01 6.162767112255096436e-02 6.359617412090301514e-02 3.756715357303619385e-02 6.172970682382583618e-02
1.304000000000000000e+03 3.720061492919921875e+01 2.829913139343261719e+01 5.798391252756118774e-02 7.130907475948333740e-02 3.878789767622947693e-02 6.195778027176856995e-02
1.305000000000000000e+03 3.429932022094726562e+01 2.489812469482421875e+01 5.509530752897262573e-02 7.545408606529235840e-02 3.916481882333755493e-02 6.418605893850326538e-02
1.306000000000000000e+03 3.462443161010742188e+01 2.467193031311035156e+01 5.384425818920135498e-02 7.846081256866455078e-02 3.969152271747589111e-02 6.494589895009994507e-02
1.307000000000000000e+03 2.060360145568847656e+01 1.111088371276855469e+01 1.285925656557083130e-01 1.523712575435638428e-01 8.428914844989776611e-02 1.357053965330123901e-01
1.308000000000000000e+03 2.121974945068359375e+01 1.161979484558105469e+01 1.245772540569305420e-01 1.486007124185562134e-01 8.195339143276214600e-02 1.342264562845230103e-01
1.309000000000000000e+03 3.132845115661621094e+01 2.165371894836425781e+01 6.491180509328842163e-02 7.363253831863403320e-02 4.156330227851867676e-02 7.043236494064331055e-02
1.310000000000000000e+03 1.802080154418945312e+01 7.837594032287597656e+00 1.595335453748703003e-01 2.006496191024780273e-01 1.080549508333206177e-01 1.818617135286331177e-01
1.311000000000000000e+03 1.769676017761230469e+01 8.077466011047363281e+00 1.613734662532806396e-01 2.040230929851531982e-01 1.096189618110656738e-01 1.791906356811523438e-01
1.312000000000000000e+03 3.583800506591796875e+01 2.688236618041992188e+01 5.313531309366226196e-02 7.244768738746643066e-02 3.767490014433860779e-02 6.271662563085556030e-02
1.313000000000000000e+03 2.228162384033203125e+01 1.214582157135009766e+01 1.211651414632797241e-01 1.377118825912475586e-01 7.766310870647430420e-02 1.291983723640441895e-01
1.314000000000000000e+03 2.179195022583007812e+01 1.215155982971191406e+01 1.205727681517601013e-01 1.405465304851531982e-01 7.833579182624816895e-02 1.315965056419372559e-01
1.315000000000000000e+03 3.744939804077148438e+01 2.858492469787597656e+01 5.818583443760871887e-02 6.906768679618835449e-02 3.817605599761009216e-02 6.057356297969818115e-02
1.316000000000000000e+03 2.398979949951171875e+01 1.437853717803955078e+01 1.150630712509155273e-01 1.197286024689674377e-01 7.043750584125518799e-02 1.152593791484832764e-01
1.317000000000000000e+03 2.423887062072753906e+01 1.413163661956787109e+01 1.273595839738845825e-01 1.129329428076744080e-01 7.208775728940963745e-02 1.194626763463020325e-01
1.318000000000000000e+03 2.371054267883300781e+01 1.409943103790283203e+01 1.189241632819175720e-01 1.242639347910881042e-01 7.295642793178558350e-02 1.187834888696670532e-01
1.319000000000000000e+03 3.172102928161621094e+01 2.228899192810058594e+01 5.772442370653152466e-02 7.230885326862335205e-02 3.900998458266258240e-02 6.999886035919189453e-02
1.320000000000000000e+03 3.154137802124023438e+01 2.195497131347656250e+01 6.032939627766609192e-02 7.247969508171081543e-02 3.984272852540016174e-02 6.973720341920852661e-02
1.321000000000000000e+03 2.260603332519531250e+01 1.297850990295410156e+01 1.207923218607902527e-01 1.365384757518768311e-01 7.719924300909042358e-02 1.272501647472381592e-01
1.322000000000000000e+03 4.344599533081054688e+01 3.467974472045898438e+01 7.170179486274719238e-02 3.818466514348983765e-02 3.296593949198722839e-02 4.926692321896553040e-02
1.323000000000000000e+03 4.391801452636718750e+01 3.515932083129882812e+01 7.495318353176116943e-02 3.835755586624145508e-02 3.399322181940078735e-02 5.115083977580070496e-02
1.324000000000000000e+03 2.233555221557617188e+01 1.270000076293945312e+01 1.204089671373367310e-01 1.378857642412185669e-01 7.748842239379882812e-02 1.280601471662521362e-01
1.325000000000000000e+03 2.206531333923339844e+01 1.242412948608398438e+01 1.195068880915641785e-01 1.373422592878341675e-01 7.705474644899368286e-02 1.305590569972991943e-01
1.326000000000000000e+03 2.455507659912109375e+01 1.491593742370605469e+01 1.059121415019035339e-01 1.100286319851875305e-01 6.478223204612731934e-02 1.101348772644996643e-01
1.327000000000000000e+03 3.273753356933593750e+01 2.323935699462890625e+01 5.685534328222274780e-02 7.367213815450668335e-02 3.915824368596076965e-02 6.469655036926269531e-02
1.328000000000000000e+03 3.302246093750000000e+01 2.350115394592285156e+01 5.597762763500213623e-02 7.532320916652679443e-02 3.939025104045867920e-02 6.443069875240325928e-02
1.329000000000000000e+03 1.827920341491699219e+01 8.140526771545410156e+00 1.672258675098419189e-01 2.047629356384277344e-01 1.115966364741325378e-01 1.810719221830368042e-01
1.330000000000000000e+03 2.282608032226562500e+01 1.272254085540771484e+01 1.236726641654968262e-01 1.417548805475234985e-01 7.962826639413833618e-02 1.309093832969665527e-01
1.331000000000000000e+03 3.911308288574218750e+01 2.981374931335449219e+01 5.846468359231948853e-02 5.871790274977684021e-02 3.515477478504180908e-02 5.728144571185112000e-02
1.332000000000000000e+03 3.832164001464843750e+01 2.889672470092773438e+01 5.959075689315795898e-02 6.069999560713768005e-02 3.608722612261772156e-02 6.038673967123031616e-02
1.333000000000000000e+03 3.023327255249023438e+01 2.063134765625000000e+01 7.529880106449127197e-02 7.991940528154373169e-02 4.656545817852020264e-02 7.704249769449234009e-02
1.334000000000000000e+03 2.426912498474121094e+01 1.465238571166992188e+01 1.099858731031417847e-01 1.141232401132583618e-01 6.723273545503616333e-02 1.128475666046142578e-01
1.335000000000000000e+03 2.676223945617675781e+01 1.666482162475585938e+01 1.018251553177833557e-01 1.078342720866203308e-01 6.289783120155334473e-02 1.038149222731590271e-01
1.336000000000000000e+03 1.850272178649902344e+01 8.999432563781738281e+00 1.551476866006851196e-01 1.895467787981033325e-01 1.034083366394042969e-01 1.638383567333221436e-01
1.337000000000000000e+03 1.678811836242675781e+01 7.437823295593261719e+00 1.594022363424301147e-01 2.361130863428115845e-01 1.186546012759208679e-01 1.960433274507522583e-01
1.338000000000000000e+03 4.912438964843750000e+01 3.802296447753906250e+01 1.626803725957870483e-01 3.372176736593246460e-02 5.892064049839973450e-02 6.164939329028129578e-02
1.339000000000000000e+03 4.904072952270507812e+01 3.738802719116210938e+01 1.729691028594970703e-01 3.235394880175590515e-02 6.159691512584686279e-02 5.688986927270889282e-02
1.340000000000000000e+03 4.286140823364257812e+01 3.347834396362304688e+01 6.473097205162048340e-02 4.362512379884719849e-02 3.250682726502418518e-02 5.102654919028282166e-02
1.341000000000000000e+03 2.530200958251953125e+01 1.624418830871582031e+01 9.465439617633819580e-02 1.064579561352729797e-01 6.033370643854141235e-02 1.024314016103744507e-01
1.342000000000000000e+03 3.859630966186523438e+01 3.014512634277343750e+01 5.544287711381912231e-02 5.987902730703353882e-02 3.459656983613967896e-02 5.746817961335182190e-02
1.343000000000000000e+03 4.313898849487304688e+01 3.372808837890625000e+01 6.502006947994232178e-02 4.210584610700607300e-02 3.213777393102645874e-02 5.196487158536911011e-02
1.344000000000000000e+03 4.388631057739257812e+01 3.463846969604492188e+01 7.621299475431442261e-02 4.149089753627777100e-02 3.531116619706153870e-02 5.248084664344787598e-02
1.345000000000000000e+03 4.337822341918945312e+01 3.403477478027343750e+01 6.991155445575714111e-02 4.157629609107971191e-02 3.344635292887687683e-02 5.187607184052467346e-02
1.346000000000000000e+03 4.069818878173828125e+01 3.116025161743164062e+01 6.058422476053237915e-02 4.897275939583778381e-02 3.286709636449813843e-02 5.337684974074363708e-02
1.347000000000000000e+03 4.157101058959960938e+01 3.257808303833007812e+01 6.170781701803207397e-02 4.549577459692955017e-02 3.216107934713363647e-02 5.246733129024505615e-02
1.348000000000000000e+03 2.151115226745605469e+01 1.188324832916259766e+01 1.215182840824127197e-01 1.428317725658416748e-01 7.930501550436019897e-02 1.340232789516448975e-01
1.349000000000000000e+03 2.621269989013671875e+01 1.608181190490722656e+01 9.876412898302078247e-02 1.096452027559280396e-01 6.252279877662658691e-02 1.036883592605590820e-01
1.350000000000000000e+03 3.373646163940429688e+01 2.484706115722656250e+01 5.368798598647117615e-02 7.532238960266113281e-02 3.870311379432678223e-02 6.440660357475280762e-02
1.351000000000000000e+03 2.789635658264160156e+01 1.780940246582031250e+01 9.808712452650070190e-02 9.230274707078933716e-02 5.711696296930313110e-02 9.485693275928497314e-02
1.352000000000000000e+03 2.715251350402832031e+01 1.835680198669433594e+01 8.414257317781448364e-02 9.936524182558059692e-02 5.505234375596046448e-02 9.042107313871383667e-02
1.353000000000000000e+03 4.372739791870117188e+01 3.372823715209960938e+01 6.414867192506790161e-02 4.032901301980018616e-02 3.134330734610557556e-02 5.166270211338996887e-02
1.354000000000000000e+03 2.991589546203613281e+01 2.038887214660644531e+01 7.579547911882400513e-02 8.105645328760147095e-02 4.705557972192764282e-02 7.881379872560501099e-02
1.355000000000000000e+03 3.053013992309570312e+01 2.031649589538574219e+01 7.897693663835525513e-02 7.932933419942855835e-02 4.749188199639320374e-02 7.899460941553115845e-02
1.356000000000000000e+03 2.616172981262207031e+01 1.660089492797851562e+01 9.715385735034942627e-02 1.068090870976448059e-01 6.118888407945632935e-02 1.005543768405914307e-01
1.357000000000000000e+03 3.453595352172851562e+01 2.520689964294433594e+01 5.521635711193084717e-02 7.594162970781326294e-02 3.934739530086517334e-02 6.352788209915161133e-02
1.358000000000000000e+03 2.961480522155761719e+01 2.012306594848632812e+01 7.680145651102066040e-02 8.234094828367233276e-02 4.774272069334983826e-02 8.019525557756423950e-02
1.359000000000000000e+03 4.098122406005859375e+01 3.202322006225585938e+01 5.879647284746170044e-02 4.872600361704826355e-02 3.225674480199813843e-02 5.340884625911712646e-02
1.360000000000000000e+03 3.083557319641113281e+01 2.110471725463867188e+01 7.259942591190338135e-02 7.705751806497573853e-02 4.489708319306373596e-02 7.330136001110076904e-02
1.361000000000000000e+03 3.054621124267578125e+01 2.086181831359863281e+01 7.432009279727935791e-02 7.858961820602416992e-02 4.587291181087493896e-02 7.536259293556213379e-02
1.362000000000000000e+03 4.585046768188476562e+01 3.564558792114257812e+01 8.497975766658782959e-02 3.964576497673988342e-02 3.738765418529510498e-02 5.716933310031890869e-02
1.363000000000000000e+03 4.702405166625976562e+01 3.669646835327148438e+01 1.199252679944038391e-01 4.130639508366584778e-02 4.836949706077575684e-02 6.449708342552185059e-02
1.364000000000000000e+03 2.842827987670898438e+01 1.895512962341308594e+01 8.395897597074508667e-02 8.888932317495346069e-02 5.185449123382568359e-02 8.692744374275207520e-02
1.365000000000000000e+03 4.129249572753906250e+01 3.167694664001464844e+01 5.970795825123786926e-02 4.753255099058151245e-02 3.217215090990066528e-02 5.142956599593162537e-02
1.366000000000000000e+03 2.811021804809570312e+01 1.867467689514160156e+01 8.594189584255218506e-02 9.122376888990402222e-02 5.314970016479492188e-02 8.902396261692047119e-02
1.367000000000000000e+03 2.589298820495605469e+01 1.630755043029785156e+01 9.702750295400619507e-02 1.064997613430023193e-01 6.105817854404449463e-02 1.016838327050209045e-01
1.368000000000000000e+03 2.907365798950195312e+01 1.892781066894531250e+01 8.705267310142517090e-02 8.354319632053375244e-02 5.117876082658767700e-02 8.545101433992385864e-02
1.369000000000000000e+03 2.898922920227050781e+01 2.015763282775878906e+01 7.371851801872253418e-02 8.654507249593734741e-02 4.807907715439796448e-02 8.101004362106323242e-02
1.370000000000000000e+03 4.094754028320312500e+01 3.266897201538085938e+01 6.081072986125946045e-02 4.923698306083679199e-02 3.301431238651275635e-02 5.288410931825637817e-02
1.371000000000000000e+03 4.127821350097656250e+01 3.230546569824218750e+01 6.022845953702926636e-02 4.828022420406341553e-02 3.255260363221168518e-02 5.179747939109802246e-02
1.372000000000000000e+03 3.839828109741210938e+01 2.979319381713867188e+01 5.771429836750030518e-02 6.116497889161109924e-02 3.566378355026245117e-02 5.791635811328887939e-02
1.373000000000000000e+03 2.484200477600097656e+01 1.517909240722656250e+01 1.016878411173820496e-01 1.063270121812820435e-01 6.240445375442504883e-02 1.080489605665206909e-01
1.374000000000000000e+03 4.365358352661132812e+01 3.431957244873046875e+01 6.818258762359619141e-02 4.185977205634117126e-02 3.301270678639411926e-02 5.449280142784118652e-02
1.375000000000000000e+03 2.780989265441894531e+01 1.838889122009277344e+01 8.811149001121520996e-02 9.383280575275421143e-02 5.458328872919082642e-02 9.081964939832687378e-02
1.376000000000000000e+03 4.047482299804687500e+01 3.151862716674804688e+01 5.780175700783729553e-02 5.177612975239753723e-02 3.287336602807044983e-02 5.479474738240242004e-02
1.377000000000000000e+03 4.466473388671875000e+01 3.457497787475585938e+01 7.151438295841217041e-02 4.215129464864730835e-02 3.409970179200172424e-02 5.261153355240821838e-02
1.378000000000000000e+03 4.431966018676757812e+01 3.430654144287109375e+01 6.816101819276809692e-02 3.994536027312278748e-02 3.243191167712211609e-02 5.315738543868064880e-02
1.379000000000000000e+03 2.932657623291015625e+01 1.983198928833007812e+01 7.797312736511230469e-02 8.369466662406921387e-02 4.850034043192863464e-02 8.165366947650909424e-02
1.380000000000000000e+03 5.165980911254882812e+01 3.844176483154296875e+01 2.248526513576507568e-01 5.353200808167457581e-02 8.351539820432662964e-02 1.165432184934616089e-01
1.381000000000000000e+03 5.035908126831054688e+01 3.851176834106445312e+01 2.002409845590591431e-01 2.079521492123603821e-02 6.631086021661758423e-02 6.620883196592330933e-02
1.382000000000000000e+03 6.653862762451171875e+01 3.670730972290039062e+01 4.772934615612030029e-01 1.565711855888366699e+00 6.129016280174255371e-01 -5.832071304321289062e-01
1.383000000000000000e+03 6.600537109375000000e+01 3.709455871582031250e+01 5.885009765625000000e-01 8.381798267364501953e-01 4.280042350292205811e-01 -5.359494686126708984e-01
1.384000000000000000e+03 6.704037475585937500e+01 3.646572875976562500e+01 6.013050675392150879e-01 2.144047498703002930e+00 8.236057758331298828e-01 -1.535635948181152344e+00
1.385000000000000000e+03 6.649496459960937500e+01 3.225587081909179688e+01 -1.643655896186828613e+00 3.682035207748413086e-01 -3.826357424259185791e-01 6.899449825286865234e-01
1.386000000000000000e+03 6.834937286376953125e+01 3.226188278198242188e+01 5.369528532028198242e-01 2.064252614974975586e+00 7.803616523742675781e-01 2.939389705657958984e+00
1.387000000000000000e+03 6.465560150146484375e+01 3.233514785766601562e+01 -2.490643501281738281e+00 9.041923284530639648e-02 -7.200673222541809082e-01 1.045233011245727539e-01
1.388000000000000000e+03 6.577221679687500000e+01 3.177435874938964844e+01 -1.387670516967773438e+00 3.748719692230224609e-01 -3.038395643234252930e-01 6.516885161399841309e-01
1.389000000000000000e+03 6.637573242187500000e+01 3.175989532470703125e+01 -1.042332410812377930e+00 6.359680294990539551e-01 -1.219092980027198792e-01 1.038829326629638672e+00
1.390000000000000000e+03 6.515876007080078125e+01 3.179290580749511719e+01 -1.690232396125793457e+00 2.710061967372894287e-01 -4.257678687572479248e-01 3.705119788646697998e-01
1.391000000000000000e+03 5.351556015014648438e+01 3.387382507324218750e+01 -6.118770837783813477e-01 -1.272298246622085571e-01 -2.217320799827575684e-01 -4.260265827178955078e-01
1.392000000000000000e+03 5.720411682128906250e+01 3.310790634155273438e+01 -1.738565444946289062e+00 1.641654372215270996e-01 -4.723200201988220215e-01 -4.654637277126312256e-01
1.393000000000000000e+03 5.493544769287109375e+01 3.343222045898437500e+01 -1.154350876808166504e+00 1.140863820910453796e-01 -3.120793700218200684e-01 -5.319630503654479980e-01
1.394000000000000000e+03 5.289555740356445312e+01 3.306601715087890625e+01 -8.085337281227111816e-01 -3.578259944915771484e-01 -3.499079048633575439e-01 -6.608912944793701172e-01
1.395000000000000000e+03 5.319857025146484375e+01 3.265148925781250000e+01 -1.005188941955566406e+00 -2.218018621206283569e-01 -3.680972456932067871e-01 -7.133994102478027344e-01
1.396000000000000000e+03 5.773645782470703125e+01 3.675513076782226562e+01 -2.752305567264556885e-01 -9.885420650243759155e-02 -1.122254282236099243e-01 3.341343700885772705e-01
1.397000000000000000e+03 5.868190002441406250e+01 3.717930221557617188e+01 -2.209732979536056519e-01 -1.052973717451095581e-01 -9.788119792938232422e-02 4.078530073165893555e-01
1.398000000000000000e+03 5.547240447998046875e+01 3.706729507446289062e+01 -8.056993037462234497e-02 -1.115009635686874390e-01 -5.762126669287681580e-02 2.465362995862960815e-01
1.399000000000000000e+03 5.908826065063476562e+01 3.656660079956054688e+01 -3.984663784503936768e-01 -1.179099380970001221e-01 -1.549128890037536621e-01 3.544847071170806885e-01
1.400000000000000000e+03 5.789847946166992188e+01 3.754385757446289062e+01 -5.938969552516937256e-02 -1.455396115779876709e-01 -6.147878989577293396e-02 4.073903560638427734e-01
1.401000000000000000e+03 9.059104919433593750e+00 2.508835792541503906e+00 -3.227948769927024841e-02 -2.389345467090606689e-01 -8.136420696973800659e-02 2.979229688644409180e-01
1.402000000000000000e+03 7.591760158538818359e+00 2.509732007980346680e+00 -1.146667674183845520e-01 -1.249113455414772034e-01 -7.187343388795852661e-02 2.374785542488098145e-01
1.403000000000000000e+03 6.179284095764160156e+00 2.510388851165771484e+00 -1.048767715692520142e-01 -7.090957462787628174e-02 -5.273590236902236938e-02 1.696778088808059692e-01
1.404000000000000000e+03 6.158865451812744141e+00 1.837434053421020508e+00 -1.616578996181488037e-01 -4.961179941892623901e-02 -6.338091194629669189e-02 1.488244384527206421e-01
1.405000000000000000e+03 3.568574905395507812e+00 3.882936954498291016e+00 -1.430160552263259888e-02 -8.013758808374404907e-02 -2.833175845444202423e-02 1.012673005461692810e-01
1.406000000000000000e+03 6.881003379821777344e+00 2.503524541854858398e+00 -1.145666390657424927e-01 -9.922228008508682251e-02 -6.413667649030685425e-02 2.029028981924057007e-01
1.407000000000000000e+03 5.540954113006591797e+00 3.214519262313842773e+00 -4.613091424107551575e-02 -8.135274797677993774e-02 -3.824510052800178528e-02 1.528628766536712646e-01
1.408000000000000000e+03 1.636335849761962891e+00 7.910786151885986328e+00 1.004633307456970215e-02 -1.625808775424957275e-01 -4.576036334037780762e-02 3.198812901973724365e-02
1.409000000000000000e+03 1.273900151252746582e+00 3.283256292343139648e+00 -6.938900798559188843e-03 -5.758097022771835327e-02 -1.935596205294132233e-02 3.856937214732170105e-02
1.410000000000000000e+03 2.567139625549316406e+00 2.001740694046020508e+00 -3.717825189232826233e-02 -2.450749091804027557e-02 -1.850572414696216583e-02 5.049227178096771240e-02
1.411000000000000000e+03 6.454206085205078125e+01 3.765405654907226562e+01 4.948935210704803467e-01 8.245082497596740723e-01 3.958205282688140869e-01 2.510361969470977783e-01
1.412000000000000000e+03 6.366041183471679688e+01 3.777843856811523438e+01 5.077521800994873047e-01 1.271835863590240479e-01 1.904807388782501221e-01 3.493111133575439453e-01
1.413000000000000000e+03 1.026937103271484375e+01 -3.612377643585205078e+00 -5.008464455604553223e-01 -6.084726005792617798e-02 -1.685081124305725098e-01 -3.262788355350494385e-01
1.414000000000000000e+03 1.172592735290527344e+01 -2.958997726440429688e+00 -6.706203222274780273e-01 -7.428993284702301025e-02 -2.234730869531631470e-01 -3.389454782009124756e-01
1.415000000000000000e+03 9.488016128540039062e+00 -2.768178939819335938e+00 -3.911640644073486328e-01 -2.100403234362602234e-02 -1.236504316329956055e-01 -2.021754235029220581e-01
1.416000000000000000e+03 5.980401229858398438e+01 3.653974914550781250e+01 -4.397335052490234375e-01 -1.616789102554321289e-01 -1.804237216711044312e-01 4.022078812122344971e-01
1.417000000000000000e+03 1.368701457977294922e+01 1.107908129692077637e+00 2.256933689117431641e+00 1.048201203346252441e+00 9.915404915809631348e-01 -3.987408578395843506e-01
1.418000000000000000e+03 5.870742797851562500e+01 3.240518951416015625e+01 -1.963801145553588867e+00 1.715764999389648438e-01 -5.376673936843872070e-01 -5.147398114204406738e-01
1.419000000000000000e+03 6.020187377929687500e+01 3.211662673950195312e+01 -2.115184068679809570e+00 1.463247984647750854e-01 -5.906577706336975098e-01 -4.419836699962615967e-01
1.420000000000000000e+03 6.097597503662109375e+01 3.209465026855468750e+01 -2.209786415100097656e+00 1.194194033741950989e-01 -6.271101236343383789e-01 -3.740352392196655273e-01
1.421000000000000000e+03 1.208878421783447266e+01 1.483440399169921875e+00 3.362472355365753174e-01 -3.812117874622344971e-01 -1.348936185240745544e-02 4.671751558780670166e-01
1.422000000000000000e+03 1.318315029144287109e+01 4.953490734100341797e+00 1.278297603130340576e-01 7.444195747375488281e-01 2.616748213768005371e-01 -4.786888882517814636e-02
1.423000000000000000e+03 1.276134586334228516e+01 2.637391328811645508e+00 9.152794480323791504e-01 6.749874949455261230e-01 4.770800769329071045e-01 -5.735602974891662598e-01
1.424000000000000000e+03 1.341952705383300781e+01 4.387389659881591797e+00 1.636185795068740845e-01 9.708014726638793945e-01 3.403260111808776855e-01 -2.154345624148845673e-02
1.425000000000000000e+03 1.278442764282226562e+01 2.133846521377563477e+00 1.245194196701049805e+00 1.547797769308090210e-01 4.199922084808349609e-01 -3.985718190670013428e-01
1.426000000000000000e+03 6.170877075195312500e+01 3.152952957153320312e+01 -1.912911057472229004e+00 1.799686253070831299e-01 -5.198827385902404785e-01 -3.376957178115844727e-01
1.427000000000000000e+03 6.244545364379882812e+01 3.200352096557617188e+01 -2.282995462417602539e+00 1.138518750667572021e-01 -6.507430672645568848e-01 -2.256761938333511353e-01
1.428000000000000000e+03 6.397737884521484375e+01 3.238610458374023438e+01 -2.643898725509643555e+00 3.988377377390861511e-02 -7.812045216560363770e-01 -2.711632288992404938e-02
1.429000000000000000e+03 6.386492919921875000e+01 3.187657928466796875e+01 -2.088594913482666016e+00 1.436170637607574463e-01 -5.834933519363403320e-01 1.383213698863983154e-02
1.430000000000000000e+03 6.316231536865234375e+01 3.194078445434570312e+01 -2.211036920547485352e+00 1.002415940165519714e-01 -6.332385540008544922e-01 -1.235250085592269897e-01
1.431000000000000000e+03 3.025154495239257812e+01 7.813400745391845703e+00 -1.034978985786437988e+00 -1.599764227867126465e+00 -7.904229760169982910e-01 -1.324080109596252441e+00
1.432000000000000000e+03 3.128279113769531250e+01 7.888213634490966797e+00 -1.227923512458801270e+00 -1.409735441207885742e+00 -7.912976741790771484e-01 -1.285131812095642090e+00
1.433000000000000000e+03 3.045665740966796875e+01 6.847940444946289062e+00 -1.558001399040222168e+00 -1.363372087478637695e+00 -8.764120340347290039e-01 -1.529920697212219238e+00
1.434000000000000000e+03 3.069508743286132812e+01 7.949164867401123047e+00 -1.159113883972167969e+00 -1.493130564689636230e+00 -7.956733107566833496e-01 -1.264007806777954102e+00
1.435000000000000000e+03 3.111326599121093750e+01 6.782503128051757812e+00 -1.493722200393676758e+00 -1.212349891662597656e+00 -8.118216395378112793e-01 -1.296686649322509766e+00
1.436000000000000000e+03 5.643640136718750000e+01 3.319206619262695312e+01 -1.533989191055297852e+00 1.740122884511947632e-01 -4.079930782318115234e-01 -5.129458308219909668e-01
1.437000000000000000e+03 5.726066589355468750e+01 3.251065063476562500e+01 -1.702865839004516602e+00 2.062539160251617432e-01 -4.489835500717163086e-01 -6.021398305892944336e-01
1.438000000000000000e+03 5.738702392578125000e+01 3.188396644592285156e+01 -1.649222970008850098e+00 2.459780722856521606e-01 -4.209734499454498291e-01 -6.918389201164245605e-01
1.439000000000000000e+03 5.650924301147460938e+01 3.252946472167968750e+01 -1.570840716361999512e+00 2.211922854185104370e-01 -4.048945307731628418e-01 -6.442629694938659668e-01
1.440000000000000000e+03 5.496568679809570312e+01 3.270336914062500000e+01 -1.290383815765380859e+00 1.507072150707244873e-01 -3.419030010700225830e-01 -6.779668927192687988e-01
1.441000000000000000e+03 5.573098754882812500e+01 3.254939651489257812e+01 -1.434417724609375000e+00 1.977058649063110352e-01 -3.710135519504547119e-01 -6.780770421028137207e-01
1.442000000000000000e+03 8.713189125061035156e+00 -2.743139743804931641e+00 -3.127627074718475342e-01 -3.149648755788803101e-02 -1.032777577638626099e-01 -1.721118539571762085e-01
1.443000000000000000e+03 7.923183441162109375e+00 -2.739948272705078125e+00 -2.555349469184875488e-01 -2.816281653940677643e-02 -8.510933071374893188e-02 -1.499011963605880737e-01
1.444000000000000000e+03 6.218379020690917969e+00 -1.925398588180541992e+00 -1.125248298048973083e-01 -1.866113953292369843e-02 -3.935579210519790649e-02 -6.403148174285888672e-02
1.445000000000000000e+03 9.524615287780761719e+00 -3.576827049255371094e+00 -4.180414080619812012e-01 -6.992518901824951172e-02 -1.463899761438369751e-01 -2.828883826732635498e-01
1.446000000000000000e+03 4.585278034210205078e+00 -1.953253984451293945e+00 -5.687620118260383606e-02 -1.915824599564075470e-02 -2.281033433973789215e-02 -3.489132598042488098e-02
1.447000000000000000e+03 6.321403026580810547e+00 -2.778912067413330078e+00 -1.597456485033035278e-01 -3.618639335036277771e-02 -5.877961590886116028e-02 -1.082241907715797424e-01
1.448000000000000000e+03 4.225322246551513672e+00 -4.756602287292480469e+00 -9.349049627780914307e-02 -1.025112420320510864e-01 -5.880051851272583008e-02 -1.246695667505264282e-01
1.449000000000000000e+03 7.124595165252685547e+00 -2.753289222717285156e+00 -1.992101222276687622e-01 -3.682053834199905396e-02 -7.080920040607452393e-02 -1.268433034420013428e-01
1.450000000000000000e+03 1.606177449226379395e+00 -9.313802719116210938e+00 -1.356184203177690506e-02 -2.733139693737030029e-01 -8.606274425983428955e-02 -1.165170967578887939e-01
1.451000000000000000e+03 5.114851593971252441e-01 -6.515102386474609375e+00 -8.944679866544902325e-04 -5.598689243197441101e-02 -1.706440933048725128e-02 -2.289083786308765411e-02
1.452000000000000000e+03 2.583104610443115234e+00 -4.026523113250732422e+00 -4.122871533036231995e-02 -5.100278183817863464e-02 -2.766945026814937592e-02 -4.389445483684539795e-02
1.453000000000000000e+03 5.206802487373352051e-01 -3.629214525222778320e+00 -3.441201522946357727e-03 1.512837968766689301e-02 3.506153356283903122e-03 -4.396269563585519791e-03
1.454000000000000000e+03 1.499853610992431641e+01 -2.458078145980834961e+00 -1.326462507247924805e+00 -3.230568766593933105e-01 -4.948558211326599121e-01 -6.336380243301391602e-01
1.455000000000000000e+03 1.500685405731201172e+01 -3.127449512481689453e+00 -1.282598853111267090e+00 -4.917273223400115967e-01 -5.322978496551513672e-01 -7.996400594711303711e-01
1.456000000000000000e+03 1.417027950286865234e+01 -3.860667228698730469e+00 -1.023269414901733398e+00 -4.107710421085357666e-01 -4.302121102809906006e-01 -7.683922052383422852e-01
1.457000000000000000e+03 1.248738956451416016e+01 -3.026082992553710938e+00 -7.910733819007873535e-01 -8.037284016609191895e-02 -2.614338696002960205e-01 -4.009603857994079590e-01
1.458000000000000000e+03 1.329383563995361328e+01 -3.078061819076538086e+00 -9.546878933906555176e-01 -1.734037250280380249e-01 -3.384274840354919434e-01 -5.148670673370361328e-01
1.459000000000000000e+03 5.480162811279296875e+01 3.772459793090820312e+01 -7.002653926610946655e-02 -1.644935607910156250e-01 -7.035603374242782593e-02 1.730355918407440186e-01
1.460000000000000000e+03 2.228302192687988281e+01 -1.453000783920288086e+00 3.718505859375000000e+00 2.041229248046875000e+00 1.727920532226562500e+00 -1.941663265228271484e+00
1.461000000000000000e+03 4.333280944824218750e+01 -3.925851821899414062e+01 2.247038602828979492e+00 1.103739142417907715e+00 1.005233287811279297e+00 8.844746351242065430e-01
1.462000000000000000e+03 4.172576141357421875e+01 -3.974693679809570312e+01 2.713405847549438477e+00 6.030234098434448242e-01 9.949287772178649902e-01 2.014103680849075317e-01
1.463000000000000000e+03 4.213861465454101562e+01 -4.159241485595703125e+01 2.056043386459350586e+00 1.069816946983337402e+00 9.377581477165222168e-01 5.862991884350776672e-02
1.464000000000000000e+03 4.267350769042968750e+01 -3.071691131591796875e+01 -2.036997675895690918e-01 -2.936256825923919678e-01 -1.491976380348205566e-01 2.578888535499572754e-01
1.465000000000000000e+03 3.969093704223632812e+01 -3.959127044677734375e+01 2.407636165618896484e+00 6.105054020881652832e-01 9.054424762725830078e-01 -5.185929536819458008e-01
1.466000000000000000e+03 4.688189315795898438e+01 -3.444603347778320312e+01 7.771635800600051880e-02 1.398636102676391602e+00 4.429057538509368896e-01 4.778383076190948486e-01
1.467000000000000000e+03 3.060544776916503906e+01 -1.072737979888916016e+01 8.257096260786056519e-02 -3.442635759711265564e-02 1.444338075816631317e-02 -9.862033277750015259e-02
1.468000000000000000e+03 3.017187690734863281e+01 -6.177140712738037109e+00 9.296854138374328613e-01 -1.542170345783233643e-01 2.326405197381973267e-01 -3.803205490112304688e-01
1.469000000000000000e+03 1.911499786376953125e+01 -5.508766651153564453e+00 4.292524233460426331e-02 -2.112506151199340820e+00 -6.208742260932922363e-01 5.732207000255584717e-02
1.470000000000000000e+03 3.834850692749023438e+01 -2.372187042236328125e+01 -2.385771423578262329e-01 -6.608572006225585938e-01 -2.698302865028381348e-01 4.086903631687164307e-01
1.471000000000000000e+03 3.700174713134765625e+01 -2.133390045166015625e+01 -2.132883220911026001e-01 -7.243936657905578613e-01 -2.813045978546142578e-01 3.981170356273651123e-01
1.472000000000000000e+03 2.754925727844238281e+01 -2.921730232238769531e+01 3.337224423885345459e-01 6.230005621910095215e-01 2.870168983936309814e-01 -4.320845305919647217e-01
1.473000000000000000e+03 2.156883239746093750e+01 -1.199642848968505859e+01 1.019394025206565857e-01 1.249244734644889832e-01 6.805916130542755127e-02 -1.827306896448135376e-01
1.474000000000000000e+03 2.848725509643554688e+01 -3.418272256851196289e+00 9.388285279273986816e-01 -1.572396755218505859e-01 2.344766557216644287e-01 -3.399647772312164307e-01
1.475000000000000000e+03 2.438481903076171875e+01 -1.487800717353820801e+00 1.342746496200561523e+00 4.991746544837951660e-01 5.525763630867004395e-01 -9.908656477928161621e-01
1.476000000000000000e+03 3.240080642700195312e+01 -3.444399261474609375e+01 5.544319152832031250e-01 7.599954009056091309e-01 3.943282067775726318e-01 -5.701044201850891113e-01
1.477000000000000000e+03 1.878595352172851562e+01 -8.680070877075195312e+00 8.842986822128295898e-02 -9.514290690422058105e-01 -2.588997781276702881e-01 -2.344288825988769531e-01
1.478000000000000000e+03 3.640944671630859375e+01 -3.651951980590820312e+01 7.428409457206726074e-01 6.334506869316101074e-01 4.128874838352203369e-01 -6.701769828796386719e-01
1.479000000000000000e+03 3.467126464843750000e+01 -3.838595199584960938e+01 1.035319924354553223e+00 5.476002693176269531e-01 4.748760461807250977e-01 -5.643601417541503906e-01
1.480000000000000000e+03 3.205548095703125000e+01 -1.304763603210449219e+01 -3.459634259343147278e-02 -2.967357635498046875e-01 -9.939962625503540039e-02 1.009913980960845947e-01
1.481000000000000000e+03 3.018561744689941406e+01 -3.089099693298339844e+01 4.348739683628082275e-01 8.273025155067443848e-01 3.786529302597045898e-01 -5.207867026329040527e-01
1.482000000000000000e+03 2.658506584167480469e+01 -5.198744773864746094e+00 1.283523917198181152e+00 9.714046120643615723e-01 6.764785647392272949e-01 -9.871445298194885254e-01
1.483000000000000000e+03 2.392306900024414062e+01 -1.862873458862304688e+01 1.896720230579376221e-01 3.839143514633178711e-01 1.720759123563766479e-01 -3.298699855804443359e-01
1.484000000000000000e+03 2.440354728698730469e+01 -1.673850822448730469e+01 1.693603992462158203e-01 4.432408809661865234e-01 1.837803870439529419e-01 -3.158455193042755127e-01
1.485000000000000000e+03 2.634886550903320312e+01 -2.345628547668457031e+01 2.190262824296951294e-01 6.126399040222167969e-01 2.494998425245285034e-01 -3.873771131038665771e-01
1.486000000000000000e+03 2.936458587646484375e+01 -2.652919197082519531e+01 2.303390949964523315e-01 8.468430042266845703e-01 3.231546282768249512e-01 -4.512518048286437988e-01
1.487000000000000000e+03 2.190106964111328125e+01 3.816484212875366211e-01 -2.091172218322753906e+00 2.037028074264526367e-01 -5.662408471107482910e-01 -2.436368942260742188e+00
1.488000000000000000e+03 2.945007133483886719e+01 -2.973377227783203125e+01 3.700398802757263184e-01 8.013794422149658203e-01 3.514257967472076416e-01 -5.004158616065979004e-01
1.489000000000000000e+03 2.111959838867187500e+01 -1.388008975982666016e+01 1.996271610260009766e-01 2.859038859605789185e-02 6.846527010202407837e-02 -2.467278689146041870e-01
1.490000000000000000e+03 2.876644325256347656e+01 -2.848212242126464844e+01 3.049162924289703369e-01 7.604199051856994629e-01 3.196008503437042236e-01 -4.724597930908203125e-01
1.491000000000000000e+03 2.636654663085937500e+01 -3.320095539093017578e+00 1.478301167488098145e+00 4.393025040626525879e-01 5.752810835838317871e-01 -8.109252452850341797e-01
1.492000000000000000e+03 2.574133110046386719e+01 -1.912413406372070312e+01 1.718702018260955811e-01 5.729075670242309570e-01 2.234333306550979614e-01 -3.404035866260528564e-01
1.493000000000000000e+03 3.942909240722656250e+01 -2.297907447814941406e+01 -1.600637584924697876e-01 -4.470300674438476562e-01 -1.821281462907791138e-01 3.023216724395751953e-01
1.494000000000000000e+03 3.975709915161132812e+01 -2.607394790649414062e+01 -2.456701546907424927e-01 -6.145946979522705078e-01 -2.580794692039489746e-01 3.927444517612457275e-01
1.495000000000000000e+03 2.874464035034179688e+01 -2.529407310485839844e+01 2.356459945440292358e-01 8.221810460090637207e-01 3.173481225967407227e-01 -4.319087862968444824e-01
1.496000000000000000e+03 2.810520362854003906e+01 -2.721372604370117188e+01 2.665213942527770996e-01 7.329522967338562012e-01 2.998420894145965576e-01 -4.402281045913696289e-01
1.497000000000000000e+03 4.299323272705078125e+01 -2.875386810302734375e+01 -2.056960612535476685e-01 -9.016733616590499878e-03 -6.441383808851242065e-02 2.015926539897918701e-01
1.498000000000000000e+03 4.375294876098632812e+01 -2.988634681701660156e+01 -2.004959583282470703e-01 1.962466239929199219e-01 -1.274800044484436512e-03 1.759566962718963623e-01
1.499000000000000000e+03 2.772956657409667969e+01 -4.661228656768798828e+00 1.134242773056030273e+00 2.687951624393463135e-01 4.209113717079162598e-01 -6.954957246780395508e-01
1.500000000000000000e+03 4.446694564819335938e+01 -3.100846862792968750e+01 -2.060529291629791260e-01 4.659058153629302979e-01 7.795586436986923218e-02 1.610175371170043945e-01
1.501000000000000000e+03 4.504513168334960938e+01 -3.209283447265625000e+01 -1.671796292066574097e-01 6.865998506546020508e-01 1.558260619640350342e-01 2.319169938564300537e-01
1.502000000000000000e+03 4.119929122924804688e+01 -2.840360450744628906e+01 -2.431481033563613892e-01 -4.845847189426422119e-01 -2.183198481798171997e-01 3.495695888996124268e-01
1.503000000000000000e+03 1.979063606262207031e+01 -1.135425090789794922e+01 1.696660369634628296e-01 -3.449198901653289795e-01 -5.257615074515342712e-02 -1.995781362056732178e-01
1.504000000000000000e+03 2.045336532592773438e+01 -1.262256050109863281e+01 2.238429784774780273e-01 -9.638725966215133667e-02 3.823671862483024597e-02 -1.829142719507217407e-01
1.505000000000000000e+03 3.533494949340820312e+01 -1.579089927673339844e+01 -1.804350316524505615e-02 -4.861426949501037598e-01 -1.512558609247207642e-01 1.693368703126907349e-01
1.506000000000000000e+03 2.593081855773925781e+01 -2.534818410873413086e+00 1.345435619354248047e+00 6.341731548309326172e-01 5.938826203346252441e-01 -6.642741560935974121e-01
1.507000000000000000e+03 2.129248619079589844e+01 -1.708083343505859375e+01 2.338333427906036377e-01 9.915871918201446533e-02 9.989761561155319214e-02 -2.783899009227752686e-01
1.508000000000000000e+03 2.249215316772460938e+01 -1.630902290344238281e+01 1.881012618541717529e-01 2.432075738906860352e-01 1.293926537036895752e-01 -2.848959267139434814e-01
1.509000000000000000e+03 3.673797607421875000e+01 -1.818054389953613281e+01 -8.684055507183074951e-02 -5.232257843017578125e-01 -1.830198913812637329e-01 2.380901128053665161e-01
1.510000000000000000e+03 3.460087203979492188e+01 -1.461991310119628906e+01 5.365305393934249878e-02 -4.512867331504821777e-01 -1.192901059985160828e-01 1.285149902105331421e-01
1.511000000000000000e+03 3.384103393554687500e+01 -1.346373748779296875e+01 8.157907426357269287e-02 -4.063160717487335205e-01 -9.742110222578048706e-02 6.308774650096893311e-02
1.512000000000000000e+03 1.844040107727050781e+01 -7.355539321899414062e+00 6.684828549623489380e-02 -1.295699715614318848e+00 -3.686554133892059326e-01 -2.359920144081115723e-01
1.513000000000000000e+03 3.784651947021484375e+01 -1.743422889709472656e+01 2.889635600149631500e-02 -3.717158138751983643e-01 -1.028458401560783386e-01 1.502362638711929321e-01
1.514000000000000000e+03 2.991905975341796875e+01 -9.545186042785644531e+00 2.563542127609252930e-01 1.918300539255142212e-01 1.344552785158157349e-01 -2.119168937206268311e-01
1.515000000000000000e+03 3.081037330627441406e+01 -8.936394691467285156e+00 4.436919391155242920e-01 -5.930819362401962280e-02 1.153151243925094604e-01 -3.107963204383850098e-01
1.516000000000000000e+03 2.689297485351562500e+01 -2.470898056030273438e+01 2.402279525995254517e-01 6.520282030105590820e-01 2.676768600940704346e-01 -3.913857042789459229e-01
1.517000000000000000e+03 7.721401977539062500e+01 -3.781573104858398438e+01 -1.588533818721771240e-02 6.340863227844238281e+00 1.897493362426757812e+00 6.747380644083023071e-02
1.518000000000000000e+03 7.933126831054687500e+01 -3.472148895263671875e+01 -7.731657940894365311e-03 6.664613246917724609e+00 1.997064471244812012e+00 1.905536092817783356e-02
1.519000000000000000e+03 7.934408569335937500e+01 -2.778405570983886719e+01 -4.850307304877787828e-04 6.848101139068603516e+00 2.054284811019897461e+00 1.465137489140033722e-02
1.520000000000000000e+03 7.938807678222656250e+01 3.611187362670898438e+01 1.199425160884857178e-01 5.548533439636230469e+00 1.700542807579040527e+00 3.821885883808135986e-01
1.521000000000000000e+03 7.935665893554687500e+01 -2.084972572326660156e+01 7.942702504806220531e-04 7.066840171813964844e+00 2.120290279388427734e+00 1.527345273643732071e-02
1.522000000000000000e+03 7.803164672851562500e+01 -2.760714912414550781e+01 4.399688623379915953e-04 6.643933773040771484e+00 1.993312120437622070e+00 4.999411106109619141e-02
1.523000000000000000e+03 7.805343627929687500e+01 -2.623196220397949219e+01 1.242995378561317921e-03 6.683742523193359375e+00 2.005495548248291016e+00 5.108325555920600891e-02
1.524000000000000000e+03 7.931621551513671875e+01 -3.056857299804687500e+01 -1.025969046168029308e-03 6.775472640991210938e+00 2.032333850860595703e+00 1.308669615536928177e-02
1.525000000000000000e+03 7.787164306640625000e+01 -3.317457580566406250e+01 -3.864521393552422523e-03 6.503546714782714844e+00 1.949904680252075195e+00 5.203903466463088989e-02
1.526000000000000000e+03 7.292198181152343750e+01 -3.788172912597656250e+01 4.016673564910888672e-02 5.629314422607421875e+00 1.700844287872314453e+00 3.994352743029594421e-02
1.527000000000000000e+03 7.622599792480468750e+01 -3.891567993164062500e+01 -5.092899082228541374e-04 6.278372764587402344e+00 1.883359074592590332e+00 3.694017231464385986e-02
1.528000000000000000e+03 7.812356567382812500e+01 1.395893287658691406e+01 -1.074435189366340637e-02 9.184509277343750000e+00 2.752129554748535156e+00 1.796348839998245239e-01
1.529000000000000000e+03 7.938316345214843750e+01 1.533441066741943359e+01 -6.035094615072011948e-03 9.811733245849609375e+00 2.941709280014038086e+00 3.442034125328063965e-02
1.530000000000000000e+03 7.824885559082031250e+01 2.088078498840332031e+01 -6.908988952636718750e-02 9.733376502990722656e+00 2.899286031723022461e+00 -3.924798965454101562e-02
1.531000000000000000e+03 7.941168975830078125e+01 2.229088401794433594e+01 -1.981802284717559814e-02 1.013969516754150391e+01 3.035963058471679688e+00 -9.814752638339996338e-02
1.532000000000000000e+03 7.952253723144531250e+01 3.202000427246093750e+01 4.359043017029762268e-02 5.225742340087890625e+00 1.580799937248229980e+00 -2.918176352977752686e-01
1.533000000000000000e+03 7.952114105224609375e+01 3.338700485229492188e+01 8.730652928352355957e-02 4.717556476593017578e+00 1.441458940505981445e+00 -9.600591659545898438e-02
1.534000000000000000e+03 7.946621704101562500e+01 2.788096237182617188e+01 -5.722483620047569275e-03 8.200176239013671875e+00 2.458336114883422852e+00 -3.949172496795654297e-01
1.535000000000000000e+03 7.826584625244140625e+01 2.510895347595214844e+01 -1.621195375919342041e-01 9.429866790771484375e+00 2.780324220657348633e+00 -5.307863950729370117e-01
1.536000000000000000e+03 7.822943878173828125e+01 2.368757820129394531e+01 -1.320355534553527832e-01 9.627183914184570312e+00 2.848544597625732422e+00 -3.331326842308044434e-01
1.537000000000000000e+03 7.689767456054687500e+01 1.538200855255126953e+01 -3.242230787873268127e-02 8.863582611083984375e+00 2.649348258972167969e+00 2.807070314884185791e-01
1.538000000000000000e+03 7.814549255371093750e+01 1.535283184051513672e+01 -1.369651686400175095e-02 9.332051277160644531e+00 2.795506477355957031e+00 1.646713763475418091e-01
1.539000000000000000e+03 7.817324829101562500e+01 1.673640823364257812e+01 -2.502994239330291748e-02 9.470205307006835938e+00 2.833552598953247070e+00 1.386634707450866699e-01
1.540000000000000000e+03 7.682005310058593750e+01 1.115783023834228516e+01 5.921865347772836685e-03 8.451129913330078125e+00 2.537115573883056641e+00 3.148374855518341064e-01
1.541000000000000000e+03 7.810031127929687500e+01 8.362796783447265625e+00 3.132993821054697037e-03 8.603701591491699219e+00 2.582050323486328125e+00 1.790672391653060913e-01
1.542000000000000000e+03 7.936620330810546875e+01 9.756855964660644531e+00 -4.988665459677577019e-04 9.147031784057617188e+00 2.743959903717041016e+00 4.673173651099205017e-02
1.543000000000000000e+03 7.802546691894531250e+01 -4.274192452430725098e-02 6.010424345731735229e-03 7.860890865325927734e+00 2.360070466995239258e+00 1.368788331747055054e-01
1.544000000000000000e+03 7.934701538085937500e+01 1.379395604133605957e+00 1.666493189986795187e-04 8.289187431335449219e+00 2.486806154251098633e+00 3.743745386600494385e-02
1.545000000000000000e+03 7.937503814697265625e+01 -1.391255664825439453e+01 3.918834263458848000e-04 7.336126804351806641e+00 2.200955629348754883e+00 1.747886836528778076e-02
1.546000000000000000e+03 7.937445068359375000e+01 -6.973795413970947266e+00 4.666309396270662546e-04 7.689511299133300781e+00 2.306993484497070312e+00 2.361283265054225922e-02
1.547000000000000000e+03 7.935842895507812500e+01 -1.946263122558593750e+01 -4.589676391333341599e-04 7.115932941436767578e+00 2.134642124176025391e+00 1.571192406117916107e-02
1.548000000000000000e+03 7.822855377197265625e+01 3.580641555786132812e+01 3.882749080657958984e-01 7.056902885437011719e+00 2.233553409576416016e+00 7.860625982284545898e-01
1.549000000000000000e+03 7.755671691894531250e+01 3.428926467895507812e+01 8.441929817199707031e-01 7.610083580017089844e+00 2.536283016204833984e+00 1.822464615106582642e-01
1.550000000000000000e+03 7.809648895263671875e+01 9.760531425476074219e+00 4.501307383179664612e-03 8.742548942565917969e+00 2.624114990234375000e+00 1.864064335823059082e-01
1.551000000000000000e+03 7.803744506835937500e+01 1.352114915847778320e+00 6.055752281099557877e-03 7.967652797698974609e+00 2.392112493515014648e+00 1.454558521509170532e-01
1.552000000000000000e+03 7.805933380126953125e+01 2.752263307571411133e+00 4.419760312885046005e-03 8.084310531616210938e+00 2.426619052886962891e+00 1.514494866132736206e-01
1.553000000000000000e+03 7.669315338134765625e+01 -1.478875994682312012e+00 1.668568328022956848e-02 7.446529865264892578e+00 2.238964557647705078e+00 2.157404124736785889e-01
1.554000000000000000e+03 7.935027313232421875e+01 -2.798598766326904297e+00 8.535157539881765842e-04 7.960712432861328125e+00 2.388469696044921875e+00 3.003163821995258331e-02
1.555000000000000000e+03 7.810157775878906250e+01 -5.612109661102294922e+00 4.191773012280464172e-03 7.509599685668945312e+00 2.254137516021728516e+00 1.040764451026916504e-01
1.556000000000000000e+03 7.938069915771484375e+01 -9.750451087951660156e+00 -1.557877112645655870e-05 7.535301685333251953e+00 2.260585784912109375e+00 2.007689327001571655e-02
1.557000000000000000e+03 7.813142395019531250e+01 -1.249447917938232422e+01 2.662053098902106285e-03 7.168357372283935547e+00 2.151305913925170898e+00 7.433067262172698975e-02
1.558000000000000000e+03 7.936580657958984375e+01 -1.668693923950195312e+01 -8.767844701651483774e-05 7.220665454864501953e+00 2.166173458099365234e+00 1.638222858309745789e-02
1.559000000000000000e+03 7.806301116943359375e+01 -2.074557113647460938e+01 9.187378454953432083e-04 6.849470615386962891e+00 2.055116891860961914e+00 5.863875150680541992e-02
1.560000000000000000e+03 7.806899261474609375e+01 -1.937037658691406250e+01 1.649821642786264420e-03 6.895678043365478516e+00 2.069198369979858398e+00 6.058277189731597900e-02
1.561000000000000000e+03 7.170201539993286133e-01 3.735840225219726562e+01 1.026640064083039761e-03 -9.890470653772354126e-02 -2.936341986060142517e-02 -2.174639143049716949e-03
1.562000000000000000e+03 5.988881587982177734e-01 3.463998794555664062e+01 7.120951195247471333e-04 -1.065245047211647034e-01 -3.174372389912605286e-02 -1.711434335447847843e-03
1.563000000000000000e+03 5.910902619361877441e-01 3.325679016113281250e+01 -4.968863795511424541e-04 -1.101144850254058838e-01 -3.318341076374053955e-02 -1.280336291529238224e-03
1.564000000000000000e+03 5.913657546043395996e-01 2.766687774658203125e+01 -8.926142472773790359e-04 -1.278606951236724854e-01 -3.862599283456802368e-02 -2.427410101518034935e-03
1.565000000000000000e+03 6.119477748870849609e-01 2.626159095764160156e+01 4.617194645106792450e-04 -1.341696679592132568e-01 -4.011238366365432739e-02 -2.942255232483148575e-03
1.566000000000000000e+03 1.106811761856079102e+00 -3.602436447143554688e+01 2.673896262422204018e-03 -1.743217945098876953e+00 -5.221632122993469238e-01 -1.340040192008018494e-02
1.567000000000000000e+03 2.597568035125732422e+00 -3.280253982543945312e+01 1.151006016880273819e-02 -1.512703895568847656e+00 -4.503581523895263672e-01 -6.005153805017471313e-02
1.568000000000000000e+03 3.124835968017578125e+00 2.643495178222656250e+01 -1.658822759054601192e-03 -9.970211237668991089e-02 -3.040827997028827667e-02 -1.232419349253177643e-02
1.569000000000000000e+03 3.217093944549560547e+00 2.501354408264160156e+01 -2.816177904605865479e-03 -1.017288342118263245e-01 -3.136350587010383606e-02 -1.397744100540876389e-02
1.570000000000000000e+03 1.819316267967224121e+00 3.447233581542968750e+01 -1.891931169666349888e-04 -9.688475728034973145e-02 -2.912218496203422546e-02 -3.541635815054178238e-03
1.571000000000000000e+03 1.815726041793823242e+00 3.314937591552734375e+01 -3.931721948902122676e-05 -9.899086505174636841e-02 -2.970905601978302002e-02 -4.320010077208280563e-03
1.572000000000000000e+03 2.484158992767333984e+00 3.791580200195312500e+01 1.059975242242217064e-03 -8.664818853139877319e-02 -2.567646466195583344e-02 -4.834984894841909409e-03
1.573000000000000000e+03 3.475253582000732422e+00 3.887767791748046875e+01 -4.917694022879004478e-04 -8.398033678531646729e-02 -2.534163184463977814e-02 -2.952840412035584450e-03
1.574000000000000000e+03 2.004124879837036133e+00 -2.863466453552246094e+01 9.693080559372901917e-03 -1.456381559371948242e+00 -4.340065419673919678e-01 -6.929870694875717163e-02
1.575000000000000000e+03 1.924726963043212891e+00 -2.589163398742675781e+01 7.728582713752985001e-03 -1.358994841575622559e+00 -4.053798615932464600e-01 -8.513299375772476196e-02
1.576000000000000000e+03 3.223408699035644531e+00 -3.571157836914062500e+01 1.148451399058103561e-02 -1.490992307662963867e+00 -4.438523352146148682e-01 -5.031442642211914062e-02
1.577000000000000000e+03 1.792729258537292480e+00 1.777240943908691406e+01 -7.635504589416086674e-04 -1.614369153976440430e-01 -4.866014048457145691e-02 -1.372200995683670044e-02
1.578000000000000000e+03 5.802901983261108398e-01 1.493167972564697266e+01 1.082319882698357105e-03 -2.166945040225982666e-01 -6.468365341424942017e-02 -4.446641542017459869e-03
1.579000000000000000e+03 5.440618395805358887e-01 7.878014564514160156e+00 1.981126610189676285e-03 -1.923283636569976807e-01 -5.710417032241821289e-02 1.213616412132978439e-02
1.580000000000000000e+03 6.235072016716003418e-01 2.060440063476562500e+01 4.623033746611326933e-04 -1.697223633527755737e-01 -5.077801644802093506e-02 -4.837330896407365799e-03
1.581000000000000000e+03 6.109333634376525879e-01 1.918446159362792969e+01 -7.250750204548239708e-04 -1.811096370220184326e-01 -5.455041304230690002e-02 -5.108377896249294281e-03
1.582000000000000000e+03 1.787755966186523438e+00 -1.616648674011230469e+01 7.696557324379682541e-03 -7.944876551628112793e-01 -2.360373288393020630e-01 -1.479791849851608276e-01
1.583000000000000000e+03 4.025964260101318359e+00 -4.078878784179687500e+01 8.421948179602622986e-03 -1.553360700607299805e+00 -4.634816348552703857e-01 -5.187574028968811035e-02
1.584000000000000000e+03 5.175190448760986328e+00 -3.525788497924804688e+01 2.906285226345062256e-02 -1.291948676109313965e+00 -3.788657486438751221e-01 -7.593557983636856079e-02
1.585000000000000000e+03 2.912126779556274414e+00 -3.423132324218750000e+01 7.911480963230133057e-03 -1.509856462478637695e+00 -4.505834877490997314e-01 -5.531805008649826050e-02
1.586000000000000000e+03 2.334152460098266602e+00 -3.140567970275878906e+01 7.443228270858526230e-03 -1.503629446029663086e+00 -4.488558471202850342e-01 -5.967960506677627563e-02
1.587000000000000000e+03 1.943800806999206543e+00 -2.726134109497070312e+01 7.952124811708927155e-03 -1.412154436111450195e+00 -4.212606847286224365e-01 -7.813578099012374878e-02
1.588000000000000000e+03 3.226900339126586914e+00 -2.700269317626953125e+01 2.022016420960426331e-02 -1.289636254310607910e+00 -3.808248341083526611e-01 -1.256049722433090210e-01
1.589000000000000000e+03 1.909018516540527344e+00 -2.174036216735839844e+01 1.025380659848451614e-02 -1.156903386116027832e+00 -3.439948856830596924e-01 -1.178026720881462097e-01
1.590000000000000000e+03 1.921774864196777344e+00 -2.451718902587890625e+01 8.621848188340663910e-03 -1.298683404922485352e+00 -3.870184421539306641e-01 -9.739810973405838013e-02
1.591000000000000000e+03 3.165891170501708984e+00 -2.016719627380371094e+01 2.235004119575023651e-02 -9.952654838562011719e-01 -2.918746471405029297e-01 -2.031470537185668945e-01
1.592000000000000000e+03 6.164111495018005371e-01 -1.910023880004882812e+01 -1.839396776631474495e-03 -1.066572308540344238e+00 -3.205235302448272705e-01 -4.547282308340072632e-02
1.593000000000000000e+03 1.857009768486022949e+00 -1.894778823852539062e+01 1.002660114318132401e-02 -9.885409474372863770e-01 -2.935543060302734375e-01 -1.358010172843933105e-01
1.594000000000000000e+03 2.885389566421508789e+00 -1.331496047973632812e+01 -3.228063927963376045e-03 -5.746189355850219727e-01 -1.733541041612625122e-01 -2.338632494211196899e-01
1.595000000000000000e+03 5.575019717216491699e-01 -1.208233547210693359e+01 3.323080018162727356e-03 -4.612137675285339355e-01 -1.373672038316726685e-01 -4.903299733996391296e-02
1.596000000000000000e+03 1.685618400573730469e+00 -1.203152370452880859e+01 -6.982882507145404816e-03 -4.737060666084289551e-01 -1.442066878080368042e-01 -1.430953294038772583e-01
1.597000000000000000e+03 1.543394207954406738e+00 -6.672108650207519531e+00 -1.696662232279777527e-02 -1.168273165822029114e-01 -4.013818129897117615e-02 -7.293811440467834473e-02
1.598000000000000000e+03 1.467702984809875488e+00 -3.440618515014648438e+00 -1.573967561125755310e-02 -1.977265253663063049e-02 -1.065369788557291031e-02 -1.242204289883375168e-02
1.599000000000000000e+03 5.513859987258911133e-01 -5.091366767883300781e+00 -4.841004032641649246e-03 -6.141121499240398407e-03 -3.294637426733970642e-03 -1.402287464588880539e-02
1.600000000000000000e+03 5.485017895698547363e-01 5.015027523040771484e+00 6.109015666879713535e-04 -1.042540371417999268e-01 -3.109293989837169647e-02 2.056671120226383209e-02
1.601000000000000000e+03 1.673781037330627441e+00 1.069972801208496094e+01 7.646771613508462906e-03 -1.868252456188201904e-01 -5.375354364514350891e-02 6.509539205580949783e-03
1.602000000000000000e+03 5.572534799575805664e-01 1.069459247589111328e+01 1.125676557421684265e-03 -2.287295460700988770e-01 -6.828115880489349365e-02 2.508857520297169685e-03
1.603000000000000000e+03 1.717689037322998047e+00 1.351163101196289062e+01 3.782544983550906181e-03 -1.849461644887924194e-01 -5.434908345341682434e-02 -7.979146204888820648e-03
1.604000000000000000e+03 1.739361643791198730e+00 1.492793273925781250e+01 1.169396680779755116e-03 -1.785795390605926514e-01 -5.322304368019104004e-02 -1.122741121798753738e-02
1.605000000000000000e+03 5.991323590278625488e-01 1.776579666137695312e+01 6.581346970051527023e-04 -1.931260079145431519e-01 -5.774036049842834473e-02 -5.225543864071369171e-03
1.606000000000000000e+03 1.901740908622741699e+00 2.491812515258789062e+01 -4.460601194296032190e-04 -1.225347593426704407e-01 -3.689424321055412292e-02 -9.839664213359355927e-03
1.607000000000000000e+03 7.216455841064453125e+01 3.402344131469726562e+01 9.077808380126953125e+00 1.628951072692871094e+01 7.610196113586425781e+00 4.192294478416442871e-01
1.608000000000000000e+03 7.202727508544921875e+01 3.466506576538085938e+01 6.646342754364013672e+00 1.771581459045410156e+01 7.308647155761718750e+00 2.592043638229370117e+00
1.609000000000000000e+03 2.752237892150878906e+01 4.246759414672851562e+00 -2.772834539413452148e+00 -1.225285053253173828e+00 -1.199435830116271973e+00 -1.462989091873168945e+00
1.610000000000000000e+03 2.666641426086425781e+01 3.536624908447265625e+00 -2.891382932662963867e+00 -9.605231285095214844e-01 -1.155571818351745605e+00 -1.369859576225280762e+00
1.611000000000000000e+03 2.535456657409667969e+01 2.896871328353881836e+00 -3.173641443252563477e+00 -7.368336915969848633e-01 -1.173142552375793457e+00 -1.407690763473510742e+00
1.612000000000000000e+03 2.454187202453613281e+01 2.253442525863647461e+00 -3.169892787933349609e+00 -5.782840847969055176e-01 -1.124453067779541016e+00 -1.365906000137329102e+00
1.613000000000000000e+03 2.503606796264648438e+01 3.005684852600097656e+00 -3.428338050842285156e+00 -7.880467176437377930e-01 -1.264915347099304199e+00 -1.587113261222839355e+00
1.614000000000000000e+03 2.348908042907714844e+01 2.086660861968994141e+00 -3.591518163681030273e+00 -6.755437254905700684e-01 -1.280118584632873535e+00 -1.729140996932983398e+00
1.615000000000000000e+03 2.381234931945800781e+01 2.296630859375000000e+00 -3.613761425018310547e+00 -7.403318881988525391e-01 -1.306228041648864746e+00 -1.703367233276367188e+00
1.616000000000000000e+03 2.317686462402343750e+01 1.844103813171386719e+00 -3.415904045104980469e+00 -6.239618062973022461e-01 -1.211959719657897949e+00 -1.759151816368103027e+00
1.617000000000000000e+03 1.697848701477050781e+01 -2.031640768051147461e+00 -1.952290654182434082e+00 -1.036377191543579102e+00 -8.966003656387329102e-01 -1.042112469673156738e+00
1.618000000000000000e+03 2.469204711914062500e+01 2.427673101425170898e+00 -3.180006265640258789e+00 -5.828602910041809082e-01 -1.128859996795654297e+00 -1.381451964378356934e+00
1.619000000000000000e+03 2.435497665405273438e+01 2.552604436874389648e+00 -3.466721534729003906e+00 -6.577052474021911621e-01 -1.237328052520751953e+00 -1.574305772781372070e+00
1.620000000000000000e+03 2.349527549743652344e+01 1.805996537208557129e+00 -3.225426673889160156e+00 -5.090206265449523926e-01 -1.120334267616271973e+00 -1.580681085586547852e+00
1.621000000000000000e+03 2.520506858825683594e+01 3.117922782897949219e+00 -3.408825635910034180e+00 -8.249302506446838379e-01 -1.270126700401306152e+00 -1.565533280372619629e+00
1.622000000000000000e+03 2.365491676330566406e+01 2.191309213638305664e+00 -3.550967216491699219e+00 -6.995771527290344238e-01 -1.275163292884826660e+00 -1.728745818138122559e+00
1.623000000000000000e+03 1.764021682739257812e+01 -2.845458507537841797e+00 -1.690072655677795410e+00 -1.747083067893981934e+00 -1.031146764755249023e+00 -1.385967373847961426e+00
1.624000000000000000e+03 2.663544654846191406e+01 3.731651306152343750e+00 -2.986057519912719727e+00 -9.857496023178100586e-01 -1.191542148590087891e+00 -1.447388172149658203e+00
1.625000000000000000e+03 6.967787170410156250e+01 3.144439506530761719e+01 8.454127609729766846e-02 9.421386718750000000e+00 2.851778507232666016e+00 5.287245750427246094e+00
1.626000000000000000e+03 6.916084289550781250e+01 3.205879974365234375e+01 1.310961365699768066e+00 5.454898834228515625e+00 2.029757976531982422e+00 5.244876861572265625e+00
1.627000000000000000e+03 6.937400054931640625e+01 3.229940414428710938e+01 1.702580571174621582e+00 6.299506187438964844e+00 2.400626182556152344e+00 5.790462493896484375e+00
1.628000000000000000e+03 7.017736053466796875e+01 3.224084854125976562e+01 2.621218562126159668e-01 1.380093669891357422e+01 4.218917369842529297e+00 6.404476165771484375e+00
1.629000000000000000e+03 6.917475891113281250e+01 3.230173110961914062e+01 1.671377062797546387e+00 4.836740970611572266e+00 1.952435374259948730e+00 5.113182067871093750e+00
1.630000000000000000e+03 6.977074432373046875e+01 3.227742385864257812e+01 1.137609720230102539e+00 9.529699325561523438e+00 3.200192928314208984e+00 6.503181457519531250e+00
1.631000000000000000e+03 6.695857238769531250e+01 3.174986457824707031e+01 -5.844194293022155762e-01 9.701616764068603516e-01 1.157226711511611938e-01 1.479774475097656250e+00
1.632000000000000000e+03 6.832422637939453125e+01 3.194868087768554688e+01 5.778721570968627930e-01 2.586289644241333008e+00 9.492485523223876953e-01 3.241915702819824219e+00
1.633000000000000000e+03 7.603315734863281250e+01 3.382297134399414062e+01 1.941468596458435059e+00 9.346446037292480469e+00 3.386374473571777344e+00 -1.644793599843978882e-01
1.634000000000000000e+03 7.204331970214843750e+01 3.599814224243164062e+01 7.677567005157470703e-01 1.660743904113769531e+01 5.212558746337890625e+00 1.398084759712219238e+00
1.635000000000000000e+03 7.244014739990234375e+01 3.457056045532226562e+01 6.559455394744873047e+00 1.575111293792724609e+01 6.693170547485351562e+00 1.920091748237609863e+00
1.636000000000000000e+03 7.765533447265625000e+01 3.197532463073730469e+01 5.426840186119079590e-01 7.763720512390136719e+00 2.491921424865722656e+00 -1.039922118186950684e+00
1.637000000000000000e+03 7.246672821044921875e+01 3.381998443603515625e+01 7.868540287017822266e+00 1.520544147491455078e+01 6.922194480895996094e+00 -4.084823429584503174e-01
1.638000000000000000e+03 6.901544189453125000e+01 3.597858428955078125e+01 1.634021401405334473e+00 5.512390136718750000e+00 2.143923521041870117e+00 -4.460955619812011719e+00
1.639000000000000000e+03 6.879003143310546875e+01 3.589257431030273438e+01 1.718640208244323730e+00 4.258946895599365234e+00 1.793276190757751465e+00 -3.945382356643676758e+00
1.640000000000000000e+03 6.924342346191406250e+01 3.560213851928710938e+01 2.227049589157104492e+00 5.674950599670410156e+00 2.370599985122680664e+00 -5.076920509338378906e+00
1.641000000000000000e+03 2.177269744873046875e+01 9.939421415328979492e-01 -2.839292049407958984e+00 -7.658618688583374023e-01 -1.081546187400817871e+00 -2.613450288772583008e+00
1.642000000000000000e+03 2.165540885925292969e+01 5.820028185844421387e-01 -2.280918836593627930e+00 -5.098058581352233887e-01 -8.372173905372619629e-01 -2.908503293991088867e+00
1.643000000000000000e+03 2.018447113037109375e+01 -5.513407662510871887e-02 -1.973618507385253906e+00 -5.301481723785400391e+00 -2.182529926300048828e+00 -3.615863323211669922e+00
1.644000000000000000e+03 1.858121681213378906e+01 -1.037772655487060547e+00 -2.629942655563354492e+00 -2.386318206787109375e+00 -1.504878282546997070e+00 -2.059916019439697266e+00
1.645000000000000000e+03 2.069334602355957031e+01 1.177658289670944214e-01 -2.263982057571411133e+00 -1.759912371635437012e+00 -1.207168340682983398e+00 -4.280598640441894531e+00
1.646000000000000000e+03 1.902507400512695312e+01 -9.371026754379272461e-01 -2.696648836135864258e+00 -2.977158069610595703e+00 -1.702142000198364258e+00 -1.796683430671691895e+00
1.647000000000000000e+03 1.514672183990478516e+01 5.804366588592529297e+00 1.884646415710449219e-01 3.597939014434814453e-01 1.644775569438934326e-01 2.535025477409362793e-01
1.648000000000000000e+03 3.120921134948730469e+01 2.334273529052734375e+01 5.406327173113822937e-02 7.794814556837081909e-02 3.960342332720756531e-02 6.971526890993118286e-02
1.649000000000000000e+03 3.175347709655761719e+01 2.266587257385253906e+01 5.781038850545883179e-02 7.328964769840240479e-02 3.933000937104225159e-02 7.015728205442428589e-02
1.650000000000000000e+03 1.967927932739257812e+01 1.109703540802001953e+01 1.191510781645774841e-01 1.569084823131561279e-01 8.281786739826202393e-02 1.397966593503952026e-01
1.651000000000000000e+03 4.878002929687500000e+01 3.857057189941406250e+01 1.535744816064834595e-01 2.260576002299785614e-02 5.285407230257987976e-02 5.005323141813278198e-02
1.652000000000000000e+03 4.021163558959960938e+01 2.042388725280761719e+01 -1.235641241073608398e+00 -1.309127449989318848e+00 -7.634305953979492188e-01 -1.378121376037597656e+00
1.653000000000000000e+03 1.653848075866699219e+01 7.188629627227783203e+00 1.596663743257522583e-01 2.500788271427154541e-01 1.229235529899597168e-01 2.031804025173187256e-01
1.654000000000000000e+03 1.726042938232421875e+01 7.473449230194091797e+00 1.650724261999130249e-01 2.111269086599349976e-01 1.128598004579544067e-01 1.887586116790771484e-01
1.655000000000000000e+03 4.046271896362304688e+01 2.072599220275878906e+01 -1.271584272384643555e+00 -1.309785246849060059e+00 -7.744108438491821289e-01 -1.382543802261352539e+00
1.656000000000000000e+03 3.549307250976562500e+01 2.661679840087890625e+01 5.193170905113220215e-02 7.356388121843338013e-02 3.764867782592773438e-02 6.357942521572113037e-02
1.657000000000000000e+03 3.441425704956054688e+01 1.399990177154541016e+01 -1.425961613655090332e+00 -1.611398220062255859e+00 -9.112079143524169922e-01 -1.473552227020263672e+00
1.658000000000000000e+03 3.192338371276855469e+01 1.181937789916992188e+01 -1.552250027656555176e+00 -1.571402907371520996e+00 -9.370958805084228516e-01 -1.503734946250915527e+00
1.659000000000000000e+03 2.482623863220214844e+01 1.568123817443847656e+01 9.657116234302520752e-02 1.084486544132232666e-01 6.150594353675842285e-02 1.065350845456123352e-01
1.660000000000000000e+03 3.355100250244140625e+01 2.404675483703613281e+01 5.387158319354057312e-02 7.591756433248519897e-02 3.893674537539482117e-02 6.508824229240417480e-02
1.661000000000000000e+03 3.498503875732421875e+01 2.588755035400390625e+01 5.242255330085754395e-02 7.572332769632339478e-02 3.844376653432846069e-02 6.271990388631820679e-02
1.662000000000000000e+03 2.921902084350585938e+01 9.379367828369140625e+00 -1.886549592018127441e+00 -1.191183447837829590e+00 -9.233198761940002441e-01 -1.307171940803527832e+00
1.663000000000000000e+03 3.405509185791015625e+01 2.460279083251953125e+01 5.418228358030319214e-02 7.510597258806228638e-02 3.878647834062576294e-02 6.500145792961120605e-02
1.664000000000000000e+03 4.649059295654296875e+01 2.583299064636230469e+01 -1.437549233436584473e+00 -1.224069476127624512e+00 -7.984856367111206055e-01 -1.378791093826293945e+00
1.665000000000000000e+03 4.161103439331054688e+01 2.229535102844238281e+01 -1.592157721519470215e+00 -1.394821047782897949e+00 -8.960936665534973145e-01 -1.462652921676635742e+00
1.666000000000000000e+03 4.652067565917968750e+01 2.637921714782714844e+01 -1.451232194900512695e+00 -1.278502821922302246e+00 -8.189204931259155273e-01 -1.415151238441467285e+00
1.667000000000000000e+03 3.329366302490234375e+01 2.377361679077148438e+01 5.476493760943412781e-02 7.632523775100708008e-02 3.932705149054527283e-02 6.462874263525009155e-02
1.668000000000000000e+03 1.822082710266113281e+01 8.696114540100097656e+00 1.613578498363494873e-01 1.965956687927246094e-01 1.073860526084899902e-01 1.679769158363342285e-01
1.669000000000000000e+03 1.726859092712402344e+01 8.919161796569824219e+00 1.319896429777145386e-01 2.112914621829986572e-01 1.029843315482139587e-01 1.625506281852722168e-01
1.670000000000000000e+03 2.158054924011230469e+01 1.244165897369384766e+01 1.154827624559402466e-01 1.409674882888793945e-01 7.693507522344589233e-02 1.299028694629669189e-01
1.671000000000000000e+03 4.566061782836914062e+01 2.556885910034179688e+01 -1.512814044952392578e+00 -1.351845026016235352e+00 -8.593977093696594238e-01 -1.446895837783813477e+00
1.672000000000000000e+03 3.803383255004882812e+01 1.860390853881835938e+01 -1.262068152427673340e+00 -1.673453807830810547e+00 -8.806565999984741211e-01 -1.442793011665344238e+00
1.673000000000000000e+03 4.304363250732421875e+01 2.311766052246093750e+01 -1.538090348243713379e+00 -1.379233956336975098e+00 -8.751972913742065430e-01 -1.471004128456115723e+00
1.674000000000000000e+03 4.707175827026367188e+01 2.636177635192871094e+01 -1.414126276969909668e+00 -1.191762804985046387e+00 -7.817667126655578613e-01 -1.355693817138671875e+00
1.675000000000000000e+03 3.519763946533203125e+01 1.488176918029785156e+01 -1.364879488945007324e+00 -1.613633275032043457e+00 -8.935537934303283691e-01 -1.488877058029174805e+00
1.676000000000000000e+03 3.462708663940429688e+01 1.478909587860107422e+01 -1.408377647399902344e+00 -1.666678667068481445e+00 -9.225168824195861816e-01 -1.538294911384582520e+00
1.677000000000000000e+03 6.853929138183593750e+01 3.615032958984375000e+01 1.414005279541015625e+00 3.719386100769042969e+00 1.540017485618591309e+00 -3.479685068130493164e+00
1.678000000000000000e+03 6.820024108886718750e+01 3.611611175537109375e+01 1.236031770706176758e+00 2.765515327453613281e+00 1.200464129447937012e+00 -2.829362392425537109e+00
1.679000000000000000e+03 7.011918640136718750e+01 3.587916183471679688e+01 7.481727004051208496e-01 1.234174537658691406e+01 3.926975488662719727e+00 -5.050403118133544922e+00
1.680000000000000000e+03 6.987756347656250000e+01 3.616831207275390625e+01 9.970628023147583008e-01 9.852132797241210938e+00 3.254758834838867188e+00 -5.124228477478027344e+00
1.681000000000000000e+03 1.646282386779785156e+01 6.679432392120361328e+00 1.844077706336975098e-01 2.582853436470031738e-01 1.328079402446746826e-01 2.179965376853942871e-01
1.682000000000000000e+03 1.500953483581542969e+01 6.280406951904296875e+00 1.439901292324066162e-01 3.938879072666168213e-01 1.613634079694747925e-01 2.115545272827148438e-01
1.683000000000000000e+03 4.131451797485351562e+01 2.203173637390136719e+01 -1.559996843338012695e+00 -1.382410407066345215e+00 -8.827221393585205078e-01 -1.443424224853515625e+00
1.684000000000000000e+03 4.245489120483398438e+01 2.257947158813476562e+01 -1.528819561004638672e+00 -1.359700441360473633e+00 -8.665559887886047363e-01 -1.446622729301452637e+00
1.685000000000000000e+03 2.091704368591308594e+01 1.136184024810791016e+01 1.261822879314422607e-01 1.504636853933334351e-01 8.299379795789718628e-02 1.356687843799591064e-01
1.686000000000000000e+03 2.005695533752441406e+01 1.127486705780029297e+01 1.212107315659523010e-01 1.542215198278427124e-01 8.262967318296432495e-02 1.361187398433685303e-01
1.687000000000000000e+03 3.138792991638183594e+01 1.121850395202636719e+01 -1.564103484153747559e+00 -1.548410058021545410e+00 -9.337540864944458008e-01 -1.477183699607849121e+00
1.688000000000000000e+03 4.337825775146484375e+01 2.390530586242675781e+01 -1.648657441139221191e+00 -1.448672294616699219e+00 -9.291989207267761230e-01 -1.540924787521362305e+00
1.689000000000000000e+03 1.658119583129882812e+01 7.682124614715576172e+00 1.452171206474304199e-01 2.442761510610580444e-01 1.168479844927787781e-01 1.897041052579879761e-01
1.690000000000000000e+03 3.643381881713867188e+01 2.742014694213867188e+01 5.615929141640663147e-02 7.387220859527587891e-02 3.900944814085960388e-02 6.191455572843551636e-02
1.691000000000000000e+03 3.589139175415039062e+01 2.745850563049316406e+01 5.424686148762702942e-02 7.215045392513275146e-02 3.791919350624084473e-02 6.121844425797462463e-02
1.692000000000000000e+03 3.776621627807617188e+01 1.831327629089355469e+01 -1.299999952316284180e+00 -1.720752000808715820e+00 -9.062255620956420898e-01 -1.468442916870117188e+00
1.693000000000000000e+03 3.996980667114257812e+01 2.010221862792968750e+01 -1.210675001144409180e+00 -1.318411231040954590e+00 -7.587258815765380859e-01 -1.377982139587402344e+00
1.694000000000000000e+03 4.710078811645507812e+01 2.691408538818359375e+01 -1.453072667121887207e+00 -1.246805548667907715e+00 -8.099634051322937012e-01 -1.388881564140319824e+00
1.695000000000000000e+03 3.545824813842773438e+01 1.517496871948242188e+01 -1.354724764823913574e+00 -1.620176672935485840e+00 -8.924704194068908691e-01 -1.484102487564086914e+00
1.696000000000000000e+03 3.227756500244140625e+01 1.123311996459960938e+01 -1.457235574722290039e+00 -1.478637576103210449e+00 -8.807619214057922363e-01 -1.393344163894653320e+00
1.697000000000000000e+03 2.287858009338378906e+01 1.325834941864013672e+01 1.220700368285179138e-01 1.363135427236557007e-01 7.751507312059402466e-02 1.252076774835586548e-01
1.698000000000000000e+03 2.211411666870117188e+01 1.297311687469482422e+01 1.159122139215469360e-01 1.364438533782958984e-01 7.570681720972061157e-02 1.257310062646865845e-01
1.699000000000000000e+03 4.333657073974609375e+01 2.338703346252441406e+01 -1.546472430229187012e+00 -1.397416234016418457e+00 -8.831666111946105957e-01 -1.476356148719787598e+00
1.700000000000000000e+03 2.643363571166992188e+01 1.689568710327148438e+01 9.679114073514938354e-02 1.059309691190719604e-01 6.081663444638252258e-02 9.947860985994338989e-02
1.701000000000000000e+03 2.556187438964843750e+01 1.653494262695312500e+01 9.404455870389938354e-02 1.063963621854782104e-01 6.013227626681327820e-02 1.003177687525749207e-01
1.702000000000000000e+03 3.467482757568359375e+01 1.429462528228759766e+01 -1.406671524047851562e+00 -1.608372569084167480e+00 -9.045132398605346680e-01 -1.484608650207519531e+00
1.703000000000000000e+03 4.830219650268554688e+01 2.854138183593750000e+01 -1.552419662475585938e+00 -1.285356998443603516e+00 -8.513330221176147461e-01 -1.399521589279174805e+00
1.704000000000000000e+03 4.800708389282226562e+01 2.827039337158203125e+01 -1.552613854408264160e+00 -1.286366224288940430e+00 -8.516940474510192871e-01 -1.408891320228576660e+00
1.705000000000000000e+03 2.958731651306152344e+01 2.078299903869628906e+01 7.038707286119461060e-02 8.358572423458099365e-02 4.619184136390686035e-02 7.714469730854034424e-02
1.706000000000000000e+03 4.483626937866210938e+01 2.527346801757812500e+01 -1.617789626121520996e+00 -1.531213045120239258e+00 -9.447008371353149414e-01 -1.534390568733215332e+00
1.707000000000000000e+03 4.537407302856445312e+01 2.529540061950683594e+01 -1.543415665626525879e+00 -1.384258151054382324e+00 -8.783021569252014160e-01 -1.449937343597412109e+00
1.708000000000000000e+03 5.031895446777343750e+01 2.995269966125488281e+01 -1.378394603729248047e+00 -1.022716999053955078e+00 -7.203334569931030273e-01 -1.195280432701110840e+00
1.709000000000000000e+03 2.925841712951660156e+01 2.050231170654296875e+01 7.127624005079269409e-02 8.504955470561981201e-02 4.689773917198181152e-02 7.893335819244384766e-02
1.710000000000000000e+03 4.947677230834960938e+01 2.964858436584472656e+01 -1.462428569793701172e+00 -1.214413762092590332e+00 -8.030526638031005859e-01 -1.324482440948486328e+00
1.711000000000000000e+03 3.476502227783203125e+01 2.553452873229980469e+01 5.463738366961479187e-02 7.613592594861984253e-02 3.923199325799942017e-02 6.256803870201110840e-02
1.712000000000000000e+03 3.419850540161132812e+01 2.541332817077636719e+01 5.405547842383384705e-02 7.524692267179489136e-02 3.879072144627571106e-02 6.274005770683288574e-02
1.713000000000000000e+03 5.059333038330078125e+01 3.024371337890625000e+01 -1.349274516105651855e+00 -9.906570315361022949e-01 -7.019794583320617676e-01 -1.162444591522216797e+00
1.714000000000000000e+03 2.842748069763183594e+01 1.953665924072265625e+01 7.742413133382797241e-02 8.948262035846710205e-02 5.007202550768852234e-02 8.409575372934341431e-02
1.715000000000000000e+03 4.739209747314453125e+01 2.718157005310058594e+01 -1.460471630096435547e+00 -1.235300779342651367e+00 -8.087317347526550293e-01 -1.377360939979553223e+00
1.716000000000000000e+03 4.856121826171875000e+01 2.826231956481933594e+01 -1.486510872840881348e+00 -1.192854404449462891e+00 -8.038095831871032715e-01 -1.324174404144287109e+00
1.717000000000000000e+03 3.571812820434570312e+01 1.546826934814453125e+01 -1.348245978355407715e+00 -1.625854730606079102e+00 -8.922302126884460449e-01 -1.480647921562194824e+00
1.718000000000000000e+03 4.531491851806640625e+01 3.496330261230468750e+01 7.730695605278015137e-02 4.119896888732910156e-02 3.555177524685859680e-02 5.555433407425880432e-02
1.719000000000000000e+03 3.623337554931640625e+01 1.605546379089355469e+01 -1.348229050636291504e+00 -1.640559792518615723e+00 -8.966366648674011230e-01 -1.476519942283630371e+00
1.720000000000000000e+03 3.646216964721679688e+01 1.684496498107910156e+01 -1.392454981803894043e+00 -1.714361906051635742e+00 -9.320450425148010254e-01 -1.530477046966552734e+00
1.721000000000000000e+03 3.648774337768554688e+01 1.634915542602539062e+01 -1.348858594894409180e+00 -1.650717258453369141e+00 -8.998727798461914062e-01 -1.474744081497192383e+00
1.722000000000000000e+03 3.906848907470703125e+01 3.054625892639160156e+01 5.782940611243247986e-02 5.741094797849655151e-02 3.457210585474967957e-02 5.521641299128532410e-02
1.723000000000000000e+03 4.215910339355468750e+01 2.231211090087890625e+01 -1.517728924751281738e+00 -1.359878778457641602e+00 -8.632823228836059570e-01 -1.428331851959228516e+00
1.724000000000000000e+03 2.774475669860839844e+01 1.899594116210937500e+01 7.988450676202774048e-02 9.454809129238128662e-02 5.232977867126464844e-02 8.717366307973861694e-02
1.725000000000000000e+03 4.362932205200195312e+01 2.365679359436035156e+01 -1.558886885643005371e+00 -1.418297886848449707e+00 -8.931554555892944336e-01 -1.477615356445312500e+00
1.726000000000000000e+03 2.873950004577636719e+01 1.924162292480468750e+01 8.187238872051239014e-02 8.678039908409118652e-02 5.059583485126495361e-02 8.502955734729766846e-02
1.727000000000000000e+03 2.811098670959472656e+01 1.925547027587890625e+01 7.871072739362716675e-02 9.150911867618560791e-02 5.106595158576965332e-02 8.570902049541473389e-02
1.728000000000000000e+03 2.903671264648437500e+01 1.953480720520019531e+01 7.991484552621841431e-02 8.527860045433044434e-02 4.955803230404853821e-02 8.322972059249877930e-02
1.729000000000000000e+03 3.673979568481445312e+01 1.664251899719238281e+01 -1.345035314559936523e+00 -1.661062479019165039e+00 -9.018293023109436035e-01 -1.472840785980224609e+00
1.730000000000000000e+03 1.349246215820312500e+01 3.445214986801147461e+00 3.037624061107635498e-01 1.566116213798522949e+00 5.609635710716247559e-01 -8.522973209619522095e-02
1.731000000000000000e+03 4.003272628784179688e+01 3.184942626953125000e+01 5.643627420067787170e-02 5.385983735322952271e-02 3.308883309364318848e-02 5.376044288277626038e-02
1.732000000000000000e+03 4.011645126342773438e+01 3.140516662597656250e+01 5.919890478253364563e-02 5.391375720500946045e-02 3.393379598855972290e-02 5.396445468068122864e-02
1.733000000000000000e+03 3.066506767272949219e+01 9.732290267944335938e+00 -1.470877051353454590e+00 -1.359364390373229980e+00 -8.490724563598632812e-01 -1.342893362045288086e+00
1.734000000000000000e+03 3.052801132202148438e+01 1.021228694915771484e+01 -1.509371876716613770e+00 -1.393848896026611328e+00 -8.709662556648254395e-01 -1.436593770980834961e+00
1.735000000000000000e+03 3.154763984680175781e+01 2.358279418945312500e+01 5.411439388990402222e-02 7.608185708522796631e-02 3.905887529253959656e-02 6.811945885419845581e-02
1.736000000000000000e+03 3.109361267089843750e+01 2.137249946594238281e+01 6.901840120553970337e-02 7.522273808717727661e-02 4.327234253287315369e-02 7.157261669635772705e-02
1.737000000000000000e+03 3.030590820312500000e+01 2.116822433471679688e+01 6.951946020126342773e-02 8.044343441724777222e-02 4.498886689543724060e-02 7.399326562881469727e-02
1.738000000000000000e+03 2.752987670898437500e+01 1.809115409851074219e+01 9.010639041662216187e-02 9.666639566421508789e-02 5.603183433413505554e-02 9.271758049726486206e-02
1.739000000000000000e+03 4.768326950073242188e+01 2.744949722290039062e+01 -1.469887971878051758e+00 -1.225979447364807129e+00 -8.087602257728576660e-01 -1.365041494369506836e+00
1.740000000000000000e+03 4.826712417602539062e+01 2.798929023742675781e+01 -1.484495639801025391e+00 -1.207078456878662109e+00 -8.074722290039062500e-01 -1.339439272880554199e+00
1.741000000000000000e+03 3.941555023193359375e+01 3.010994911193847656e+01 5.837920308113098145e-02 5.761645361781120300e-02 3.479869663715362549e-02 5.822859704494476318e-02
1.742000000000000000e+03 2.725448226928710938e+01 1.778939628601074219e+01 9.264051914215087891e-02 9.967588633298873901e-02 5.769492313265800476e-02 9.449839591979980469e-02
1.743000000000000000e+03 4.188040924072265625e+01 3.283042907714843750e+01 6.144890189170837402e-02 4.739988222718238831e-02 3.265463560819625854e-02 5.206552520394325256e-02
1.744000000000000000e+03 2.130579757690429688e+01 1.218402671813964844e+01 1.164744123816490173e-01 1.455725729465484619e-01 7.861409336328506470e-02 1.303357630968093872e-01
1.745000000000000000e+03 3.750174331665039062e+01 1.802082633972167969e+01 -1.334420680999755859e+00 -1.750914812088012695e+00 -9.256006479263305664e-01 -1.490122795104980469e+00
1.746000000000000000e+03 3.244931793212890625e+01 2.359158897399902344e+01 5.600110813975334167e-02 7.390900701284408569e-02 3.897303342819213867e-02 6.595806777477264404e-02
1.747000000000000000e+03 2.078074264526367188e+01 -8.673229068517684937e-02 -1.782367467880249023e+00 -1.489599049091339111e-01 -5.793982148170471191e-01 -3.889469623565673828e+00
1.748000000000000000e+03 1.882118606567382812e+01 -1.108523011207580566e+00 -2.915543794631958008e+00 -2.599097728729248047e+00 -1.654392480850219727e+00 -2.207022428512573242e+00
1.749000000000000000e+03 2.258323478698730469e+01 9.504708647727966309e-01 -2.665699481964111328e+00 -1.018307954072952271e-01 -8.302590847015380859e-01 -1.869500517845153809e+00
1.750000000000000000e+03 2.670682525634765625e+01 1.719154930114746094e+01 9.622250497341156006e-02 1.044633015990257263e-01 6.020574271678924561e-02 9.789847582578659058e-02
1.751000000000000000e+03 2.471381950378417969e+01 1.617912101745605469e+01 9.154075384140014648e-02 1.101919263601303101e-01 6.051980704069137573e-02 1.036738455295562744e-01
1.752000000000000000e+03 2.315381431579589844e+01 1.353859424591064453e+01 1.219499111175537109e-01 1.329683363437652588e-01 7.647547125816345215e-02 1.241356059908866882e-01
1.753000000000000000e+03 5.085969543457031250e+01 3.053433036804199219e+01 -1.317065715789794922e+00 -9.518250823020935059e-01 -6.806672215461730957e-01 -1.125470399856567383e+00
1.754000000000000000e+03 4.454882049560546875e+01 2.499479293823242188e+01 -1.651843547821044922e+00 -1.550388932228088379e+00 -9.606697559356689453e-01 -1.546794533729553223e+00
1.755000000000000000e+03 3.774468231201171875e+01 2.975247192382812500e+01 5.554652959108352661e-02 6.465829163789749146e-02 3.606144711375236511e-02 5.729793384671211243e-02
1.756000000000000000e+03 1.760152626037597656e+01 8.642420768737792969e+00 1.485243886709213257e-01 2.069752812385559082e-01 1.066499054431915283e-01 1.680070906877517700e-01
1.757000000000000000e+03 3.383398818969726562e+01 1.389986324310302734e+01 -1.493399262428283691e+00 -1.680863618850708008e+00 -9.522788524627685547e-01 -1.528350114822387695e+00
1.758000000000000000e+03 3.340230560302734375e+01 1.278373908996582031e+01 -1.403725147247314453e+00 -1.575465202331542969e+00 -8.937571048736572266e-01 -1.475769877433776855e+00
1.759000000000000000e+03 3.937825775146484375e+01 3.074669647216796875e+01 5.812081694602966309e-02 5.689612776041030884e-02 3.450508415699005127e-02 5.632395297288894653e-02
1.760000000000000000e+03 4.494130706787109375e+01 3.514037704467773438e+01 7.772468775510787964e-02 3.932536020874977112e-02 3.511501476168632507e-02 5.470832437276840210e-02
1.761000000000000000e+03 3.699041366577148438e+01 1.693508338928222656e+01 -1.341769456863403320e+00 -1.671199083328247070e+00 -9.038905501365661621e-01 -1.466360449790954590e+00
1.762000000000000000e+03 4.623306274414062500e+01 2.611074066162109375e+01 -1.462913632392883301e+00 -1.298593878746032715e+00 -8.284522294998168945e-01 -1.428472161293029785e+00
1.763000000000000000e+03 3.864260482788085938e+01 3.057864189147949219e+01 5.774069204926490784e-02 6.019171327352523804e-02 3.537972271442413330e-02 5.529850721359252930e-02
1.764000000000000000e+03 4.603847885131835938e+01 3.677261352539062500e+01 1.090940162539482117e-01 3.161552548408508301e-02 4.221286252140998840e-02 5.404999107122421265e-02
1.765000000000000000e+03 5.112241363525390625e+01 3.082167243957519531e+01 -1.283046960830688477e+00 -9.097151756286621094e-01 -6.578286290168762207e-01 -1.082948327064514160e+00
1.766000000000000000e+03 2.495644378662109375e+01 1.647201728820800781e+01 9.058269858360290527e-02 1.089099049568176270e-01 5.984778329730033875e-02 1.013545170426368713e-01
1.767000000000000000e+03 4.186310958862304688e+01 2.204755973815917969e+01 -1.494498014450073242e+00 -1.364251136779785156e+00 -8.576247692108154297e-01 -1.411139369010925293e+00
1.768000000000000000e+03 4.072494888305664062e+01 2.100642395019531250e+01 -1.315873146057128906e+00 -1.320985078811645508e+00 -7.910574674606323242e-01 -1.387041568756103516e+00
1.769000000000000000e+03 4.127965164184570312e+01 2.152878189086914062e+01 -1.411874771118164062e+00 -1.355863928794860840e+00 -8.303216099739074707e-01 -1.393730044364929199e+00
1.770000000000000000e+03 5.226040267944335938e+01 3.249832534790039062e+01 -9.242982864379882812e-01 -6.383675336837768555e-01 -4.687997400760650635e-01 -8.047798871994018555e-01
1.771000000000000000e+03 4.221057891845703125e+01 3.305846023559570312e+01 6.299874186515808105e-02 4.433690756559371948e-02 3.220069408416748047e-02 5.109875276684761047e-02
1.772000000000000000e+03 3.057139396667480469e+01 2.134581565856933594e+01 6.789937615394592285e-02 7.902935147285461426e-02 4.407861828804016113e-02 7.281532138586044312e-02
1.773000000000000000e+03 4.392187500000000000e+01 2.392727661132812500e+01 -1.571124434471130371e+00 -1.438526988029479980e+00 -9.028954505920410156e-01 -1.476479649543762207e+00
1.774000000000000000e+03 4.421409988403320312e+01 2.419883155822753906e+01 -1.580778717994689941e+00 -1.453834652900695801e+00 -9.103839993476867676e-01 -1.471138596534729004e+00
1.775000000000000000e+03 2.741442108154296875e+01 1.869556045532226562e+01 8.129311352968215942e-02 9.704829007387161255e-02 5.350242182612419128e-02 8.869569748640060425e-02
1.776000000000000000e+03 3.695113372802734375e+01 2.800816154479980469e+01 5.837050825357437134e-02 7.304024696350097656e-02 3.942322731018066406e-02 6.185030564665794373e-02
1.777000000000000000e+03 3.883796691894531250e+01 1.835116386413574219e+01 -1.245426416397094727e+00 -1.438962101936340332e+00 -8.053165674209594727e-01 -1.368597984313964844e+00
1.778000000000000000e+03 3.724152755737304688e+01 1.722627067565917969e+01 -1.334489583969116211e+00 -1.675099968910217285e+00 -9.028769135475158691e-01 -1.457684755325317383e+00
1.779000000000000000e+03 4.254492187500000000e+01 3.326739883422851562e+01 6.430660933256149292e-02 4.437919333577156067e-02 3.260574117302894592e-02 5.197953805327415466e-02
1.780000000000000000e+03 1.925000000000000000e+01 1.105944728851318359e+01 1.132816076278686523e-01 1.652049422264099121e-01 8.354596793651580811e-02 1.399950087070465088e-01
1.781000000000000000e+03 1.894507789611816406e+01 1.021494674682617188e+01 1.225136592984199524e-01 1.740496307611465454e-01 8.896898478269577026e-02 1.505991518497467041e-01
1.782000000000000000e+03 4.298931884765625000e+01 3.422883987426757812e+01 6.526380777359008789e-02 4.237557575106620789e-02 3.229181468486785889e-02 4.993777722120285034e-02
1.783000000000000000e+03 7.131218719482421875e+01 3.573202514648437500e+01 1.620691269636154175e-01 1.936730957031250000e+01 5.858813762664794922e+00 -3.044882714748382568e-01
1.784000000000000000e+03 6.958766174316406250e+01 3.704845428466796875e+01 2.598231732845306396e-01 8.010354042053222656e+00 2.481053113937377930e+00 -4.128630161285400391e+00
1.785000000000000000e+03 3.164022636413574219e+01 1.153640365600585938e+01 -1.581682205200195312e+00 -1.575429201126098633e+00 -9.471334218978881836e-01 -1.487657904624938965e+00
1.786000000000000000e+03 3.176261901855468750e+01 1.100976943969726562e+01 -1.485446453094482422e+00 -1.510113954544067383e+00 -8.986681103706359863e-01 -1.409425377845764160e+00
1.787000000000000000e+03 2.343145751953125000e+01 1.381904983520507812e+01 1.217073947191238403e-01 1.296984404325485229e-01 7.542175054550170898e-02 1.213007271289825439e-01
1.788000000000000000e+03 2.184804344177246094e+01 1.270551395416259766e+01 1.160292699933052063e-01 1.394844651222229004e-01 7.665412127971649170e-02 1.272937804460525513e-01
1.789000000000000000e+03 5.197968673706054688e+01 3.221240615844726562e+01 -1.000266671180725098e+00 -7.640256285667419434e-01 -5.292876958847045898e-01 -8.800456523895263672e-01
1.790000000000000000e+03 3.221290969848632812e+01 1.155078697204589844e+01 -1.502058506011962891e+00 -1.506463646888732910e+00 -9.025565981864929199e-01 -1.434036612510681152e+00
1.791000000000000000e+03 5.282826614379882812e+01 3.243819427490234375e+01 -1.024849414825439453e+00 -3.532755672931671143e-01 -4.134374856948852539e-01 -7.723398208618164062e-01
1.792000000000000000e+03 4.450574874877929688e+01 2.447167778015136719e+01 -1.584949612617492676e+00 -1.456451654434204102e+00 -9.124203920364379883e-01 -1.463505864143371582e+00
1.793000000000000000e+03 3.322718048095703125e+01 2.434477615356445312e+01 5.361057445406913757e-02 7.582499086856842041e-02 3.883066773414611816e-02 6.470892578363418579e-02
1.794000000000000000e+03 2.101703834533691406e+01 1.193505191802978516e+01 1.169893741607666016e-01 1.475769877433776855e-01 7.936991006135940552e-02 1.317534297704696655e-01
1.795000000000000000e+03 3.791592025756835938e+01 2.917807006835937500e+01 5.723700672388076782e-02 6.479484587907791138e-02 3.660955652594566345e-02 5.938290432095527649e-02
1.796000000000000000e+03 3.727605056762695312e+01 2.913218116760253906e+01 5.515325814485549927e-02 6.874412298202514648e-02 3.716921433806419373e-02 5.810950696468353271e-02
1.797000000000000000e+03 2.319324302673339844e+01 1.406044483184814453e+01 1.128500178456306458e-01 1.294225454330444336e-01 7.268176972866058350e-02 1.169159561395645142e-01
1.798000000000000000e+03 3.077034568786621094e+01 2.160334205627441406e+01 6.510462611913681030e-02 7.864036411046981812e-02 4.312349855899810791e-02 7.211741805076599121e-02
1.799000000000000000e+03 5.139469146728515625e+01 3.110288619995117188e+01 -1.247137904167175293e+00 -8.484789133071899414e-01 -6.286850571632385254e-01 -1.035235166549682617e+00
1.800000000000000000e+03 2.372636795043945312e+01 1.462388610839843750e+01 1.061832308769226074e-01 1.227537244558334351e-01 6.868109107017517090e-02 1.129474043846130371e-01
1.801000000000000000e+03 2.346204566955566406e+01 1.434013557434082031e+01 1.101827323436737061e-01 1.268965005874633789e-01 7.112377136945724487e-02 1.144071817398071289e-01
1.802000000000000000e+03 3.364914703369140625e+01 1.309838771820068359e+01 -1.404507756233215332e+00 -1.600460886955261230e+00 -9.014905691146850586e-01 -1.469556689262390137e+00
1.803000000000000000e+03 3.686228179931640625e+01 2.858512687683105469e+01 5.602326244115829468e-02 7.056676596403121948e-02 3.797701001167297363e-02 5.894022807478904724e-02
1.804000000000000000e+03 3.669785308837890625e+01 2.771155357360839844e+01 5.727440863847732544e-02 7.376530021429061890e-02 3.931191191077232361e-02 6.213852018117904663e-02
1.805000000000000000e+03 3.127570915222167969e+01 2.246955680847167969e+01 5.782784149050712585e-02 7.662484794855117798e-02 4.033580422401428223e-02 7.129630446434020996e-02
1.806000000000000000e+03 3.114648056030273438e+01 2.215892601013183594e+01 5.916554853320121765e-02 7.726578414440155029e-02 4.092939943075180054e-02 7.160263508558273315e-02
1.807000000000000000e+03 5.197183227539062500e+01 3.164412689208984375e+01 -1.160048127174377441e+00 -6.784204244613647461e-01 -5.515405535697937012e-01 -9.180113077163696289e-01
1.808000000000000000e+03 3.273648452758789062e+01 2.381917190551757812e+01 5.479351803660392761e-02 7.512274384498596191e-02 3.897487744688987732e-02 6.493636220693588257e-02
1.809000000000000000e+03 5.168168640136718750e+01 3.137594604492187500e+01 -1.207385063171386719e+00 -7.678999304771423340e-01 -5.925854444503784180e-01 -9.745132923126220703e-01
1.810000000000000000e+03 5.163622665405273438e+01 3.084349250793457031e+01 -1.280072093009948730e+00 -7.024161219596862793e-01 -5.947464704513549805e-01 -9.919270873069763184e-01
1.811000000000000000e+03 3.140357971191406250e+01 1.018267059326171875e+01 -1.418778419494628906e+00 -1.435045838356018066e+00 -8.561472892761230469e-01 -1.357460737228393555e+00
1.812000000000000000e+03 2.071272277832031250e+01 1.169822692871093750e+01 1.193923875689506531e-01 1.511250734329223633e-01 8.115523308515548706e-02 1.315657347440719604e-01
1.813000000000000000e+03 3.663553619384765625e+01 2.828347396850585938e+01 5.562229827046394348e-02 7.158429175615310669e-02 3.816197812557220459e-02 5.956241860985755920e-02
1.814000000000000000e+03 3.556498336791992188e+01 2.725742149353027344e+01 5.352516099810600281e-02 7.273481041193008423e-02 3.787799179553985596e-02 6.213360279798507690e-02
1.815000000000000000e+03 3.397322463989257812e+01 2.512160301208496094e+01 5.385254323482513428e-02 7.520659267902374268e-02 3.871774300932884216e-02 6.375595927238464355e-02
1.816000000000000000e+03 1.568007087707519531e+01 6.546544551849365234e+00 1.711811572313308716e-01 3.179318308830261230e-01 1.467338949441909790e-01 2.065908312797546387e-01
1.817000000000000000e+03 1.870820045471191406e+01 9.876367568969726562e+00 1.290286332368850708e-01 1.824224144220352173e-01 9.343531727790832520e-02 1.510845124721527100e-01
1.818000000000000000e+03 3.015728187561035156e+01 5.626019954681396484e+00 -2.007773876190185547e+00 -1.135548233985900879e+00 -9.429966211318969727e-01 -1.158248186111450195e+00
1.819000000000000000e+03 2.980525588989257812e+01 5.481847763061523438e+00 -2.208540916442871094e+00 -1.236445069313049316e+00 -1.033495783805847168e+00 -1.164104819297790527e+00
1.820000000000000000e+03 4.813482666015625000e+01 3.809353637695312500e+01 1.485073119401931763e-01 2.900000847876071930e-02 5.325219407677650452e-02 4.858691245317459106e-02
1.821000000000000000e+03 1.626473045349121094e+01 6.954406738281250000e+00 1.639667749404907227e-01 2.788463830947875977e-01 1.328439414501190186e-01 2.043143063783645630e-01
1.822000000000000000e+03 1.597504234313964844e+01 6.742710113525390625e+00 1.660373806953430176e-01 2.960556447505950928e-01 1.386279165744781494e-01 2.084161788225173950e-01
1.823000000000000000e+03 1.365463447570800781e+01 4.764824867248535156e+00 1.044864282011985779e-01 8.363432288169860840e-01 2.822488844394683838e-01 9.665853530168533325e-02
1.824000000000000000e+03 5.366366195678710938e+01 3.925329208374023438e+01 1.810557693243026733e-01 -2.554620802402496338e-01 -2.232189290225505829e-02 1.352446526288986206e-01
1.825000000000000000e+03 5.411063003540039062e+01 3.824435424804687500e+01 -6.808343529701232910e-02 -2.439226359128952026e-01 -9.360182285308837891e-02 9.560322761535644531e-02
1.826000000000000000e+03 1.284287738800048828e+01 3.112151145935058594e+00 6.309456825256347656e-01 9.272315502166748047e-01 4.674531817436218262e-01 -4.612204134464263916e-01
1.827000000000000000e+03 1.367629623413085938e+01 3.847761631011962891e+00 2.435157597064971924e-01 1.316823959350585938e+00 4.681019484996795654e-01 9.601797163486480713e-02
1.828000000000000000e+03 5.327330780029296875e+01 3.972082138061523438e+01 2.117473781108856201e-01 -1.728989928960800171e-01 1.165451668202877045e-02 1.296052038669586182e-01
1.829000000000000000e+03 1.214330577850341797e+01 2.110252618789672852e+00 7.695266008377075195e-01 -2.026638090610504150e-01 1.700588464736938477e-01 6.808038800954818726e-02
1.830000000000000000e+03 5.545773315429687500e+01 3.771422576904296875e+01 -1.313228975050151348e-03 -2.206482738256454468e-01 -6.658844649791717529e-02 2.050360441207885742e-01
1.831000000000000000e+03 1.336188697814941406e+01 3.021960973739624023e+00 5.003890395164489746e-01 1.731021523475646973e+00 6.694231629371643066e-01 -3.770858347415924072e-01
1.832000000000000000e+03 5.364400863647460938e+01 3.286380004882812500e+01 -1.019503355026245117e+00 -8.060836791992187500e-02 -3.300335109233856201e-01 -6.661151647567749023e-01
1.833000000000000000e+03 5.153466033935546875e+01 3.908715820312500000e+01 2.180649787187576294e-01 1.040969882160425186e-02 6.854240596294403076e-02 5.634782463312149048e-02
1.834000000000000000e+03 5.211460876464843750e+01 3.900460433959960938e+01 2.807567119598388672e-01 5.762515962123870850e-02 1.015145629644393921e-01 8.105215430259704590e-02
1.835000000000000000e+03 6.746421051025390625e+01 3.624856948852539062e+01 8.043969869613647461e-01 1.996811389923095703e+00 8.403624892234802246e-01 -1.989878654479980469e+00
1.836000000000000000e+03 6.547876739501953125e+01 3.855326461791992188e+01 8.048168420791625977e-01 1.823325037956237793e+00 7.884425520896911621e-01 -4.197904765605926514e-01
1.837000000000000000e+03 6.453065490722656250e+01 3.182439994812011719e+01 -1.924041271209716797e+00 1.786330789327621460e-01 -5.236224532127380371e-01 1.674689054489135742e-01
1.838000000000000000e+03 6.566077423095703125e+01 3.125997734069824219e+01 -9.043383002281188965e-01 6.439988613128662109e-01 -7.810184359550476074e-02 8.554798960685729980e-01
1.839000000000000000e+03 6.625043487548828125e+01 3.123887634277343750e+01 -5.743860006332397461e-01 9.259714484214782715e-01 1.054756417870521545e-01 1.247985124588012695e+00
1.840000000000000000e+03 4.947298431396484375e+01 3.879742813110351562e+01 1.727178394794464111e-01 2.797604352235794067e-02 6.020816788077354431e-02 4.277012869715690613e-02
1.841000000000000000e+03 1.023976993560791016e+01 -2.818382978439331055e+00 -4.679432511329650879e-01 -3.665350377559661865e-02 -1.513790339231491089e-01 -2.374781966209411621e-01
1.842000000000000000e+03 4.728619384765625000e+01 3.644874572753906250e+01 1.190086081624031067e-01 5.780398473143577576e-02 5.304377898573875427e-02 7.845190912485122681e-02
1.843000000000000000e+03 5.480072402954101562e+01 3.908021163940429688e+01 1.272269785404205322e-01 -2.276700586080551147e-01 -3.013292327523231506e-02 1.162599548697471619e-01
1.844000000000000000e+03 8.295077323913574219e+00 3.206303834915161133e+00 3.761169686913490295e-02 -1.945615410804748535e-01 -4.708494991064071655e-02 2.262621968984603882e-01
1.845000000000000000e+03 6.870848178863525391e+00 3.177203893661499023e+00 -3.666205331683158875e-02 -1.195710822939872742e-01 -4.686994105577468872e-02 1.956330984830856323e-01
1.846000000000000000e+03 5.582015514373779297e+00 3.866321325302124023e+00 -7.402732037007808685e-03 -1.037569940090179443e-01 -3.334791958332061768e-02 1.505889743566513062e-01
1.847000000000000000e+03 3.374153375625610352e+00 2.904428243637084961e+00 -3.749196231365203857e-02 -4.959151148796081543e-02 -2.612504176795482635e-02 8.530076593160629272e-02
1.848000000000000000e+03 4.787245273590087891e+00 2.619379520416259766e+00 -7.098458707332611084e-02 -5.123841017484664917e-02 -3.666689991950988770e-02 1.227419823408126831e-01
1.849000000000000000e+03 6.195614337921142578e+00 3.177562713623046875e+00 -4.647705703973770142e-02 -1.018255650997161865e-01 -4.449078813195228577e-02 1.759036779403686523e-01
1.850000000000000000e+03 9.819196701049804688e+00 2.468090534210205078e+00 5.460880696773529053e-02 -3.231590092182159424e-01 -8.056505769491195679e-02 3.211599886417388916e-01
1.851000000000000000e+03 4.254743576049804688e+00 3.523595571517944336e+00 -2.820951864123344421e-02 -7.179851830005645752e-02 -3.000241145491600037e-02 1.172833219170570374e-01
1.852000000000000000e+03 4.083220481872558594e+00 2.747253894805908203e+00 -5.167890340089797974e-02 -5.374097824096679688e-02 -3.162596374750137329e-02 1.048870831727981567e-01
1.853000000000000000e+03 1.947953701019287109e+00 3.054202079772949219e+00 -1.750768348574638367e-02 -4.790621623396873474e-02 -1.962416991591453552e-02 5.519696697592735291e-02
1.854000000000000000e+03 1.059082889556884766e+01 2.372396469116210938e+00 2.043552249670028687e-01 -3.705050349235534668e-01 -4.984494298696517944e-02 2.908185720443725586e-01
1.855000000000000000e+03 9.858128547668457031e+00 3.159240961074829102e+00 2.376559376716613770e-01 -2.812746167182922363e-01 -1.308559905737638474e-02 1.813417822122573853e-01
1.856000000000000000e+03 6.307640838623046875e+01 3.898060226440429688e+01 7.108034491539001465e-01 7.055723108351230621e-03 2.153577506542205811e-01 1.707866638898849487e-01
1.857000000000000000e+03 1.101253128051757812e+01 -3.661317586898803711e+00 -5.828733444213867188e-01 -1.024861037731170654e-01 -2.056078314781188965e-01 -3.833746612071990967e-01
1.858000000000000000e+03 1.414258861541748047e+01 -3.114596605300903320e+00 -1.090076088905334473e+00 -2.660746574401855469e-01 -4.068452119827270508e-01 -6.213102340698242188e-01
1.859000000000000000e+03 6.171749496459960938e+01 3.205650711059570312e+01 -2.274136304855346680e+00 1.060356795787811279e-01 -6.504302024841308594e-01 -3.071832656860351562e-01
1.860000000000000000e+03 5.799096298217773438e+01 3.247858810424804688e+01 -1.847355365753173828e+00 1.896881014108657837e-01 -4.973001778125762939e-01 -5.483021736145019531e-01
1.861000000000000000e+03 5.965842056274414062e+01 3.127761459350585938e+01 -1.710819363594055176e+00 2.449937164783477783e-01 -4.397476911544799805e-01 -5.731142759323120117e-01
1.862000000000000000e+03 5.868126678466796875e+01 3.192480278015136719e+01 -1.849100828170776367e+00 2.061854451894760132e-01 -4.928746223449707031e-01 -5.963103175163269043e-01
1.863000000000000000e+03 1.136101627349853516e+01 2.235272407531738281e+00 4.044146835803985596e-01 -3.825884461402893066e-01 6.547871511429548264e-03 2.442706078290939331e-01
1.864000000000000000e+03 1.321392536163330078e+01 5.794553279876708984e+00 8.436143398284912109e-02 5.632541775703430176e-01 1.942846924066543579e-01 1.289997901767492294e-02
1.865000000000000000e+03 6.170878982543945312e+01 3.099687194824218750e+01 -1.580557227134704590e+00 2.488022148609161377e-01 -3.995264768600463867e-01 -3.220909833908081055e-01
1.866000000000000000e+03 6.239884185791015625e+01 3.147793960571289062e+01 -1.860811591148376465e+00 1.844029724597930908e-01 -5.029225945472717285e-01 -2.227513790130615234e-01
1.867000000000000000e+03 6.441812133789062500e+01 3.129290580749511719e+01 -1.406773328781127930e+00 3.364669680595397949e-01 -3.210919201374053955e-01 2.718864083290100098e-01
1.868000000000000000e+03 3.070421600341796875e+01 8.471354484558105469e+00 -1.237471103668212891e+00 -1.461049795150756836e+00 -8.095562458038330078e-01 -1.207697629928588867e+00
1.869000000000000000e+03 3.119441604614257812e+01 7.323822498321533203e+00 -1.370442986488342285e+00 -1.306875824928283691e+00 -8.031956553459167480e-01 -1.346620798110961914e+00
1.870000000000000000e+03 3.110678863525390625e+01 6.261388778686523438e+00 -1.617944598197937012e+00 -1.107394695281982422e+00 -8.176017999649047852e-01 -1.232392191886901855e+00
1.871000000000000000e+03 5.759875869750976562e+01 3.124171257019042969e+01 -1.556528568267822266e+00 2.784067690372467041e-01 -3.834365606307983398e-01 -7.432536482810974121e-01
1.872000000000000000e+03 5.923604583740234375e+01 3.174401664733886719e+01 -1.837903976440429688e+00 2.101733982563018799e-01 -4.883191585540771484e-01 -5.718437433242797852e-01
1.873000000000000000e+03 5.667168807983398438e+01 3.183349800109863281e+01 -1.555632948875427246e+00 2.498289048671722412e-01 -3.917412161827087402e-01 -7.352694272994995117e-01
1.874000000000000000e+03 5.806348037719726562e+01 3.191945266723632812e+01 -1.745873928070068359e+00 2.279522866010665894e-01 -4.553764760494232178e-01 -6.451705098152160645e-01
1.875000000000000000e+03 6.029159545898437500e+01 3.150186347961425781e+01 -1.833220720291137695e+00 2.042033374309539795e-01 -4.887052178382873535e-01 -4.932402968406677246e-01
1.876000000000000000e+03 6.101084518432617188e+01 3.154339599609375000e+01 -1.902033448219299316e+00 1.553709805011749268e-01 -5.239987373352050781e-01 -4.163729846477508545e-01
1.877000000000000000e+03 1.587561035156250000e+01 -3.089804172515869141e+00 -1.420344114303588867e+00 -7.436901330947875977e-01 -6.492102742195129395e-01 -9.521358609199523926e-01
1.878000000000000000e+03 8.767412185668945312e+00 -3.560140848159790039e+00 -3.558551967144012451e-01 -5.225613340735435486e-02 -1.224333941936492920e-01 -2.448852360248565674e-01
1.879000000000000000e+03 5.517824172973632812e+00 -2.813439130783081055e+00 -1.191353499889373779e-01 -4.030719771981239319e-02 -4.783276468515396118e-02 -8.590176701545715332e-02
1.880000000000000000e+03 7.220613002777099609e+00 -3.591003179550170898e+00 -2.391686290502548218e-01 -5.846934393048286438e-02 -8.929139375686645508e-02 -1.843000352382659912e-01
1.881000000000000000e+03 4.717296600341796875e+00 -2.856044292449951172e+00 -9.281813353300094604e-02 -3.873659297823905945e-02 -3.946641832590103149e-02 -6.780826300382614136e-02
1.882000000000000000e+03 6.433801651000976562e+00 -3.635234355926513672e+00 -1.872996985912322998e-01 -6.690908223390579224e-02 -7.626263052225112915e-02 -1.559011340141296387e-01
1.883000000000000000e+03 5.644991874694824219e+00 -3.692420005798339844e+00 -1.516825109720230103e-01 -6.522080302238464355e-02 -6.507099419832229614e-02 -1.326696276664733887e-01
1.884000000000000000e+03 2.306392908096313477e+00 -3.145185470581054688e+00 -3.028238192200660706e-02 -2.917542681097984314e-02 -1.783734187483787537e-02 -2.171481959521770477e-02
1.885000000000000000e+03 3.741050481796264648e+00 -8.033074378967285156e+00 -5.939700454473495483e-02 -2.563558220863342285e-01 -9.472584724426269531e-02 -2.198607474565505981e-01
1.886000000000000000e+03 1.609839916229248047e+00 -5.375988006591796875e+00 -1.748002320528030396e-02 -6.978284567594528198e-02 -2.617886103689670563e-02 -4.724224656820297241e-02
1.887000000000000000e+03 5.275860595703125000e+01 3.191044425964355469e+01 -1.159646749496459961e+00 -3.547787964344024658e-01 -4.543276429176330566e-01 -8.316484689712524414e-01
1.888000000000000000e+03 5.481734466552734375e+01 3.210310363769531250e+01 -1.346469759941101074e+00 1.372935622930526733e-01 -3.627528548240661621e-01 -7.679151296615600586e-01
1.889000000000000000e+03 1.066337871551513672e+01 3.034630537033081055e+00 3.765748143196105957e-01 -2.938137054443359375e-01 2.482832968235015869e-02 1.219923198223114014e-01
1.890000000000000000e+03 2.882228088378906250e+01 9.044925689697265625e+00 -2.316760540008544922e+00 -9.084687829017639160e-01 -9.675688147544860840e-01 -1.416842579841613770e+00
1.891000000000000000e+03 1.418229293823242188e+01 -4.647702217102050781e+00 -8.535912036895751953e-01 -5.003636479377746582e-01 -4.061864614486694336e-01 -8.383283615112304688e-01
1.892000000000000000e+03 1.333479690551757812e+01 -3.821300745010375977e+00 -8.844744563102722168e-01 -2.484816014766693115e-01 -3.398868143558502197e-01 -6.277269721031188965e-01
1.893000000000000000e+03 1.176510906219482422e+01 -3.717316150665283203e+00 -6.765350699424743652e-01 -1.068273410201072693e-01 -2.350087165832519531e-01 -4.435732364654541016e-01
1.894000000000000000e+03 1.253398609161376953e+01 -3.772580146789550781e+00 -7.925495505332946777e-01 -1.881472021341323853e-01 -2.942090332508087158e-01 -5.375930070877075195e-01
1.895000000000000000e+03 1.807908058166503906e+01 -6.083051681518554688e+00 -8.362698554992675781e-02 -1.910973310470581055e+00 -5.983800888061523438e-01 -5.714320540428161621e-01
1.896000000000000000e+03 5.527522277832031250e+01 3.839768600463867188e+01 3.763684630393981934e-02 -2.171805053949356079e-01 -5.386309698224067688e-02 1.296177059412002563e-01
1.897000000000000000e+03 2.261676406860351562e+01 -9.333785176277160645e-01 1.188149452209472656e+00 1.353441953659057617e+00 7.624773979187011719e-01 -1.312213897705078125e+00
1.898000000000000000e+03 1.943191337585449219e+01 -1.730233430862426758e+00 -2.835883617401123047e+00 -5.831044197082519531e+00 -2.600078344345092773e+00 -3.431561946868896484e+00
1.899000000000000000e+03 1.896581077575683594e+01 -1.467013001441955566e+00 -2.064892530441284180e+00 -3.759769439697265625e+00 -1.747398495674133301e+00 -2.213352203369140625e+00
1.900000000000000000e+03 3.487712097167968750e+01 -1.269566345214843750e+01 2.581431269645690918e-01 -3.953196406364440918e-01 -4.115295782685279846e-02 -1.290584448724985123e-03
1.901000000000000000e+03 3.984557342529296875e+01 -2.106989669799804688e+01 -8.581664413213729858e-02 -2.610176503658294678e-01 -1.040502861142158508e-01 2.089953869581222534e-01
1.902000000000000000e+03 2.345013999938964844e+01 -2.049643516540527344e+01 2.103278189897537231e-01 3.279908895492553711e-01 1.614956110715866089e-01 -3.431866168975830078e-01
1.903000000000000000e+03 2.923161125183105469e+01 -6.752028942108154297e+00 7.634405493736267090e-01 2.022205591201782227e-01 2.896983325481414795e-01 -5.015631318092346191e-01
1.904000000000000000e+03 2.973900413513183594e+01 -3.877574682235717773e+00 8.430443406105041504e-01 -3.681601583957672119e-01 1.424652636051177979e-01 -2.309930622577667236e-01
1.905000000000000000e+03 2.458098983764648438e+01 -1.980271720886230469e+01 2.051745057106018066e-01 4.654211401939392090e-01 2.011786848306655884e-01 -3.278236091136932373e-01
1.906000000000000000e+03 2.406769943237304688e+01 -2.165550422668457031e+01 2.233894765377044678e-01 4.022040665149688721e-01 1.876780688762664795e-01 -3.411818444728851318e-01
1.907000000000000000e+03 3.306758499145507812e+01 -1.232136154174804688e+01 1.821340769529342651e-01 -3.380177319049835205e-01 -4.676509648561477661e-02 1.377910561859607697e-02
1.908000000000000000e+03 3.567942810058593750e+01 -1.383420276641845703e+01 1.640045046806335449e-01 -4.003105163574218750e-01 -7.089180499315261841e-02 3.648527711629867554e-02
1.909000000000000000e+03 3.323344421386718750e+01 -3.584693145751953125e+01 6.947113871574401855e-01 6.971343755722045898e-01 4.175537228584289551e-01 -5.940252542495727539e-01
1.910000000000000000e+03 2.295646095275878906e+01 -2.235066032409667969e+01 2.315098196268081665e-01 2.774919271469116211e-01 1.527005285024642944e-01 -3.535783290863037109e-01
1.911000000000000000e+03 2.378844833374023438e+01 -2.459592056274414062e+01 2.410966157913208008e-01 3.418973982334136963e-01 1.748982071876525879e-01 -3.671393096446990967e-01
1.912000000000000000e+03 2.210997390747070312e+01 -1.820368194580078125e+01 2.121610939502716064e-01 1.884883940219879150e-01 1.201948523521423340e-01 -3.166118264198303223e-01
1.913000000000000000e+03 4.731956124305725098e-01 3.565371751785278320e+00 -4.314513411372900009e-03 -5.686301738023757935e-02 -1.835325919091701508e-02 1.626998931169509888e-02
1.914000000000000000e+03 2.503675079345703125e+01 -2.238838911056518555e+00 1.367920875549316406e+00 5.705845355987548828e-01 5.815516114234924316e-01 -1.066676139831542969e+00
1.915000000000000000e+03 2.744109344482421875e+01 -3.611222505569458008e+00 1.188167452812194824e+00 5.091704800724983215e-02 3.717253506183624268e-01 -6.542720794677734375e-01
1.916000000000000000e+03 4.118769836425781250e+01 -2.341779899597167969e+01 -1.271177381277084351e-01 -1.458730995655059814e-01 -8.189725130796432495e-02 2.172843813896179199e-01
1.917000000000000000e+03 3.172590446472167969e+01 -8.276642799377441406e+00 6.632757782936096191e-01 -2.693014740943908691e-01 1.181922852993011475e-01 -2.590567171573638916e-01
1.918000000000000000e+03 2.684112930297851562e+01 -2.792785263061523438e+01 2.924374043941497803e-01 5.917251706123352051e-01 2.652487754821777344e-01 -4.162968397140502930e-01
1.919000000000000000e+03 2.747525978088378906e+01 -2.596192169189453125e+01 2.418069839477539062e-01 6.935253739356994629e-01 2.805997133255004883e-01 -4.137180447578430176e-01
1.920000000000000000e+03 4.404185104370117188e+01 -2.791933441162109375e+01 -1.869846433401107788e-01 3.489642441272735596e-01 4.859387874603271484e-02 1.638773381710052490e-01
1.921000000000000000e+03 3.715909957885742188e+01 -1.620898056030273438e+01 6.137685105204582214e-02 -3.878462612628936768e-01 -9.794081747531890869e-02 1.142404153943061829e-01
1.922000000000000000e+03 4.254442214965820312e+01 -2.570694923400878906e+01 -1.633992344141006470e-01 3.167434409260749817e-02 -3.951746597886085510e-02 1.981814950704574585e-01
1.923000000000000000e+03 4.080337524414062500e+01 -2.531934547424316406e+01 -1.998046934604644775e-01 -3.316288888454437256e-01 -1.594300717115402222e-01 2.935659587383270264e-01
1.924000000000000000e+03 4.359779739379882812e+01 -2.496211051940917969e+01 -1.310171782970428467e-01 3.017492890357971191e-01 5.121963471174240112e-02 1.380292624235153198e-01
1.925000000000000000e+03 3.741902160644531250e+01 -1.939196586608886719e+01 -1.117513254284858704e-01 -5.192667245864868164e-01 -1.893054097890853882e-01 2.658351957798004150e-01
1.926000000000000000e+03 1.860869026184082031e+01 -1.197516727447509766e+01 2.509688735008239746e-01 -4.667873382568359375e-01 -6.474553793668746948e-02 -2.838128507137298584e-01
1.927000000000000000e+03 1.936266326904296875e+01 -1.324274158477783203e+01 2.389447540044784546e-01 -2.938545942306518555e-01 -1.647295430302619934e-02 -2.781687676906585693e-01
1.928000000000000000e+03 3.031126403808593750e+01 -4.683982372283935547e+00 9.113706946372985840e-01 -3.620318174362182617e-01 1.648016571998596191e-01 -2.404472380876541138e-01
1.929000000000000000e+03 1.491621112823486328e+01 -7.232094764709472656e+00 -2.659252285957336426e-01 -8.755679726600646973e-01 -3.424479663372039795e-01 -8.370843529701232910e-01
1.930000000000000000e+03 3.875527954101562500e+01 -2.179720878601074219e+01 -1.492428332567214966e-01 -4.787029623985290527e-01 -1.883837431669235229e-01 3.075231015682220459e-01
1.931000000000000000e+03 3.808971023559570312e+01 -2.060094642639160156e+01 -1.458511501550674438e-01 -4.930546879768371582e-01 -1.916717588901519775e-01 2.861056923866271973e-01
1.932000000000000000e+03 7.809568023681640625e+01 -3.581518936157226562e+01 -1.289571728557348251e-02 6.480733394622802734e+00 1.940351247787475586e+00 5.211715772747993469e-02
1.933000000000000000e+03 7.472889709472656250e+01 -3.724768066406250000e+01 1.178841106593608856e-02 5.991209030151367188e+00 1.800899147987365723e+00 2.244935929775238037e-02
1.934000000000000000e+03 7.492198181152343750e+01 -3.126743698120117188e+01 2.223930694162845612e-02 6.069471359252929688e+00 1.827513217926025391e+00 9.865657985210418701e-02
1.935000000000000000e+03 7.702986907958984375e+01 -3.593941497802734375e+01 -4.216180182993412018e-03 6.330729484558105469e+00 1.897953987121582031e+00 5.700779333710670471e-02
1.936000000000000000e+03 7.542839813232421875e+01 -2.189365005493164062e+01 1.011719461530447006e-02 6.355905532836914062e+00 1.909806847572326660e+00 1.337564587593078613e-01
1.937000000000000000e+03 7.799087524414062500e+01 -2.899072265625000000e+01 4.271598067134618759e-03 6.600843906402587891e+00 1.981534719467163086e+00 4.775860533118247986e-02
1.938000000000000000e+03 7.823348999023437500e+01 1.949772453308105469e+01 -5.316409468650817871e-02 9.687273025512695312e+00 2.890232801437377930e+00 4.058450087904930115e-02
1.939000000000000000e+03 7.569177246093750000e+01 1.680644035339355469e+01 -8.972905576229095459e-02 8.547275543212890625e+00 2.537264108657836914e+00 3.541310429573059082e-01
1.940000000000000000e+03 7.606715393066406250e+01 3.840345764160156250e+01 -2.468155771493911743e-01 9.739500999450683594e+00 2.847805738449096680e+00 1.136495709419250488e+00
1.941000000000000000e+03 7.724057006835937500e+01 3.538496398925781250e+01 8.197876811027526855e-01 7.986515998840332031e+00 2.641891002655029297e+00 7.769567966461181641e-01
1.942000000000000000e+03 7.847456359863281250e+01 3.454189682006835938e+01 3.512890040874481201e-01 6.409634113311767578e+00 2.028276920318603516e+00 2.088515609502792358e-01
1.943000000000000000e+03 7.806032562255859375e+01 -2.211723709106445312e+01 1.611235318705439568e-03 6.805393695831298828e+00 2.042101383209228516e+00 5.693580955266952515e-02
1.944000000000000000e+03 7.675690460205078125e+01 -2.335905075073242188e+01 3.675721585750579834e-03 6.547314167022705078e+00 1.965296983718872070e+00 9.318113327026367188e-02
1.945000000000000000e+03 7.654373168945312500e+01 -3.016476058959960938e+01 1.074640266597270966e-02 6.343613147735595703e+00 1.906307816505432129e+00 7.701782137155532837e-02
1.946000000000000000e+03 7.796070861816406250e+01 -3.454893112182617188e+01 1.587901148013770580e-03 6.490009784698486328e+00 1.947479248046875000e+00 4.561103507876396179e-02
1.947000000000000000e+03 7.665501403808593750e+01 -2.878006172180175781e+01 3.614579094573855400e-03 6.391546249389648438e+00 1.918548226356506348e+00 8.279477804899215698e-02
1.948000000000000000e+03 7.546349334716796875e+01 -2.458589744567871094e+01 6.427301559597253799e-03 6.295375823974609375e+00 1.890540957450866699e+00 1.241588220000267029e-01
1.949000000000000000e+03 7.672491455078125000e+01 -2.741694259643554688e+01 5.389351397752761841e-03 6.436308383941650391e+00 1.932509303092956543e+00 8.233565837144851685e-02
1.950000000000000000e+03 7.676221466064453125e+01 -2.471533393859863281e+01 4.153203684836626053e-03 6.510815620422363281e+00 1.954490661621093750e+00 8.768367022275924683e-02
1.951000000000000000e+03 7.629329681396484375e+01 -3.306554794311523438e+01 -2.199434675276279449e-03 6.263875484466552734e+00 1.878502845764160156e+00 6.280403584241867065e-02
1.952000000000000000e+03 7.650237274169921875e+01 -3.459192276000976562e+01 -4.912564996629953384e-03 6.281827449798583984e+00 1.883074522018432617e+00 6.820683181285858154e-02
1.953000000000000000e+03 7.469902038574218750e+01 -4.024410247802734375e+01 5.209838598966598511e-02 5.969313621520996094e+00 1.806423664093017578e+00 -8.200575597584247589e-03
1.954000000000000000e+03 7.604299163818359375e+01 2.547676849365234375e+01 -6.387729644775390625e-01 9.566817283630371094e+00 2.678413152694702148e+00 -6.659658551216125488e-01
1.955000000000000000e+03 7.703419494628906250e+01 2.367385864257812500e+01 -3.287149369716644287e-01 9.450640678405761719e+00 2.736577749252319336e+00 -3.745820224285125732e-01
1.956000000000000000e+03 7.684247589111328125e+01 1.256727790832519531e+01 -1.040531508624553680e-02 8.587039947509765625e+00 2.572990417480468750e+00 3.144529461860656738e-01
1.957000000000000000e+03 7.810737609863281250e+01 1.255596542358398438e+01 -3.258487442508339882e-03 9.034105300903320312e+00 2.709254026412963867e+00 1.885443180799484253e-01
1.958000000000000000e+03 7.436224365234375000e+01 1.262006378173828125e+01 -7.941670715808868408e-03 7.720073223114013672e+00 2.313639402389526367e+00 5.175648927688598633e-01
1.959000000000000000e+03 7.686898040771484375e+01 1.398286151885986328e+01 -2.036439441144466400e-02 8.727158546447753906e+00 2.612038373947143555e+00 3.012552559375762939e-01
1.960000000000000000e+03 7.710629272460937500e+01 2.516618156433105469e+01 -3.867318928241729736e-01 9.454160690307617188e+00 2.720228672027587891e+00 -6.502420306205749512e-01
1.961000000000000000e+03 7.835002899169921875e+01 2.652059364318847656e+01 -1.730489730834960938e-01 9.114256858825683594e+00 2.682362318038940430e+00 -7.457406520843505859e-01
1.962000000000000000e+03 7.675167083740234375e+01 -2.200129508972167969e+01 3.826169297099113464e-03 6.585217475891113281e+00 1.976713061332702637e+00 9.550230205059051514e-02
1.963000000000000000e+03 7.850061035156250000e+01 3.064791488647460938e+01 8.366492390632629395e-02 7.296221256256103516e+00 2.213965892791748047e+00 -1.009324550628662109e+00
1.964000000000000000e+03 7.739652252197265625e+01 2.795465278625488281e+01 -2.992453575134277344e-01 9.136774063110351562e+00 2.651258707046508789e+00 -1.248876214027404785e+00
1.965000000000000000e+03 7.810295104980468750e+01 6.961348056793212891e+00 4.483168013393878937e-03 8.468566894531250000e+00 2.541915178298950195e+00 1.724853068590164185e-01
1.966000000000000000e+03 7.532312774658203125e+01 -1.546552658081054688e+00 2.969577163457870483e-02 7.118920803070068359e+00 2.144584894180297852e+00 2.970788180828094482e-01
1.967000000000000000e+03 7.813472747802734375e+01 -8.370779991149902344e+00 3.649858757853507996e-03 7.364628314971923828e+00 2.210483312606811523e+00 8.850859105587005615e-02
1.968000000000000000e+03 7.809757232666015625e+01 5.558439254760742188e+00 4.199629183858633041e-03 8.335022926330566406e+00 2.501766681671142578e+00 1.657159924507141113e-01
1.969000000000000000e+03 7.548530578613281250e+01 2.739883184432983398e+00 2.821477130055427551e-02 7.402445793151855469e+00 2.229198217391967773e+00 3.398564457893371582e-01
1.970000000000000000e+03 7.564361572265625000e+01 -8.418890953063964844e+00 2.029258944094181061e-02 6.852602481842041016e+00 2.061868429183959961e+00 2.053544968366622925e-01
1.971000000000000000e+03 7.810723876953125000e+01 -1.524086284637451172e+01 2.116854069754481316e-03 7.051146030426025391e+00 2.115978956222534180e+00 6.744363903999328613e-02
1.972000000000000000e+03 7.423944091796875000e+01 -1.638146018981933594e+01 1.978574879467487335e-02 6.293104171752929688e+00 1.893866896629333496e+00 1.946015655994415283e-01
1.973000000000000000e+03 7.675504302978515625e+01 -2.064189720153808594e+01 4.693666473031044006e-03 6.624987125396728516e+00 1.988904118537902832e+00 9.999540448188781738e-02
1.974000000000000000e+03 7.710636138916015625e+01 2.086120414733886719e+01 -1.608376950025558472e-01 9.353488922119140625e+00 2.757795333862304688e+00 -3.403721842914819717e-03
1.975000000000000000e+03 7.684365844726562500e+01 5.547729015350341797e+00 1.592976227402687073e-02 7.978506565093994141e+00 2.398330926895141602e+00 2.725911140441894531e-01
1.976000000000000000e+03 7.802854919433593750e+01 -1.435708284378051758e+00 6.023790221661329269e-03 7.762735366821289062e+00 2.330627918243408203e+00 1.292389482259750366e-01
1.977000000000000000e+03 7.673486328125000000e+01 -2.882093667984008789e+00 1.313984766602516174e-02 7.372369289398193359e+00 2.215652704238891602e+00 2.016611993312835693e-01
1.978000000000000000e+03 7.689457702636718750e+01 -9.748186111450195312e+00 8.976522833108901978e-03 7.050189971923828125e+00 2.117749929428100586e+00 1.409426033496856689e-01
1.979000000000000000e+03 7.681198883056640625e+01 -1.654075813293457031e+01 5.262799561023712158e-03 6.766626834869384766e+00 2.031566858291625977e+00 1.105556860566139221e-01
1.980000000000000000e+03 7.768495941162109375e+01 3.315843582153320312e+01 6.998006105422973633e-01 7.466094493865966797e+00 2.449768543243408203e+00 -5.068722367286682129e-01
1.981000000000000000e+03 7.694296264648437500e+01 1.676163101196289062e+01 -5.272829160094261169e-02 9.003520965576171875e+00 2.685237884521484375e+00 2.497607767581939697e-01
1.982000000000000000e+03 7.681788635253906250e+01 9.757411003112792969e+00 8.972934447228908539e-03 8.329687118530273438e+00 2.501598119735717773e+00 3.053146600723266602e-01
1.983000000000000000e+03 7.684915161132812500e+01 6.950025558471679688e+00 1.094821933656930923e-02 8.095084190368652344e+00 2.431809663772583008e+00 2.860403954982757568e-01
1.984000000000000000e+03 7.812097930908203125e+01 -1.386787319183349609e+01 2.434400841593742371e-03 7.108636379241943359e+00 2.133321285247802734e+00 7.038453221321105957e-02
1.985000000000000000e+03 7.683596801757812500e+01 -1.517899608612060547e+01 6.788773927837610245e-03 6.819454669952392578e+00 2.047873020172119141e+00 1.151032373309135437e-01
1.986000000000000000e+03 7.812245178222656250e+01 -6.993881225585937500e+00 4.914857447147369385e-03 7.434644699096679688e+00 2.231867790222167969e+00 9.516214579343795776e-02
1.987000000000000000e+03 7.688842773437500000e+01 -8.389122009277343750e+00 1.070102863013744354e-02 7.110467910766601562e+00 2.136350631713867188e+00 1.499190777540206909e-01
1.988000000000000000e+03 7.556472015380859375e+01 4.143046379089355469e+00 2.784003131091594696e-02 7.517621040344238281e+00 2.263638257980346680e+00 3.514669537544250488e-01
1.989000000000000000e+03 7.668680572509765625e+01 -7.662595808506011963e-02 1.705388352274894714e-02 7.534359455108642578e+00 2.265424013137817383e+00 2.314156889915466309e-01
1.990000000000000000e+03 7.681466674804687500e+01 4.144388675689697266e+00 1.474641915410757065e-02 7.861755371093750000e+00 2.362950563430786133e+00 2.608217895030975342e-01
1.991000000000000000e+03 7.687013244628906250e+01 -7.028725624084472656e+00 1.206832379102706909e-02 7.173551559448242188e+00 2.155685901641845703e+00 1.609281301498413086e-01
1.992000000000000000e+03 7.678924560546875000e+01 -4.279195308685302734e+00 1.186292991042137146e-02 7.300796031951904297e+00 2.193797826766967773e+00 1.892432421445846558e-01
1.993000000000000000e+03 7.541672515869140625e+01 -2.970227479934692383e+00 2.521047182381153107e-02 7.054286003112792969e+00 2.123848915100097656e+00 2.774529755115509033e-01
1.994000000000000000e+03 7.685928344726562500e+01 -1.382164096832275391e+01 7.388324011117219925e-03 6.873999595642089844e+00 2.064416408538818359e+00 1.211368441581726074e-01
1.995000000000000000e+03 7.689031219482421875e+01 -1.110648345947265625e+01 7.744490168988704681e-03 6.989603519439697266e+00 2.099204540252685547e+00 1.336691230535507202e-01
1.996000000000000000e+03 7.565045166015625000e+01 -9.758258819580078125e+00 1.663349941372871399e-02 6.797278404235839844e+00 2.044173717498779297e+00 1.945661753416061401e-01
1.997000000000000000e+03 7.676846313476562500e+01 -1.927671432495117188e+01 3.933342173695564270e-03 6.669683456420898438e+00 2.002084970474243164e+00 1.038605794310569763e-01
1.998000000000000000e+03 7.530532073974609375e+01 4.065833282470703125e+01 -1.359828352928161621e+00 1.060464286804199219e+01 2.773444414138793945e+00 5.940717458724975586e-01
1.999000000000000000e+03 7.668138122558593750e+01 3.644762420654296875e+01 6.130672097206115723e-01 9.131151199340820312e+00 2.923265457153320312e+00 1.323896408081054688e+00
2.000000000000000000e+03 2.820153236389160156e+01 -3.063102722167968750e+01 3.965509533882141113e-01 6.318451762199401855e-01 3.085188567638397217e-01 -4.398054778575897217e-01
2.001000000000000000e+03 2.279638099670410156e+01 -1.934697341918945312e+01 2.161873877048492432e-01 2.890222966670989990e-01 1.515628993511199951e-01 -3.155960440635681152e-01
2.002000000000000000e+03 2.178295898437500000e+01 -1.511979961395263672e+01 2.299810051918029785e-01 1.717321723699569702e-01 1.205139532685279846e-01 -2.371031045913696289e-01
2.003000000000000000e+03 2.055799865722656250e+01 -1.583794498443603516e+01 2.259648144245147705e-01 -3.036852553486824036e-02 5.867888405919075012e-02 -2.859959304332733154e-01
2.004000000000000000e+03 3.094257736206054688e+01 -3.202158355712890625e+01 4.931316971778869629e-01 8.333191275596618652e-01 3.979352414608001709e-01 -5.255126953125000000e-01
2.005000000000000000e+03 1.782810688018798828e+00 2.770842361450195312e+01 -3.289684536866843700e-04 -1.133094727993011475e-01 -3.409153223037719727e-02 -6.972454022616147995e-03
2.006000000000000000e+03 2.938113927841186523e+00 3.041403770446777344e+01 -1.702688750810921192e-03 -9.157686680555343628e-02 -2.798386663198471069e-02 -7.676350418478250504e-03
2.007000000000000000e+03 1.850392937660217285e+00 2.632157325744628906e+01 -1.513287774287164211e-03 -1.175154969096183777e-01 -3.570863604545593262e-02 -8.362539112567901611e-03
2.008000000000000000e+03 2.987564086914062500e+00 2.780191993713378906e+01 -2.277202438563108444e-03 -9.754471480846405029e-02 -2.994657494127750397e-02 -1.076448056846857071e-02
2.009000000000000000e+03 4.568544864654541016e+00 3.155189323425292969e+01 -3.269372973591089249e-03 -7.207334041595458984e-02 -2.260281518101692200e-02 -8.836968801915645599e-03
2.010000000000000000e+03 3.149899005889892578e+00 3.307461929321289062e+01 -1.021088100969791412e-03 -8.765903115272521973e-02 -2.660403586924076080e-02 -5.671598948538303375e-03
2.011000000000000000e+03 2.885391473770141602e+00 2.911773872375488281e+01 -1.263945596292614937e-03 -9.533018618822097778e-02 -2.897823974490165710e-02 -8.962687104940414429e-03
2.012000000000000000e+03 3.040618181228637695e+00 3.435282135009765625e+01 6.131363916210830212e-04 -8.602095395326614380e-02 -2.562234364449977875e-02 -6.218371912837028503e-03
2.013000000000000000e+03 4.768602371215820312e+00 -3.374050903320312500e+01 2.897626347839832306e-02 -1.310486674308776855e+00 -3.844531178474426270e-01 -8.845009654760360718e-02
2.014000000000000000e+03 3.602815628051757812e+00 -3.728171920776367188e+01 3.457175195217132568e-02 -1.456863522529602051e+00 -4.266875386238098145e-01 -3.800056874752044678e-02
2.015000000000000000e+03 4.175643920898437500e+00 -3.231077575683593750e+01 2.129169367253780365e-02 -1.347110271453857422e+00 -3.977455794811248779e-01 -9.462451189756393433e-02
2.016000000000000000e+03 2.133790969848632812e+00 -3.002027511596679688e+01 7.862542755901813507e-03 -1.488793134689331055e+00 -4.442791938781738281e-01 -6.398737430572509766e-02
2.017000000000000000e+03 3.287931680679321289e+00 -2.832215309143066406e+01 1.999423652887344360e-02 -1.327505350112915039e+00 -3.922533392906188965e-01 -1.162580326199531555e-01
2.018000000000000000e+03 3.223984718322753906e+00 -2.566898345947265625e+01 1.942786388099193573e-02 -1.240803837776184082e+00 -3.664127886295318604e-01 -1.432047188282012939e-01
2.019000000000000000e+03 1.901611447334289551e+00 2.206721115112304688e+01 -3.159757470712065697e-04 -1.353147029876708984e-01 -4.068920388817787170e-02 -1.213830150663852692e-02
2.020000000000000000e+03 3.228854656219482422e+00 2.355989265441894531e+01 -1.868380932137370110e-03 -1.054432988166809082e-01 -3.219350427389144897e-02 -1.598103344440460205e-02
2.021000000000000000e+03 2.783706903457641602e+00 -1.062781620025634766e+01 -2.105275914072990417e-02 -3.902136981487274170e-01 -1.233799383044242859e-01 -2.112086564302444458e-01
2.022000000000000000e+03 3.050992488861083984e+00 -1.739938354492187500e+01 1.792479865252971649e-02 -8.419181108474731445e-01 -2.471979856491088867e-01 -2.258586585521697998e-01
2.023000000000000000e+03 1.752620458602905273e+00 -1.478454399108886719e+01 -5.406273994594812393e-04 -6.885472536087036133e-01 -2.067263722419738770e-01 -1.492157429456710815e-01
2.024000000000000000e+03 3.030480861663818359e+00 1.919368934631347656e+01 -1.847669831477105618e-03 -1.237720027565956116e-01 -3.768590092658996582e-02 -1.909858174622058868e-02
2.025000000000000000e+03 2.828480958938598633e+00 1.208978557586669922e+01 1.255762483924627304e-02 -1.519865691661834717e-01 -4.182868078351020813e-02 -3.110278630629181862e-03
2.026000000000000000e+03 3.173058986663818359e+00 2.209326744079589844e+01 -2.381141064688563347e-03 -1.108772456645965576e-01 -3.397751599550247192e-02 -1.712021417915821075e-02
2.027000000000000000e+03 3.110411405563354492e+00 -1.877924537658691406e+01 1.717555336654186249e-02 -9.182505607604980469e-01 -2.703225016593933105e-01 -2.120724022388458252e-01
2.028000000000000000e+03 2.835211277008056641e+00 -1.196605873107910156e+01 -7.778496481478214264e-03 -4.845729470252990723e-01 -1.477054357528686523e-01 -2.273656129837036133e-01
2.029000000000000000e+03 1.562733054161071777e+00 -7.982202053070068359e+00 -1.182196196168661118e-02 -1.890520453453063965e-01 -6.026219949126243591e-02 -9.445233643054962158e-02
2.030000000000000000e+03 3.447328805923461914e+00 -4.810200214385986328e+00 -7.079963386058807373e-02 -9.245010465383529663e-02 -4.897492378950119019e-02 -9.931443631649017334e-02
2.031000000000000000e+03 3.808341264724731445e+00 5.449369430541992188e+00 2.416906692087650299e-02 -1.104814484715461731e-01 -2.589371427893638611e-02 9.518107026815414429e-02
2.032000000000000000e+03 2.733612537384033203e+00 7.939972400665283203e+00 2.362659014761447906e-02 -1.433900147676467896e-01 -3.592902794480323792e-02 4.587785899639129639e-02
2.033000000000000000e+03 2.860229253768920898e+00 1.349729728698730469e+01 7.091935258358716965e-03 -1.482294201850891113e-01 -4.234124720096588135e-02 -1.055317185819149017e-02
2.034000000000000000e+03 1.763825178146362305e+00 1.634915924072265625e+01 1.257424475625157356e-03 -1.704320162534713745e-01 -5.075237900018692017e-02 -1.330793555825948715e-02
2.035000000000000000e+03 2.974986314773559570e+00 1.776463317871093750e+01 2.882962289731949568e-04 -1.304738819599151611e-01 -3.905567526817321777e-02 -1.956130005419254303e-02
2.036000000000000000e+03 2.755398511886596680e+00 9.308910369873046875e+00 2.235385589301586151e-02 -1.509498655796051025e-01 -3.857880458235740662e-02 2.492292411625385284e-02
2.037000000000000000e+03 2.644800424575805664e+00 -8.037707328796386719e+00 -3.642863407731056213e-02 -2.272898107767105103e-01 -7.911553233861923218e-02 -1.595984846353530884e-01
2.038000000000000000e+03 1.952507853507995605e+00 -4.414192199707031250e+00 -2.203355170786380768e-02 -4.541293904185295105e-02 -2.023394778370857239e-02 -3.738417103886604309e-02
2.039000000000000000e+03 3.206902503967285156e+00 -2.155972671508789062e+01 1.999852061271667480e-02 -1.061399579048156738e+00 -3.124203383922576904e-01 -1.848866194486618042e-01
2.040000000000000000e+03 5.703717231750488281e+00 -3.675584030151367188e+01 4.888179525732994080e-02 -1.262844085693359375e+00 -3.641886711120605469e-01 -6.613136827945709229e-02
2.041000000000000000e+03 2.721139669418334961e+00 -9.313506126403808594e+00 -2.485189400613307953e-02 -3.077932000160217285e-01 -9.979353100061416626e-02 -1.876530796289443970e-01
2.042000000000000000e+03 2.993469953536987305e+00 -1.602919006347656250e+01 9.674906730651855469e-03 -7.544822692871093750e-01 -2.234422117471694946e-01 -2.306376695632934570e-01
2.043000000000000000e+03 2.937323093414306641e+00 -1.466949939727783203e+01 8.240594528615474701e-03 -6.692160964012145996e-01 -1.982926428318023682e-01 -2.366709858179092407e-01
2.044000000000000000e+03 1.919235110282897949e+00 -2.313310623168945312e+01 7.169821299612522125e-03 -1.229674100875854492e+00 -3.667513132095336914e-01 -1.043805107474327087e-01
2.045000000000000000e+03 6.227606296539306641e+00 -3.290062713623046875e+01 5.145047977566719055e-02 -1.182048678398132324e+00 -3.391794562339782715e-01 -1.261031627655029297e-01
2.046000000000000000e+03 4.541187286376953125e+00 -2.548707962036132812e+01 3.536907210946083069e-02 -1.133505344390869141e+00 -3.294408917427062988e-01 -1.872047483921051025e-01
2.047000000000000000e+03 2.791527509689331055e+00 1.069393253326416016e+01 1.652098260819911957e-02 -1.533614546060562134e-01 -4.105214402079582214e-02 9.881992824375629425e-03
2.048000000000000000e+03 3.958775281906127930e+00 1.206530284881591797e+01 1.991238445043563843e-02 -1.193025782704353333e-01 -2.981705963611602783e-02 -4.044686444103717804e-03
2.049000000000000000e+03 3.993657588958740234e+00 1.347659778594970703e+01 1.387768890708684921e-02 -1.148602366447448730e-01 -3.029476478695869446e-02 -1.416024472564458847e-02
2.050000000000000000e+03 2.928604602813720703e+00 1.633926582336425781e+01 1.027831807732582092e-03 -1.370421051979064941e-01 -4.080428183078765869e-02 -1.851745322346687317e-02
2.051000000000000000e+03 1.553393459320068359e+01 -6.667515277862548828e+00 -2.964235544204711914e-01 -9.859585165977478027e-01 -3.847146332263946533e-01 -8.827252388000488281e-01
2.052000000000000000e+03 3.918307495117187500e+01 -1.987453269958496094e+01 -5.255745723843574524e-02 -3.089233338832855225e-01 -1.084442362189292908e-01 1.979041695594787598e-01
2.053000000000000000e+03 5.907556533813476562e+01 3.784743881225585938e+01 -1.705202972516417503e-03 -1.847644597291946411e-01 -5.594089627265930176e-02 4.339293241500854492e-01
2.054000000000000000e+03 3.406255722045898438e+01 -1.157538223266601562e+01 2.894584238529205322e-01 -3.720317184925079346e-01 -2.477198839187622070e-02 -6.343223899602890015e-02
2.055000000000000000e+03 5.911468124389648438e+01 3.881055450439453125e+01 2.714208662509918213e-01 -1.736749112606048584e-01 2.932379022240638733e-02 3.822137415409088135e-01
2.056000000000000000e+03 1.800538253784179688e+01 -1.056822109222412109e+01 1.923401951789855957e-01 -7.377151846885681152e-01 -1.636124998331069946e-01 -3.738001585006713867e-01
2.057000000000000000e+03 4.487935638427734375e+01 -2.900695419311523438e+01 -2.047643214464187622e-01 5.879275798797607422e-01 1.149489730596542358e-01 1.434941440820693970e-01
2.058000000000000000e+03 2.884102439880371094e+01 -4.292830944061279297e+00 1.023432135581970215e+00 -1.553025990724563599e-01 2.604388594627380371e-01 -3.972706496715545654e-01
2.059000000000000000e+03 3.047982978820800781e+01 -3.378091812133789062e+01 5.035687088966369629e-01 7.236714363098144531e-01 3.681720197200775146e-01 -4.786930382251739502e-01
2.060000000000000000e+03 2.852441215515136719e+01 -3.316844940185546875e+01 4.784340560436248779e-01 5.769975781440734863e-01 3.166294991970062256e-01 -4.035359323024749756e-01
2.061000000000000000e+03 2.935876655578613281e+01 -3.459043121337890625e+01 5.241255760192871094e-01 5.840572714805603027e-01 3.324548602104187012e-01 -4.113424122333526611e-01
2.062000000000000000e+03 1.746469879150390625e+01 -5.136990547180175781e+00 -5.579320788383483887e-01 -1.913589596748352051e+00 -7.414565086364746094e-01 -9.657581448554992676e-01
2.063000000000000000e+03 1.667401885986328125e+01 -6.009098529815673828e+00 -3.256256580352783203e-01 -1.360036849975585938e+00 -5.056987404823303223e-01 -9.401798248291015625e-01
2.064000000000000000e+03 4.572121047973632812e+01 -3.014718818664550781e+01 -1.783560812473297119e-01 8.541281223297119141e-01 2.027316242456436157e-01 1.968751698732376099e-01
2.065000000000000000e+03 1.766199302673339844e+01 -9.120817184448242188e+00 1.567811220884323120e-01 -9.463536143302917480e-01 -2.368717342615127563e-01 -4.177857637405395508e-01
2.066000000000000000e+03 2.942889595031738281e+01 -5.218494892120361328e+00 9.484536647796630859e-01 -1.386936008930206299e-01 2.429280281066894531e-01 -3.914855718612670898e-01
2.067000000000000000e+03 4.883836746215820312e+01 -3.438116455078125000e+01 2.916294932365417480e-01 1.687946319580078125e+00 5.938727259635925293e-01 5.037015676498413086e-01
2.068000000000000000e+03 4.946215438842773438e+01 -2.905005836486816406e+01 -8.234251290559768677e-02 1.711019873619079590e+00 4.886032044887542725e-01 2.514102458953857422e-01
2.069000000000000000e+03 5.016108322143554688e+01 -3.715634155273437500e+01 6.920957565307617188e-01 1.807138323783874512e+00 7.497702240943908691e-01 4.625501632690429688e-01
2.070000000000000000e+03 4.678531646728515625e+01 -3.589229583740234375e+01 4.065168499946594238e-01 1.479230761528015137e+00 5.657243132591247559e-01 6.936889290809631348e-01
2.071000000000000000e+03 5.086979866027832031e+00 4.015984725952148438e+01 -3.359747352078557014e-03 -6.625866144895553589e-02 -2.088552340865135193e-02 3.167647810187190771e-04
2.072000000000000000e+03 2.549539375305175781e+01 2.708911418914794922e+00 -3.045848846435546875e+00 -6.810690164566040039e-01 -1.118075370788574219e+00 -1.286241292953491211e+00
2.073000000000000000e+03 2.486612129211425781e+01 2.897234201431274414e+00 -3.486655712127685547e+00 -7.802608609199523926e-01 -1.280074954032897949e+00 -1.584260106086730957e+00
2.074000000000000000e+03 2.581010055541992188e+01 2.863691568374633789e+00 -2.970265865325927734e+00 -7.591696381568908691e-01 -1.118830680847167969e+00 -1.285822510719299316e+00
2.075000000000000000e+03 2.475924491882324219e+01 1.941408276557922363e+00 -2.734768152236938477e+00 -3.909727036952972412e-01 -9.377222657203674316e-01 -1.129449248313903809e+00
2.076000000000000000e+03 2.590306663513183594e+01 3.160132646560668945e+00 -3.070389032363891602e+00 -8.163031935691833496e-01 -1.166007637977600098e+00 -1.374455571174621582e+00
2.077000000000000000e+03 2.626123237609863281e+01 3.744829177856445312e+00 -3.178355455398559570e+00 -9.805890917778015137e-01 -1.247683405876159668e+00 -1.560606956481933594e+00
2.078000000000000000e+03 2.847910118103027344e+01 5.139844894409179688e+00 -2.565513610839843750e+00 -1.586258172988891602e+00 -1.245531558990478516e+00 -1.465209126472473145e+00
2.079000000000000000e+03 2.825184440612792969e+01 4.563718795776367188e+00 -2.594427347183227539e+00 -1.336738824844360352e+00 -1.179349780082702637e+00 -1.348081350326538086e+00
2.080000000000000000e+03 2.862529563903808594e+01 4.930395126342773438e+00 -2.482070684432983398e+00 -1.510317206382751465e+00 -1.197716355323791504e+00 -1.353932619094848633e+00
2.081000000000000000e+03 6.854409790039062500e+01 3.193496894836425781e+01 8.112568855285644531e-01 3.222433090209960938e+00 1.210106968879699707e+00 3.707319259643554688e+00
2.082000000000000000e+03 6.934215545654296875e+01 3.204541015625000000e+01 1.174024343490600586e+00 6.496538162231445312e+00 2.301168680191040039e+00 5.433709144592285156e+00
2.083000000000000000e+03 6.898199462890625000e+01 3.200673675537109375e+01 1.183368444442749023e+00 4.657813072204589844e+00 1.752354383468627930e+00 4.725734233856201172e+00
2.084000000000000000e+03 6.929056549072265625e+01 3.180212593078613281e+01 8.639306426048278809e-01 6.634509563446044922e+00 2.249531984329223633e+00 5.320608615875244141e+00
2.085000000000000000e+03 6.983365631103515625e+01 3.166663169860839844e+01 1.102432906627655029e-01 1.056469726562500000e+01 3.202482223510742188e+00 5.547195434570312500e+00
2.086000000000000000e+03 6.747986602783203125e+01 3.172294425964355469e+01 -9.012002497911453247e-02 1.429740548133850098e+00 4.018861651420593262e-01 2.096852064132690430e+00
2.087000000000000000e+03 7.282199859619140625e+01 3.272813415527343750e+01 4.015201568603515625e+00 1.482510662078857422e+01 5.652092456817626953e+00 -2.200421810150146484e+00
2.088000000000000000e+03 7.236156463623046875e+01 3.484142684936523438e+01 5.398983001708984375e+00 1.642020416259765625e+01 6.545756340026855469e+00 2.433738708496093750e+00
2.089000000000000000e+03 7.108358764648437500e+01 3.175094223022460938e+01 -1.057585716247558594e+00 1.701506805419921875e+01 4.787244796752929688e+00 2.235750675201416016e+00
2.090000000000000000e+03 7.681143188476562500e+01 3.207115173339843750e+01 8.798997998237609863e-01 8.647230148315429688e+00 2.858139038085937500e+00 -1.217407822608947754e+00
2.091000000000000000e+03 7.132292938232421875e+01 3.189903068542480469e+01 -5.989789366722106934e-01 1.795339965820312500e+01 5.206326007843017578e+00 1.019241571426391602e+00
2.092000000000000000e+03 7.222431182861328125e+01 3.216292953491210938e+01 1.659816145896911621e+00 1.678740692138671875e+01 5.534166812896728516e+00 -1.839005947113037109e+00
2.093000000000000000e+03 7.253943634033203125e+01 3.297143936157226562e+01 5.209179878234863281e+00 1.563601207733154297e+01 6.253557682037353516e+00 -2.296164035797119141e+00
2.094000000000000000e+03 7.643971252441406250e+01 3.493232345581054688e+01 1.407552599906921387e+00 9.036056518554687500e+00 3.133082628250122070e+00 6.753723025321960449e-01
2.095000000000000000e+03 7.248619842529296875e+01 3.431417465209960938e+01 7.328981876373291016e+00 1.532108974456787109e+01 6.795021533966064453e+00 1.294526696205139160e+00
2.096000000000000000e+03 7.216070556640625000e+01 3.549839401245117188e+01 2.278142213821411133e+00 1.739000320434570312e+01 5.900443553924560547e+00 2.166637897491455078e+00
2.097000000000000000e+03 1.784224891662597656e+01 -1.518792629241943359e+00 -2.288132667541503906e+00 -1.725257039070129395e+00 -1.204016923904418945e+00 -1.321159720420837402e+00
2.098000000000000000e+03 2.262109756469726562e+01 5.702341794967651367e-01 -1.898995518684387207e+00 2.872836291790008545e-01 -4.835135638713836670e-01 -1.601544857025146484e+00
2.099000000000000000e+03 2.357169723510742188e+01 -1.422845363616943359e+00 2.082960128784179688e+00 1.038503050804138184e+00 9.364389777183532715e-01 -1.117083311080932617e+00
2.100000000000000000e+03 2.284623146057128906e+01 1.842036843299865723e-01 -1.380750775337219238e+00 3.660515546798706055e-01 -3.044097721576690674e-01 -1.256270647048950195e+00
2.101000000000000000e+03 6.825415039062500000e+01 3.168540763854980469e+01 6.090374588966369629e-01 2.973391771316528320e+00 1.074728727340698242e+00 3.377393722534179688e+00
2.102000000000000000e+03 6.784600830078125000e+01 3.161218833923339844e+01 3.118879795074462891e-01 2.042008399963378906e+00 7.061689496040344238e-01 2.686204671859741211e+00
2.103000000000000000e+03 1.404142284393310547e+01 5.486890792846679688e+00 9.115713089704513550e-02 6.079311370849609375e-01 2.097264826297760010e-01 1.767993271350860596e-01
2.104000000000000000e+03 2.989955139160156250e+01 5.179128646850585938e+00 -2.076224327087402344e+00 -1.146910786628723145e+00 -9.669405221939086914e-01 -1.013566136360168457e+00
2.105000000000000000e+03 2.914694786071777344e+01 5.064781665802001953e+00 -2.277349710464477539e+00 -1.361677289009094238e+00 -1.091708064079284668e+00 -1.150721430778503418e+00
2.106000000000000000e+03 1.996622276306152344e+01 -1.351462960243225098e+00 -2.830336809158325195e+00 -7.348055839538574219e+00 -3.053517818450927734e+00 -4.072377204895019531e+00
2.107000000000000000e+03 3.184488105773925781e+01 2.319451522827148438e+01 5.604786053299903870e-02 7.494327425956726074e-02 3.929733857512474060e-02 6.898067891597747803e-02
2.108000000000000000e+03 3.125953102111816406e+01 2.398724937438964844e+01 5.198897421360015869e-02 7.852812111377716064e-02 3.915512934327125549e-02 6.806105375289916992e-02
2.109000000000000000e+03 3.299056625366210938e+01 2.407842063903808594e+01 5.398200452327728271e-02 7.558703422546386719e-02 3.887071087956428528e-02 6.466510146856307983e-02
2.110000000000000000e+03 3.137336921691894531e+01 2.278092956542968750e+01 5.652828142046928406e-02 7.557193189859390259e-02 3.963006287813186646e-02 7.054182142019271851e-02
2.111000000000000000e+03 1.845241546630859375e+01 9.561859130859375000e+00 1.332281976938247681e-01 1.880364418029785156e-01 9.637939184904098511e-02 1.546302884817123413e-01
2.112000000000000000e+03 4.051462936401367188e+01 2.021221733093261719e+01 -1.214470267295837402e+00 -1.307389259338378906e+00 -7.565578818321228027e-01 -1.376453876495361328e+00
2.113000000000000000e+03 4.074594116210937500e+01 2.051441383361816406e+01 -1.239692091941833496e+00 -1.313454151153564453e+00 -7.659438848495483398e-01 -1.376229763031005859e+00
2.114000000000000000e+03 1.634731101989746094e+01 7.434198379516601562e+00 1.469127386808395386e-01 2.670440375804901123e-01 1.241870373487472534e-01 1.932495534420013428e-01
2.115000000000000000e+03 1.701683616638183594e+01 7.681518077850341797e+00 1.555217355489730835e-01 2.216771394014358521e-01 1.131596639752388000e-01 1.926853954792022705e-01
2.116000000000000000e+03 4.099756240844726562e+01 2.127103614807128906e+01 -1.362961769104003906e+00 -1.339286804199218750e+00 -8.106745481491088867e-01 -1.391451239585876465e+00
2.117000000000000000e+03 3.504814529418945312e+01 1.360428810119628906e+01 -1.330239653587341309e+00 -1.504302144050598145e+00 -8.503625392913818359e-01 -1.373967051506042480e+00
2.118000000000000000e+03 2.039466667175292969e+01 1.147731876373291016e+01 1.203627139329910278e-01 1.508173197507858276e-01 8.135400712490081787e-02 1.338194012641906738e-01
2.119000000000000000e+03 1.956577301025390625e+01 1.156050300598144531e+01 1.093578115105628967e-01 1.603221744298934937e-01 8.090399205684661865e-02 1.327743530273437500e-01
2.120000000000000000e+03 2.505765724182128906e+01 1.595875358581542969e+01 9.561800956726074219e-02 1.074306741356849670e-01 6.091460585594177246e-02 1.043093651533126831e-01
2.121000000000000000e+03 3.858109664916992188e+01 1.862766265869140625e+01 -1.247333526611328125e+00 -1.512921929359436035e+00 -8.280766606330871582e-01 -1.394419074058532715e+00
2.122000000000000000e+03 3.946424102783203125e+01 1.946490478515625000e+01 -1.200648188591003418e+00 -1.368620872497558594e+00 -7.707807421684265137e-01 -1.380031943321228027e+00
2.123000000000000000e+03 2.582992172241210938e+01 1.682855606079101562e+01 9.304033964872360229e-02 1.059121415019035339e-01 5.968574434518814087e-02 9.849458187818527222e-02
2.124000000000000000e+03 4.156903076171875000e+01 2.178660392761230469e+01 -1.457692861557006836e+00 -1.364150404930114746e+00 -8.465529680252075195e-01 -1.399965882301330566e+00
2.125000000000000000e+03 1.715808486938476562e+01 7.965916633605957031e+00 1.539450138807296753e-01 2.181281447410583496e-01 1.116219535470008850e-01 1.830285638570785522e-01
2.126000000000000000e+03 3.348151779174804688e+01 2.459340667724609375e+01 5.351466685533523560e-02 7.563114911317825317e-02 3.874374553561210632e-02 6.496234238147735596e-02
2.127000000000000000e+03 3.616866683959960938e+01 2.769853019714355469e+01 5.551308393478393555e-02 7.200120389461517334e-02 3.825428709387779236e-02 6.073941662907600403e-02
2.128000000000000000e+03 3.493633270263671875e+01 1.458842945098876953e+01 -1.386085867881774902e+00 -1.610047221183776855e+00 -8.988399505615234375e-01 -1.488297104835510254e+00
2.129000000000000000e+03 4.645203018188476562e+01 2.529004287719726562e+01 -1.418767571449279785e+00 -1.170188665390014648e+00 -7.766869068145751953e-01 -1.328583121299743652e+00
2.130000000000000000e+03 3.829687118530273438e+01 1.835601043701171875e+01 -1.270356297492980957e+00 -1.566005825996398926e+00 -8.509086370468139648e-01 -1.405599236488342285e+00
2.131000000000000000e+03 4.620185470581054688e+01 2.556767272949218750e+01 -1.457105040550231934e+00 -1.243848443031311035e+00 -8.102860450744628906e-01 -1.385285258293151855e+00
2.132000000000000000e+03 2.110400962829589844e+01 1.248034000396728516e+01 1.106306090950965881e-01 1.447634696960449219e-01 7.661822438240051270e-02 1.277712285518646240e-01
2.133000000000000000e+03 3.158015060424804688e+01 1.063511753082275391e+01 -1.456433415412902832e+00 -1.487364411354064941e+00 -8.831393122673034668e-01 -1.394870042800903320e+00
2.134000000000000000e+03 2.398956108093261719e+01 1.491584777832031250e+01 1.025051325559616089e-01 1.195273250341415405e-01 6.660974025726318359e-02 1.109495982527732849e-01
2.135000000000000000e+03 4.678028488159179688e+01 2.609737205505371094e+01 -1.423220872879028320e+00 -1.206448078155517578e+00 -7.889006733894348145e-01 -1.368558406829833984e+00
2.136000000000000000e+03 3.459059524536132812e+01 2.608591842651367188e+01 5.246413871645927429e-02 7.560752332210540771e-02 3.842149674892425537e-02 6.203204393386840820e-02
2.137000000000000000e+03 3.473318099975585938e+01 2.649692344665527344e+01 5.040452629327774048e-02 7.479866594076156616e-02 3.756095841526985168e-02 6.187830865383148193e-02
2.138000000000000000e+03 1.789323234558105469e+01 8.954308509826660156e+00 1.440173089504241943e-01 1.986047774553298950e-01 1.027866303920745850e-01 1.628484427928924561e-01
2.139000000000000000e+03 1.732279396057128906e+01 8.307917594909667969e+00 1.484267413616180420e-01 2.117511481046676636e-01 1.080533638596534729e-01 1.782151758670806885e-01
2.140000000000000000e+03 3.440915679931640625e+01 2.573037719726562500e+01 5.252664163708686829e-02 7.573328912258148193e-02 3.847797960042953491e-02 6.243504956364631653e-02
2.141000000000000000e+03 3.364421463012695312e+01 2.534750938415527344e+01 5.303277820348739624e-02 7.517924159765243530e-02 3.846360370516777039e-02 6.326787173748016357e-02
2.142000000000000000e+03 2.238162422180175781e+01 1.324259853363037109e+01 1.163889840245246887e-01 1.361322402954101562e-01 7.575637102127075195e-02 1.228327229619026184e-01
2.143000000000000000e+03 2.162659835815429688e+01 1.298745918273925781e+01 1.104889214038848877e-01 1.390618681907653809e-01 7.486523687839508057e-02 1.244480237364768982e-01
2.144000000000000000e+03 2.522322463989257812e+01 1.676536560058593750e+01 8.948329091072082520e-02 1.073904484510421753e-01 5.906212329864501953e-02 9.902747720479965210e-02
2.145000000000000000e+03 3.187448501586914062e+01 2.378370094299316406e+01 5.423142388463020325e-02 7.608955353498458862e-02 3.909629210829734802e-02 6.749355047941207886e-02
2.146000000000000000e+03 4.329559326171875000e+01 2.286628532409667969e+01 -1.466944694519042969e+00 -1.345549464225769043e+00 -8.437482714653015137e-01 -1.416042566299438477e+00
2.147000000000000000e+03 4.274984359741210938e+01 2.284834861755371094e+01 -1.532628297805786133e+00 -1.366013765335083008e+00 -8.695926070213317871e-01 -1.461520910263061523e+00
2.148000000000000000e+03 4.732851409912109375e+01 2.607122039794921875e+01 -1.378325819969177246e+00 -1.117087841033935547e+00 -7.486240863800048828e-01 -1.303592324256896973e+00
2.149000000000000000e+03 3.524587249755859375e+01 1.438717555999755859e+01 -1.348863840103149414e+00 -1.557770609855651855e+00 -8.719903230667114258e-01 -1.437628030776977539e+00
2.150000000000000000e+03 3.802233886718750000e+01 1.808115005493164062e+01 -1.294069409370422363e+00 -1.612906813621520996e+00 -8.720928430557250977e-01 -1.417510628700256348e+00
2.151000000000000000e+03 4.508604431152343750e+01 2.502068710327148438e+01 -1.567342877388000488e+00 -1.417372941970825195e+00 -8.954147100448608398e-01 -1.452211260795593262e+00
2.152000000000000000e+03 4.591326141357421875e+01 2.530093574523925781e+01 -1.478971838951110840e+00 -1.268059253692626953e+00 -8.241093158721923828e-01 -1.387344717979431152e+00
2.153000000000000000e+03 3.097034645080566406e+01 2.187174987792968750e+01 6.178926303982734680e-02 7.792650908231735229e-02 4.191473126411437988e-02 7.149008661508560181e-02
2.154000000000000000e+03 4.736472702026367188e+01 2.662699890136718750e+01 -1.411724686622619629e+00 -1.177153587341308594e+00 -7.766634821891784668e-01 -1.341762065887451172e+00
2.155000000000000000e+03 4.797462081909179688e+01 2.771843719482421875e+01 -1.477717399597167969e+00 -1.216828465461730957e+00 -8.083637356758117676e-01 -1.353077173233032227e+00
2.156000000000000000e+03 6.733985900878906250e+01 3.118930625915527344e+01 1.125522330403327942e-01 2.002651453018188477e+00 6.345611214637756348e-01 2.324721574783325195e+00
2.157000000000000000e+03 3.415558624267578125e+01 1.370341587066650391e+01 -1.427454710006713867e+00 -1.614811420440673828e+00 -9.126798510551452637e-01 -1.466250061988830566e+00
2.158000000000000000e+03 3.550428009033203125e+01 1.467963600158691406e+01 -1.335130453109741211e+00 -1.563945889472961426e+00 -8.697229027748107910e-01 -1.438348054885864258e+00
2.159000000000000000e+03 4.358789443969726562e+01 2.313653945922851562e+01 -1.474202036857604980e+00 -1.358943819999694824e+00 -8.499437570571899414e-01 -1.417654037475585938e+00
2.160000000000000000e+03 3.736743164062500000e+01 3.003799247741699219e+01 5.255834758281707764e-02 6.634788215160369873e-02 3.567186743021011353e-02 5.646858364343643188e-02
2.161000000000000000e+03 6.924707794189453125e+01 3.595253753662109375e+01 1.856657624244689941e+00 6.657721519470214844e+00 2.554313659667968750e+00 -5.258046627044677734e+00
2.162000000000000000e+03 7.017309570312500000e+01 3.810801696777343750e+01 -9.519724249839782715e-01 1.020715999603271484e+01 2.776556253433227539e+00 -2.504445552825927734e+00
2.163000000000000000e+03 2.996297454833984375e+01 2.099798774719238281e+01 6.971324235200881958e-02 8.161094039678573608e-02 4.539725556969642639e-02 7.543163746595382690e-02
2.164000000000000000e+03 2.884025764465332031e+01 2.079613494873046875e+01 6.692440807819366455e-02 8.762273192405700684e-02 4.636413976550102234e-02 7.806055992841720581e-02
2.165000000000000000e+03 4.270679473876953125e+01 2.232682800292968750e+01 -1.451778173446655273e+00 -1.329697728157043457e+00 -8.344427347183227539e-01 -1.397169351577758789e+00
2.166000000000000000e+03 4.765763854980468750e+01 2.689340209960937500e+01 -1.413019061088562012e+00 -1.164058446884155273e+00 -7.731232643127441406e-01 -1.325792789459228516e+00
2.167000000000000000e+03 3.597669601440429688e+01 1.576177501678466797e+01 -1.349368095397949219e+00 -1.633124113082885742e+00 -8.947476744651794434e-01 -1.477007269859313965e+00
2.168000000000000000e+03 2.937755203247070312e+01 2.121538352966308594e+01 6.547187268733978271e-02 8.491793274879455566e-02 4.511694237589836121e-02 7.575420290231704712e-02
2.169000000000000000e+03 2.785485267639160156e+01 1.954119300842285156e+01 7.484487444162368774e-02 9.355801343917846680e-02 5.052086338400840759e-02 8.447516709566116333e-02
2.170000000000000000e+03 2.871274948120117188e+01 1.983971405029296875e+01 7.561003416776657104e-02 8.774757385253906250e-02 4.900728166103363037e-02 8.259890973567962646e-02
2.171000000000000000e+03 2.265120697021484375e+01 1.351301383972167969e+01 1.156578436493873596e-01 1.338592171669006348e-01 7.485511898994445801e-02 1.211748048663139343e-01
2.172000000000000000e+03 2.188761901855468750e+01 1.325068378448486328e+01 1.106432154774665833e-01 1.379634290933609009e-01 7.458199560642242432e-02 1.215643882751464844e-01
2.173000000000000000e+03 1.873392295837402344e+01 1.077820301055908203e+01 1.096367239952087402e-01 1.756742745637893677e-01 8.559329807758331299e-02 1.415668725967407227e-01
2.174000000000000000e+03 1.817939567565917969e+01 9.257620811462402344e+00 1.415427029132843018e-01 1.952508389949798584e-01 1.010380610823631287e-01 1.560384780168533325e-01
2.175000000000000000e+03 2.749585723876953125e+01 1.934726142883300781e+01 7.460121065378189087e-02 9.591051936149597168e-02 5.115351825952529907e-02 8.532125502824783325e-02
2.176000000000000000e+03 2.549502372741699219e+01 1.705853271484375000e+01 8.875601738691329956e-02 1.066453680396080017e-01 5.862041562795639038e-02 9.676656872034072876e-02
2.177000000000000000e+03 2.838660812377929688e+01 2.012016677856445312e+01 7.139681279659271240e-02 9.008076041936874390e-02 4.844327270984649658e-02 8.149332553148269653e-02
2.178000000000000000e+03 2.844367408752441406e+01 2.077545738220214844e+01 6.536775082349777222e-02 9.022108465433120728e-02 4.667665064334869385e-02 7.827924937009811401e-02
2.179000000000000000e+03 4.387962341308593750e+01 2.340706443786621094e+01 -1.482861042022705078e+00 -1.371988296508789062e+00 -8.564547896385192871e-01 -1.415041446685791016e+00
2.180000000000000000e+03 5.003620147705078125e+01 2.966349792480468750e+01 -1.409621357917785645e+00 -1.055330991744995117e+00 -7.394856810569763184e-01 -1.222975254058837891e+00
2.181000000000000000e+03 5.060377120971679688e+01 2.968322753906250000e+01 -1.371622800827026367e+00 -8.894762396812438965e-01 -6.783297061920166016e-01 -1.130025744438171387e+00
2.182000000000000000e+03 3.913298034667968750e+01 3.111099052429199219e+01 5.555395781993865967e-02 5.770211666822433472e-02 3.397682309150695801e-02 5.362068861722946167e-02
2.183000000000000000e+03 4.915343093872070312e+01 2.881449317932128906e+01 -1.475006818771362305e+00 -1.149287104606628418e+00 -7.872881889343261719e-01 -1.288918972015380859e+00
2.184000000000000000e+03 5.001782226562500000e+01 2.910020256042480469e+01 -1.408135056495666504e+00 -9.679709672927856445e-01 -7.128317952156066895e-01 -1.180868983268737793e+00
2.185000000000000000e+03 3.957351684570312500e+01 3.104406929016113281e+01 5.855764821171760559e-02 5.696185305714607239e-02 3.465585038065910339e-02 5.388408899307250977e-02
2.186000000000000000e+03 3.576229476928710938e+01 1.497253704071044922e+01 -1.321429014205932617e+00 -1.570221185684204102e+00 -8.674950599670410156e-01 -1.437441825866699219e+00
2.187000000000000000e+03 2.428692626953125000e+01 1.517564868927001953e+01 9.952998906373977661e-02 1.149634718894958496e-01 6.434803456068038940e-02 1.097901836037635803e-01
2.188000000000000000e+03 4.300487899780273438e+01 3.462034606933593750e+01 7.425474375486373901e-02 4.401513189077377319e-02 3.548096492886543274e-02 5.327118560671806335e-02
2.189000000000000000e+03 3.354091644287109375e+01 1.226601505279541016e+01 -1.372825503349304199e+00 -1.508309364318847656e+00 -8.643404841423034668e-01 -1.415500640869140625e+00
2.190000000000000000e+03 3.447836685180664062e+01 1.350901031494140625e+01 -1.379024624824523926e+00 -1.557834982872009277e+00 -8.810578584671020508e-01 -1.414906382560729980e+00
2.191000000000000000e+03 3.627471542358398438e+01 1.555943775177001953e+01 -1.310006022453308105e+00 -1.583363652229309082e+00 -8.680108785629272461e-01 -1.430152893066406250e+00
2.192000000000000000e+03 3.652740478515625000e+01 1.585316181182861328e+01 -1.309450864791870117e+00 -1.590045928955078125e+00 -8.698490262031555176e-01 -1.425976395606994629e+00
2.193000000000000000e+03 1.989896202087402344e+01 1.167948436737060547e+01 1.117974445223808289e-01 1.551820188760757446e-01 8.009383827447891235e-02 1.324437558650970459e-01
2.194000000000000000e+03 3.710528182983398438e+01 2.976192665100097656e+01 5.338048562407493591e-02 6.709984689950942993e-02 3.614410012960433960e-02 5.631295964121818542e-02
2.195000000000000000e+03 4.069647216796875000e+01 3.236828994750976562e+01 5.999572202563285828e-02 5.057873204350471497e-02 3.317233547568321228e-02 5.231011658906936646e-02
2.196000000000000000e+03 3.677658462524414062e+01 1.614670562744140625e+01 -1.306793928146362305e+00 -1.595866680145263672e+00 -8.707981705665588379e-01 -1.422973752021789551e+00
2.197000000000000000e+03 5.087807464599609375e+01 2.998107337951660156e+01 -1.347316384315490723e+00 -8.488292694091796875e-01 -6.588436961174011230e-01 -1.101043105125427246e+00
2.198000000000000000e+03 3.640923309326171875e+01 2.797963905334472656e+01 5.606772750616073608e-02 7.221249490976333618e-02 3.848406672477722168e-02 5.988940596580505371e-02
2.199000000000000000e+03 3.569314956665039062e+01 2.777396011352539062e+01 5.418656021356582642e-02 7.209549099206924438e-02 3.788461536169052124e-02 6.033805385231971741e-02
2.200000000000000000e+03 4.794873428344726562e+01 2.716109275817871094e+01 -1.416677117347717285e+00 -1.150901794433593750e+00 -7.702736854553222656e-01 -1.310765743255615234e+00
2.201000000000000000e+03 4.852852249145507812e+01 2.770369529724121094e+01 -1.428059935569763184e+00 -1.118976831436157227e+00 -7.641110420227050781e-01 -1.277470707893371582e+00
2.202000000000000000e+03 4.889231491088867188e+01 2.908982658386230469e+01 -1.524537205696105957e+00 -1.264172196388244629e+00 -8.366128206253051758e-01 -1.368490338325500488e+00
2.203000000000000000e+03 4.522108078002929688e+01 3.619248962402343750e+01 8.655548840761184692e-02 3.675764426589012146e-02 3.699393942952156067e-02 5.536660179495811462e-02
2.204000000000000000e+03 2.698047828674316406e+01 1.748927497863769531e+01 9.458409249782562256e-02 1.022610515356063843e-01 5.905354395508766174e-02 9.631347656250000000e-02
2.205000000000000000e+03 4.945025253295898438e+01 2.909478569030761719e+01 -1.459042310714721680e+00 -1.120471358299255371e+00 -7.738541364669799805e-01 -1.269260764122009277e+00
2.206000000000000000e+03 3.473135375976562500e+01 1.380271911621093750e+01 -1.374273538589477539e+00 -1.555548667907714844e+00 -8.789466619491577148e-01 -1.423464059829711914e+00
2.207000000000000000e+03 3.760521316528320312e+01 3.031698799133300781e+01 5.402554944157600403e-02 6.463418155908584595e-02 3.559792041778564453e-02 5.553127080202102661e-02
2.208000000000000000e+03 3.815360260009765625e+01 3.033747291564941406e+01 5.696174129843711853e-02 6.209738925099372864e-02 3.571774065494537354e-02 5.642646923661231995e-02
2.209000000000000000e+03 4.037588500976562500e+01 3.224702835083007812e+01 5.731416493654251099e-02 5.184661969542503357e-02 3.274823725223541260e-02 5.367852747440338135e-02
2.210000000000000000e+03 3.749572372436523438e+01 1.751526451110839844e+01 -1.326440453529357910e+00 -1.668926119804382324e+00 -8.986099362373352051e-01 -1.444382548332214355e+00
2.211000000000000000e+03 4.885683059692382812e+01 2.853710365295410156e+01 -1.484180331230163574e+00 -1.174702644348144531e+00 -7.976648807525634766e-01 -1.306862592697143555e+00
2.212000000000000000e+03 4.479647827148437500e+01 2.474576759338378906e+01 -1.581886291503906250e+00 -1.443764448165893555e+00 -9.076952338218688965e-01 -1.456400275230407715e+00
2.213000000000000000e+03 4.562419891357421875e+01 2.503258132934570312e+01 -1.498063564300537109e+00 -1.296223282814025879e+00 -8.382860422134399414e-01 -1.386637330055236816e+00
2.214000000000000000e+03 4.417093276977539062e+01 2.367787933349609375e+01 -1.493507266044616699e+00 -1.381376385688781738e+00 -8.624650835990905762e-01 -1.408247351646423340e+00
2.215000000000000000e+03 4.099514007568359375e+01 2.078531837463378906e+01 -1.269699454307556152e+00 -1.323504805564880371e+00 -7.779612541198730469e-01 -1.375024676322937012e+00
2.216000000000000000e+03 3.775565338134765625e+01 1.780084037780761719e+01 -1.312217354774475098e+00 -1.647862792015075684e+00 -8.880240917205810547e-01 -1.431771874427795410e+00
2.217000000000000000e+03 3.027200889587402344e+01 2.149680137634277344e+01 6.513532251119613647e-02 8.144310116767883301e-02 4.397352784872055054e-02 7.340393215417861938e-02
2.218000000000000000e+03 5.113879776000976562e+01 3.027838706970214844e+01 -1.326985359191894531e+00 -8.128311634063720703e-01 -6.419449448585510254e-01 -1.069713354110717773e+00
2.219000000000000000e+03 4.974569320678710938e+01 2.937748718261718750e+01 -1.436989188194274902e+00 -1.087049007415771484e+00 -7.572114467620849609e-01 -1.248737335205078125e+00
2.220000000000000000e+03 2.609960937500000000e+01 1.712446022033691406e+01 9.219534695148468018e-02 1.054991483688354492e-01 5.930835008621215820e-02 9.665263444185256958e-02
2.221000000000000000e+03 4.241099548339843750e+01 2.205951881408691406e+01 -1.436142206192016602e+00 -1.330594897270202637e+00 -8.300211429595947266e-01 -1.383738160133361816e+00
2.222000000000000000e+03 3.387047576904296875e+01 2.561256790161132812e+01 5.208496749401092529e-02 7.560081034898757935e-02 3.830573335289955139e-02 6.278226524591445923e-02
2.223000000000000000e+03 4.285678863525390625e+01 3.392862319946289062e+01 6.907401233911514282e-02 4.335641115903854370e-02 3.372912853956222534e-02 5.256654322147369385e-02
2.224000000000000000e+03 3.258808517456054688e+01 1.177206611633300781e+01 -1.461969256401062012e+00 -1.493734002113342285e+00 -8.867109417915344238e-01 -1.442450046539306641e+00
2.225000000000000000e+03 3.518297576904296875e+01 2.706736373901367188e+01 5.158321186900138855e-02 7.302521914243698120e-02 3.738252818584442139e-02 6.151171773672103882e-02
2.226000000000000000e+03 6.952856445312500000e+01 3.638101196289062500e+01 1.189266562461853027e+00 8.068525314331054688e+00 2.777337551116943359e+00 -5.140367984771728516e+00
2.227000000000000000e+03 3.702183914184570312e+01 1.643947219848632812e+01 -1.306625962257385254e+00 -1.601494193077087402e+00 -8.724360466003417969e-01 -1.417603254318237305e+00
2.228000000000000000e+03 3.747090911865234375e+01 2.945421028137207031e+01 5.411960184574127197e-02 6.676300615072250366e-02 3.626478463411331177e-02 5.813359841704368591e-02
2.229000000000000000e+03 3.710380554199218750e+01 2.884612274169921875e+01 5.531032755970954895e-02 6.998081505298614502e-02 3.758734092116355896e-02 5.968365818262100220e-02
2.230000000000000000e+03 2.292219924926757812e+01 1.378502464294433594e+01 1.151127815246582031e-01 1.327285021543502808e-01 7.435238361358642578e-02 1.185431778430938721e-01
2.231000000000000000e+03 2.136730957031250000e+01 1.272892856597900391e+01 1.108739376068115234e-01 1.429749727249145508e-01 7.615467160940170288e-02 1.255918443202972412e-01
2.232000000000000000e+03 2.663260650634765625e+01 1.772561454772949219e+01 8.889765292406082153e-02 1.031720340251922607e-01 5.762090533971786499e-02 9.346322715282440186e-02
2.233000000000000000e+03 5.138153076171875000e+01 3.057020378112792969e+01 -1.304278850555419922e+00 -7.637731432914733887e-01 -6.204155683517456055e-01 -1.039206624031066895e+00
2.234000000000000000e+03 2.653058052062988281e+01 1.909667778015136719e+01 7.204966992139816284e-02 1.014528200030326843e-01 5.205074697732925415e-02 8.521711826324462891e-02
2.235000000000000000e+03 2.488383865356445312e+01 1.700178718566894531e+01 8.492125570774078369e-02 1.092926412820816040e-01 5.826416984200477600e-02 9.726493060588836670e-02
2.236000000000000000e+03 4.264237213134765625e+01 3.373539352416992188e+01 6.652142852544784546e-02 4.427839443087577820e-02 3.323994576930999756e-02 5.196765065193176270e-02
2.237000000000000000e+03 4.079069519042968750e+01 3.343429565429687500e+01 6.302446871995925903e-02 4.969060048460960388e-02 3.381452336907386780e-02 5.142378062009811401e-02
2.238000000000000000e+03 3.947538375854492188e+01 1.885992622375488281e+01 -1.209603548049926758e+00 -1.351518869400024414e+00 -7.683367133140563965e-01 -1.365772247314453125e+00
2.239000000000000000e+03 2.696891593933105469e+01 1.893701362609863281e+01 7.627022266387939453e-02 9.935379028320312500e-02 5.268720164895057678e-02 8.683009445667266846e-02
2.240000000000000000e+03 4.218842315673828125e+01 3.400368499755859375e+01 6.846380233764648438e-02 4.728832468390464783e-02 3.472563996911048889e-02 5.277049541473388672e-02
2.241000000000000000e+03 3.726388549804687500e+01 1.673044013977050781e+01 -1.303927659988403320e+00 -1.603253006935119629e+00 -8.721542358398437500e-01 -1.411757469177246094e+00
2.242000000000000000e+03 3.750527191162109375e+01 1.701831245422363281e+01 -1.302180886268615723e+00 -1.599928140640258789e+00 -8.706327080726623535e-01 -1.402874231338500977e+00
2.243000000000000000e+03 1.551243877410888672e+01 6.880782604217529297e+00 1.442922502756118774e-01 3.225500583648681641e-01 1.400526911020278931e-01 1.991723477840423584e-01
2.244000000000000000e+03 4.231826019287109375e+01 3.360646438598632812e+01 6.451473385095596313e-02 4.365729913115501404e-02 3.245160728693008423e-02 5.053868889808654785e-02
2.245000000000000000e+03 3.966560745239257812e+01 3.143564987182617188e+01 5.662124976515769958e-02 5.558484047651290894e-02 3.366182744503021240e-02 5.460156127810478210e-02
2.246000000000000000e+03 5.225678634643554688e+01 3.133251953125000000e+01 -1.239677906036376953e+00 -5.110396742820739746e-01 -5.252152681350708008e-01 -9.037316441535949707e-01
2.247000000000000000e+03 3.248181915283203125e+01 2.411370277404785156e+01 5.402461811900138855e-02 7.535316795110702515e-02 3.881333768367767334e-02 6.549440324306488037e-02
2.248000000000000000e+03 1.684109687805175781e+01 7.931885719299316406e+00 1.469037085771560669e-01 2.331345230340957642e-01 1.140114739537239075e-01 1.853979378938674927e-01
2.249000000000000000e+03 3.398951721191406250e+01 1.290789127349853516e+01 -1.368709564208984375e+00 -1.548006415367126465e+00 -8.750147819519042969e-01 -1.415348529815673828e+00
2.250000000000000000e+03 3.087149620056152344e+01 2.264531898498535156e+01 5.625399574637413025e-02 7.914810627698898315e-02 4.062063246965408325e-02 7.127559930086135864e-02
2.251000000000000000e+03 4.300193786621093750e+01 2.259619522094726562e+01 -1.461078524589538574e+00 -1.335037946701049805e+00 -8.388349413871765137e-01 -1.408787131309509277e+00
2.252000000000000000e+03 4.125946807861328125e+01 2.103764152526855469e+01 -1.304097771644592285e+00 -1.333349704742431641e+00 -7.912342548370361328e-01 -1.370679140090942383e+00
2.253000000000000000e+03 4.153674697875976562e+01 2.128568840026855469e+01 -1.340460658073425293e+00 -1.339704513549804688e+00 -8.040495514869689941e-01 -1.367548108100891113e+00
2.254000000000000000e+03 3.375782775878906250e+01 1.259377574920654297e+01 -1.363693952560424805e+00 -1.532087922096252441e+00 -8.687345385551452637e-01 -1.419211626052856445e+00
2.255000000000000000e+03 4.446195220947265625e+01 2.394897460937500000e+01 -1.503916978836059570e+00 -1.382759332656860352e+00 -8.660029172897338867e-01 -1.399899005889892578e+00
2.256000000000000000e+03 4.475275421142578125e+01 2.422023963928222656e+01 -1.512515306472778320e+00 -1.373858809471130371e+00 -8.659122586250305176e-01 -1.391676545143127441e+00
2.257000000000000000e+03 2.366622161865234375e+01 1.514651966094970703e+01 9.652061015367507935e-02 1.219041198492050171e-01 6.552741676568984985e-02 1.089554876089096069e-01
2.258000000000000000e+03 2.320358085632324219e+01 1.457595539093017578e+01 1.027984097599983215e-01 1.274597048759460449e-01 6.907743215560913086e-02 1.117734089493751526e-01
2.259000000000000000e+03 2.294831085205078125e+01 1.430157852172851562e+01 1.058633700013160706e-01 1.305913627147674561e-01 7.093641906976699829e-02 1.129190102219581604e-01
2.260000000000000000e+03 5.224644851684570312e+01 3.191838455200195312e+01 -1.116008996963500977e+00 -5.874071717262268066e-01 -5.110248327255249023e-01 -8.712998032569885254e-01
2.261000000000000000e+03 3.078940391540527344e+01 2.232758522033691406e+01 5.821424722671508789e-02 7.964110374450683594e-02 4.135660454630851746e-02 7.166155427694320679e-02
2.262000000000000000e+03 3.041888618469238281e+01 2.182400321960449219e+01 6.191466003656387329e-02 8.110365271568298340e-02 4.290549084544181824e-02 7.247444242238998413e-02
2.263000000000000000e+03 2.082460212707519531e+01 1.224637699127197266e+01 1.118537336587905884e-01 1.487931460142135620e-01 7.819406688213348389e-02 1.279092133045196533e-01
2.264000000000000000e+03 2.052698898315429688e+01 1.203287601470947266e+01 1.118950024247169495e-01 1.500472277402877808e-01 7.858266681432723999e-02 1.295744627714157104e-01
2.265000000000000000e+03 3.407502365112304688e+01 2.589554023742675781e+01 5.246434733271598816e-02 7.527285814285278320e-02 3.832115978002548218e-02 6.201320141553878784e-02
2.266000000000000000e+03 3.422171783447265625e+01 2.621332931518554688e+01 5.060353875160217285e-02 7.532665133476257324e-02 3.777905926108360291e-02 6.158949434757232666e-02
2.267000000000000000e+03 3.194697952270507812e+01 1.132741260528564453e+01 -1.512285470962524414e+00 -1.520241498947143555e+00 -9.097580909729003906e-01 -1.430347919464111328e+00
2.268000000000000000e+03 5.192779159545898438e+01 3.109318161010742188e+01 -1.257493257522583008e+00 -6.256914138793945312e-01 -5.649554133415222168e-01 -9.503292441368103027e-01
2.269000000000000000e+03 5.254629516601562500e+01 3.161408424377441406e+01 -1.205767869949340820e+00 -4.179721474647521973e-01 -4.871220290660858154e-01 -8.649165630340576172e-01
2.270000000000000000e+03 3.649215698242187500e+01 2.892161941528320312e+01 5.297102406620979309e-02 7.042254507541656494e-02 3.701807186007499695e-02 5.725397542119026184e-02
2.271000000000000000e+03 3.335189437866210938e+01 1.190796756744384766e+01 -1.376763939857482910e+00 -1.475500941276550293e+00 -8.556795120239257812e-01 -1.396932601928710938e+00
2.272000000000000000e+03 1.857550048828125000e+01 1.043143177032470703e+01 1.156778037548065186e-01 1.808752715587615967e-01 8.896592259407043457e-02 1.437077969312667847e-01
2.273000000000000000e+03 5.525981903076171875e+01 3.153010368347167969e+01 -1.413941979408264160e+00 1.994501650333404541e-01 -3.643475174903869629e-01 -8.073705434799194336e-01
2.274000000000000000e+03 5.251728057861328125e+01 3.219330978393554688e+01 -1.067884445190429688e+00 -4.704631268978118896e-01 -4.615042805671691895e-01 -8.237174749374389648e-01
2.275000000000000000e+03 3.537489700317382812e+01 2.766725540161132812e+01 5.213452875614166260e-02 7.205143570899963379e-02 3.725579008460044861e-02 5.975315347313880920e-02
2.276000000000000000e+03 1.536295700073242188e+01 6.383835315704345703e+00 1.678454875946044922e-01 3.403644263744354248e-01 1.524629741907119751e-01 2.190854251384735107e-01
2.277000000000000000e+03 1.454331779479980469e+01 7.137036800384521484e+00 1.002492755651473999e-01 3.732638061046600342e-01 1.420539319515228271e-01 1.433786004781723022e-01
2.278000000000000000e+03 1.837075805664062500e+01 1.011042594909667969e+01 1.180722042918205261e-01 1.862745136022567749e-01 9.130401909351348877e-02 1.477663367986679077e-01
2.279000000000000000e+03 6.777827453613281250e+01 3.121327209472656250e+01 3.695966303348541260e-01 2.572256565093994141e+00 8.825559616088867188e-01 2.922120332717895508e+00
2.280000000000000000e+03 1.341178131103515625e+01 5.302710533142089844e+00 8.714187145233154297e-02 6.756455898284912109e-01 2.288362383842468262e-01 3.732386976480484009e-02
2.281000000000000000e+03 1.387025642395019531e+01 5.126189231872558594e+00 1.096232384443283081e-01 7.141518592834472656e-01 2.471325397491455078e-01 1.487719267606735229e-01
2.282000000000000000e+03 1.608741950988769531e+01 7.229194164276123047e+00 1.466362774372100830e-01 2.802862226963043213e-01 1.280767470598220825e-01 1.963864415884017944e-01
2.283000000000000000e+03 1.525951385498046875e+01 7.067805290222167969e+00 1.289270818233489990e-01 3.367382884025573730e-01 1.396996080875396729e-01 1.806368976831436157e-01
2.284000000000000000e+03 1.525109577178955078e+01 6.741596221923828125e+00 1.368982344865798950e-01 3.560240864753723145e-01 1.478766947984695435e-01 1.939837038516998291e-01
2.285000000000000000e+03 7.569683837890625000e+01 3.722377014160156250e+01 1.937388479709625244e-01 1.021083259582519531e+01 3.121371507644653320e+00 1.747191071510314941e+00
2.286000000000000000e+03 7.150320434570312500e+01 3.569047927856445312e+01 5.263842344284057617e-01 1.935389137268066406e+01 5.964082717895507812e+00 4.617180228233337402e-01
2.287000000000000000e+03 7.073149871826171875e+01 3.689604568481445312e+01 -1.046207666397094727e+00 1.391741371154785156e+01 3.861361742019653320e+00 -2.301306724548339844e+00
2.288000000000000000e+03 7.113309478759765625e+01 3.583940505981445312e+01 -1.610870212316513062e-01 1.817249298095703125e+01 5.403421878814697266e+00 -1.114799737930297852e+00
2.289000000000000000e+03 1.318940448760986328e+01 3.986675739288330078e+00 2.465443611145019531e-01 1.045362114906311035e+00 3.875719606876373291e-01 -1.620028316974639893e-01
2.290000000000000000e+03 3.115740585327148438e+01 5.760480880737304688e+00 -1.709877610206604004e+00 -9.891879558563232422e-01 -8.097196817398071289e-01 -1.077773690223693848e+00
2.291000000000000000e+03 2.170865821838378906e+01 1.515165716409683228e-01 -1.821965336799621582e+00 2.181577235460281372e-01 -4.811422824859619141e-01 -2.680807590484619141e+00
2.292000000000000000e+03 2.243066787719726562e+01 -2.037521265447139740e-02 -9.423689842224121094e-01 9.399455189704895020e-01 -7.270309142768383026e-04 -1.620488643646240234e+00
2.293000000000000000e+03 1.143518447875976562e+01 2.855062723159790039e+00 5.895360112190246582e-01 -1.960056871175765991e-01 1.180591061711311340e-01 -2.609899826347827911e-02
2.294000000000000000e+03 1.665551376342773438e+01 -2.983542203903198242e+00 -1.534147024154663086e+00 -1.140019655227661133e+00 -8.022500276565551758e-01 -1.146535038948059082e+00
2.295000000000000000e+03 1.670459747314453125e+01 -3.694039583206176758e+00 -1.373925566673278809e+00 -1.211943387985229492e+00 -7.757607102394104004e-01 -1.193971753120422363e+00
2.296000000000000000e+03 3.196117401123046875e+01 1.009461784362792969e+01 -1.362745523452758789e+00 -1.431089401245117188e+00 -8.381504416465759277e-01 -1.311938047409057617e+00
2.297000000000000000e+03 3.122828483581542969e+01 8.434734344482421875e+00 -1.254720091819763184e+00 -1.399504423141479492e+00 -7.962673306465148926e-01 -1.260395646095275879e+00
2.298000000000000000e+03 3.044467353820800781e+01 9.231581687927246094e+00 -1.468741178512573242e+00 -1.354409337043762207e+00 -8.469451665878295898e-01 -1.281781554222106934e+00
2.299000000000000000e+03 7.121342468261718750e+01 3.662415313720703125e+01 -1.094291687011718750e+00 1.558067512512207031e+01 4.345914840698242188e+00 -1.327694058418273926e+00
2.300000000000000000e+03 7.015344238281250000e+01 3.658007049560546875e+01 -6.828823685646057129e-02 1.112660884857177734e+01 3.317496061325073242e+00 -3.549561500549316406e+00
2.301000000000000000e+03 4.659812164306640625e+01 3.679724884033203125e+01 1.180280372500419617e-01 3.640612959861755371e-02 4.633025079965591431e-02 5.845829844474792480e-02
2.302000000000000000e+03 4.441917037963867188e+01 3.717728805541992188e+01 9.963084757328033447e-02 3.080116584897041321e-02 3.912960365414619446e-02 4.226855188608169556e-02
2.303000000000000000e+03 5.712107849121093750e+01 3.873103332519531250e+01 2.321604788303375244e-01 -2.206015884876251221e-01 3.467664355412125587e-03 3.759042322635650635e-01
2.304000000000000000e+03 5.446479797363281250e+01 4.038484191894531250e+01 2.472168058156967163e-01 -2.185213863849639893e-01 8.608628064393997192e-03 1.080782562494277954e-01
2.305000000000000000e+03 6.505106353759765625e+01 3.127253723144531250e+01 -1.180921554565429688e+00 4.560430943965911865e-01 -2.174635380506515503e-01 5.326370000839233398e-01
2.306000000000000000e+03 6.612447357177734375e+01 3.072332763671875000e+01 -2.922667264938354492e-01 1.240708112716674805e+00 2.845324277877807617e-01 1.432560086250305176e+00
2.307000000000000000e+03 1.030520629882812500e+01 -4.386431217193603516e+00 -4.946958124637603760e-01 -1.353834420442581177e-01 -1.890237778425216675e-01 -4.115657210350036621e-01
2.308000000000000000e+03 3.169622039794921875e+01 6.705340862274169922e+00 -1.438322544097900391e+00 -1.118507266044616699e+00 -7.670489549636840820e-01 -1.186047792434692383e+00
2.309000000000000000e+03 2.939235115051269531e+01 5.125149726867675781e+00 -2.268302202224731445e+00 -1.337023854255676270e+00 -1.081597805023193359e+00 -1.124267578125000000e+00
2.310000000000000000e+03 2.875202751159667969e+01 4.732770442962646484e+00 -2.370911121368408203e+00 -1.335320591926574707e+00 -1.111869573593139648e+00 -1.165274858474731445e+00
2.311000000000000000e+03 2.197948074340820312e+01 -3.275533318519592285e-01 -8.067706227302551270e-01 9.446977972984313965e-01 4.137815535068511963e-02 -1.929521918296813965e+00
2.312000000000000000e+03 5.141950607299804688e+01 3.956998062133789062e+01 2.122390270233154297e-01 9.284534491598606110e-03 6.645707041025161743e-02 5.575077608227729797e-02
2.313000000000000000e+03 5.024599075317382812e+01 3.910184478759765625e+01 1.910264790058135986e-01 1.153569202870130539e-03 5.765401199460029602e-02 4.016217216849327087e-02
2.314000000000000000e+03 1.104629707336425781e+01 -4.423942089080810547e+00 -5.716168284416198730e-01 -1.349023282527923584e-01 -2.119557410478591919e-01 -4.664902985095977783e-01
2.315000000000000000e+03 8.828701019287109375e+00 -4.361962795257568359e+00 -3.633135557174682617e-01 -1.064884588122367859e-01 -1.409406065940856934e-01 -3.154490590095520020e-01
2.316000000000000000e+03 8.240068435668945312e+00 3.910493373870849609e+00 1.145762354135513306e-01 -1.941887885332107544e-01 -2.388376742601394653e-02 1.765373051166534424e-01
2.317000000000000000e+03 7.567707538604736328e+00 3.192722558975219727e+00 -1.022376213222742081e-02 -1.602395176887512207e-01 -5.113898590207099915e-02 2.205238640308380127e-01
2.318000000000000000e+03 6.308143234252929688e+01 3.140368843078613281e+01 -1.748304605484008789e+00 2.077034264802932739e-01 -4.621803462505340576e-01 -8.487798273563385010e-02
2.319000000000000000e+03 5.249824142456054688e+01 4.015432739257812500e+01 2.106067389249801636e-01 -6.408569961786270142e-02 4.395631328225135803e-02 1.087102964520454407e-01
2.320000000000000000e+03 9.569835662841796875e+00 -4.364927291870117188e+00 -4.335398972034454346e-01 -9.636653959751129150e-02 -1.589719355106353760e-01 -3.563708961009979248e-01
2.321000000000000000e+03 7.398187637329101562e+00 4.614209651947021484e+00 1.038228869438171387e-01 -1.573368459939956665e-01 -1.605419069528579712e-02 1.416523754596710205e-01
2.322000000000000000e+03 6.827127456665039062e+00 3.859486579895019531e+00 2.689479291439056396e-02 -1.409823298454284668e-01 -3.422626107931137085e-02 1.780364662408828735e-01
2.323000000000000000e+03 7.508923530578613281e+00 3.891293525695800781e+00 6.314998120069503784e-02 -1.614553928375244141e-01 -2.949162200093269348e-02 1.783123165369033813e-01
2.324000000000000000e+03 4.898147106170654297e+00 3.313686847686767578e+00 -3.833631426095962524e-02 -7.821118831634521484e-02 -3.496425226330757141e-02 1.352728009223937988e-01
2.325000000000000000e+03 2.765290737152099609e+00 5.306304454803466797e+00 8.912296034395694733e-03 -1.069969162344932556e-01 -2.942538633942604065e-02 7.999477535486221313e-02
2.326000000000000000e+03 6.124531745910644531e+00 4.470953464508056641e+00 4.285542294383049011e-02 -1.285595148801803589e-01 -2.571122907102108002e-02 1.480847895145416260e-01
2.327000000000000000e+03 2.753744602203369141e+00 4.100108623504638672e+00 -7.135918829590082169e-03 -8.090241253376007080e-02 -2.641149982810020447e-02 8.125494420528411865e-02
2.328000000000000000e+03 1.660566329956054688e+00 5.129414558410644531e+00 1.589326653629541397e-03 -1.041263043880462646e-01 -3.076109290122985840e-02 5.222183465957641602e-02
2.329000000000000000e+03 5.429290390014648438e+01 3.230924606323242188e+01 -1.257538318634033203e+00 5.696516484022140503e-02 -3.601719141006469727e-01 -7.420035600662231445e-01
2.330000000000000000e+03 1.225074577331542969e+01 3.240636825561523438e+00 6.521642208099365234e-01 3.588741123676300049e-01 3.033114969730377197e-01 -3.652108907699584961e-01
2.331000000000000000e+03 5.301904678344726562e+01 3.209508132934570312e+01 -1.142096400260925293e+00 -2.587491273880004883e-01 -4.202536642551422119e-01 -7.946333885192871094e-01
2.332000000000000000e+03 6.233958053588867188e+01 3.094211769104003906e+01 -1.489054441452026367e+00 3.013522922992706299e-01 -3.563106358051300049e-01 -1.900839954614639282e-01
2.333000000000000000e+03 5.823551177978515625e+01 3.134455871582031250e+01 -1.623003959655761719e+00 2.643528282642364502e-01 -4.075953364372253418e-01 -6.957500576972961426e-01
2.334000000000000000e+03 5.721294784545898438e+01 3.047358703613281250e+01 -1.405601739883422852e+00 3.216862678527832031e-01 -3.251746296882629395e-01 -7.905372381210327148e-01
2.335000000000000000e+03 5.999183654785156250e+01 3.071962547302246094e+01 -1.472735404968261719e+00 3.126372396945953369e-01 -3.480294644832611084e-01 -5.526988506317138672e-01
2.336000000000000000e+03 6.107795715332031250e+01 3.098425865173339844e+01 -1.597862958908081055e+00 2.307231873273849487e-01 -4.101419448852539062e-01 -4.170290231704711914e-01
2.337000000000000000e+03 6.432312774658203125e+01 3.073861122131347656e+01 -9.919890761375427246e-01 5.348210930824279785e-01 -1.371503919363021851e-01 4.025622606277465820e-01
2.338000000000000000e+03 4.893851089477539062e+01 3.928819274902343750e+01 1.710445284843444824e-01 2.562434412539005280e-02 5.900065973401069641e-02 4.082575067877769470e-02
2.339000000000000000e+03 5.910485839843750000e+01 3.096824645996093750e+01 -1.563600063323974609e+00 2.826291322708129883e-01 -3.842912614345550537e-01 -6.471523642539978027e-01
2.340000000000000000e+03 5.592872619628906250e+01 3.175847244262695312e+01 -1.470183610916137695e+00 2.363481223583221436e-01 -3.701506257057189941e-01 -7.750480175018310547e-01
2.341000000000000000e+03 5.624605941772460938e+01 3.101073074340820312e+01 -1.452245354652404785e+00 2.722078561782836914e-01 -3.540112376213073730e-01 -8.195886611938476562e-01
2.342000000000000000e+03 5.294369888305664062e+01 3.138016319274902344e+01 -1.274402618408203125e+00 -2.568431198596954346e-01 -4.593737423419952393e-01 -8.616665601730346680e-01
2.343000000000000000e+03 5.441384124755859375e+01 3.180956840515136719e+01 -1.344148278236389160e+00 8.406912535429000854e-02 -3.780237436294555664e-01 -8.102793693542480469e-01
2.344000000000000000e+03 5.002104759216308594e+00 -4.669908046722412109e+00 -1.327424496412277222e-01 -1.009276136755943298e-01 -7.010102272033691406e-02 -1.544496715068817139e-01
2.345000000000000000e+03 5.778706550598144531e+00 -4.573748588562011719e+00 -1.640579551458358765e-01 -1.038698032498359680e-01 -8.037832379341125488e-02 -1.800734102725982666e-01
2.346000000000000000e+03 6.555320262908935547e+00 -4.486579895019531250e+00 -2.120004147291183472e-01 -9.657363593578338623e-02 -9.257221221923828125e-02 -2.121692448854446411e-01
2.347000000000000000e+03 7.998993396759033203e+00 -3.565057754516601562e+00 -2.881668508052825928e-01 -6.331004947423934937e-02 -1.054430752992630005e-01 -2.118983566761016846e-01
2.348000000000000000e+03 7.324658870697021484e+00 -4.420923233032226562e+00 -2.545308172702789307e-01 -1.008093059062957764e-01 -1.066020354628562927e-01 -2.425995469093322754e-01
2.349000000000000000e+03 2.679878950119018555e+00 -4.783384799957275391e+00 -3.951968252658843994e-02 -8.493696153163909912e-02 -3.733699396252632141e-02 -7.277824729681015015e-02
2.350000000000000000e+03 3.510978221893310547e+00 -5.778613090515136719e+00 -6.961376965045928955e-02 -1.364695131778717041e-01 -6.182498484849929810e-02 -1.349497437477111816e-01
2.351000000000000000e+03 2.594812631607055664e+00 -5.691808700561523438e+00 -4.794205725193023682e-02 -1.116369068622589111e-01 -4.787368699908256531e-02 -9.558314830064773560e-02
2.352000000000000000e+03 1.812060928344726562e+01 -4.025711536407470703e+00 -7.077581286430358887e-01 -2.670768022537231445e+00 -1.013557910919189453e+00 -1.185394287109375000e+00
2.353000000000000000e+03 1.589687728881835938e+01 -3.842109918594360352e+00 -1.224418282508850098e+00 -9.642204046249389648e-01 -6.565915942192077637e-01 -1.082743525505065918e+00
2.354000000000000000e+03 4.383744812011718750e+01 3.583446502685546875e+01 8.725449442863464355e-02 3.949758037924766541e-02 3.802562505006790161e-02 5.229415744543075562e-02
2.355000000000000000e+03 4.445532226562500000e+01 3.575629425048828125e+01 8.162071555852890015e-02 3.734697774052619934e-02 3.569030761718750000e-02 5.083810165524482727e-02
2.356000000000000000e+03 1.078196048736572266e+01 3.718851089477539062e+00 4.294462800025939941e-01 -1.395891010761260986e-01 8.695714920759201050e-02 -5.108886212110519409e-02
2.357000000000000000e+03 9.027907371520996094e+00 3.912245512008666992e+00 1.943126916885375977e-01 -2.116221636533737183e-01 -5.192843731492757797e-03 1.397823244333267212e-01
2.358000000000000000e+03 2.218477439880371094e+01 3.774923384189605713e-01 -2.005198955535888672e+00 3.373425602912902832e-01 -5.003569126129150391e-01 -2.047626018524169922e+00
2.359000000000000000e+03 4.719367218017578125e+01 3.853306198120117188e+01 1.443145573139190674e-01 3.317561373114585876e-02 5.324704945087432861e-02 3.715223819017410278e-02
2.360000000000000000e+03 1.499051761627197266e+01 -5.552668094635009766e+00 -6.777409315109252930e-01 -7.875019311904907227e-01 -4.395728707313537598e-01 -9.570808410644531250e-01
2.361000000000000000e+03 4.786313247680664062e+01 3.739437866210937500e+01 1.530507057905197144e-01 4.358296468853950500e-02 5.899010226130485535e-02 5.604241043329238892e-02
2.362000000000000000e+03 1.179937839508056641e+01 -4.474641799926757812e+00 -6.538681387901306152e-01 -2.082646936178207397e-01 -2.586398422718048096e-01 -5.478846430778503418e-01
2.363000000000000000e+03 1.256670093536376953e+01 -4.532809734344482422e+00 -7.204614877700805664e-01 -2.463514655828475952e-01 -2.900438904762268066e-01 -6.250548958778381348e-01
2.364000000000000000e+03 6.713780975341796875e+01 3.721746826171875000e+01 6.321510076522827148e-01 3.334020853042602539e+00 1.189851522445678711e+00 -1.682590961456298828e+00
2.365000000000000000e+03 6.665590667724609375e+01 3.819789505004882812e+01 6.289095878601074219e-01 2.981933355331420898e+00 1.083252906799316406e+00 -1.000676631927490234e+00
2.366000000000000000e+03 5.097937011718750000e+01 3.914838409423828125e+01 2.163937985897064209e-01 1.319692656397819519e-02 6.887722015380859375e-02 5.251259356737136841e-02
2.367000000000000000e+03 4.991318893432617188e+01 3.997370910644531250e+01 1.771321147680282593e-01 1.915151812136173248e-02 5.888509005308151245e-02 2.839934080839157104e-02
2.368000000000000000e+03 6.063198089599609375e+01 3.838210678100585938e+01 2.142568379640579224e-01 -1.968296468257904053e-01 5.228160880506038666e-03 4.096594452857971191e-01
2.369000000000000000e+03 5.672443771362304688e+01 3.991863632202148438e+01 3.951439857482910156e-01 -4.299149811267852783e-01 -1.043129526078701019e-02 2.230072617530822754e-01
2.370000000000000000e+03 4.536600875854492188e+01 3.700564575195312500e+01 1.114164888858795166e-01 3.430907428264617920e-02 4.371766746044158936e-02 5.003535002470016479e-02
2.371000000000000000e+03 4.733678054809570312e+01 3.718410110473632812e+01 1.346888840198516846e-01 4.062475636601448059e-02 5.259409174323081970e-02 5.808586627244949341e-02
2.372000000000000000e+03 1.597806072235107422e+01 -4.718140125274658203e+00 -8.830381035804748535e-01 -1.117548584938049316e+00 -6.001759767532348633e-01 -1.065153479576110840e+00
2.373000000000000000e+03 1.503324127197265625e+01 -3.878221273422241211e+00 -1.102350115776062012e+00 -6.131269931793212891e-01 -5.146431326866149902e-01 -8.899932503700256348e-01
2.374000000000000000e+03 1.686460876464843750e+01 -4.455512046813964844e+00 -8.696331381797790527e-01 -1.616458654403686523e+00 -7.458275556564331055e-01 -1.236966371536254883e+00
2.375000000000000000e+03 6.472132873535156250e+01 4.030289840698242188e+01 9.946373105049133301e-01 1.404845356941223145e+00 7.198448181152343750e-01 -1.227073371410369873e-01
2.376000000000000000e+03 2.669066047668457031e+01 -2.589234590530395508e+00 1.003248214721679688e+00 -7.150360196828842163e-02 2.795234024524688721e-01 -4.977208673954010010e-01
2.377000000000000000e+03 2.608135604858398438e+01 -1.738047361373901367e+00 7.402296066284179688e-01 7.755743712186813354e-02 2.453361153602600098e-01 -5.201883912086486816e-01
2.378000000000000000e+03 1.926346969604492188e+01 -1.629092597961425781e+01 2.699196338653564453e-01 -1.592806428670883179e-01 3.319169953465461731e-02 -2.984970211982727051e-01
2.379000000000000000e+03 2.035823249816894531e+01 -1.802675437927246094e+01 2.468754947185516357e-01 -2.387556433677673340e-02 6.689997762441635132e-02 -3.095470070838928223e-01
2.380000000000000000e+03 2.167364692687988281e+01 -2.007584381103515625e+01 2.298464775085449219e-01 1.346136629581451416e-01 1.093380451202392578e-01 -3.314448595046997070e-01
2.381000000000000000e+03 3.678247833251953125e+01 -1.299835681915283203e+01 3.094467222690582275e-01 -3.479600250720977783e-01 -1.155399065464735031e-02 -9.673890657722949982e-03
2.382000000000000000e+03 3.502540969848632812e+01 -1.080434989929199219e+01 4.449961483478546143e-01 -3.969219326972961426e-01 1.442226953804492950e-02 -8.554820716381072998e-02
2.383000000000000000e+03 3.644178771972656250e+01 -1.500403499603271484e+01 1.344456076622009277e-01 -4.009864330291748047e-01 -7.996224611997604370e-02 8.205872774124145508e-02
2.384000000000000000e+03 3.759072113037109375e+01 -1.418489933013916016e+01 2.223118245601654053e-01 -3.075824677944183350e-01 -2.558119408786296844e-02 1.942389830946922302e-02
2.385000000000000000e+03 3.419573211669921875e+01 -9.737729072570800781e+00 4.809901416301727295e-01 -3.999564051628112793e-01 2.431012503802776337e-02 -1.332594156265258789e-01
2.386000000000000000e+03 2.748761558532714844e+01 -1.913752198219299316e+00 6.186698079109191895e-01 -3.168908655643463135e-01 9.053368866443634033e-02 -3.141047060489654541e-01
2.387000000000000000e+03 3.341298675537109375e+01 -8.675433158874511719e+00 6.222797036170959473e-01 -4.095006585121154785e-01 6.383370608091354370e-02 -1.730675101280212402e-01
2.388000000000000000e+03 3.248965835571289062e+01 -9.373918533325195312e+00 4.663183689117431641e-01 -3.011300861835479736e-01 4.955648630857467651e-02 -2.027022987604141235e-01
2.389000000000000000e+03 4.093634796142578125e+01 -2.035847473144531250e+01 -1.492361631244421005e-02 -6.069273501634597778e-02 -2.268490567803382874e-02 1.415482163429260254e-01
2.390000000000000000e+03 2.235083007812500000e+01 -2.121775436401367188e+01 2.296173274517059326e-01 2.336857318878173828e-01 1.389909237623214722e-01 -3.370356559753417969e-01
2.391000000000000000e+03 4.503658294677734375e+01 -2.705390739440917969e+01 -1.624253988265991211e-01 6.314436793327331543e-01 1.407054811716079712e-01 1.355504691600799561e-01
2.392000000000000000e+03 4.426002120971679688e+01 -2.604446983337402344e+01 -1.470132470130920410e-01 4.407390356063842773e-01 8.811773359775543213e-02 1.429009586572647095e-01
2.393000000000000000e+03 4.227604293823242188e+01 -2.269181060791015625e+01 -7.078045606613159180e-02 9.745069593191146851e-02 8.001072332262992859e-03 1.488212049007415771e-01
2.394000000000000000e+03 2.188780975341796875e+01 -2.313470458984375000e+01 2.429298609495162964e-01 1.723532378673553467e-01 1.245849281549453735e-01 -3.500300347805023193e-01
2.395000000000000000e+03 2.463581466674804688e+01 -2.284362030029296875e+01 2.234277129173278809e-01 4.328911900520324707e-01 1.968956738710403442e-01 -3.677843213081359863e-01
2.396000000000000000e+03 4.294554901123046875e+01 -2.383883285522460938e+01 -1.076152622699737549e-01 1.950834840536117554e-01 2.624046616256237030e-02 1.532659232616424561e-01
2.397000000000000000e+03 4.186337280273437500e+01 -2.457188796997070312e+01 -1.467172801494598389e-01 -6.530299782752990723e-02 -6.360608339309692383e-02 2.022497951984405518e-01
2.398000000000000000e+03 3.897307205200195312e+01 -1.670585823059082031e+01 1.027139723300933838e-01 -2.172981649637222290e-01 -3.437525779008865356e-02 8.244349807500839233e-02
2.399000000000000000e+03 2.108246040344238281e+01 -1.893818283081054688e+01 2.308629900217056274e-01 1.010464280843734741e-01 9.957282990217208862e-02 -3.059806227684020996e-01
2.400000000000000000e+03 2.557007789611816406e+01 -2.537241363525390625e+01 2.485518902540206909e-01 5.176044106483459473e-01 2.298468947410583496e-01 -3.872031271457672119e-01
2.401000000000000000e+03 2.748226547241210938e+01 -2.695789575576782227e+00 1.030213713645935059e+00 -8.033109456300735474e-02 2.849647700786590576e-01 -3.656344115734100342e-01
2.402000000000000000e+03 7.558351898193359375e+01 1.258184909820556641e+01 -7.331185508519411087e-03 8.132697105407714844e+00 2.437609672546386719e+00 4.196185469627380371e-01
2.403000000000000000e+03 7.560981750488281250e+01 5.534706115722656250e+00 2.732359804213047028e-02 7.625231266021728516e+00 2.295766353607177734e+00 3.627476692199707031e-01
2.404000000000000000e+03 7.671823120117187500e+01 1.328759908676147461e+00 1.447990443557500839e-02 7.635693073272705078e+00 2.295051813125610352e+00 2.411822229623794556e-01
2.405000000000000000e+03 7.530986022949218750e+01 -1.135921776294708252e-01 3.247744962573051453e-02 7.191592693328857422e+00 2.167221069335937500e+00 3.118255138397216797e-01
2.406000000000000000e+03 7.388754272460937500e+01 -1.664732098579406738e+00 5.147673189640045166e-02 6.747439861297607422e+00 2.039674997329711914e+00 3.676205873489379883e-01
2.407000000000000000e+03 7.440257263183593750e+01 -8.460280418395996094e+00 3.036690317094326019e-02 6.588123798370361328e+00 1.985547184944152832e+00 2.571111917495727539e-01
2.408000000000000000e+03 7.555888366699218750e+01 -1.511529159545898438e+01 1.367595512419939041e-02 6.581698417663574219e+00 1.978612184524536133e+00 1.608688682317733765e-01
2.409000000000000000e+03 7.676803588867187500e+01 2.737433195114135742e+00 1.452935021370649338e-02 7.744562625885009766e+00 2.327727556228637695e+00 2.507159709930419922e-01
2.410000000000000000e+03 7.551109313964843750e+01 -4.369587421417236328e+00 2.573956921696662903e-02 7.005434513092041016e+00 2.109352111816406250e+00 2.535213828086853027e-01
2.411000000000000000e+03 7.683708953857421875e+01 -5.660998821258544922e+00 1.350953709334135056e-02 7.234823226928710938e+00 2.174499750137329102e+00 1.733020693063735962e-01
2.412000000000000000e+03 7.557832336425781250e+01 -5.734814643859863281e+00 2.479473128914833069e-02 6.958421707153320312e+00 2.094964981079101562e+00 2.359107285737991333e-01
2.413000000000000000e+03 7.683495330810546875e+01 8.354359626770019531e+00 1.091524213552474976e-02 8.213857650756835938e+00 2.467432022094726562e+00 2.969999015331268311e-01
2.414000000000000000e+03 7.561306762695312500e+01 6.923230648040771484e+00 2.732575684785842896e-02 7.720550537109375000e+00 2.324362993240356445e+00 3.807782530784606934e-01
2.415000000000000000e+03 7.552261352539062500e+01 1.115893173217773438e+01 7.543301209807395935e-03 8.016867637634277344e+00 2.407323122024536133e+00 4.185406267642974854e-01
2.416000000000000000e+03 7.549282073974609375e+01 -1.781788635253906250e+01 8.647914975881576538e-03 6.483324050903320312e+00 1.947591662406921387e+00 1.474555134773254395e-01
2.417000000000000000e+03 7.564202880859375000e+01 -1.109789848327636719e+01 1.598740741610527039e-02 6.742468833923339844e+00 2.027536869049072266e+00 1.849275678396224976e-01
2.418000000000000000e+03 7.687828826904296875e+01 -1.246468830108642578e+01 7.539532147347927094e-03 6.931439399719238281e+00 2.081693649291992188e+00 1.269954890012741089e-01
2.419000000000000000e+03 7.562121582031250000e+01 -1.243660449981689453e+01 1.498035620898008347e-02 6.687389850616455078e+00 2.010710954666137695e+00 1.756366193294525146e-01
2.420000000000000000e+03 7.551869201660156250e+01 9.740186691284179688e+00 1.879343762993812561e-02 7.910258293151855469e+00 2.378715515136718750e+00 4.153611958026885986e-01
2.421000000000000000e+03 7.552638244628906250e+01 -1.646218681335449219e+01 1.188573893159627914e-02 6.531712055206298828e+00 1.963079214096069336e+00 1.532116830348968506e-01
2.422000000000000000e+03 7.545865631103515625e+01 -1.918129158020019531e+01 7.711623329669237137e-03 6.438398838043212891e+00 1.933833122253417969e+00 1.432003229856491089e-01
2.423000000000000000e+03 7.678847503662109375e+01 -1.790736961364746094e+01 4.220838192850351334e-03 6.717314720153808594e+00 2.016460657119750977e+00 1.065449714660644531e-01
2.424000000000000000e+03 7.478655242919921875e+01 1.959046554565429688e+01 -2.776283025741577148e-01 8.509314537048339844e+00 2.469505786895751953e+00 3.284570872783660889e-01
2.425000000000000000e+03 7.562125396728515625e+01 1.400922012329101562e+01 -3.198512643575668335e-02 8.268863677978515625e+00 2.471063613891601562e+00 4.190248847007751465e-01
2.426000000000000000e+03 7.738275909423828125e+01 2.933162689208984375e+01 -9.035339951515197754e-02 8.853880882263183594e+00 2.629058122634887695e+00 -1.468887805938720703e+00
2.427000000000000000e+03 7.645042419433593750e+01 2.796428298950195312e+01 -5.002689957618713379e-01 9.627911567687988281e+00 2.738292694091796875e+00 -1.334329009056091309e+00
2.428000000000000000e+03 7.634811401367187500e+01 2.674023246765136719e+01 -5.820567607879638672e-01 9.637729644775390625e+00 2.716701984405517578e+00 -1.029994606971740723e+00
2.429000000000000000e+03 7.533775329589843750e+01 -2.853841018676757812e+01 1.067218184471130371e-02 6.186730861663818359e+00 1.859220862388610840e+00 1.094067841768264771e-01
2.430000000000000000e+03 7.413018035888671875e+01 -2.315472602844238281e+01 1.528166420757770538e-02 6.091740608215332031e+00 1.832106590270996094e+00 1.636082231998443604e-01
2.431000000000000000e+03 7.304338073730468750e+01 3.342385101318359375e+01 5.747447967529296875e+00 1.364990043640136719e+01 5.819204330444335938e+00 -1.189669966697692871e+00
2.432000000000000000e+03 7.748011779785156250e+01 3.070087051391601562e+01 2.138523459434509277e-01 8.379998207092285156e+00 2.578155279159545898e+00 -1.428891181945800781e+00
2.433000000000000000e+03 7.580900573730468750e+01 1.817864990234375000e+01 -1.430123746395111084e-01 8.704341888427734375e+00 2.568398952484130859e+00 2.958341538906097412e-01
2.434000000000000000e+03 7.700640106201171875e+01 1.813398933410644531e+01 -8.551331609487533569e-02 9.140000343322753906e+00 2.716346025466918945e+00 1.921274065971374512e-01
2.435000000000000000e+03 7.591516876220703125e+01 1.952734375000000000e+01 -2.014391720294952393e-01 8.876033782958984375e+00 2.602378606796264648e+00 2.070475965738296509e-01
2.436000000000000000e+03 7.416725921630859375e+01 -2.577664375305175781e+01 1.147178653627634048e-02 6.052139282226562500e+00 1.819083333015441895e+00 1.456644684076309204e-01
2.437000000000000000e+03 7.675617218017578125e+01 -2.606693458557128906e+01 1.783082843758165836e-03 6.475947856903076172e+00 1.943319320678710938e+00 8.614375442266464233e-02
2.438000000000000000e+03 7.544538879394531250e+01 -2.324275016784667969e+01 7.443053182214498520e-03 6.325564384460449219e+00 1.899902343750000000e+00 1.253661364316940308e-01
2.439000000000000000e+03 7.595590209960937500e+01 3.019269180297851562e+01 6.890705972909927368e-02 9.973654747009277344e+00 3.012768507003784180e+00 -1.756454110145568848e+00
2.440000000000000000e+03 7.405567932128906250e+01 -2.826571464538574219e+01 1.322615053504705429e-02 5.969459056854248047e+00 1.794805526733398438e+00 1.391443908214569092e-01
2.441000000000000000e+03 7.395898437500000000e+01 -3.557366180419921875e+01 2.164678089320659637e-02 5.849341392517089844e+00 1.761296510696411133e+00 5.967773869633674622e-02
2.442000000000000000e+03 7.710555267333984375e+01 2.223226165771484375e+01 -2.301710844039916992e-01 9.416783332824707031e+00 2.755983591079711914e+00 -1.429141908884048462e-01
2.443000000000000000e+03 7.598399353027343750e+01 2.084336090087890625e+01 -2.739581763744354248e-01 9.034804344177246094e+00 2.628253936767578125e+00 8.181162178516387939e-02
2.444000000000000000e+03 7.641086578369140625e+01 -3.157957267761230469e+01 2.453564957249909639e-04 6.287861347198486328e+00 1.886431932449340820e+00 7.363520562648773193e-02
2.445000000000000000e+03 7.516439056396484375e+01 -2.988155555725097656e+01 1.181355491280555725e-02 6.126676559448242188e+00 1.841547012329101562e+00 1.121967211365699768e-01
2.446000000000000000e+03 7.461464691162109375e+01 -3.275564575195312500e+01 7.466742303222417831e-03 5.979659080505371094e+00 1.796137690544128418e+00 8.975879848003387451e-02
2.447000000000000000e+03 7.409249877929687500e+01 -3.416033554077148438e+01 2.535782568156719208e-02 5.909166812896728516e+00 1.780357360839843750e+00 8.103846758604049683e-02
2.448000000000000000e+03 7.538511657714843750e+01 2.445441627502441406e+01 -6.718608140945434570e-01 9.421586990356445312e+00 2.624917745590209961e+00 -3.483282029628753662e-01
2.449000000000000000e+03 7.588404846191406250e+01 2.342640495300292969e+01 -5.088624954223632812e-01 9.302741050720214844e+00 2.638163566589355469e+00 -2.504129409790039062e-01
2.450000000000000000e+03 2.510771751403808594e+01 -2.408351135253906250e+01 2.407451122999191284e-01 4.829458892345428467e-01 2.171072959899902344e-01 -3.695909678936004639e-01
2.451000000000000000e+03 7.524519348144531250e+01 3.627835845947265625e+01 1.209576368331909180e+00 1.059637069702148438e+01 3.541784048080444336e+00 1.681231737136840820e+00
2.452000000000000000e+03 3.851835632324218750e+01 -1.866064643859863281e+01 -2.952682226896286011e-02 -3.374628722667694092e-01 -1.100969091057777405e-01 1.725687533617019653e-01
2.453000000000000000e+03 2.615593719482421875e+01 -2.666468811035156250e+01 2.696913778781890869e-01 5.566310286521911621e-01 2.478967159986495972e-01 -3.974336981773376465e-01
2.454000000000000000e+03 4.203937053680419922e+00 -1.587686347961425781e+01 2.202781289815902710e-02 -7.266317605972290039e-01 -2.113811820745468140e-01 -3.073270022869110107e-01
2.455000000000000000e+03 4.432263374328613281e+00 2.207951736450195312e+01 -2.702653175219893456e-03 -8.566346764564514160e-02 -2.650983445346355438e-02 -2.019794657826423645e-02
2.456000000000000000e+03 3.097402572631835938e+00 2.063446617126464844e+01 -1.126694958657026291e-03 -1.169084310531616211e-01 -3.541053831577301025e-02 -1.834619231522083282e-02
2.457000000000000000e+03 4.301735401153564453e+00 2.060568618774414062e+01 -3.366905963048338890e-03 -9.122648090124130249e-02 -2.837801538407802582e-02 -2.142244577407836914e-02
2.458000000000000000e+03 4.285718441009521484e+00 -1.722574043273925781e+01 2.710687369108200073e-02 -7.925812005996704102e-01 -2.296422868967056274e-01 -2.939122617244720459e-01
2.459000000000000000e+03 4.526149749755859375e+00 -2.137292671203613281e+01 4.022773727774620056e-02 -9.812914133071899414e-01 -2.823190987110137939e-01 -2.520675063133239746e-01
2.460000000000000000e+03 4.141459465026855469e+00 1.774423789978027344e+01 -6.918603903613984585e-04 -1.007779911160469055e-01 -3.044095449149608612e-02 -2.270061522722244263e-02
2.461000000000000000e+03 4.215161800384521484e+00 1.917009925842285156e+01 -1.562988851219415665e-03 -9.600296616554260254e-02 -2.926978655159473419e-02 -2.275534160435199738e-02
2.462000000000000000e+03 2.891044139862060547e+00 1.491556453704833984e+01 4.865305032581090927e-03 -1.432716846466064453e-01 -4.152191430330276489e-02 -1.622720248997211456e-02
2.463000000000000000e+03 5.108732223510742188e+00 1.345722961425781250e+01 1.812596060335636139e-02 -8.169883489608764648e-02 -1.907186396420001984e-02 -1.656527444720268250e-02
2.464000000000000000e+03 4.500175952911376953e+00 -2.803837013244628906e+01 3.693223744630813599e-02 -1.215166926383972168e+00 -3.534704148769378662e-01 -1.542760282754898071e-01
2.465000000000000000e+03 3.228481054306030273e+00 -2.294544029235839844e+01 2.267983928322792053e-02 -1.128579974174499512e+00 -3.317700624465942383e-01 -1.739242374897003174e-01
2.466000000000000000e+03 4.567572116851806641e+00 -2.276139640808105469e+01 3.825588524341583252e-02 -1.031005144119262695e+00 -2.978247702121734619e-01 -2.279376536607742310e-01
2.467000000000000000e+03 4.596313476562500000e+00 2.514833068847656250e+01 -3.803793108090758324e-03 -7.998363673686981201e-02 -2.513622865080833435e-02 -1.662297360599040985e-02
2.468000000000000000e+03 3.964456319808959961e+00 2.919847106933593750e+01 -3.324651159346103668e-03 -8.229137957096099854e-02 -2.568480744957923889e-02 -1.104400772601366043e-02
2.469000000000000000e+03 5.520565986633300781e+00 -1.703192520141601562e+01 4.379351064562797546e-02 -7.590392231941223145e-01 -2.145737111568450928e-01 -3.601425886154174805e-01
2.470000000000000000e+03 4.371635437011718750e+00 -1.859215164184570312e+01 3.544595465064048767e-02 -8.631247282028198242e-01 -2.483036220073699951e-01 -2.853414118289947510e-01
2.471000000000000000e+03 5.900126934051513672e+00 -2.538215446472167969e+01 5.729332193732261658e-02 -1.030993938446044922e+00 -2.921101748943328857e-01 -2.390735149383544922e-01
2.472000000000000000e+03 4.572358608245849609e+00 -2.413451957702636719e+01 3.910223394632339478e-02 -1.085359334945678711e+00 -3.138771355152130127e-01 -2.141242772340774536e-01
2.473000000000000000e+03 3.231855392456054688e+00 -2.431605529785156250e+01 1.949367858469486237e-02 -1.185923576354980469e+00 -3.499289751052856445e-01 -1.533420532941818237e-01
2.474000000000000000e+03 3.940315246582031250e+00 -1.057486724853515625e+01 -3.331053256988525391e-02 -4.084078967571258545e-01 -1.325155198574066162e-01 -2.863283753395080566e-01
2.475000000000000000e+03 3.867788314819335938e+00 -9.279747962951660156e+00 -5.233742669224739075e-02 -3.234341740608215332e-01 -1.127314791083335876e-01 -2.570321261882781982e-01
2.476000000000000000e+03 4.056330680847167969e+00 -1.321535015106201172e+01 -3.454487305134534836e-04 -5.735055804252624512e-01 -1.721553057432174683e-01 -3.111284971237182617e-01
2.477000000000000000e+03 5.627003669738769531e+00 2.198222351074218750e+01 -5.284613929688930511e-03 -6.248759850859642029e-02 -2.033166401088237762e-02 -2.138378471136093140e-02
2.478000000000000000e+03 4.447799205780029297e+00 2.664235115051269531e+01 -3.549515036866068840e-03 -7.969982922077178955e-02 -2.497480250895023346e-02 -1.463514845818281174e-02
2.479000000000000000e+03 4.577311992645263672e+00 2.360579109191894531e+01 -4.394488409161567688e-03 -8.178669214248657227e-02 -2.585435472428798676e-02 -1.831108704209327698e-02
2.480000000000000000e+03 5.006230831146240234e+00 1.061986732482910156e+01 4.118625819683074951e-02 -9.713407605886459351e-02 -1.678434573113918304e-02 5.367991980165243149e-03
2.481000000000000000e+03 3.469928264617919922e+00 -2.964606285095214844e+01 2.187540568411350250e-02 -1.349623799324035645e+00 -3.983245193958282471e-01 -1.059484183788299561e-01
2.482000000000000000e+03 4.695338726043701172e+00 -2.924135208129882812e+01 3.533481806516647339e-02 -1.233102679252624512e+00 -3.593303561210632324e-01 -1.461028158664703369e-01
2.483000000000000000e+03 4.066340446472167969e+00 3.027014732360839844e+01 -2.063684863969683647e-03 -7.885044068098068237e-02 -2.427423745393753052e-02 -9.820587001740932465e-03
2.484000000000000000e+03 5.376605987548828125e+00 3.526991653442382812e+01 -3.157758386805653572e-03 -6.345117837190628052e-02 -1.998268067836761475e-02 -4.842885769903659821e-03
2.485000000000000000e+03 3.200517654418945312e+00 3.547205352783203125e+01 -4.655871307477355003e-04 -8.401129394769668579e-02 -2.534306608140468597e-02 -4.805215168744325638e-03
2.486000000000000000e+03 3.903848886489868164e+00 1.067170619964599609e+01 2.973599173128604889e-02 -1.243057921528816223e-01 -2.837094105780124664e-02 7.990174926817417145e-03
2.487000000000000000e+03 3.996360301971435547e+00 -1.189169502258300781e+01 -1.871901936829090118e-02 -4.872515201568603516e-01 -1.517911553382873535e-01 -3.018572628498077393e-01
2.488000000000000000e+03 4.358108520507812500e+00 -5.726714611053466797e+00 -1.071108803153038025e-01 -1.412740051746368408e-01 -7.451546937227249146e-02 -1.723542213439941406e-01
2.489000000000000000e+03 8.289496421813964844e+00 -3.203932571411132812e+01 9.367516636848449707e-02 -9.557964801788330078e-01 -2.586364150047302246e-01 -1.827139705419540405e-01
2.490000000000000000e+03 6.249770164489746094e+00 -2.972633361816406250e+01 5.796347931027412415e-02 -1.125105977058410645e+00 -3.201427459716796875e-01 -1.829383522272109985e-01
2.491000000000000000e+03 5.564689636230468750e+00 -3.172041893005371094e+01 4.356915131211280823e-02 -1.220253944396972656e+00 -3.530054390430450439e-01 -1.326808035373687744e-01
2.492000000000000000e+03 3.777526140213012695e+00 -3.096534919738769531e+01 2.012265101075172424e-02 -1.361400842666625977e+00 -4.023834466934204102e-01 -1.008596718311309814e-01
2.493000000000000000e+03 3.101661920547485352e+00 3.172850608825683594e+01 -9.490371448919177055e-04 -8.817926794290542603e-02 -2.673849090933799744e-02 -6.368529517203569412e-03
2.494000000000000000e+03 4.904232501983642578e+00 2.965570831298828125e+01 -3.800501581281423569e-03 -7.111340761184692383e-02 -2.247417159378528595e-02 -1.178665366023778915e-02
2.495000000000000000e+03 3.821392536163330078e+00 7.961199283599853516e+00 4.325331375002861023e-02 -1.289788186550140381e-01 -2.571765147149562836e-02 4.937000945210456848e-02
2.496000000000000000e+03 4.997923374176025391e+00 4.527388572692871094e+00 1.823502033948898315e-02 -1.068659946322441101e-01 -2.658929117023944855e-02 1.282261461019515991e-01
2.497000000000000000e+03 2.585782766342163086e+00 -6.814564228057861328e+00 -3.728567808866500854e-02 -1.639981567859649658e-01 -6.038514897227287292e-02 -1.241792067885398865e-01
2.498000000000000000e+03 7.593965148925781250e+01 3.571228027343750000e+01 1.322337269783020020e+00 9.661083221435546875e+00 3.295026302337646484e+00 1.377340435981750488e+00
2.499000000000000000e+03 7.157411956787109375e+01 3.603412628173828125e+01 -2.476637214422225952e-01 1.807091903686523438e+01 5.346976757049560547e+00 -5.848575383424758911e-02
2.500000000000000000e+03 4.595836257934570312e+01 -2.803473854064941406e+01 -1.834585666656494141e-01 8.855654001235961914e-01 2.106320410966873169e-01 1.575318425893783569e-01
2.501000000000000000e+03 2.638866806030273438e+01 -2.989633369445800781e+01 3.511646389961242676e-01 5.083110332489013672e-01 2.578426897525787354e-01 -4.035132229328155518e-01
2.502000000000000000e+03 1.759819221496582031e+01 -1.282796001434326172e+01 2.603283226490020752e-01 -5.497876405715942383e-01 -8.683779835700988770e-02 -3.811343908309936523e-01
2.503000000000000000e+03 3.266392517089843750e+01 -7.601263046264648438e+00 6.678984165191650391e-01 -4.054718613624572754e-01 7.872796803712844849e-02 -2.001065611839294434e-01
2.504000000000000000e+03 2.566806030273437500e+01 -8.452299237251281738e-01 2.204093486070632935e-01 -5.217300355434417725e-02 5.047090351581573486e-02 -4.556590318679809570e-01
2.505000000000000000e+03 2.282291793823242188e+01 8.062207698822021484e-01 -2.318638563156127930e+00 -4.242295026779174805e-02 -7.083184719085693359e-01 -1.575961232185363770e+00
2.506000000000000000e+03 4.698373031616210938e+01 -2.914113616943359375e+01 -1.630666106939315796e-01 1.131996870040893555e+00 2.906790673732757568e-01 1.721619665622711182e-01
2.507000000000000000e+03 1.668279075622558594e+01 -1.085311985015869141e+01 2.104639858007431030e-01 -7.467732429504394531e-01 -1.608927696943283081e-01 -4.890542328357696533e-01
2.508000000000000000e+03 1.739149475097656250e+01 -7.825254917144775391e+00 1.791390031576156616e-02 -1.297733187675476074e+00 -3.839457631111145020e-01 -5.931938290596008301e-01
2.509000000000000000e+03 3.092154121398925781e+01 -3.495923233032226562e+01 5.541820526123046875e-01 6.771954894065856934e-01 3.694132566452026367e-01 -4.779364168643951416e-01
2.510000000000000000e+03 2.983046722412109375e+01 -3.269353103637695312e+01 5.067496895790100098e-01 7.199645638465881348e-01 3.680142760276794434e-01 -4.718158841133117676e-01
2.511000000000000000e+03 1.646236991882324219e+01 -9.433500289916992188e+00 7.637962698936462402e-02 -9.471319317817687988e-01 -2.612257003784179688e-01 -6.121975779533386230e-01
2.512000000000000000e+03 3.095640945434570312e+01 -7.195546150207519531e+00 7.280083298683166504e-01 -2.104318588972091675e-01 1.552729457616806030e-01 -3.158814311027526855e-01
2.513000000000000000e+03 3.193351745605468750e+01 -6.502912044525146484e+00 8.154125213623046875e-01 -4.159156382083892822e-01 1.198490560054779053e-01 -2.190041095018386841e-01
2.514000000000000000e+03 5.401652526855468750e+01 3.967553710937500000e+01 2.128121405839920044e-01 -2.835327684879302979e-01 -2.121618390083312988e-02 1.270120888948440552e-01
2.515000000000000000e+03 3.590035629272460938e+01 -1.188710212707519531e+01 3.430647552013397217e-01 -3.726977109909057617e-01 -8.889887481927871704e-03 -4.804380983114242554e-02
2.516000000000000000e+03 3.210407257080078125e+01 -4.124114227294921875e+01 1.039364218711853027e+00 4.243397414684295654e-01 4.391112029552459717e-01 -1.198400557041168213e-01
2.517000000000000000e+03 3.157194900512695312e+01 -3.878364181518554688e+01 8.479530215263366699e-01 4.984547197818756104e-01 4.039223194122314453e-01 -3.572399914264678955e-01
2.518000000000000000e+03 5.102752685546875000e+01 -3.465782546997070312e+01 3.317887783050537109e-01 2.010091781616210938e+00 7.025641798973083496e-01 4.399353861808776855e-01
2.519000000000000000e+03 4.795589447021484375e+01 -4.111749267578125000e+01 1.378772377967834473e+00 1.400006294250488281e+00 8.336336016654968262e-01 1.913178712129592896e-01
2.520000000000000000e+03 2.477105522155761719e+01 -2.745727157592773438e+01 2.859991490840911865e-01 4.041272401809692383e-01 2.070379108190536499e-01 -3.834926187992095947e-01
2.521000000000000000e+03 6.121971130371093750e+01 3.983452987670898438e+01 6.945193409919738770e-01 -7.664549164474010468e-03 2.060564309358596802e-01 2.005516439676284790e-01
2.522000000000000000e+03 1.999660110473632812e+01 -1.450628566741943359e+01 2.583477199077606201e-01 -1.181253865361213684e-01 4.206669703125953674e-02 -2.456209212541580200e-01
2.523000000000000000e+03 5.380951309204101562e+01 -3.485608291625976562e+01 3.386510610580444336e-01 2.442218303680419922e+00 8.342607617378234863e-01 4.070337116718292236e-01
2.524000000000000000e+03 4.883055496215820312e+01 -3.236663436889648438e+01 5.770239979028701782e-03 1.670402646064758301e+00 5.028518438339233398e-01 3.726316988468170166e-01
2.525000000000000000e+03 4.808716964721679688e+01 -2.784727859497070312e+01 -1.465014219284057617e-01 1.372341632843017578e+00 3.677520751953125000e-01 1.805863976478576660e-01
2.526000000000000000e+03 2.846828651428222656e+01 3.890356540679931641e+00 -2.257425785064697266e+00 -1.136150360107421875e+00 -1.018072843551635742e+00 -1.008420109748840332e+00
2.527000000000000000e+03 2.811524772644042969e+01 3.831609010696411133e+00 -2.312127351760864258e+00 -1.098524451255798340e+00 -1.023195505142211914e+00 -1.063081264495849609e+00
2.528000000000000000e+03 2.779526901245117188e+01 3.762459993362426758e+00 -2.450315475463867188e+00 -1.081276893615722656e+00 -1.059477806091308594e+00 -1.135885000228881836e+00
2.529000000000000000e+03 2.643495941162109375e+01 3.492753982543945312e+00 -2.929065227508544922e+00 -9.174106121063232422e-01 -1.153942704200744629e+00 -1.392241239547729492e+00
2.530000000000000000e+03 2.433805084228515625e+01 2.102239131927490234e+00 -3.106651782989501953e+00 -4.857451617717742920e-01 -1.077719092369079590e+00 -1.363550543785095215e+00
2.531000000000000000e+03 2.502146530151367188e+01 2.639962673187255859e+00 -3.166758298873901367e+00 -6.497290730476379395e-01 -1.144946217536926270e+00 -1.379376173019409180e+00
2.532000000000000000e+03 2.495101356506347656e+01 2.066157102584838867e+00 -2.866726160049438477e+00 -5.187345743179321289e-01 -1.015638232231140137e+00 -1.146408200263977051e+00
2.533000000000000000e+03 2.749671173095703125e+01 3.672667264938354492e+00 -2.543513298034667969e+00 -9.918215870857238770e-01 -1.060600519180297852e+00 -1.165783882141113281e+00
2.534000000000000000e+03 2.706222724914550781e+01 3.846149682998657227e+00 -2.808094263076782227e+00 -1.056575536727905273e+00 -1.159400939941406250e+00 -1.381637930870056152e+00
2.535000000000000000e+03 7.002059173583984375e+01 3.157485198974609375e+01 -2.214550077915191650e-01 1.161891555786132812e+01 3.419238090515136719e+00 5.320284366607666016e+00
2.536000000000000000e+03 6.909834289550781250e+01 3.183442115783691406e+01 9.255861043930053711e-01 5.597074031829833984e+00 1.956798076629638672e+00 4.965644359588623047e+00
2.537000000000000000e+03 6.848860931396484375e+01 3.158866691589355469e+01 7.547018527984619141e-01 3.715105533599853516e+00 1.340942263603210449e+00 3.840614557266235352e+00
2.538000000000000000e+03 6.946276092529296875e+01 3.174665069580078125e+01 6.318323016166687012e-01 7.893612384796142578e+00 2.557633399963378906e+00 5.460709571838378906e+00
2.539000000000000000e+03 7.070843505859375000e+01 3.124277305603027344e+01 -1.245840549468994141e+00 1.413981151580810547e+01 3.868191480636596680e+00 3.457958459854125977e+00
2.540000000000000000e+03 7.235931396484375000e+01 3.338502120971679688e+01 7.236588478088378906e+00 1.593069839477539062e+01 6.950186252593994141e+00 -1.814888596534729004e+00
2.541000000000000000e+03 7.268618774414062500e+01 3.497652435302734375e+01 4.639858245849609375e+00 1.526117801666259766e+01 5.970311164855957031e+00 2.178528308868408203e+00
2.542000000000000000e+03 7.157262420654296875e+01 3.155194282531738281e+01 -8.563559651374816895e-01 1.652413940429687500e+01 4.700335025787353516e+00 6.134266853332519531e-01
2.543000000000000000e+03 7.087301635742187500e+01 3.152301788330078125e+01 -1.182067155838012695e+00 1.569620132446289062e+01 4.354240417480468750e+00 3.019511461257934570e+00
2.544000000000000000e+03 7.548618316650390625e+01 2.892642593383789062e+01 -5.230689644813537598e-01 1.042677116394042969e+01 2.971110582351684570e+00 -1.523670196533203125e+00
2.545000000000000000e+03 7.178157043457031250e+01 3.123723220825195312e+01 -9.422449469566345215e-01 1.570365428924560547e+01 4.428422451019287109e+00 3.420087993144989014e-01
2.546000000000000000e+03 7.255782318115234375e+01 3.255659103393554688e+01 3.412921667098999023e+00 1.566886711120605469e+01 5.724536418914794922e+00 -2.296923398971557617e+00
2.547000000000000000e+03 7.206129455566406250e+01 3.191021919250488281e+01 6.307122707366943359e-01 1.680923271179199219e+01 5.231983184814453125e+00 -1.208405137062072754e+00
2.548000000000000000e+03 7.256125640869140625e+01 3.572582626342773438e+01 1.920543670654296875e+00 1.582716751098632812e+01 5.324313163757324219e+00 2.061615228652954102e+00
2.549000000000000000e+03 7.354967498779296875e+01 3.507510757446289062e+01 3.694337606430053711e+00 1.290393733978271484e+01 4.979482650756835938e+00 1.691553950309753418e+00
2.550000000000000000e+03 7.280162048339843750e+01 3.379382705688476562e+01 6.833571910858154297e+00 1.419597053527832031e+01 6.308862686157226562e+00 -4.527620673179626465e-01
2.551000000000000000e+03 2.291273117065429688e+01 -3.621974885463714600e-01 -3.725883364677429199e-01 7.530191540718078613e-01 1.141292452812194824e-01 -1.209430694580078125e+00
2.552000000000000000e+03 2.884265327453613281e+01 4.303317070007324219e+00 -2.246697902679443359e+00 -1.214619755744934082e+00 -1.038395285606384277e+00 -1.036249637603759766e+00
2.553000000000000000e+03 2.431576156616210938e+01 -7.614812850952148438e-01 7.147833704948425293e-01 4.749191105365753174e-01 3.569107651710510254e-01 -4.865953326225280762e-01
2.554000000000000000e+03 1.921099090576171875e+01 1.152666187286376953e+01 1.063280999660491943e-01 1.630189567804336548e-01 8.080411702394485474e-02 1.326343417167663574e-01
2.555000000000000000e+03 4.010216140747070312e+01 1.948813247680664062e+01 -1.189549207687377930e+00 -1.304832339286804199e+00 -7.483144402503967285e-01 -1.369202494621276855e+00
2.556000000000000000e+03 3.914739608764648438e+01 1.860212707519531250e+01 -1.228008270263671875e+00 -1.393491506576538086e+00 -7.864499688148498535e-01 -1.366222023963928223e+00
2.557000000000000000e+03 1.596272754669189453e+01 7.491843700408935547e+00 1.353752315044403076e-01 2.880625426769256592e-01 1.270313262939453125e-01 1.867657005786895752e-01
2.558000000000000000e+03 3.458512115478515625e+01 2.747844123840332031e+01 4.962820932269096375e-02 7.320602983236312866e-02 3.685026988387107849e-02 5.950155854225158691e-02
2.559000000000000000e+03 3.472842025756835938e+01 2.697565650939941406e+01 5.166798457503318787e-02 7.458914816379547119e-02 3.787713870406150818e-02 6.161051988601684570e-02
2.560000000000000000e+03 3.315872192382812500e+01 1.245519828796386719e+01 -1.409053921699523926e+00 -1.540663957595825195e+00 -8.849153518676757812e-01 -1.476200699806213379e+00
2.561000000000000000e+03 3.214794921875000000e+01 1.088148880004882812e+01 -1.433781385421752930e+00 -1.468381643295288086e+00 -8.706488609313964844e-01 -1.369621872901916504e+00
2.562000000000000000e+03 3.854552078247070312e+01 1.810025024414062500e+01 -1.263968586921691895e+00 -1.485316038131713867e+00 -8.247854113578796387e-01 -1.372260689735412598e+00
2.563000000000000000e+03 3.982294464111328125e+01 1.913766670227050781e+01 -1.195439696311950684e+00 -1.318842053413391113e+00 -7.542845010757446289e-01 -1.365576505661010742e+00
2.564000000000000000e+03 2.431967926025390625e+01 1.639166641235351562e+01 8.647622913122177124e-02 1.137508600950241089e-01 6.006812676787376404e-02 1.016416996717453003e-01
2.565000000000000000e+03 1.758114814758300781e+01 9.222332000732421875e+00 1.321802288293838501e-01 2.061830312013626099e-01 1.015089750289916992e-01 1.554358303546905518e-01
2.566000000000000000e+03 3.343305587768554688e+01 2.509606170654296875e+01 5.269881710410118103e-02 7.547292113304138184e-02 3.845151886343955994e-02 6.363566219806671143e-02
2.567000000000000000e+03 3.308312225341796875e+01 2.527900123596191406e+01 5.201058462262153625e-02 7.593500614166259766e-02 3.838367760181427002e-02 6.353465467691421509e-02
2.568000000000000000e+03 2.460061454772949219e+01 1.670535278320312500e+01 8.528619259595870972e-02 1.109942272305488586e-01 5.888412892818450928e-02 9.946019202470779419e-02
2.569000000000000000e+03 3.266445159912109375e+01 2.436368179321289062e+01 5.331963300704956055e-02 7.589627802371978760e-02 3.876477107405662537e-02 6.495430320501327515e-02
2.570000000000000000e+03 4.698869323730468750e+01 2.526066398620605469e+01 -1.361526489257812500e+00 -1.079360485076904297e+00 -7.322660684585571289e-01 -1.268067479133605957e+00
2.571000000000000000e+03 4.674256134033203125e+01 2.555019950866699219e+01 -1.402482151985168457e+00 -1.150625348091125488e+00 -7.659322619438171387e-01 -1.323969960212707520e+00
2.572000000000000000e+03 6.681703186035156250e+01 3.119704818725585938e+01 -1.926205307245254517e-01 1.416199564933776855e+00 3.670737147331237793e-01 1.804687857627868652e+00
2.573000000000000000e+03 6.870783233642578125e+01 3.112698936462402344e+01 4.946811497211456299e-01 5.246162891387939453e+00 1.722253203392028809e+00 4.194916248321533203e+00
2.574000000000000000e+03 4.182324600219726562e+01 2.153773880004882812e+01 -1.377505183219909668e+00 -1.340169668197631836e+00 -8.153024911880493164e-01 -1.366980552673339844e+00
2.575000000000000000e+03 2.090113067626953125e+01 1.276744842529296875e+01 1.057894006371498108e-01 1.460621058940887451e-01 7.555545121431350708e-02 1.232845634222030640e-01
2.576000000000000000e+03 4.703427124023437500e+01 2.581021881103515625e+01 -1.388408422470092773e+00 -1.133865475654602051e+00 -7.566821575164794922e-01 -1.315785288810729980e+00
2.577000000000000000e+03 2.021810913085937500e+01 1.184294509887695312e+01 1.131062805652618408e-01 1.536365896463394165e-01 8.002286404371261597e-02 1.304022669792175293e-01
2.578000000000000000e+03 1.947299385070800781e+01 1.194486618041992188e+01 1.028291136026382446e-01 1.588585078716278076e-01 7.850628346204757690e-02 1.282784491777420044e-01
2.579000000000000000e+03 3.826848220825195312e+01 1.784399223327636719e+01 -1.278109431266784668e+00 -1.527537107467651367e+00 -8.416939377784729004e-01 -1.378882169723510742e+00
2.580000000000000000e+03 3.939085388183593750e+01 1.828670692443847656e+01 -1.214636206626892090e+00 -1.340690016746520996e+00 -7.665978670120239258e-01 -1.339267373085021973e+00
2.581000000000000000e+03 4.616162490844726562e+01 2.502863693237304688e+01 -1.434086799621582031e+00 -1.192895412445068359e+00 -7.880946993827819824e-01 -1.329596400260925293e+00
2.582000000000000000e+03 2.064160919189453125e+01 1.254845619201660156e+01 1.053196117281913757e-01 1.479829847812652588e-01 7.599077373743057251e-02 1.253473758697509766e-01
2.583000000000000000e+03 4.354597473144531250e+01 2.261413574218750000e+01 -1.399067878723144531e+00 -1.305449962615966797e+00 -8.113553524017333984e-01 -1.360809445381164551e+00
2.584000000000000000e+03 3.592321395874023438e+01 2.795195007324218750e+01 5.453642085194587708e-02 7.173970341682434082e-02 3.788283839821815491e-02 5.961363017559051514e-02
2.585000000000000000e+03 1.786947441101074219e+01 9.515364646911621094e+00 1.268616914749145508e-01 1.976663172245025635e-01 9.735839813947677612e-02 1.529802381992340088e-01
2.586000000000000000e+03 1.692668724060058594e+01 8.589190483093261719e+00 1.338611543178558350e-01 2.276950180530548096e-01 1.084668561816215515e-01 1.684887558221817017e-01
2.587000000000000000e+03 4.757840347290039062e+01 2.577395629882812500e+01 -1.339069604873657227e+00 -1.042129635810852051e+00 -7.143597602844238281e-01 -1.250005602836608887e+00
2.588000000000000000e+03 2.414737510681152344e+01 1.605245399475097656e+01 8.817493170499801636e-02 1.157073527574539185e-01 6.116468459367752075e-02 1.037979573011398315e-01
2.589000000000000000e+03 2.344308280944824219e+01 1.485731792449951172e+01 9.985371679067611694e-02 1.253662854433059692e-01 6.756599992513656616e-02 1.100502237677574158e-01
2.590000000000000000e+03 3.555521392822265625e+01 1.418520927429199219e+01 -1.311486124992370605e+00 -1.508069515228271484e+00 -8.458666801452636719e-01 -1.385244846343994141e+00
2.591000000000000000e+03 3.498774337768554688e+01 1.409503364562988281e+01 -1.366027235984802246e+00 -1.555348753929138184e+00 -8.764128088951110840e-01 -1.430612444877624512e+00
2.592000000000000000e+03 3.376808547973632812e+01 1.181606674194335938e+01 -1.325704097747802734e+00 -1.444251894950866699e+00 -8.309867978096008301e-01 -1.341957449913024902e+00
2.593000000000000000e+03 3.423043441772460938e+01 1.321177768707275391e+01 -1.371766567230224609e+00 -1.556790232658386230e+00 -8.785670399665832520e-01 -1.413008928298950195e+00
2.594000000000000000e+03 2.215174865722656250e+01 1.351397991180419922e+01 1.099531501531600952e-01 1.350986957550048828e-01 7.351555675268173218e-02 1.196273043751716614e-01
2.595000000000000000e+03 2.139680671691894531e+01 1.326841640472412109e+01 1.047759801149368286e-01 1.409668624401092529e-01 7.372285425662994385e-02 1.199713572859764099e-01
2.596000000000000000e+03 2.516114234924316406e+01 1.729298591613769531e+01 8.369690179824829102e-02 1.077314093708992004e-01 5.742849409580230713e-02 9.519191831350326538e-02
2.597000000000000000e+03 4.295800399780273438e+01 2.207294654846191406e+01 -1.378879785537719727e+00 -1.297212958335876465e+00 -8.028278350830078125e-01 -1.350322842597961426e+00
2.598000000000000000e+03 3.784336090087890625e+01 3.057349395751953125e+01 5.333910509943962097e-02 6.349337846040725708e-02 3.504974395036697388e-02 5.486612766981124878e-02
2.599000000000000000e+03 3.877663421630859375e+01 1.783687019348144531e+01 -1.246087431907653809e+00 -1.420923233032226562e+00 -8.001032471656799316e-01 -1.341392278671264648e+00
2.600000000000000000e+03 4.762543869018554688e+01 2.633379745483398438e+01 -1.370593667030334473e+00 -1.101630210876464844e+00 -7.416671514511108398e-01 -1.288729548454284668e+00
2.601000000000000000e+03 4.823823928833007812e+01 2.743081665039062500e+01 -1.423015713691711426e+00 -1.136563181877136230e+00 -7.678737044334411621e-01 -1.294459939002990723e+00
2.602000000000000000e+03 2.890905570983886719e+01 2.129372215270996094e+01 6.293144077062606812e-02 8.785101026296615601e-02 4.523473605513572693e-02 7.586328685283660889e-02
2.603000000000000000e+03 3.581041336059570312e+01 1.447706222534179688e+01 -1.297931671142578125e+00 -1.512903213500976562e+00 -8.432504534721374512e-01 -1.388348460197448730e+00
2.604000000000000000e+03 3.601937866210937500e+01 1.526584053039550781e+01 -1.315446138381958008e+00 -1.577424645423889160e+00 -8.678612112998962402e-01 -1.433147788047790527e+00
2.605000000000000000e+03 1.578593540191650391e+01 7.067851066589355469e+00 1.459548026323318481e-01 3.076896369457244873e-01 1.360933333635330200e-01 1.934300959110260010e-01
2.606000000000000000e+03 3.428932952880859375e+01 2.657450866699218750e+01 5.125496536493301392e-02 7.546210289001464844e-02 3.801511973142623901e-02 6.158148869872093201e-02
2.607000000000000000e+03 3.288056564331054688e+01 1.142210769653320312e+01 -1.405917406082153320e+00 -1.455932974815368652e+00 -8.585550785064697266e-01 -1.377882122993469238e+00
2.608000000000000000e+03 3.356881332397460938e+01 2.582454681396484375e+01 5.155901610851287842e-02 7.524833828210830688e-02 3.804220631718635559e-02 6.225103884935379028e-02
2.609000000000000000e+03 3.797520065307617188e+01 3.004473686218261719e+01 5.397750064730644226e-02 6.338313221931457520e-02 3.520818799734115601e-02 5.722924321889877319e-02
2.610000000000000000e+03 3.667695236206054688e+01 2.965543365478515625e+01 5.327728018164634705e-02 6.914950907230377197e-02 3.672803565859794617e-02 5.619737505912780762e-02
2.611000000000000000e+03 4.383753967285156250e+01 2.288498115539550781e+01 -1.406675577163696289e+00 -1.312542438507080078e+00 -8.157653808593750000e-01 -1.360267877578735352e+00
2.612000000000000000e+03 4.941460800170898438e+01 2.853445434570312500e+01 -1.430971264839172363e+00 -1.042115092277526855e+00 -7.419258952140808105e-01 -1.221487283706665039e+00
2.613000000000000000e+03 2.813971710205078125e+01 1.980045700073242188e+01 7.340268790721893311e-02 9.153191000223159790e-02 4.948038235306739807e-02 8.321727067232131958e-02
2.614000000000000000e+03 4.258235931396484375e+01 3.456965637207031250e+01 7.056330144405364990e-02 4.091959074139595032e-02 3.344486653804779053e-02 4.917331784963607788e-02
2.615000000000000000e+03 2.765231704711914062e+01 1.978553390502929688e+01 7.104348391294479370e-02 9.462513029575347900e-02 4.970058426260948181e-02 8.314424753189086914e-02
2.616000000000000000e+03 4.211566162109375000e+01 2.179596328735351562e+01 -1.410765886306762695e+00 -1.335294604301452637e+00 -8.238181471824645996e-01 -1.372959733009338379e+00
2.617000000000000000e+03 2.705599021911621094e+01 1.931842803955078125e+01 7.294099032878875732e-02 9.854920208454132080e-02 5.144705995917320251e-02 8.491989225149154663e-02
2.618000000000000000e+03 4.533423233032226562e+01 2.476262664794921875e+01 -1.511456012725830078e+00 -1.326265811920166016e+00 -8.513165712356567383e-01 -1.385203361511230469e+00
2.619000000000000000e+03 4.587082672119140625e+01 2.476535415649414062e+01 -1.446802973747253418e+00 -1.219177126884460449e+00 -7.997940182685852051e-01 -1.327994227409362793e+00
2.620000000000000000e+03 3.479963302612304688e+01 1.331434059143066406e+01 -1.330981969833374023e+00 -1.504635095596313477e+00 -8.506851196289062500e-01 -1.369349598884582520e+00
2.621000000000000000e+03 3.219431686401367188e+01 2.395051956176757812e+01 5.387698486447334290e-02 7.535388320684432983e-02 3.876926004886627197e-02 6.633285433053970337e-02
2.622000000000000000e+03 5.090480041503906250e+01 2.940434837341308594e+01 -1.361258983612060547e+00 -7.604070901870727539e-01 -6.364998221397399902e-01 -1.074230790138244629e+00
2.623000000000000000e+03 4.038856506347656250e+01 3.261539840698242188e+01 6.021417304873466492e-02 5.242014303803443909e-02 3.379029408097267151e-02 5.123618617653846741e-02
2.624000000000000000e+03 3.632062911987304688e+01 1.506299591064453125e+01 -1.279516935348510742e+00 -1.524769067764282227e+00 -8.412858247756958008e-01 -1.385038495063781738e+00
2.625000000000000000e+03 3.062065124511718750e+01 2.208457756042480469e+01 5.998022481799125671e-02 8.056879043579101562e-02 4.216470569372177124e-02 7.237905263900756836e-02
2.626000000000000000e+03 3.955569839477539062e+01 3.229695892333984375e+01 5.637442693114280701e-02 5.474852025508880615e-02 3.333688527345657349e-02 5.252639949321746826e-02
2.627000000000000000e+03 4.792305374145507812e+01 2.659841346740722656e+01 -1.369325637817382812e+00 -1.085048913955688477e+00 -7.363123297691345215e-01 -1.273154616355895996e+00
2.628000000000000000e+03 4.971546173095703125e+01 2.881605720520019531e+01 -1.422197103500366211e+00 -1.006103992462158203e+00 -7.284903526306152344e-01 -1.202359795570373535e+00
2.629000000000000000e+03 3.657372283935546875e+01 1.535652637481689453e+01 -1.275712490081787109e+00 -1.530161857604980469e+00 -8.417623043060302734e-01 -1.380677938461303711e+00
2.630000000000000000e+03 3.200999832153320312e+01 2.434182929992675781e+01 5.249004438519477844e-02 7.687754929065704346e-02 3.881027922034263611e-02 6.595911830663681030e-02
2.631000000000000000e+03 3.682384872436523438e+01 1.565017509460449219e+01 -1.271460533142089844e+00 -1.533886313438415527e+00 -8.416040539741516113e-01 -1.377214789390563965e+00
2.632000000000000000e+03 4.266256332397460938e+01 2.180463027954101562e+01 -1.361459374427795410e+00 -1.298920631408691406e+00 -7.981140017509460449e-01 -1.342711448669433594e+00
2.633000000000000000e+03 3.800406265258789062e+01 1.757769584655761719e+01 -1.290369391441345215e+00 -1.562532782554626465e+00 -8.558706641197204590e-01 -1.385456800460815430e+00
2.634000000000000000e+03 4.122314834594726562e+01 3.297934722900390625e+01 6.107425689697265625e-02 4.922747239470481873e-02 3.309052065014839172e-02 5.112290754914283752e-02
2.635000000000000000e+03 4.412832641601562500e+01 2.315573692321777344e+01 -1.415774583816528320e+00 -1.317910671234130859e+00 -8.201055526733398438e-01 -1.355175256729125977e+00
2.636000000000000000e+03 3.706948852539062500e+01 1.594365310668945312e+01 -1.271366477012634277e+00 -1.536976814270019531e+00 -8.425030112266540527e-01 -1.372131228446960449e+00
2.637000000000000000e+03 5.031622314453125000e+01 2.938898086547851562e+01 -1.392066717147827148e+00 -9.279559254646301270e-01 -6.960067749023437500e-01 -1.157639384269714355e+00
2.638000000000000000e+03 2.241814994812011719e+01 1.377497863769531250e+01 1.095389053225517273e-01 1.343695819377899170e-01 7.317254692316055298e-02 1.169126555323600769e-01
2.639000000000000000e+03 2.089587402343750000e+01 1.328980350494384766e+01 9.906347841024398804e-02 1.442929208278656006e-01 7.300692051649093628e-02 1.178668215870857239e-01
2.640000000000000000e+03 3.000392913818359375e+01 2.199074554443359375e+01 5.941016227006912231e-02 8.338681608438491821e-02 4.283909127116203308e-02 7.278999686241149902e-02
2.641000000000000000e+03 5.117944335937500000e+01 2.971436119079589844e+01 -1.348031878471374512e+00 -7.135865092277526855e-01 -6.184855103492736816e-01 -1.052632212638854980e+00
2.642000000000000000e+03 4.882102966308593750e+01 2.797941970825195312e+01 -1.432962298393249512e+00 -1.098855733871459961e+00 -7.595453858375549316e-01 -1.259587645530700684e+00
2.643000000000000000e+03 4.194017410278320312e+01 3.345278930664062500e+01 6.452426314353942871e-02 4.740895330905914307e-02 3.357996419072151184e-02 5.188085511326789856e-02
2.644000000000000000e+03 4.054487991333007812e+01 3.299885177612304688e+01 6.014139205217361450e-02 4.998585581779479980e-02 3.303817287087440491e-02 5.135905370116233826e-02
2.645000000000000000e+03 3.093446731567382812e+01 8.889714241027832031e+00 -1.310575962066650391e+00 -1.390702724456787109e+00 -8.103836178779602051e-01 -1.212980270385742188e+00
2.646000000000000000e+03 3.202871704101562500e+01 1.051144981384277344e+01 -1.402597784996032715e+00 -1.444678425788879395e+00 -8.541828393936157227e-01 -1.339076638221740723e+00
2.647000000000000000e+03 4.879155731201171875e+01 2.741392135620117188e+01 -1.380329728126525879e+00 -1.028671503067016602e+00 -7.227003574371337891e-01 -1.221208691596984863e+00
2.648000000000000000e+03 2.652846145629882812e+01 1.826169013977050781e+01 8.167970925569534302e-02 1.026318743824958801e-01 5.529347434639930725e-02 8.995011448860168457e-02
2.649000000000000000e+03 2.689377403259277344e+01 1.803585243225097656e+01 8.649597316980361938e-02 1.013658121228218079e-01 5.635853484272956848e-02 9.197163581848144531e-02
2.650000000000000000e+03 3.775039672851562500e+01 1.730140686035156250e+01 -1.297029495239257812e+00 -1.586574196815490723e+00 -8.650810718536376953e-01 -1.395083546638488770e+00
2.651000000000000000e+03 1.813367271423339844e+01 9.808572769165039062e+00 1.242634877562522888e-01 1.937149167060852051e-01 9.539352357387542725e-02 1.484059095382690430e-01
2.652000000000000000e+03 1.729440307617187500e+01 9.507099151611328125e+00 1.175265461206436157e-01 2.083588838577270508e-01 9.776563197374343872e-02 1.505067944526672363e-01
2.653000000000000000e+03 4.120999526977539062e+01 3.375001907348632812e+01 6.474010646343231201e-02 5.001689493656158447e-02 3.442710265517234802e-02 4.998958110809326172e-02
2.654000000000000000e+03 5.145532989501953125e+01 3.002477645874023438e+01 -1.334693908691406250e+00 -6.529982686042785645e-01 -5.963076353073120117e-01 -1.018643379211425781e+00
2.655000000000000000e+03 2.628287696838378906e+01 1.795125007629394531e+01 8.375812321901321411e-02 1.038447916507720947e-01 5.628087371587753296e-02 9.146916121244430542e-02
2.656000000000000000e+03 2.455236625671386719e+01 1.724721145629882812e+01 7.962481677532196045e-02 1.108280867338180542e-01 5.713587254285812378e-02 9.530230611562728882e-02
2.657000000000000000e+03 4.504355621337890625e+01 2.449158859252929688e+01 -1.515487313270568848e+00 -1.353921890258789062e+00 -8.608227372169494629e-01 -1.386528372764587402e+00
2.658000000000000000e+03 4.260977935791015625e+01 3.427780151367187500e+01 7.157005369663238525e-02 4.472037032246589661e-02 3.488712757825851440e-02 5.518112704157829285e-02
2.659000000000000000e+03 3.960249710083007812e+01 1.795335388183593750e+01 -1.193101763725280762e+00 -1.295258998870849609e+00 -7.465082406997680664e-01 -1.306147575378417969e+00
2.660000000000000000e+03 2.675994110107421875e+01 1.858624267578125000e+01 7.920114696025848389e-02 1.010221391916275024e-01 5.406698584556579590e-02 8.843473345041275024e-02
2.661000000000000000e+03 3.392209243774414062e+01 1.210939979553222656e+01 -1.331020951271057129e+00 -1.461767792701721191e+00 -8.378366231918334961e-01 -1.357056617736816406e+00
2.662000000000000000e+03 2.942257499694824219e+01 2.160152435302734375e+01 6.142639368772506714e-02 8.556190878152847290e-02 4.409649223089218140e-02 7.434487342834472656e-02
2.663000000000000000e+03 3.432620620727539062e+01 1.272542381286621094e+01 -1.327542662620544434e+00 -1.495768308639526367e+00 -8.469932675361633301e-01 -1.363839030265808105e+00
2.664000000000000000e+03 4.155735015869140625e+01 3.324576950073242188e+01 6.349621713161468506e-02 4.516195878386497498e-02 3.259745240211486816e-02 5.115428939461708069e-02
2.665000000000000000e+03 1.975873756408691406e+01 1.206157684326171875e+01 1.046348735690116882e-01 1.573728322982788086e-01 7.860231399536132812e-02 1.274756044149398804e-01
2.666000000000000000e+03 3.730921936035156250e+01 1.623618888854980469e+01 -1.270030498504638672e+00 -1.537566900253295898e+00 -8.422792553901672363e-01 -1.367921471595764160e+00
2.667000000000000000e+03 4.125242233276367188e+01 2.057128143310546875e+01 -1.232560038566589355e+00 -1.308599829673767090e+00 -7.623479962348937988e-01 -1.355470418930053711e+00
2.668000000000000000e+03 2.602734756469726562e+01 1.764934539794921875e+01 8.585770428180694580e-02 1.049896553158760071e-01 5.725421011447906494e-02 9.299521893262863159e-02
2.669000000000000000e+03 2.636769485473632812e+01 1.742272758483886719e+01 9.059158712625503540e-02 1.044693365693092346e-01 5.851827934384346008e-02 9.511178731918334961e-02
2.670000000000000000e+03 4.325281524658203125e+01 2.234325599670410156e+01 -1.390388965606689453e+00 -1.299544215202331543e+00 -8.069799542427062988e-01 -1.357298254966735840e+00
2.671000000000000000e+03 3.629312515258789062e+01 2.854731750488281250e+01 5.410792678594589233e-02 7.128300517797470093e-02 3.761728107929229736e-02 5.768924206495285034e-02
2.672000000000000000e+03 4.227408599853515625e+01 3.437232971191406250e+01 6.637836247682571411e-02 4.520266130566596985e-02 3.347430750727653503e-02 4.874085262417793274e-02
2.673000000000000000e+03 2.268468856811523438e+01 1.403567504882812500e+01 1.076968833804130554e-01 1.319652348756790161e-01 7.189863920211791992e-02 1.152873858809471130e-01
2.674000000000000000e+03 3.754250335693359375e+01 1.652609443664550781e+01 -1.271654129028320312e+00 -1.535547256469726562e+00 -8.421604633331298828e-01 -1.362485766410827637e+00
2.675000000000000000e+03 3.777186203002929688e+01 1.681123733520507812e+01 -1.271529912948608398e+00 -1.527512907981872559e+00 -8.397128582000732422e-01 -1.357885122299194336e+00
2.676000000000000000e+03 4.441853713989257812e+01 2.342617797851562500e+01 -1.426011085510253906e+00 -1.318446993827819824e+00 -8.233374357223510742e-01 -1.347545385360717773e+00
2.677000000000000000e+03 2.576408958435058594e+01 1.735282135009765625e+01 8.726518601179122925e-02 1.057415083050727844e-01 5.790200829505920410e-02 9.485652297735214233e-02
2.678000000000000000e+03 3.683065414428710938e+01 2.918673515319824219e+01 5.265872925519943237e-02 6.898833811283111572e-02 3.649412095546722412e-02 5.672329664230346680e-02
2.679000000000000000e+03 2.380016517639160156e+01 1.544051265716552734e+01 9.382798522710800171e-02 1.201987564563751221e-01 6.420802325010299683e-02 1.076416522264480591e-01
2.680000000000000000e+03 4.151198959350585938e+01 2.080147361755371094e+01 -1.255398750305175781e+00 -1.313129663467407227e+00 -7.705585360527038574e-01 -1.348282575607299805e+00
2.681000000000000000e+03 4.178882217407226562e+01 2.103611373901367188e+01 -1.281574130058288574e+00 -1.313928961753845215e+00 -7.786509394645690918e-01 -1.340888023376464844e+00
2.682000000000000000e+03 2.035527420043945312e+01 1.236413192749023438e+01 1.060961708426475525e-01 1.517532169818878174e-01 7.735481113195419312e-02 1.257138550281524658e-01
2.683000000000000000e+03 2.165294075012207031e+01 1.353219604492187500e+01 1.040483638644218445e-01 1.374652683734893799e-01 7.245408743619918823e-02 1.182427927851676941e-01
2.684000000000000000e+03 3.004016304016113281e+01 2.237164115905761719e+01 5.752511322498321533e-02 8.336721360683441162e-02 4.226769879460334778e-02 7.227607816457748413e-02
2.685000000000000000e+03 3.045122146606445312e+01 2.236991691589355469e+01 5.721872672438621521e-02 8.154781907796859741e-02 4.162996262311935425e-02 7.186536490917205811e-02
2.686000000000000000e+03 5.265537261962890625e+01 3.069162750244140625e+01 -1.327088832855224609e+00 -3.124640583992004395e-01 -4.918658435344696045e-01 -9.067655801773071289e-01
2.687000000000000000e+03 3.263074493408203125e+01 1.114968776702880859e+01 -1.417574524879455566e+00 -1.455800056457519531e+00 -8.620123863220214844e-01 -1.368628978729248047e+00
2.688000000000000000e+03 3.234560775756835938e+01 2.441751480102539062e+01 5.267055332660675049e-02 7.548104971647262573e-02 3.844548016786575317e-02 6.514569371938705444e-02
2.689000000000000000e+03 2.332864379882812500e+01 1.535685157775878906e+01 9.132489562034606934e-02 1.247237846255302429e-01 6.481460481882095337e-02 1.062365844845771790e-01
2.690000000000000000e+03 2.270142364501953125e+01 1.454102325439453125e+01 9.917743504047393799e-02 1.306031793355941772e-01 6.893417984247207642e-02 1.105622351169586182e-01
2.691000000000000000e+03 4.470840835571289062e+01 2.369604301452636719e+01 -1.437181830406188965e+00 -1.311913013458251953e+00 -8.247284293174743652e-01 -1.338650941848754883e+00
2.692000000000000000e+03 4.499822235107421875e+01 2.396507263183593750e+01 -1.446773409843444824e+00 -1.296971082687377930e+00 -8.231233954429626465e-01 -1.331453084945678711e+00
2.693000000000000000e+03 3.530067825317382812e+01 1.389431667327880859e+01 -1.320776820182800293e+00 -1.504611968994140625e+00 -8.476166725158691406e-01 -1.381343841552734375e+00
2.694000000000000000e+03 5.305792617797851562e+01 3.175080299377441406e+01 -1.224060416221618652e+00 -2.250089794397354126e-01 -4.347208142280578613e-01 -8.254843950271606445e-01
2.695000000000000000e+03 3.172045707702636719e+01 9.395293235778808594e+00 -1.321402907371520996e+00 -1.394281268119812012e+00 -8.147052526473999023e-01 -1.273162603378295898e+00
2.696000000000000000e+03 3.411116027832031250e+01 1.241905593872070312e+01 -1.328893661499023438e+00 -1.479909181594848633e+00 -8.426408767700195312e-01 -1.362771511077880859e+00
2.697000000000000000e+03 3.610663604736328125e+01 2.822511482238769531e+01 5.392718687653541565e-02 7.164856791496276855e-02 3.767272457480430603e-02 5.906787514686584473e-02
2.698000000000000000e+03 5.338372802734375000e+01 3.219233703613281250e+01 -1.165128707885742188e+00 -1.319434642791748047e-01 -3.891216516494750977e-01 -7.689077258110046387e-01
2.699000000000000000e+03 1.882362747192382812e+01 1.115600204467773438e+01 1.068416386842727661e-01 1.717218458652496338e-01 8.356904238462448120e-02 1.363089233636856079e-01
2.700000000000000000e+03 1.359087467193603516e+01 5.637141704559326172e+00 9.188067167997360229e-02 6.110565066337585449e-01 2.108811438083648682e-01 7.725141197443008423e-02
2.701000000000000000e+03 3.330228042602539062e+01 2.558297348022460938e+01 5.106523633003234863e-02 7.596149295568466187e-02 3.810801729559898376e-02 6.298403441905975342e-02
2.702000000000000000e+03 5.283417510986328125e+01 3.099631881713867188e+01 -1.305261850357055664e+00 -2.830975055694580078e-01 -4.765078127384185791e-01 -8.853566646575927734e-01
2.703000000000000000e+03 3.500115203857421875e+01 2.755973625183105469e+01 5.191389471292495728e-02 7.344879209995269775e-02 3.760880604386329651e-02 6.064260005950927734e-02
2.704000000000000000e+03 3.209315109252929688e+01 9.654375076293945312e+00 -1.321918010711669922e+00 -1.385014533996582031e+00 -8.120797872543334961e-01 -1.278841733932495117e+00
2.705000000000000000e+03 3.063179397583007812e+01 5.740226745605468750e+00 -1.907969832420349121e+00 -1.060148715972900391e+00 -8.904355764389038086e-01 -1.127045631408691406e+00
2.706000000000000000e+03 1.835492324829101562e+01 1.093375682830810547e+01 1.034573838114738464e-01 1.806894838809967041e-01 8.524405956268310547e-02 1.354518085718154907e-01
2.707000000000000000e+03 1.823073196411132812e+01 1.062015056610107422e+01 1.059437692165374756e-01 1.853185296058654785e-01 8.737868815660476685e-02 1.399541497230529785e-01
2.708000000000000000e+03 1.493050670623779297e+01 6.705191612243652344e+00 1.302339434623718262e-01 3.701435327529907227e-01 1.501132398843765259e-01 1.846014708280563354e-01
2.709000000000000000e+03 1.805072975158691406e+01 1.033032035827636719e+01 1.108623594045639038e-01 1.916126161813735962e-01 9.074249118566513062e-02 1.412023305892944336e-01
2.710000000000000000e+03 7.286576843261718750e+01 3.437921524047851562e+01 6.107615470886230469e+00 1.418952941894531250e+01 6.089143753051757812e+00 1.109220147132873535e+00
2.711000000000000000e+03 7.261041259765625000e+01 3.530834197998046875e+01 3.476742982864379883e+00 1.586687946319580078e+01 5.803086757659912109e+00 2.399441957473754883e+00
2.712000000000000000e+03 1.416397666931152344e+01 6.298810482025146484e+00 9.336005151271820068e-02 4.703957140445709229e-01 1.691267341375350952e-01 1.584717929363250732e-01
2.713000000000000000e+03 1.567217445373535156e+01 7.423313140869140625e+00 1.290907859802246094e-01 3.028073608875274658e-01 1.295694410800933838e-01 1.829865127801895142e-01
2.714000000000000000e+03 1.491421413421630859e+01 7.105499744415283203e+00 1.089527085423469543e-01 3.591693341732025146e-01 1.404366195201873779e-01 1.657747626304626465e-01
2.715000000000000000e+03 6.649594116210937500e+01 3.017232894897460938e+01 1.166896522045135498e-02 2.026711463928222656e+00 6.115140914916992188e-01 1.919099926948547363e+00
2.716000000000000000e+03 1.299100971221923828e+01 3.561363220214843750e+00 4.206593036651611328e-01 1.048826336860656738e+00 4.408456981182098389e-01 -3.436691164970397949e-01
2.717000000000000000e+03 1.292528724670410156e+01 4.575098037719726562e+00 1.856310665607452393e-01 7.552828788757324219e-01 2.822741866111755371e-01 -1.478909552097320557e-01
2.718000000000000000e+03 2.913935852050781250e+01 4.807708740234375000e+00 -2.284766912460327148e+00 -1.312916636466979980e+00 -1.079305052757263184e+00 -1.092759847640991211e+00
2.719000000000000000e+03 1.109835147857666016e+01 4.307390213012695312e+00 3.922952115535736084e-01 2.688143588602542877e-02 1.257530003786087036e-01 -1.442340761423110962e-01
2.720000000000000000e+03 5.392663955688476562e+01 3.172390937805175781e+01 -1.306622505187988281e+00 9.882219135761260986e-03 -3.890221118927001953e-01 -8.175894021987915039e-01
2.721000000000000000e+03 5.345942687988281250e+01 3.171444320678710938e+01 -1.273817420005798340e+00 -1.049640029668807983e-01 -4.136344194412231445e-01 -8.292176723480224609e-01
2.722000000000000000e+03 3.245751190185546875e+01 1.046161365509033203e+01 -1.355739712715148926e+00 -1.419227719306945801e+00 -8.324902057647705078e-01 -1.305393099784851074e+00
2.723000000000000000e+03 6.888414001464843750e+01 3.684268188476562500e+01 9.797539114952087402e-01 5.950843334197998047e+00 2.079179286956787109e+00 -4.192233562469482422e+00
2.724000000000000000e+03 6.375833511352539062e+01 3.133588981628417969e+01 -1.595762133598327637e+00 2.479749172925949097e-01 -4.043361842632293701e-01 6.959363818168640137e-02
2.725000000000000000e+03 1.157116889953613281e+01 3.437674045562744141e+00 5.637515783309936523e-01 2.145226299762725830e-02 1.755611598491668701e-01 -1.893273442983627319e-01
2.726000000000000000e+03 7.293066406250000000e+01 3.579110717773437500e+01 1.911004781723022461e+00 1.507005691528320312e+01 5.094318389892578125e+00 2.149302005767822266e+00
2.727000000000000000e+03 7.340071868896484375e+01 3.705367279052734375e+01 -1.319174766540527344e-01 1.303009891510009766e+01 3.869454383850097656e+00 1.225023031234741211e+00
2.728000000000000000e+03 3.219449996948242188e+01 6.137280464172363281e+00 -1.411484837532043457e+00 -9.774875044822692871e-01 -7.166917324066162109e-01 -9.989122748374938965e-01
2.729000000000000000e+03 6.500380516052246094e+00 -8.219356536865234375e+00 -1.477205008268356323e-01 -3.069826960563659668e-01 -1.364109516143798828e-01 -3.887080550193786621e-01
2.730000000000000000e+03 8.261919975280761719e+00 -5.981381416320800781e+00 -3.026529550552368164e-01 -1.801789402961730957e-01 -1.448495686054229736e-01 -3.895490467548370361e-01
2.731000000000000000e+03 1.456121635437011719e+01 6.703018665313720703e+00 1.058365851640701294e-01 4.047737419605255127e-01 1.531830877065658569e-01 1.652590185403823853e-01
2.732000000000000000e+03 3.177525711059570312e+01 7.215919971466064453e+00 -1.343896031379699707e+00 -1.212305665016174316e+00 -7.668605446815490723e-01 -1.214041829109191895e+00
2.733000000000000000e+03 3.166998481750488281e+01 6.211355686187744141e+00 -1.506991863250732422e+00 -1.030956029891967773e+00 -7.613843679428100586e-01 -1.093636751174926758e+00
2.734000000000000000e+03 3.124327850341796875e+01 9.654195785522460938e+00 -1.393819689750671387e+00 -1.417204618453979492e+00 -8.433072566986083984e-01 -1.328415989875793457e+00
2.735000000000000000e+03 6.496031188964843750e+01 3.074398803710937500e+01 -7.777362465858459473e-01 6.879261732101440430e-01 -2.694302238523960114e-02 6.927333474159240723e-01
2.736000000000000000e+03 6.601589202880859375e+01 3.023083877563476562e+01 -1.296284198760986328e-01 1.556486487388610840e+00 4.280574321746826172e-01 1.551171660423278809e+00
2.737000000000000000e+03 2.677940559387207031e+01 -1.861382246017456055e+00 8.654890656471252441e-01 -1.666822470724582672e-02 2.546462416648864746e-01 -2.988509535789489746e-01
2.738000000000000000e+03 6.365218734741210938e+01 3.075615119934082031e+01 -1.174565672874450684e+00 3.999066948890686035e-01 -2.323977202177047729e-01 1.540694534778594971e-01
2.739000000000000000e+03 4.539383888244628906e+00 4.150754928588867188e+00 -3.163576126098632812e-03 -9.434072673320770264e-02 -2.925129048526287079e-02 1.211004033684730530e-01
2.740000000000000000e+03 4.402692794799804688e+01 3.836783599853515625e+01 1.084444299340248108e-01 3.238498419523239136e-02 4.224882647395133972e-02 3.666272014379501343e-02
2.741000000000000000e+03 6.185477256774902344e+00 3.837478637695312500e+00 5.683358758687973022e-03 -1.152181923389434814e-01 -3.286045044660568237e-02 1.619486361742019653e-01
2.742000000000000000e+03 5.847059726715087891e+00 5.033519744873046875e+00 5.728662014007568359e-02 -1.277811378240585327e-01 -2.114835381507873535e-02 1.260309815406799316e-01
2.743000000000000000e+03 5.570153713226318359e+00 4.532946586608886719e+00 2.989376708865165710e-02 -1.142211332917213440e-01 -2.529821172356605530e-02 1.340705156326293945e-01
2.744000000000000000e+03 5.026401519775390625e+00 3.928026914596557617e+00 -9.874126873910427094e-03 -9.164227545261383057e-02 -3.045492060482501984e-02 1.368820220232009888e-01
2.745000000000000000e+03 2.484194183349609375e+01 -1.075260639190673828e+00 6.142603754997253418e-01 2.732768654823303223e-01 2.662611603736877441e-01 -6.890788674354553223e-01
2.746000000000000000e+03 2.540561485290527344e+01 -1.482515811920166016e+00 8.027102947235107422e-01 1.514451652765274048e-01 2.862466275691986084e-01 -5.753179788589477539e-01
2.747000000000000000e+03 6.298196029663085938e+01 3.083272361755371094e+01 -1.336421489715576172e+00 3.231527805328369141e-01 -3.039805889129638672e-01 -2.913594245910644531e-02
2.748000000000000000e+03 6.717010974884033203e+00 4.557480812072753906e+00 6.887435168027877808e-02 -1.400648057460784912e-01 -2.135713398456573486e-02 1.452213972806930542e-01
2.749000000000000000e+03 9.896095275878906250e+00 3.895131826400756836e+00 3.003454506397247314e-01 -2.048069685697555542e-01 2.866155095398426056e-02 6.845854222774505615e-02
2.750000000000000000e+03 8.138297080993652344e+00 4.636573791503906250e+00 1.572559624910354614e-01 -1.686103641986846924e-01 -3.406320465728640556e-03 1.168086305260658264e-01
2.751000000000000000e+03 2.934682273864746094e+01 -3.111493825912475586e+00 8.090353608131408691e-01 -4.205965995788574219e-01 1.165316253900527954e-01 -1.882578730583190918e-01
2.752000000000000000e+03 5.947692108154296875e+01 3.038966560363769531e+01 -1.371183156967163086e+00 3.334178924560546875e-01 -3.113295733928680420e-01 -6.012813448905944824e-01
2.753000000000000000e+03 3.997913360595703125e+01 3.227793502807617188e+01 5.938830226659774780e-02 5.397931858897209167e-02 3.401028737425804138e-02 5.199433490633964539e-02
2.754000000000000000e+03 1.181757164001464844e+01 -5.229096412658691406e+00 -5.867347121238708496e-01 -2.511571645736694336e-01 -2.513675689697265625e-01 -6.130803227424621582e-01
2.755000000000000000e+03 1.242845153808593750e+01 3.720469713211059570e+00 4.727946519851684570e-01 5.643002390861511230e-01 3.111284673213958740e-01 -3.422645330429077148e-01
2.756000000000000000e+03 5.692286682128906250e+01 3.113938903808593750e+01 -1.496713399887084961e+00 2.843439579010009766e-01 -3.637108206748962402e-01 -7.855803966522216797e-01
2.757000000000000000e+03 8.081119537353515625e+00 -4.380031585693359375e+00 -3.128370642662048340e-01 -8.981696516275405884e-02 -1.207962110638618469e-01 -2.763798534870147705e-01
2.758000000000000000e+03 8.897916793823242188e+00 -5.153331279754638672e+00 -3.668152093887329102e-01 -1.364527493715286255e-01 -1.509803831577301025e-01 -3.763246238231658936e-01
2.759000000000000000e+03 5.552358627319335938e+01 3.952442550659179688e+01 2.121503055095672607e-01 -3.105604052543640137e-01 -2.952302806079387665e-02 7.416619360446929932e-02
2.760000000000000000e+03 5.286177825927734375e+01 4.092642211914062500e+01 2.350949496030807495e-01 -1.723272055387496948e-01 1.883032172918319702e-02 1.066190525889396667e-01
2.761000000000000000e+03 6.047524642944335938e+01 3.093784904479980469e+01 -1.579774737358093262e+00 2.475256621837615967e-01 -3.996747136116027832e-01 -4.861929714679718018e-01
2.762000000000000000e+03 6.190577316284179688e+01 3.000537300109863281e+01 -1.032193064689636230e+00 4.666044116020202637e-01 -1.696766167879104614e-01 -1.829858273267745972e-01
2.763000000000000000e+03 3.877172470092773438e+01 3.093180847167968750e+01 5.581318214535713196e-02 5.979035422205924988e-02 3.468105942010879517e-02 5.571441724896430969e-02
2.764000000000000000e+03 3.699333572387695312e+01 3.033125877380371094e+01 5.233975872397422791e-02 6.690713018178939819e-02 3.577406704425811768e-02 5.449300631880760193e-02
2.765000000000000000e+03 6.172038269042968750e+01 3.048078155517578125e+01 -1.299389958381652832e+00 3.372606337070465088e-01 -2.886388003826141357e-01 -2.859842181205749512e-01
2.766000000000000000e+03 5.819205474853515625e+01 2.994285011291503906e+01 -1.290542125701904297e+00 3.697599470615386963e-01 -2.762346267700195312e-01 -7.174798846244812012e-01
2.767000000000000000e+03 5.884568786621093750e+01 3.013149642944335938e+01 -1.319766759872436523e+00 3.687746226787567139e-01 -2.852976322174072266e-01 -6.677008867263793945e-01
2.768000000000000000e+03 5.787710189819335938e+01 3.060178565979003906e+01 -1.432863235473632812e+00 3.199519515037536621e-01 -3.338733911514282227e-01 -7.485288977622985840e-01
2.769000000000000000e+03 5.851030731201171875e+01 3.075672149658203125e+01 -1.478297829627990723e+00 3.057145476341247559e-01 -3.517749905586242676e-01 -6.979016065597534180e-01
2.770000000000000000e+03 7.992831707000732422e+00 5.387197494506835938e+00 1.628486365079879761e-01 -1.407223790884017944e-01 6.637874990701675415e-03 7.899825274944305420e-02
2.771000000000000000e+03 3.600021839141845703e+00 -6.856499195098876953e+00 -7.429742068052291870e-02 -1.860212683677673340e-01 -7.809560745954513550e-02 -1.782156080007553101e-01
2.772000000000000000e+03 6.049397277832031250e+01 3.042477989196777344e+01 -1.345040798187255859e+00 3.330970406532287598e-01 -3.035831153392791748e-01 -4.768502116203308105e-01
2.773000000000000000e+03 6.113848495483398438e+01 3.041529083251953125e+01 -1.314281821250915527e+00 3.227762281894683838e-01 -2.974516749382019043e-01 -3.739454448223114014e-01
2.774000000000000000e+03 5.154758453369140625e+00 -5.600043773651123047e+00 -1.336276084184646606e-01 -1.467512696981430054e-01 -8.411366492509841919e-02 -2.006426900625228882e-01
2.775000000000000000e+03 5.926124095916748047e+00 -5.447849273681640625e+00 -1.776775717735290527e-01 -1.414057463407516479e-01 -9.572499245405197144e-02 -2.349564433097839355e-01
2.776000000000000000e+03 6.112382888793945312e+00 -6.289393901824951172e+00 -1.710335761308670044e-01 -1.925694048404693604e-01 -1.090808957815170288e-01 -2.843555212020874023e-01
2.777000000000000000e+03 5.560223388671875000e+01 3.081850242614746094e+01 -1.413532018661499023e+00 2.431289553642272949e-01 -3.511209189891815186e-01 -8.419085144996643066e-01
2.778000000000000000e+03 7.436518192291259766e+00 -5.234003067016601562e+00 -2.666687965393066406e-01 -1.328538954257965088e-01 -1.198568046092987061e-01 -3.009606897830963135e-01
2.779000000000000000e+03 8.171526908874511719e+00 -5.182973384857177734e+00 -3.091852366924285889e-01 -1.456609219312667847e-01 -1.364538371562957764e-01 -3.393866121768951416e-01
2.780000000000000000e+03 1.180043506622314453e+01 3.952682256698608398e+00 4.633769690990447998e-01 2.317543476819992065e-01 2.085393965244293213e-01 -2.633086740970611572e-01
2.781000000000000000e+03 1.109038639068603516e+01 5.202774524688720703e+00 2.901156246662139893e-01 1.313457190990447998e-01 1.264384090900421143e-01 -1.536986827850341797e-01
2.782000000000000000e+03 5.655348587036132812e+01 3.033929061889648438e+01 -1.377892255783081055e+00 3.113843798637390137e-01 -3.199523687362670898e-01 -8.233963847160339355e-01
2.783000000000000000e+03 5.592753219604492188e+01 3.016780281066894531e+01 -1.358295321464538574e+00 2.782234251499176025e-01 -3.240215778350830078e-01 -8.425039052963256836e-01
2.784000000000000000e+03 1.740200614929199219e+01 -3.729147672653198242e+00 -1.283447265625000000e+00 -1.918304324150085449e+00 -9.605255126953125000e-01 -1.383237123489379883e+00
2.785000000000000000e+03 8.926851272583007812e+00 4.642412185668945312e+00 2.151619791984558105e-01 -1.730852723121643066e-01 1.262301206588745117e-02 8.378298580646514893e-02
2.786000000000000000e+03 3.169979095458984375e+01 8.651903152465820312e+00 -1.253340840339660645e+00 -1.369860291481018066e+00 -7.869603037834167480e-01 -1.227470874786376953e+00
2.787000000000000000e+03 3.134517669677734375e+01 9.141783714294433594e+00 -1.347752809524536133e+00 -1.383247852325439453e+00 -8.193001747131347656e-01 -1.271613121032714844e+00
2.788000000000000000e+03 3.190314674377441406e+01 7.750922203063964844e+00 -1.293851256370544434e+00 -1.254998922348022461e+00 -7.646549940109252930e-01 -1.227902412414550781e+00
2.789000000000000000e+03 6.830759429931640625e+01 3.881879425048828125e+01 1.596668660640716553e-01 6.055399417877197266e+00 1.864519953727722168e+00 -2.419037342071533203e+00
2.790000000000000000e+03 1.415458965301513672e+01 -5.467458724975585938e+00 -7.146210670471191406e-01 -6.306293010711669922e-01 -4.035751223564147949e-01 -8.970834612846374512e-01
2.791000000000000000e+03 1.335872268676757812e+01 -4.591974258422851562e+00 -8.155157566070556641e-01 -3.794263303279876709e-01 -3.584826290607452393e-01 -7.381144165992736816e-01
2.792000000000000000e+03 4.381922912597656250e+01 3.662780761718750000e+01 9.022457897663116455e-02 3.369557857513427734e-02 3.717604652047157288e-02 4.410978779196739197e-02
2.793000000000000000e+03 4.788845825195312500e+01 3.975177764892578125e+01 1.404073685407638550e-01 1.789955608546733856e-02 4.749207571148872375e-02 2.653813920915126801e-02
2.794000000000000000e+03 4.337170791625976562e+01 3.517437744140625000e+01 7.872556149959564209e-02 4.282976314425468445e-02 3.646659478545188904e-02 5.286897346377372742e-02
2.795000000000000000e+03 6.773979187011718750e+01 3.602946472167968750e+01 9.999479055404663086e-01 1.540549993515014648e+00 7.621493935585021973e-01 -2.145936250686645508e+00
2.796000000000000000e+03 1.626855468750000000e+01 -8.110421180725097656e+00 -3.436399251222610474e-02 -1.011064767837524414e+00 -3.136286139488220215e-01 -7.238765358924865723e-01
2.797000000000000000e+03 3.882624816894531250e+01 -1.332842445373535156e+01 3.401850461959838867e-01 -2.047468572854995728e-01 4.063145071268081665e-02 -8.805209770798683167e-03
2.798000000000000000e+03 3.432529830932617188e+01 -7.987651824951171875e+00 6.236915588378906250e-01 -4.667515158653259277e-01 4.708201438188552856e-02 -1.276424080133438110e-01
2.799000000000000000e+03 3.509056091308593750e+01 -8.999972343444824219e+00 5.941950082778930664e-01 -4.414802789688110352e-01 4.581442475318908691e-02 -1.130299493670463562e-01
2.800000000000000000e+03 2.071055603027343750e+01 -2.086662673950195312e+01 2.383797168731689453e-01 5.934274196624755859e-02 8.931673318147659302e-02 -3.345855474472045898e-01
2.801000000000000000e+03 1.587190532684326172e+01 -5.685258865356445312e+00 -6.177126169204711914e-01 -1.173341989517211914e+00 -5.373163819313049316e-01 -1.023093819618225098e+00
2.802000000000000000e+03 1.504950237274169922e+01 -4.695078849792480469e+00 -9.181742668151855469e-01 -7.543827891349792480e-01 -5.017670989036560059e-01 -9.680978059768676758e-01
2.803000000000000000e+03 2.731348991394042969e+00 6.602978706359863281e+00 2.039386890828609467e-02 -1.278651654720306396e-01 -3.224138915538787842e-02 6.313517689704895020e-02
2.804000000000000000e+03 1.984184265136718750e+01 -2.031655311584472656e+01 2.532291710376739502e-01 -4.759269207715988159e-02 6.169094145298004150e-02 -3.329399526119232178e-01
2.805000000000000000e+03 2.129170227050781250e+01 -2.195610618591308594e+01 2.426001280546188354e-01 9.795055538415908813e-02 1.021652072668075562e-01 -3.430515229701995850e-01
2.806000000000000000e+03 1.628774070739746094e+01 -6.951441287994384766e+00 -2.770726978778839111e-01 -1.157677888870239258e+00 -4.304251968860626221e-01 -8.258166313171386719e-01
2.807000000000000000e+03 7.433005523681640625e+01 3.582862472534179688e+01 2.036009073257446289e+00 1.168708610534667969e+01 4.116928577423095703e+00 1.807405948638916016e+00
2.808000000000000000e+03 4.590354919433593750e+01 -2.613998985290527344e+01 -1.378027796745300293e-01 8.713244199752807617e-01 2.200565040111541748e-01 1.345122754573822021e-01
2.809000000000000000e+03 4.471176528930664062e+01 -2.426211166381835938e+01 -1.031306907534599304e-01 5.666660070419311523e-01 1.390605866909027100e-01 1.142401620745658875e-01
2.810000000000000000e+03 2.265402793884277344e+01 -2.426778221130371094e+01 2.519544661045074463e-01 2.320753931999206543e-01 1.452089548110961914e-01 -3.572889864444732666e-01
2.811000000000000000e+03 5.801420211791992188e+01 4.171408081054687500e+01 5.959845185279846191e-01 -4.182381629943847656e-01 5.332389846444129944e-02 1.109959706664085388e-01
2.812000000000000000e+03 4.160131835937500000e+01 -2.153092765808105469e+01 -5.056248977780342102e-02 1.590185426175594330e-02 -1.039818953722715378e-02 1.488502621650695801e-01
2.813000000000000000e+03 4.028008270263671875e+01 -1.916719818115234375e+01 1.071808673441410065e-02 -1.164841800928115845e-01 -3.172982856631278992e-02 1.270552426576614380e-01
2.814000000000000000e+03 4.484650421142578125e+01 -1.943545532226562500e+01 8.820610493421554565e-02 6.256699562072753906e-01 2.141628265380859375e-01 5.864439904689788818e-02
2.815000000000000000e+03 3.301215744018554688e+01 -5.913739681243896484e+00 7.361744642257690430e-01 -5.259417295455932617e-01 6.306981295347213745e-02 -1.124345734715461731e-01
2.816000000000000000e+03 4.406618499755859375e+01 -2.312340927124023438e+01 -5.552455037832260132e-02 4.548605680465698242e-01 1.198008060455322266e-01 1.059547513723373413e-01
2.817000000000000000e+03 2.353574371337890625e+01 -2.342374610900878906e+01 2.408088296651840210e-01 3.382799029350280762e-01 1.737266182899475098e-01 -3.502208292484283447e-01
2.818000000000000000e+03 3.830433654785156250e+01 -1.544140815734863281e+01 1.824240237474441528e-01 -2.683428823947906494e-01 -2.577565237879753113e-02 5.582461133599281311e-02
2.819000000000000000e+03 4.337438201904296875e+01 -2.197393035888671875e+01 -3.118116408586502075e-02 3.381839990615844727e-01 9.210085123777389526e-02 1.080068796873092651e-01
2.820000000000000000e+03 4.011326599121093750e+01 -1.602337837219238281e+01 1.931477040052413940e-01 -8.049878478050231934e-02 3.379467129707336426e-02 4.127907380461692810e-02
2.821000000000000000e+03 7.547295379638671875e+01 2.693534278869628906e+01 -8.218076825141906738e-01 9.948661804199218750e+00 2.738056421279907227e+00 -9.471158385276794434e-01
2.822000000000000000e+03 7.543141174316406250e+01 -2.721932029724121094e+01 4.753304645419120789e-03 6.228452682495117188e+00 1.869961738586425781e+00 1.139017790555953979e-01
2.823000000000000000e+03 7.464687347412109375e+01 2.509305763244628906e+01 -9.136408567428588867e-01 9.564760208129882812e+00 2.595335960388183594e+00 -2.963652014732360840e-01
2.824000000000000000e+03 7.610991668701171875e+01 3.304642486572265625e+01 1.666084527969360352e+00 9.217347145080566406e+00 3.265029430389404297e+00 -7.993906736373901367e-01
2.825000000000000000e+03 7.654595184326171875e+01 3.100650215148925781e+01 4.749867320060729980e-01 9.239295005798339844e+00 2.914284467697143555e+00 -1.633769392967224121e+00
2.826000000000000000e+03 7.369764709472656250e+01 1.969477081298828125e+01 -3.423706889152526855e-01 8.146824836730957031e+00 2.341336250305175781e+00 4.596046507358551025e-01
2.827000000000000000e+03 7.543232727050781250e+01 -2.054147148132324219e+01 8.808826096355915070e-03 6.395677566528320312e+00 1.921345949172973633e+00 1.396956890821456909e-01
2.828000000000000000e+03 7.408152008056640625e+01 -2.180338478088378906e+01 1.574535854160785675e-02 6.126776695251464844e+00 1.842756628990173340e+00 1.700392663478851318e-01
2.829000000000000000e+03 7.417638397216796875e+01 1.118297767639160156e+01 1.598219759762287140e-02 7.544219017028808594e+00 2.268060445785522461e+00 5.215656161308288574e-01
2.830000000000000000e+03 7.441170501708984375e+01 -9.777177810668945312e+00 2.904365770518779755e-02 6.539059638977050781e+00 1.970430970191955566e+00 2.428738027811050415e-01
2.831000000000000000e+03 7.559173583984375000e+01 -1.377486705780029297e+01 1.443696580827236176e-02 6.634887695312500000e+00 1.994797348976135254e+00 1.677589416503906250e-01
2.832000000000000000e+03 7.427562713623046875e+01 -1.505044364929199219e+01 2.188390679657459259e-02 6.341110706329345703e+00 1.908898353576660156e+00 2.014135718345642090e-01
2.833000000000000000e+03 7.411583709716796875e+01 -3.125898599624633789e+00 4.109292477369308472e-02 6.738315105438232422e+00 2.033822298049926758e+00 3.320571482181549072e-01
2.834000000000000000e+03 7.434233093261718750e+01 4.157824993133544922e+00 4.146660119295120239e-02 7.177398204803466797e+00 2.165659427642822266e+00 4.291943311691284180e-01
2.835000000000000000e+03 7.562054443359375000e+01 -7.080170631408691406e+00 2.346468158066272736e-02 6.904237747192382812e+00 2.078310728073120117e+00 2.193730473518371582e-01
2.836000000000000000e+03 7.440235137939453125e+01 5.518984794616699219e+00 4.061844199895858765e-02 7.277766227722167969e+00 2.195515394210815430e+00 4.422326385974884033e-01
2.837000000000000000e+03 7.425310516357421875e+01 -4.504443645477294922e+00 4.041016846895217896e-02 6.715762615203857422e+00 2.026851892471313477e+00 3.114091455936431885e-01
2.838000000000000000e+03 7.432545471191406250e+01 -5.833350658416748047e+00 4.034338518977165222e-02 6.674384117126464844e+00 2.014418363571166992e+00 2.890937924385070801e-01
2.839000000000000000e+03 7.538735961914062500e+01 1.320043325424194336e+00 2.870596200227737427e-02 7.286132335662841797e+00 2.194451570510864258e+00 3.275538980960845947e-01
2.840000000000000000e+03 7.439507293701171875e+01 -1.109319496154785156e+01 2.528526261448860168e-02 6.489756584167480469e+00 1.954512596130371094e+00 2.296930402517318726e-01
2.841000000000000000e+03 7.435916137695312500e+01 -1.240784549713134766e+01 2.455275505781173706e-02 6.440010547637939453e+00 1.939368963241577148e+00 2.207916229963302612e-01
2.842000000000000000e+03 7.636979675292968750e+01 2.919009971618652344e+01 -2.442747354507446289e-01 9.655739784240722656e+00 2.823439359664916992e+00 -1.617644906044006348e+00
2.843000000000000000e+03 7.557692718505859375e+01 2.795365715026855469e+01 -7.234594821929931641e-01 1.013778114318847656e+01 2.824296474456787109e+00 -1.278511881828308105e+00
2.844000000000000000e+03 7.419815826416015625e+01 -1.772098731994628906e+01 1.735062338411808014e-02 6.245280265808105469e+00 1.878789305686950684e+00 1.856828480958938599e-01
2.845000000000000000e+03 7.414357757568359375e+01 -1.907832527160644531e+01 1.235464867204427719e-02 6.198601245880126953e+00 1.863286733627319336e+00 1.786551326513290405e-01
2.846000000000000000e+03 7.463232421875000000e+01 1.827940368652343750e+01 -1.994904428720474243e-01 8.303571701049804688e+00 2.431224584579467773e+00 4.110279083251953125e-01
2.847000000000000000e+03 7.416636657714843750e+01 -2.448493957519531250e+01 1.422390807420015335e-02 6.069115638732910156e+00 1.825001835823059082e+00 1.473028808832168579e-01
2.848000000000000000e+03 7.563226318359375000e+01 1.541895580291748047e+01 -5.658627673983573914e-02 8.412625312805175781e+00 2.506811618804931641e+00 3.956192731857299805e-01
2.849000000000000000e+03 7.415449523925781250e+01 -2.702396965026855469e+01 1.129489578306674957e-02 6.019966602325439453e+00 1.809378504753112793e+00 1.405222266912460327e-01
2.850000000000000000e+03 7.546397399902343750e+01 -2.591083526611328125e+01 9.353357367217540741e-03 6.261688709259033203e+00 1.881312608718872070e+00 1.154792010784149170e-01
2.851000000000000000e+03 7.557411956787109375e+01 8.323625564575195312e+00 1.773039624094963074e-02 7.810159683227539062e+00 2.348366975784301758e+00 4.002650976181030273e-01
2.852000000000000000e+03 7.385968017578125000e+01 -1.353588253259658813e-01 5.259032547473907471e-02 6.812877655029296875e+00 2.059640407562255859e+00 3.935617208480834961e-01
2.853000000000000000e+03 7.422742462158203125e+01 2.777365446090698242e+00 4.603684693574905396e-02 7.065562248229980469e+00 2.133479833602905273e+00 4.165850281715393066e-01
2.854000000000000000e+03 7.406229400634765625e+01 1.360462546348571777e+00 4.562889784574508667e-02 6.943825244903564453e+00 2.096836090087890625e+00 4.053317904472351074e-01
2.855000000000000000e+03 7.437193298339843750e+01 -7.146709442138671875e+00 3.661862760782241821e-02 6.636234283447265625e+00 2.001855850219726562e+00 2.707041501998901367e-01
2.856000000000000000e+03 7.440596008300781250e+01 6.871926784515380859e+00 4.173403978347778320e-02 7.359677791595458984e+00 2.220423460006713867e+00 4.562193453311920166e-01
2.857000000000000000e+03 7.431571197509765625e+01 -1.372555160522460938e+01 2.417626231908798218e-02 6.387657642364501953e+00 1.923550128936767578e+00 2.106578350067138672e-01
2.858000000000000000e+03 7.417063903808593750e+01 9.691427230834960938e+00 2.916644327342510223e-02 7.452783584594726562e+00 2.244585037231445312e+00 5.076689124107360840e-01
2.859000000000000000e+03 7.433953094482421875e+01 8.242563247680664062e+00 3.484452143311500549e-02 7.414153575897216797e+00 2.234699487686157227e+00 4.798810184001922607e-01
2.860000000000000000e+03 7.408571624755859375e+01 -2.044231414794921875e+01 1.334505900740623474e-02 6.158292770385742188e+00 1.851491332054138184e+00 1.744175404310226440e-01
2.861000000000000000e+03 7.599974060058593750e+01 2.213234901428222656e+01 -3.471180498600006104e-01 9.157252311706542969e+00 2.643040180206298828e+00 -6.635818630456924438e-02
2.862000000000000000e+03 7.381555938720703125e+01 -2.951854896545410156e+01 2.245431765913963318e-02 5.923047542572021484e+00 1.783650517463684082e+00 1.264331787824630737e-01
2.863000000000000000e+03 7.674486541748046875e+01 3.403724670410156250e+01 1.376795411109924316e+00 8.434372901916503906e+00 2.943350553512573242e+00 -9.827466681599617004e-03
2.864000000000000000e+03 7.483136749267578125e+01 3.553568267822265625e+01 2.096567153930664062e+00 1.106322860717773438e+01 3.947938680648803711e+00 1.570644617080688477e+00
2.865000000000000000e+03 7.441336059570312500e+01 1.401811122894287109e+01 -3.352397307753562927e-02 7.838539600372314453e+00 2.341504573822021484e+00 5.094569325447082520e-01
2.866000000000000000e+03 7.439046478271484375e+01 1.688955116271972656e+01 -1.294661164283752441e-01 8.067456245422363281e+00 2.381397008895874023e+00 4.795237183570861816e-01
2.867000000000000000e+03 7.432297515869140625e+01 1.544314765930175781e+01 -7.781605422496795654e-02 7.919125556945800781e+00 2.352392911911010742e+00 5.084093809127807617e-01
2.868000000000000000e+03 7.301837921142578125e+01 -3.218204116821289062e+01 3.453638032078742981e-02 5.740666389465332031e+00 1.732560753822326660e+00 1.291596144437789917e-01
2.869000000000000000e+03 7.296801757812500000e+01 3.221453857421875000e+01 2.391381978988647461e+00 1.451756858825683594e+01 5.072685241699218750e+00 -2.148738622665405273e+00
2.870000000000000000e+03 5.146178245544433594e+00 -3.044959259033203125e+01 3.825525194406509399e-02 -1.223316907882690430e+00 -3.555184900760650635e-01 -1.405415236949920654e-01
2.871000000000000000e+03 7.486916351318359375e+01 2.084583854675292969e+01 -3.855030238628387451e-01 8.712412834167480469e+00 2.498072862625122070e+00 2.252705842256546021e-01
2.872000000000000000e+03 4.209113121032714844e+00 2.801552772521972656e+01 -2.982509555295109749e-03 -8.155927807092666626e-02 -2.536253631114959717e-02 -1.280119083821773529e-02
2.873000000000000000e+03 5.427772045135498047e+00 2.846420288085937500e+01 -4.612261895090341568e-03 -6.479998677968978882e-02 -2.082367427647113800e-02 -1.280226558446884155e-02
2.874000000000000000e+03 4.494143962860107422e+00 -2.679615592956542969e+01 3.378957137465476990e-02 -1.177069783210754395e+00 -3.429840505123138428e-01 -1.748822033405303955e-01
2.875000000000000000e+03 5.097451686859130859e+00 -1.052097129821777344e+01 -5.269126221537590027e-02 -4.164378046989440918e-01 -1.407387256622314453e-01 -3.546818196773529053e-01
2.876000000000000000e+03 7.487765502929687500e+01 2.305939865112304688e+01 -6.263835430145263672e-01 9.064701080322265625e+00 2.531495094299316406e+00 -9.864311665296554565e-03
2.877000000000000000e+03 7.490126037597656250e+01 2.202715682983398438e+01 -4.910160303115844727e-01 8.913866996765136719e+00 2.526855230331420898e+00 8.056184649467468262e-02
2.878000000000000000e+03 5.977120399475097656e+00 2.358366012573242188e+01 -5.571059416979551315e-03 -5.648038163781166077e-02 -1.861543208360671997e-02 -1.890334114432334900e-02
2.879000000000000000e+03 5.943172454833984375e+00 -2.258054733276367188e+01 6.156754121184349060e-02 -9.471096396446228027e-01 -2.656626403331756592e-01 -2.846432030200958252e-01
2.880000000000000000e+03 5.413440227508544922e+00 -1.570853137969970703e+01 3.079412877559661865e-02 -6.947880983352661133e-01 -1.991981863975524902e-01 -3.667404651641845703e-01
2.881000000000000000e+03 5.633592605590820312e+00 -1.838235664367675781e+01 5.131174251437187195e-02 -8.065224289894104004e-01 -2.265632003545761108e-01 -3.395306468009948730e-01
2.882000000000000000e+03 4.456293582916259766e+00 -1.997687911987304688e+01 3.661223873496055603e-02 -9.203116893768310547e-01 -2.651098370552062988e-01 -2.648032903671264648e-01
2.883000000000000000e+03 5.196407318115234375e+00 1.629068565368652344e+01 3.484781133010983467e-03 -7.495251297950744629e-02 -2.144031971693038940e-02 -2.319378033280372620e-02
2.884000000000000000e+03 5.288864612579345703e+00 1.771120834350585938e+01 5.451875622384250164e-04 -7.174820452928543091e-02 -2.136090584099292755e-02 -2.440700121223926544e-02
2.885000000000000000e+03 4.075841903686523438e+00 1.632004737854003906e+01 3.304643090814352036e-03 -1.052891686558723450e-01 -3.059535846114158630e-02 -2.203269489109516144e-02
2.886000000000000000e+03 5.135466098785400391e+00 1.487733554840087891e+01 1.009146030992269516e-02 -7.841562479734420776e-02 -2.049724943935871124e-02 -2.165261842310428619e-02
2.887000000000000000e+03 4.026724815368652344e+00 1.489728069305419922e+01 6.599741522222757339e-03 -1.096546202898025513e-01 -3.091646358370780945e-02 -1.905868574976921082e-02
2.888000000000000000e+03 6.602938175201416016e+00 -2.810750389099121094e+01 6.827477365732192993e-02 -1.038021326065063477e+00 -2.909239530563354492e-01 -2.148305177688598633e-01
2.889000000000000000e+03 6.069640159606933594e+00 2.532737350463867188e+01 -5.944448057562112808e-03 -5.550679937005043030e-02 -1.843537390232086182e-02 -1.711894385516643524e-02
2.890000000000000000e+03 5.155828952789306641e+00 -1.181538963317871094e+01 -2.391727827489376068e-02 -4.981532692909240723e-01 -1.566211581230163574e-01 -3.722998499870300293e-01
2.891000000000000000e+03 4.646009445190429688e+00 3.311570739746093750e+01 -1.802012440748512745e-03 -6.859095394611358643e-02 -2.111789025366306305e-02 -7.476338651031255722e-03
2.892000000000000000e+03 5.458811283111572266e+00 2.054472541809082031e+01 -3.165673930197954178e-03 -6.714729219675064087e-02 -2.109389007091522217e-02 -2.326130867004394531e-02
2.893000000000000000e+03 1.177463150024414062e+01 -3.221562194824218750e+01 1.485816389322280884e-01 -6.869733929634094238e-01 -1.615175157785415649e-01 -2.060962468385696411e-01
2.894000000000000000e+03 7.711216926574707031e+00 -3.378081130981445312e+01 7.766354829072952271e-02 -1.065443277359008789e+00 -2.963339090347290039e-01 -1.366512179374694824e-01
2.895000000000000000e+03 5.864644527435302734e+00 -2.117235565185546875e+01 6.041310355067253113e-02 -9.013513326644897461e-01 -2.522814571857452393e-01 -3.001054525375366211e-01
2.896000000000000000e+03 5.752018451690673828e+00 -1.976543617248535156e+01 5.912103876471519470e-02 -8.614128828048706055e-01 -2.406875491142272949e-01 -3.267799615859985352e-01
2.897000000000000000e+03 3.948649215698242188e+01 -1.471813392639160156e+01 2.415822148323059082e-01 -1.301268935203552246e-01 3.343659639358520508e-02 2.133716270327568054e-02
2.898000000000000000e+03 5.751886367797851562e+00 -2.880192947387695312e+01 4.989647865295410156e-02 -1.134129405021667480e+00 -3.252698779106140137e-01 -1.790891289710998535e-01
2.899000000000000000e+03 5.615820884704589844e+00 -2.786022949218750000e+01 5.311698094010353088e-02 -1.115254878997802734e+00 -3.186413645744323730e-01 -1.932436823844909668e-01
2.900000000000000000e+03 3.845005035400390625e+00 9.301258087158203125e+00 3.692112863063812256e-02 -1.285798102617263794e-01 -2.749760448932647705e-02 2.771535702049732208e-02
2.901000000000000000e+03 4.903641700744628906e+00 9.266797065734863281e+00 5.570332333445549011e-02 -1.073473915457725525e-01 -1.549321971833705902e-02 2.297967299818992615e-02
2.902000000000000000e+03 5.314218521118164062e+00 -1.440289688110351562e+01 1.739447191357612610e-02 -6.384662389755249023e-01 -1.863215267658233643e-01 -3.780455291271209717e-01
2.903000000000000000e+03 4.125671386718750000e+00 -1.454288864135742188e+01 9.252820163965225220e-03 -6.471960544586181641e-01 -1.913829594850540161e-01 -3.090087771415710449e-01
2.904000000000000000e+03 4.874524593353271484e+00 7.987123966217041016e+00 6.130585446953773499e-02 -1.165611967444419861e-01 -1.657660305500030518e-02 4.829515889286994934e-02
2.905000000000000000e+03 4.534347057342529297e+00 -6.769439697265625000e+00 -1.007934287190437317e-01 -1.958090960979461670e-01 -8.898075670003890991e-02 -2.184937149286270142e-01
2.906000000000000000e+03 4.833300113677978516e+00 -7.923452854156494141e+00 -1.025862321257591248e-01 -2.623538076877593994e-01 -1.094820126891136169e-01 -2.812095880508422852e-01
2.907000000000000000e+03 5.746116638183593750e+00 -7.533663749694824219e+00 -1.315750628709793091e-01 -2.532215714454650879e-01 -1.154389902949333191e-01 -3.134510815143585205e-01
2.908000000000000000e+03 4.151436805725097656e+00 3.464729690551757812e+01 -7.323175086639821529e-04 -7.356529682874679565e-02 -2.228928357362747192e-02 -4.698606673628091812e-03
2.909000000000000000e+03 7.207712554931640625e+01 3.890690231323242188e+01 -1.727751970291137695e+00 1.204005908966064453e+01 3.093692302703857422e+00 -2.948901653289794922e-01
2.910000000000000000e+03 3.791976928710937500e+01 -1.206961059570312500e+01 3.774041831493377686e-01 -2.713145911693572998e-01 3.182687982916831970e-02 -3.448348864912986755e-02
2.911000000000000000e+03 3.686595153808593750e+01 -1.102386951446533203e+01 4.637454748153686523e-01 -3.538470864295959473e-01 3.296951949596405029e-02 -5.635584145784378052e-02
2.912000000000000000e+03 4.603307342529296875e+01 4.012599945068359375e+01 1.316988915205001831e-01 2.865543775260448456e-02 4.810629785060882568e-02 2.114260010421276093e-02
2.913000000000000000e+03 3.111023521423339844e+01 -5.520759582519531250e+00 8.210723996162414551e-01 -4.056630730628967285e-01 1.246227994561195374e-01 -2.190764844417572021e-01
2.914000000000000000e+03 1.890100860595703125e+01 -1.502920627593994141e+01 2.503612935543060303e-01 -2.693882882595062256e-01 -5.708100274205207825e-03 -3.162089288234710693e-01
2.915000000000000000e+03 1.639215278625488281e+01 -1.525857353210449219e+01 2.620455920696258545e-01 -4.727902412414550781e-01 -6.322339922189712524e-02 -4.291156828403472900e-01
2.916000000000000000e+03 2.551817131042480469e+01 -3.084777259826660156e+01 3.703470230102539062e-01 4.122084975242614746e-01 2.347666621208190918e-01 -3.748404681682586670e-01
2.917000000000000000e+03 2.557939720153808594e+01 -2.873861503601074219e+01 3.172376155853271484e-01 4.669646322727203369e-01 2.352606803178787231e-01 -3.916730880737304688e-01
2.918000000000000000e+03 1.540155124664306641e+01 -1.213607311248779297e+01 2.056114226579666138e-01 -6.966866850852966309e-01 -1.473225653171539307e-01 -5.402077436447143555e-01
2.919000000000000000e+03 1.520564270019531250e+01 -9.664494514465332031e+00 4.592893645167350769e-02 -8.005034923553466797e-01 -2.263723760843276978e-01 -6.802942752838134766e-01
2.920000000000000000e+03 1.541540336608886719e+01 -1.094418144226074219e+01 1.242909356951713562e-01 -7.835029363632202148e-01 -1.977636069059371948e-01 -6.188405752182006836e-01
2.921000000000000000e+03 1.654915237426757812e+01 -1.221680641174316406e+01 2.007262706756591797e-01 -6.499016880989074707e-01 -1.347526162862777710e-01 -4.760464429855346680e-01
2.922000000000000000e+03 2.858750343322753906e+01 -3.628275299072265625e+01 5.762971043586730957e-01 4.730855524539947510e-01 3.148148059844970703e-01 -3.448300659656524658e-01
2.923000000000000000e+03 3.048296928405761719e+01 -3.423927307128906250e+00 7.439189553260803223e-01 -4.978894889354705811e-01 7.380884885787963867e-02 -1.105155572295188904e-01
2.924000000000000000e+03 6.199732208251953125e+01 4.157748794555664062e+01 1.071453452110290527e+00 3.795244991779327393e-01 4.352933764457702637e-01 3.056448884308338165e-02
2.925000000000000000e+03 2.437491416931152344e+01 -2.979396820068359375e+01 3.389692902565002441e-01 3.238603472709655762e-01 1.988488882780075073e-01 -3.654865324497222900e-01
2.926000000000000000e+03 2.852311706542968750e+01 4.427494525909423828e+00 -2.313211679458618164e+00 -1.284429073333740234e+00 -1.079292178153991699e+00 -1.132520318031311035e+00
2.927000000000000000e+03 2.886742591857910156e+01 -1.695199728012084961e+00 4.398863911628723145e-01 -5.135412216186523438e-01 -2.209645137190818787e-02 -1.106432229280471802e-01
2.928000000000000000e+03 2.830538749694824219e+01 4.288240432739257812e+00 -2.377002239227294922e+00 -1.245690226554870605e+00 -1.086807727813720703e+00 -1.181685805320739746e+00
2.929000000000000000e+03 2.707510375976562500e+01 3.485739707946777344e+00 -2.655444860458374023e+00 -9.725961685180664062e-01 -1.088412284851074219e+00 -1.228529214859008789e+00
2.930000000000000000e+03 2.757608413696289062e+01 3.368941783905029297e+00 -2.406547307968139648e+00 -9.824852347373962402e-01 -1.016709685325622559e+00 -1.060203313827514648e+00
2.931000000000000000e+03 2.668985176086425781e+01 3.141482353210449219e+00 -2.674727439880371094e+00 -8.358804583549499512e-01 -1.053182363510131836e+00 -1.176116824150085449e+00
2.932000000000000000e+03 2.632989883422851562e+01 3.056438922882080078e+00 -2.772048473358154297e+00 -8.077922463417053223e-01 -1.073952198028564453e+00 -1.210615515708923340e+00
2.933000000000000000e+03 2.686173820495605469e+01 3.318858861923217773e+00 -2.685878992080688477e+00 -8.807966709136962891e-01 -1.070002675056457520e+00 -1.178836345672607422e+00
2.934000000000000000e+03 2.440882110595703125e+01 1.294842600822448730e+00 -2.329220294952392578e+00 -2.186767160892486572e-01 -7.643691301345825195e-01 -9.889194369316101074e-01
2.935000000000000000e+03 2.427572441101074219e+01 1.620055675506591797e+00 -2.641606807708740234e+00 -2.704885601997375488e-01 -8.736285567283630371e-01 -1.135679483413696289e+00
2.936000000000000000e+03 2.459093856811523438e+01 -2.063185572624206543e-01 -4.282544553279876709e-01 3.512798845767974854e-01 -2.309237048029899597e-02 -4.076367616653442383e-01
2.937000000000000000e+03 2.594553184509277344e+01 2.666680574417114258e+00 -2.741162061691284180e+00 -6.410313844680786133e-01 -1.014658093452453613e+00 -1.093413949012756348e+00
2.938000000000000000e+03 2.860602378845214844e+01 3.426739454269409180e+00 -2.000106811523437500e+00 -9.688182473182678223e-01 -8.906775116920471191e-01 -7.718831896781921387e-01
2.939000000000000000e+03 6.986750793457031250e+01 3.124824714660644531e+01 -3.402818441390991211e-01 1.038415050506591797e+01 3.013160467147827148e+00 4.967681407928466797e+00
2.940000000000000000e+03 7.023528289794921875e+01 3.149002456665039062e+01 -6.165044903755187988e-01 1.275230979919433594e+01 3.640741348266601562e+00 4.844299316406250000e+00
2.941000000000000000e+03 7.036654663085937500e+01 3.109483528137207031e+01 -1.021767258644104004e+00 1.254267120361328125e+01 3.456271171569824219e+00 4.032211780548095703e+00
2.942000000000000000e+03 7.304405212402343750e+01 3.632062149047851562e+01 7.709833979606628418e-01 1.482928466796875000e+01 4.680080413818359375e+00 1.488680124282836914e+00
2.943000000000000000e+03 7.112506866455078125e+01 3.119165420532226562e+01 -1.346053719520568848e+00 1.518748760223388672e+01 4.152430057525634766e+00 2.109008550643920898e+00
2.944000000000000000e+03 7.281103515625000000e+01 3.316817855834960938e+01 5.587372779846191406e+00 1.447831344604492188e+01 6.019705772399902344e+00 -1.790896415710449219e+00
2.945000000000000000e+03 2.854821014404296875e+01 4.664544582366943359e+00 -2.438373565673828125e+00 -1.358648300170898438e+00 -1.139106512069702148e+00 -1.239381432533264160e+00
2.946000000000000000e+03 7.307888793945312500e+01 3.296667861938476562e+01 4.706007003784179688e+00 1.391184711456298828e+01 5.585356235504150391e+00 -1.850360512733459473e+00
2.947000000000000000e+03 2.335964012145996094e+01 8.780041337013244629e-01 -2.189825773239135742e+00 -4.076660424470901489e-02 -6.691777706146240234e-01 -1.260975360870361328e+00
2.948000000000000000e+03 2.317243957519531250e+01 4.756073951721191406e-01 -1.558427929878234863e+00 2.395846843719482422e-01 -3.956529796123504639e-01 -1.236051797866821289e+00
2.949000000000000000e+03 1.884532165527343750e+01 1.155701160430908203e+01 1.003364995121955872e-01 1.697328984737396240e-01 8.102082461118698120e-02 1.314848959445953369e-01
2.950000000000000000e+03 4.064101791381835938e+01 1.970878410339355469e+01 -1.181077480316162109e+00 -1.285909771919250488e+00 -7.400962114334106445e-01 -1.359124064445495605e+00
2.951000000000000000e+03 1.842988777160644531e+01 1.127007484436035156e+01 9.851050376892089844e-02 1.770427972078323364e-01 8.266598731279373169e-02 1.329499632120132446e-01
2.952000000000000000e+03 4.052344894409179688e+01 1.931873512268066406e+01 -1.169841408729553223e+00 -1.271652579307556152e+00 -7.324482202529907227e-01 -1.346582531929016113e+00
2.953000000000000000e+03 4.101498413085937500e+01 2.032396888732910156e+01 -1.211810588836669922e+00 -1.302760601043701172e+00 -7.543713450431823730e-01 -1.360924243927001953e+00
2.954000000000000000e+03 1.917332839965820312e+01 1.194581508636474609e+01 9.767216444015502930e-02 1.635510623455047607e-01 7.836697250604629517e-02 1.269104927778244019e-01
2.955000000000000000e+03 3.907198333740234375e+01 1.806291580200195312e+01 -1.232272148132324219e+00 -1.381286144256591797e+00 -7.840674519538879395e-01 -1.339661002159118652e+00
2.956000000000000000e+03 1.660457801818847656e+01 8.233802795410156250e+00 1.318244636058807373e-01 2.394471466541290283e-01 1.113814860582351685e-01 1.767986863851547241e-01
2.957000000000000000e+03 1.373230934143066406e+01 6.371665000915527344e+00 8.516858518123626709e-02 4.840638339519500732e-01 1.707697212696075439e-01 9.557639807462692261e-02
2.958000000000000000e+03 3.316619110107421875e+01 2.491052818298339844e+01 5.210889130830764771e-02 7.577431946992874146e-02 3.836496174335479736e-02 6.410422921180725098e-02
2.959000000000000000e+03 2.362536811828613281e+01 1.696216964721679688e+01 7.549302279949188232e-02 1.176109835505485535e-01 5.793119966983795166e-02 9.582804888486862183e-02
2.960000000000000000e+03 2.394570159912109375e+01 1.665422630310058594e+01 8.096024394035339355e-02 1.156758740544319153e-01 5.899083614349365234e-02 9.911543875932693481e-02
2.961000000000000000e+03 3.527240371704101562e+01 2.811723136901855469e+01 5.261388793587684631e-02 7.251605391502380371e-02 3.753898292779922485e-02 5.943312495946884155e-02
2.962000000000000000e+03 3.487260055541992188e+01 2.803608131408691406e+01 5.020054429769515991e-02 7.177671045064926147e-02 3.659317642450332642e-02 5.767329409718513489e-02
2.963000000000000000e+03 3.850184249877929688e+01 1.760415458679199219e+01 -1.258609175682067871e+00 -1.457959532737731934e+00 -8.149706125259399414e-01 -1.344058156013488770e+00
2.964000000000000000e+03 3.995050430297851562e+01 1.813609695434570312e+01 -1.172020554542541504e+00 -1.262064933776855469e+00 -7.302256226539611816e-01 -1.301023244857788086e+00
2.965000000000000000e+03 1.596416378021240234e+01 7.753663539886474609e+00 1.270562112331390381e-01 2.822348177433013916e-01 1.227873116731643677e-01 1.803047060966491699e-01
2.966000000000000000e+03 3.332059478759765625e+01 1.151150035858154297e+01 -1.363414764404296875e+00 -1.439486503601074219e+00 -8.408703804016113281e-01 -1.355635285377502441e+00
2.967000000000000000e+03 4.640560913085937500e+01 2.475152778625488281e+01 -1.385157823562622070e+00 -1.122312307357788086e+00 -7.522410750389099121e-01 -1.273803830146789551e+00
2.968000000000000000e+03 3.536406707763671875e+01 1.340312480926513672e+01 -1.284748554229736328e+00 -1.453203320503234863e+00 -8.213855624198913574e-01 -1.327387213706970215e+00
2.969000000000000000e+03 1.757789230346679688e+01 9.780171394348144531e+00 1.169104427099227905e-01 2.036685198545455933e-01 9.617368876934051514e-02 1.459859460592269897e-01
2.970000000000000000e+03 1.661957359313964844e+01 8.964226722717285156e+00 1.151982024312019348e-01 2.319366186857223511e-01 1.041404455900192261e-01 1.571046411991119385e-01
2.971000000000000000e+03 2.425854110717773438e+01 1.695703125000000000e+01 8.066610991954803467e-02 1.131936311721801758e-01 5.815792083740234375e-02 9.716981649398803711e-02
2.972000000000000000e+03 3.391319274902343750e+01 2.629323959350585938e+01 5.117656290531158447e-02 7.564311474561691284e-02 3.804590553045272827e-02 6.177056208252906799e-02
2.973000000000000000e+03 3.426576995849609375e+01 2.697348022460937500e+01 4.956838488578796387e-02 7.408291101455688477e-02 3.709539026021957397e-02 6.031462177634239197e-02
2.974000000000000000e+03 2.114534187316894531e+01 1.301176452636718750e+01 1.050427332520484924e-01 1.424688398838043213e-01 7.425346970558166504e-02 1.226766258478164673e-01
2.975000000000000000e+03 3.378963088989257812e+01 2.605478096008300781e+01 5.059491470456123352e-02 7.583048194646835327e-02 3.792762011289596558e-02 6.199828535318374634e-02
2.976000000000000000e+03 4.728194427490234375e+01 2.551645088195800781e+01 -1.349060535430908203e+00 -1.060326814651489258e+00 -7.228161692619323730e-01 -1.260536551475524902e+00
2.977000000000000000e+03 2.367465400695800781e+01 1.484560370445251465e+00 -2.747189044952392578e+00 -3.330738842487335205e-01 -9.240788817405700684e-01 -1.348825812339782715e+00
2.978000000000000000e+03 2.115711212158203125e+01 1.354485988616943359e+01 9.826683998107910156e-02 1.403901576995849609e-01 7.159709930419921875e-02 1.166441664099693298e-01
2.979000000000000000e+03 2.901283264160156250e+01 2.182374763488769531e+01 5.810284242033958435e-02 8.751043677330017090e-02 4.368398338556289673e-02 7.376056164503097534e-02
2.980000000000000000e+03 3.261815261840820312e+01 2.546981811523437500e+01 4.993818327784538269e-02 7.620005309581756592e-02 3.784146904945373535e-02 6.315799802541732788e-02
2.981000000000000000e+03 4.350253677368164062e+01 2.208962059020996094e+01 -1.324533224105834961e+00 -1.259270787239074707e+00 -7.751411795616149902e-01 -1.307968497276306152e+00
2.982000000000000000e+03 4.236769485473632812e+01 2.154037284851074219e+01 -1.338168621063232422e+00 -1.303774595260620117e+00 -7.925829291343688965e-01 -1.337499380111694336e+00
2.983000000000000000e+03 4.207553100585937500e+01 2.128294944763183594e+01 -1.310117840766906738e+00 -1.309803009033203125e+00 -7.859762310981750488e-01 -1.337420344352722168e+00
2.984000000000000000e+03 3.586383056640625000e+01 1.398250579833984375e+01 -1.270173788070678711e+00 -1.457517981529235840e+00 -8.183075189590454102e-01 -1.335868239402770996e+00
2.985000000000000000e+03 4.821690750122070312e+01 2.686535835266113281e+01 -1.370847582817077637e+00 -1.067760467529296875e+00 -7.315824031829833984e-01 -1.255067229270935059e+00
2.986000000000000000e+03 4.557974624633789062e+01 2.450017929077148438e+01 -1.452841281890869141e+00 -1.247432231903076172e+00 -8.100820183753967285e-01 -1.326639413833618164e+00
2.987000000000000000e+03 4.611333847045898438e+01 2.449396133422851562e+01 -1.392112970352172852e+00 -1.148250102996826172e+00 -7.621089220046997070e-01 -1.273539423942565918e+00
2.988000000000000000e+03 3.611566543579101562e+01 1.427405452728271484e+01 -1.262280225753784180e+00 -1.462204933166503906e+00 -8.173455595970153809e-01 -1.337121605873107910e+00
2.989000000000000000e+03 3.606584167480468750e+01 1.476975154876708984e+01 -1.288873672485351562e+00 -1.519336819648742676e+00 -8.424631357192993164e-01 -1.386918306350708008e+00
2.990000000000000000e+03 4.379463195800781250e+01 2.236116600036621094e+01 -1.334736704826354980e+00 -1.260338068008422852e+00 -7.785224318504333496e-01 -1.308479309082031250e+00
2.991000000000000000e+03 3.455752182006835938e+01 1.302238941192626953e+01 -1.332037448883056641e+00 -1.503863215446472168e+00 -8.507702350616455078e-01 -1.365008473396301270e+00
2.992000000000000000e+03 3.511838531494140625e+01 1.311629295349121094e+01 -1.290035128593444824e+00 -1.453235507011413574e+00 -8.229811787605285645e-01 -1.322102546691894531e+00
2.993000000000000000e+03 6.737670135498046875e+01 3.074511146545410156e+01 1.645309627056121826e-01 2.482032775878906250e+00 7.939690947532653809e-01 2.547209024429321289e+00
2.994000000000000000e+03 2.864837074279785156e+01 2.043646049499511719e+01 6.986840814352035522e-02 8.859284222126007080e-02 4.753837734460830688e-02 7.999541610479354858e-02
2.995000000000000000e+03 2.005798339843750000e+01 1.220396137237548828e+01 1.046716719865798950e-01 1.533242911100387573e-01 7.739879190921783447e-02 1.272263079881668091e-01
2.996000000000000000e+03 4.788000869750976562e+01 2.603314781188964844e+01 -1.332631945610046387e+00 -1.021797537803649902e+00 -7.063288688659667969e-01 -1.234819173812866211e+00
2.997000000000000000e+03 2.771177291870117188e+01 2.041401863098144531e+01 6.484068185091018677e-02 9.421613067388534546e-02 4.771704599261283875e-02 7.984526455402374268e-02
2.998000000000000000e+03 4.291372680664062500e+01 2.154822540283203125e+01 -1.294592142105102539e+00 -1.263210296630859375e+00 -7.673407196998596191e-01 -1.302899956703186035e+00
2.999000000000000000e+03 2.191426849365234375e+01 1.379454994201660156e+01 1.037254706025123596e-01 1.365232318639755249e-01 7.207461446523666382e-02 1.155363246798515320e-01
3.000000000000000000e+03 2.755176925659179688e+01 2.018015480041503906e+01 6.633634865283966064e-02 9.510973095893859863e-02 4.843382164835929871e-02 8.081085979938507080e-02
3.001000000000000000e+03 2.785596275329589844e+01 2.001383590698242188e+01 7.008420675992965698e-02 9.349743276834487915e-02 4.907449334859848022e-02 8.223987370729446411e-02
3.002000000000000000e+03 2.739379882812500000e+01 1.967036628723144531e+01 7.088245451450347900e-02 9.650976210832595825e-02 5.021766573190689087e-02 8.339513838291168213e-02
3.003000000000000000e+03 2.704889678955078125e+01 1.968395996093750000e+01 6.890396028757095337e-02 9.770502895116806030e-02 4.998269677162170410e-02 8.292395621538162231e-02
3.004000000000000000e+03 2.294108963012695312e+01 1.480256366729736328e+01 9.684520959854125977e-02 1.290445029735565186e-01 6.776691228151321411e-02 1.085888892412185669e-01
3.005000000000000000e+03 3.824451065063476562e+01 1.735515785217285156e+01 -1.265353441238403320e+00 -1.490224123001098633e+00 -8.266732692718505859e-01 -1.348955750465393066e+00
3.006000000000000000e+03 3.808070373535156250e+01 3.205319976806640625e+01 5.431390553712844849e-02 6.128003075718879700e-02 3.467817977070808411e-02 5.196509137749671936e-02
3.007000000000000000e+03 3.910486984252929688e+01 3.229136276245117188e+01 5.731316283345222473e-02 5.787460505962371826e-02 3.455632925033569336e-02 5.124138668179512024e-02
3.008000000000000000e+03 1.697830009460449219e+01 9.232271194458007812e+00 1.193773820996284485e-01 2.208643257617950439e-01 1.020725145936012268e-01 1.536823511123657227e-01
3.009000000000000000e+03 1.930449867248535156e+01 1.224513912200927734e+01 9.629213809967041016e-02 1.610870808362960815e-01 7.721376419067382812e-02 1.232877522706985474e-01
3.010000000000000000e+03 2.616311645507812500e+01 1.847199058532714844e+01 7.710958272218704224e-02 1.035244092345237732e-01 5.419019609689712524e-02 8.822388201951980591e-02
3.011000000000000000e+03 4.997879791259765625e+01 2.853058433532714844e+01 -1.387693405151367188e+00 -8.987588882446289062e-01 -6.859356760978698730e-01 -1.144307732582092285e+00
3.012000000000000000e+03 4.850487136840820312e+01 2.713669586181640625e+01 -1.373502135276794434e+00 -1.049419760704040527e+00 -7.268765568733215332e-01 -1.238281846046447754e+00
3.013000000000000000e+03 4.408518981933593750e+01 2.263234710693359375e+01 -1.344155907630920410e+00 -1.261432766914367676e+00 -7.816765904426574707e-01 -1.305586338043212891e+00
3.014000000000000000e+03 3.636830902099609375e+01 1.456652545928955078e+01 -1.252084136009216309e+00 -1.466665744781494141e+00 -8.156249523162841797e-01 -1.337940812110900879e+00
3.015000000000000000e+03 5.029032897949218750e+01 2.881424331665039062e+01 -1.380218625068664551e+00 -8.524932861328125000e-01 -6.698135733604431152e-01 -1.122813701629638672e+00
3.016000000000000000e+03 4.911630630493164062e+01 2.825608825683593750e+01 -1.434011220932006836e+00 -1.072080254554748535e+00 -7.518274784088134766e-01 -1.241005063056945801e+00
3.017000000000000000e+03 5.123920440673828125e+01 2.911193466186523438e+01 -1.344610452651977539e+00 -6.225197315216064453e-01 -5.901390314102172852e-01 -1.022348761558532715e+00
3.018000000000000000e+03 3.662118148803710938e+01 1.485947895050048828e+01 -1.246264100074768066e+00 -1.471089124679565430e+00 -8.152059912681579590e-01 -1.335394978523254395e+00
3.019000000000000000e+03 3.687304687500000000e+01 1.515257740020751953e+01 -1.239895105361938477e+00 -1.473767042160034180e+00 -8.140986561775207520e-01 -1.332782745361328125e+00
3.020000000000000000e+03 7.280051422119140625e+01 3.468085861206054688e+01 5.525460720062255859e+00 1.460746860504150391e+01 6.039878845214843750e+00 1.763714790344238281e+00
3.021000000000000000e+03 7.284558105468750000e+01 3.407191467285156250e+01 6.638030529022216797e+00 1.403040218353271484e+01 6.200530052185058594e+00 3.514229953289031982e-01
3.022000000000000000e+03 3.712236404418945312e+01 1.544590187072753906e+01 -1.237854838371276855e+00 -1.475609660148620605e+00 -8.140393495559692383e-01 -1.328205704689025879e+00
3.023000000000000000e+03 4.103709793090820312e+01 3.433360671997070312e+01 6.581620872020721436e-02 4.454125463962554932e-02 3.310723975300788879e-02 4.747038707137107849e-02
3.024000000000000000e+03 4.849086761474609375e+01 2.655849075317382812e+01 -1.325140118598937988e+00 -9.808868169784545898e-01 -6.918080449104309082e-01 -1.199977040290832520e+00
3.025000000000000000e+03 2.391538810729980469e+01 1.777027702331542969e+01 6.949362903833389282e-02 1.135896965861320496e-01 5.492499843239784241e-02 9.035892784595489502e-02
3.026000000000000000e+03 2.483184814453125000e+01 1.753321266174316406e+01 7.905659079551696777e-02 1.093213558197021484e-01 5.651338398456573486e-02 9.328185021877288818e-02
3.027000000000000000e+03 3.299909210205078125e+01 1.105915164947509766e+01 -1.353375315666198730e+00 -1.414205312728881836e+00 -8.302741646766662598e-01 -1.319166064262390137e+00
3.028000000000000000e+03 4.967388153076171875e+01 2.824935722351074219e+01 -1.390136003494262695e+00 -9.386877417564392090e-01 -6.986471414566040039e-01 -1.164371490478515625e+00
3.029000000000000000e+03 4.528869628906250000e+01 2.423326301574707031e+01 -1.453071713447570801e+00 -1.274644494056701660e+00 -8.183148503303527832e-01 -1.327074527740478516e+00
3.030000000000000000e+03 4.437490844726562500e+01 2.290295982360839844e+01 -1.353760957717895508e+00 -1.260297298431396484e+00 -7.842174768447875977e-01 -1.300063848495483398e+00
3.031000000000000000e+03 2.636867713928222656e+01 1.877928924560546875e+01 7.482092827558517456e-02 1.025155186653137207e-01 5.320093408226966858e-02 8.673237264156341553e-02
3.032000000000000000e+03 3.800300598144531250e+01 1.708872604370117188e+01 -1.270217657089233398e+00 -1.513600945472717285e+00 -8.351455926895141602e-01 -1.351935982704162598e+00
3.033000000000000000e+03 4.032456970214843750e+01 1.830289459228515625e+01 -1.148515582084655762e+00 -1.230368494987487793e+00 -7.136652469635009766e-01 -1.292354702949523926e+00
3.034000000000000000e+03 3.391744232177734375e+01 2.659613609313964844e+01 4.966922849416732788e-02 7.461790740489959717e-02 3.728614002466201782e-02 6.059064716100692749e-02
3.035000000000000000e+03 3.331787490844726562e+01 2.601534080505371094e+01 4.977929219603538513e-02 7.606379687786102295e-02 3.775292634963989258e-02 6.159255653619766235e-02
3.036000000000000000e+03 4.877892303466796875e+01 2.683535957336425781e+01 -1.329920053482055664e+00 -9.589330554008483887e-01 -6.866559386253356934e-01 -1.184932589530944824e+00
3.037000000000000000e+03 4.908111190795898438e+01 2.769320869445800781e+01 -1.386073589324951172e+00 -1.001815319061279297e+00 -7.163666486740112305e-01 -1.202497839927673340e+00
3.038000000000000000e+03 2.661838340759277344e+01 1.943136024475097656e+01 6.923119723796844482e-02 1.003776863217353821e-01 5.088266730308532715e-02 8.376203477382659912e-02
3.039000000000000000e+03 4.261914443969726562e+01 2.128132629394531250e+01 -1.273701071739196777e+00 -1.268185734748840332e+00 -7.625660300254821777e-01 -1.302169322967529297e+00
3.040000000000000000e+03 2.217928695678710938e+01 1.404807186126708984e+01 1.023975163698196411e-01 1.338193863630294800e-01 7.086507230997085571e-02 1.138379946351051331e-01
3.041000000000000000e+03 2.166529273986816406e+01 1.408644962310791016e+01 9.653963893651962280e-02 1.360434591770172119e-01 6.977493315935134888e-02 1.122400835156440735e-01
3.042000000000000000e+03 3.162742996215820312e+01 2.422978782653808594e+01 5.173319950699806213e-02 7.695348560810089111e-02 3.860600665211677551e-02 6.657009571790695190e-02
3.043000000000000000e+03 2.568756484985351562e+01 1.787532043457031250e+01 8.092907071113586426e-02 1.056798025965690613e-01 5.598266050219535828e-02 9.137625247240066528e-02
3.044000000000000000e+03 3.736696624755859375e+01 1.573949337005615234e+01 -1.235575318336486816e+00 -1.475071310997009277e+00 -8.131939768791198730e-01 -1.324893355369567871e+00
3.045000000000000000e+03 2.020013046264648438e+01 1.269667148590087891e+01 9.913030266761779785e-02 1.506548672914505005e-01 7.493555545806884766e-02 1.224717199802398682e-01
3.046000000000000000e+03 2.244384765625000000e+01 1.429292011260986328e+01 1.013694033026695251e-01 1.328764706850051880e-01 7.027376443147659302e-02 1.117295250296592712e-01
3.047000000000000000e+03 3.047417259216308594e+01 2.365735054016113281e+01 5.126700177788734436e-02 8.159327507019042969e-02 3.985808417201042175e-02 6.897497922182083130e-02
3.048000000000000000e+03 4.288396453857421875e+01 3.507836532592773438e+01 7.506065815687179565e-02 3.879689052700996399e-02 3.415726497769355774e-02 4.886111989617347717e-02
3.049000000000000000e+03 4.154915618896484375e+01 3.442996978759765625e+01 6.692266464233398438e-02 4.907277598977088928e-02 3.479863330721855164e-02 5.020744726061820984e-02
3.050000000000000000e+03 5.199462509155273438e+01 3.030073165893554688e+01 -1.323572516441345215e+00 -5.132230520248413086e-01 -5.510386228561401367e-01 -9.583492279052734375e-01
3.051000000000000000e+03 2.964195442199707031e+01 2.190869712829589844e+01 5.951466038823127747e-02 8.520781993865966797e-02 4.341674596071243286e-02 7.339180260896682739e-02
3.052000000000000000e+03 5.230920410156250000e+01 2.955323028564453125e+01 -1.334100365638732910e+00 -3.443757593631744385e-01 -5.035428404808044434e-01 -9.429728388786315918e-01
3.053000000000000000e+03 3.760409164428710938e+01 1.603275680541992188e+01 -1.237562298774719238e+00 -1.472758531570434570e+00 -8.130962252616882324e-01 -1.320618987083435059e+00
3.054000000000000000e+03 3.804649734497070312e+01 1.660829925537109375e+01 -1.241812467575073242e+00 -1.460527658462524414e+00 -8.107020258903503418e-01 -1.316782355308532715e+00
3.055000000000000000e+03 3.208441162109375000e+01 8.977131843566894531e+00 -1.279581308364868164e+00 -1.345654010772705078e+00 -7.875705957412719727e-01 -1.237589359283447266e+00
3.056000000000000000e+03 3.243797683715820312e+01 1.011929607391357422e+01 -1.332115650177001953e+00 -1.383918166160583496e+00 -8.148101568222045898e-01 -1.278597593307495117e+00
3.057000000000000000e+03 4.148892974853515625e+01 2.035306167602539062e+01 -1.198169231414794922e+00 -1.284321188926696777e+00 -7.447471022605895996e-01 -1.333530902862548828e+00
3.058000000000000000e+03 4.175218200683593750e+01 2.054913711547851562e+01 -1.212237238883972168e+00 -1.284399390220642090e+00 -7.489909529685974121e-01 -1.322425484657287598e+00
3.059000000000000000e+03 4.320860290527343750e+01 2.181823158264160156e+01 -1.311560511589050293e+00 -1.259931564331054688e+00 -7.714475989341735840e-01 -1.305574655532836914e+00
3.060000000000000000e+03 3.917807388305664062e+01 1.726397132873535156e+01 -1.197262644767761230e+00 -1.322211503982543945e+00 -7.558422684669494629e-01 -1.276830315589904785e+00
3.061000000000000000e+03 3.617223358154296875e+01 1.377923107147216797e+01 -1.232116699218750000e+00 -1.407239675521850586e+00 -7.918068766593933105e-01 -1.285690069198608398e+00
3.062000000000000000e+03 1.783116912841796875e+01 1.005296134948730469e+01 1.126720234751701355e-01 1.954697668552398682e-01 9.244253486394882202e-02 1.449673920869827271e-01
3.063000000000000000e+03 1.635992050170898438e+01 7.904570102691650391e+00 1.344109773635864258e-01 2.615026533603668213e-01 1.187740936875343323e-01 1.825747638940811157e-01
3.064000000000000000e+03 3.029254150390625000e+01 5.223505496978759766e+00 -2.001204252243041992e+00 -1.046489357948303223e+00 -9.143080711364746094e-01 -1.000922918319702148e+00
3.065000000000000000e+03 3.168383979797363281e+01 5.726656436920166016e+00 -1.551601529121398926e+00 -9.550626873970031738e-01 -7.519992589950561523e-01 -9.875079393386840820e-01
3.066000000000000000e+03 3.408207702636718750e+01 1.164744663238525391e+01 -1.284625530242919922e+00 -1.398827314376831055e+00 -8.050358295440673828e-01 -1.292700529098510742e+00
3.067000000000000000e+03 3.429102325439453125e+01 1.193094825744628906e+01 -1.280484437942504883e+00 -1.410844802856445312e+00 -8.073987960815429688e-01 -1.294932126998901367e+00
3.068000000000000000e+03 3.677423858642578125e+01 3.003057098388671875e+01 5.056338012218475342e-02 6.901787221431732178e-02 3.587437421083450317e-02 5.610422044992446899e-02
3.069000000000000000e+03 3.592332077026367188e+01 2.873778724670410156e+01 5.164882168173789978e-02 7.105003297328948975e-02 3.680965676903724670e-02 5.734518170356750488e-02
3.070000000000000000e+03 1.568279838562011719e+01 7.782356739044189453e+00 1.168924048542976379e-01 2.938091456890106201e-01 1.232104673981666565e-01 1.709990650415420532e-01
3.071000000000000000e+03 1.531930923461914062e+01 7.432250499725341797e+00 1.148583143949508667e-01 3.242039084434509277e-01 1.317186653614044189e-01 1.719558238983154297e-01
3.072000000000000000e+03 2.542957687377929688e+01 1.758364868164062500e+01 8.269554376602172852e-02 1.067741066217422485e-01 5.684089660644531250e-02 9.310051053762435913e-02
3.073000000000000000e+03 2.353158950805664062e+01 1.560136890411376953e+01 8.968872576951980591e-02 1.219879686832427979e-01 6.350301206111907959e-02 1.055601164698600769e-01
3.074000000000000000e+03 3.442839431762695312e+01 2.798660278320312500e+01 4.968542978167533875e-02 7.378451526165008545e-02 3.704098239541053772e-02 5.834717676043510437e-02
3.075000000000000000e+03 5.342939376831054688e+01 3.123532104492187500e+01 -1.317241430282592773e+00 -1.014371663331985474e-01 -4.256035685539245605e-01 -8.593528270721435547e-01
3.076000000000000000e+03 4.466399383544921875e+01 2.317256546020507812e+01 -1.364737868309020996e+00 -1.254538297653198242e+00 -7.857828736305236816e-01 -1.292290091514587402e+00
3.077000000000000000e+03 4.495262145996093750e+01 2.344068527221679688e+01 -1.375897884368896484e+00 -1.242819786071777344e+00 -7.856152653694152832e-01 -1.284354925155639648e+00
3.078000000000000000e+03 3.004127311706542969e+01 2.275717353820800781e+01 5.340900644659996033e-02 8.324091881513595581e-02 4.099497571587562561e-02 7.096581906080245972e-02
3.079000000000000000e+03 3.241214370727539062e+01 2.503912734985351562e+01 5.102077871561050415e-02 7.648091763257980347e-02 3.825050964951515198e-02 6.405217200517654419e-02
3.080000000000000000e+03 3.210578918457031250e+01 2.470046997070312500e+01 5.122134834527969360e-02 7.691694796085357666e-02 3.844149038195610046e-02 6.550214439630508423e-02
3.081000000000000000e+03 5.254373931884765625e+01 3.013469123840332031e+01 -1.338879585266113281e+00 -3.162963986396789551e-01 -4.965527951717376709e-01 -9.257522225379943848e-01
3.082000000000000000e+03 2.140531539916992188e+01 1.381556320190429688e+01 9.785389900207519531e-02 1.392395049333572388e-01 7.112801820039749146e-02 1.139345392584800720e-01
3.083000000000000000e+03 3.601054000854492188e+01 2.917432785034179688e+01 5.244234949350357056e-02 7.071713358163833618e-02 3.694784641265869141e-02 5.611176416277885437e-02
3.084000000000000000e+03 2.282573509216308594e+01 1.527212905883789062e+01 8.861023932695388794e-02 1.279425323009490967e-01 6.496582925319671631e-02 1.049117371439933777e-01
3.085000000000000000e+03 2.246385574340820312e+01 1.478246307373046875e+01 9.331468492746353149e-02 1.314006894826889038e-01 6.741461157798767090e-02 1.074612587690353394e-01
3.086000000000000000e+03 1.990346717834472656e+01 1.256011772155761719e+01 9.851315617561340332e-02 1.544240564107894897e-01 7.588116079568862915e-02 1.220813542604446411e-01
3.087000000000000000e+03 4.605960845947265625e+01 2.396455192565917969e+01 -1.338418841361999512e+00 -1.107652306556701660e+00 -7.338213324546813965e-01 -1.222479462623596191e+00
3.088000000000000000e+03 3.365573120117187500e+01 2.627584457397460938e+01 5.020198225975036621e-02 7.472714036703109741e-02 3.747873753309249878e-02 6.092260777950286865e-02
3.089000000000000000e+03 3.376399993896484375e+01 2.731532859802246094e+01 4.817536473274230957e-02 7.408230006694793701e-02 3.667730093002319336e-02 5.892341956496238708e-02
3.090000000000000000e+03 3.384151077270507812e+01 2.694568252563476562e+01 4.944286495447158813e-02 7.570047676563262939e-02 3.754300251603126526e-02 6.041874736547470093e-02
3.091000000000000000e+03 3.445166015625000000e+01 1.225326919555664062e+01 -1.286851882934570312e+00 -1.434050559997558594e+00 -8.162707090377807617e-01 -1.309538841247558594e+00
3.092000000000000000e+03 5.363082885742187500e+01 3.000849914550781250e+01 -1.345831871032714844e+00 -2.448896318674087524e-02 -4.110962450504302979e-01 -8.859828114509582520e-01
3.093000000000000000e+03 3.292302703857421875e+01 1.072713565826416016e+01 -1.341390728950500488e+00 -1.400426864624023438e+00 -8.225452899932861328e-01 -1.299133777618408203e+00
3.094000000000000000e+03 3.250351715087890625e+01 8.624835968017578125e+00 -1.237331628799438477e+00 -1.283381581306457520e+00 -7.562139630317687988e-01 -1.180438160896301270e+00
3.095000000000000000e+03 3.374869918823242188e+01 1.152138900756835938e+01 -1.309506535530090332e+00 -1.414412617683410645e+00 -8.171757459640502930e-01 -1.312333345413208008e+00
3.096000000000000000e+03 3.285155105590820312e+01 1.043280410766601562e+01 -1.320505142211914062e+00 -1.376323103904724121e+00 -8.090484738349914551e-01 -1.273836731910705566e+00
3.097000000000000000e+03 3.563536071777343750e+01 2.811353492736816406e+01 5.187978968024253845e-02 7.187128812074661255e-02 3.712532296776771545e-02 5.853689834475517273e-02
3.098000000000000000e+03 1.330859088897705078e+01 6.078886032104492188e+00 8.571893721818923950e-02 5.211525559425354004e-01 1.820614486932754517e-01 3.456674143671989441e-02
3.099000000000000000e+03 1.800722694396972656e+01 1.105634880065917969e+01 9.484057873487472534e-02 1.859837025403976440e-01 8.424728363752365112e-02 1.317135840654373169e-01
3.100000000000000000e+03 1.775390052795410156e+01 1.055408000946044922e+01 1.014313548803329468e-01 1.924506127834320068e-01 8.816459029912948608e-02 1.372320055961608887e-01
3.101000000000000000e+03 7.292632293701171875e+01 3.539410400390625000e+01 3.139734745025634766e+00 1.484391212463378906e+01 5.395094394683837891e+00 2.098260164260864258e+00
3.102000000000000000e+03 7.360851287841796875e+01 3.370457839965820312e+01 5.021216869354248047e+00 1.248511028289794922e+01 5.251898288726806641e+00 -5.562452673912048340e-01
3.103000000000000000e+03 7.309696197509765625e+01 3.485322570800781250e+01 4.711372852325439453e+00 1.386157035827636719e+01 5.571882724761962891e+00 1.717767477035522461e+00
3.104000000000000000e+03 1.494292163848876953e+01 7.500707149505615234e+00 1.037190482020378113e-01 3.375081121921539307e-01 1.323681473731994629e-01 1.520560532808303833e-01
3.105000000000000000e+03 2.355650138854980469e+01 1.185861468315124512e+00 -2.464219093322753906e+00 -2.377517223358154297e-01 -8.105912804603576660e-01 -1.263073086738586426e+00
3.106000000000000000e+03 1.415589141845703125e+01 6.736883640289306641e+00 9.579339623451232910e-02 4.209803342819213867e-01 1.550321280956268311e-01 1.311820447444915771e-01
3.107000000000000000e+03 1.266224384307861328e+01 4.163945198059082031e+00 3.151313066482543945e-01 7.114452719688415527e-01 3.079729676246643066e-01 -2.728843986988067627e-01
3.108000000000000000e+03 1.272873687744140625e+01 5.188865184783935547e+00 1.471957415342330933e-01 5.849754810333251953e-01 2.196513712406158447e-01 -1.115390509366989136e-01
3.109000000000000000e+03 6.665457916259765625e+01 3.065872955322265625e+01 -5.386694893240928650e-02 1.773231387138366699e+00 5.158092975616455078e-01 1.905947804450988770e+00
3.110000000000000000e+03 6.555928802490234375e+01 3.074521446228027344e+01 -5.532997846603393555e-01 9.105745553970336914e-01 1.071824207901954651e-01 1.023739933967590332e+00
3.111000000000000000e+03 1.299473762512207031e+01 5.516553878784179688e+00 1.096503511071205139e-01 5.994241237640380859e-01 2.127223312854766846e-01 -4.363438859581947327e-02
3.112000000000000000e+03 1.052845096588134766e+01 4.867994785308837891e+00 3.155594170093536377e-01 -1.710871979594230652e-02 8.953521400690078735e-02 -9.155492484569549561e-02
3.113000000000000000e+03 7.253409576416015625e+01 3.631349945068359375e+01 4.826347827911376953e-01 1.595460605621337891e+01 4.931172370910644531e+00 1.716481804847717285e+00
3.114000000000000000e+03 7.391419219970703125e+01 3.589491653442382812e+01 1.925519108772277832e+00 1.246456909179687500e+01 4.317026615142822266e+00 1.923166394233703613e+00
3.115000000000000000e+03 2.748559761047363281e+01 -1.233542680740356445e+00 4.152957797050476074e-01 -2.843510806560516357e-01 3.928341343998908997e-02 -1.137037947773933411e-01
3.116000000000000000e+03 2.528184509277343750e+01 1.868438720703125000e+00 -2.468244791030883789e+00 -4.392272233963012695e-01 -8.722416162490844727e-01 -9.419138431549072266e-01
3.117000000000000000e+03 6.548384094238281250e+01 3.024179267883300781e+01 -3.097998201847076416e-01 1.195590972900390625e+00 2.657373547554016113e-01 1.171987175941467285e+00
3.118000000000000000e+03 3.817270278930664062e+01 3.070019531250000000e+01 5.346103385090827942e-02 6.139624863862991333e-02 3.445718437433242798e-02 5.512303858995437622e-02
3.119000000000000000e+03 3.605137252807617188e+01 2.973752212524414062e+01 4.946609959006309509e-02 6.932389736175537109e-02 3.563699871301651001e-02 5.420132726430892944e-02
3.120000000000000000e+03 3.888919067382812500e+01 3.159741401672363281e+01 5.692685768008232117e-02 5.857180804014205933e-02 3.464959934353828430e-02 5.353730916976928711e-02
3.121000000000000000e+03 3.840834045410156250e+01 3.140896034240722656e+01 5.410958454012870789e-02 6.028561666607856750e-02 3.431855887174606323e-02 5.262362211942672729e-02
3.122000000000000000e+03 1.413797187805175781e+01 5.875502109527587891e+00 1.056769043207168579e-01 5.316050648689270020e-01 1.911845952272415161e-01 1.712037920951843262e-01
3.123000000000000000e+03 2.588180923461914062e+01 -2.860009968280792236e-01 -1.488632857799530029e-01 -1.735575944185256958e-01 -9.672626852989196777e-02 -2.863319516181945801e-01
3.124000000000000000e+03 3.090911102294921875e+01 2.372742080688476562e+01 5.193924531340599060e-02 7.909096032381057739e-02 3.930906206369400024e-02 6.873785704374313354e-02
3.125000000000000000e+03 3.929381942749023438e+01 3.175807762145996094e+01 5.552616342902183533e-02 5.730080604553222656e-02 3.384809195995330811e-02 5.299146473407745361e-02
3.126000000000000000e+03 5.325360774993896484e+00 5.740074634552001953e+00 5.907667428255081177e-02 -1.210207119584083557e-01 -1.858321018517017365e-02 1.039418429136276245e-01
3.127000000000000000e+03 5.464633178710937500e+01 3.121845626831054688e+01 -1.373466849327087402e+00 1.240636631846427917e-01 -3.748209476470947266e-01 -8.445474505424499512e-01
3.128000000000000000e+03 5.328255462646484375e+01 3.076621627807617188e+01 -1.341020226478576660e+00 -1.318158805370330811e-01 -4.418508410453796387e-01 -8.790685534477233887e-01
3.129000000000000000e+03 6.501031398773193359e+00 5.261866092681884766e+00 8.548019081354141235e-02 -1.334734708070755005e-01 -1.439798343926668167e-02 1.171638295054435730e-01
3.130000000000000000e+03 6.282490158081054688e+01 3.020943069458007812e+01 -9.872283339500427246e-01 4.757332801818847656e-01 -1.534485071897506714e-01 3.365947306156158447e-02
3.131000000000000000e+03 6.355075073242187500e+01 3.012234878540039062e+01 -8.092832565307617188e-01 6.066799163818359375e-01 -6.078099831938743591e-02 2.646018266677856445e-01
3.132000000000000000e+03 4.024357795715332031e+00 4.622633934020996094e+00 1.222325954586267471e-03 -9.413697570562362671e-02 -2.787439338862895966e-02 1.068861186504364014e-01
3.133000000000000000e+03 7.231133460998535156e+00 5.357987880706787109e+00 1.262055039405822754e-01 -1.413950324058532715e-01 -4.556859843432903290e-03 9.937402606010437012e-02
3.134000000000000000e+03 3.223197937011718750e+01 6.603159904479980469e+00 -1.362611651420593262e+00 -1.052976131439208984e+00 -7.246763110160827637e-01 -1.065645098686218262e+00
3.135000000000000000e+03 9.774921417236328125e+00 4.668533802032470703e+00 2.938033342361450195e-01 -1.280057132244110107e-01 4.973928257822990417e-02 -3.462231718003749847e-03
3.136000000000000000e+03 8.765184402465820312e+00 5.395255088806152344e+00 2.153052091598510742e-01 -1.255535930395126343e-01 2.692548744380474091e-02 3.055119700729846954e-02
3.137000000000000000e+03 5.982162475585937500e+01 2.979530334472656250e+01 -1.167631387710571289e+00 3.974607586860656738e-01 -2.310512065887451172e-01 -5.355501770973205566e-01
3.138000000000000000e+03 6.047179031372070312e+01 2.986464500427246094e+01 -1.123371362686157227e+00 4.247956871986389160e-01 -2.095727175474166870e-01 -4.452053904533386230e-01
3.139000000000000000e+03 7.830880641937255859e+00 6.165999889373779297e+00 1.612427234649658203e-01 -1.125581413507461548e-01 1.460537593811750412e-02 4.230051487684249878e-02
3.140000000000000000e+03 7.244249725341796875e+01 3.723097229003906250e+01 -9.729815125465393066e-01 1.467676258087158203e+01 4.111134529113769531e+00 4.691909551620483398e-01
3.141000000000000000e+03 5.362921714782714844e+00 -6.553358554840087891e+00 -1.403365731239318848e-01 -1.939310878515243530e-01 -1.002802923321723938e-01 -2.556693851947784424e-01
3.142000000000000000e+03 2.625062942504882812e+01 -1.068520188331604004e+00 4.056873321533203125e-01 -8.178783208131790161e-02 9.716985374689102173e-02 -3.176527619361877441e-01
3.143000000000000000e+03 5.750583267211914062e+01 2.981481170654296875e+01 -1.273677825927734375e+00 3.722932040691375732e-01 -2.704153656959533691e-01 -7.665181756019592285e-01
3.144000000000000000e+03 8.332348823547363281e+00 -6.794633388519287109e+00 -2.696692943572998047e-01 -2.497883141040802002e-01 -1.558372825384140015e-01 -4.450431168079376221e-01
3.145000000000000000e+03 5.922991943359375000e+01 2.944588851928710938e+01 -1.102171301841735840e+00 4.358084797859191895e-01 -1.999088525772094727e-01 -5.906861424446105957e-01
3.146000000000000000e+03 6.223381423950195312e+01 3.042377662658691406e+01 -1.201896548271179199e+00 4.095811843872070312e-01 -2.376945912837982178e-01 -1.474742591381072998e-01
3.147000000000000000e+03 6.834831237792968750e+00 -6.107612609863281250e+00 -2.204407900571823120e-01 -1.794570088386535645e-01 -1.199693381786346436e-01 -3.201424479484558105e-01
3.148000000000000000e+03 6.688557624816894531e+00 -5.318561553955078125e+00 -2.148523479700088501e-01 -1.435627043247222900e-01 -1.075245141983032227e-01 -2.660636603832244873e-01
3.149000000000000000e+03 1.210460567474365234e+01 4.408751964569091797e+00 3.329396545886993408e-01 4.090259969234466553e-01 2.225897014141082764e-01 -2.511086463928222656e-01
3.150000000000000000e+03 2.830676460266113281e+01 -2.603220701217651367e+00 8.229801654815673828e-01 -3.311168849468231201e-01 1.475589871406555176e-01 -2.887387275695800781e-01
3.151000000000000000e+03 6.027193832397460938e+01 2.933736038208007812e+01 -9.761088490486145020e-01 4.939742982387542725e-01 -1.446403563022613525e-01 -4.176415503025054932e-01
3.152000000000000000e+03 6.124324417114257812e+01 2.980448913574218750e+01 -1.019863963127136230e+00 4.522563517093658447e-01 -1.702822744846343994e-01 -2.946622073650360107e-01
3.153000000000000000e+03 5.683923721313476562e+01 2.969794845581054688e+01 -1.274743676185607910e+00 3.489804565906524658e-01 -2.777289748191833496e-01 -7.979565262794494629e-01
3.154000000000000000e+03 3.285416412353515625e+01 9.802153587341308594e+00 -1.280049681663513184e+00 -1.341891169548034668e+00 -7.865822911262512207e-01 -1.233137369155883789e+00
3.155000000000000000e+03 4.289930343627929688e+01 3.658605957031250000e+01 8.787253499031066895e-02 4.022145643830299377e-02 3.842819854617118835e-02 4.634190723299980164e-02
3.156000000000000000e+03 2.362492752075195312e+01 -5.665843486785888672e-01 -9.949950128793716431e-02 6.479883193969726562e-01 1.645466387271881104e-01 -7.161138057708740234e-01
3.157000000000000000e+03 1.155328464508056641e+01 4.752475261688232422e+00 3.197068870067596436e-01 2.357184886932373047e-01 1.666276156902313232e-01 -2.046584337949752808e-01
3.158000000000000000e+03 1.211124706268310547e+01 6.645079135894775391e+00 1.135267391800880432e-01 3.467016220092773438e-01 1.380685120820999146e-01 -7.705640047788619995e-02
3.159000000000000000e+03 1.180814933776855469e+01 -5.972699642181396484e+00 -5.162061452865600586e-01 -3.567495048046112061e-01 -2.618867158889770508e-01 -6.733994483947753906e-01
3.160000000000000000e+03 1.034055709838867188e+01 -5.146738052368164062e+00 -4.767100512981414795e-01 -1.658637821674346924e-01 -1.927721500396728516e-01 -4.755904078483581543e-01
3.161000000000000000e+03 5.622170257568359375e+01 2.955473136901855469e+01 -1.273632884025573730e+00 3.235008120536804199e-01 -2.850396037101745605e-01 -8.208620548248291016e-01
3.162000000000000000e+03 3.008348655700683594e+01 -2.750190496444702148e+00 6.166815757751464844e-01 -5.021357536315917969e-01 3.436375409364700317e-02 -8.928252011537551880e-02
3.163000000000000000e+03 4.268901824951171875e+01 3.557196426391601562e+01 7.907223701477050781e-02 4.358700290322303772e-02 3.679777309298515320e-02 4.729914292693138123e-02
3.164000000000000000e+03 4.320510864257812500e+01 3.579341888427734375e+01 8.200547844171524048e-02 3.606342524290084839e-02 3.542067110538482666e-02 4.763369634747505188e-02
3.165000000000000000e+03 1.330844879150390625e+01 -6.215731143951416016e+00 -5.554507374763488770e-01 -5.527121424674987793e-01 -3.324488699436187744e-01 -8.239653706550598145e-01
3.166000000000000000e+03 1.257522106170654297e+01 -5.304360389709472656e+00 -6.509811282157897949e-01 -3.630723357200622559e-01 -3.042160570621490479e-01 -7.060665488243103027e-01
3.167000000000000000e+03 7.604767608642578125e+01 3.224106216430664062e+01 1.340559720993041992e+00 9.513978958129882812e+00 3.256361484527587891e+00 -1.288806557655334473e+00
3.168000000000000000e+03 7.491213989257812500e+01 3.377022933959960938e+01 3.070527791976928711e+00 1.064057826995849609e+01 4.113331794738769531e+00 -1.835134178400039673e-01
3.169000000000000000e+03 3.101269149780273438e+01 -4.101150989532470703e+00 7.565160989761352539e-01 -5.104923844337463379e-01 7.380710542201995850e-02 -1.290278881788253784e-01
3.170000000000000000e+03 7.448883819580078125e+01 3.265309524536132812e+01 2.775448799133300781e+00 1.138749980926513672e+01 4.248884677886962891e+00 -1.509564876556396484e+00
3.171000000000000000e+03 4.688010787963867188e+01 4.169438552856445312e+01 1.311252862215042114e-01 2.122788503766059875e-02 4.570595175027847290e-02 1.978448126465082169e-03
3.172000000000000000e+03 4.577405929565429688e+01 3.867208480834960938e+01 1.202172785997390747e-01 2.685715630650520325e-02 4.412233084440231323e-02 3.134276345372200012e-02
3.173000000000000000e+03 1.335335636138916016e+01 -5.387738227844238281e+00 -6.675366759300231934e-01 -4.442911148071289062e-01 -3.335483372211456299e-01 -7.856015563011169434e-01
3.174000000000000000e+03 1.485269165039062500e+01 -6.403828144073486328e+00 -4.956526756286621094e-01 -8.803825378417968750e-01 -4.128105640411376953e-01 -9.704250693321228027e-01
3.175000000000000000e+03 5.276259994506835938e+01 4.193098831176757812e+01 2.413393855094909668e-01 -1.196974441409111023e-01 3.649258241057395935e-02 4.227371141314506531e-02
3.176000000000000000e+03 4.589612579345703125e+01 3.758188247680664062e+01 1.219978556036949158e-01 3.084652125835418701e-02 4.585331305861473083e-02 4.883176833391189575e-02
3.177000000000000000e+03 4.353515243530273438e+01 3.992454910278320312e+01 1.068571731448173523e-01 2.828114293515682220e-02 4.054149612784385681e-02 1.804132759571075439e-02
3.178000000000000000e+03 5.540733718872070312e+01 4.123021316528320312e+01 3.509414196014404297e-01 -3.703556060791015625e-01 -5.824256688356399536e-03 1.156539935618638992e-02
3.179000000000000000e+03 9.618014335632324219e+00 -5.141278743743896484e+00 -4.123817980289459229e-01 -1.709101200103759766e-01 -1.749875694513320923e-01 -4.289209246635437012e-01
3.180000000000000000e+03 3.853921175003051758e+00 6.649101734161376953e+00 3.759903833270072937e-02 -1.234052926301956177e-01 -2.574187703430652618e-02 7.637677341699600220e-02
3.181000000000000000e+03 7.355586242675781250e+01 3.578692626953125000e+01 2.137801647186279297e+00 1.284671592712402344e+01 4.495355129241943359e+00 1.917971253395080566e+00
3.182000000000000000e+03 7.446346282958984375e+01 3.652902221679687500e+01 1.026264429092407227e+00 1.181590843200683594e+01 3.852651834487915039e+00 1.911295175552368164e+00
3.183000000000000000e+03 7.326422882080078125e+01 3.437773513793945312e+01 5.328201770782470703e+00 1.315736198425292969e+01 5.545669078826904297e+00 9.149556756019592285e-01
3.184000000000000000e+03 3.593195724487304688e+01 -1.000950431823730469e+01 4.878802895545959473e-01 -3.987140357494354248e-01 2.674987725913524628e-02 -8.709870278835296631e-02
3.185000000000000000e+03 3.594479370117187500e+01 -8.262655258178710938e+00 5.909935832023620605e-01 -4.478771388530731201e-01 4.293493926525115967e-02 -7.771746069192886353e-02
3.186000000000000000e+03 1.107346630096435547e+01 -5.174810409545898438e+00 -5.323723554611206055e-01 -2.307280302047729492e-01 -2.289301156997680664e-01 -5.478052496910095215e-01
3.187000000000000000e+03 7.317666625976562500e+01 3.372557449340820312e+01 5.836853504180908203e+00 1.323883533477783203e+01 5.722706794738769531e+00 -5.250772833824157715e-01
3.188000000000000000e+03 7.536382293701171875e+01 3.510839462280273438e+01 2.165319204330444336e+00 1.022278022766113281e+01 3.716429710388183594e+00 1.011696934700012207e+00
3.189000000000000000e+03 4.021986007690429688e+01 -1.273017215728759766e+01 3.757700622081756592e-01 -6.497879326343536377e-02 9.323737770318984985e-02 -2.319576218724250793e-03
3.190000000000000000e+03 3.879550170898437500e+01 -1.091870212554931641e+01 4.749525189399719238e-01 -2.227607816457748413e-01 7.565752416849136353e-02 -2.905815094709396362e-02
3.191000000000000000e+03 3.675589370727539062e+01 -7.533575534820556641e+00 6.254628896713256836e-01 -4.372764229774475098e-01 5.645595118403434753e-02 -4.594580084085464478e-02
3.192000000000000000e+03 3.362788772583007812e+01 -6.963139533996582031e+00 7.291542291641235352e-01 -4.988364577293395996e-01 6.909532099962234497e-02 -1.441551744937896729e-01
3.193000000000000000e+03 2.075011634826660156e+01 -2.394404411315917969e+01 2.444541305303573608e-01 3.989724069833755493e-02 8.530540764331817627e-02 -3.471131026744842529e-01
3.194000000000000000e+03 5.120098876953125000e+01 4.028973388671875000e+01 1.814241260290145874e-01 -1.660136133432388306e-02 4.944682866334915161e-02 2.995965443551540375e-02
3.195000000000000000e+03 4.924557876586914062e+01 4.101901245117187500e+01 1.692949235439300537e-01 1.872624084353446960e-02 5.640635266900062561e-02 1.012915931642055511e-02
3.196000000000000000e+03 4.764957046508789062e+01 -2.541879272460937500e+01 -9.955675154924392700e-02 1.239066839218139648e+00 3.418530225753784180e-01 1.260259300470352173e-01
3.197000000000000000e+03 4.598367309570312500e+01 -2.366938400268554688e+01 -5.853147059679031372e-02 8.779195547103881836e-01 2.458164393901824951e-01 9.234442561864852905e-02
3.198000000000000000e+03 1.788354492187500000e+01 -1.546273899078369141e+01 2.796629369258880615e-01 -3.513601124286651611e-01 -2.150915190577507019e-02 -3.550878465175628662e-01
3.199000000000000000e+03 1.739134788513183594e+01 -1.456737995147705078e+01 2.668919563293457031e-01 -4.592030942440032959e-01 -5.769333988428115845e-02 -3.781235218048095703e-01
3.200000000000000000e+03 1.505421352386474609e+01 -8.323651313781738281e+00 -1.449890136718750000e-01 -8.854330182075500488e-01 -3.091266155242919922e-01 -7.931404113769531250e-01
3.201000000000000000e+03 2.247637939453125000e+01 -2.689546966552734375e+01 2.754945158958435059e-01 1.971841156482696533e-01 1.418035924434661865e-01 -3.561624586582183838e-01
3.202000000000000000e+03 4.519704818725585938e+01 -2.242332839965820312e+01 -2.374029904603958130e-02 7.076670527458190918e-01 2.051780223846435547e-01 9.228233993053436279e-02
3.203000000000000000e+03 7.516552734375000000e+01 2.594964790344238281e+01 -8.916046619415283203e-01 9.784647941589355469e+00 2.667912960052490234e+00 -6.110635399818420410e-01
3.204000000000000000e+03 7.398028564453125000e+01 2.308411407470703125e+01 -7.234063744544982910e-01 8.861260414123535156e+00 2.441356182098388672e+00 2.051330059766769409e-01
3.205000000000000000e+03 7.078273010253906250e+01 -2.647805595397949219e+01 3.118094243109226227e-02 5.448794841766357422e+00 1.643992662429809570e+00 2.015992850065231323e-01
3.206000000000000000e+03 7.084398651123046875e+01 -3.261149597167968750e+01 5.500476062297821045e-02 5.368882179260253906e+00 1.627166152000427246e+00 1.508267670869827271e-01
3.207000000000000000e+03 7.169016265869140625e+01 -3.150689315795898438e+01 4.372088611125946045e-02 5.560429096221923828e+00 1.681245088577270508e+00 1.452790796756744385e-01
3.208000000000000000e+03 4.202653121948242188e+01 -1.966421508789062500e+01 3.336573764681816101e-02 1.431935727596282959e-01 5.296779051423072815e-02 9.461224079132080078e-02
3.209000000000000000e+03 6.697215557098388672e+00 2.918714714050292969e+01 -6.007837131619453430e-03 -4.746701568365097046e-02 -1.604245603084564209e-02 -1.225540786981582642e-02
3.210000000000000000e+03 7.306499004364013672e+00 3.200011062622070312e+01 -5.901971366256475449e-03 -4.136108607053756714e-02 -1.417891681194305420e-02 -9.744904935359954834e-03
3.211000000000000000e+03 7.283444213867187500e+01 -2.312853240966796875e+01 2.752736955881118774e-02 5.874963760375976562e+00 1.770747303962707520e+00 1.870546042919158936e-01
3.212000000000000000e+03 7.351806640625000000e+01 1.848018646240234375e+01 -2.441253066062927246e-01 7.938800334930419922e+00 2.308402538299560547e+00 5.180659294128417969e-01
3.213000000000000000e+03 7.288601684570312500e+01 1.150287151336669922e+01 1.899082958698272705e-02 7.147079944610595703e+00 2.149821281433105469e+00 6.062452793121337891e-01
3.214000000000000000e+03 7.322847747802734375e+01 1.274227714538574219e+01 -5.597443319857120514e-03 7.350728034973144531e+00 2.203539133071899414e+00 5.871290564537048340e-01
3.215000000000000000e+03 7.295205688476562500e+01 -1.630574035644531250e+01 2.922296524047851562e-02 6.052020072937011719e+00 1.824373006820678711e+00 2.297502160072326660e-01
3.216000000000000000e+03 7.291748046875000000e+01 -1.761695480346679688e+01 2.687713503837585449e-02 6.011527538299560547e+00 1.811521410942077637e+00 2.215558439493179321e-01
3.217000000000000000e+03 7.318623352050781250e+01 -9.805041313171386719e+00 4.004264995455741882e-02 6.281854629516601562e+00 1.896569132804870605e+00 2.831650078296661377e-01
3.218000000000000000e+03 7.315291595458984375e+01 -1.108751487731933594e+01 3.778559714555740356e-02 6.233839511871337891e+00 1.881487607955932617e+00 2.727734148502349854e-01
3.219000000000000000e+03 7.251860809326171875e+01 -2.092048645019531250e+00 6.626171618700027466e-02 6.409621715545654297e+00 1.942765116691589355e+00 4.241658747196197510e-01
3.220000000000000000e+03 7.287507629394531250e+01 -3.396950960159301758e+00 6.197562441229820251e-02 6.438951015472412109e+00 1.950277924537658691e+00 3.863856196403503418e-01
3.221000000000000000e+03 7.182975769042968750e+01 2.996969223022460938e+00 8.283980935811996460e-02 6.414500236511230469e+00 1.949202060699462891e+00 5.298408269882202148e-01
3.222000000000000000e+03 7.315316009521484375e+01 4.191091060638427734e+00 6.041324511170387268e-02 6.839836597442626953e+00 2.070075035095214844e+00 4.938573241233825684e-01
3.223000000000000000e+03 7.322184753417968750e+01 5.504776954650878906e+00 5.526624247431755066e-02 6.929289817810058594e+00 2.095366954803466797e+00 5.122367143630981445e-01
3.224000000000000000e+03 7.302019500732421875e+01 -4.676899433135986328e+00 5.508293211460113525e-02 6.422783374786376953e+00 1.943359851837158203e+00 3.513715267181396484e-01
3.225000000000000000e+03 7.322668457031250000e+01 6.800292491912841797e+00 5.340361595153808594e-02 7.009149551391601562e+00 2.118765830993652344e+00 5.276681780815124512e-01
3.226000000000000000e+03 7.186793518066406250e+01 -2.736455917358398438e+01 3.321541473269462585e-02 5.613320350646972656e+00 1.693960666656494141e+00 1.807582676410675049e-01
3.227000000000000000e+03 6.681749820709228516e+00 2.173541259765625000e+01 -5.842265207320451736e-03 -4.493672028183937073e-02 -1.523369550704956055e-02 -2.046368084847927094e-02
3.228000000000000000e+03 7.243223571777343750e+01 1.620563125610351562e+01 -1.165833622217178345e-01 7.310513496398925781e+00 2.158179044723510742e+00 6.466636657714843750e-01
3.229000000000000000e+03 1.392013549804687500e+01 -8.280305862426757812e+00 -1.623115092515945435e-01 -7.096961140632629395e-01 -2.616022825241088867e-01 -7.839277386665344238e-01
3.230000000000000000e+03 6.394284248352050781e+00 -1.298915481567382812e+01 -1.205130945891141891e-03 -5.698374509811401367e-01 -1.713127791881561279e-01 -4.397294521331787109e-01
3.231000000000000000e+03 6.242287635803222656e+00 -1.050559997558593750e+01 -6.564814597368240356e-02 -4.371479451656341553e-01 -1.508388221263885498e-01 -4.216929674148559570e-01
3.232000000000000000e+03 5.798584461212158203e+00 2.699329948425292969e+01 -5.089180544018745422e-03 -5.970244854688644409e-02 -1.943749003112316132e-02 -1.474841777235269547e-02
3.233000000000000000e+03 7.329291534423828125e+01 1.396257400512695312e+01 -3.486537933349609375e-02 7.460424423217773438e+00 2.227667808532714844e+00 5.927500128746032715e-01
3.234000000000000000e+03 8.116382598876953125e+00 -1.789159011840820312e+01 9.398681670427322388e-02 -7.226805686950683594e-01 -1.886081248521804810e-01 -4.259900450706481934e-01
3.235000000000000000e+03 6.884735107421875000e+00 -1.814809799194335938e+01 7.173097878694534302e-02 -7.685952186584472656e-01 -2.090592831373214722e-01 -3.946833014488220215e-01
3.236000000000000000e+03 5.775074958801269531e+00 -2.671375465393066406e+01 5.155321955680847168e-02 -1.080072522163391113e+00 -3.085557818412780762e-01 -2.075741738080978394e-01
3.237000000000000000e+03 6.241854190826416016e+00 -9.269446372985839844e+00 -1.057585403323173523e-01 -3.537299633026123047e-01 -1.378465443849563599e-01 -3.942945301532745361e-01
3.238000000000000000e+03 5.047933101654052734e+00 -9.202823638916015625e+00 -7.742580026388168335e-02 -3.428601920604705811e-01 -1.260858029127120972e-01 -3.277621269226074219e-01
3.239000000000000000e+03 6.204888820648193359e+00 1.486142921447753906e+01 1.139536313712596893e-02 -4.856128990650177002e-02 -1.114977803081274033e-02 -2.181955613195896149e-02
3.240000000000000000e+03 6.275916099548339844e+00 1.624606704711914062e+01 5.269860383123159409e-03 -4.671531915664672852e-02 -1.243363786488771439e-02 -2.418188937008380890e-02
3.241000000000000000e+03 3.175822448730468750e+01 -4.723981857299804688e+00 8.014332056045532227e-01 -5.126945376396179199e-01 8.662160485982894897e-02 -1.226370334625244141e-01
3.242000000000000000e+03 6.189626693725585938e+00 1.345954132080078125e+01 2.238427475094795227e-02 -5.074499547481536865e-02 -8.508216589689254761e-03 -1.965107023715972900e-02
3.243000000000000000e+03 5.086462020874023438e+00 1.202883148193359375e+01 3.009620122611522675e-02 -8.848082274198532104e-02 -1.751538552343845367e-02 -8.782132528722286224e-03
3.244000000000000000e+03 5.386281967163085938e+00 1.913687705993652344e+01 -3.367584198713302612e-03 -6.956338882446289062e-02 -2.187929116189479828e-02 -2.361055463552474976e-02
3.245000000000000000e+03 4.071432876586914062e+01 -1.411857604980468750e+01 3.105512559413909912e-01 -4.055274650454521179e-03 9.194879978895187378e-02 2.281915163621306419e-03
3.246000000000000000e+03 4.074028396606445312e+01 -1.727456092834472656e+01 1.220968067646026611e-01 -7.110039237886667252e-03 3.449603170156478882e-02 6.553240865468978882e-02
3.247000000000000000e+03 9.960319519042968750e+00 -3.228999710083007812e+01 1.098829880356788635e-01 -8.299923539161682129e-01 -2.160328030586242676e-01 -1.884630620479583740e-01
3.248000000000000000e+03 8.524656295776367188e+00 -3.037419128417968750e+01 9.079261869192123413e-02 -9.230663776397705078e-01 -2.496821284294128418e-01 -2.044387161731719971e-01
3.249000000000000000e+03 6.576313495635986328e+00 2.050934982299804688e+01 -4.842338617891073227e-03 -4.288208857178688049e-02 -1.431732811033725739e-02 -2.234920486807823181e-02
3.250000000000000000e+03 7.231811523437500000e+00 1.485787773132324219e+01 1.371144503355026245e-02 -2.017080225050449371e-02 -1.937807188369333744e-03 -2.255457267165184021e-02
3.251000000000000000e+03 6.588433265686035156e+00 1.912851333618164062e+01 -3.178381826728582382e-03 -4.189128056168556213e-02 -1.352089829742908478e-02 -2.345035597681999207e-02
3.252000000000000000e+03 7.578028678894042969e+00 2.584725379943847656e+01 -7.484303321689367294e-03 -3.410145640373229980e-02 -1.247572805732488632e-02 -1.582823321223258972e-02
3.253000000000000000e+03 7.376638793945312500e+01 2.088382530212402344e+01 -4.602214992046356201e-01 8.345521926879882812e+00 2.365590095520019531e+00 3.986925184726715088e-01
3.254000000000000000e+03 7.843527317047119141e+00 9.554523468017578125e+00 8.578611910343170166e-02 -1.526450924575328827e-02 2.115648426115512848e-02 -1.532088685780763626e-02
3.255000000000000000e+03 6.223012447357177734e+00 1.198545169830322266e+01 3.666508942842483521e-02 -5.392581596970558167e-02 -5.178218241780996323e-03 -1.276609487831592560e-02
3.256000000000000000e+03 6.204695701599121094e+00 6.031951427459716797e+00 9.675131738185882568e-02 -1.279989629983901978e-01 -9.374292567372322083e-03 8.766984194517135620e-02
3.257000000000000000e+03 5.860804557800292969e+00 7.995950222015380859e+00 8.426122367382049561e-02 -1.032462716102600098e-01 -5.695512983947992325e-03 3.783047199249267578e-02
3.258000000000000000e+03 7.695115089416503906e+00 6.988374233245849609e+00 1.390163004398345947e-01 -8.432280272245407104e-02 1.640804670751094818e-02 2.390127442777156830e-02
3.259000000000000000e+03 9.164297103881835938e+00 3.284440994262695312e+01 -7.514922879636287689e-03 -2.437668852508068085e-02 -9.567483328282833099e-03 -7.743350695818662643e-03
3.260000000000000000e+03 6.385328769683837891e+00 -7.030791282653808594e+00 -1.806208342313766479e-01 -2.321667522192001343e-01 -1.238362714648246765e-01 -3.404170274734497070e-01
3.261000000000000000e+03 5.227637290954589844e+00 -1.310699176788330078e+01 -3.107858123257756233e-03 -5.639752149581909180e-01 -1.701249331235885620e-01 -3.755283951759338379e-01
3.262000000000000000e+03 4.269058609008789062e+01 -2.082311058044433594e+01 5.329261999577283859e-03 2.280447632074356079e-01 7.001221179962158203e-02 1.003155112266540527e-01
3.263000000000000000e+03 4.247301101684570312e+01 -1.782965469360351562e+01 1.290748417377471924e-01 2.409145385026931763e-01 1.109968125820159912e-01 5.627022311091423035e-02
3.264000000000000000e+03 1.870904731750488281e+01 -2.025942230224609375e+01 2.443097084760665894e-01 -1.579303890466690063e-01 2.591379173099994659e-02 -3.485676348209381104e-01
3.265000000000000000e+03 4.691120910644531250e+01 -2.686824989318847656e+01 -1.372533589601516724e-01 1.072673916816711426e+00 2.806261777877807617e-01 1.352759599685668945e-01
3.266000000000000000e+03 1.786605262756347656e+01 -1.755363655090332031e+01 2.742650806903839111e-01 -2.842299342155456543e-01 -2.989459084346890450e-03 -3.449556231498718262e-01
3.267000000000000000e+03 3.769984054565429688e+01 -1.008489894866943359e+01 4.927619099617004395e-01 -3.232795596122741699e-01 5.084470286965370178e-02 -5.351734161376953125e-02
3.268000000000000000e+03 4.445420837402343750e+01 -2.126140022277832031e+01 1.331667788326740265e-02 5.531181693077087402e-01 1.699304431676864624e-01 7.857856154441833496e-02
3.269000000000000000e+03 4.377002334594726562e+01 -2.012444686889648438e+01 4.279002174735069275e-02 4.387988746166229248e-01 1.444766670465469360e-01 7.629925757646560669e-02
3.270000000000000000e+03 4.289176177978515625e+01 4.161600112915039062e+01 1.011868938803672791e-01 3.469838574528694153e-02 4.076558351516723633e-02 6.963440682739019394e-03
3.271000000000000000e+03 7.440943145751953125e+01 3.888836669921875000e+01 -1.153867959976196289e+00 1.170196247100830078e+01 3.164428472518920898e+00 1.320468306541442871e+00
3.272000000000000000e+03 7.214686584472656250e+01 4.125634765625000000e+01 -1.945171952247619629e+00 1.112096214294433594e+01 2.752737045288085938e+00 -1.623148024082183838e-01
3.273000000000000000e+03 5.875276565551757812e+01 4.014639282226562500e+01 5.649639368057250977e-01 -1.809229403734207153e-01 1.152122914791107178e-01 3.368994295597076416e-01
3.274000000000000000e+03 2.318412017822265625e+01 -3.117944717407226562e+01 3.330471217632293701e-01 2.067547887563705444e-01 1.619405746459960938e-01 -3.182352781295776367e-01
3.275000000000000000e+03 1.685690116882324219e+01 -1.373203372955322266e+01 2.534145116806030273e-01 -5.178759694099426270e-01 -7.933843880891799927e-02 -4.285980165004730225e-01
3.276000000000000000e+03 1.607415008544921875e+01 -1.423024749755859375e+01 2.305453121662139893e-01 -5.548694133758544922e-01 -9.729722887277603149e-02 -4.603778719902038574e-01
3.277000000000000000e+03 1.614226150512695312e+01 -1.330605602264404297e+01 2.633105516433715820e-01 -5.940482020378112793e-01 -9.922129660844802856e-02 -4.647665917873382568e-01
3.278000000000000000e+03 7.268877410888671875e+01 -2.175895500183105469e+01 2.118054032325744629e-02 5.870339870452880859e+00 1.767456054687500000e+00 2.017274647951126099e-01
3.279000000000000000e+03 7.298226928710937500e+01 -1.499093151092529297e+01 3.149890899658203125e-02 6.092051982879638672e+00 1.837065339088439941e+00 2.402540892362594604e-01
3.280000000000000000e+03 7.316833496093750000e+01 -8.518178939819335938e+00 4.760440066456794739e-02 6.317568778991699219e+00 1.909551858901977539e+00 3.005378842353820801e-01
3.281000000000000000e+03 8.506871223449707031e+00 -2.872386360168457031e+01 9.665705263614654541e-02 -9.063121080398559570e-01 -2.428965270519256592e-01 -2.389373183250427246e-01
3.282000000000000000e+03 7.231572628021240234e+00 -2.901961517333984375e+01 7.064209133386611938e-02 -9.942774772644042969e-01 -2.770906090736389160e-01 -2.097070366144180298e-01
3.283000000000000000e+03 2.693537521362304688e+01 -6.040415167808532715e-01 6.019761785864830017e-02 -2.885302603244781494e-01 -6.849979609251022339e-02 -1.698715090751647949e-01
3.284000000000000000e+03 2.731122779846191406e+01 3.239090681076049805e+00 -2.468054056167602539e+00 -8.827427625656127930e-01 -1.005239009857177734e+00 -1.037001848220825195e+00
3.285000000000000000e+03 2.557498931884765625e+01 2.526715040206909180e+00 -2.793622970581054688e+00 -6.025483608245849609e-01 -1.018851399421691895e+00 -1.122642755508422852e+00
3.286000000000000000e+03 2.453421211242675781e+01 9.973402023315429688e-01 -1.889622569084167480e+00 -2.293097414076328278e-02 -5.737660527229309082e-01 -7.843807935714721680e-01
3.287000000000000000e+03 2.538095855712890625e+01 2.578821659088134766e+00 -2.980844736099243164e+00 -6.388530135154724121e-01 -1.085909366607666016e+00 -1.232408761978149414e+00
3.288000000000000000e+03 2.477037429809570312e+01 1.069563508033752441e+00 -1.960610985755920410e+00 -1.682395488023757935e-01 -6.386551260948181152e-01 -7.405858635902404785e-01
3.289000000000000000e+03 7.011698150634765625e+01 3.114357566833496094e+01 -7.293412089347839355e-01 1.139181232452392578e+01 3.198741436004638672e+00 4.535006046295166016e+00
3.290000000000000000e+03 6.903887176513671875e+01 3.153181838989257812e+01 7.696550488471984863e-01 5.957684993743896484e+00 2.018202066421508789e+00 4.809391975402832031e+00
3.291000000000000000e+03 6.961923980712890625e+01 3.092840194702148438e+01 -3.181920051574707031e-01 9.035019874572753906e+00 2.615048408508300781e+00 4.629901409149169922e+00
3.292000000000000000e+03 6.940691375732421875e+01 3.123580932617187500e+01 1.907770782709121704e-01 8.021294593811035156e+00 2.463621616363525391e+00 4.964804172515869141e+00
3.293000000000000000e+03 7.033827972412109375e+01 3.080237007141113281e+01 -1.099134445190429688e+00 1.185309505462646484e+01 3.226188182830810547e+00 3.882757425308227539e+00
3.294000000000000000e+03 6.781490325927734375e+01 3.078690528869628906e+01 3.260878026485443115e-01 3.184341192245483398e+00 1.053128719329833984e+00 3.087820291519165039e+00
3.295000000000000000e+03 7.092074584960937500e+01 3.098644447326660156e+01 -1.432944059371948242e+00 1.427028560638427734e+01 3.851202487945556641e+00 2.791754722595214844e+00
3.296000000000000000e+03 7.133331298828125000e+01 3.087154197692871094e+01 -1.423436641693115234e+00 1.461502170562744141e+01 3.957475423812866211e+00 1.606281042098999023e+00
3.297000000000000000e+03 3.073637771606445312e+01 5.270604610443115234e+00 -1.813495874404907227e+00 -9.814557433128356934e-01 -8.384854793548583984e-01 -9.623648524284362793e-01
3.298000000000000000e+03 7.534109497070312500e+01 3.086278915405273438e+01 4.979418814182281494e-01 1.055988979339599609e+01 3.317349672317504883e+00 -1.840708732604980469e+00
3.299000000000000000e+03 7.264212036132812500e+01 3.229290008544921875e+01 2.525062322616577148e+00 1.545157146453857422e+01 5.392990112304687500e+00 -2.189722776412963867e+00
3.300000000000000000e+03 7.339055633544921875e+01 3.275764465332031250e+01 3.815618515014648438e+00 1.325992298126220703e+01 5.122662544250488281e+00 -1.870839834213256836e+00
3.301000000000000000e+03 2.398570251464843750e+01 1.490904450416564941e+00 -2.712403059005737305e+00 -3.396370112895965576e-01 -9.156120419502258301e-01 -1.248498916625976562e+00
3.302000000000000000e+03 7.133986663818359375e+01 3.138393211364746094e+01 -1.183370709419250488e+00 1.597490978240966797e+01 4.437461853027343750e+00 1.404377818107604980e+00
3.303000000000000000e+03 7.239508056640625000e+01 3.136056137084960938e+01 -1.292847245931625366e-01 1.523847866058349609e+01 4.532758235931396484e+00 -9.852113723754882812e-01
3.304000000000000000e+03 7.205070495605468750e+01 3.133357620239257812e+01 -5.124248862266540527e-01 1.559610271453857422e+01 4.525103569030761719e+00 -4.183342754840850830e-01
3.305000000000000000e+03 1.849136161804199219e+01 1.160067844390869141e+01 9.587110579013824463e-02 1.739021390676498413e-01 8.093197643756866455e-02 1.283727139234542847e-01
3.306000000000000000e+03 1.881969261169433594e+01 1.197906684875488281e+01 9.391206502914428711e-02 1.661349236965179443e-01 7.801409810781478882e-02 1.250360608100891113e-01
3.307000000000000000e+03 7.539060974121093750e+01 3.305133819580078125e+01 2.243484735488891602e+00 1.014469337463378906e+01 3.716453552246093750e+00 -8.897531032562255859e-01
3.308000000000000000e+03 3.928182983398437500e+01 1.776114082336425781e+01 -1.209804654121398926e+00 -1.331189632415771484e+00 -7.622982859611511230e-01 -1.308723092079162598e+00
3.309000000000000000e+03 4.096256637573242188e+01 1.961775398254394531e+01 -1.163164734840393066e+00 -1.262110829353332520e+00 -7.275826930999755859e-01 -1.336947679519653320e+00
3.310000000000000000e+03 4.125938796997070312e+01 2.014817619323730469e+01 -1.186771154403686523e+00 -1.282363414764404297e+00 -7.407403588294982910e-01 -1.339311480522155762e+00
3.311000000000000000e+03 1.620370483398437500e+01 8.803977966308593750e+00 1.088357120752334595e-01 2.496707737445831299e-01 1.075519472360610962e-01 1.542059332132339478e-01
3.312000000000000000e+03 3.270737838745117188e+01 2.590662002563476562e+01 4.958050325512886047e-02 7.648978382349014282e-02 3.782108426094055176e-02 6.213679909706115723e-02
3.313000000000000000e+03 3.416312026977539062e+01 2.740444183349609375e+01 4.977406188845634460e-02 7.482809573411941528e-02 3.738064691424369812e-02 6.002339720726013184e-02
3.314000000000000000e+03 3.898819732666015625e+01 1.756219863891601562e+01 -1.225104928016662598e+00 -1.368118762969970703e+00 -7.779670953750610352e-01 -1.310108423233032227e+00
3.315000000000000000e+03 4.011912918090820312e+01 1.873797035217285156e+01 -1.175733089447021484e+00 -1.274459004402160645e+00 -7.350575923919677734e-01 -1.334795832633972168e+00
3.316000000000000000e+03 1.703172683715820312e+01 9.809214591979980469e+00 1.062490195035934448e-01 2.145442515611648560e-01 9.623797982931137085e-02 1.422713547945022583e-01
3.317000000000000000e+03 3.465390777587890625e+01 1.254718399047851562e+01 -1.291104435920715332e+00 -1.448426961898803711e+00 -8.218594193458557129e-01 -1.316145658493041992e+00
3.318000000000000000e+03 4.669703292846679688e+01 2.500630950927734375e+01 -1.373678922653198242e+00 -1.099286198616027832e+00 -7.418895363807678223e-01 -1.272316455841064453e+00
3.319000000000000000e+03 4.752307891845703125e+01 2.521495246887207031e+01 -1.306761145591735840e+00 -9.882515072822570801e-01 -6.885038018226623535e-01 -1.205611824989318848e+00
3.320000000000000000e+03 2.372465515136718750e+01 1.604791259765625000e+01 8.531198650598526001e-02 1.185043826699256897e-01 6.114491075277328491e-02 1.027280539274215698e-01
3.321000000000000000e+03 1.792494392395019531e+01 1.079244709014892578e+01 1.003252938389778137e-01 1.902218163013458252e-01 8.716413378715515137e-02 1.344733834266662598e-01
3.322000000000000000e+03 4.203557586669921875e+01 2.077270317077636719e+01 -1.229015111923217773e+00 -1.279718399047851562e+00 -7.526200413703918457e-01 -1.313329815864562988e+00
3.323000000000000000e+03 3.497866821289062500e+01 2.912028312683105469e+01 4.926949366927146912e-02 7.262220978736877441e-02 3.656751289963722229e-02 5.636694282293319702e-02
3.324000000000000000e+03 3.439504241943359375e+01 2.848717498779296875e+01 4.760938510298728943e-02 7.248636335134506226e-02 3.602872416377067566e-02 5.629122629761695862e-02
3.325000000000000000e+03 1.959928894042968750e+01 1.241660118103027344e+01 9.585064649581909180e-02 1.565473079681396484e-01 7.571938633918762207e-02 1.231464892625808716e-01
3.326000000000000000e+03 1.845540618896484375e+01 1.192297649383544922e+01 8.872626721858978271e-02 1.725357025861740112e-01 7.837858796119689941e-02 1.225269734859466553e-01
3.327000000000000000e+03 2.039875602722167969e+01 1.312510490417480469e+01 9.570734202861785889e-02 1.475749611854553223e-01 7.298468798398971558e-02 1.182432249188423157e-01
3.328000000000000000e+03 3.871879196166992188e+01 1.736176872253417969e+01 -1.233300566673278809e+00 -1.400019764900207520e+00 -7.899960875511169434e-01 -1.313431143760681152e+00
3.329000000000000000e+03 4.012849426269531250e+01 1.775254440307617188e+01 -1.145532608032226562e+00 -1.220714926719665527e+00 -7.098742723464965820e-01 -1.262198448181152344e+00
3.330000000000000000e+03 4.582166290283203125e+01 2.423390769958496094e+01 -1.395344257354736328e+00 -1.175507903099060059e+00 -7.712556123733520508e-01 -1.272595524787902832e+00
3.331000000000000000e+03 4.664494705200195312e+01 2.446854782104492188e+01 -1.332727909088134766e+00 -1.054033637046813965e+00 -7.160285115242004395e-01 -1.220591425895690918e+00
3.332000000000000000e+03 2.007913780212402344e+01 1.303976821899414062e+01 9.368756413459777832e-02 1.509444564580917358e-01 7.338960468769073486e-02 1.174610108137130737e-01
3.333000000000000000e+03 2.422957420349121094e+01 1.750417327880859375e+01 7.490187883377075195e-02 1.125640198588371277e-01 5.623976886272430420e-02 9.292105585336685181e-02
3.334000000000000000e+03 4.375128173828125000e+01 2.183556938171386719e+01 -1.263674139976501465e+00 -1.214408397674560547e+00 -7.434247732162475586e-01 -1.261331796646118164e+00
3.335000000000000000e+03 3.249545288085937500e+01 9.791460990905761719e+00 -1.303312659263610840e+00 -1.378299117088317871e+00 -8.044835329055786133e-01 -1.254173040390014648e+00
3.336000000000000000e+03 3.342508316040039062e+01 1.109041500091552734e+01 -1.321837186813354492e+00 -1.397677898406982422e+00 -8.158545494079589844e-01 -1.295963644981384277e+00
3.337000000000000000e+03 2.314444160461425781e+01 1.507882976531982422e+01 9.375777840614318848e-02 1.259043961763381958e-01 6.589865684509277344e-02 1.075889244675636292e-01
3.338000000000000000e+03 3.561301422119140625e+01 1.369203758239746094e+01 -1.280166029930114746e+00 -1.454765439033508301e+00 -8.204794526100158691e-01 -1.331113100051879883e+00
3.339000000000000000e+03 4.781965255737304688e+01 2.547026824951171875e+01 -1.297457695007324219e+00 -9.668028354644775391e-01 -6.792781949043273926e-01 -1.195984840393066406e+00
3.340000000000000000e+03 4.818654632568359375e+01 2.629414749145507812e+01 -1.325203776359558105e+00 -1.000731587409973145e+00 -6.977806091308593750e-01 -1.216527223587036133e+00
3.341000000000000000e+03 2.838588714599609375e+01 2.150847244262695312e+01 5.888204276561737061e-02 9.061131626367568970e-02 4.484800994396209717e-02 7.554127275943756104e-02
3.342000000000000000e+03 3.487931060791015625e+01 1.283137035369873047e+01 -1.289732217788696289e+00 -1.451746463775634766e+00 -8.224436044692993164e-01 -1.319923043251037598e+00
3.343000000000000000e+03 3.568058776855468750e+01 1.319784164428710938e+01 -1.243916153907775879e+00 -1.401970028877258301e+00 -7.937658429145812988e-01 -1.278578877449035645e+00
3.344000000000000000e+03 1.730528068542480469e+01 1.005894565582275391e+01 1.043658256530761719e-01 2.047623097896575928e-01 9.273844212293624878e-02 1.406218260526657104e-01
3.345000000000000000e+03 1.640011405944824219e+01 9.352243423461914062e+00 1.021449938416481018e-01 2.352446466684341431e-01 1.012168973684310913e-01 1.430548131465911865e-01
3.346000000000000000e+03 4.404179000854492188e+01 2.210765647888183594e+01 -1.274928689002990723e+00 -1.211377501487731934e+00 -7.458918690681457520e-01 -1.258828997611999512e+00
3.347000000000000000e+03 4.316482162475585938e+01 2.129150390625000000e+01 -1.234642982482910156e+00 -1.222872018814086914e+00 -7.372545003890991211e-01 -1.263525962829589844e+00
3.348000000000000000e+03 4.093111801147460938e+01 1.929512023925781250e+01 -1.145939230918884277e+00 -1.240859985351562500e+00 -7.160397171974182129e-01 -1.319962024688720703e+00
3.349000000000000000e+03 4.805233764648437500e+01 2.516231346130371094e+01 -1.255673289299011230e+00 -8.929498195648193359e-01 -6.445869207382202148e-01 -1.142935514450073242e+00
3.350000000000000000e+03 3.361196899414062500e+01 2.655431938171386719e+01 4.950012266635894775e-02 7.620531320571899414e-02 3.771163150668144226e-02 6.114465743303298950e-02
3.351000000000000000e+03 3.641954421997070312e+01 1.407062530517578125e+01 -1.223401904106140137e+00 -1.410619854927062988e+00 -7.902065515518188477e-01 -1.288826346397399902e+00
3.352000000000000000e+03 2.778122138977050781e+01 2.066667175292968750e+01 6.380809098482131958e-02 9.376166760921478271e-02 4.727092757821083069e-02 7.920372486114501953e-02
3.353000000000000000e+03 2.804004478454589844e+01 2.030848503112792969e+01 6.786724179983139038e-02 9.221565723419189453e-02 4.802487045526504517e-02 8.057844638824462891e-02
3.354000000000000000e+03 2.752374839782714844e+01 2.072104644775390625e+01 6.178413704037666321e-02 9.468574076890945435e-02 4.694096371531486511e-02 7.852207124233245850e-02
3.355000000000000000e+03 2.745953559875488281e+01 2.052177047729492188e+01 6.353691220283508301e-02 9.520906955003738403e-02 4.762379452586174011e-02 7.943648099899291992e-02
3.356000000000000000e+03 2.700958824157714844e+01 2.029069900512695312e+01 6.253267824649810791e-02 9.753289073705673218e-02 4.801966995000839233e-02 8.000065386295318604e-02
3.357000000000000000e+03 5.080714416503906250e+01 2.821253776550292969e+01 -1.322435140609741211e+00 -6.484766006469726562e-01 -5.912735462188720703e-01 -1.031682610511779785e+00
3.358000000000000000e+03 5.055603027343750000e+01 2.851847648620605469e+01 -1.352993965148925781e+00 -7.460368871688842773e-01 -6.297092437744140625e-01 -1.073145151138305664e+00
3.359000000000000000e+03 2.558686637878417969e+01 1.839166259765625000e+01 7.458426803350448608e-02 1.056104078888893127e-01 5.405840277671813965e-02 8.809244632720947266e-02
3.360000000000000000e+03 4.232601928710937500e+01 2.102063941955566406e+01 -1.250906944274902344e+00 -1.273173213005065918e+00 -7.572240829467773438e-01 -1.305459856986999512e+00
3.361000000000000000e+03 4.812338638305664062e+01 2.572576904296875000e+01 -1.291437864303588867e+00 -9.443533420562744141e-01 -6.707373261451721191e-01 -1.183033585548400879e+00
3.362000000000000000e+03 4.937481307983398438e+01 2.797094535827636719e+01 -1.390057921409606934e+00 -9.740450382232666016e-01 -7.092308998107910156e-01 -1.182695031166076660e+00
3.363000000000000000e+03 3.666897964477539062e+01 1.436268424987792969e+01 -1.217716336250305176e+00 -1.413986086845397949e+00 -7.895107269287109375e-01 -1.288617014884948730e+00
3.364000000000000000e+03 3.049555397033691406e+01 2.316976165771484375e+01 5.257946252822875977e-02 8.130890130996704102e-02 4.016650840640068054e-02 7.027603685855865479e-02
3.365000000000000000e+03 3.212683486938476562e+01 2.573383522033691406e+01 4.826834425330162048e-02 7.754174619913101196e-02 3.774302825331687927e-02 6.260789185762405396e-02
3.366000000000000000e+03 4.553111648559570312e+01 2.397161865234375000e+01 -1.392781972885131836e+00 -1.201841235160827637e+00 -7.783869504928588867e-01 -1.273883581161499023e+00
3.367000000000000000e+03 4.635159301757812500e+01 2.421874809265136719e+01 -1.337925195693969727e+00 -1.080635070800781250e+00 -7.255681157112121582e-01 -1.221436142921447754e+00
3.368000000000000000e+03 3.242133331298828125e+01 9.273722648620605469e+00 -1.268450498580932617e+00 -1.337516307830810547e+00 -7.817900776863098145e-01 -1.222233653068542480e+00
3.369000000000000000e+03 3.543581008911132812e+01 1.291051101684570312e+01 -1.246355652809143066e+00 -1.400929331779479980e+00 -7.941854596138000488e-01 -1.275921583175659180e+00
3.370000000000000000e+03 2.534994888305664062e+01 1.810460662841796875e+01 7.640659064054489136e-02 1.068093851208686829e-01 5.496479198336601257e-02 8.960299193859100342e-02
3.371000000000000000e+03 2.445100212097167969e+01 1.830680656433105469e+01 6.804772466421127319e-02 1.101178973913192749e-01 5.344969034194946289e-02 8.751078695058822632e-02
3.372000000000000000e+03 1.575728130340576172e+01 8.116539955139160156e+00 1.118039637804031372e-01 2.808591425418853760e-01 1.177989318966865540e-01 1.625217795372009277e-01
3.373000000000000000e+03 1.535439491271972656e+01 7.824406623840332031e+00 1.080582365393638611e-01 3.060057163238525391e-01 1.242191866040229797e-01 1.583539694547653198e-01
3.374000000000000000e+03 3.692017364501953125e+01 1.465482234954833984e+01 -1.210363984107971191e+00 -1.415990233421325684e+00 -7.879062294960021973e-01 -1.288015365600585938e+00
3.375000000000000000e+03 3.717176437377929688e+01 1.494676589965820312e+01 -1.206923127174377441e+00 -1.417016863822937012e+00 -7.871819734573364258e-01 -1.284847497940063477e+00
3.376000000000000000e+03 2.193452835083007812e+01 1.434135341644287109e+01 9.586396813392639160e-02 1.351896375417709351e-01 6.931608170270919800e-02 1.100540608167648315e-01
3.377000000000000000e+03 2.067840385437011719e+01 1.358233165740966797e+01 9.291332215070724487e-02 1.439555436372756958e-01 7.106066495180130005e-02 1.149602085351943970e-01
3.378000000000000000e+03 3.742209625244140625e+01 1.523926448822021484e+01 -1.203033924102783203e+00 -1.415556073188781738e+00 -7.855769991874694824e-01 -1.282063841819763184e+00
3.379000000000000000e+03 3.847486877441406250e+01 1.713859558105468750e+01 -1.240785717964172363e+00 -1.427649855613708496e+00 -8.005306720733642578e-01 -1.314146995544433594e+00
3.380000000000000000e+03 4.055513000488281250e+01 1.887767219543457031e+01 -1.153288483619689941e+00 -1.245654821395874023e+00 -7.196829915046691895e-01 -1.320967435836791992e+00
3.381000000000000000e+03 4.287077713012695312e+01 2.102139282226562500e+01 -1.216169953346252441e+00 -1.228482246398925781e+00 -7.333956360816955566e-01 -1.266318082809448242e+00
3.382000000000000000e+03 4.433075714111328125e+01 2.237908172607421875e+01 -1.285306453704833984e+00 -1.207733273506164551e+00 -7.479119300842285156e-01 -1.254909992218017578e+00
3.383000000000000000e+03 2.269100189208984375e+01 1.500752830505371094e+01 9.216309338808059692e-02 1.293440461158752441e-01 6.645214557647705078e-02 1.066562235355377197e-01
3.384000000000000000e+03 3.766867446899414062e+01 1.553310108184814453e+01 -1.202575683593750000e+00 -1.412753701210021973e+00 -7.845988273620605469e-01 -1.278133153915405273e+00
3.385000000000000000e+03 4.992946243286132812e+01 2.795927619934082031e+01 -1.352708578109741211e+00 -8.412306308746337891e-01 -6.581817269325256348e-01 -1.113928914070129395e+00
3.386000000000000000e+03 5.187705993652343750e+01 2.939304161071777344e+01 -1.336132287979125977e+00 -4.630616605281829834e-01 -5.397582054138183594e-01 -9.657745957374572754e-01
3.387000000000000000e+03 5.149899291992187500e+01 2.945119094848632812e+01 -1.339216828346252441e+00 -5.834882259368896484e-01 -5.768114924430847168e-01 -1.006405472755432129e+00
3.388000000000000000e+03 3.545854949951171875e+01 2.922705459594726562e+01 4.864847660064697266e-02 7.078491151332855225e-02 3.583001717925071716e-02 5.454678088426589966e-02
3.389000000000000000e+03 2.509786033630371094e+01 1.781900787353515625e+01 7.761523127555847168e-02 1.078405305743217468e-01 5.563672631978988647e-02 9.147173166275024414e-02
3.390000000000000000e+03 2.593328285217285156e+01 1.817091751098632812e+01 7.925852388143539429e-02 1.047596335411071777e-01 5.520544946193695068e-02 8.966467529535293579e-02
3.391000000000000000e+03 4.877702713012695312e+01 2.623202323913574219e+01 -1.280416846275329590e+00 -8.829766511917114258e-01 -6.490180492401123047e-01 -1.140129685401916504e+00
3.392000000000000000e+03 4.905752944946289062e+01 2.712271308898925781e+01 -1.335969805717468262e+00 -9.319512844085693359e-01 -6.803763508796691895e-01 -1.167881131172180176e+00
3.393000000000000000e+03 4.934126663208007812e+01 2.740526771545410156e+01 -1.343641638755798340e+00 -9.091094136238098145e-01 -6.758252978324890137e-01 -1.148671150207519531e+00
3.394000000000000000e+03 2.622010421752929688e+01 1.953616333007812500e+01 6.613248586654663086e-02 1.022924631834030151e-01 5.052748322486877441e-02 8.250755071640014648e-02
3.395000000000000000e+03 3.825609207153320312e+01 1.688204193115234375e+01 -1.243924975395202637e+00 -1.447409391403198242e+00 -8.074003458023071289e-01 -1.316648960113525391e+00
3.396000000000000000e+03 3.783087158203125000e+01 1.632362365722656250e+01 -1.238390684127807617e+00 -1.467835783958435059e+00 -8.118679523468017578e-01 -1.318237423896789551e+00
3.397000000000000000e+03 5.174434280395507812e+01 2.974537086486816406e+01 -1.334305524826049805e+00 -5.418357253074645996e-01 -5.628423690795898438e-01 -9.816727042198181152e-01
3.398000000000000000e+03 5.153471755981445312e+01 2.876544952392578125e+01 -1.323054790496826172e+00 -5.089777112007141113e-01 -5.496097207069396973e-01 -9.825619459152221680e-01
3.399000000000000000e+03 1.908383178710937500e+01 1.258534622192382812e+01 8.830384910106658936e-02 1.599130034446716309e-01 7.446505874395370483e-02 1.188744977116584778e-01
3.400000000000000000e+03 4.524137496948242188e+01 2.370704078674316406e+01 -1.385982990264892578e+00 -1.225068569183349609e+00 -7.833154797554016113e-01 -1.277553439140319824e+00
3.401000000000000000e+03 4.050372695922851562e+01 1.789137840270996094e+01 -1.122750878334045410e+00 -1.187149047851562500e+00 -6.929699778556823730e-01 -1.251098036766052246e+00
3.402000000000000000e+03 2.616815757751464844e+01 1.923952102661132812e+01 6.913498789072036743e-02 1.028489097952842712e-01 5.159517005085945129e-02 8.430698513984680176e-02
3.403000000000000000e+03 2.600313186645507812e+01 1.896697998046875000e+01 7.080453634262084961e-02 1.034849956631660461e-01 5.228685960173606873e-02 8.528512716293334961e-02
3.404000000000000000e+03 2.926655197143554688e+01 2.229120063781738281e+01 5.570832639932632446e-02 8.644176274538040161e-02 4.264502599835395813e-02 7.244493812322616577e-02
3.405000000000000000e+03 5.296091461181640625e+01 3.038874816894531250e+01 -1.340460896492004395e+00 -2.090582549571990967e-01 -4.648557305335998535e-01 -9.013947248458862305e-01
3.406000000000000000e+03 2.220659637451171875e+01 1.456430912017822266e+01 9.455874562263488770e-02 1.324755549430847168e-01 6.811028718948364258e-02 1.090302616357803345e-01
3.407000000000000000e+03 2.140246200561523438e+01 1.438349914550781250e+01 8.969287574291229248e-02 1.376281231641769409e-01 6.819629669189453125e-02 1.080231443047523499e-01
3.408000000000000000e+03 3.599919128417968750e+01 1.298894977569580078e+01 -1.200914502143859863e+00 -1.349394917488098145e+00 -7.650928497314453125e-01 -1.230922698974609375e+00
3.409000000000000000e+03 3.790784072875976562e+01 1.582851123809814453e+01 -1.202504873275756836e+00 -1.407730579376220703e+00 -7.830706238746643066e-01 -1.276862621307373047e+00
3.410000000000000000e+03 2.580605697631835938e+01 1.868080139160156250e+01 7.279608398675918579e-02 1.046817675232887268e-01 5.324335396289825439e-02 8.652611076831817627e-02
3.411000000000000000e+03 5.060350418090820312e+01 2.910437774658203125e+01 -1.369865059852600098e+00 -8.040735125541687012e-01 -6.521815657615661621e-01 -1.098798155784606934e+00
3.412000000000000000e+03 1.729905700683593750e+01 1.056580924987792969e+01 9.386894851922988892e-02 2.011967450380325317e-01 8.851970732212066650e-02 1.324997991323471069e-01
3.413000000000000000e+03 3.319937133789062500e+01 1.050720691680908203e+01 -1.296878337860107422e+00 -1.370760798454284668e+00 -8.002917766571044922e-01 -1.256975531578063965e+00
3.414000000000000000e+03 3.341066360473632812e+01 2.625214767456054688e+01 5.033976584672927856e-02 7.592263072729110718e-02 3.787871822714805603e-02 6.207233294844627380e-02
3.415000000000000000e+03 2.356790542602539062e+01 1.639313697814941406e+01 8.124472945928573608e-02 1.194995939731597900e-01 6.022329628467559814e-02 1.002162173390388489e-01
3.416000000000000000e+03 3.946531677246093750e+01 1.745096778869628906e+01 -1.183095932006835938e+00 -1.285814762115478516e+00 -7.406731843948364258e-01 -1.276171803474426270e+00
3.417000000000000000e+03 3.197641372680664062e+01 2.535303497314453125e+01 4.889112710952758789e-02 7.753752171993255615e-02 3.792859613895416260e-02 6.393693387508392334e-02
3.418000000000000000e+03 3.130859947204589844e+01 2.469882965087890625e+01 4.960171133279800415e-02 7.879304885864257812e-02 3.851842880249023438e-02 6.597786396741867065e-02
3.419000000000000000e+03 3.398499679565429688e+01 2.786834335327148438e+01 4.762189462780952454e-02 7.357653975486755371e-02 3.635952994227409363e-02 5.773837864398956299e-02
3.420000000000000000e+03 3.813362503051757812e+01 1.612381362915039062e+01 -1.207200169563293457e+00 -1.401348352432250977e+00 -7.825645804405212402e-01 -1.275752782821655273e+00
3.421000000000000000e+03 3.852079772949218750e+01 1.669090080261230469e+01 -1.214179992675781250e+00 -1.387919783592224121e+00 -7.806299328804016113e-01 -1.282325029373168945e+00
3.422000000000000000e+03 4.168030929565429688e+01 2.010546493530273438e+01 -1.165182948112487793e+00 -1.251906037330627441e+00 -7.251266837120056152e-01 -1.307596206665039062e+00
3.423000000000000000e+03 4.227922821044921875e+01 2.049264335632324219e+01 -1.179035663604736328e+00 -1.236958980560302734e+00 -7.247983813285827637e-01 -1.280229091644287109e+00
3.424000000000000000e+03 1.975917816162109375e+01 1.292038154602050781e+01 9.116254001855850220e-02 1.528860628604888916e-01 7.321458309888839722e-02 1.178896874189376831e-01
3.425000000000000000e+03 3.059937286376953125e+01 2.407374000549316406e+01 4.939967021346092224e-02 8.130852878093719482e-02 3.921245783567428589e-02 6.823229789733886719e-02
3.426000000000000000e+03 3.093881607055664062e+01 2.439200401306152344e+01 4.916516691446304321e-02 7.966404408216476440e-02 3.864876553416252136e-02 6.668492406606674194e-02
3.427000000000000000e+03 4.461907196044921875e+01 2.264939308166503906e+01 -1.295987963676452637e+00 -1.201354742050170898e+00 -7.492028474807739258e-01 -1.248767733573913574e+00
3.428000000000000000e+03 3.421697998046875000e+01 2.927379226684570312e+01 4.586544260382652283e-02 7.260092347860336304e-02 3.553991019725799561e-02 5.385052040219306946e-02
3.429000000000000000e+03 3.516949462890625000e+01 2.860267066955566406e+01 4.993237182497978210e-02 7.114321738481521606e-02 3.632267937064170837e-02 5.580861121416091919e-02
3.430000000000000000e+03 2.090967941284179688e+01 1.380478954315185547e+01 9.247448295354843140e-02 1.421054303646087646e-01 7.037397474050521851e-02 1.123257949948310852e-01
3.431000000000000000e+03 5.400360488891601562e+01 3.112962150573730469e+01 -1.354287981986999512e+00 2.502332627773284912e-02 -3.987793922424316406e-01 -8.553749322891235352e-01
3.432000000000000000e+03 2.298197937011718750e+01 1.559840774536132812e+01 8.557423204183578491e-02 1.255287379026412964e-01 6.333088874816894531e-02 1.035238951444625854e-01
3.433000000000000000e+03 2.200544548034667969e+01 1.520207881927490234e+01 8.355247229337692261e-02 1.326813250780105591e-01 6.487014144659042358e-02 1.030831038951873779e-01
3.434000000000000000e+03 3.476090621948242188e+01 1.210951709747314453e+01 -1.256608843803405762e+00 -1.396919131278991699e+00 -7.960584163665771484e-01 -1.270194649696350098e+00
3.435000000000000000e+03 5.212491226196289062e+01 2.994297027587890625e+01 -1.337786078453063965e+00 -4.392375946044921875e-01 -5.331071019172668457e-01 -9.535490870475769043e-01
3.436000000000000000e+03 5.274635696411132812e+01 2.975056076049804688e+01 -1.337924361228942871e+00 -2.482912987470626831e-01 -4.758647084236145020e-01 -9.129611253738403320e-01
3.437000000000000000e+03 3.474293136596679688e+01 1.148706722259521484e+01 -1.218003630638122559e+00 -1.331968903541564941e+00 -7.649917602539062500e-01 -1.217917919158935547e+00
3.438000000000000000e+03 3.466135406494140625e+01 1.182718086242675781e+01 -1.244099855422973633e+00 -1.375034093856811523e+00 -7.857401371002197266e-01 -1.253204345703125000e+00
3.439000000000000000e+03 3.286857604980468750e+01 1.011793136596679688e+01 -1.297177910804748535e+00 -1.371464371681213379e+00 -8.005927205085754395e-01 -1.251159906387329102e+00
3.440000000000000000e+03 2.251274490356445312e+01 1.524919891357421875e+01 8.714753389358520508e-02 1.300619691610336304e-01 6.516285240650177002e-02 1.044610217213630676e-01
3.441000000000000000e+03 4.490696716308593750e+01 2.291783905029296875e+01 -1.306942701339721680e+00 -1.191214084625244141e+00 -7.494470477104187012e-01 -1.241718530654907227e+00
3.442000000000000000e+03 4.519443130493164062e+01 2.318376159667968750e+01 -1.318410277366638184e+00 -1.176151394844055176e+00 -7.483685016632080078e-01 -1.234491109848022461e+00
3.443000000000000000e+03 3.336291122436523438e+01 2.648677825927734375e+01 4.870665445923805237e-02 7.524384558200836182e-02 3.718515112996101379e-02 6.083345413208007812e-02
3.444000000000000000e+03 1.672886848449707031e+01 9.565979003906250000e+00 1.041002348065376282e-01 2.218115776777267456e-01 9.777354449033737183e-02 1.441955715417861938e-01
3.445000000000000000e+03 3.460208511352539062e+01 2.887624931335449219e+01 4.864306002855300903e-02 7.145430892705917358e-02 3.602920845150947571e-02 5.502770468592643738e-02
3.446000000000000000e+03 2.991738510131835938e+01 4.821365833282470703e+00 -2.044267177581787109e+00 -1.099632263183593750e+00 -9.431698322296142578e-01 -9.264054298400878906e-01
3.447000000000000000e+03 1.747653961181640625e+01 1.080356216430664062e+01 9.257852286100387573e-02 1.957783252000808716e-01 8.650705218315124512e-02 1.285700201988220215e-01
3.448000000000000000e+03 1.542766094207763672e+01 8.185422897338867188e+00 9.870953112840652466e-02 2.919474542140960693e-01 1.171970963478088379e-01 1.511229872703552246e-01
3.449000000000000000e+03 1.499405956268310547e+01 7.897808551788330078e+00 9.230718761682510376e-02 3.200480639934539795e-01 1.237065792083740234e-01 1.446117460727691650e-01
3.450000000000000000e+03 1.455694007873535156e+01 7.564510822296142578e+00 8.584158867597579956e-02 3.517761826515197754e-01 1.312853246927261353e-01 1.326269358396530151e-01
3.451000000000000000e+03 1.414557266235351562e+01 7.180563449859619141e+00 8.031396567821502686e-02 3.909037411212921143e-01 1.413653194904327393e-01 1.187006980180740356e-01
3.452000000000000000e+03 1.330826091766357422e+01 6.431620597839355469e+00 7.298054546117782593e-02 4.812492430210113525e-01 1.662689447402954102e-01 4.648268967866897583e-02
3.453000000000000000e+03 7.365782928466796875e+01 3.336012268066406250e+01 4.717249870300292969e+00 1.242097663879394531e+01 5.141467571258544922e+00 -9.863325357437133789e-01
3.454000000000000000e+03 1.460176753997802734e+01 7.990820884704589844e+00 8.394113183021545410e-02 3.259145915508270264e-01 1.229567229747772217e-01 1.212429627776145935e-01
3.455000000000000000e+03 3.268910980224609375e+01 6.062186241149902344e+00 -1.310836911201477051e+00 -9.311709403991699219e-01 -6.726023554801940918e-01 -9.048449397087097168e-01
3.456000000000000000e+03 3.232628631591796875e+01 7.065968036651611328e+00 -1.324866414070129395e+00 -1.105093479156494141e+00 -7.289879322052001953e-01 -1.117512345314025879e+00
3.457000000000000000e+03 1.242717838287353516e+01 4.819470405578613281e+00 2.281111627817153931e-01 5.446735024452209473e-01 2.318353950977325439e-01 -2.015000283718109131e-01
3.458000000000000000e+03 3.035440635681152344e+01 4.823760509490966797e+00 -1.865373134613037109e+00 -9.902738332748413086e-01 -8.566941022872924805e-01 -8.546565175056457520e-01
3.459000000000000000e+03 3.121648597717285156e+01 5.277361392974853516e+00 -1.699572920799255371e+00 -9.344180822372436523e-01 -7.901973128318786621e-01 -9.078959822654724121e-01
3.460000000000000000e+03 3.220102310180664062e+01 5.671106338500976562e+00 -1.422593951225280762e+00 -9.041690826416015625e-01 -6.980289220809936523e-01 -8.918821811676025391e-01
3.461000000000000000e+03 6.640124511718750000e+01 2.973323059082031250e+01 5.893856659531593323e-02 2.245704174041748047e+00 6.913928389549255371e-01 1.950858235359191895e+00
3.462000000000000000e+03 3.167616271972656250e+01 2.502542304992675781e+01 4.941665381193161011e-02 7.759283483028411865e-02 3.810284659266471863e-02 6.449710577726364136e-02
3.463000000000000000e+03 3.269922637939453125e+01 7.942316055297851562e+00 -1.243321895599365234e+00 -1.179952502250671387e+00 -7.269822955131530762e-01 -1.130451560020446777e+00
3.464000000000000000e+03 7.324061584472656250e+01 3.542090988159179688e+01 2.993514776229858398e+00 1.385950851440429688e+01 5.055907249450683594e+00 2.011128902435302734e+00
3.465000000000000000e+03 6.490518188476562500e+01 3.021886825561523438e+01 -4.912820756435394287e-01 9.350574612617492676e-01 1.331326216459274292e-01 8.441308736801147461e-01
3.466000000000000000e+03 6.544948577880859375e+01 2.975703048706054688e+01 -1.559026539325714111e-01 1.482170581817626953e+00 3.978803753852844238e-01 1.305143237113952637e+00
3.467000000000000000e+03 4.016437911987304688e+01 3.381092834472656250e+01 6.090132892131805420e-02 4.957291483879089355e-02 3.314227238297462463e-02 4.881854355335235596e-02
3.468000000000000000e+03 2.368518447875976562e+01 1.521124988794326782e-01 -9.702072143554687500e-01 2.920764982700347900e-01 -2.034392207860946655e-01 -9.440218210220336914e-01
3.469000000000000000e+03 3.703984069824218750e+01 3.105819129943847656e+01 5.029575526714324951e-02 6.461045891046524048e-02 3.447186201810836792e-02 5.213746801018714905e-02
3.470000000000000000e+03 6.426918792724609375e+01 3.017469406127929688e+01 -6.492406725883483887e-01 7.707324624061584473e-01 3.644753247499465942e-02 5.510726571083068848e-01
3.471000000000000000e+03 3.790439224243164062e+01 3.119796371459960938e+01 5.414728447794914246e-02 6.254105269908905029e-02 3.500650078058242798e-02 5.410408973693847656e-02
3.472000000000000000e+03 2.512671661376953125e+01 -5.383901000022888184e-01 2.580525875091552734e-01 4.308566823601722717e-02 9.034147113561630249e-02 -3.763072788715362549e-01
3.473000000000000000e+03 2.492489814758300781e+01 2.610107660293579102e-01 -8.898901343345642090e-01 -6.833215709775686264e-03 -2.690170109272003174e-01 -5.106794834136962891e-01
3.474000000000000000e+03 3.215938568115234375e+01 8.233296394348144531e+00 -1.248634338378906250e+00 -1.303703188896179199e+00 -7.657012343406677246e-01 -1.218730092048645020e+00
3.475000000000000000e+03 3.247867202758789062e+01 7.517539978027343750e+00 -1.263976573944091797e+00 -1.172087907791137695e+00 -7.308193445205688477e-01 -1.131334781646728516e+00
3.476000000000000000e+03 7.398929595947265625e+01 3.505976104736328125e+01 3.394765138626098633e+00 1.211165237426757812e+01 4.651925086975097656e+00 1.485336899757385254e+00
3.477000000000000000e+03 7.296578979492187500e+01 3.508594512939453125e+01 4.204911708831787109e+00 1.456250572204589844e+01 5.630225181579589844e+00 2.096026182174682617e+00
3.478000000000000000e+03 5.961466312408447266e+00 6.944082736968994141e+00 9.093491733074188232e-02 -1.158574596047401428e-01 -7.476762402802705765e-03 6.597401201725006104e-02
3.479000000000000000e+03 2.748487472534179688e+01 -6.289706230163574219e-01 -9.300875663757324219e-02 -4.026210010051727295e-01 -1.486889272928237915e-01 -1.901174634695053101e-01
3.480000000000000000e+03 2.686274147033691406e+01 -1.194477677345275879e+00 2.772183716297149658e-01 -2.216792404651641846e-01 1.666173711419105530e-02 -2.824601531028747559e-01
3.481000000000000000e+03 7.032263278961181641e+00 6.141228675842285156e+00 1.243503019213676453e-01 -1.225935593247413635e-01 5.270210676826536655e-04 7.265260815620422363e-02
3.482000000000000000e+03 7.469331359863281250e+01 2.712360572814941406e+01 -1.050785064697265625e+00 1.026603698730468750e+01 2.764575719833374023e+00 -7.708679437637329102e-01
3.483000000000000000e+03 7.525965881347656250e+01 3.418202209472656250e+01 2.689870357513427734e+00 1.019905567169189453e+01 3.866677761077880859e+00 2.239414751529693604e-01
3.484000000000000000e+03 7.579411315917968750e+01 3.147289848327636719e+01 9.462332725524902344e-01 1.005500125885009766e+01 3.300370216369628906e+00 -1.735893607139587402e+00
3.485000000000000000e+03 4.608787536621093750e+00 5.196033000946044922e+00 3.253215551376342773e-02 -1.167570278048515320e-01 -2.526746131479740143e-02 1.106649786233901978e-01
3.486000000000000000e+03 7.389734649658203125e+01 2.929257392883300781e+01 -9.479514956474304199e-01 1.167039871215820312e+01 3.216734170913696289e+00 -1.069757938385009766e+00
3.487000000000000000e+03 5.297679901123046875e+01 2.931247520446777344e+01 -1.319878697395324707e+00 -1.567435860633850098e-01 -4.429866671562194824e-01 -9.004909396171569824e-01
3.488000000000000000e+03 5.496705627441406250e+01 3.055604934692382812e+01 -1.381362557411193848e+00 1.785289347171783447e-01 -3.608500957489013672e-01 -8.586757183074951172e-01
3.489000000000000000e+03 3.113637924194335938e+01 -2.956586360931396484e+00 5.800963044166564941e-01 -5.887866020202636719e-01 -2.607099711894989014e-03 -3.058339841663837433e-02
3.490000000000000000e+03 6.490297698974609375e+01 2.970633125305175781e+01 -2.788535356521606445e-01 1.221320748329162598e+00 2.827401459217071533e-01 9.889274239540100098e-01
3.491000000000000000e+03 2.539588356018066406e+01 3.507184097543358803e-03 -6.271087527275085449e-01 -2.107460796833038330e-02 -1.944549977779388428e-01 -3.313804566860198975e-01
3.492000000000000000e+03 3.723796463012695312e+01 3.063060379028320312e+01 5.174386501312255859e-02 6.603381037712097168e-02 3.533330187201499939e-02 5.479732155799865723e-02
3.493000000000000000e+03 3.655569839477539062e+01 3.039937973022460938e+01 4.927231371402740479e-02 6.729676574468612671e-02 3.497072309255599976e-02 5.259669199585914612e-02
3.494000000000000000e+03 9.520638465881347656e+00 5.432991504669189453e+00 2.365021407604217529e-01 -6.879867613315582275e-02 5.031104013323783875e-02 -2.035329490900039673e-02
3.495000000000000000e+03 8.599827766418457031e+00 6.161356449127197266e+00 1.812736690044403076e-01 -8.286020904779434204e-02 2.952403575181961060e-02 1.083521172404289246e-02
3.496000000000000000e+03 4.242302322387695312e+01 3.493602371215820312e+01 7.388284057378768921e-02 4.485063254833221436e-02 3.562004119157791138e-02 5.001518502831459045e-02
3.497000000000000000e+03 5.852193069458007812e+01 2.921451568603515625e+01 -1.092541337013244629e+00 4.541482031345367432e-01 -1.915179491043090820e-01 -6.450144052505493164e-01
3.498000000000000000e+03 2.420083045959472656e+01 2.126210331916809082e-01 -1.057606220245361328e+00 1.905639022588729858e-01 -2.601127028465270996e-01 -7.685003876686096191e-01
3.499000000000000000e+03 6.078504180908203125e+01 2.895248985290527344e+01 -8.099623322486877441e-01 5.707597732543945312e-01 -7.176076620817184448e-02 -2.990860939025878906e-01
3.500000000000000000e+03 5.724266815185546875e+01 2.843552017211914062e+01 -1.043200969696044922e+00 4.553679227828979492e-01 -1.763499230146408081e-01 -7.013595104217529297e-01
3.501000000000000000e+03 3.952913284301757812e+01 3.277545547485351562e+01 5.909775942564010620e-02 5.529908835887908936e-02 3.431905433535575867e-02 5.177256837487220764e-02
3.502000000000000000e+03 6.968404293060302734e+00 -6.820620059967041016e+00 -2.095548659563064575e-01 -2.234952151775360107e-01 -1.299150139093399048e-01 -3.609221279621124268e-01
3.503000000000000000e+03 7.549655437469482422e+00 -6.025316238403320312e+00 -2.570770680904388428e-01 -1.859864294528961182e-01 -1.329190433025360107e-01 -3.551712334156036377e-01
3.504000000000000000e+03 7.594414234161376953e+00 -7.614739418029785156e+00 -2.035322487354278564e-01 -2.884626090526580811e-01 -1.475984603166580200e-01 -4.332317113876342773e-01
3.505000000000000000e+03 8.968661308288574219e+00 -5.945536136627197266e+00 -3.384152948856353760e-01 -2.094299346208572388e-01 -1.643535643815994263e-01 -4.405077099800109863e-01
3.506000000000000000e+03 7.399330902099609375e+01 3.549109268188476562e+01 2.559122800827026367e+00 1.212351608276367188e+01 4.404791831970214844e+00 1.751003503799438477e+00
3.507000000000000000e+03 6.135521316528320312e+01 2.918190574645996094e+01 -8.007538914680480957e-01 6.084501743316650391e-01 -5.769110471010208130e-02 -1.874916702508926392e-01
3.508000000000000000e+03 5.707809066772460938e+01 2.906455802917480469e+01 -1.160475015640258789e+00 3.990050256252288818e-01 -2.284409850835800171e-01 -7.567938566207885742e-01
3.509000000000000000e+03 6.361835479736328125e+01 2.949098014831542969e+01 -5.252566933631896973e-01 8.685399293899536133e-01 1.029849573969841003e-01 4.251567721366882324e-01
3.510000000000000000e+03 6.244321823120117188e+01 2.960791015625000000e+01 -7.753082513809204102e-01 6.164747476577758789e-01 -4.765005037188529968e-02 2.921656146645545959e-02
3.511000000000000000e+03 3.906562042236328125e+01 3.290960693359375000e+01 5.576876550912857056e-02 5.546086654067039490e-02 3.336888924241065979e-02 5.011067539453506470e-02
3.512000000000000000e+03 7.619952201843261719e+00 7.857192039489746094e+00 1.219796836376190186e-01 -6.288567930459976196e-02 1.772820018231868744e-02 6.281678099185228348e-03
3.513000000000000000e+03 6.300329971313476562e+01 2.920230102539062500e+01 -5.370475649833679199e-01 8.136320114135742188e-01 8.297532796859741211e-02 2.738103270530700684e-01
3.514000000000000000e+03 1.287369060516357422e+01 6.438274383544921875e+00 9.074978530406951904e-02 4.489956200122833252e-01 1.619236171245574951e-01 -2.083194814622402191e-02
3.515000000000000000e+03 7.363155841827392578e+00 -1.051008605957031250e+01 -7.914548367261886597e-02 -4.440366923809051514e-01 -1.569546461105346680e-01 -4.795161187648773193e-01
3.516000000000000000e+03 5.646661758422851562e+01 2.896466827392578125e+01 -1.176815390586853027e+00 3.627521991729736328e-01 -2.442189604043960571e-01 -7.843351364135742188e-01
3.517000000000000000e+03 1.075277042388916016e+01 5.725975990295410156e+00 2.394043058156967163e-01 9.211639314889907837e-02 9.945621341466903687e-02 -1.125235036015510559e-01
3.518000000000000000e+03 1.019350528717041016e+01 5.548014163970947266e+00 2.541276812553405762e-01 -5.426757968962192535e-03 7.461027801036834717e-02 -7.198948413133621216e-02
3.519000000000000000e+03 4.172643280029296875e+01 3.522239685058593750e+01 7.227853685617446899e-02 4.627304896712303162e-02 3.556547686457633972e-02 4.937076196074485779e-02
3.520000000000000000e+03 7.340036010742187500e+01 3.609774780273437500e+01 1.430779933929443359e+00 1.331254768371582031e+01 4.422998428344726562e+00 1.675041437149047852e+00
3.521000000000000000e+03 7.465888023376464844e+00 -8.467100143432617188e+00 -1.626833379268646240e-01 -3.311417698860168457e-01 -1.481475383043289185e-01 -4.466153681278228760e-01
3.522000000000000000e+03 9.670549392700195312e+00 -5.912899017333984375e+00 -3.913693130016326904e-01 -2.027901113033294678e-01 -1.782478243112564087e-01 -4.786953628063201904e-01
3.523000000000000000e+03 7.497069835662841797e+00 2.107389640808105469e+01 -6.389770191162824631e-03 -2.743601240217685699e-02 -1.014773454517126083e-02 -1.968142390251159668e-02
3.524000000000000000e+03 4.162179183959960938e+01 -1.240061950683593750e+01 4.052601158618927002e-01 1.007282286882400513e-01 1.517965048551559448e-01 3.600946627557277679e-03
3.525000000000000000e+03 1.005015373229980469e+01 2.408960342407226562e+01 -9.122624993324279785e-03 6.869657430797815323e-03 -6.758903036825358868e-04 -1.049724593758583069e-02
3.526000000000000000e+03 7.167766571044921875e+01 1.988749313354492188e+01 -3.857677876949310303e-01 7.374251365661621094e+00 2.096544981002807617e+00 7.406818866729736328e-01
3.527000000000000000e+03 2.976622962951660156e+01 -2.093918800354003906e+00 5.066676735877990723e-01 -5.611494779586791992e-01 -1.634454540908336639e-02 -5.261394381523132324e-02
3.528000000000000000e+03 2.907320594787597656e+01 -2.383181571960449219e+00 6.261314749717712402e-01 -3.856692612171173096e-01 7.213865965604782104e-02 -1.277777403593063354e-01
3.529000000000000000e+03 7.401107025146484375e+01 2.729141616821289062e+01 -1.225896000862121582e+00 1.050466060638427734e+01 2.783629179000854492e+00 -4.966233074665069580e-01
3.530000000000000000e+03 1.245073699951171875e+01 -6.858160018920898438e+00 -4.356523752212524414e-01 -4.972321987152099609e-01 -2.798653542995452881e-01 -7.642056941986083984e-01
3.531000000000000000e+03 1.037562847137451172e+01 -5.893571376800537109e+00 -4.289735853672027588e-01 -2.566039264202117920e-01 -2.056732475757598877e-01 -5.429363846778869629e-01
3.532000000000000000e+03 6.882056713104248047e+00 -7.470800876617431641e+00 -1.812708228826522827e-01 -2.538288533687591553e-01 -1.305299103260040283e-01 -3.753894567489624023e-01
3.533000000000000000e+03 1.108728218078613281e+01 -5.907785415649414062e+00 -4.778663516044616699e-01 -2.619561254978179932e-01 -2.219467461109161377e-01 -5.923454165458679199e-01
3.534000000000000000e+03 3.823398971557617188e+01 -7.568912982940673828e+00 5.930956602096557617e-01 -3.364389538764953613e-01 7.699702680110931396e-02 -1.291123498231172562e-02
3.535000000000000000e+03 2.818920707702636719e+01 -1.856531143188476562e+00 5.713443756103515625e-01 -3.026300668716430664e-01 8.061429858207702637e-02 -1.336236596107482910e-01
3.536000000000000000e+03 3.272480773925781250e+01 -4.901629447937011719e+00 7.299878001213073730e-01 -5.705448389053344727e-01 4.783289507031440735e-02 -9.617170691490173340e-02
3.537000000000000000e+03 3.209855651855468750e+01 -3.989989519119262695e+00 6.511411666870117188e-01 -5.963503122329711914e-01 1.643726043403148651e-02 -4.629657790064811707e-02
3.538000000000000000e+03 7.380152130126953125e+01 3.462464141845703125e+01 4.214725494384765625e+00 1.215500926971435547e+01 4.910920143127441406e+00 1.014191865921020508e+00
3.539000000000000000e+03 7.446790313720703125e+01 3.492012405395507812e+01 3.130914449691772461e+00 1.123363876342773438e+01 4.309366226196289062e+00 1.176639437675476074e+00
3.540000000000000000e+03 7.442826843261718750e+01 2.631671905517578125e+01 -1.086494803428649902e+00 9.992963790893554688e+00 2.671940565109252930e+00 -4.627507627010345459e-01
3.541000000000000000e+03 7.233599185943603516e+00 1.352458953857421875e+01 2.291237376630306244e-02 -2.029948495328426361e-02 7.838668534532189369e-04 -2.032954618334770203e-02
3.542000000000000000e+03 1.705493354797363281e+01 -1.613109970092773438e+01 2.681016325950622559e-01 -4.212966561317443848e-01 -4.595851153135299683e-02 -3.880272507667541504e-01
3.543000000000000000e+03 8.482441902160644531e+00 1.732083129882812500e+01 2.009436429943889380e-04 5.586589220911264420e-03 1.736259902827441692e-03 -1.834152825176715851e-02
3.544000000000000000e+03 1.510449123382568359e+01 -1.437605762481689453e+01 2.467004060745239258e-01 -5.796062946319580078e-01 -9.987177699804306030e-02 -4.852939844131469727e-01
3.545000000000000000e+03 4.960071086883544922e+00 6.777808189392089844e+00 6.344230473041534424e-02 -1.213360354304313660e-01 -1.736811921000480652e-02 7.510610669851303101e-02
3.546000000000000000e+03 6.791329956054687500e+01 4.113514328002929688e+01 -3.638102859258651733e-02 5.577264308929443359e+00 1.662265062332153320e+00 -8.197625875473022461e-01
3.547000000000000000e+03 2.017820167541503906e+01 -2.261790847778320312e+01 2.488005906343460083e-01 -4.256418615113943815e-04 7.451248168945312500e-02 -3.427467644214630127e-01
3.548000000000000000e+03 2.335252189636230469e+01 -2.845817756652832031e+01 3.024807274341583252e-01 2.663093507289886475e-01 1.706370264291763306e-01 -3.551564812660217285e-01
3.549000000000000000e+03 2.157370185852050781e+01 -2.534557723999023438e+01 2.578977644443511963e-01 1.350596845149993896e-01 1.178872361779212952e-01 -3.460525274276733398e-01
3.550000000000000000e+03 1.979248428344726562e+01 -2.142549133300781250e+01 2.440920174121856689e-01 -5.472245439887046814e-02 5.681087076663970947e-02 -3.468767702579498291e-01
3.551000000000000000e+03 4.011278915405273438e+01 -1.130939197540283203e+01 4.448568820953369141e-01 -1.034281775355339050e-01 1.024286076426506042e-01 -2.166048623621463776e-02
3.552000000000000000e+03 3.935738754272460938e+01 -9.726081848144531250e+00 5.072493553161621094e-01 -1.825748234987258911e-01 9.740234911441802979e-02 -1.930945180356502533e-02
3.553000000000000000e+03 4.196102905273437500e+01 -1.364007377624511719e+01 3.375069797039031982e-01 1.599690914154052734e-01 1.492428183555603027e-01 1.611934043467044830e-02
3.554000000000000000e+03 4.146197891235351562e+01 -1.116512966156005859e+01 4.443498551845550537e-01 7.517669349908828735e-02 1.558579653501510620e-01 1.513858605176210403e-02
3.555000000000000000e+03 3.676512145996093750e+01 -9.191170692443847656e+00 5.729007720947265625e-01 -3.947558403015136719e-01 5.344348028302192688e-02 -6.760850548744201660e-02
3.556000000000000000e+03 3.752919769287109375e+01 -8.363798141479492188e+00 5.668608546257019043e-01 -3.704109489917755127e-01 5.893497914075851440e-02 -3.949631378054618835e-02
3.557000000000000000e+03 4.720009231567382812e+01 -2.283130264282226562e+01 -3.064960986375808716e-02 1.118927597999572754e+00 3.264833986759185791e-01 9.463079273700714111e-02
3.558000000000000000e+03 4.624208450317382812e+01 -2.166896057128906250e+01 1.020190399140119553e-02 9.073280096054077148e-01 2.752589583396911621e-01 8.143582195043563843e-02
3.559000000000000000e+03 7.269350433349609375e+01 -2.033448600769042969e+01 1.876568235456943512e-02 5.900079727172851562e+00 1.775653600692749023e+00 2.074614912271499634e-01
3.560000000000000000e+03 7.153509521484375000e+01 -2.542492866516113281e+01 2.809066884219646454e-02 5.593951225280761719e+00 1.686612606048583984e+00 2.016979753971099854e-01
3.561000000000000000e+03 6.505779743194580078e+00 -1.424466133117675781e+01 2.390686050057411194e-02 -6.196565032005310059e-01 -1.787248849868774414e-01 -4.313386082649230957e-01
3.562000000000000000e+03 4.549068069458007812e+01 -2.055281829833984375e+01 4.519595578312873840e-02 7.543234825134277344e-01 2.398558408021926880e-01 7.863665372133255005e-02
3.563000000000000000e+03 7.088723754882812500e+01 -4.332074642181396484e+00 9.766569733619689941e-02 5.922456264495849609e+00 1.806036591529846191e+00 4.292521178722381592e-01
3.564000000000000000e+03 1.342789649963378906e+01 -9.254235267639160156e+00 -1.272948831319808960e-01 -6.884856820106506348e-01 -2.447341680526733398e-01 -7.487340569496154785e-01
3.565000000000000000e+03 7.300675964355468750e+01 2.864371299743652344e+00 6.281199306249618530e-02 6.736929893493652344e+00 2.039922475814819336e+00 4.790760278701782227e-01
3.566000000000000000e+03 7.244195556640625000e+01 1.184672638773918152e-01 7.008536905050277710e-02 6.467936515808105469e+00 1.961406469345092773e+00 4.543019533157348633e-01
3.567000000000000000e+03 8.233406066894531250e+00 2.436984252929687500e+01 -7.981892675161361694e-03 -2.116776444017887115e-02 -8.744897320866584778e-03 -1.588288880884647369e-02
3.568000000000000000e+03 3.752308273315429688e+01 -6.828837394714355469e+00 5.862946510314941406e-01 -4.066195487976074219e-01 5.390253663063049316e-02 -4.743932746350765228e-03
3.569000000000000000e+03 3.458829879760742188e+01 -6.365611076354980469e+00 6.712689995765686035e-01 -5.393333435058593750e-01 3.958069905638694763e-02 -6.612338125705718994e-02
3.570000000000000000e+03 7.249283599853515625e+01 1.874543380737304688e+01 -2.809672057628631592e-01 7.553955554962158203e+00 2.181896448135375977e+00 6.301257014274597168e-01
3.571000000000000000e+03 7.281574249267578125e+01 -2.569813537597656250e+01 1.745823211967945099e-02 5.807075023651123047e+00 1.747359871864318848e+00 1.721840500831604004e-01
3.572000000000000000e+03 1.440325832366943359e+01 -1.220051002502441406e+01 1.380860656499862671e-01 -7.060033082962036133e-01 -1.703751683235168457e-01 -6.072667241096496582e-01
3.573000000000000000e+03 1.429566574096679688e+01 -1.118050575256347656e+01 9.778460115194320679e-02 -7.043369412422180176e-01 -1.819657087326049805e-01 -6.368175745010375977e-01
3.574000000000000000e+03 7.190508270263671875e+01 8.878135681152343750e+00 6.008081138134002686e-02 6.682396411895751953e+00 2.022743225097656250e+00 6.316220164299011230e-01
3.575000000000000000e+03 4.137765121459960938e+01 -1.848528289794921875e+01 8.450519293546676636e-02 5.667977780103683472e-02 4.235549271106719971e-02 8.098882436752319336e-02
3.576000000000000000e+03 7.165393829345703125e+01 -1.625492286682128906e+01 4.140400141477584839e-02 5.804655551910400391e+00 1.753817796707153320e+00 2.613390684127807617e-01
3.577000000000000000e+03 7.043278503417968750e+01 -1.216305828094482422e+01 7.178930193185806274e-02 5.639038085937500000e+00 1.713248133659362793e+00 3.287373483180999756e-01
3.578000000000000000e+03 7.071058654785156250e+01 3.162897348403930664e+00 1.074946969747543335e-01 6.100476264953613281e+00 1.862391233444213867e+00 5.723548531532287598e-01
3.579000000000000000e+03 6.301950454711914062e+00 -1.174434375762939453e+01 -3.188174962997436523e-02 -4.977555274963378906e-01 -1.588911861181259155e-01 -4.309095740318298340e-01
3.580000000000000000e+03 7.180708312988281250e+01 -4.795238971710205078e+00 7.417795062065124512e-02 6.131253242492675781e+00 1.861629366874694824e+00 4.038917124271392822e-01
3.581000000000000000e+03 7.156410980224609375e+01 1.689676284790039062e+01 -1.498386859893798828e-01 7.022225379943847656e+00 2.061716079711914062e+00 7.258250117301940918e-01
3.582000000000000000e+03 7.306869506835937500e+01 1.519259929656982422e+01 -8.171243965625762939e-02 7.468284130096435547e+00 2.215971469879150391e+00 6.046849489212036133e-01
3.583000000000000000e+03 7.128634643554687500e+01 9.707130432128906250e+00 6.384349614381790161e-02 6.526199817657470703e+00 1.977012991905212402e+00 6.546445488929748535e-01
3.584000000000000000e+03 7.316596984863281250e+01 8.074878692626953125e+00 4.975994303822517395e-02 7.062980651855468750e+00 2.133822202682495117e+00 5.424743890762329102e-01
3.585000000000000000e+03 5.957876682281494141e+00 -2.398612976074218750e+01 5.932706221938133240e-02 -9.844231605529785156e-01 -2.775288522243499756e-01 -2.557359337806701660e-01
3.586000000000000000e+03 7.199918365478515625e+01 1.469473648071289062e+01 -6.620279699563980103e-02 6.997889995574951172e+00 2.079506158828735352e+00 6.842230558395385742e-01
3.587000000000000000e+03 7.302540588378906250e+01 -1.367347812652587891e+01 3.420644998550415039e-02 6.138953685760498047e+00 1.851948022842407227e+00 2.485114634037017822e-01
3.588000000000000000e+03 7.167082214355468750e+01 -1.494907474517822266e+01 4.144973307847976685e-02 5.836291313171386719e+00 1.763322353363037109e+00 2.718164026737213135e-01
3.589000000000000000e+03 7.746032238006591797e+00 1.893032264709472656e+01 -3.975713625550270081e-03 -1.683363504707813263e-02 -6.242804229259490967e-03 -2.037958614528179169e-02
3.590000000000000000e+03 7.343636322021484375e+01 2.491564178466796875e+01 -1.046854138374328613e+00 9.322270393371582031e+00 2.482624769210815430e+00 1.489490568637847900e-01
3.591000000000000000e+03 7.325759124755859375e+01 2.362206840515136719e+01 -8.478730916976928711e-01 8.800209045410156250e+00 2.385700702667236328e+00 3.532600998878479004e-01
3.592000000000000000e+03 1.404724407196044922e+01 -1.009126091003417969e+01 4.471201449632644653e-03 -7.548324465751647949e-01 -2.251083701848983765e-01 -7.108044028282165527e-01
3.593000000000000000e+03 1.408986568450927734e+01 -6.331230163574218750e+00 -5.020302534103393555e-01 -6.745128631591796875e-01 -3.529629409313201904e-01 -8.749518394470214844e-01
3.594000000000000000e+03 8.475988388061523438e+00 6.949046611785888672e+00 1.626570373773574829e-01 -5.569460242986679077e-02 3.208873420953750610e-02 -5.796929355710744858e-03
3.595000000000000000e+03 8.379189491271972656e+00 8.564498901367187500e+00 1.141023114323616028e-01 -1.099948585033416748e-02 3.093084879219532013e-02 -2.086677402257919312e-02
3.596000000000000000e+03 7.210991859436035156e+00 -2.094661903381347656e+01 8.706405013799667358e-02 -8.365470767021179199e-01 -2.248449176549911499e-01 -3.509760797023773193e-01
3.597000000000000000e+03 7.179207611083984375e+01 -1.230848503112792969e+01 5.302166938781738281e-02 5.926300048828125000e+00 1.793796420097351074e+00 2.958973646163940430e-01
3.598000000000000000e+03 7.082716941833496094e+00 1.010693454742431641e+01 6.819884479045867920e-02 -4.341613128781318665e-02 7.434815168380737305e-03 -7.819555699825286865e-03
3.599000000000000000e+03 1.025436878204345703e+01 2.885788917541503906e+01 -8.865436539053916931e-03 -3.802460152655839920e-03 -3.800368867814540863e-03 -7.574793882668018341e-03
3.600000000000000000e+03 7.269327545166015625e+01 2.089907073974609375e+01 -4.974335432052612305e-01 7.964335441589355469e+00 2.240070581436157227e+00 5.753326416015625000e-01
3.601000000000000000e+03 7.285942077636718750e+01 -2.796847343444824219e+01 2.402196079492568970e-02 5.782958984375000000e+00 1.742094278335571289e+00 1.487110108137130737e-01
3.602000000000000000e+03 6.887416076660156250e+01 -3.097578048706054688e+01 6.159529462456703186e-02 5.033967018127441406e+00 1.528668642044067383e+00 2.122696489095687866e-01
3.603000000000000000e+03 7.160374450683593750e+01 -1.876811981201171875e+01 3.068795427680015564e-02 5.744680881500244141e+00 1.732610702514648438e+00 2.414891719818115234e-01
3.604000000000000000e+03 7.311590576171875000e+01 -7.230704784393310547e+00 5.006090924143791199e-02 6.354369163513183594e+00 1.921329140663146973e+00 3.225108087062835693e-01
3.605000000000000000e+03 7.203379821777343750e+01 6.749923706054687500e+00 7.292699068784713745e-02 6.629886627197265625e+00 2.010843992233276367e+00 5.915483832359313965e-01
3.606000000000000000e+03 4.523016738891601562e+01 -2.533092689514160156e+01 -1.186514198780059814e-01 6.662538647651672363e-01 1.642807275056838989e-01 1.166302859783172607e-01
3.607000000000000000e+03 7.179753875732421875e+01 -1.062316536903381348e+00 8.311744779348373413e-02 6.291742324829101562e+00 1.912457942962646484e+00 4.561467468738555908e-01
3.608000000000000000e+03 7.154798889160156250e+01 1.754981040954589844e+00 9.392819553613662720e-02 6.280853271484375000e+00 1.912434458732604980e+00 5.158837437629699707e-01
3.609000000000000000e+03 7.115628814697265625e+01 5.321508049964904785e-01 8.918161690235137939e-02 6.119968414306640625e+00 1.862745046615600586e+00 5.150772333145141602e-01
3.610000000000000000e+03 7.173172760009765625e+01 -6.031927585601806641e+00 7.556828856468200684e-02 6.076118946075439453e+00 1.845506191253662109e+00 3.813751935958862305e-01
3.611000000000000000e+03 1.256358909606933594e+01 -2.309328460693359375e+01 1.771097481250762939e-01 -5.916047096252441406e-01 -1.243484914302825928e-01 -3.724928498268127441e-01
3.612000000000000000e+03 8.674790382385253906e+00 -2.540785217285156250e+01 1.017094999551773071e-01 -8.391446471214294434e-01 -2.212305366992950439e-01 -2.940069139003753662e-01
3.613000000000000000e+03 3.407239151000976562e+01 -5.425814151763916016e+00 6.851380467414855957e-01 -5.738559365272521973e-01 3.338462859392166138e-02 -5.362728983163833618e-02
3.614000000000000000e+03 7.171161651611328125e+01 -1.361766242980957031e+01 4.592745378613471985e-02 5.871774673461914062e+00 1.775310635566711426e+00 2.828757464885711670e-01
3.615000000000000000e+03 7.186773300170898438e+00 2.755238151550292969e+01 -6.804820615798234940e-03 -4.105715826153755188e-02 -1.435859315097332001e-02 -1.405830029398202896e-02
3.616000000000000000e+03 7.229915618896484375e+01 -3.366528320312500000e+01 3.583375364542007446e-02 5.576721191406250000e+00 1.683766365051269531e+00 1.211927905678749084e-01
3.617000000000000000e+03 7.136289215087890625e+01 -2.001819992065429688e+01 2.858738787472248077e-02 5.656824111938476562e+00 1.705623388290405273e+00 2.372807860374450684e-01
3.618000000000000000e+03 2.188404655456542969e+01 -2.970563316345214844e+01 3.042623698711395264e-01 1.115426421165466309e-01 1.247415021061897278e-01 -3.271393179893493652e-01
3.619000000000000000e+03 2.477566337585449219e+01 -3.238975906372070312e+01 3.898297846317291260e-01 3.037291467189788818e-01 2.080676853656768799e-01 -3.229897618293762207e-01
3.620000000000000000e+03 8.658358573913574219e+00 2.824023628234863281e+01 -7.947190664708614349e-03 -2.296727523207664490e-02 -9.274339303374290466e-03 -1.232507452368736267e-02
3.621000000000000000e+03 6.989426422119140625e+01 -2.769675064086914062e+01 4.709383845329284668e-02 5.270788669586181641e+00 1.595364809036254883e+00 2.119190841913223267e-01
3.622000000000000000e+03 9.030150413513183594e+00 -3.679167938232421875e+01 8.823264390230178833e-02 -9.648488759994506836e-01 -2.629848718643188477e-01 -1.016808301210403442e-01
3.623000000000000000e+03 9.740552902221679688e+00 -3.440472412109375000e+01 1.213984936475753784e-01 -8.575418591499328613e-01 -2.208430022001266479e-01 -1.585445106029510498e-01
3.624000000000000000e+03 9.979825973510742188e+00 -3.039060401916503906e+01 1.213147193193435669e-01 -8.064628243446350098e-01 -2.055444270372390747e-01 -2.231419831514358521e-01
3.625000000000000000e+03 7.176601886749267578e+00 -3.028135108947753906e+01 7.282905280590057373e-02 -1.032860398292541504e+00 -2.880094349384307861e-01 -1.907007992267608643e-01
3.626000000000000000e+03 7.073509979248046875e+01 -2.972459411621093750e+01 4.415864869952201843e-02 5.376650333404541016e+00 1.626242756843566895e+00 1.727054268121719360e-01
3.627000000000000000e+03 4.185466384887695312e+01 -1.664124107360839844e+01 1.894411146640777588e-01 1.481655389070510864e-01 1.012819930911064148e-01 3.737543523311614990e-02
3.628000000000000000e+03 9.478574752807617188e+00 2.521429824829101562e+01 -9.345486760139465332e-03 -5.434587132185697556e-03 -4.434022121131420135e-03 -1.198370661586523056e-02
3.629000000000000000e+03 9.037552833557128906e+00 2.660859298706054688e+01 -8.531851693987846375e-03 -1.318245753645896912e-02 -6.514292676001787186e-03 -1.189038809388875961e-02
3.630000000000000000e+03 1.128948879241943359e+01 -2.528223800659179688e+01 1.511690169572830200e-01 -6.812967658042907715e-01 -1.590383201837539673e-01 -3.259139358997344971e-01
3.631000000000000000e+03 2.707592201232910156e+01 3.101092100143432617e+00 -2.493478775024414062e+00 -8.626855015754699707e-01 -1.006849288940429688e+00 -1.065522909164428711e+00
3.632000000000000000e+03 7.016394042968750000e+01 3.046449089050292969e+01 -1.057310461997985840e+00 1.084523677825927734e+01 2.936377763748168945e+00 3.809135913848876953e+00
3.633000000000000000e+03 2.618472862243652344e+01 2.494419336318969727e+00 -2.507920980453491211e+00 -6.309262514114379883e-01 -9.416542053222656250e-01 -9.863067269325256348e-01
3.634000000000000000e+03 2.651342582702636719e+01 2.352214336395263672e+00 -2.337933063507080078e+00 -6.380854249000549316e-01 -8.928055763244628906e-01 -8.501673340797424316e-01
3.635000000000000000e+03 2.588331794738769531e+01 2.019673109054565430e+00 -2.404440879821777344e+00 -5.032757520675659180e-01 -8.723149895668029785e-01 -8.640204668045043945e-01
3.636000000000000000e+03 2.583463478088378906e+01 2.296128749847412109e+00 -2.506654262542724609e+00 -6.087342500686645508e-01 -9.346165657043457031e-01 -9.749913811683654785e-01
3.637000000000000000e+03 2.642545509338378906e+01 2.000234365463256836e+00 -2.052712202072143555e+00 -5.817302465438842773e-01 -7.903326749801635742e-01 -7.394796609878540039e-01
3.638000000000000000e+03 2.403355216979980469e+01 6.483418941497802734e-01 -1.609165668487548828e+00 9.401430189609527588e-02 -4.545454084873199463e-01 -8.163634538650512695e-01
3.639000000000000000e+03 7.255394744873046875e+01 3.199137687683105469e+01 1.494233965873718262e+00 1.552667427062988281e+01 5.106272220611572266e+00 -1.919150829315185547e+00
3.640000000000000000e+03 6.835572814941406250e+01 3.119995498657226562e+01 5.720728039741516113e-01 3.944649934768676758e+00 1.355016827583312988e+00 3.711309432983398438e+00
3.641000000000000000e+03 6.817961883544921875e+01 3.027554512023925781e+01 1.948353648185729980e-01 4.555990695953369141e+00 1.425247907638549805e+00 3.460263013839721680e+00
3.642000000000000000e+03 6.824142456054687500e+01 3.075138664245605469e+01 3.581167459487915039e-01 4.227448463439941406e+00 1.375669479370117188e+00 3.592181205749511719e+00
3.643000000000000000e+03 6.778279113769531250e+01 3.033218955993652344e+01 2.631689608097076416e-01 3.688018560409545898e+00 1.185356259346008301e+00 3.105918169021606445e+00
3.644000000000000000e+03 7.057959747314453125e+01 3.052946090698242188e+01 -1.339927554130554199e+00 1.217342758178710938e+01 3.250050067901611328e+00 3.233701229095458984e+00
3.645000000000000000e+03 1.816012382507324219e+01 1.174640655517578125e+01 8.756451308727264404e-02 1.765702515840530396e-01 7.924043387174606323e-02 1.239904165267944336e-01
3.646000000000000000e+03 7.108927154541015625e+01 3.065758323669433594e+01 -1.537475943565368652e+00 1.369858455657958984e+01 3.648332595825195312e+00 2.249389410018920898e+00
3.647000000000000000e+03 4.130558776855468750e+01 1.979469490051269531e+01 -1.159831166267395020e+00 -1.256763935089111328e+00 -7.249785065650939941e-01 -1.324156522750854492e+00
3.648000000000000000e+03 4.113532638549804688e+01 1.855454444885253906e+01 -1.102423429489135742e+00 -1.176737308502197266e+00 -6.837482452392578125e-01 -1.259911775588989258e+00
3.649000000000000000e+03 4.203623199462890625e+01 1.934055519104003906e+01 -1.084264874458312988e+00 -1.167789816856384277e+00 -6.756164431571960449e-01 -1.238159179687500000e+00
3.650000000000000000e+03 1.942791557312011719e+01 1.277548027038574219e+01 9.022520482540130615e-02 1.572249829769134521e-01 7.423505932092666626e-02 1.174650564789772034e-01
3.651000000000000000e+03 1.870602226257324219e+01 1.241765117645263672e+01 8.606497943401336670e-02 1.661467552185058594e-01 7.566352188587188721e-02 1.179276928305625916e-01
3.652000000000000000e+03 3.386531066894531250e+01 1.118389415740966797e+01 -1.287984728813171387e+00 -1.372939825057983398e+00 -7.982773780822753906e-01 -1.272711515426635742e+00
3.653000000000000000e+03 3.429638290405273438e+01 1.133588504791259766e+01 -1.247992873191833496e+00 -1.360021829605102539e+00 -7.824044227600097656e-01 -1.243473172187805176e+00
3.654000000000000000e+03 3.978194808959960938e+01 1.760663223266601562e+01 -1.166073203086853027e+00 -1.253506064414978027e+00 -7.258737683296203613e-01 -1.269424438476562500e+00
3.655000000000000000e+03 1.619752311706542969e+01 9.705468177795410156e+00 8.972144871950149536e-02 2.315481603145599365e-01 9.638088196516036987e-02 1.328298747539520264e-01
3.656000000000000000e+03 7.486158752441406250e+01 3.224853134155273438e+01 2.024156332015991211e+00 1.098893165588378906e+01 3.903926372528076172e+00 -1.632005810737609863e+00
3.657000000000000000e+03 7.156327819824218750e+01 3.105954742431640625e+01 -1.227353215217590332e+00 1.527380943298339844e+01 4.213936805725097656e+00 1.004345059394836426e+00
3.658000000000000000e+03 4.197322463989257812e+01 2.025103378295898438e+01 -1.167258262634277344e+00 -1.245852112770080566e+00 -7.239331007003784180e-01 -1.292838454246520996e+00
3.659000000000000000e+03 7.389048004150390625e+01 3.413550567626953125e+01 4.478709697723388672e+00 1.188630104064941406e+01 4.909502983093261719e+00 2.727287113666534424e-01
3.660000000000000000e+03 3.358293151855468750e+01 1.066082954406738281e+01 -1.278817415237426758e+00 -1.349925994873046875e+00 -7.886229753494262695e-01 -1.247180700302124023e+00
3.661000000000000000e+03 4.723009490966796875e+01 2.496270942687988281e+01 -1.316133975982666016e+00 -1.008228421211242676e+00 -6.973087191581726074e-01 -1.212458014488220215e+00
3.662000000000000000e+03 4.090336608886718750e+01 1.802086830139160156e+01 -1.094260096549987793e+00 -1.157947182655334473e+00 -6.756621599197387695e-01 -1.234189033508300781e+00
3.663000000000000000e+03 3.225876998901367188e+01 2.615858268737792969e+01 4.734068736433982849e-02 7.703275233507156372e-02 3.731203079223632812e-02 6.171349436044692993e-02
3.664000000000000000e+03 7.375389099121093750e+01 3.251479721069335938e+01 2.967982292175292969e+00 1.257676792144775391e+01 4.663424968719482422e+00 -1.878298878669738770e+00
3.665000000000000000e+03 3.592615890502929688e+01 1.348816108703613281e+01 -1.237481832504272461e+00 -1.403723835945129395e+00 -7.923616766929626465e-01 -1.283256173133850098e+00
3.666000000000000000e+03 2.455073738098144531e+01 1.760273218154907227e+00 -2.705024003982543945e+00 -3.988004028797149658e-01 -9.311472773551940918e-01 -1.107744455337524414e+00
3.667000000000000000e+03 1.679015731811523438e+01 1.011930561065673828e+01 9.392680972814559937e-02 2.129011005163192749e-01 9.204837679862976074e-02 1.335892379283905029e-01
3.668000000000000000e+03 1.554933261871337891e+01 9.434952735900878906e+00 8.059216290712356567e-02 2.508183717727661133e-01 9.942315518856048584e-02 1.241629123687744141e-01
3.669000000000000000e+03 3.350613021850585938e+01 2.684212875366210938e+01 4.879247769713401794e-02 7.453590631484985352e-02 3.699851408600807190e-02 6.023689359426498413e-02
3.670000000000000000e+03 2.330940246582031250e+01 1.726026153564453125e+01 6.985615193843841553e-02 1.180552169680595398e-01 5.637340992689132690e-02 9.244976937770843506e-02
3.671000000000000000e+03 2.067983818054199219e+01 1.303211784362792969e+01 9.931144863367080688e-02 1.460834145545959473e-01 7.361845672130584717e-02 1.206362396478652954e-01
3.672000000000000000e+03 1.553775691986083984e+01 8.521920204162597656e+00 9.722901880741119385e-02 2.797404527664184570e-01 1.130908429622650146e-01 1.441235691308975220e-01
3.673000000000000000e+03 2.299079322814941406e+01 1.700757408142089844e+01 7.044281810522079468e-02 1.206352263689041138e-01 5.732341110706329346e-02 9.333597123622894287e-02
3.674000000000000000e+03 2.330889129638671875e+01 1.587468719482421875e+01 8.429402112960815430e-02 1.233496740460395813e-01 6.229310855269432068e-02 1.025914549827575684e-01
3.675000000000000000e+03 2.188772392272949219e+01 1.576766109466552734e+01 7.551229000091552734e-02 1.307408511638641357e-01 6.187594309449195862e-02 9.809202700853347778e-02
3.676000000000000000e+03 2.034180831909179688e+01 1.347939205169677734e+01 9.093227237462997437e-02 1.473471969366073608e-01 7.148384302854537964e-02 1.141508445143699646e-01
3.677000000000000000e+03 3.369178390502929688e+01 2.950787162780761719e+01 4.538856446743011475e-02 7.327255606651306152e-02 3.559833392500877380e-02 5.358169972896575928e-02
3.678000000000000000e+03 4.137380599975585938e+01 1.903360939025878906e+01 -1.107419610023498535e+00 -1.194009184837341309e+00 -6.904286742210388184e-01 -1.274379372596740723e+00
3.679000000000000000e+03 3.648238372802734375e+01 1.357572078704833984e+01 -1.191905617713928223e+00 -1.356072306632995605e+00 -7.643933892250061035e-01 -1.238572120666503906e+00
3.680000000000000000e+03 2.787381935119628906e+01 2.162578773498535156e+01 5.635903775691986084e-02 9.265324473381042480e-02 4.470368474721908569e-02 7.488716393709182739e-02
3.681000000000000000e+03 2.824733352661132812e+01 2.112327003479003906e+01 6.130336970090866089e-02 9.117709100246429443e-02 4.574413597583770752e-02 7.689604908227920532e-02
3.682000000000000000e+03 4.345870208740234375e+01 2.156322288513183594e+01 -1.250273823738098145e+00 -1.218244075775146484e+00 -7.405553460121154785e-01 -1.262299656867980957e+00
3.683000000000000000e+03 4.399989318847656250e+01 2.158142471313476562e+01 -1.207376360893249512e+00 -1.165822148323059082e+00 -7.119596004486083984e-01 -1.216422080993652344e+00
3.684000000000000000e+03 2.885671234130859375e+01 3.949777841567993164e+00 -2.110142469406127930e+00 -1.090904831886291504e+00 -9.603141546249389648e-01 -8.985985517501831055e-01
3.685000000000000000e+03 2.821959877014160156e+01 3.362516164779663086e+00 -2.147344350814819336e+00 -9.872106313705444336e-01 -9.403665065765380859e-01 -8.603195548057556152e-01
3.686000000000000000e+03 4.257646942138671875e+01 2.075391197204589844e+01 -1.196938991546630859e+00 -1.233587265014648438e+00 -7.291578650474548340e-01 -1.271156191825866699e+00
3.687000000000000000e+03 2.950529289245605469e+01 -1.458237290382385254e+00 2.790264487266540527e-01 -5.054044127464294434e-01 -6.791339814662933350e-02 -1.799048669636249542e-02
3.688000000000000000e+03 4.776062393188476562e+01 2.490659523010253906e+01 -1.261281609535217285e+00 -9.150793552398681641e-01 -6.529083251953125000e-01 -1.152234554290771484e+00
3.689000000000000000e+03 4.577008819580078125e+01 2.370726776123046875e+01 -1.335299968719482422e+00 -1.133584737777709961e+00 -7.406654357910156250e-01 -1.223809242248535156e+00
3.690000000000000000e+03 4.658370971679687500e+01 2.393966865539550781e+01 -1.282846450805664062e+00 -1.015505790710449219e+00 -6.895056962966918945e-01 -1.172901749610900879e+00
3.691000000000000000e+03 2.477086639404296875e+01 1.805995750427246094e+01 7.306698709726333618e-02 1.091597080230712891e-01 5.466800928115844727e-02 8.948111534118652344e-02
3.692000000000000000e+03 4.428790664672851562e+01 2.185415077209472656e+01 -1.219266295433044434e+00 -1.159720659255981445e+00 -7.136961221694946289e-01 -1.212314248085021973e+00
3.693000000000000000e+03 3.496519470214843750e+01 1.236270713806152344e+01 -1.253610372543334961e+00 -1.397728204727172852e+00 -7.954015731811523438e-01 -1.272017598152160645e+00
3.694000000000000000e+03 3.575268936157226562e+01 1.269456195831298828e+01 -1.205264806747436523e+00 -1.347898840904235840e+00 -7.659490704536437988e-01 -1.226684212684631348e+00
3.695000000000000000e+03 2.113106918334960938e+01 1.409410953521728516e+01 9.091240167617797852e-02 1.391135305166244507e-01 6.900777667760848999e-02 1.107458546757698059e-01
3.696000000000000000e+03 2.732331848144531250e+01 2.098360443115234375e+01 5.815866962075233459e-02 9.555365890264511108e-02 4.611369967460632324e-02 7.733554393053054810e-02
3.697000000000000000e+03 5.138076400756835938e+01 2.814828300476074219e+01 -1.292066454887390137e+00 -4.982211291790008545e-01 -5.370862483978271484e-01 -9.736623764038085938e-01
3.698000000000000000e+03 5.023646163940429688e+01 2.823821449279785156e+01 -1.353871226310729980e+00 -7.961043119430541992e-01 -6.449926495552062988e-01 -1.095218658447265625e+00
3.699000000000000000e+03 2.199544906616210938e+01 1.486807727813720703e+01 8.804220706224441528e-02 1.335492283105850220e-01 6.647743284702301025e-02 1.054223701357841492e-01
3.700000000000000000e+03 1.890717124938964844e+01 1.300957489013671875e+01 8.050420880317687988e-02 1.606396138668060303e-01 7.234314829111099243e-02 1.119796410202980042e-01
3.701000000000000000e+03 4.963143539428710938e+01 2.768208503723144531e+01 -1.348317027091979980e+00 -8.786688446998596191e-01 -6.680957674980163574e-01 -1.131905913352966309e+00
3.702000000000000000e+03 4.843867111206054688e+01 2.597966194152832031e+01 -1.288886904716491699e+00 -9.170625805854797363e-01 -6.617848873138427734e-01 -1.164644360542297363e+00
3.703000000000000000e+03 3.672257232666015625e+01 1.386671924591064453e+01 -1.187555432319641113e+00 -1.358967423439025879e+00 -7.639568448066711426e-01 -1.240190267562866211e+00
3.704000000000000000e+03 2.740524101257324219e+01 1.994058227539062500e+01 6.787913292646408081e-02 9.612046927213668823e-02 4.919988289475440979e-02 8.201409876346588135e-02
3.705000000000000000e+03 2.676245880126953125e+01 2.011571121215820312e+01 6.337902694940567017e-02 9.891686588525772095e-02 4.868876561522483826e-02 8.048229664564132690e-02
3.706000000000000000e+03 2.625301551818847656e+01 1.989843177795410156e+01 6.300162523984909058e-02 1.014353036880493164e-01 4.933108016848564148e-02 8.098968863487243652e-02
3.707000000000000000e+03 2.524785041809082031e+01 1.861943244934082031e+01 7.020039856433868408e-02 1.067860424518585205e-01 5.309593304991722107e-02 8.629462867975234985e-02
3.708000000000000000e+03 4.341694641113281250e+01 2.103509330749511719e+01 -1.179897546768188477e+00 -1.178845405578613281e+00 -7.076228857040405273e-01 -1.224185347557067871e+00
3.709000000000000000e+03 3.890758514404296875e+01 1.710784912109375000e+01 -1.210347294807434082e+00 -1.348804950714111328e+00 -7.677456736564636230e-01 -1.281267404556274414e+00
3.710000000000000000e+03 1.768817710876464844e+01 1.102895069122314453e+01 9.206848591566085815e-02 1.890331506729125977e-01 8.433049172163009644e-02 1.288519948720932007e-01
3.711000000000000000e+03 3.696722793579101562e+01 1.415793132781982422e+01 -1.180521965026855469e+00 -1.360903501510620117e+00 -7.624276280403137207e-01 -1.242137670516967773e+00
3.712000000000000000e+03 4.457439041137695312e+01 2.212607002258300781e+01 -1.230122447013854980e+00 -1.152330160140991211e+00 -7.147358059883117676e-01 -1.207072615623474121e+00
3.713000000000000000e+03 3.327591705322265625e+01 9.704036712646484375e+00 -1.240384578704833984e+00 -1.305660247802734375e+00 -7.638134360313415527e-01 -1.190098404884338379e+00
3.714000000000000000e+03 3.448441314697265625e+01 1.000573730468750000e+01 -1.159566164016723633e+00 -1.222700834274291992e+00 -7.146801352500915527e-01 -1.109906435012817383e+00
3.715000000000000000e+03 1.570697116851806641e+01 9.905552864074707031e+00 7.624886184930801392e-02 2.365809828042984009e-01 9.384895116090774536e-02 1.185921505093574524e-01
3.716000000000000000e+03 1.604380607604980469e+01 9.191453933715820312e+00 9.659723937511444092e-02 2.442899644374847412e-01 1.022661551833152771e-01 1.417329907417297363e-01
3.717000000000000000e+03 3.721657943725585938e+01 1.444830036163330078e+01 -1.176938652992248535e+00 -1.361365199089050293e+00 -7.614911198616027832e-01 -1.241111397743225098e+00
3.718000000000000000e+03 3.525054168701171875e+01 1.214355468750000000e+01 -1.214266538619995117e+00 -1.348927021026611328e+00 -7.689580917358398438e-01 -1.222456574440002441e+00
3.719000000000000000e+03 1.415078639984130859e+01 7.630276679992675781e+00 7.938987761735916138e-02 3.565188050270080566e-01 1.307726055383682251e-01 1.038067713379859924e-01
3.720000000000000000e+03 3.746861648559570312e+01 1.473787879943847656e+01 -1.172010779380798340e+00 -1.359529733657836914e+00 -7.594621777534484863e-01 -1.239527940750122070e+00
3.721000000000000000e+03 5.482985305786132812e+01 2.964880180358886719e+01 -1.319446921348571777e+00 1.866175532341003418e-01 -3.398488163948059082e-01 -8.612356781959533691e-01
3.722000000000000000e+03 5.018079757690429688e+01 2.766418838500976562e+01 -1.316302537918090820e+00 -7.450253367424011230e-01 -6.183983683586120605e-01 -1.069810867309570312e+00
3.723000000000000000e+03 5.115156555175781250e+01 2.848610115051269531e+01 -1.323862314224243164e+00 -5.892349481582641602e-01 -5.739291906356811523e-01 -1.010439634323120117e+00
3.724000000000000000e+03 5.198602676391601562e+01 2.898417472839355469e+01 -1.321822285652160645e+00 -4.026540517807006836e-01 -5.173429250717163086e-01 -9.544476270675659180e-01
3.725000000000000000e+03 3.772141647338867188e+01 1.502877235412597656e+01 -1.170080542564392090e+00 -1.356501817703247070e+00 -7.579746842384338379e-01 -1.236419320106506348e+00
3.726000000000000000e+03 3.339362716674804688e+01 2.737591743469238281e+01 4.755682870745658875e-02 7.546570152044296265e-02 3.690675646066665649e-02 5.908157303929328918e-02
3.727000000000000000e+03 3.280432891845703125e+01 2.626230621337890625e+01 4.811689630150794983e-02 7.624477893114089966e-02 3.730850294232368469e-02 6.139439716935157776e-02
3.728000000000000000e+03 4.171551132202148438e+01 1.917489814758300781e+01 -1.096531033515930176e+00 -1.182060003280639648e+00 -6.835772991180419922e-01 -1.258198618888854980e+00
3.729000000000000000e+03 2.168694496154785156e+01 1.467687034606933594e+01 8.827513456344604492e-02 1.344509720802307129e-01 6.681782752275466919e-02 1.064959168434143066e-01
3.730000000000000000e+03 2.088128852844238281e+01 1.437080287933349609e+01 8.481200039386749268e-02 1.408875733613967896e-01 6.770987063646316528e-02 1.068700700998306274e-01
3.731000000000000000e+03 3.322578811645507812e+01 2.673876380920410156e+01 4.844278469681739807e-02 7.608875632286071777e-02 3.735946118831634521e-02 5.997239053249359131e-02
3.732000000000000000e+03 4.548184967041015625e+01 2.344688796997070312e+01 -1.328602790832519531e+00 -1.156532883644104004e+00 -7.455406785011291504e-01 -1.228162169456481934e+00
3.733000000000000000e+03 4.693775558471679688e+01 2.471481895446777344e+01 -1.326226711273193359e+00 -1.030260205268859863e+00 -7.069460749626159668e-01 -1.217328906059265137e+00
3.734000000000000000e+03 2.963246345520019531e+01 2.262956619262695312e+01 5.427743494510650635e-02 8.565592765808105469e-02 4.198000952601432800e-02 7.165110856294631958e-02
3.735000000000000000e+03 3.656365203857421875e+01 1.307885456085205078e+01 -1.157287716865539551e+00 -1.300864458084106445e+00 -7.374456524848937988e-01 -1.187606215476989746e+00
3.736000000000000000e+03 3.797238922119140625e+01 1.532277297973632812e+01 -1.168246388435363770e+00 -1.350417971611022949e+00 -7.555993199348449707e-01 -1.234835267066955566e+00
3.737000000000000000e+03 3.869022369384765625e+01 1.694078826904296875e+01 -1.218691706657409668e+00 -1.377741694450378418e+00 -7.789300084114074707e-01 -1.288205027580261230e+00
3.738000000000000000e+03 4.072440338134765625e+01 1.843795585632324219e+01 -1.126409888267517090e+00 -1.202056765556335449e+00 -6.985400319099426270e-01 -1.279787659645080566e+00
3.739000000000000000e+03 4.486063385009765625e+01 2.239615821838378906e+01 -1.241074800491333008e+00 -1.142464160919189453e+00 -7.150616645812988281e-01 -1.201401948928833008e+00
3.740000000000000000e+03 2.999052429199218750e+01 2.318235206604003906e+01 5.248415842652320862e-02 8.369308710098266602e-02 4.085317254066467285e-02 7.041164487600326538e-02
3.741000000000000000e+03 4.988553619384765625e+01 2.738913536071777344e+01 -1.310009121894836426e+00 -7.877891659736633301e-01 -6.293394565582275391e-01 -1.086666941642761230e+00
3.742000000000000000e+03 3.169922637939453125e+01 2.574104118347167969e+01 4.699392244219779968e-02 7.742036134004592896e-02 3.732428699731826782e-02 6.254512071609497070e-02
3.743000000000000000e+03 4.312425231933593750e+01 2.076325035095214844e+01 -1.164698362350463867e+00 -1.184647083282470703e+00 -7.048035860061645508e-01 -1.229411244392395020e+00
3.744000000000000000e+03 4.907430648803710938e+01 2.652749633789062500e+01 -1.280472040176391602e+00 -8.562950491905212402e-01 -6.410301327705383301e-01 -1.127648234367370605e+00
3.745000000000000000e+03 4.960049819946289062e+01 2.711776924133300781e+01 -1.302585482597351074e+00 -8.213047385215759277e-01 -6.371670365333557129e-01 -1.101286411285400391e+00
3.746000000000000000e+03 3.270888519287109375e+01 9.529602050781250000e+00 -1.271350026130676270e+00 -1.340927362442016602e+00 -7.836831808090209961e-01 -1.224331498146057129e+00
3.747000000000000000e+03 3.281115722656250000e+01 8.979846000671386719e+00 -1.239682674407958984e+00 -1.287937998771667480e+00 -7.582861781120300293e-01 -1.185568809509277344e+00
3.748000000000000000e+03 1.962864685058593750e+01 1.330224418640136719e+01 8.545543998479843140e-02 1.532278060913085938e-01 7.160497456789016724e-02 1.127975881099700928e-01
3.749000000000000000e+03 2.469051742553710938e+01 1.858172988891601562e+01 6.717418879270553589e-02 1.088660880923271179e-01 5.281208083033561707e-02 8.590374886989593506e-02
3.750000000000000000e+03 2.996547889709472656e+01 4.435994148254394531e+00 -1.902616739273071289e+00 -1.022462725639343262e+00 -8.775238394737243652e-01 -7.874774336814880371e-01
3.751000000000000000e+03 4.027497100830078125e+01 1.736156082153320312e+01 -1.118749618530273438e+00 -1.179087996482849121e+00 -6.893512606620788574e-01 -1.222355365753173828e+00
3.752000000000000000e+03 2.590155220031738281e+01 1.944770431518554688e+01 6.522960215806961060e-02 1.031083017587661743e-01 5.050136893987655640e-02 8.250294625759124756e-02
3.753000000000000000e+03 2.567563629150390625e+01 1.917894554138183594e+01 6.680817157030105591e-02 1.046344637870788574e-01 5.143278837203979492e-02 8.362006396055221558e-02
3.754000000000000000e+03 3.535227584838867188e+01 2.985957336425781250e+01 4.923470318317413330e-02 7.111198455095291138e-02 3.610400483012199402e-02 5.381728708744049072e-02
3.755000000000000000e+03 4.146940612792968750e+01 1.966040611267089844e+01 -1.134083986282348633e+00 -1.232541918754577637e+00 -7.099877595901489258e-01 -1.299894690513610840e+00
3.756000000000000000e+03 4.221971511840820312e+01 1.992366218566894531e+01 -1.121427416801452637e+00 -1.197730898857116699e+00 -6.957474946975708008e-01 -1.255846858024597168e+00
3.757000000000000000e+03 7.362535095214843750e+01 3.430570983886718750e+01 4.813400268554687500e+00 1.244178104400634766e+01 5.176554203033447266e+00 6.183507442474365234e-01
3.758000000000000000e+03 2.058390426635742188e+01 1.424608230590820312e+01 8.356893807649612427e-02 1.417315900325775146e-01 6.759016215801239014e-02 1.071260124444961548e-01
3.759000000000000000e+03 5.088998031616210938e+01 2.880555915832519531e+01 -1.348069429397583008e+00 -6.865617036819458008e-01 -6.103893518447875977e-01 -1.050187349319458008e+00
3.760000000000000000e+03 3.821849822998046875e+01 1.562182998657226562e+01 -1.168991208076477051e+00 -1.342812895774841309e+00 -7.535412311553955078e-01 -1.232704997062683105e+00
3.761000000000000000e+03 3.865655899047851562e+01 1.623486328125000000e+01 -1.178494334220886230e+00 -1.330717086791992188e+00 -7.527634501457214355e-01 -1.239396095275878906e+00
3.762000000000000000e+03 4.253291702270507812e+01 2.021207046508789062e+01 -1.133081316947937012e+00 -1.194498062133789062e+00 -6.982737779617309570e-01 -1.244416475296020508e+00
3.763000000000000000e+03 2.865781402587890625e+01 2.266252708435058594e+01 5.090986937284469604e-02 8.921119570732116699e-02 4.203631728887557983e-02 7.127258926630020142e-02
3.764000000000000000e+03 3.992139434814453125e+01 1.724385261535644531e+01 -1.141799688339233398e+00 -1.216980576515197754e+00 -7.076340913772583008e-01 -1.234424352645874023e+00
3.765000000000000000e+03 3.519497299194335938e+01 1.263006687164306641e+01 -1.251009106636047363e+00 -1.400527358055114746e+00 -7.954609394073486328e-01 -1.272164821624755859e+00
3.766000000000000000e+03 4.687849044799804688e+01 2.417753410339355469e+01 -1.281167387962341309e+00 -9.867469668388366699e-01 -6.803743243217468262e-01 -1.169272184371948242e+00
3.767000000000000000e+03 3.624232864379882812e+01 1.328349208831787109e+01 -1.197915434837341309e+00 -1.353048682212829590e+00 -7.652892470359802246e-01 -1.233832240104675293e+00
3.768000000000000000e+03 3.023669242858886719e+01 2.443807220458984375e+01 4.661781713366508484e-02 8.245773613452911377e-02 3.872266784310340881e-02 6.660091876983642578e-02
3.769000000000000000e+03 3.054881477355957031e+01 2.478552436828613281e+01 4.666448757052421570e-02 8.097741752862930298e-02 3.829257190227508545e-02 6.552602350711822510e-02
3.770000000000000000e+03 2.276911735534667969e+01 1.620345115661621094e+01 7.711769640445709229e-02 1.249142065644264221e-01 6.060957163572311401e-02 9.873518347740173340e-02
3.771000000000000000e+03 1.705388832092285156e+01 1.035879898071289062e+01 9.524518251419067383e-02 2.081083357334136963e-01 9.100605547428131104e-02 1.330468654632568359e-01
3.772000000000000000e+03 1.566037845611572266e+01 9.066316604614257812e+00 9.014395624399185181e-02 2.605540752410888672e-01 1.052094027400016785e-01 1.354109495878219604e-01
3.773000000000000000e+03 5.384636688232421875e+01 2.930042076110839844e+01 -1.303717970848083496e+00 1.543725654482841492e-02 -3.864842057228088379e-01 -8.746420741081237793e-01
3.774000000000000000e+03 4.514714431762695312e+01 2.266302490234375000e+01 -1.252508401870727539e+00 -1.128687143325805664e+00 -7.143586874008178711e-01 -1.194415688514709473e+00
3.775000000000000000e+03 4.543374252319335938e+01 2.292592811584472656e+01 -1.263049602508544922e+00 -1.111745238304138184e+00 -7.124384641647338867e-01 -1.187634825706481934e+00
3.776000000000000000e+03 3.297328567504882812e+01 2.657001876831054688e+01 4.775997996330261230e-02 7.599351555109024048e-02 3.712604939937591553e-02 6.063431128859519958e-02
3.777000000000000000e+03 3.319000244140625000e+01 2.635721015930175781e+01 4.880991578102111816e-02 7.602962851524353027e-02 3.745186328887939453e-02 6.093192845582962036e-02
3.778000000000000000e+03 3.323791885375976562e+01 2.704150199890136719e+01 4.724216088652610779e-02 7.538747787475585938e-02 3.678889200091362000e-02 5.936248227953910828e-02
3.779000000000000000e+03 2.137709426879882812e+01 1.499587535858154297e+01 8.146709948778152466e-02 1.358722001314163208e-01 6.520178914070129395e-02 1.027215346693992615e-01
3.780000000000000000e+03 3.331826782226562500e+01 1.011596584320068359e+01 -1.257359623908996582e+00 -1.322855353355407715e+00 -7.740644812583923340e-01 -1.216778516769409180e+00
3.781000000000000000e+03 4.652227783203125000e+01 2.341826820373535156e+01 -1.234673380851745605e+00 -9.794509410858154297e-01 -6.642373204231262207e-01 -1.127633810043334961e+00
3.782000000000000000e+03 2.257231140136718750e+01 1.585216712951660156e+01 7.971464842557907104e-02 1.276489347219467163e-01 6.220907345414161682e-02 1.003189459443092346e-01
3.783000000000000000e+03 2.227201652526855469e+01 1.552031898498535156e+01 8.148664981126785278e-02 1.296783536672592163e-01 6.334950029850006104e-02 1.017962321639060974e-01
3.784000000000000000e+03 1.583881855010986328e+01 8.431489944458007812e+00 1.066363379359245300e-01 2.698307335376739502e-01 1.129401177167892456e-01 1.563646048307418823e-01
3.785000000000000000e+03 1.507805061340332031e+01 8.281726837158203125e+00 9.049672633409500122e-02 3.019219040870666504e-01 1.177255958318710327e-01 1.357509344816207886e-01
3.786000000000000000e+03 3.517354583740234375e+01 1.163996696472167969e+01 -1.187756896018981934e+00 -1.312516570091247559e+00 -7.500820755958557129e-01 -1.186664938926696777e+00
3.787000000000000000e+03 2.947267723083496094e+01 2.312379455566406250e+01 5.048392340540885925e-02 8.575645834207534790e-02 4.087211564183235168e-02 7.014974951744079590e-02
3.788000000000000000e+03 3.325133132934570312e+01 8.728991508483886719e+00 -1.201594710350036621e+00 -1.218958497047424316e+00 -7.261659502983093262e-01 -1.124377727508544922e+00
3.789000000000000000e+03 1.757162666320800781e+01 1.142562103271484375e+01 8.434935659170150757e-02 1.887481659650802612e-01 8.192925900220870972e-02 1.228816956281661987e-01
3.790000000000000000e+03 3.402280044555664062e+01 1.080540561676025391e+01 -1.244697332382202148e+00 -1.336710929870605469e+00 -7.744224667549133301e-01 -1.220512151718139648e+00
3.791000000000000000e+03 1.369571018218994141e+01 5.986570835113525391e+00 7.626064121723175049e-02 5.425634384155273438e-01 1.856472194194793701e-01 1.021057441830635071e-01
3.792000000000000000e+03 1.373392677307128906e+01 6.790674686431884766e+00 7.384805381298065186e-02 4.381659030914306641e-01 1.536041945219039917e-01 9.462904930114746094e-02
3.793000000000000000e+03 3.468115234375000000e+01 2.974864196777343750e+01 4.663069173693656921e-02 7.060499489307403564e-02 3.517070412635803223e-02 5.241161212325096130e-02
3.794000000000000000e+03 1.650360870361328125e+01 9.893784523010253906e+00 9.337294101715087891e-02 2.245652377605438232e-01 9.538145363330841064e-02 1.330668926239013672e-01
3.795000000000000000e+03 1.295312595367431641e+01 6.048583984375000000e+00 9.017701447010040283e-02 5.065565109252929688e-01 1.790200471878051758e-01 -2.158850990235805511e-02
3.796000000000000000e+03 9.978912353515625000e+00 6.231774330139160156e+00 2.049980908632278442e-01 2.159652858972549438e-02 6.797838956117630005e-02 -6.270557641983032227e-02
3.797000000000000000e+03 1.714688491821289062e+01 1.088734340667724609e+01 8.647030591964721680e-02 2.001118212938308716e-01 8.597464114427566528e-02 1.253024786710739136e-01
3.798000000000000000e+03 3.171621894836425781e+01 5.250521659851074219e+00 -1.543604016304016113e+00 -8.770125508308410645e-01 -7.261849641799926758e-01 -8.495057821273803711e-01
3.799000000000000000e+03 3.130245780944824219e+01 2.546777343750000000e+01 4.672566801309585571e-02 7.918252050876617432e-02 3.777245804667472839e-02 6.351429224014282227e-02
3.800000000000000000e+03 3.297209167480468750e+01 8.341374397277832031e+00 -1.213875412940979004e+00 -1.217819809913635254e+00 -7.295085787773132324e-01 -1.137910008430480957e+00
3.801000000000000000e+03 3.462650299072265625e+01 1.060974407196044922e+01 -1.181814312934875488e+00 -1.261112451553344727e+00 -7.328780293464660645e-01 -1.148117661476135254e+00
3.802000000000000000e+03 3.314680480957031250e+01 6.020773887634277344e+00 -1.237212300300598145e+00 -8.980724811553955078e-01 -6.405854225158691406e-01 -8.419044017791748047e-01
3.803000000000000000e+03 3.272543716430664062e+01 6.487546443939208984e+00 -1.305981278419494629e+00 -9.837239980697631836e-01 -6.869115829467773438e-01 -9.798893928527832031e-01
3.804000000000000000e+03 7.270117187500000000e+01 3.147395515441894531e+01 5.066857933998107910e-01 1.468001556396484375e+01 4.556010246276855469e+00 -1.534334063529968262e+00
3.805000000000000000e+03 1.230899524688720703e+01 5.484720230102539062e+00 1.679032593965530396e-01 4.586044251918792725e-01 1.879523098468780518e-01 -1.406549513339996338e-01
3.806000000000000000e+03 6.634011840820312500e+01 2.933825683593750000e+01 7.759353518486022949e-02 2.488209724426269531e+00 7.697409391403198242e-01 1.968249320983886719e+00
3.807000000000000000e+03 6.594681549072265625e+01 2.976950073242187500e+01 -4.615648090839385986e-02 1.842088222503662109e+00 5.387795567512512207e-01 1.618105530738830566e+00
3.808000000000000000e+03 7.340206146240234375e+01 3.471855545043945312e+01 4.613036155700683594e+00 1.313309097290039062e+01 5.323838233947753906e+00 1.379252195358276367e+00
3.809000000000000000e+03 7.357314300537109375e+01 3.402554702758789062e+01 5.010381698608398438e+00 1.248737716674804688e+01 5.249327659606933594e+00 1.371928304433822632e-01
3.810000000000000000e+03 3.283359527587890625e+01 6.896888732910156250e+00 -1.262804746627807617e+00 -1.047068595886230469e+00 -6.929619908332824707e-01 -1.015307068824768066e+00
3.811000000000000000e+03 2.995763397216796875e+01 2.368325233459472656e+01 4.885230958461761475e-02 8.379534631967544556e-02 3.979429602622985840e-02 6.897969543933868408e-02
3.812000000000000000e+03 6.546835327148437500e+01 2.929005241394042969e+01 -5.181125923991203308e-02 1.796571373939514160e+00 5.234280228614807129e-01 1.413386225700378418e+00
3.813000000000000000e+03 6.429765319824218750e+01 2.962197685241699219e+01 -4.126487672328948975e-01 1.009730219841003418e+00 1.791244298219680786e-01 7.128714919090270996e-01
3.814000000000000000e+03 6.859891891479492188e+00 6.999322891235351562e+00 1.198153868317604065e-01 -1.057515144348144531e-01 4.219160415232181549e-03 4.431838914752006531e-02
3.815000000000000000e+03 1.330399608612060547e+01 6.842454910278320312e+00 7.601511478424072266e-02 4.282120168209075928e-01 1.512681394815444946e-01 4.019601643085479736e-02
3.816000000000000000e+03 3.088124275207519531e+01 2.515874099731445312e+01 4.633338749408721924e-02 7.987678050994873047e-02 3.786305338144302368e-02 6.419578939676284790e-02
3.817000000000000000e+03 2.535190773010253906e+01 8.453993201255798340e-01 -1.448161125183105469e+00 -1.585320532321929932e-01 -4.820079505443572998e-01 -4.963530898094177246e-01
3.818000000000000000e+03 7.400126647949218750e+01 2.557801055908203125e+01 -1.087447047233581543e+00 9.711662292480468750e+00 2.587264537811279297e+00 -1.575902253389358521e-01
3.819000000000000000e+03 7.379291534423828125e+01 2.661855316162109375e+01 -1.251535415649414062e+00 1.017630481719970703e+01 2.677430629730224609e+00 -2.463787049055099487e-01
3.820000000000000000e+03 4.037221145629882812e+01 3.454042816162109375e+01 6.562539190053939819e-02 5.210000276565551758e-02 3.531761839985847473e-02 4.776362702250480652e-02
3.821000000000000000e+03 5.386193466186523438e+01 3.053101539611816406e+01 -1.356938838958740234e+00 5.866620223969221115e-03 -4.053216576576232910e-01 -8.747558593750000000e-01
3.822000000000000000e+03 3.752351379394531250e+01 3.092823219299316406e+01 5.281294882297515869e-02 6.465604156255722046e-02 3.524069860577583313e-02 5.393088981509208679e-02
3.823000000000000000e+03 3.693680572509765625e+01 3.162664794921875000e+01 5.133538693189620972e-02 6.555904448032379150e-02 3.506832942366600037e-02 5.194594711065292358e-02
3.824000000000000000e+03 3.603096771240234375e+01 3.032213592529296875e+01 5.097886174917221069e-02 6.915357708930969238e-02 3.603973239660263062e-02 5.439839139580726624e-02
3.825000000000000000e+03 5.534620285034179688e+01 2.994037055969238281e+01 -1.337462544441223145e+00 2.381435781717300415e-01 -3.297956883907318115e-01 -8.564580082893371582e-01
3.826000000000000000e+03 3.249085998535156250e+01 2.647701644897460938e+01 4.670040681958198547e-02 7.688432186841964722e-02 3.707541897892951965e-02 6.060552969574928284e-02
3.827000000000000000e+03 9.320573806762695312e+00 6.170598030090332031e+00 2.048855274915695190e-01 -4.326887056231498718e-02 4.848499968647956848e-02 -2.763081900775432587e-02
3.828000000000000000e+03 3.299443435668945312e+01 7.298311710357666016e+00 -1.244104743003845215e+00 -1.067759275436401367e+00 -6.935591697692871094e-01 -1.042312502861022949e+00
3.829000000000000000e+03 3.320306396484375000e+01 7.695782184600830078e+00 -1.201037883758544922e+00 -1.117999672889709473e+00 -6.957112550735473633e-01 -1.057795047760009766e+00
3.830000000000000000e+03 3.933135604858398438e+01 3.397438812255859375e+01 6.141788884997367859e-02 5.557547882199287415e-02 3.509800881147384644e-02 4.714059829711914062e-02
3.831000000000000000e+03 3.630504989624023438e+01 3.163727569580078125e+01 4.729837551712989807e-02 6.622701138257980347e-02 3.405761718750000000e-02 4.991661012172698975e-02
3.832000000000000000e+03 3.175226783752441406e+01 -2.505053043365478516e+00 4.722187817096710205e-01 -6.322285532951354980e-01 -4.800293594598770142e-02 1.629535853862762451e-02
3.833000000000000000e+03 3.158829307556152344e+01 -3.528508424758911133e+00 6.680866479873657227e-01 -5.725933909416198730e-01 2.864798717200756073e-02 -5.272708833217620850e-02
3.834000000000000000e+03 7.473338317871093750e+01 3.319879913330078125e+01 3.087835788726806641e+00 1.085220813751220703e+01 4.182013034820556641e+00 -9.117159247398376465e-01
3.835000000000000000e+03 7.479115295410156250e+01 2.795887374877929688e+01 -9.522068500518798828e-01 1.056201171875000000e+01 2.882941484451293945e+00 -1.035191297531127930e+00
3.836000000000000000e+03 5.792206954956054688e+01 2.845560264587402344e+01 -9.909783601760864258e-01 4.925290942192077637e-01 -1.495347917079925537e-01 -6.486457586288452148e-01
3.837000000000000000e+03 7.417430114746093750e+01 3.443946456909179688e+01 3.924694538116455078e+00 1.165047073364257812e+01 4.672549724578857422e+00 6.854745745658874512e-01
3.838000000000000000e+03 5.671869277954101562e+01 2.781678009033203125e+01 -9.803540110588073730e-01 4.586417376995086670e-01 -1.565136909484863281e-01 -6.851747035980224609e-01
3.839000000000000000e+03 3.997579956054687500e+01 3.273203659057617188e+01 5.676182359457015991e-02 5.338869616389274597e-02 3.304515779018402100e-02 5.222766846418380737e-02
3.840000000000000000e+03 7.626849174499511719e+00 -6.810404300689697266e+00 -2.403115928173065186e-01 -2.235486507415771484e-01 -1.391580700874328613e-01 -3.928611874580383301e-01
3.841000000000000000e+03 6.101386642456054688e+01 2.815534973144531250e+01 -5.574266910552978516e-01 7.984489798545837402e-01 7.230667769908905029e-02 -1.181380599737167358e-01
3.842000000000000000e+03 6.043599700927734375e+01 2.847087097167968750e+01 -7.046131491661071777e-01 6.587195992469787598e-01 -1.376805547624826431e-02 -2.825998961925506592e-01
3.843000000000000000e+03 2.810050010681152344e+01 -1.190212607383728027e+00 2.408522367477416992e-01 -4.740056693553924561e-01 -6.994602829217910767e-02 -1.688793897628784180e-01
3.844000000000000000e+03 9.191380500793457031e+00 7.631348609924316406e+00 1.439786106348037720e-01 1.289262808859348297e-02 4.706136882305145264e-02 -3.703742474317550659e-02
3.845000000000000000e+03 7.366399765014648438e+00 -9.426399230957031250e+00 -1.256479620933532715e-01 -3.955408036708831787e-01 -1.563566327095031738e-01 -4.748971462249755859e-01
3.846000000000000000e+03 9.041553497314453125e+00 -6.750375747680664062e+00 -3.118604719638824463e-01 -2.469211071729660034e-01 -1.676344722509384155e-01 -4.805485904216766357e-01
3.847000000000000000e+03 6.347286224365234375e+01 2.813938331604003906e+01 -1.748384386301040649e-01 1.363499760627746582e+00 3.565983772277832031e-01 6.389735937118530273e-01
3.848000000000000000e+03 6.206506729125976562e+01 2.901187133789062500e+01 -6.391440629959106445e-01 7.392897009849548340e-01 3.004368394613265991e-02 1.663191430270671844e-02
3.849000000000000000e+03 1.224926185607910156e+01 -1.076544094085693359e+01 -3.146157041192054749e-02 -6.354467868804931641e-01 -2.000725120306015015e-01 -6.775183081626892090e-01
3.850000000000000000e+03 3.544712066650390625e+01 3.049263954162597656e+01 4.662298411130905151e-02 7.016213983297348022e-02 3.503553569316864014e-02 5.203674733638763428e-02
3.851000000000000000e+03 5.664103698730468750e+01 2.838854598999023438e+01 -1.082056283950805664e+00 4.077560305595397949e-01 -2.022900581359863281e-01 -7.412231564521789551e-01
3.852000000000000000e+03 1.108810329437255859e+01 -6.607103824615478516e+00 -4.098788797855377197e-01 -3.578115403652191162e-01 -2.303071320056915283e-01 -6.428648233413696289e-01
3.853000000000000000e+03 1.121770763397216797e+01 5.945040702819824219e+00 2.082171887159347534e-01 1.948176473379135132e-01 1.209104508161544800e-01 -1.317265480756759644e-01
3.854000000000000000e+03 9.189731597900390625e+00 6.895846366882324219e+00 1.693815141916275024e-01 -1.590764336287975311e-02 4.604216292500495911e-02 -3.051185049116611481e-02
3.855000000000000000e+03 3.134118652343750000e+01 -1.962960600852966309e+00 3.466445207595825195e-01 -6.320980191230773926e-01 -8.563605695962905884e-02 3.374421596527099609e-02
3.856000000000000000e+03 3.074090576171875000e+01 -2.361877918243408203e+00 5.017594695091247559e-01 -5.963723063468933105e-01 -2.838386595249176025e-02 -1.092024426907300949e-02
3.857000000000000000e+03 1.041832447052001953e+01 -6.623644828796386719e+00 -3.874959349632263184e-01 -2.843049168586730957e-01 -2.015402615070343018e-01 -5.741363763809204102e-01
3.858000000000000000e+03 4.224680709838867188e+01 3.600216674804687500e+01 8.388889580965042114e-02 4.151183739304542542e-02 3.762022033333778381e-02 4.602489247918128967e-02
3.859000000000000000e+03 4.125062179565429688e+01 3.485488128662109375e+01 7.263656705617904663e-02 4.357103258371353149e-02 3.486227989196777344e-02 4.781643673777580261e-02
3.860000000000000000e+03 6.018849563598632812e+01 2.793741035461425781e+01 -6.177994608879089355e-01 7.485694885253906250e-01 3.923099488019943237e-02 -2.569139003753662109e-01
3.861000000000000000e+03 5.979017257690429688e+01 2.886420440673828125e+01 -8.904278874397277832e-01 5.489333271980285645e-01 -1.024483665823936462e-01 -4.498474597930908203e-01
3.862000000000000000e+03 4.092567443847656250e+01 3.681718444824218750e+01 7.605552673339843750e-02 4.491011053323745728e-02 3.628969192504882812e-02 3.728175908327102661e-02
3.863000000000000000e+03 7.831442832946777344e+00 -1.531443023681640625e+01 5.982556566596031189e-02 -6.542431712150573730e-01 -1.783252805471420288e-01 -4.673203825950622559e-01
3.864000000000000000e+03 1.327067565917968750e+01 -1.154154300689697266e+01 6.380612403154373169e-02 -6.948803067207336426e-01 -1.893222481012344360e-01 -6.608372926712036133e-01
3.865000000000000000e+03 1.050252914428710938e+01 -7.337105751037597656e+00 -3.252315819263458252e-01 -3.759873509407043457e-01 -2.103656828403472900e-01 -6.287577152252197266e-01
3.866000000000000000e+03 1.175618267059326172e+01 -6.684372901916503906e+00 -4.265753626823425293e-01 -3.777338266372680664e-01 -2.412927597761154175e-01 -6.889446973800659180e-01
3.867000000000000000e+03 7.398284149169921875e+01 2.436500740051269531e+01 -8.799792528152465820e-01 9.269610404968261719e+00 2.516889333724975586e+00 2.165883593261241913e-02
3.868000000000000000e+03 6.989783477783203125e+01 -5.040582180023193359e+00 1.089363694190979004e-01 5.678885459899902344e+00 1.736346602439880371e+00 4.452832639217376709e-01
3.869000000000000000e+03 7.472691345214843750e+01 2.876177406311035156e+01 -8.103872537612915039e-01 1.086726188659667969e+01 3.017062187194824219e+00 -1.273803710937500000e+00
3.870000000000000000e+03 7.520496368408203125e+01 2.975886344909667969e+01 -2.821046411991119385e-01 1.070836353302001953e+01 3.127877712249755859e+00 -1.679441690444946289e+00
3.871000000000000000e+03 7.480171203613281250e+01 3.042764854431152344e+01 5.798384547233581543e-02 1.118610382080078125e+01 3.373226404190063477e+00 -1.806871294975280762e+00
3.872000000000000000e+03 1.396872901916503906e+01 -1.434318447113037109e+01 1.888037174940109253e-01 -6.273687481880187988e-01 -1.315695047378540039e-01 -5.390903353691101074e-01
3.873000000000000000e+03 3.498028564453125000e+01 -4.890336036682128906e+00 6.060872077941894531e-01 -5.724950432777404785e-01 1.007763668894767761e-02 -7.164238486438989639e-04
3.874000000000000000e+03 1.420207595825195312e+01 -1.316613864898681641e+01 1.960338950157165527e-01 -6.596412062644958496e-01 -1.390821933746337891e-01 -5.586025118827819824e-01
3.875000000000000000e+03 7.199341583251953125e+01 -9.840419769287109375e+00 5.586278066039085388e-02 6.020626544952392578e+00 1.822946786880493164e+00 3.208383023738861084e-01
3.876000000000000000e+03 7.176396942138671875e+01 -3.734291076660156250e+00 8.436237275600433350e-02 6.166874885559082031e+00 1.875371098518371582e+00 4.286585450172424316e-01
3.877000000000000000e+03 7.030185699462890625e+01 -3.342374563217163086e+00 1.030917465686798096e-01 5.806000232696533203e+00 1.772727489471435547e+00 4.497774243354797363e-01
3.878000000000000000e+03 7.195000457763671875e+01 -8.607192039489746094e+00 6.468787789344787598e-02 6.058486938476562500e+00 1.836952447891235352e+00 3.410754501819610596e-01
3.879000000000000000e+03 7.070540618896484375e+01 -1.093325805664062500e+01 6.322828680276870728e-02 5.714250564575195312e+00 1.733243584632873535e+00 3.429360091686248779e-01
3.880000000000000000e+03 7.207168579101562500e+01 5.489090919494628906e+00 7.389682531356811523e-02 6.581029891967773438e+00 1.996478080749511719e+00 5.651461482048034668e-01
3.881000000000000000e+03 7.091271209716796875e+01 4.298425674438476562e+00 9.746792167425155640e-02 6.197165012359619141e+00 1.888389825820922852e+00 5.884729027748107910e-01
3.882000000000000000e+03 7.067268371582031250e+01 -2.464159202575683594e+01 3.298646211624145508e-02 5.454375267028808594e+00 1.646208405494689941e+00 2.218264192342758179e-01
3.883000000000000000e+03 6.924002838134765625e+01 -2.918485832214355469e+01 5.692888796329498291e-02 5.127197742462158203e+00 1.555238008499145508e+00 2.174418568611145020e-01
3.884000000000000000e+03 1.128720569610595703e+01 -7.830689907073974609e+00 -2.794735729694366455e-01 -4.545200169086456299e-01 -2.201980799436569214e-01 -6.857331395149230957e-01
3.885000000000000000e+03 9.128443717956542969e+00 -7.583835124969482422e+00 -2.596983313560485840e-01 -3.284832239151000977e-01 -1.764544546604156494e-01 -5.357180833816528320e-01
3.886000000000000000e+03 7.037374114990234375e+01 -1.750575637817382812e+01 4.774704203009605408e-02 5.540935516357421875e+00 1.676604747772216797e+00 2.757285237312316895e-01
3.887000000000000000e+03 7.047727966308593750e+01 -1.860802841186523438e+01 3.882251307368278503e-02 5.518597126007080078e+00 1.667225837707519531e+00 2.654105722904205322e-01
3.888000000000000000e+03 7.308255195617675781e+00 1.617972564697265625e+01 5.007271654903888702e-03 -1.991622522473335266e-02 -4.472685977816581726e-03 -2.207623422145843506e-02
3.889000000000000000e+03 7.744865417480468750e+00 1.096742057800292969e+01 5.653115361928939819e-02 -9.467102587223052979e-03 1.411921530961990356e-02 -1.734626665711402893e-02
3.890000000000000000e+03 8.336537361145019531e+00 1.242858219146728516e+01 3.702693432569503784e-02 1.778384670615196228e-02 1.644323393702507019e-02 -2.074345387518405914e-02
3.891000000000000000e+03 7.146180725097656250e+01 1.549806022644042969e+01 -8.499889820814132690e-02 6.859324932098388672e+00 2.032297849655151367e+00 7.157129049301147461e-01
3.892000000000000000e+03 7.225699615478515625e+01 1.296933841705322266e+01 -3.179358085617423058e-03 7.005023002624511719e+00 2.100553035736083984e+00 6.553213596343994141e-01
3.893000000000000000e+03 7.126251983642578125e+01 1.816332626342773438e+01 -2.423495501279830933e-01 6.989966869354248047e+00 2.024285316467285156e+00 7.722156643867492676e-01
3.894000000000000000e+03 3.903491973876953125e+01 -8.217269897460937500e+00 5.448467135429382324e-01 -2.462950646877288818e-01 8.956548571586608887e-02 -4.881842527538537979e-03
3.895000000000000000e+03 7.206807708740234375e+01 7.911882877349853516e+00 6.340225785970687866e-02 6.681907653808593750e+00 2.023592948913574219e+00 6.140787005424499512e-01
3.896000000000000000e+03 7.087571716308593750e+01 6.592883110046386719e+00 9.206473082304000854e-02 6.263654708862304688e+00 1.906715869903564453e+00 6.367980837821960449e-01
3.897000000000000000e+03 3.840290069580078125e+01 -9.117634773254394531e+00 5.603941082954406738e-01 -2.893789410591125488e-01 8.130455017089843750e-02 -3.293400257825851440e-02
3.898000000000000000e+03 9.108220100402832031e+00 2.326728057861328125e+01 -8.929859846830368042e-03 -4.441331606358289719e-03 -4.011357668787240982e-03 -1.447850186377763748e-02
3.899000000000000000e+03 8.253695487976074219e+00 2.222025299072265625e+01 -7.149782497435808182e-03 -1.249668467789888382e-02 -5.893940106034278870e-03 -1.756524853408336639e-02
3.900000000000000000e+03 9.935878753662109375e+00 2.233858108520507812e+01 -7.511172909289598465e-03 1.312157418578863144e-02 1.683120382949709892e-03 -1.146272569894790649e-02
3.901000000000000000e+03 1.765094184875488281e+01 -1.885885238647460938e+01 2.503825426101684570e-01 -2.707217335700988770e-01 -6.101756356656551361e-03 -3.649413883686065674e-01
3.902000000000000000e+03 7.156378936767578125e+01 1.898278236389160156e+01 -3.081997036933898926e-01 7.201640605926513672e+00 2.068032264709472656e+00 7.539694905281066895e-01
3.903000000000000000e+03 7.213882446289062500e+01 1.774899291992187500e+01 -2.197194397449493408e-01 7.293504714965820312e+00 2.122135639190673828e+00 6.867241859436035156e-01
3.904000000000000000e+03 7.112714385986328125e+01 1.125116348266601562e+01 4.180732369422912598e-02 6.541511058807373047e+00 1.974995493888854980e+00 6.919528245925903320e-01
3.905000000000000000e+03 1.524153041839599609e+01 -1.566207885742187500e+01 2.304315268993377686e-01 -5.427879691123962402e-01 -9.370692819356918335e-02 -4.639725685119628906e-01
3.906000000000000000e+03 7.434486865997314453e+00 -1.166686058044433594e+01 -3.681829571723937988e-02 -5.163531899452209473e-01 -1.659514456987380981e-01 -4.941871166229248047e-01
3.907000000000000000e+03 8.381700515747070312e+00 -8.521054267883300781e+00 -1.859249174594879150e-01 -3.678522109985351562e-01 -1.661331355571746826e-01 -5.169851779937744141e-01
3.908000000000000000e+03 7.232796478271484375e+01 1.382998847961425781e+01 -2.456909045577049255e-02 7.098764896392822266e+00 2.122258663177490234e+00 6.553470492362976074e-01
3.909000000000000000e+03 4.311320495605468750e+01 -1.898670768737792969e+01 9.017064422369003296e-02 3.277528584003448486e-01 1.253770440816879272e-01 6.406667828559875488e-02
3.910000000000000000e+03 6.623054027557373047e+00 -1.552061939239501953e+01 4.458973556756973267e-02 -6.807432770729064941e-01 -1.908460706472396851e-01 -4.268157184123992920e-01
3.911000000000000000e+03 9.280888557434082031e+00 1.599075889587402344e+01 6.008671130985021591e-03 3.173258155584335327e-02 1.132237538695335388e-02 -1.521375216543674469e-02
3.912000000000000000e+03 4.083858108520507812e+01 -9.204480171203613281e+00 5.062447786331176758e-01 -3.892514854669570923e-02 1.401958763599395752e-01 1.504330988973379135e-02
3.913000000000000000e+03 7.966924667358398438e+00 -1.658898162841796875e+01 7.930192351341247559e-02 -7.018143534660339355e-01 -1.867537349462509155e-01 -4.559551775455474854e-01
3.914000000000000000e+03 8.857247352600097656e+00 -2.218452262878417969e+01 1.159556135535240173e-01 -7.844320535659790039e-01 -2.005429267883300781e-01 -3.592675924301147461e-01
3.915000000000000000e+03 8.293948173522949219e+00 -1.924250793457031250e+01 1.032675132155418396e-01 -7.559610009193420410e-01 -1.958080530166625977e-01 -4.114883840084075928e-01
3.916000000000000000e+03 9.835360527038574219e+00 3.077228546142578125e+01 -7.928016595542430878e-03 -1.502416934818029404e-02 -6.885655689984560013e-03 -7.919460535049438477e-03
3.917000000000000000e+03 8.149668693542480469e+00 3.003008842468261719e+01 -7.023942656815052032e-03 -3.067076951265335083e-02 -1.130841299891471863e-02 -1.150358840823173523e-02
3.918000000000000000e+03 1.443331718444824219e+01 8.968823432922363281e+00 6.405054032802581787e-02 2.819886207580566406e-01 1.038117483258247375e-01 9.547052532434463501e-02
3.919000000000000000e+03 6.813766479492187500e+00 8.982092857360839844e+00 8.749950677156448364e-02 -6.663473695516586304e-02 6.259431131184101105e-03 6.208505947142839432e-03
3.920000000000000000e+03 1.582625865936279297e+01 -2.348825263977050781e+01 2.339043617248535156e-01 -3.526673316955566406e-01 -3.562889248132705688e-02 -3.585072457790374756e-01
3.921000000000000000e+03 7.018726348876953125e+01 -2.211761283874511719e+01 3.261041268706321716e-02 5.395264625549316406e+00 1.628362536430358887e+00 2.363010644912719727e-01
3.922000000000000000e+03 1.492381477355957031e+01 9.327645301818847656e+00 7.210414111614227295e-02 2.619778215885162354e-01 1.002245843410491943e-01 1.074823960661888123e-01
3.923000000000000000e+03 7.328458309173583984e+00 1.214935302734375000e+01 4.030217230319976807e-02 -2.162496373057365417e-02 5.603163037449121475e-03 -1.860341243445873260e-02
3.924000000000000000e+03 9.110230445861816406e+00 2.138106727600097656e+01 -7.671409286558628082e-03 2.814004663378000259e-03 -1.457221340388059616e-03 -1.484591420739889145e-02
3.925000000000000000e+03 1.521016597747802734e+01 -1.324484062194824219e+01 1.930569708347320557e-01 -6.326505541801452637e-01 -1.318780779838562012e-01 -5.238878726959228516e-01
3.926000000000000000e+03 4.288844299316406250e+01 -1.206367111206054688e+01 4.061793088912963867e-01 2.723277509212493896e-01 2.035521119832992554e-01 3.054592013359069824e-02
3.927000000000000000e+03 4.987326049804687500e+01 -2.476654815673828125e+01 -5.591717362403869629e-02 1.726895809173583984e+00 5.012935996055603027e-01 1.608479022979736328e-01
3.928000000000000000e+03 4.242496490478515625e+01 -1.486079597473144531e+01 2.860743105411529541e-01 2.287269830703735352e-01 1.544403880834579468e-01 1.708894409239292145e-02
3.929000000000000000e+03 4.269890594482421875e+01 -1.088881874084472656e+01 4.507182836532592773e-01 2.164782732725143433e-01 2.001589685678482056e-01 2.522485330700874329e-02
3.930000000000000000e+03 8.902768135070800781e+00 -2.378904914855957031e+01 1.179727762937545776e-01 -7.992800474166870117e-01 -2.043921798467636108e-01 -3.221550583839416504e-01
3.931000000000000000e+03 8.260478019714355469e+00 1.363480091094970703e+01 2.399254962801933289e-02 1.158634386956691742e-02 1.067366823554039001e-02 -2.094530873000621796e-02
3.932000000000000000e+03 8.222392082214355469e+00 1.486930274963378906e+01 1.264395937323570251e-02 7.498681079596281052e-03 6.042791996151208878e-03 -1.976181939244270325e-02
3.933000000000000000e+03 3.336346817016601562e+01 -3.863635778427124023e+00 6.321069598197937012e-01 -6.150110960006713867e-01 5.128760822117328644e-03 -1.970933191478252411e-02
3.934000000000000000e+03 9.243668556213378906e+00 1.967182159423828125e+01 -5.923985969275236130e-03 1.151750050485134125e-02 1.678054337389767170e-03 -1.534186303615570068e-02
3.935000000000000000e+03 7.344320678710937500e+01 2.598709106445312500e+01 -1.222902894020080566e+00 9.808688163757324219e+00 2.575735569000244141e+00 2.876494266092777252e-02
3.936000000000000000e+03 7.256338500976562500e+01 2.587079620361328125e+01 -1.279684185981750488e+00 9.510054588317871094e+00 2.469111204147338867e+00 5.044460892677307129e-01
3.937000000000000000e+03 7.139842224121093750e+01 -2.198210334777832031e+01 2.742616832256317139e-02 5.651231288909912109e+00 1.703597307205200195e+00 2.201353311538696289e-01
3.938000000000000000e+03 7.074652099609375000e+01 -2.107090950012207031e+01 3.316994011402130127e-02 5.535916805267333984e+00 1.670725941658020020e+00 2.327736318111419678e-01
3.939000000000000000e+03 1.893718147277832031e+01 -2.313643646240234375e+01 2.383934706449508667e-01 -1.283691823482513428e-01 3.300728648900985718e-02 -3.496530055999755859e-01
3.940000000000000000e+03 2.087003517150878906e+01 -2.802489280700683594e+01 2.778745889663696289e-01 4.534893482923507690e-02 9.696705639362335205e-02 -3.299735188484191895e-01
3.941000000000000000e+03 7.263021087646484375e+01 2.201759338378906250e+01 -6.529958844184875488e-01 8.174130439758300781e+00 2.256340503692626953e+00 5.728802084922790527e-01
3.942000000000000000e+03 7.166205596923828125e+01 2.084484291076660156e+01 -4.945853948593139648e-01 7.524327754974365234e+00 2.108922719955444336e+00 7.617404460906982422e-01
3.943000000000000000e+03 7.044921875000000000e+01 -3.111725044250488281e+01 4.998740553855895996e-02 5.298176765441894531e+00 1.604449272155761719e+00 1.637789458036422729e-01
3.944000000000000000e+03 2.007090377807617188e+01 -2.627347183227539062e+01 2.597324550151824951e-01 -2.366395294666290283e-02 7.082055509090423584e-02 -3.432605266571044922e-01
3.945000000000000000e+03 4.935873413085937500e+01 -2.242520523071289062e+01 8.867920405464246869e-05 1.555973768234252930e+00 4.668187201023101807e-01 1.298391669988632202e-01
3.946000000000000000e+03 7.097646331787109375e+01 5.443696975708007812e+00 9.644820541143417358e-02 6.261854648590087891e+00 1.907490968704223633e+00 6.096166372299194336e-01
3.947000000000000000e+03 2.187474250793457031e+01 -3.283383941650390625e+01 3.356975615024566650e-01 7.588518410921096802e-02 1.234748288989067078e-01 -2.698796689510345459e-01
3.948000000000000000e+03 2.023413085937500000e+01 -3.116412734985351562e+01 2.804986238479614258e-01 -4.370053485035896301e-02 7.103942334651947021e-02 -2.864855825901031494e-01
3.949000000000000000e+03 6.955753326416015625e+01 -9.053129196166992188e+00 9.274615347385406494e-02 5.510191917419433594e+00 1.680881381034851074e+00 3.882448375225067139e-01
3.950000000000000000e+03 6.955127716064453125e+01 -2.541382026672363281e+01 4.584318771958351135e-02 5.241322517395019531e+00 1.586149692535400391e+00 2.408916056156158447e-01
3.951000000000000000e+03 7.056040191650390625e+01 9.016760826110839844e+00 7.853529602289199829e-02 6.236481666564941406e+00 1.894505023956298828e+00 6.824194788932800293e-01
3.952000000000000000e+03 9.949396133422851562e+00 -2.864754104614257812e+01 1.137492060661315918e-01 -7.901341915130615234e-01 -2.029154896736145020e-01 -2.483602166175842285e-01
3.953000000000000000e+03 1.071205329895019531e+01 2.576903343200683594e+01 -9.336719289422035217e-03 1.040047686547040939e-02 3.191271098330616951e-04 -7.843382656574249268e-03
3.954000000000000000e+03 7.122060394287109375e+01 -2.845586395263671875e+01 3.661585971713066101e-02 5.481568813323974609e+00 1.655455350875854492e+00 1.812049299478530884e-01
3.955000000000000000e+03 2.374468803405761719e+01 -3.431953430175781250e+01 4.041938185691833496e-01 2.036583274602890015e-01 1.823556423187255859e-01 -2.618314325809478760e-01
3.956000000000000000e+03 8.532097816467285156e+00 -2.066377639770507812e+01 1.140193939208984375e-01 -7.661623358726501465e-01 -1.956428885459899902e-01 -3.786157071590423584e-01
3.957000000000000000e+03 7.361748695373535156e+00 -2.239754295349121094e+01 8.638887852430343628e-02 -8.605205416679382324e-01 -2.322395145893096924e-01 -3.195639848709106445e-01
3.958000000000000000e+03 2.747398948669433594e+01 -8.908405154943466187e-02 -3.074737489223480225e-01 -4.168957471847534180e-01 -2.173108458518981934e-01 -1.001466363668441772e-01
3.959000000000000000e+03 2.577753448486328125e+01 2.554211854934692383e+00 -2.784077882766723633e+00 -6.538545489311218262e-01 -1.031379699707031250e+00 -1.121239185333251953e+00
3.960000000000000000e+03 2.757931327819824219e+01 2.575399398803710938e+00 -1.957116723060607910e+00 -7.866945266723632812e-01 -8.231433629989624023e-01 -6.978382468223571777e-01
3.961000000000000000e+03 3.039632987976074219e+01 -1.766399979591369629e+00 3.339940309524536133e-01 -5.767597556114196777e-01 -7.282971590757369995e-02 2.006900496780872345e-03
3.962000000000000000e+03 7.201621246337890625e+01 3.100561714172363281e+01 -9.137904047966003418e-01 1.495869159698486328e+01 4.213470458984375000e+00 -3.446157276630401611e-02
3.963000000000000000e+03 1.771759986877441406e+01 1.252998924255371094e+01 7.103814929723739624e-02 1.737118661403656006e-01 7.342500239610671997e-02 1.084767058491706848e-01
3.964000000000000000e+03 7.261016082763671875e+01 3.097142601013183594e+01 -4.716772139072418213e-01 1.439001083374023438e+01 4.175499916076660156e+00 -9.094917774200439453e-01
3.965000000000000000e+03 7.241390991210937500e+01 3.169921112060546875e+01 6.019305586814880371e-01 1.560414409637451172e+01 4.861822605133056641e+00 -1.430541157722473145e+00
3.966000000000000000e+03 4.099154281616210938e+01 1.893902397155761719e+01 -1.126705765724182129e+00 -1.215302348136901855e+00 -7.026024460792541504e-01 -1.296281456947326660e+00
3.967000000000000000e+03 4.132187271118164062e+01 1.815172958374023438e+01 -1.067196130752563477e+00 -1.128841280937194824e+00 -6.588112115859985352e-01 -1.215270876884460449e+00
3.968000000000000000e+03 4.159302520751953125e+01 1.945045852661132812e+01 -1.119365453720092773e+00 -1.206865072250366211e+00 -6.978691220283508301e-01 -1.280267119407653809e+00
3.969000000000000000e+03 3.421877288818359375e+01 1.041087722778320312e+01 -1.209234833717346191e+00 -1.280518651008605957e+00 -7.469260096549987793e-01 -1.173482060432434082e+00
3.970000000000000000e+03 8.511324882507324219e+00 1.142076206207275391e+01 5.100988224148750305e-02 1.922986842691898346e-02 2.107192389667034149e-02 -2.215038798749446869e-02
3.971000000000000000e+03 4.281050491333007812e+01 1.995199584960937500e+01 -1.093055129051208496e+00 -1.148134112358093262e+00 -6.723567843437194824e-01 -1.207408189773559570e+00
3.972000000000000000e+03 4.189984512329101562e+01 1.965418243408203125e+01 -1.116866946220397949e+00 -1.200871109962463379e+00 -6.953214406967163086e-01 -1.267375111579895020e+00
3.973000000000000000e+03 3.396363449096679688e+01 2.871181678771972656e+01 4.668271914124488831e-02 7.361283153295516968e-02 3.608866408467292786e-02 5.553855374455451965e-02
3.974000000000000000e+03 6.706478881835937500e+01 3.049850654602050781e+01 1.374095678329467773e-01 2.305233478546142578e+00 7.327929139137268066e-01 2.323089838027954102e+00
3.975000000000000000e+03 1.630131912231445312e+01 1.019757366180419922e+01 8.293889462947845459e-02 2.209990322589874268e-01 9.118137508630752563e-02 1.248815506696701050e-01
3.976000000000000000e+03 4.717449951171875000e+01 2.441120338439941406e+01 -1.275040388107299805e+00 -9.607015848159790039e-01 -6.707226037979125977e-01 -1.163295626640319824e+00
3.977000000000000000e+03 4.746939849853515625e+01 2.465400505065917969e+01 -1.268710017204284668e+00 -9.387328028678894043e-01 -6.622328758239746094e-01 -1.157609224319458008e+00
3.978000000000000000e+03 2.845110511779785156e+01 2.208024406433105469e+01 5.471968650817871094e-02 9.025795012712478638e-02 4.349328950047492981e-02 7.316333055496215820e-02
3.979000000000000000e+03 1.927286338806152344e+01 1.316818523406982422e+01 8.274538815021514893e-02 1.553028523921966553e-01 7.141447067260742188e-02 1.128938496112823486e-01
3.980000000000000000e+03 1.852737236022949219e+01 1.284857845306396484e+01 7.807072997093200684e-02 1.628665030002593994e-01 7.228117436170578003e-02 1.118650734424591064e-01
3.981000000000000000e+03 6.691935729980468750e+01 3.006773948669433594e+01 1.395618468523025513e-01 2.521417617797851562e+00 7.982938289642333984e-01 2.305102348327636719e+00
3.982000000000000000e+03 6.771049499511718750e+01 2.988406944274902344e+01 1.663122326135635376e-01 3.974256038665771484e+00 1.242170453071594238e+00 3.013555526733398438e+00
3.983000000000000000e+03 4.370936584472656250e+01 2.130818557739257812e+01 -1.194586515426635742e+00 -1.172115206718444824e+00 -7.100105285644531250e-01 -1.220435619354248047e+00
3.984000000000000000e+03 7.347586059570312500e+01 3.226035308837890625e+01 2.471497774124145508e+00 1.318452930450439453e+01 4.696807861328125000e+00 -2.033732414245605469e+00
3.985000000000000000e+03 7.287829589843750000e+01 3.191406631469726562e+01 1.552092075347900391e+00 1.468738365173339844e+01 4.871842861175537109e+00 -1.974857687950134277e+00
3.986000000000000000e+03 4.065904235839843750e+01 1.748640441894531250e+01 -1.091187477111816406e+00 -1.144736170768737793e+00 -6.707770824432373047e-01 -1.207255363464355469e+00
3.987000000000000000e+03 4.187419509887695312e+01 1.886143493652343750e+01 -1.063394546508789062e+00 -1.140429973602294922e+00 -6.611473560333251953e-01 -1.220642089843750000e+00
3.988000000000000000e+03 1.997845077514648438e+01 1.340681076049804688e+01 8.735980093479156494e-02 1.492840647697448730e-01 7.099316269159317017e-02 1.135749071836471558e-01
3.989000000000000000e+03 7.400453948974609375e+01 3.289313125610351562e+01 3.482103586196899414e+00 1.202437877655029297e+01 4.651944637298583984e+00 -1.488204836845397949e+00
3.990000000000000000e+03 6.864783477783203125e+01 3.067418861389160156e+01 2.444267123937606812e-01 5.475115299224853516e+00 1.715862631797790527e+00 4.009109973907470703e+00
3.991000000000000000e+03 2.470807456970214844e+01 1.400619029998779297e+00 -2.243281126022338867e+00 -2.261985540390014648e-01 -7.408438920974731445e-01 -8.729947209358215332e-01
3.992000000000000000e+03 2.361925315856933594e+01 1.751245498657226562e+01 7.014210522174835205e-02 1.160353347659111023e-01 5.585323274135589600e-02 9.155844897031784058e-02
3.993000000000000000e+03 2.267057037353515625e+01 1.731149482727050781e+01 6.478271633386611938e-02 1.209343820810317993e-01 5.571512877941131592e-02 9.003545343875885010e-02
3.994000000000000000e+03 4.629280471801757812e+01 2.369234085083007812e+01 -1.283206343650817871e+00 -1.043105840682983398e+00 -6.978936195373535156e-01 -1.173438191413879395e+00
3.995000000000000000e+03 4.835225677490234375e+01 2.541449165344238281e+01 -1.247835397720336914e+00 -8.687164783477783203e-01 -6.349655985832214355e-01 -1.130997061729431152e+00
3.996000000000000000e+03 2.389122200012207031e+01 1.828960609436035156e+01 6.426705420017242432e-02 1.125596389174461365e-01 5.304800719022750854e-02 8.652403950691223145e-02
3.997000000000000000e+03 1.950554084777832031e+01 1.371851539611816406e+01 7.835733145475387573e-02 1.508297771215438843e-01 6.875613331794738770e-02 1.078432500362396240e-01
3.998000000000000000e+03 3.679827117919921875e+01 1.337189102172851562e+01 -1.154556155204772949e+00 -1.304260134696960449e+00 -7.376449108123779297e-01 -1.189496755599975586e+00
3.999000000000000000e+03 1.987991333007812500e+01 1.380882644653320312e+01 8.174748718738555908e-02 1.490531861782073975e-01 6.924020498991012573e-02 1.084869578480720520e-01
4.000000000000000000e+03 2.234401512145996094e+01 1.703301429748535156e+01 6.545167416334152222e-02 1.238552853465080261e-01 5.679208785295486450e-02 9.069447964429855347e-02
4.001000000000000000e+03 3.550352096557617188e+01 1.240800094604492188e+01 -1.208024144172668457e+00 -1.347680449485778809e+00 -7.667113542556762695e-01 -1.224983811378479004e+00
4.002000000000000000e+03 3.606867218017578125e+01 1.247395610809326172e+01 -1.161397218704223633e+00 -1.294846534729003906e+00 -7.368730902671813965e-01 -1.178033471107482910e+00
4.003000000000000000e+03 4.425030517578125000e+01 2.132738494873046875e+01 -1.155768871307373047e+00 -1.113889336585998535e+00 -6.808974742889404297e-01 -1.173034906387329102e+00
4.004000000000000000e+03 2.077150917053222656e+01 1.489115333557128906e+01 7.712040841579437256e-02 1.391062885522842407e-01 6.486801058053970337e-02 1.013073995709419250e-01
4.005000000000000000e+03 3.143955230712890625e+01 2.624238204956054688e+01 4.492303729057312012e-02 7.880859822034835815e-02 3.711949288845062256e-02 6.127107888460159302e-02
4.006000000000000000e+03 2.735392951965332031e+01 2.124986839294433594e+01 5.712777003645896912e-02 9.489072859287261963e-02 4.560555145144462585e-02 7.576633989810943604e-02
4.007000000000000000e+03 2.764569282531738281e+01 2.113695907592773438e+01 5.871151760220527649e-02 9.396248310804367065e-02 4.580220207571983337e-02 7.660499215126037598e-02
4.008000000000000000e+03 5.013679885864257812e+01 2.709006118774414062e+01 -1.271981477737426758e+00 -6.930723190307617188e-01 -5.895161628723144531e-01 -1.044428348541259766e+00
4.009000000000000000e+03 2.299790191650390625e+01 1.756373596191406250e+01 6.521204859018325806e-02 1.188087463378906250e-01 5.520623922348022461e-02 8.930719643831253052e-02
4.010000000000000000e+03 3.498619842529296875e+01 1.192240810394287109e+01 -1.223012089729309082e+00 -1.346906542778015137e+00 -7.709755897521972656e-01 -1.227342605590820312e+00
4.011000000000000000e+03 4.453432846069335938e+01 2.160125541687011719e+01 -1.166670560836791992e+00 -1.106193184852600098e+00 -6.818591356277465820e-01 -1.167396545410156250e+00
4.012000000000000000e+03 2.546519088745117188e+01 1.889980888366699219e+01 6.845188885927200317e-02 1.055370345711708069e-01 5.219667777419090271e-02 8.499536663293838501e-02
4.013000000000000000e+03 1.587769794464111328e+01 9.554145812988281250e+00 8.685138821601867676e-02 2.436610758304595947e-01 9.915374219417572021e-02 1.289425790309906006e-01
4.014000000000000000e+03 3.009637260437011719e+01 -1.176006436347961426e+00 1.842328757047653198e-01 -6.361113190650939941e-01 -1.355635374784469604e-01 1.328143663704395294e-02
4.015000000000000000e+03 3.938191604614257812e+01 1.699319076538085938e+01 -1.171647548675537109e+00 -1.278928279876708984e+00 -7.351727485656738281e-01 -1.247151732444763184e+00
4.016000000000000000e+03 3.331087875366210938e+01 2.796545791625976562e+01 4.588042944669723511e-02 7.489749789237976074e-02 3.623338043689727783e-02 5.702678114175796509e-02
4.017000000000000000e+03 4.367276000976562500e+01 2.077807235717773438e+01 -1.129609584808349609e+00 -1.130764842033386230e+00 -6.781123280525207520e-01 -1.184929132461547852e+00
4.018000000000000000e+03 2.568408966064453125e+01 5.017706751823425293e-01 -1.068768501281738281e+00 -2.115696519613265991e-01 -3.841014504432678223e-01 -4.297203421592712402e-01
4.019000000000000000e+03 3.328837966918945312e+01 2.862506675720214844e+01 4.423606023192405701e-02 7.443159073591232300e-02 3.560029342770576477e-02 5.479081347584724426e-02
4.020000000000000000e+03 2.692489051818847656e+01 2.063169479370117188e+01 5.977373942732810974e-02 9.739191085100173950e-02 4.714969545602798462e-02 7.816354930400848389e-02
4.021000000000000000e+03 2.755603599548339844e+01 2.093248748779296875e+01 6.007328629493713379e-02 9.486810117959976196e-02 4.648241400718688965e-02 7.754968851804733276e-02
4.022000000000000000e+03 5.193800735473632812e+01 2.801284408569335938e+01 -1.261354207992553711e+00 -3.449123203754425049e-01 -4.818799793720245361e-01 -9.299242496490478516e-01
4.023000000000000000e+03 5.048637771606445312e+01 2.793935775756835938e+01 -1.320884346961975098e+00 -7.007341384887695312e-01 -6.064855456352233887e-01 -1.050262212753295898e+00
4.024000000000000000e+03 5.247414779663085938e+01 2.914228057861328125e+01 -1.318184852600097656e+00 -2.806319296360015869e-01 -4.796450436115264893e-01 -9.236478805541992188e-01
4.025000000000000000e+03 2.723160934448242188e+01 2.058413505554199219e+01 6.150897219777107239e-02 9.633838385343551636e-02 4.735420644283294678e-02 7.875452935695648193e-02
4.026000000000000000e+03 2.708419227600097656e+01 1.999769210815429688e+01 6.656084209680557251e-02 9.724904596805572510e-02 4.914296790957450867e-02 8.143059909343719482e-02
4.027000000000000000e+03 2.638437080383300781e+01 2.029625129699707031e+01 6.010190770030021667e-02 1.002929806709289551e-01 4.811846837401390076e-02 7.906384766101837158e-02
4.028000000000000000e+03 2.419311523437500000e+01 1.803519248962402344e+01 6.928199529647827148e-02 1.118418499827384949e-01 5.433715507388114929e-02 8.892014622688293457e-02
4.029000000000000000e+03 4.283110427856445312e+01 2.049065971374511719e+01 -1.148417949676513672e+00 -1.190816283226013184e+00 -7.017703056335449219e-01 -1.236370563507080078e+00
4.030000000000000000e+03 7.452684020996093750e+01 2.948168182373046875e+01 -6.154579520225524902e-01 1.130046463012695312e+01 3.205502033233642578e+00 -1.474269032478332520e+00
4.031000000000000000e+03 3.702679061889648438e+01 1.366256618499755859e+01 -1.148642063140869141e+00 -1.307641148567199707e+00 -7.368849515914916992e-01 -1.194612026214599609e+00
4.032000000000000000e+03 4.932756805419921875e+01 2.684021186828613281e+01 -1.293980240821838379e+00 -8.421776294708251953e-01 -6.408473849296569824e-01 -1.115276336669921875e+00
4.033000000000000000e+03 2.628944396972656250e+01 1.627542018890380859e+00 -1.912996411323547363e+00 -4.576416909694671631e-01 -7.111914157867431641e-01 -6.001650691032409668e-01
4.034000000000000000e+03 2.020542335510253906e+01 1.426125812530517578e+01 7.898193597793579102e-02 1.446859091520309448e-01 6.710035353899002075e-02 1.053082123398780823e-01
4.035000000000000000e+03 2.111537361145019531e+01 1.466164207458496094e+01 8.358718454837799072e-02 1.375942677259445190e-01 6.635443866252899170e-02 1.053481101989746094e-01
4.036000000000000000e+03 5.261463928222656250e+01 2.871984100341796875e+01 -1.296752810478210449e+00 -2.260859459638595581e-01 -4.568516016006469727e-01 -9.092233777046203613e-01
4.037000000000000000e+03 4.600607681274414062e+01 2.344045829772949219e+01 -1.281533956527709961e+00 -1.067376375198364258e+00 -7.046731114387512207e-01 -1.176779866218566895e+00
4.038000000000000000e+03 4.680621337890625000e+01 2.365889739990234375e+01 -1.229511857032775879e+00 -9.524680972099304199e-01 -6.545940041542053223e-01 -1.124189734458923340e+00
4.039000000000000000e+03 3.726218032836914062e+01 1.395234680175781250e+01 -1.146404027938842773e+00 -1.307935357093811035e+00 -7.363017797470092773e-01 -1.196487188339233398e+00
4.040000000000000000e+03 5.072913742065429688e+01 2.763543701171875000e+01 -1.286218404769897461e+00 -6.105509996414184570e-01 -5.690308213233947754e-01 -1.010758876800537109e+00
4.041000000000000000e+03 7.415193176269531250e+01 3.225394439697265625e+01 2.394418478012084961e+00 1.206481933593750000e+01 4.337771415710449219e+00 -1.885500073432922363e+00
4.042000000000000000e+03 5.174970626831054688e+01 2.838192367553710938e+01 -1.296235918998718262e+00 -4.146346449851989746e-01 -5.132611989974975586e-01 -9.542472362518310547e-01
4.043000000000000000e+03 2.163793563842773438e+01 1.538169384002685547e+01 7.870077341794967651e-02 1.327499896287918091e-01 6.343522667884826660e-02 1.007417812943458557e-01
4.044000000000000000e+03 3.750889587402343750e+01 1.423896217346191406e+01 -1.141340732574462891e+00 -1.306353688240051270e+00 -7.343083024024963379e-01 -1.196417808532714844e+00
4.045000000000000000e+03 3.893301010131835938e+01 1.682927894592285156e+01 -1.193159461021423340e+00 -1.325362324714660645e+00 -7.555565834045410156e-01 -1.260733962059020996e+00
4.046000000000000000e+03 4.152648162841796875e+01 1.868997383117675781e+01 -1.080579519271850586e+00 -1.155785799026489258e+00 -6.709096431732177734e-01 -1.240376472473144531e+00
4.047000000000000000e+03 3.776211929321289062e+01 1.452420711517333984e+01 -1.138470530509948730e+00 -1.304324269294738770e+00 -7.328384518623352051e-01 -1.194581985473632812e+00
4.048000000000000000e+03 4.338313674926757812e+01 2.050580215454101562e+01 -1.116754531860351562e+00 -1.138103961944580078e+00 -6.764575839042663574e-01 -1.191106200218200684e+00
4.049000000000000000e+03 4.509946823120117188e+01 2.214479064941406250e+01 -1.189495921134948730e+00 -1.083214521408081055e+00 -6.818131208419799805e-01 -1.156425595283508301e+00
4.050000000000000000e+03 4.866438674926757812e+01 2.565707778930664062e+01 -1.243996381759643555e+00 -8.437551259994506836e-01 -6.263254880905151367e-01 -1.116759181022644043e+00
4.051000000000000000e+03 1.425138187408447266e+01 8.565628051757812500e+00 6.864897906780242920e-02 3.029412031173706055e-01 1.114770546555519104e-01 9.073178470134735107e-02
4.052000000000000000e+03 1.468682479858398438e+01 8.401263236999511719e+00 7.638096809387207031e-02 3.050561547279357910e-01 1.144311353564262390e-01 1.187245920300483704e-01
4.053000000000000000e+03 7.401412963867187500e+01 3.183188247680664062e+01 1.691109538078308105e+00 1.233748912811279297e+01 4.208579540252685547e+00 -1.960567474365234375e+00
4.054000000000000000e+03 3.827507019042968750e+01 1.510682010650634766e+01 -1.135193586349487305e+00 -1.289339423179626465e+00 -7.273599505424499512e-01 -1.191990137100219727e+00
4.055000000000000000e+03 6.850683593750000000e+01 2.973101234436035156e+01 -1.220972612500190735e-01 5.747850418090820312e+00 1.687726020812988281e+00 3.485846519470214844e+00
4.056000000000000000e+03 1.912954330444335938e+01 1.358818054199218750e+01 7.604661583900451660e-02 1.552929729223251343e-01 6.940187513828277588e-02 1.069307848811149597e-01
4.057000000000000000e+03 1.830198860168457031e+01 1.228424358367919922e+01 8.308605849742889404e-02 1.692959368228912354e-01 7.571459561586380005e-02 1.177598536014556885e-01
4.058000000000000000e+03 7.316218566894531250e+01 3.180721473693847656e+01 1.564413666725158691e+00 1.397586345672607422e+01 4.662083148956298828e+00 -2.046177864074707031e+00
4.059000000000000000e+03 7.359540557861328125e+01 3.194513130187988281e+01 1.885388374328613281e+00 1.304760742187500000e+01 4.479898929595947266e+00 -2.032429456710815430e+00
4.060000000000000000e+03 2.507240486145019531e+01 1.407664299011230469e+00 -2.181320667266845703e+00 -2.988654971122741699e-01 -7.440558671951293945e-01 -8.063309788703918457e-01
4.061000000000000000e+03 2.453976058959960938e+01 5.074278116226196289e-01 -1.275548815727233887e+00 1.367294192314147949e-01 -3.416458368301391602e-01 -5.992693901062011719e-01
4.062000000000000000e+03 5.042827606201171875e+01 2.736606597900390625e+01 -1.279892444610595703e+00 -6.538729667663574219e-01 -5.801296234130859375e-01 -1.026672363281250000e+00
4.063000000000000000e+03 4.959051895141601562e+01 2.658390617370605469e+01 -1.260690331459045410e+00 -7.639641761779785156e-01 -6.073963642120361328e-01 -1.073764801025390625e+00
4.064000000000000000e+03 3.881055831909179688e+01 1.653568267822265625e+01 -1.180926442146301270e+00 -1.325827479362487793e+00 -7.520261406898498535e-01 -1.249874472618103027e+00
4.065000000000000000e+03 3.845267868041992188e+01 1.592694473266601562e+01 -1.170843601226806641e+00 -1.335197567939758301e+00 -7.518123388290405273e-01 -1.234914779663085938e+00
4.066000000000000000e+03 4.985510635375976562e+01 2.682122421264648438e+01 -1.266371607780456543e+00 -7.355981469154357910e-01 -6.005909442901611328e-01 -1.059629321098327637e+00
4.067000000000000000e+03 2.022898292541503906e+01 1.467018032073974609e+01 7.469028979539871216e-02 1.419205665588378906e-01 6.498325616121292114e-02 1.010432913899421692e-01
4.068000000000000000e+03 7.408802032470703125e+01 3.380023193359375000e+01 4.135821342468261719e+00 1.160089111328125000e+01 4.721013545989990234e+00 -2.099912464618682861e-01
4.069000000000000000e+03 3.491669464111328125e+01 1.112605667114257812e+01 -1.182856917381286621e+00 -1.283840298652648926e+00 -7.400091886520385742e-01 -1.165712833404541016e+00
4.070000000000000000e+03 2.491578483581542969e+01 1.885708427429199219e+01 6.569447368383407593e-02 1.075833365321159363e-01 5.198334529995918274e-02 8.467205613851547241e-02
4.071000000000000000e+03 2.501719284057617188e+01 1.833929252624511719e+01 7.153768092393875122e-02 1.077843979001045227e-01 5.379662290215492249e-02 8.796064555644989014e-02
4.072000000000000000e+03 3.350205612182617188e+01 9.115234375000000000e+00 -1.200755000114440918e+00 -1.242011189460754395e+00 -7.328298687934875488e-01 -1.136398196220397949e+00
4.073000000000000000e+03 4.234939193725585938e+01 1.932185745239257812e+01 -1.068536400794982910e+00 -1.135166287422180176e+00 -6.611108183860778809e-01 -1.211554765701293945e+00
4.074000000000000000e+03 4.106892013549804688e+01 1.760722732543945312e+01 -1.064745426177978516e+00 -1.112616896629333496e+00 -6.532086730003356934e-01 -1.189128398895263672e+00
4.075000000000000000e+03 4.572002792358398438e+01 2.318491554260253906e+01 -1.273355007171630859e+00 -1.090851664543151855e+00 -7.092620134353637695e-01 -1.182108759880065918e+00
4.076000000000000000e+03 1.656716537475585938e+01 1.041087627410888672e+01 8.467490226030349731e-02 2.156573534011840820e-01 9.009967744350433350e-02 1.241494044661521912e-01
4.077000000000000000e+03 1.522417831420898438e+01 9.358353614807128906e+00 7.456354796886444092e-02 2.594600021839141846e-01 1.002070680260658264e-01 1.151457279920578003e-01
4.078000000000000000e+03 4.309534835815429688e+01 2.023521804809570312e+01 -1.104055404663085938e+00 -1.142919182777404785e+00 -6.740923523902893066e-01 -1.199330329895019531e+00
4.079000000000000000e+03 3.580854034423828125e+01 1.216683006286621094e+01 -1.166637063026428223e+00 -1.293211936950683594e+00 -7.379546761512756348e-01 -1.174321889877319336e+00
4.080000000000000000e+03 3.267224884033203125e+01 2.679155921936035156e+01 4.677508771419525146e-02 7.585106045007705688e-02 3.678784519433975220e-02 5.983221158385276794e-02
4.081000000000000000e+03 2.239962387084960938e+01 1.644036865234375000e+01 7.204675674438476562e-02 1.262909322977066040e-01 5.950130894780158997e-02 9.538717567920684814e-02
4.082000000000000000e+03 2.837199592590332031e+01 2.354243087768554688e+01 4.508413374423980713e-02 8.945465832948684692e-02 4.036163538694381714e-02 6.812968105077743530e-02
4.083000000000000000e+03 3.853023910522460938e+01 1.540972042083740234e+01 -1.134920477867126465e+00 -1.280127167701721191e+00 -7.245143055915832520e-01 -1.191824197769165039e+00
4.084000000000000000e+03 3.914012145996093750e+01 1.642093086242675781e+01 -1.147929310798645020e+00 -1.267012238502502441e+00 -7.244824767112731934e-01 -1.217680931091308594e+00
4.085000000000000000e+03 3.293545532226562500e+01 2.831595230102539062e+01 4.432657733559608459e-02 7.531662285327911377e-02 3.589295968413352966e-02 5.637633800506591797e-02
4.086000000000000000e+03 3.259817886352539062e+01 2.790132331848144531e+01 4.418969154357910156e-02 7.585402578115463257e-02 3.601311519742012024e-02 5.688141286373138428e-02
4.087000000000000000e+03 2.560747909545898438e+01 1.970477104187011719e+01 6.172459200024604797e-02 1.041183620691299438e-01 4.975288733839988708e-02 8.107525110244750977e-02
4.088000000000000000e+03 1.682180404663085938e+01 1.068611812591552734e+01 8.431708067655563354e-02 2.040317654609680176e-01 8.650465309619903564e-02 1.235071346163749695e-01
4.089000000000000000e+03 5.356477737426757812e+01 2.828816986083984375e+01 -1.232018470764160156e+00 2.633817493915557861e-03 -3.688153922557830811e-01 -8.570351600646972656e-01
4.090000000000000000e+03 5.340080261230468750e+01 2.958473777770996094e+01 -1.327865123748779297e+00 -6.831899285316467285e-02 -4.188552498817443848e-01 -8.970367908477783203e-01
4.091000000000000000e+03 4.253587722778320312e+01 1.964513397216796875e+01 -1.078193426132202148e+00 -1.145413637161254883e+00 -6.670821309089660645e-01 -1.213184475898742676e+00
4.092000000000000000e+03 4.039196777343750000e+01 1.696953773498535156e+01 -1.085759878158569336e+00 -1.138981699943542480e+00 -6.674224734306335449e-01 -1.180987477302551270e+00
4.093000000000000000e+03 3.946691894531250000e+01 1.651589393615722656e+01 -1.136492609977722168e+00 -1.228114008903503418e+00 -7.093819975852966309e-01 -1.201900839805603027e+00
4.094000000000000000e+03 3.038969612121582031e+01 4.430875301361083984e+00 -1.822889566421508789e+00 -9.563211798667907715e-01 -8.337632417678833008e-01 -7.538930773735046387e-01
4.095000000000000000e+03 2.955381202697753906e+01 4.411037921905517578e+00 -2.047428131103515625e+00 -1.122316718101501465e+00 -9.509234428405761719e-01 -8.771995902061462402e-01
4.096000000000000000e+03 2.890974235534667969e+01 2.321813964843750000e+01 4.866391420364379883e-02 8.786030858755111694e-02 4.095726832747459412e-02 6.961692869663238525e-02
4.097000000000000000e+03 3.878206634521484375e+01 1.572754192352294922e+01 -1.135765433311462402e+00 -1.268862843513488770e+00 -7.213884592056274414e-01 -1.193323254585266113e+00
4.098000000000000000e+03 3.902234268188476562e+01 1.607447052001953125e+01 -1.141576170921325684e+00 -1.260876297950744629e+00 -7.207357883453369141e-01 -1.200436949729919434e+00
4.099000000000000000e+03 1.802321052551269531e+01 1.140817737579345703e+01 9.136284887790679932e-02 1.809370219707489014e-01 8.168996125459671021e-02 1.255226135253906250e-01
4.100000000000000000e+03 3.307375335693359375e+01 9.326288223266601562e+00 -1.237498283386230469e+00 -1.283517837524414062e+00 -7.563048005104064941e-01 -1.177779197692871094e+00
4.101000000000000000e+03 4.538391494750976562e+01 2.240910339355468750e+01 -1.200024366378784180e+00 -1.067804694175720215e+00 -6.803487539291381836e-01 -1.149962425231933594e+00
4.102000000000000000e+03 2.783174133300781250e+01 2.215665817260742188e+01 5.141160264611244202e-02 9.228218346834182739e-02 4.310813546180725098e-02 7.238481193780899048e-02
4.103000000000000000e+03 1.874707221984863281e+01 1.343002986907958984e+01 7.342133671045303345e-02 1.570922732353210449e-01 6.915408372879028320e-02 1.063155010342597961e-01
4.104000000000000000e+03 1.373944377899169922e+01 8.166307449340820312e+00 6.678619980812072754e-02 3.250532150268554688e-01 1.175518259406089783e-01 6.981913745403289795e-02
4.105000000000000000e+03 2.098596382141113281e+01 1.524966049194335938e+01 7.451315224170684814e-02 1.361155509948730469e-01 6.318861246109008789e-02 9.915401786565780640e-02
4.106000000000000000e+03 4.710184860229492188e+01 2.387387084960937500e+01 -1.224883556365966797e+00 -9.199540019035339355e-01 -6.434512734413146973e-01 -1.120220422744750977e+00
4.107000000000000000e+03 3.541063690185546875e+01 1.129378890991210938e+01 -1.148838162422180176e+00 -1.254611849784851074e+00 -7.210350036621093750e-01 -1.136251211166381836e+00
4.108000000000000000e+03 3.552365112304687500e+01 1.187709140777587891e+01 -1.173957228660583496e+00 -1.298616886138916016e+00 -7.417722344398498535e-01 -1.177502036094665527e+00
4.109000000000000000e+03 2.214717292785644531e+01 1.611249351501464844e+01 7.321701943874359131e-02 1.279249042272567749e-01 6.034257635474205017e-02 9.671548753976821899e-02
4.110000000000000000e+03 3.281622695922851562e+01 2.719784736633300781e+01 4.658138379454612732e-02 7.609970122575759888e-02 3.680432587862014771e-02 5.917995050549507141e-02
4.111000000000000000e+03 4.567019271850585938e+01 2.266729164123535156e+01 -1.210499763488769531e+00 -1.048586368560791016e+00 -6.777258515357971191e-01 -1.143075704574584961e+00
4.112000000000000000e+03 3.378506851196289062e+01 1.021656322479248047e+01 -1.226976990699768066e+00 -1.304725885391235352e+00 -7.595108747482299805e-01 -1.188672065734863281e+00
4.113000000000000000e+03 3.330190277099609375e+01 6.705394268035888672e+00 -1.226908564567565918e+00 -9.654583334922790527e-01 -6.577100753784179688e-01 -9.338131546974182129e-01
4.114000000000000000e+03 3.316541671752929688e+01 6.365880489349365234e+00 -1.228105306625366211e+00 -9.539911150932312012e-01 -6.546289324760437012e-01 -9.011598825454711914e-01
4.115000000000000000e+03 3.370849227905273438e+01 9.510479927062988281e+00 -1.205835580825805664e+00 -1.248689174652099609e+00 -7.363573908805847168e-01 -1.141815662384033203e+00
4.116000000000000000e+03 2.450841903686523438e+01 1.778101921081542969e+01 7.381118088960647583e-02 1.105300337076187134e-01 5.530236661434173584e-02 9.127204120159149170e-02
4.117000000000000000e+03 1.634527587890625000e+01 1.063852691650390625e+01 7.727841287851333618e-02 2.129435539245605469e-01 8.706659078598022461e-02 1.183666065335273743e-01
4.118000000000000000e+03 1.600947380065917969e+01 1.003888607025146484e+01 8.128328621387481689e-02 2.310529351234436035e-01 9.370087087154388428e-02 1.214613467454910278e-01
4.119000000000000000e+03 1.154920768737792969e+01 5.515717506408691406e+00 2.256158888339996338e-01 2.678511440753936768e-01 1.480401158332824707e-01 -1.585992276668548584e-01
4.120000000000000000e+03 1.193283176422119141e+01 5.817092418670654297e+00 1.744393557310104370e-01 3.444926738739013672e-01 1.556796133518218994e-01 -1.341910660266876221e-01
4.121000000000000000e+03 1.262634944915771484e+01 5.815897941589355469e+00 1.193289831280708313e-01 4.799726009368896484e-01 1.797904670238494873e-01 -7.608010619878768921e-02
4.122000000000000000e+03 9.808300018310546875e+00 6.870203495025634766e+00 1.765933632850646973e-01 3.371264040470123291e-02 6.309179961681365967e-02 -5.730080232024192810e-02
4.123000000000000000e+03 3.098944854736328125e+01 2.595077133178710938e+01 4.410358518362045288e-02 7.944279909133911133e-02 3.706391528248786926e-02 6.213974952697753906e-02
4.124000000000000000e+03 3.006379699707031250e+01 2.493539237976074219e+01 4.508385434746742249e-02 8.275409042835235596e-02 3.835138306021690369e-02 6.501362472772598267e-02
4.125000000000000000e+03 2.639744758605957031e+01 -4.939702153205871582e-01 -1.591913402080535889e-01 -2.289148271083831787e-01 -1.164318472146987915e-01 -2.834309935569763184e-01
4.126000000000000000e+03 2.652375984191894531e+01 -5.901969969272613525e-03 -3.647371828556060791e-01 -3.182836472988128662e-01 -2.049062550067901611e-01 -2.292176634073257446e-01
4.127000000000000000e+03 1.651864433288574219e+01 1.093105411529541016e+01 7.599716633558273315e-02 2.078744024038314819e-01 8.516146987676620483e-02 1.153780147433280945e-01
4.128000000000000000e+03 2.548540115356445312e+01 1.287814736366271973e+00 -1.811838388442993164e+00 -2.905442416667938232e-01 -6.307147741317749023e-01 -6.631067991256713867e-01
4.129000000000000000e+03 1.540624427795410156e+01 9.781999588012695312e+00 7.438394427299499512e-02 2.454231828451156616e-01 9.594213217496871948e-02 1.124591603875160217e-01
4.130000000000000000e+03 1.467566013336181641e+01 9.225485801696777344e+00 6.728883087635040283e-02 2.734694778919219971e-01 1.022274941205978394e-01 9.803895652294158936e-02
4.131000000000000000e+03 3.079884910583496094e+01 4.828171253204345703e+00 -1.779096007347106934e+00 -9.327322244644165039e-01 -8.135484457015991211e-01 -8.201004266738891602e-01
4.132000000000000000e+03 3.222788619995117188e+01 5.207564353942871094e+00 -1.416951060295104980e+00 -8.569141030311584473e-01 -6.821595430374145508e-01 -7.889257073402404785e-01
4.133000000000000000e+03 2.948729515075683594e+01 2.361948585510253906e+01 4.850361123681068420e-02 8.574309200048446655e-02 4.027401283383369446e-02 6.910661607980728149e-02
4.134000000000000000e+03 1.372662258148193359e+01 7.233146667480468750e+00 7.616111636161804199e-02 3.920228183269500732e-01 1.404551863670349121e-01 8.027096092700958252e-02
4.135000000000000000e+03 6.731654357910156250e+01 2.996242904663085938e+01 1.862061470746994019e-01 3.239093303680419922e+00 1.027589917182922363e+00 2.715648651123046875e+00
4.136000000000000000e+03 3.126291465759277344e+01 4.815231323242187500e+00 -1.618589162826538086e+00 -8.721375465393066406e-01 -7.472180128097534180e-01 -7.724201679229736328e-01
4.137000000000000000e+03 2.802940368652343750e+01 -5.889068245887756348e-01 2.354433760046958923e-03 -4.203512966632843018e-01 -1.253990530967712402e-01 -3.571385145187377930e-02
4.138000000000000000e+03 3.186098861694335938e+01 2.661256217956542969e+01 4.508490860462188721e-02 7.721817493438720703e-02 3.669092431664466858e-02 6.032013893127441406e-02
4.139000000000000000e+03 3.052770233154296875e+01 2.567533302307128906e+01 4.408675804734230042e-02 8.123656362295150757e-02 3.759699687361717224e-02 6.307047605514526367e-02
4.140000000000000000e+03 5.435695648193359375e+01 2.934045600891113281e+01 -1.303419947624206543e+00 1.147460192441940308e-01 -3.566021621227264404e-01 -8.633450865745544434e-01
4.141000000000000000e+03 5.406836700439453125e+01 2.974684715270996094e+01 -1.336204886436462402e+00 4.369096085429191589e-02 -3.877541720867156982e-01 -8.739005327224731445e-01
4.142000000000000000e+03 6.596665954589843750e+01 2.893575286865234375e+01 6.714071333408355713e-02 2.399667978286743164e+00 7.400426268577575684e-01 1.778670549392700195e+00
4.143000000000000000e+03 6.592565155029296875e+01 2.934027862548828125e+01 1.955254189670085907e-02 2.094223976135253906e+00 6.341329813003540039e-01 1.693142056465148926e+00
4.144000000000000000e+03 2.815482330322265625e+01 2.887525558471679688e+00 -1.914986371994018555e+00 -8.855538964271545410e-01 -8.401620984077453613e-01 -7.131752371788024902e-01
4.145000000000000000e+03 7.341130828857421875e+01 2.743780136108398438e+01 -1.376593828201293945e+00 1.064780712127685547e+01 2.781364202499389648e+00 -1.904802322387695312e-01
4.146000000000000000e+03 3.367530822753906250e+01 7.457632541656494141e+00 -1.167299628257751465e+00 -1.027217030525207520e+00 -6.583549976348876953e-01 -9.690495729446411133e-01
4.147000000000000000e+03 3.421706771850585938e+01 3.052967834472656250e+01 4.429734125733375549e-02 7.208534330129623413e-02 3.491480648517608643e-02 5.086648091673851013e-02
4.148000000000000000e+03 6.507369995117187500e+01 2.870742225646972656e+01 -3.031832911074161530e-02 1.871497154235839844e+00 5.523536205291748047e-01 1.287997722625732422e+00
4.149000000000000000e+03 2.996752166748046875e+01 2.550559616088867188e+01 4.200901836156845093e-02 8.239501714706420898e-02 3.732120990753173828e-02 6.295047700405120850e-02
4.150000000000000000e+03 2.978696441650390625e+01 2.423004150390625000e+01 4.716277122497558594e-02 8.400887250900268555e-02 3.935149312019348145e-02 6.751206517219543457e-02
4.151000000000000000e+03 6.382582092285156250e+01 2.891507530212402344e+01 -2.675318121910095215e-01 1.210823416709899902e+00 2.829874753952026367e-01 6.574892401695251465e-01
4.152000000000000000e+03 7.406387329101562500e+01 2.865524673461914062e+01 -1.074096798896789551e+00 1.122019290924072266e+01 3.043828725814819336e+00 -9.411573410034179688e-01
4.153000000000000000e+03 7.294049072265625000e+01 3.114420700073242188e+01 1.017543375492095947e-01 1.405540275573730469e+01 4.247147083282470703e+00 -1.447792530059814453e+00
4.154000000000000000e+03 5.443467712402343750e+01 3.017381095886230469e+01 -1.354137182235717773e+00 1.096962615847587585e-01 -3.733322620391845703e-01 -8.716415762901306152e-01
4.155000000000000000e+03 3.366972351074218750e+01 2.828685188293457031e+01 4.653788730502128601e-02 7.417000830173492432e-02 3.621236979961395264e-02 5.702458694577217102e-02
4.156000000000000000e+03 7.521855163574218750e+01 3.183557128906250000e+01 1.365355849266052246e+00 1.056763744354248047e+01 3.579897880554199219e+00 -1.718257069587707520e+00
4.157000000000000000e+03 7.537190246582031250e+01 3.239008712768554688e+01 1.904750585556030273e+00 1.026794052124023438e+01 3.651807308197021484e+00 -1.441215872764587402e+00
4.158000000000000000e+03 3.753144454956054688e+01 3.181571578979492188e+01 5.133356526494026184e-02 6.280849128961563110e-02 3.424261882901191711e-02 5.083296447992324829e-02
4.159000000000000000e+03 3.719786453247070312e+01 3.245785522460937500e+01 5.205566808581352234e-02 6.317244470119476318e-02 3.456843644380569458e-02 4.960352927446365356e-02
4.160000000000000000e+03 3.773135375976562500e+01 3.277226638793945312e+01 5.271221697330474854e-02 6.073797866702079773e-02 3.403506055474281311e-02 4.820921272039413452e-02
4.161000000000000000e+03 5.574203109741210938e+01 2.811536216735839844e+01 -1.096922755241394043e+00 3.364132642745971680e-01 -2.281528413295745850e-01 -7.674950957298278809e-01
4.162000000000000000e+03 5.565799331665039062e+01 2.936418533325195312e+01 -1.267680287361145020e+00 2.818750143051147461e-01 -2.957415878772735596e-01 -8.347535133361816406e-01
4.163000000000000000e+03 2.870089721679687500e+01 -1.063946604728698730e+00 1.723905354738235474e-01 -4.400811791419982910e-01 -8.030719310045242310e-02 -2.901480533182621002e-02
4.164000000000000000e+03 3.952017974853515625e+01 3.490255737304687500e+01 6.134897843003273010e-02 5.005728453397750854e-02 3.342187777161598206e-02 4.442450031638145447e-02
4.165000000000000000e+03 6.456163787841796875e+01 2.855711364746093750e+01 -7.247987389564514160e-02 1.645584106445312500e+00 4.719312787055969238e-01 1.045411109924316406e+00
4.166000000000000000e+03 6.496001434326171875e+01 2.920367622375488281e+01 -1.347016692161560059e-01 1.524611830711364746e+00 4.169730544090270996e-01 1.144187331199645996e+00
4.167000000000000000e+03 6.126507949829101562e+01 2.863983535766601562e+01 -6.165680885314941406e-01 7.634388804435729980e-01 4.406124725937843323e-02 -1.079249829053878784e-01
4.168000000000000000e+03 6.524134826660156250e+01 2.822673034667968750e+01 3.648371994495391846e-02 2.251043081283569336e+00 6.862580180168151855e-01 1.431845307350158691e+00
4.169000000000000000e+03 3.644893646240234375e+01 3.097210884094238281e+01 5.074236541986465454e-02 6.773638725280761719e-02 3.554362431168556213e-02 5.264652892947196960e-02
4.170000000000000000e+03 1.190531730651855469e+01 6.409893035888671875e+00 1.392398178577423096e-01 3.075131475925445557e-01 1.340258866548538208e-01 -9.669498354196548462e-02
4.171000000000000000e+03 7.370737457275390625e+01 2.988003349304199219e+01 -7.535551190376281738e-01 1.218560886383056641e+01 3.429616212844848633e+00 -1.199769258499145508e+00
4.172000000000000000e+03 6.771829605102539062e+00 7.946806907653808594e+00 1.027965024113655090e-01 -8.646564185619354248e-02 4.899257328361272812e-03 2.640138939023017883e-02
4.173000000000000000e+03 1.195566654205322266e+01 5.136211872100830078e+00 2.390506863594055176e-01 3.639535009860992432e-01 1.809012591838836670e-01 -1.848286092281341553e-01
4.174000000000000000e+03 1.225632095336914062e+01 6.125986099243164062e+00 1.304801404476165771e-01 4.027049839496612549e-01 1.599555313587188721e-01 -9.304875135421752930e-02
4.175000000000000000e+03 3.345382690429687500e+01 8.091564178466796875e+00 -1.182295083999633789e+00 -1.125241994857788086e+00 -6.922610998153686523e-01 -1.053112864494323730e+00
4.176000000000000000e+03 8.366662025451660156e+00 -7.641338348388671875e+00 -2.332517206668853760e-01 -2.948714196681976318e-01 -1.584369391202926636e-01 -4.746107459068298340e-01
4.177000000000000000e+03 3.346766662597656250e+01 7.076608657836914062e+00 -1.183062314987182617e+00 -1.014074563980102539e+00 -6.591410636901855469e-01 -9.556528329849243164e-01
4.178000000000000000e+03 5.735696411132812500e+01 2.718102645874023438e+01 -8.113724589347839355e-01 5.677782297134399414e-01 -7.307828217744827271e-02 -5.736581087112426758e-01
4.179000000000000000e+03 5.610707855224609375e+01 2.730079078674316406e+01 -9.529283046722412109e-01 4.271532595157623291e-01 -1.577325016260147095e-01 -6.857554316520690918e-01
4.180000000000000000e+03 5.948149871826171875e+01 2.825496292114257812e+01 -7.853109836578369141e-01 6.181508302688598633e-01 -5.014804378151893616e-02 -4.336967468261718750e-01
4.181000000000000000e+03 6.183951187133789062e+01 2.839911842346191406e+01 -5.031630396842956543e-01 8.762244582176208496e-01 1.119184270501136780e-01 4.225493222475051880e-02
4.182000000000000000e+03 1.053855895996093750e+01 6.275285720825195312e+00 2.034612447023391724e-01 8.660123497247695923e-02 8.701874315738677979e-02 -9.288710355758666992e-02
4.183000000000000000e+03 7.636711120605468750e+00 8.735563278198242188e+00 1.008055806159973145e-01 -4.223336651921272278e-02 1.757166348397731781e-02 -3.605409990996122360e-03
4.184000000000000000e+03 7.029181671142578125e+01 2.252386283874511719e+01 -6.182877421379089355e-01 7.112137317657470703e+00 1.948154926300048828e+00 1.103974103927612305e+00
4.185000000000000000e+03 7.410111236572265625e+01 2.798154449462890625e+01 -1.164697766304016113e+00 1.083072280883789062e+01 2.899807453155517578e+00 -7.466400861740112305e-01
4.186000000000000000e+03 7.323928070068359375e+01 2.687053680419921875e+01 -1.363700032234191895e+00 1.027863979339599609e+01 2.674482107162475586e+00 2.674987167119979858e-02
4.187000000000000000e+03 5.544297027587890625e+01 2.860718345642089844e+01 -1.184579133987426758e+00 2.823389470577239990e-01 -2.706720530986785889e-01 -8.074073791503906250e-01
4.188000000000000000e+03 3.217258071899414062e+01 -3.041428089141845703e+00 5.307596921920776367e-01 -6.342494487762451172e-01 -3.104692883789539337e-02 1.911244355142116547e-02
4.189000000000000000e+03 2.967864990234375000e+01 3.698976516723632812e+00 -1.819968104362487793e+00 -9.704902172088623047e-01 -8.371375203132629395e-01 -6.659756898880004883e-01
4.190000000000000000e+03 6.965856170654296875e+01 3.366399765014648438e+00 1.230415403842926025e-01 5.806314945220947266e+00 1.778807044029235840e+00 6.125804185867309570e-01
4.191000000000000000e+03 7.068700408935546875e+01 -6.443349719047546387e-01 1.086342260241508484e-01 5.976528167724609375e+00 1.825548768043518066e+00 5.029365420341491699e-01
4.192000000000000000e+03 1.096039772033691406e+01 6.389582157135009766e+00 1.860628724098205566e-01 1.572876125574111938e-01 1.030051484704017639e-01 -1.058171018958091736e-01
4.193000000000000000e+03 1.004220199584960938e+01 7.898643970489501953e+00 1.312919259071350098e-01 8.101075142621994019e-02 6.369080394506454468e-02 -5.296729505062103271e-02
4.194000000000000000e+03 5.867515182495117188e+01 2.770667266845703125e+01 -7.524541616439819336e-01 6.425299048423767090e-01 -3.297727555036544800e-02 -4.765526652336120605e-01
4.195000000000000000e+03 3.253043746948242188e+01 -3.545657634735107422e+00 6.073879599571228027e-01 -6.305581927299499512e-01 -6.951075047254562378e-03 -2.694042958319187164e-02
4.196000000000000000e+03 3.549014663696289062e+01 -5.781510353088378906e+00 6.446226239204406738e-01 -5.347841978073120117e-01 3.295153379440307617e-02 -2.639571763575077057e-02
4.197000000000000000e+03 1.224061393737792969e+01 -7.612107753753662109e+00 -3.144450783729553223e-01 -4.986134767532348633e-01 -2.439175695180892944e-01 -7.414420247077941895e-01
4.198000000000000000e+03 6.936349487304687500e+01 -3.965568065643310547e+00 1.164316534996032715e-01 5.567937374114990234e+00 1.705310702323913574e+00 4.872280359268188477e-01
4.199000000000000000e+03 7.039692687988281250e+01 -6.274602890014648438e+00 9.293141961097717285e-02 5.775729179382324219e+00 1.760598182678222656e+00 4.117691218852996826e-01
4.200000000000000000e+03 1.258995628356933594e+01 -8.753587722778320312e+00 -1.641813218593597412e-01 -6.064814329147338867e-01 -2.311988174915313721e-01 -7.430818676948547363e-01
4.201000000000000000e+03 5.798411560058593750e+01 2.778046607971191406e+01 -8.483394980430603027e-01 5.634069442749023438e-01 -8.547977358102798462e-02 -5.734987258911132812e-01
4.202000000000000000e+03 5.732773590087890625e+01 2.780839157104492188e+01 -9.234297871589660645e-01 5.098392367362976074e-01 -1.240771710872650146e-01 -6.399197578430175781e-01
4.203000000000000000e+03 3.941694641113281250e+01 3.327178573608398438e+01 5.566389486193656921e-02 5.492973327636718750e-02 3.317808732390403748e-02 4.910193756222724915e-02
4.204000000000000000e+03 8.392105102539062500e+00 -9.452760696411132812e+00 -1.412022411823272705e-01 -4.061849713325500488e-01 -1.642161756753921509e-01 -5.226995944976806641e-01
4.205000000000000000e+03 6.988874816894531250e+01 -1.024254608154296875e+01 8.178305625915527344e-02 5.561508655548095703e+00 1.692987561225891113e+00 3.652996122837066650e-01
4.206000000000000000e+03 7.038246917724609375e+01 -1.356660842895507812e+01 6.211577355861663818e-02 5.596776008605957031e+00 1.697667479515075684e+00 3.123721778392791748e-01
4.207000000000000000e+03 3.675531768798828125e+01 4.133488845825195312e+01 6.180876493453979492e-02 5.054748430848121643e-02 3.370687738060951233e-02 5.709976889193058014e-03
4.208000000000000000e+03 3.888548278808593750e+01 -6.842526435852050781e+00 5.551180839538574219e-01 -2.923960089683532715e-01 7.881661504507064819e-02 2.133082598447799683e-02
4.209000000000000000e+03 3.825672149658203125e+01 -6.170093536376953125e+00 5.755868554115295410e-01 -3.608267903327941895e-01 6.442803144454956055e-02 1.806818321347236633e-02
4.210000000000000000e+03 1.056020832061767578e+01 -8.704116821289062500e+00 -2.317265570163726807e-01 -4.547708034515380859e-01 -2.059492021799087524e-01 -6.601418256759643555e-01
4.211000000000000000e+03 1.205192852020263672e+01 -9.525458335876464844e+00 -1.396990120410919189e-01 -5.974915623664855957e-01 -2.211571782827377319e-01 -7.169477343559265137e-01
4.212000000000000000e+03 8.876094818115234375e+00 1.025374698638916016e+01 6.914148479700088501e-02 2.796560525894165039e-02 2.913212589919567108e-02 -2.363222278654575348e-02
4.213000000000000000e+03 1.887776374816894531e+01 -1.896850776672363281e+01 2.610748112201690674e-01 -1.492594480514526367e-01 3.354460373520851135e-02 -3.377730846405029297e-01
4.214000000000000000e+03 7.025669097900390625e+01 -1.953193664550781250e+01 3.955939412117004395e-02 5.458273410797119141e+00 1.649349927902221680e+00 2.624590694904327393e-01
4.215000000000000000e+03 8.745141983032226562e+00 9.681849479675292969e+00 8.754630386829376221e-02 1.847094669938087463e-02 3.180517628788948059e-02 -2.506781741976737976e-02
4.216000000000000000e+03 7.054074096679687500e+01 2.162736511230468750e+01 -5.320500731468200684e-01 7.074761867523193359e+00 1.962813496589660645e+00 9.835558533668518066e-01
4.217000000000000000e+03 7.695372104644775391e+00 -1.406698513031005859e+01 3.341210633516311646e-02 -6.222076416015625000e-01 -1.766386479139328003e-01 -4.871250987052917480e-01
4.218000000000000000e+03 8.884320259094238281e+00 -1.386307621002197266e+01 4.722101241350173950e-02 -6.079156398773193359e-01 -1.682083755731582642e-01 -5.239203572273254395e-01
4.219000000000000000e+03 1.351922130584716797e+01 -1.257283210754394531e+01 1.237430796027183533e-01 -6.518717408180236816e-01 -1.584385931491851807e-01 -6.079270839691162109e-01
4.220000000000000000e+03 1.310923957824707031e+01 -1.061540889739990234e+01 -5.495170131325721741e-03 -6.452776789665222168e-01 -1.952318549156188965e-01 -6.850232481956481934e-01
4.221000000000000000e+03 7.075718688964843750e+01 -1.713229537010192871e+00 1.001531481742858887e-01 5.956845283508300781e+00 1.817099452018737793e+00 4.796257317066192627e-01
4.222000000000000000e+03 7.057557678222656250e+01 1.490145492553710938e+01 -5.536331236362457275e-02 6.445022106170654297e+00 1.916897654533386230e+00 7.722146511077880859e-01
4.223000000000000000e+03 7.553882122039794922e+00 -1.285449981689453125e+01 2.941575832664966583e-03 -5.632252097129821777e-01 -1.680850833654403687e-01 -4.884058535099029541e-01
4.224000000000000000e+03 7.008303070068359375e+01 1.198463916778564453e+01 3.801394999027252197e-02 6.180278778076171875e+00 1.865487813949584961e+00 7.449664473533630371e-01
4.225000000000000000e+03 6.989555358886718750e+01 4.375532627105712891e+00 1.180633604526519775e-01 5.903427124023437500e+00 1.806447267532348633e+00 6.205865144729614258e-01
4.226000000000000000e+03 7.039211273193359375e+01 2.025279045104980469e+00 1.088350415229797363e-01 5.973540306091308594e+00 1.824712514877319336e+00 5.685212016105651855e-01
4.227000000000000000e+03 6.997212219238281250e+01 8.721528053283691406e-01 1.171683073043823242e-01 5.842338562011718750e+00 1.787852168083190918e+00 5.560311079025268555e-01
4.228000000000000000e+03 1.000090789794921875e+01 -2.550041389465332031e+01 1.147985681891441345e-01 -7.666745185852050781e-01 -1.955627799034118652e-01 -3.031719923019409180e-01
4.229000000000000000e+03 6.967359924316406250e+01 -2.332116127014160156e+00 1.200775578618049622e-01 5.674871921539306641e+00 1.738484859466552734e+00 4.990351200103759766e-01
4.230000000000000000e+03 4.137491607666015625e+01 -9.991641044616699219e+00 4.918107390403747559e-01 1.974419318139553070e-02 1.534664779901504517e-01 9.299112483859062195e-03
4.231000000000000000e+03 3.893024063110351562e+01 3.647777557373046875e+01 6.254738569259643555e-02 4.969685152173042297e-02 3.367327153682708740e-02 3.701315820217132568e-02
4.232000000000000000e+03 4.147201538085937500e+01 3.592428970336914062e+01 7.713584601879119873e-02 3.967807441949844360e-02 3.504417836666107178e-02 4.208144918084144592e-02
4.233000000000000000e+03 7.022314453125000000e+01 -2.342633438110351562e+01 4.167550802230834961e-02 5.395332813262939453e+00 1.631102442741394043e+00 2.301487773656845093e-01
4.234000000000000000e+03 4.317066955566406250e+01 -1.321306800842285156e+01 3.660426735877990723e-01 3.222426772117614746e-01 2.064856141805648804e-01 1.846135221421718597e-02
4.235000000000000000e+03 3.768824768066406250e+01 -5.435141086578369141e+00 5.547248125076293945e-01 -4.205244481563568115e-01 4.026010632514953613e-02 3.460194915533065796e-02
4.236000000000000000e+03 7.074480438232421875e+01 -8.767290115356445312e+00 7.498143613338470459e-02 5.799836158752441406e+00 1.762445211410522461e+00 3.655782043933868408e-01
4.237000000000000000e+03 8.316486358642578125e+00 2.025916290283203125e+01 -5.625633057206869125e-03 -7.829956710338592529e-03 -4.036677069962024689e-03 -1.861498691141605377e-02
4.238000000000000000e+03 4.041653442382812500e+01 -7.862255096435546875e+00 5.267257690429687500e-01 -1.257467269897460938e-01 1.202937066555023193e-01 2.505381219089031219e-02
4.239000000000000000e+03 3.990848159790039062e+01 -8.743891716003417969e+00 5.536156296730041504e-01 -1.595951169729232788e-01 1.182061508297920227e-01 8.059096522629261017e-03
4.240000000000000000e+03 6.963462066650390625e+01 -2.043483161926269531e+01 4.900383949279785156e-02 5.353657722473144531e+00 1.620798468589782715e+00 2.633110284805297852e-01
4.241000000000000000e+03 8.435105323791503906e+00 -1.046794795989990234e+01 -8.990129083395004272e-02 -4.773251712322235107e-01 -1.701679378747940063e-01 -5.475914478302001953e-01
4.242000000000000000e+03 9.427706718444824219e+00 -1.036404132843017578e+01 -8.923757821321487427e-02 -4.942353367805480957e-01 -1.750418692827224731e-01 -5.843072533607482910e-01
4.243000000000000000e+03 3.960541152954101562e+01 -7.401093482971191406e+00 5.681651234626770020e-01 -2.141392827033996582e-01 1.062077507376670837e-01 2.190742082893848419e-02
4.244000000000000000e+03 6.976801300048828125e+01 2.058922004699707031e+01 -3.920710682868957520e-01 6.538362979888916016e+00 1.843887567520141602e+00 1.020280122756958008e+00
4.245000000000000000e+03 7.153691101074218750e+01 2.182118606567382812e+01 -6.191543936729431152e-01 7.631069660186767578e+00 2.103574514389038086e+00 8.207774758338928223e-01
4.246000000000000000e+03 6.932668304443359375e+01 9.062491416931152344e+00 9.775121510028839111e-02 5.853742599487304688e+00 1.785448074340820312e+00 7.175287008285522461e-01
4.247000000000000000e+03 3.368694686889648438e+01 -4.555318832397460938e+00 6.447513699531555176e-01 -5.900941491127014160e-01 1.639716885983943939e-02 -2.021988108754158020e-02
4.248000000000000000e+03 1.189721107482910156e+01 -1.970532608032226562e+01 1.819277554750442505e-01 -6.156130433082580566e-01 -1.301055848598480225e-01 -4.349797368049621582e-01
4.249000000000000000e+03 9.327706336975097656e+00 -1.762625694274902344e+01 1.178522780537605286e-01 -7.005847096443176270e-01 -1.748197376728057861e-01 -4.653747677803039551e-01
4.250000000000000000e+03 9.182897567749023438e+00 -1.634726905822753906e+01 1.021241396665573120e-01 -6.677549481391906738e-01 -1.696892380714416504e-01 -4.819038808345794678e-01
4.251000000000000000e+03 1.657138252258300781e+01 -1.731909942626953125e+01 2.514380514621734619e-01 -4.109064936637878418e-01 -4.784052446484565735e-02 -4.066314399242401123e-01
4.252000000000000000e+03 9.460524559020996094e+00 1.710886001586914062e+01 1.450615236535668373e-03 3.004787676036357880e-02 9.449547156691551208e-03 -1.457983348518610001e-02
4.253000000000000000e+03 8.305962562561035156e+00 1.609268188476562500e+01 6.684575229883193970e-03 5.377948749810457230e-03 3.618757240474224091e-03 -2.023272402584552765e-02
4.254000000000000000e+03 7.068136596679687500e+01 2.073446464538574219e+01 -4.526515603065490723e-01 7.027962684631347656e+00 1.972593307495117188e+00 9.073427319526672363e-01
4.255000000000000000e+03 7.073315429687500000e+01 1.988383483886718750e+01 -3.671779334545135498e-01 6.967571735382080078e+00 1.980118036270141602e+00 8.708286285400390625e-01
4.256000000000000000e+03 7.059719848632812500e+01 -7.556169986724853516e+00 8.334846049547195435e-02 5.790825843811035156e+00 1.762252211570739746e+00 3.861464858055114746e-01
4.257000000000000000e+03 6.937498474121093750e+01 -7.844525814056396484e+00 1.027267575263977051e-01 5.498929500579833984e+00 1.680496811866760254e+00 4.145687520503997803e-01
4.258000000000000000e+03 8.775767326354980469e+00 1.853714370727539062e+01 -2.529552206397056580e-03 8.411889895796775818e-03 1.764701330102980137e-03 -1.770467311143875122e-02
4.259000000000000000e+03 4.711611938476562500e+01 -2.085109138488769531e+01 3.588726371526718140e-02 1.076596379280090332e+00 3.337450921535491943e-01 7.564442604780197144e-02
4.260000000000000000e+03 4.463528442382812500e+01 -1.656857872009277344e+01 2.060832232236862183e-01 5.880554914474487305e-01 2.382416129112243652e-01 4.299451410770416260e-02
4.261000000000000000e+03 7.031619262695312500e+01 -1.626252174377441406e+01 4.961425065994262695e-02 5.549787044525146484e+00 1.679820418357849121e+00 2.829434871673583984e-01
4.262000000000000000e+03 6.760019683837890625e+01 -2.848613929748535156e+01 6.335126608610153198e-02 4.858410835266113281e+00 1.476528525352478027e+00 2.568330764770507812e-01
4.263000000000000000e+03 7.185197448730468750e+01 -7.349036693572998047e+00 6.514129787683486938e-02 6.070940494537353516e+00 1.840824484825134277e+00 3.567792475223541260e-01
4.264000000000000000e+03 6.946236419677734375e+01 1.106990337371826172e+01 6.942497938871383667e-02 5.924797534942626953e+00 1.798266768455505371e+00 7.483403682708740234e-01
4.265000000000000000e+03 6.983396148681640625e+01 9.689708709716796875e+00 8.942016959190368652e-02 6.026895523071289062e+00 1.834894657135009766e+00 7.210949063301086426e-01
4.266000000000000000e+03 8.550116539001464844e+00 -1.155111312866210938e+01 -3.433386236429214478e-02 -5.223056077957153320e-01 -1.669918447732925415e-01 -5.404213070869445801e-01
4.267000000000000000e+03 9.181581497192382812e+00 1.488194179534912109e+01 1.297008804976940155e-02 3.351328149437904358e-02 1.394501049071550369e-02 -1.770054362714290619e-02
4.268000000000000000e+03 1.050337028503417969e+01 2.717695617675781250e+01 -9.383904747664928436e-03 2.779819769784808159e-03 -1.981225330382585526e-03 -8.494828827679157257e-03
4.269000000000000000e+03 4.845755386352539062e+01 -2.388327980041503906e+01 -3.303641825914382935e-02 1.388212680816650391e+00 4.065528810024261475e-01 1.233427897095680237e-01
4.270000000000000000e+03 1.754054069519042969e+01 -2.021721649169921875e+01 2.557041645050048828e-01 -2.463092505931854248e-01 2.818476175889372826e-03 -3.612825572490692139e-01
4.271000000000000000e+03 4.811453628540039062e+01 -2.164878654479980469e+01 2.480820007622241974e-02 1.288036227226257324e+00 3.938533365726470947e-01 9.837738424539566040e-02
4.272000000000000000e+03 4.995658493041992188e+01 -2.098322868347167969e+01 5.800765380263328552e-02 1.632839560508728027e+00 5.072541236877441406e-01 1.316343843936920166e-01
4.273000000000000000e+03 6.694763946533203125e+01 -3.050140380859375000e+01 8.415236324071884155e-02 4.734567642211914062e+00 1.445616006851196289e+00 2.377445250749588013e-01
4.274000000000000000e+03 4.296675109863281250e+01 -1.604541969299316406e+01 2.223136425018310547e-01 3.200020492076873779e-01 1.626947075128555298e-01 3.479954227805137634e-02
4.275000000000000000e+03 7.121224975585937500e+01 8.255228042602539062e+00 7.507696747779846191e-02 6.419739246368408203e+00 1.948444843292236328e+00 6.400422453880310059e-01
4.276000000000000000e+03 7.046813964843750000e+01 7.609884738922119141e+00 8.652454614639282227e-02 6.173724651336669922e+00 1.878074765205383301e+00 6.669142246246337891e-01
4.277000000000000000e+03 5.228822708129882812e+01 -2.419830703735351562e+01 -8.882848545908927917e-03 2.160541296005249023e+00 6.454975008964538574e-01 2.097615450620651245e-01
4.278000000000000000e+03 6.844274139404296875e+01 -2.672014808654785156e+01 5.213790386915206909e-02 5.040453910827636719e+00 1.527777552604675293e+00 2.489754408597946167e-01
4.279000000000000000e+03 1.736400222778320312e+01 -2.954226875305175781e+01 2.559728324413299561e-01 -2.419816106557846069e-01 4.197369329631328583e-03 -2.859433293342590332e-01
4.280000000000000000e+03 1.860272598266601562e+01 -3.322618865966796875e+01 2.727929651737213135e-01 -2.045458406209945679e-01 2.047414332628250122e-02 -2.384462207555770874e-01
4.281000000000000000e+03 6.944087982177734375e+01 -3.558808517456054688e+01 8.747591823339462280e-02 5.109765529632568359e+00 1.559172391891479492e+00 1.320215463638305664e-01
4.282000000000000000e+03 2.726376152038574219e+01 2.555956602096557617e+00 -2.138387918472290039e+00 -7.882190942764282227e-01 -8.779821395874023438e-01 -8.209245800971984863e-01
4.283000000000000000e+03 2.704920768737792969e+01 7.585327029228210449e-01 -1.082977175712585449e+00 -4.452643394470214844e-01 -4.584724605083465576e-01 -2.564760446548461914e-01
4.284000000000000000e+03 2.591285896301269531e+01 1.672267317771911621e+00 -1.979648828506469727e+00 -4.463225603103637695e-01 -7.277914285659790039e-01 -6.850103735923767090e-01
4.285000000000000000e+03 2.608711624145507812e+01 1.819915026426315308e-01 -7.292777895927429199e-01 -2.035938203334808350e-01 -2.798614799976348877e-01 -2.600893676280975342e-01
4.286000000000000000e+03 7.242113494873046875e+01 2.861039161682128906e+01 -1.589501857757568359e+00 1.149621009826660156e+01 2.972012519836425781e+00 4.052898287773132324e-01
4.287000000000000000e+03 2.777860641479492188e+01 3.092434406280517578e+00 -2.197572469711303711e+00 -8.610221743583679199e-01 -9.175783991813659668e-01 -8.504338860511779785e-01
4.288000000000000000e+03 2.721748352050781250e+01 2.845529079437255859e+00 -2.278510570526123047e+00 -7.700700759887695312e-01 -9.145742058753967285e-01 -8.679683804512023926e-01
4.289000000000000000e+03 4.241283798217773438e+01 1.879597473144531250e+01 -1.026403784751892090e+00 -1.083468198776245117e+00 -6.329615712165832520e-01 -1.173429250717163086e+00
4.290000000000000000e+03 7.231211090087890625e+01 3.075321006774902344e+01 -9.290181398391723633e-01 1.431908607482910156e+01 4.017020225524902344e+00 -3.046326339244842529e-01
4.291000000000000000e+03 4.199153518676757812e+01 1.788399124145507812e+01 -1.002770662307739258e+00 -1.043885111808776855e+00 -6.139967441558837891e-01 -1.140439391136169434e+00
4.292000000000000000e+03 6.984269714355468750e+01 3.069279479980468750e+01 -6.646850109100341797e-01 9.925737380981445312e+00 2.778315782546997070e+00 4.278306007385253906e+00
4.293000000000000000e+03 1.713464927673339844e+01 1.283337116241455078e+01 6.024042516946792603e-02 1.740680187940597534e-01 7.029253244400024414e-02 9.797709435224533081e-02
4.294000000000000000e+03 1.790264892578125000e+01 1.208943557739257812e+01 7.970583438873291016e-02 1.785603761672973633e-01 7.747986167669296265e-02 1.165140792727470398e-01
4.295000000000000000e+03 6.904730987548828125e+01 3.062524604797363281e+01 6.239335052669048309e-03 6.905145645141601562e+00 2.073415517807006836e+00 4.274796009063720703e+00
4.296000000000000000e+03 2.855824279785156250e+01 -4.954083859920501709e-01 -1.159677281975746155e-01 -5.682081580162048340e-01 -2.052527666091918945e-01 -9.419196099042892456e-02
4.297000000000000000e+03 1.364279842376708984e+01 9.635866165161132812e+00 4.908515885472297668e-02 2.545931339263916016e-01 9.110348671674728394e-02 5.438666418194770813e-02
4.298000000000000000e+03 7.288613891601562500e+01 3.060610580444335938e+01 -6.625012159347534180e-01 1.353411579132080078e+01 3.861484289169311523e+00 -9.595994353294372559e-01
4.299000000000000000e+03 7.078200531005859375e+01 3.012144279479980469e+01 -1.514081001281738281e+00 1.206394290924072266e+01 3.164958715438842773e+00 2.710109949111938477e+00
4.300000000000000000e+03 2.737595939636230469e+01 2.161726951599121094e+01 5.357298254966735840e-02 9.449026733636856079e-02 4.441897571086883545e-02 7.416023313999176025e-02
4.301000000000000000e+03 4.365061569213867188e+01 2.024300956726074219e+01 -1.071084380149841309e+00 -1.087752103805541992e+00 -6.476509571075439453e-01 -1.151437520980834961e+00
4.302000000000000000e+03 3.999831771850585938e+01 1.684538459777832031e+01 -1.111895203590393066e+00 -1.180490255355834961e+00 -6.877156496047973633e-01 -1.195818543434143066e+00
4.303000000000000000e+03 4.771079254150390625e+01 2.433110427856445312e+01 -1.218827247619628906e+00 -8.644177913665771484e-01 -6.249735355377197266e-01 -1.104697942733764648e+00
4.304000000000000000e+03 4.740743637084960938e+01 2.408592224121093750e+01 -1.223701119422912598e+00 -8.938348293304443359e-01 -6.352607607841491699e-01 -1.111229062080383301e+00
4.305000000000000000e+03 1.584688758850097656e+01 1.036896896362304688e+01 7.231354713439941406e-02 2.245830446481704712e-01 8.906897902488708496e-02 1.131557449698448181e-01
4.306000000000000000e+03 7.435480499267578125e+01 3.098863220214843750e+01 5.711382627487182617e-01 1.184628963470458984e+01 3.725228548049926758e+00 -1.884318351745605469e+00
4.307000000000000000e+03 7.296260070800781250e+01 3.163069915771484375e+01 9.521963000297546387e-01 1.437416172027587891e+01 4.597907543182373047e+00 -1.799475789070129395e+00
4.308000000000000000e+03 2.896747589111328125e+01 3.570525407791137695e+00 -1.951327323913574219e+00 -1.023476719856262207e+00 -8.924412131309509277e-01 -7.577080726623535156e-01
4.309000000000000000e+03 3.631958770751953125e+01 1.277997589111328125e+01 -1.159699082374572754e+00 -1.298973202705383301e+00 -7.376016378402709961e-01 -1.182344913482666016e+00
4.310000000000000000e+03 2.414028930664062500e+01 1.855377769470214844e+01 6.388311833143234253e-02 1.110039129853248596e-01 5.246610939502716064e-02 8.518984913825988770e-02
4.311000000000000000e+03 4.079046630859375000e+01 1.708653450012207031e+01 -1.060258865356445312e+00 -1.104982614517211914e+00 -6.495724320411682129e-01 -1.165005445480346680e+00
4.312000000000000000e+03 4.215261459350585938e+01 1.739772415161132812e+01 -9.647022485733032227e-01 -9.921628236770629883e-01 -5.870595574378967285e-01 -1.091033816337585449e+00
4.313000000000000000e+03 2.912946510314941406e+01 3.244749546051025391e+00 -1.802394628524780273e+00 -9.279418587684631348e-01 -8.191009163856506348e-01 -6.268302798271179199e-01
4.314000000000000000e+03 2.924994659423828125e+01 3.996600389480590820e+00 -1.995872020721435547e+00 -1.098945975303649902e+00 -9.284453988075256348e-01 -8.207296729087829590e-01
4.315000000000000000e+03 2.581418418884277344e+01 2.004930114746093750e+01 5.961072444915771484e-02 1.027789190411567688e-01 4.871689155697822571e-02 7.948352396488189697e-02
4.316000000000000000e+03 3.712862014770507812e+01 1.316573619842529297e+01 -1.115485787391662598e+00 -1.252797484397888184e+00 -7.104849815368652344e-01 -1.144246220588684082e+00
4.317000000000000000e+03 1.481422138214111328e+01 8.762817382812500000e+00 7.669056951999664307e-02 2.902596890926361084e-01 1.100850775837898254e-01 1.137275621294975281e-01
4.318000000000000000e+03 1.287915802001953125e+01 6.879024982452392578e+00 7.641228288412094116e-02 3.986462652683258057e-01 1.425175666809082031e-01 5.583377205766737461e-04
4.319000000000000000e+03 4.450609970092773438e+01 2.107279396057128906e+01 -1.105607151985168457e+00 -1.060639023780822754e+00 -6.498738527297973633e-01 -1.129736065864562988e+00
4.320000000000000000e+03 4.396292495727539062e+01 2.105312538146972656e+01 -1.142670869827270508e+00 -1.121874809265136719e+00 -6.793636679649353027e-01 -1.179079294204711914e+00
4.321000000000000000e+03 2.707076263427734375e+01 2.090989112854003906e+01 5.816366150975227356e-02 9.682647883892059326e-02 4.649704322218894958e-02 7.733011990785598755e-02
4.322000000000000000e+03 4.624111557006835938e+01 2.317070198059082031e+01 -1.227682113647460938e+00 -1.003608107566833496e+00 -6.693870425224304199e-01 -1.133190512657165527e+00
4.323000000000000000e+03 5.397638320922851562e+01 2.806186485290527344e+01 -1.191709399223327637e+00 7.729787379503250122e-02 -3.343234658241271973e-01 -8.318322300910949707e-01
4.324000000000000000e+03 5.312422180175781250e+01 2.882654953002929688e+01 -1.292809009552001953e+00 -1.076200380921363831e-01 -4.201287031173706055e-01 -8.885136246681213379e-01
4.325000000000000000e+03 4.478424835205078125e+01 2.134955596923828125e+01 -1.117878556251525879e+00 -1.051121354103088379e+00 -6.506999731063842773e-01 -1.125443577766418457e+00
4.326000000000000000e+03 4.481673812866210938e+01 2.187464523315429688e+01 -1.178237676620483398e+00 -1.096334695816040039e+00 -6.823716759681701660e-01 -1.162754416465759277e+00
4.327000000000000000e+03 2.035908317565917969e+01 1.507376194000244141e+01 7.106680423021316528e-02 1.397566199302673340e-01 6.324702501296997070e-02 9.819917380809783936e-02
4.328000000000000000e+03 1.835591888427734375e+01 1.326549243927001953e+01 7.049205154180526733e-02 1.630662530660629272e-01 7.006749510765075684e-02 1.048900112509727478e-01
4.329000000000000000e+03 2.234553337097167969e+01 1.764595603942871094e+01 5.977876111865043640e-02 1.212955862283706665e-01 5.432230234146118164e-02 8.638627082109451294e-02
4.330000000000000000e+03 2.267706489562988281e+01 1.674004936218261719e+01 7.042436301708221436e-02 1.230988949537277222e-01 5.805697664618492126e-02 9.432940930128097534e-02
4.331000000000000000e+03 3.663996124267578125e+01 1.257368183135986328e+01 -1.117698192596435547e+00 -1.246644616127014160e+00 -7.093028426170349121e-01 -1.136443018913269043e+00
4.332000000000000000e+03 2.147087478637695312e+01 1.602738571166992188e+01 6.925542652606964111e-02 1.309569031000137329e-01 6.006369739770889282e-02 9.475272148847579956e-02
4.333000000000000000e+03 3.733616638183593750e+01 1.346058845520019531e+01 -1.113389611244201660e+00 -1.253608703613281250e+00 -7.100995182991027832e-01 -1.148730158805847168e+00
4.334000000000000000e+03 5.104380416870117188e+01 2.789638900756835938e+01 -1.290846586227416992e+00 -5.600425004959106445e-01 -5.552667379379272461e-01 -9.936791062355041504e-01
4.335000000000000000e+03 4.941003036499023438e+01 2.629993438720703125e+01 -1.241068363189697266e+00 -7.641245722770690918e-01 -6.015578508377075195e-01 -1.075721859931945801e+00
4.336000000000000000e+03 2.652031517028808594e+01 7.253011465072631836e-01 -1.035044789314270020e+00 -4.074315428733825684e-01 -4.327428936958312988e-01 -3.019916713237762451e-01
4.337000000000000000e+03 5.231395721435546875e+01 2.817973899841308594e+01 -1.264812827110290527e+00 -2.622855305671691895e-01 -4.581294953823089600e-01 -9.118148684501647949e-01
4.338000000000000000e+03 7.156813049316406250e+01 3.026895332336425781e+01 -1.592989683151245117e+00 1.344093418121337891e+01 3.554383277893066406e+00 1.242322206497192383e+00
4.339000000000000000e+03 3.964880752563476562e+01 1.683171653747558594e+01 -1.136047005653381348e+00 -1.219903349876403809e+00 -7.067851424217224121e-01 -1.214245915412902832e+00
4.340000000000000000e+03 4.393573379516601562e+01 2.051933860778808594e+01 -1.081641316413879395e+00 -1.076929569244384766e+00 -6.475712656974792480e-01 -1.145077466964721680e+00
4.341000000000000000e+03 2.513432121276855469e+01 1.913154602050781250e+01 6.438989192247390747e-02 1.066762655973434448e-01 5.131984874606132507e-02 8.325434476137161255e-02
4.342000000000000000e+03 2.535753059387207031e+01 1.941087341308593750e+01 6.298474222421646118e-02 1.053224727511405945e-01 5.049216374754905701e-02 8.212857693433761597e-02
4.343000000000000000e+03 3.755036163330078125e+01 1.374791049957275391e+01 -1.109514594078063965e+00 -1.255066514015197754e+00 -7.093743085861206055e-01 -1.152490854263305664e+00
4.344000000000000000e+03 5.127081680297851562e+01 2.757236480712890625e+01 -1.256622195243835449e+00 -4.761722981929779053e-01 -5.198383331298828125e-01 -9.585646390914916992e-01
4.345000000000000000e+03 4.505944824218750000e+01 2.162689399719238281e+01 -1.129400730133056641e+00 -1.038420557975769043e+00 -6.503463983535766602e-01 -1.119825720787048340e+00
4.346000000000000000e+03 3.232702255249023438e+01 2.738706588745117188e+01 4.411100596189498901e-02 7.640253752470016479e-02 3.615406155586242676e-02 5.828833580017089844e-02
4.347000000000000000e+03 3.779393768310546875e+01 1.402498722076416016e+01 -1.107705831527709961e+00 -1.256191372871398926e+00 -7.091691493988037109e-01 -1.152554035186767578e+00
4.348000000000000000e+03 3.446083831787109375e+01 1.096839427947998047e+01 -1.216233015060424805e+00 -1.306707143783569336e+00 -7.568820118904113770e-01 -1.197963476181030273e+00
4.349000000000000000e+03 3.831225585937500000e+01 1.458850002288818359e+01 -1.101773738861083984e+00 -1.239157915115356445e+00 -7.022795081138610840e-01 -1.151256442070007324e+00
4.350000000000000000e+03 3.801850509643554688e+01 1.481266498565673828e+01 -1.135173797607421875e+00 -1.297839522361755371e+00 -7.299039959907531738e-01 -1.194196820259094238e+00
4.351000000000000000e+03 1.553351783752441406e+01 1.025435543060302734e+01 7.006155699491500854e-02 2.319909185171127319e-01 9.061574190855026245e-02 1.072014644742012024e-01
4.352000000000000000e+03 1.478336334228515625e+01 1.081397342681884766e+01 5.106031522154808044e-02 2.208296358585357666e-01 8.156698197126388550e-02 8.105072379112243652e-02
4.353000000000000000e+03 3.301910018920898438e+01 2.761086654663085938e+01 4.569202661514282227e-02 7.553352415561676025e-02 3.636766597628593445e-02 5.818422883749008179e-02
4.354000000000000000e+03 3.179851722717285156e+01 2.768563652038574219e+01 4.210532084107398987e-02 7.744698971509933472e-02 3.586569428443908691e-02 5.711863189935684204e-02
4.355000000000000000e+03 3.857476806640625000e+01 1.488212299346923828e+01 -1.099448442459106445e+00 -1.230670571327209473e+00 -6.990357041358947754e-01 -1.150982737541198730e+00
4.356000000000000000e+03 2.505581855773925781e+01 1.031223416328430176e+00 -1.727203011512756348e+00 -2.584619224071502686e-01 -5.956994891166687012e-01 -6.952118277549743652e-01
4.357000000000000000e+03 5.096554183959960938e+01 2.732842636108398438e+01 -1.250976085662841797e+00 -5.260310769081115723e-01 -5.331021547317504883e-01 -9.742625951766967773e-01
4.358000000000000000e+03 3.355694961547851562e+01 3.010830497741699219e+01 4.241381958127021790e-02 7.257387787103652954e-02 3.449631109833717346e-02 5.083327367901802063e-02
4.359000000000000000e+03 3.352488327026367188e+01 2.897862243652343750e+01 4.446316882967948914e-02 7.316239178180694580e-02 3.528766706585884094e-02 5.417692288756370544e-02
4.360000000000000000e+03 4.595669174194335938e+01 2.292057228088378906e+01 -1.218709707260131836e+00 -1.027261853218078613e+00 -6.737914681434631348e-01 -1.137087464332580566e+00
4.361000000000000000e+03 3.638614654541015625e+01 1.225963878631591797e+01 -1.121572971343994141e+00 -1.245954155921936035e+00 -7.102581262588500977e-01 -1.130674600601196289e+00
4.362000000000000000e+03 4.150905227661132812e+01 1.773230743408203125e+01 -1.032833337783813477e+00 -1.079818367958068848e+00 -6.337954998016357422e-01 -1.166543126106262207e+00
4.363000000000000000e+03 2.458095741271972656e+01 1.910674095153808594e+01 6.140439957380294800e-02 1.084815934300422668e-01 5.096579715609550476e-02 8.249115198850631714e-02
4.364000000000000000e+03 2.436682128906250000e+01 1.883004951477050781e+01 6.245068088173866272e-02 1.095954850316047668e-01 5.161384865641593933e-02 8.400350809097290039e-02
4.365000000000000000e+03 3.883663940429687500e+01 1.518605709075927734e+01 -1.100560665130615234e+00 -1.220365643501281738e+00 -6.962778568267822266e-01 -1.151522994041442871e+00
4.366000000000000000e+03 2.122405433654785156e+01 1.563620758056640625e+01 7.171797007322311401e-02 1.340955942869186401e-01 6.174406781792640686e-02 9.660621732473373413e-02
4.367000000000000000e+03 5.370584869384765625e+01 2.877316284179687500e+01 -1.271791934967041016e+00 1.066316943615674973e-02 -3.783386051654815674e-01 -8.693981766700744629e-01
4.368000000000000000e+03 4.533559417724609375e+01 2.189731025695800781e+01 -1.140737533569335938e+00 -1.025042057037353516e+00 -6.497339010238647461e-01 -1.114112138748168945e+00
4.369000000000000000e+03 4.935938644409179688e+01 2.590444374084472656e+01 -1.219488024711608887e+00 -7.366857528686523438e-01 -5.868521332740783691e-01 -1.057267785072326660e+00
4.370000000000000000e+03 2.594302177429199219e+01 2.043946838378906250e+01 5.659541860222816467e-02 1.015350967645645142e-01 4.743915423750877380e-02 7.763207703828811646e-02
4.371000000000000000e+03 2.540583610534667969e+01 2.023103523254394531e+01 5.565962567925453186e-02 1.037976518273353577e-01 4.783718287944793701e-02 7.785166800022125244e-02
4.372000000000000000e+03 4.309944534301757812e+01 1.971438407897949219e+01 -1.050163865089416504e+00 -1.095069169998168945e+00 -6.435698866844177246e-01 -1.166157841682434082e+00
4.373000000000000000e+03 4.919925689697265625e+01 2.557143211364746094e+01 -1.194942116737365723e+00 -7.251954674720764160e-01 -5.760412812232971191e-01 -1.048309326171875000e+00
4.374000000000000000e+03 5.149333572387695312e+01 2.724205398559570312e+01 -1.221325635910034180e+00 -3.949398696422576904e-01 -4.848796427249908447e-01 -9.267281889915466309e-01
4.375000000000000000e+03 5.009485626220703125e+01 2.648895072937011719e+01 -1.221113204956054688e+00 -6.388399600982666016e-01 -5.579859614372253418e-01 -1.013245344161987305e+00
4.376000000000000000e+03 7.255583190917968750e+01 2.988306999206542969e+01 -1.323915600776672363e+00 1.297154045104980469e+01 3.494287490844726562e+00 -1.898586004972457886e-01
4.377000000000000000e+03 1.812741470336914062e+01 1.269119262695312500e+01 7.488936185836791992e-02 1.701094210147857666e-01 7.349963486194610596e-02 1.104004457592964172e-01
4.378000000000000000e+03 2.698744010925292969e+01 -8.560656011104583740e-02 -4.709103107452392578e-01 -3.636678457260131836e-01 -2.503734529018402100e-01 -2.139663100242614746e-01
4.379000000000000000e+03 2.661148643493652344e+01 4.051403701305389404e-01 -9.093469381332397461e-01 -3.391453623771667480e-01 -3.745476901531219482e-01 -2.541995048522949219e-01
4.380000000000000000e+03 4.286569595336914062e+01 1.941475486755371094e+01 -1.041935682296752930e+00 -1.092087388038635254e+00 -6.402069330215454102e-01 -1.168862223625183105e+00
4.381000000000000000e+03 4.089915084838867188e+01 1.669328880310058594e+01 -1.027407407760620117e+00 -1.068824172019958496e+00 -6.288694739341735840e-01 -1.126301527023315430e+00
4.382000000000000000e+03 2.056528663635253906e+01 1.547037029266357422e+01 6.795730441808700562e-02 1.377111822366714478e-01 6.170054525136947632e-02 9.527952224016189575e-02
4.383000000000000000e+03 4.422238922119140625e+01 2.079830169677734375e+01 -1.094826936721801758e+00 -1.067250013351440430e+00 -6.486231088638305664e-01 -1.136839032173156738e+00
4.384000000000000000e+03 2.333894157409667969e+01 1.831542396545410156e+01 6.014215573668479919e-02 1.147163659334182739e-01 5.245755612850189209e-02 8.489535748958587646e-02
4.385000000000000000e+03 6.672612762451171875e+01 2.925475502014160156e+01 1.042824387550354004e-01 2.958488464355468750e+00 9.188312888145446777e-01 2.260388851165771484e+00
4.386000000000000000e+03 6.722418975830078125e+01 2.952996063232421875e+01 1.398367732763290405e-01 3.445683956146240234e+00 1.075656175613403320e+00 2.626412630081176758e+00
4.387000000000000000e+03 2.804086494445800781e+01 2.306740188598632812e+01 4.660601168870925903e-02 9.093371778726577759e-02 4.126191884279251099e-02 6.950261443853378296e-02
4.388000000000000000e+03 3.910120010375976562e+01 1.550675487518310547e+01 -1.101212024688720703e+00 -1.211076736450195312e+00 -6.936866641044616699e-01 -1.155114531517028809e+00
4.389000000000000000e+03 3.937934875488281250e+01 1.585727882385253906e+01 -1.103626251220703125e+00 -1.199938416481018066e+00 -6.910694241523742676e-01 -1.161183357238769531e+00
4.390000000000000000e+03 4.050089645385742188e+01 1.659672927856445312e+01 -1.054803371429443359e+00 -1.103942632675170898e+00 -6.476237773895263672e-01 -1.143567681312561035e+00
4.391000000000000000e+03 7.388537597656250000e+01 3.138059806823730469e+01 9.656384587287902832e-01 1.255698013305664062e+01 4.056785583496093750e+00 -1.931914687156677246e+00
4.392000000000000000e+03 7.327850341796875000e+01 3.205233001708984375e+01 2.058405637741088867e+00 1.376661205291748047e+01 4.747505187988281250e+00 -2.132003068923950195e+00
4.393000000000000000e+03 1.897890853881835938e+01 1.402997970581054688e+01 6.913203746080398560e-02 1.513966470956802368e-01 6.615860760211944580e-02 1.009411588311195374e-01
4.394000000000000000e+03 1.858567047119140625e+01 1.384306907653808594e+01 6.635970622301101685e-02 1.568180322647094727e-01 6.695332378149032593e-02 9.978143125772476196e-02
4.395000000000000000e+03 1.975510406494140625e+01 1.475626850128173828e+01 6.835087388753890991e-02 1.442562788724899292e-01 6.378214806318283081e-02 9.772160649299621582e-02
4.396000000000000000e+03 1.979753684997558594e+01 1.425368309020996094e+01 7.492794841527938843e-02 1.464383006095886230e-01 6.640987098217010498e-02 1.035674065351486206e-01
4.397000000000000000e+03 2.203183174133300781e+01 1.672534751892089844e+01 6.579652428627014160e-02 1.259649842977523804e-01 5.752845481038093567e-02 9.169169515371322632e-02
4.398000000000000000e+03 3.416188430786132812e+01 9.345387458801269531e+00 -1.152798771858215332e+00 -1.197328925132751465e+00 -7.050383090972900391e-01 -1.088421583175659180e+00
4.399000000000000000e+03 3.227180099487304688e+01 2.685454940795898438e+01 4.596804827451705933e-02 7.720658183097839355e-02 3.695238754153251648e-02 5.961602926254272461e-02
4.400000000000000000e+03 5.216076660156250000e+01 2.857419395446777344e+01 -1.297195315361022949e+00 -3.287006020545959473e-01 -4.877687692642211914e-01 -9.327063560485839844e-01
4.401000000000000000e+03 4.561598968505859375e+01 2.215677261352539062e+01 -1.150466084480285645e+00 -1.008042335510253906e+00 -6.475524902343750000e-01 -1.107285618782043457e+00
4.402000000000000000e+03 4.590236663818359375e+01 2.240701675415039062e+01 -1.158792257308959961e+00 -9.871672987937927246e-01 -6.437878608703613281e-01 -1.100598096847534180e+00
4.403000000000000000e+03 2.079503059387207031e+01 1.587763404846191406e+01 6.516207009553909302e-02 1.343847811222076416e-01 5.986405536532402039e-02 9.280885756015777588e-02
4.404000000000000000e+03 1.661215782165527344e+01 1.132717990875244141e+01 7.151313871145248413e-02 2.005063295364379883e-01 8.160584419965744019e-02 1.120183244347572327e-01
4.405000000000000000e+03 1.573767852783203125e+01 1.072576618194580078e+01 6.580636650323867798e-02 2.185252159833908081e-01 8.529947698116302490e-02 1.037884354591369629e-01
4.406000000000000000e+03 3.583258819580078125e+01 1.157135295867919922e+01 -1.129793524742126465e+00 -1.239315152168273926e+00 -7.107326388359069824e-01 -1.121379613876342773e+00
4.407000000000000000e+03 3.689269256591796875e+01 1.287149429321289062e+01 -1.116404652595520020e+00 -1.249411940574645996e+00 -7.097449898719787598e-01 -1.138796091079711914e+00
4.408000000000000000e+03 4.701157760620117188e+01 2.338793182373046875e+01 -1.189901709556579590e+00 -8.981878757476806641e-01 -6.264268755912780762e-01 -1.083409905433654785e+00
4.409000000000000000e+03 4.647909545898437500e+01 2.289667892456054688e+01 -1.171525955200195312e+00 -9.401333332061767578e-01 -6.334977746009826660e-01 -1.087625980377197266e+00
4.410000000000000000e+03 2.173899650573730469e+01 1.639166259765625000e+01 6.757964193820953369e-02 1.290473788976669312e-01 5.898810550570487976e-02 9.304755926132202148e-02
4.411000000000000000e+03 5.464239120483398438e+01 2.883334732055664062e+01 -1.244857192039489746e+00 1.698997318744659424e-01 -3.224872350692749023e-01 -8.433900475502014160e-01
4.412000000000000000e+03 8.275815010070800781e+00 1.016623497009277344e+01 7.295731455087661743e-02 2.306350972503423691e-03 2.257909812033176422e-02 -1.968221925199031830e-02
4.413000000000000000e+03 1.415548515319824219e+01 9.334895133972167969e+00 5.767715349793434143e-02 2.729917764663696289e-01 9.920068085193634033e-02 7.793188840150833130e-02
4.414000000000000000e+03 1.418113327026367188e+01 8.089966773986816406e+00 6.888222694396972656e-02 3.297292292118072510e-01 1.195834428071975708e-01 9.851660579442977905e-02
4.415000000000000000e+03 1.329340934753417969e+01 7.283641338348388672e+00 6.623950600624084473e-02 3.841552436351776123e-01 1.351184248924255371e-01 4.499385133385658264e-02
4.416000000000000000e+03 3.421764373779296875e+01 8.242199897766113281e+00 -1.118466734886169434e+00 -1.070427060127258301e+00 -6.566681265830993652e-01 -9.840691685676574707e-01
4.417000000000000000e+03 1.614245033264160156e+01 1.103113746643066406e+01 6.856986135244369507e-02 2.086967378854751587e-01 8.317998051643371582e-02 1.079233139753341675e-01
4.418000000000000000e+03 6.906307983398437500e+01 3.110998153686523438e+01 3.032278120517730713e-01 6.595835685729980469e+00 2.069719076156616211e+00 4.592552185058593750e+00
4.419000000000000000e+03 6.858126831054687500e+01 3.020149040222167969e+01 4.984444752335548401e-02 5.667042255401611328e+00 1.715066075325012207e+00 3.778057575225830078e+00
4.420000000000000000e+03 2.600702476501464844e+01 8.228089809417724609e-01 -1.222797274589538574e+00 -3.139972090721130371e-01 -4.610383510589599609e-01 -4.004236459732055664e-01
4.421000000000000000e+03 7.348400878906250000e+01 2.858438682556152344e+01 -1.291835427284240723e+00 1.141666889190673828e+01 3.037450075149536133e+00 -5.535445809364318848e-01
4.422000000000000000e+03 6.244148254394531250e+01 2.809645652770996094e+01 -3.272237777709960938e-01 1.063649892807006836e+00 2.209278345108032227e-01 2.863724529743194580e-01
4.423000000000000000e+03 3.324940109252929688e+01 5.607874870300292969e+00 -1.209482669830322266e+00 -8.364428877830505371e-01 -6.137776970863342285e-01 -7.537554502487182617e-01
4.424000000000000000e+03 3.451540374755859375e+01 6.962126731872558594e+00 -1.071053981781005859e+00 -9.077926278114318848e-01 -5.936539769172668457e-01 -8.207594752311706543e-01
4.425000000000000000e+03 1.522542095184326172e+01 1.010833930969238281e+01 6.499913334846496582e-02 2.357967048883438110e-01 9.023874998092651367e-02 1.029145419597625732e-01
4.426000000000000000e+03 3.225733947753906250e+01 4.745422363281250000e+00 -1.364687204360961914e+00 -7.982307076454162598e-01 -6.488754153251647949e-01 -6.683645844459533691e-01
4.427000000000000000e+03 3.276183319091796875e+01 5.166094779968261719e+00 -1.288233041763305664e+00 -8.143118023872375488e-01 -6.307634711265563965e-01 -7.172093987464904785e-01
4.428000000000000000e+03 1.619933319091796875e+01 1.136709213256835938e+01 6.430623680353164673e-02 2.038131207227706909e-01 8.043580502271652222e-02 1.032070517539978027e-01
4.429000000000000000e+03 2.756380462646484375e+01 2.352561569213867188e+01 4.213105514645576477e-02 9.210504591464996338e-02 4.027083143591880798e-02 6.728950142860412598e-02
4.430000000000000000e+03 2.907555389404296875e+01 2.372105598449707031e+01 4.628011211752891541e-02 8.662537485361099243e-02 3.987164422869682312e-02 6.793462485074996948e-02
4.431000000000000000e+03 3.038012504577636719e+01 3.711530447006225586e+00 -1.660423755645751953e+00 -8.729541897773742676e-01 -7.600134015083312988e-01 -5.806987881660461426e-01
4.432000000000000000e+03 2.962273597717285156e+01 4.048347473144531250e+00 -1.887135148048400879e+00 -1.017076611518859863e+00 -8.712635636329650879e-01 -7.377911210060119629e-01
4.433000000000000000e+03 3.107459640502929688e+01 2.672113227844238281e+01 4.243457689881324768e-02 7.885226607322692871e-02 3.638605400919914246e-02 5.969154089689254761e-02
4.434000000000000000e+03 1.328196239471435547e+01 7.740988731384277344e+00 6.833858788013458252e-02 3.449157774448394775e-01 1.239763051271438599e-01 4.183032363653182983e-02
4.435000000000000000e+03 1.372580432891845703e+01 7.690668106079101562e+00 6.571296602487564087e-02 3.579894006252288818e-01 1.271107047796249390e-01 7.672204822301864624e-02
4.436000000000000000e+03 3.000162696838378906e+01 4.071273803710937500e+00 -1.844294905662536621e+00 -9.811178445816040039e-01 -8.476238250732421875e-01 -7.125855684280395508e-01
4.437000000000000000e+03 3.083242607116699219e+01 3.990843057632446289e+00 -1.600502490997314453e+00 -8.558437824249267578e-01 -7.369039058685302734e-01 -5.931854844093322754e-01
4.438000000000000000e+03 3.026889228820800781e+01 2.622777748107910156e+01 4.087670892477035522e-02 8.116804808378219604e-02 3.661342710256576538e-02 6.064774841070175171e-02
4.439000000000000000e+03 2.949019241333007812e+01 2.480941200256347656e+01 4.245945066213607788e-02 8.439911901950836182e-02 3.805756941437721252e-02 6.455652415752410889e-02
4.440000000000000000e+03 3.084950256347656250e+01 -5.997997894883155823e-02 -2.420837134122848511e-01 -6.422435045242309570e-01 -2.652981579303741455e-01 3.231972083449363708e-02
4.441000000000000000e+03 3.083035278320312500e+01 4.404547691345214844e+00 -1.662367582321166992e+00 -8.790636658668518066e-01 -7.624293565750122070e-01 -6.954665780067443848e-01
4.442000000000000000e+03 3.372732925415039062e+01 8.493616104125976562e+00 -1.159173130989074707e+00 -1.158380985260009766e+00 -6.952662467956542969e-01 -1.065030097961425781e+00
4.443000000000000000e+03 3.453464126586914062e+01 8.678079605102539062e+00 -1.099246501922607422e+00 -1.094610452651977539e+00 -6.581571102142333984e-01 -9.976896047592163086e-01
4.444000000000000000e+03 2.845456886291503906e+01 2.036507055163383484e-02 -3.408359587192535400e-01 -5.245140790939331055e-01 -2.596050202846527100e-01 -4.810718446969985962e-02
4.445000000000000000e+03 2.826543235778808594e+01 7.495556473731994629e-01 -7.762495875358581543e-01 -6.136099100112915039e-01 -4.169578552246093750e-01 -1.872323453426361084e-01
4.446000000000000000e+03 1.244953060150146484e+01 6.495696544647216797e+00 1.015536338090896606e-01 3.935702145099639893e-01 1.485371589660644531e-01 -5.337984114885330200e-02
4.447000000000000000e+03 7.480718994140625000e+01 3.139886093139648438e+01 1.052765965461730957e+00 1.122123432159423828e+01 3.682200193405151367e+00 -1.896778821945190430e+00
4.448000000000000000e+03 6.554921722412109375e+01 2.883543968200683594e+01 1.756121963262557983e-02 2.128039121627807617e+00 6.436800956726074219e-01 1.542656540870666504e+00
4.449000000000000000e+03 6.440631866455078125e+01 2.908399200439453125e+01 -2.100430876016616821e-01 1.308657526969909668e+00 3.295843303203582764e-01 8.842322230339050293e-01
4.450000000000000000e+03 3.040102767944335938e+01 4.055990219116210938e+00 -1.700193166732788086e+00 -9.043577313423156738e-01 -7.813652753829956055e-01 -6.382632255554199219e-01
4.451000000000000000e+03 3.488529586791992188e+01 3.108438682556152344e+01 4.579358175396919250e-02 6.910897791385650635e-02 3.447076678276062012e-02 4.947331920266151428e-02
4.452000000000000000e+03 3.375322341918945312e+01 6.460152149200439453e+00 -1.140669107437133789e+00 -9.164204001426696777e-01 -6.171268224716186523e-01 -8.318215608596801758e-01
4.453000000000000000e+03 3.392657089233398438e+01 7.842296600341796875e+00 -1.136722922325134277e+00 -1.067073822021484375e+00 -6.611390113830566406e-01 -9.866364002227783203e-01
4.454000000000000000e+03 3.064147186279296875e+01 -8.736837506294250488e-01 4.029446467757225037e-02 -6.157602071762084961e-01 -1.726397275924682617e-01 3.823119774460792542e-02
4.455000000000000000e+03 6.609918975830078125e+01 2.855365180969238281e+01 6.439767777919769287e-02 2.754595756530761719e+00 8.456980586051940918e-01 1.884075760841369629e+00
4.456000000000000000e+03 3.097016525268554688e+01 -1.419452548027038574e+00 2.340446114540100098e-01 -6.531063318252563477e-01 -1.257185041904449463e-01 4.067888110876083374e-02
4.457000000000000000e+03 1.132122230529785156e+01 6.627174377441406250e+00 1.566814184188842773e-01 2.107734680175781250e-01 1.102364659309387207e-01 -1.013564318418502808e-01
4.458000000000000000e+03 1.248213291168212891e+01 6.913521289825439453e+00 9.374127537012100220e-02 3.638484477996826172e-01 1.372769176959991455e-01 -3.569631278514862061e-02
4.459000000000000000e+03 6.402968597412109375e+01 2.838447761535644531e+01 -1.237699910998344421e-01 1.493033885955810547e+00 4.107791781425476074e-01 8.371753096580505371e-01
4.460000000000000000e+03 6.569828796386718750e+01 2.839811134338378906e+01 5.566891282796859741e-02 2.503615617752075195e+00 7.677853107452392578e-01 1.669663190841674805e+00
4.461000000000000000e+03 2.928059959411621094e+01 -8.580765724182128906e-01 7.137024402618408203e-02 -6.076412200927734375e-01 -1.608812808990478516e-01 -3.171237930655479431e-02
4.462000000000000000e+03 7.195830535888671875e+01 2.390614128112792969e+01 -9.343549609184265137e-01 8.412897109985351562e+00 2.243562459945678711e+00 7.621446251869201660e-01
4.463000000000000000e+03 3.390400695800781250e+01 6.852529525756835938e+00 -1.137083053588867188e+00 -9.403436779975891113e-01 -6.232280135154724121e-01 -8.723762631416320801e-01
4.464000000000000000e+03 3.481105041503906250e+01 1.028338336944580078e+01 -1.145079493522644043e+00 -1.222264647483825684e+00 -7.102032303810119629e-01 -1.108139157295227051e+00
4.465000000000000000e+03 7.348978424072265625e+01 2.801902961730957031e+01 -1.350500106811523438e+00 1.103618240356445312e+01 2.905704498291015625e+00 -3.808780014514923096e-01
4.466000000000000000e+03 3.558458709716796875e+01 3.155284309387207031e+01 4.800410196185112000e-02 6.842133402824401855e-02 3.492763265967369080e-02 5.003795400261878967e-02
4.467000000000000000e+03 3.255123519897460938e+01 2.879730033874511719e+01 4.204263910651206970e-02 7.479282468557357788e-02 3.505063802003860474e-02 5.390943959355354309e-02
4.468000000000000000e+03 3.612222671508789062e+01 3.294421386718750000e+01 4.916301369667053223e-02 6.535714864730834961e-02 3.435605019330978394e-02 4.704799503087997437e-02
4.469000000000000000e+03 3.214041519165039062e+01 2.827469253540039062e+01 4.179378598928451538e-02 7.614574581384658813e-02 3.538186103105545044e-02 5.530884116888046265e-02
4.470000000000000000e+03 3.490840530395507812e+01 9.703713417053222656e+00 -1.109755158424377441e+00 -1.164418578147888184e+00 -6.822521090507507324e-01 -1.050658941268920898e+00
4.471000000000000000e+03 9.805965423583984375e+00 7.412050724029541016e+00 1.479491442441940308e-01 4.863375052809715271e-02 5.897486954927444458e-02 -5.084758996963500977e-02
4.472000000000000000e+03 9.655761718750000000e+00 1.064706897735595703e+01 5.837373062968254089e-02 6.852756440639495850e-02 3.807038813829421997e-02 -2.426996827125549316e-02
4.473000000000000000e+03 6.077551651000976562e+01 2.768375587463378906e+01 -4.887440502643585205e-01 8.593187928199768066e-01 1.111724227666854858e-01 -1.073091402649879456e-01
4.474000000000000000e+03 6.209615325927734375e+01 2.750343513488769531e+01 -2.646807432174682617e-01 1.181137323379516602e+00 2.749369740486145020e-01 2.587475180625915527e-01
4.475000000000000000e+03 1.397261047363281250e+01 9.768401145935058594e+00 5.142512172460556030e-02 2.496263682842254639e-01 9.031544625759124756e-02 6.555195897817611694e-02
4.476000000000000000e+03 9.007390975952148438e+00 1.087805652618408203e+01 5.877146124839782715e-02 3.772187605500221252e-02 2.894800156354904175e-02 -2.460598573088645935e-02
4.477000000000000000e+03 4.074746704101562500e+01 3.530732345581054688e+01 6.841647624969482422e-02 4.772079363465309143e-02 3.484117984771728516e-02 4.320508986711502075e-02
4.478000000000000000e+03 7.425318145751953125e+01 3.010298919677734375e+01 -3.575429618358612061e-01 1.176051807403564453e+01 3.420892477035522461e+00 -1.590486407279968262e+00
4.479000000000000000e+03 3.187938308715820312e+01 -1.564040064811706543e+00 2.511072158813476562e-01 -6.643750071525573730e-01 -1.239803358912467957e-01 5.548164248466491699e-02
4.480000000000000000e+03 9.985573768615722656e+00 1.386384773254394531e+01 2.067262120544910431e-02 6.489002704620361328e-02 2.566879428923130035e-02 -1.327263657003641129e-02
4.481000000000000000e+03 9.149386405944824219e+00 1.152318954467773438e+01 4.496528953313827515e-02 4.673043265938758850e-02 2.750871703028678894e-02 -2.144567295908927917e-02
4.482000000000000000e+03 5.674183273315429688e+01 2.662128639221191406e+01 -7.930781245231628418e-01 5.505643486976623535e-01 -7.275412976741790771e-02 -5.726180076599121094e-01
4.483000000000000000e+03 5.673276901245117188e+01 2.723129653930664062e+01 -8.825054168701171875e-01 5.017948150634765625e-01 -1.142131760716438293e-01 -6.327308416366577148e-01
4.484000000000000000e+03 5.937839889526367188e+01 2.754979515075683594e+01 -6.469957232475280762e-01 7.306574583053588867e-01 2.509852126240730286e-02 -3.597458004951477051e-01
4.485000000000000000e+03 6.006034851074218750e+01 2.733242607116699219e+01 -5.136818885803222656e-01 8.484740853309631348e-01 1.004376560449600220e-01 -2.062512338161468506e-01
4.486000000000000000e+03 1.055844688415527344e+01 7.511350631713867188e+00 1.366531103849411011e-01 1.223571226000785828e-01 7.770306617021560669e-02 -6.804396957159042358e-02
4.487000000000000000e+03 3.232890319824218750e+01 -2.072480916976928711e+00 3.328629136085510254e-01 -6.581828594207763672e-01 -9.759597480297088623e-02 5.978133901953697205e-02
4.488000000000000000e+03 3.114677238464355469e+01 -5.646609663963317871e-01 -3.568799793720245361e-02 -6.823650598526000977e-01 -2.154159247875213623e-01 4.656768590211868286e-02
4.489000000000000000e+03 1.109719753265380859e+01 -7.249820232391357422e+00 -3.625280857086181641e-01 -3.666080236434936523e-01 -2.187408357858657837e-01 -6.485211253166198730e-01
4.490000000000000000e+03 1.067907524108886719e+01 -8.033434867858886719e+00 -2.721089124679565430e-01 -4.148251712322235107e-01 -2.060802280902862549e-01 -6.452112793922424316e-01
4.491000000000000000e+03 1.163508224487304688e+01 -7.331385612487792969e+00 -3.612836897373199463e-01 -4.560481607913970947e-01 -2.451995462179183960e-01 -7.109348773956298828e-01
4.492000000000000000e+03 9.276330947875976562e+00 -8.462191581726074219e+00 -2.180500924587249756e-01 -3.725361526012420654e-01 -1.771758794784545898e-01 -5.581176280975341797e-01
4.493000000000000000e+03 6.897853851318359375e+01 4.501481533050537109e+00 1.319953203201293945e-01 5.626033306121826172e+00 1.727408647537231445e+00 6.471903324127197266e-01
4.494000000000000000e+03 6.930622863769531250e+01 2.334979772567749023e+00 1.301019191741943359e-01 5.691926956176757812e+00 1.746608734130859375e+00 5.972551703453063965e-01
4.495000000000000000e+03 8.434168815612792969e+00 7.779712200164794922e+00 1.313398480415344238e-01 -2.820143662393093109e-02 3.094152174890041351e-02 -1.368294842541217804e-02
4.496000000000000000e+03 8.936139106750488281e+00 8.769453048706054688e+00 1.098204776644706726e-01 2.135769277811050415e-02 3.935345262289047241e-02 -3.053865954279899597e-02
4.497000000000000000e+03 9.731096267700195312e+00 1.819476890563964844e+01 -2.175708301365375519e-03 2.895757369697093964e-02 8.034559898078441620e-03 -1.256844028830528259e-02
4.498000000000000000e+03 1.094178104400634766e+01 1.887468147277832031e+01 -3.335481975227594376e-03 4.794372245669364929e-02 1.338247209787368774e-02 -5.260999780148267746e-03
4.499000000000000000e+03 6.904853057861328125e+01 -1.216083621978759766e+01 8.197176456451416016e-02 5.366955757141113281e+00 1.634678244590759277e+00 3.549672067165374756e-01
4.500000000000000000e+03 9.223426818847656250e+00 1.236050796508789062e+01 3.754393756389617920e-02 4.794149100780487061e-02 2.564562857151031494e-02 -2.101239748299121857e-02
4.501000000000000000e+03 3.416628646850585938e+01 -2.537967443466186523e+00 4.134801328182220459e-01 -6.252607703208923340e-01 -6.353419274091720581e-02 6.281608343124389648e-02
4.502000000000000000e+03 6.947457885742187500e+01 -3.388073742389678955e-01 1.264875829219818115e-01 5.681057453155517578e+00 1.742263436317443848e+00 5.423976182937622070e-01
4.503000000000000000e+03 6.953895568847656250e+01 7.211833000183105469e+00 1.122818961739540100e-01 5.854144573211669922e+00 1.789927959442138672e+00 6.803812384605407715e-01
4.504000000000000000e+03 6.987918090820312500e+01 8.416586875915527344e+00 8.935980498790740967e-02 6.003417015075683594e+00 1.827833056449890137e+00 7.015599012374877930e-01
4.505000000000000000e+03 6.774113464355468750e+01 -1.842039108276367188e+01 6.522929668426513672e-02 5.010376930236816406e+00 1.522681832313537598e+00 3.039702773094177246e-01
4.506000000000000000e+03 3.830368041992187500e+01 3.405571365356445312e+01 5.393628776073455811e-02 5.684480816125869751e-02 3.323432803153991699e-02 4.554793611168861389e-02
4.507000000000000000e+03 3.708000183105468750e+01 3.416219329833984375e+01 5.333283171057701111e-02 6.124930456280708313e-02 3.437463939189910889e-02 4.374571517109870911e-02
4.508000000000000000e+03 7.296129608154296875e+01 2.633839607238769531e+01 -1.334539532661437988e+00 9.905485153198242188e+00 2.571283817291259766e+00 2.584795057773590088e-01
4.509000000000000000e+03 7.234776306152343750e+01 2.305204200744628906e+01 -8.021443486213684082e-01 8.328390121459960938e+00 2.257873773574829102e+00 6.317750811576843262e-01
4.510000000000000000e+03 7.129685211181640625e+01 2.276672935485839844e+01 -7.204119563102722168e-01 7.695520877838134766e+00 2.092532634735107422e+00 9.163315296173095703e-01
4.511000000000000000e+03 3.948956298828125000e+01 -6.210705280303955078e+00 5.489540100097656250e-01 -2.513579428195953369e-01 8.927880972623825073e-02 3.941383957862854004e-02
4.512000000000000000e+03 6.879992675781250000e+01 1.969541358947753906e+01 -2.548431158065795898e-01 5.971936702728271484e+00 1.715128064155578613e+00 1.052408814430236816e+00
4.513000000000000000e+03 7.275688171386718750e+01 2.433717918395996094e+01 -9.943171739578247070e-01 8.873072624206542969e+00 2.363626480102539062e+00 4.868856966495513916e-01
4.514000000000000000e+03 9.870691299438476562e+00 -1.244664764404296875e+01 1.735640503466129303e-02 -5.775888562202453613e-01 -1.680697351694107056e-01 -5.776479840278625488e-01
4.515000000000000000e+03 3.689620590209960938e+01 -6.037144660949707031e+00 6.080526709556579590e-01 -4.617895483970642090e-01 4.387893155217170715e-02 -3.639915026724338531e-03
4.516000000000000000e+03 7.080823516845703125e+01 1.619933509826660156e+01 -9.283067286014556885e-02 6.659354686737060547e+00 1.969957232475280762e+00 7.675180435180664062e-01
4.517000000000000000e+03 4.410213470458984375e+01 -1.173989295959472656e+01 4.082937836647033691e-01 4.330059587955474854e-01 2.523899078369140625e-01 3.796022385358810425e-02
4.518000000000000000e+03 6.919990539550781250e+01 -6.668596267700195312e+00 1.089518517255783081e-01 5.468784332275390625e+00 1.673320889472961426e+00 4.380523860454559326e-01
4.519000000000000000e+03 6.876855468750000000e+01 -1.074480342864990234e+01 9.553022682666778564e-02 5.314723014831542969e+00 1.623075962066650391e+00 3.739724755287170410e-01
4.520000000000000000e+03 6.907497406005859375e+01 -1.357385444641113281e+01 8.211115747690200806e-02 5.346051692962646484e+00 1.628448843955993652e+00 3.387465775012969971e-01
4.521000000000000000e+03 4.136904525756835938e+01 -8.279310226440429688e+00 5.305483937263488770e-01 -5.123102106153964996e-03 1.576275825500488281e-01 4.350678995251655579e-02
4.522000000000000000e+03 7.157544708251953125e+01 1.344528293609619141e+01 -9.230847470462322235e-03 6.752442359924316406e+00 2.022963523864746094e+00 7.072731852531433105e-01
4.523000000000000000e+03 1.160440063476562500e+01 -1.591258335113525391e+01 1.589523255825042725e-01 -6.320235133171081543e-01 -1.419213563203811646e-01 -5.132622718811035156e-01
4.524000000000000000e+03 1.635445594787597656e+01 -1.879021644592285156e+01 2.586553692817687988e-01 -3.792466819286346436e-01 -3.617739677429199219e-02 -3.883548676967620850e-01
4.525000000000000000e+03 1.185051727294921875e+01 2.481007385253906250e+01 -1.001895777881145477e-02 2.866152487695217133e-02 5.592769943177700043e-03 -3.480396931990981102e-03
4.526000000000000000e+03 7.088063812255859375e+01 -9.886594772338867188e+00 7.368092238903045654e-02 5.803785800933837891e+00 1.763239979743957520e+00 3.534646630287170410e-01
4.527000000000000000e+03 1.254486465454101562e+01 -6.084337711334228516e+00 -5.268160700798034668e-01 -4.038915932178497314e-01 -2.792122960090637207e-01 -7.394887208938598633e-01
4.528000000000000000e+03 1.320913696289062500e+01 -7.069404602050781250e+00 -3.791927099227905273e-01 -5.694454312324523926e-01 -2.845914363861083984e-01 -8.095766901969909668e-01
4.529000000000000000e+03 6.985253143310546875e+01 6.343795299530029297e+00 1.113040521740913391e-01 5.922928333282470703e+00 1.810269832611083984e+00 6.625733375549316406e-01
4.530000000000000000e+03 1.220884037017822266e+01 -1.182073211669921875e+01 4.081419110298156738e-02 -6.196888089179992676e-01 -1.736623793840408325e-01 -6.405990719795227051e-01
4.531000000000000000e+03 9.503526687622070312e+00 -1.893030929565429688e+01 1.281402260065078735e-01 -7.039623856544494629e-01 -1.727466583251953125e-01 -4.284834861755371094e-01
4.532000000000000000e+03 9.041057586669921875e+00 -1.509018898010253906e+01 7.668296992778778076e-02 -6.542758345603942871e-01 -1.732778698205947876e-01 -5.129706859588623047e-01
4.533000000000000000e+03 1.115355682373046875e+01 1.578312015533447266e+01 6.685622967779636383e-03 7.689309865236282349e-02 2.507361583411693573e-02 -1.142491237260401249e-03
4.534000000000000000e+03 1.040285778045654297e+01 1.691456222534179688e+01 1.941559137776494026e-03 5.154103040695190430e-02 1.604477688670158386e-02 -7.815261371433734894e-03
4.535000000000000000e+03 6.859864044189453125e+01 1.871393203735351562e+01 -1.804156303405761719e-01 5.821241378784179688e+00 1.692247748374938965e+00 9.768981933593750000e-01
4.536000000000000000e+03 7.073920440673828125e+01 1.913160514831542969e+01 -3.167743980884552002e-01 6.878183841705322266e+00 1.968422889709472656e+00 8.537641763687133789e-01
4.537000000000000000e+03 1.148346424102783203e+01 -1.036699962615966797e+01 -5.306382477283477783e-02 -5.770846605300903320e-01 -1.890445500612258911e-01 -6.660106182098388672e-01
4.538000000000000000e+03 1.642058753967285156e+01 -2.160566902160644531e+01 2.374205440282821655e-01 -3.269557058811187744e-01 -2.686054818332195282e-02 -3.681882321834564209e-01
4.539000000000000000e+03 1.096605300903320312e+01 2.467632293701171875e+01 -9.972507134079933167e-03 1.683761924505233765e-02 2.059533726423978806e-03 -7.402328774333000183e-03
4.540000000000000000e+03 1.195662689208984375e+01 2.597217369079589844e+01 -9.507955983281135559e-03 2.476824261248111725e-02 4.578086081892251968e-03 -3.227468347176909447e-03
4.541000000000000000e+03 3.984004211425781250e+01 3.775317382812500000e+01 7.601955533027648926e-02 4.787096381187438965e-02 3.716715797781944275e-02 3.068872168660163879e-02
4.542000000000000000e+03 7.110236358642578125e+01 1.416642093658447266e+01 -3.254137188196182251e-02 6.634890079498291016e+00 1.980704665184020996e+00 7.216944694519042969e-01
4.543000000000000000e+03 1.025908946990966797e+01 -2.162196350097656250e+01 1.453842818737030029e-01 -7.011459469795227051e-01 -1.667284965515136719e-01 -3.814695775508880615e-01
4.544000000000000000e+03 1.220450401306152344e+01 -2.171182060241699219e+01 1.846033185720443726e-01 -6.006824970245361328e-01 -1.248237490653991699e-01 -3.898586034774780273e-01
4.545000000000000000e+03 4.356239700317382812e+01 -1.719388198852539062e+01 1.814937144517898560e-01 4.099078178405761719e-01 1.774204671382904053e-01 3.923716396093368530e-02
4.546000000000000000e+03 4.406372451782226562e+01 -1.547619628906250000e+01 2.633801996707916260e-01 4.829884469509124756e-01 2.239105999469757080e-01 3.307148814201354980e-02
4.547000000000000000e+03 6.893568420410156250e+01 -2.157298851013183594e+01 4.518103227019309998e-02 5.199583530426025391e+00 1.573429346084594727e+00 2.649824321269989014e-01
4.548000000000000000e+03 6.517952728271484375e+01 -2.477267265319824219e+01 5.306107550859451294e-02 4.491495132446289062e+00 1.363366961479187012e+00 2.931782901287078857e-01
4.549000000000000000e+03 5.139707183837890625e+01 -2.141044807434082031e+01 4.830425605177879333e-02 1.944479107856750488e+00 5.978350043296813965e-01 1.626264303922653198e-01
4.550000000000000000e+03 4.898757553100585938e+01 -2.632977294921875000e+01 -8.401206135749816895e-02 1.561011910438537598e+00 4.430999457836151123e-01 1.656648218631744385e-01
4.551000000000000000e+03 5.118018341064453125e+01 -2.569790840148925781e+01 -3.824831545352935791e-02 1.971302866935729980e+00 5.799163579940795898e-01 2.115066647529602051e-01
4.552000000000000000e+03 1.386782550811767578e+01 2.938883209228515625e+01 -9.257245808839797974e-03 3.163456916809082031e-02 6.713197566568851471e-03 2.423601457849144936e-03
4.553000000000000000e+03 6.769152832031250000e+01 -8.910471796989440918e-01 1.573263853788375854e-01 5.211128711700439453e+00 1.610536575317382812e+00 5.660643577575683594e-01
4.554000000000000000e+03 6.826371765136718750e+01 2.709087133407592773e+00 1.512793302536010742e-01 5.412140846252441406e+00 1.669026017189025879e+00 6.229465603828430176e-01
4.555000000000000000e+03 1.056565284729003906e+01 2.007775306701660156e+01 -6.318423897027969360e-03 3.205707669258117676e-02 7.721595466136932373e-03 -8.492911234498023987e-03
4.556000000000000000e+03 1.074784088134765625e+01 2.151117515563964844e+01 -8.341995999217033386e-03 2.942408621311187744e-02 6.324626971036195755e-03 -7.617032155394554138e-03
4.557000000000000000e+03 1.039645385742187500e+01 -1.611323356628417969e+01 1.237918734550476074e-01 -6.621271371841430664e-01 -1.615005731582641602e-01 -5.144241452217102051e-01
4.558000000000000000e+03 1.147961997985839844e+01 -1.461795425415039062e+01 1.240009739995002747e-01 -6.464192271232604980e-01 -1.567254662513732910e-01 -5.615020394325256348e-01
4.559000000000000000e+03 6.903979492187500000e+01 -1.493691158294677734e+01 7.042837888002395630e-02 5.306160926818847656e+00 1.612976789474487305e+00 3.206069171428680420e-01
4.560000000000000000e+03 6.810459136962890625e+01 2.981158447265625000e+01 9.007221460342407227e-02 4.768116950988769531e+00 1.457456707954406738e+00 3.300260305404663086e+00
4.561000000000000000e+03 2.797920417785644531e+01 2.422348499298095703e+00 -1.817408919334411621e+00 -7.550420165061950684e-01 -7.717352509498596191e-01 -5.942735671997070312e-01
4.562000000000000000e+03 2.628213691711425781e+01 5.229995846748352051e-01 -9.673753976821899414e-01 -2.827771306037902832e-01 -3.750457465648651123e-01 -3.482306003570556641e-01
4.563000000000000000e+03 6.975645446777343750e+01 2.941050720214843750e+01 -9.440344572067260742e-01 8.883192062377929688e+00 2.381747245788574219e+00 3.331318140029907227e+00
4.564000000000000000e+03 4.310977554321289062e+01 1.827745056152343750e+01 -9.455848932266235352e-01 -9.700998067855834961e-01 -5.747054219245910645e-01 -1.075257301330566406e+00
4.565000000000000000e+03 4.210681915283203125e+01 1.852463340759277344e+01 -1.033389091491699219e+00 -1.089689731597900391e+00 -6.369236707687377930e-01 -1.182438850402832031e+00
4.566000000000000000e+03 4.165170669555664062e+01 1.729536437988281250e+01 -1.003980875015258789e+00 -1.036088585853576660e+00 -6.120207905769348145e-01 -1.123713374137878418e+00
4.567000000000000000e+03 7.286852264404296875e+01 2.755807304382324219e+01 -1.481011629104614258e+00 1.069323921203613281e+01 2.763668298721313477e+00 1.798196583986282349e-01
4.568000000000000000e+03 4.120625686645507812e+01 1.719203376770019531e+01 -1.030676841735839844e+00 -1.070483803749084473e+00 -6.303482055664062500e-01 -1.146222472190856934e+00
4.569000000000000000e+03 6.631570434570312500e+01 2.899691200256347656e+01 8.576505631208419800e-02 2.673658370971679688e+00 8.278270363807678223e-01 1.978027582168579102e+00
4.570000000000000000e+03 7.066349029541015625e+01 2.966426658630371094e+01 -1.464406251907348633e+00 1.112727451324462891e+01 2.898860454559326172e+00 2.661688566207885742e+00
4.571000000000000000e+03 7.113562774658203125e+01 3.001568603515625000e+01 -1.616749167442321777e+00 1.253293228149414062e+01 3.274854898452758789e+00 2.062780380249023438e+00
4.572000000000000000e+03 4.763270950317382812e+01 2.371581649780273438e+01 -1.162464380264282227e+00 -8.181268572807312012e-01 -5.941773653030395508e-01 -1.055013418197631836e+00
4.573000000000000000e+03 4.825369644165039062e+01 2.428673744201660156e+01 -1.167021751403808594e+00 -7.700287103652954102e-01 -5.811151266098022461e-01 -1.046373724937438965e+00
4.574000000000000000e+03 4.800025177001953125e+01 2.459460830688476562e+01 -1.215128183364868164e+00 -8.413772583007812500e-01 -6.169516444206237793e-01 -1.097727894783020020e+00
4.575000000000000000e+03 6.941316223144531250e+01 3.053665924072265625e+01 -3.063273727893829346e-01 8.160787582397460938e+00 2.356338262557983398e+00 4.322246074676513672e+00
4.576000000000000000e+03 1.746558189392089844e+01 1.191527366638183594e+01 7.578901201486587524e-02 1.827358752489089966e-01 7.755746692419052124e-02 1.141566187143325806e-01
4.577000000000000000e+03 7.206025695800781250e+01 3.048346519470214844e+01 -1.305445432662963867e+00 1.394220924377441406e+01 3.791029214859008789e+00 3.041692674160003662e-01
4.578000000000000000e+03 1.130684089660644531e+01 1.325930595397949219e+01 2.330587804317474365e-02 1.086336150765419006e-01 3.958184644579887390e-02 -8.937121601775288582e-04
4.579000000000000000e+03 4.448909378051757812e+01 2.054390144348144531e+01 -1.047537326812744141e+00 -1.013386726379394531e+00 -6.182772517204284668e-01 -1.095900177955627441e+00
4.580000000000000000e+03 4.265488052368164062e+01 1.910138130187988281e+01 -1.031015753746032715e+00 -1.087411403656005859e+00 -6.355281472206115723e-01 -1.169740796089172363e+00
4.581000000000000000e+03 5.313257598876953125e+01 2.835416984558105469e+01 -1.249096989631652832e+00 -8.229038864374160767e-02 -3.994162082672119141e-01 -8.758614659309387207e-01
4.582000000000000000e+03 7.357209014892578125e+01 3.103895759582519531e+01 3.134280741214752197e-01 1.299033069610595703e+01 3.991127490997314453e+00 -1.733588218688964844e+00
4.583000000000000000e+03 7.283524322509765625e+01 3.006141090393066406e+01 -1.109807014465332031e+00 1.298048210144042969e+01 3.561202764511108398e+00 -5.322888493537902832e-01
4.584000000000000000e+03 4.823842620849609375e+01 2.367472648620605469e+01 -1.107568621635437012e+00 -7.114534378051757812e-01 -5.457066297531127930e-01 -9.967584609985351562e-01
4.585000000000000000e+03 2.658245277404785156e+01 2.161841011047363281e+01 5.000390484929084778e-02 9.711391478776931763e-02 4.413534700870513916e-02 7.307740300893783569e-02
4.586000000000000000e+03 4.856852340698242188e+01 2.510890007019042969e+01 -1.208065509796142578e+00 -7.975737452507019043e-01 -6.016917824745178223e-01 -1.081888675689697266e+00
4.587000000000000000e+03 2.622464752197265625e+01 1.273204684257507324e+00 -1.537367224693298340e+00 -4.012555181980133057e-01 -5.815868377685546875e-01 -5.081759691238403320e-01
4.588000000000000000e+03 3.612779998779296875e+01 1.192514610290527344e+01 -1.121276736259460449e+00 -1.240762114524841309e+00 -7.086116671562194824e-01 -1.125163912773132324e+00
4.589000000000000000e+03 4.477336120605468750e+01 2.081352806091308594e+01 -1.060564756393432617e+00 -1.003917932510375977e+00 -6.193447709083557129e-01 -1.087984681129455566e+00
4.590000000000000000e+03 5.038288879394531250e+01 2.679443168640136719e+01 -1.231834530830383301e+00 -6.040988564491271973e-01 -5.507799983024597168e-01 -1.000987529754638672e+00
4.591000000000000000e+03 4.827946853637695312e+01 2.485672569274902344e+01 -1.210551261901855469e+00 -8.206539750099182129e-01 -6.093615889549255371e-01 -1.092180967330932617e+00
4.592000000000000000e+03 4.504321670532226562e+01 2.110022735595703125e+01 -1.069791436195373535e+00 -9.914192557334899902e-01 -6.183632016181945801e-01 -1.082918763160705566e+00
4.593000000000000000e+03 2.743984031677246094e+01 1.231359243392944336e+00 -1.284948348999023438e+00 -5.138465166091918945e-01 -5.396384596824645996e-01 -2.894433736801147461e-01
4.594000000000000000e+03 4.010680007934570312e+01 1.645004463195800781e+01 -1.083145141601562500e+00 -1.143948316574096680e+00 -6.681280136108398438e-01 -1.158706188201904297e+00
4.595000000000000000e+03 4.174327850341796875e+01 1.684085273742675781e+01 -9.661126732826232910e-01 -9.912462234497070312e-01 -5.872076749801635742e-01 -1.077568173408508301e+00
4.596000000000000000e+03 2.199765014648437500e+01 1.736053085327148438e+01 5.961808562278747559e-02 1.232727542519569397e-01 5.486725270748138428e-02 8.691187202930450439e-02
4.597000000000000000e+03 5.159204864501953125e+01 2.780436897277832031e+01 -1.261587738990783691e+00 -4.140413105487823486e-01 -5.026887059211730957e-01 -9.430938959121704102e-01
4.598000000000000000e+03 4.976949310302734375e+01 2.627837181091308594e+01 -1.219198107719421387e+00 -6.822534203529357910e-01 -5.704354643821716309e-01 -1.032411456108093262e+00
4.599000000000000000e+03 2.523394966125488281e+01 1.992385292053222656e+01 5.750063061714172363e-02 1.047496497631072998e-01 4.867508262395858765e-02 7.894263416528701782e-02
4.600000000000000000e+03 4.393006515502929688e+01 1.995452308654785156e+01 -1.025589227676391602e+00 -1.027631163597106934e+00 -6.159661412239074707e-01 -1.106612443923950195e+00
4.601000000000000000e+03 2.202028656005859375e+01 1.801923751831054688e+01 5.345214903354644775e-02 1.204659864306449890e-01 5.217543989419937134e-02 8.225000649690628052e-02
4.602000000000000000e+03 5.465419006347656250e+01 2.802320098876953125e+01 -1.151636242866516113e+00 2.025039643049240112e-01 -2.847396731376647949e-01 -8.047484755516052246e-01
4.603000000000000000e+03 5.424149703979492188e+01 2.846417236328125000e+01 -1.225720405578613281e+00 1.146539896726608276e-01 -3.333199322223663330e-01 -8.386741876602172852e-01
4.604000000000000000e+03 2.013434600830078125e+01 1.568213748931884766e+01 6.158573180437088013e-02 1.374260336160659790e-01 5.970353260636329651e-02 9.121718257665634155e-02
4.605000000000000000e+03 1.722645187377929688e+01 1.379533386230468750e+01 5.169638991355895996e-02 1.636971235275268555e-01 6.461805105209350586e-02 8.733649551868438721e-02
4.606000000000000000e+03 4.336672592163085938e+01 1.998414230346679688e+01 -1.062663316726684570e+00 -1.093128204345703125e+00 -6.467374563217163086e-01 -1.159932255744934082e+00
4.607000000000000000e+03 3.781875228881835938e+01 1.355235195159912109e+01 -1.080243468284606934e+00 -1.213365077972412109e+00 -6.880825757980346680e-01 -1.113791823387145996e+00
4.608000000000000000e+03 4.530528259277343750e+01 2.138702011108398438e+01 -1.084055662155151367e+00 -9.804602265357971191e-01 -6.193547844886779785e-01 -1.079055428504943848e+00
4.609000000000000000e+03 2.164152526855468750e+01 1.772297668457031250e+01 5.396343395113945007e-02 1.235105544328689575e-01 5.324219539761543274e-02 8.286892622709274292e-02
4.610000000000000000e+03 5.067047882080078125e+01 2.707207679748535156e+01 -1.242992997169494629e+00 -5.699378848075866699e-01 -5.438792705535888672e-01 -9.882098436355590820e-01
4.611000000000000000e+03 5.245035171508789062e+01 2.779549217224121094e+01 -1.220858216285705566e+00 -2.033060789108276367e-01 -4.272492825984954834e-01 -8.892244100570678711e-01
4.612000000000000000e+03 4.675691604614257812e+01 2.314536094665527344e+01 -1.181286334991455078e+00 -9.179399013519287109e-01 -6.297678947448730469e-01 -1.086026787757873535e+00
4.613000000000000000e+03 4.729441070556640625e+01 2.354179763793945312e+01 -1.172384142875671387e+00 -8.543148636817932129e-01 -6.080096960067749023e-01 -1.071314215660095215e+00
4.614000000000000000e+03 6.996439361572265625e+01 3.010724258422851562e+01 -9.638110399246215820e-01 9.993428230285644531e+00 2.708885192871093750e+00 3.683497428894042969e+00
4.615000000000000000e+03 2.664328575134277344e+01 1.466687798500061035e+00 -1.608069777488708496e+00 -5.030308961868286133e-01 -6.333301663398742676e-01 -5.206629037857055664e-01
4.616000000000000000e+03 2.588211631774902344e+01 1.236770033836364746e+00 -1.735770344734191895e+00 -3.569584786891937256e-01 -6.278186440467834473e-01 -5.658940076828002930e-01
4.617000000000000000e+03 3.806521987915039062e+01 1.379925060272216797e+01 -1.074360013008117676e+00 -1.203453540802001953e+00 -6.833441257476806641e-01 -1.114333987236022949e+00
4.618000000000000000e+03 3.805040359497070312e+01 1.430295181274414062e+01 -1.103065490722656250e+00 -1.248748660087585449e+00 -7.055442333221435547e-01 -1.153736948966979980e+00
4.619000000000000000e+03 7.129212188720703125e+01 3.037735176086425781e+01 -1.610576272010803223e+00 1.340025424957275391e+01 3.536903381347656250e+00 1.862532377243041992e+00
4.620000000000000000e+03 3.695281982421875000e+01 1.236836814880371094e+01 -1.080305576324462891e+00 -1.198082089424133301e+00 -6.835162639617919922e-01 -1.091372013092041016e+00
4.621000000000000000e+03 4.941353988647460938e+01 2.523938560485839844e+01 -1.158354401588439941e+00 -6.535449028015136719e-01 -5.435697436332702637e-01 -1.007628917694091797e+00
4.622000000000000000e+03 3.860178375244140625e+01 1.435356616973876953e+01 -1.064786911010742188e+00 -1.182189226150512695e+00 -6.740928292274475098e-01 -1.109139561653137207e+00
4.623000000000000000e+03 3.971662902832031250e+01 1.620131874084472656e+01 -1.097739100456237793e+00 -1.178527474403381348e+00 -6.828799843788146973e-01 -1.165934801101684570e+00
4.624000000000000000e+03 2.501568794250488281e+01 1.964771270751953125e+01 5.913933366537094116e-02 1.062390953302383423e-01 4.961352795362472534e-02 8.035436272621154785e-02
4.625000000000000000e+03 2.422624778747558594e+01 1.936760902404785156e+01 5.691201984882354736e-02 1.089337840676307678e-01 4.975374042987823486e-02 8.049859106540679932e-02
4.626000000000000000e+03 1.818890953063964844e+01 1.366642189025878906e+01 6.370873749256134033e-02 1.592082977294921875e-01 6.687511503696441650e-02 9.900015592575073242e-02
4.627000000000000000e+03 3.887273406982421875e+01 1.464458751678466797e+01 -1.063675999641418457e+00 -1.172277212142944336e+00 -6.707859635353088379e-01 -1.108417272567749023e+00
4.628000000000000000e+03 5.280462646484375000e+01 2.787692642211914062e+01 -1.220609903335571289e+00 -1.329826861619949341e-01 -4.060777723789215088e-01 -8.714529275894165039e-01
4.629000000000000000e+03 6.710540008544921875e+01 2.908037567138671875e+01 8.734705299139022827e-02 3.576972723007202148e+00 1.099295973777770996e+00 2.520421981811523438e+00
4.630000000000000000e+03 2.551899528503417969e+01 2.057737350463867188e+01 5.341825261712074280e-02 1.029978394508361816e-01 4.692482575774192810e-02 7.630848884582519531e-02
4.631000000000000000e+03 4.556931686401367188e+01 2.165640258789062500e+01 -1.095170259475708008e+00 -9.677141308784484863e-01 -6.188653111457824707e-01 -1.073093652725219727e+00
4.632000000000000000e+03 3.914001464843750000e+01 1.494457530975341797e+01 -1.061998367309570312e+00 -1.163257360458374023e+00 -6.675767302513122559e-01 -1.110874295234680176e+00
4.633000000000000000e+03 4.907032394409179688e+01 2.503863334655761719e+01 -1.166445016860961914e+00 -7.019900083541870117e-01 -5.605304837226867676e-01 -1.026743650436401367e+00
4.634000000000000000e+03 1.993972587585449219e+01 1.629926872253417969e+01 5.448043346405029297e-02 1.343978196382522583e-01 5.666347593069076538e-02 8.534416556358337402e-02
4.635000000000000000e+03 5.255256652832031250e+01 2.743631744384765625e+01 -1.187182903289794922e+00 -1.652635633945465088e-01 -4.057339429855346680e-01 -8.665991425514221191e-01
4.636000000000000000e+03 1.451130008697509766e+01 9.561942100524902344e+00 6.176614761352539062e-02 2.586909234523773193e-01 9.613712877035140991e-02 9.045623242855072021e-02
4.637000000000000000e+03 3.088126373291015625e+01 2.757866477966308594e+01 3.914748504757881165e-02 7.909929752349853516e-02 3.547403588891029358e-02 5.630968883633613586e-02
4.638000000000000000e+03 3.506021499633789062e+01 1.076848411560058594e+01 -1.152473807334899902e+00 -1.242937445640563965e+00 -7.186233401298522949e-01 -1.126477479934692383e+00
4.639000000000000000e+03 4.318642044067382812e+01 1.920148658752441406e+01 -1.005010128021240234e+00 -1.044929623603820801e+00 -6.149819493293762207e-01 -1.130337238311767578e+00
4.640000000000000000e+03 3.940597152709960938e+01 1.525544166564941406e+01 -1.063346743583679199e+00 -1.153993606567382812e+00 -6.652020812034606934e-01 -1.113484382629394531e+00
4.641000000000000000e+03 5.024043273925781250e+01 2.579891014099121094e+01 -1.152101159095764160e+00 -5.411078929901123047e-01 -5.079627037048339844e-01 -9.615948200225830078e-01
4.642000000000000000e+03 5.037836074829101562e+01 2.621445846557617188e+01 -1.182296276092529297e+00 -5.539099574089050293e-01 -5.208618640899658203e-01 -9.709234833717346191e-01
4.643000000000000000e+03 2.650050354003906250e+01 2.073226928710937500e+01 5.683494359254837036e-02 9.892622381448745728e-02 4.672835022211074829e-02 7.718618214130401611e-02
4.644000000000000000e+03 4.131144714355468750e+01 1.676861572265625000e+01 -1.001206159591674805e+00 -1.030252814292907715e+00 -6.094377040863037109e-01 -1.105355978012084961e+00
4.645000000000000000e+03 5.062721252441406250e+01 2.653162002563476562e+01 -1.198019623756408691e+00 -5.305161476135253906e-01 -5.185607671737670898e-01 -9.648546576499938965e-01
4.646000000000000000e+03 4.584115219116210938e+01 2.190625572204589844e+01 -1.103245258331298828e+00 -9.503561258316040039e-01 -6.160804033279418945e-01 -1.067264795303344727e+00
4.647000000000000000e+03 4.619190597534179688e+01 2.265181350708007812e+01 -1.167037725448608398e+00 -9.635433554649353027e-01 -6.391743421554565430e-01 -1.093065857887268066e+00
4.648000000000000000e+03 2.630775260925292969e+01 2.259835052490234375e+01 4.285234585404396057e-02 9.646319597959518433e-02 4.179466515779495239e-02 6.868260353803634644e-02
4.649000000000000000e+03 2.712424850463867188e+01 2.322726440429687500e+01 4.198162630200386047e-02 9.346427768468856812e-02 4.063377156853675842e-02 6.751050055027008057e-02
4.650000000000000000e+03 4.506204605102539062e+01 2.053095436096191406e+01 -1.009621262550354004e+00 -9.380565881729125977e-01 -5.843033790588378906e-01 -1.042440414428710938e+00
4.651000000000000000e+03 2.479483985900878906e+01 1.937795639038085938e+01 6.030478700995445251e-02 1.071356609463691711e-01 5.023213475942611694e-02 8.145277947187423706e-02
4.652000000000000000e+03 2.102577018737792969e+01 1.630780029296875000e+01 6.260384619235992432e-02 1.317027658224105835e-01 5.829198658466339111e-02 9.013926237821578979e-02
4.653000000000000000e+03 3.671154785156250000e+01 1.206390094757080078e+01 -1.080614328384399414e+00 -1.195431470870971680e+00 -6.828137040138244629e-01 -1.086976647377014160e+00
4.654000000000000000e+03 1.536391735076904297e+01 1.062637615203857422e+01 6.122371926903724670e-02 2.219542413949966431e-01 8.495339006185531616e-02 9.760926663875579834e-02
4.655000000000000000e+03 2.465865516662597656e+01 1.991530799865722656e+01 5.484175309538841248e-02 1.065459325909614563e-01 4.841630533337593079e-02 7.799357920885086060e-02
4.656000000000000000e+03 4.337543869018554688e+01 1.950199890136718750e+01 -1.019907593727111816e+00 -1.050112009048461914e+00 -6.210058927536010742e-01 -1.130484938621520996e+00
4.657000000000000000e+03 1.795367813110351562e+01 1.310812377929687500e+01 6.721571087837219238e-02 1.658398658037185669e-01 6.991667300462722778e-02 1.034848541021347046e-01
4.658000000000000000e+03 4.097440719604492188e+01 1.629940032958984375e+01 -1.002074241638183594e+00 -1.032123446464538574e+00 -6.102592945098876953e-01 -1.089458107948303223e+00
4.659000000000000000e+03 2.503570175170898438e+01 2.038502693176269531e+01 5.247462913393974304e-02 1.045586466789245605e-01 4.710998386144638062e-02 7.621717453002929688e-02
4.660000000000000000e+03 3.968215942382812500e+01 1.556989288330078125e+01 -1.060038089752197266e+00 -1.138098478317260742e+00 -6.594409346580505371e-01 -1.117759823799133301e+00
4.661000000000000000e+03 2.719995880126953125e+01 2.393305778503417969e+01 3.870111703872680664e-02 9.178309887647628784e-02 3.914526477456092834e-02 6.490997225046157837e-02
4.662000000000000000e+03 2.036204719543457031e+01 1.609008598327636719e+01 5.993384122848510742e-02 1.350636631250381470e-01 5.849925056099891663e-02 8.887020498514175415e-02
4.663000000000000000e+03 7.261985778808593750e+01 2.948969459533691406e+01 -1.409045219421386719e+00 1.255596065521240234e+01 3.344074487686157227e+00 -1.073593050241470337e-01
4.664000000000000000e+03 7.323825073242187500e+01 3.135100555419921875e+01 6.420000195503234863e-01 1.367659091949462891e+01 4.295577049255371094e+00 -1.775614142417907715e+00
4.665000000000000000e+03 3.311729049682617188e+01 2.963672447204589844e+01 4.167401418089866638e-02 7.361228764057159424e-02 3.458588942885398865e-02 5.176466330885887146e-02
4.666000000000000000e+03 3.649782562255859375e+01 1.171729087829589844e+01 -1.084908127784729004e+00 -1.190213322639465332e+00 -6.825364232063293457e-01 -1.078270316123962402e+00
4.667000000000000000e+03 2.846223449707031250e+01 2.199747323989868164e+00 -1.511058092117309570e+00 -7.552448511123657227e-01 -6.798908710479736328e-01 -4.476469457149505615e-01
4.668000000000000000e+03 2.982856369018554688e+01 -5.957859754562377930e-01 -6.886130571365356445e-02 -5.709132552146911621e-01 -1.919323652982711792e-01 1.642283238470554352e-02
4.669000000000000000e+03 2.166052055358886719e+01 1.704680442810058594e+01 6.033662334084510803e-02 1.262351572513580322e-01 5.597153306007385254e-02 8.756873011589050293e-02
4.670000000000000000e+03 2.862458610534667969e+01 2.662487030029296875e+00 -1.749323368072509766e+00 -8.173699378967285156e-01 -7.700079679489135742e-01 -5.525242090225219727e-01
4.671000000000000000e+03 4.612631988525390625e+01 2.214345741271972656e+01 -1.109566688537597656e+00 -9.270412921905517578e-01 -6.109824180603027344e-01 -1.059183120727539062e+00
4.672000000000000000e+03 3.405224227905273438e+01 9.779260635375976562e+00 -1.185033917427062988e+00 -1.237982273101806641e+00 -7.269048094749450684e-01 -1.133266210556030273e+00
4.673000000000000000e+03 3.437238311767578125e+01 7.572685241699218750e+00 -1.094636797904968262e+00 -9.866337180137634277e-01 -6.243811249732971191e-01 -9.052129983901977539e-01
4.674000000000000000e+03 3.457318115234375000e+01 6.414684772491455078e+00 -1.040171623229980469e+00 -8.412298560142517090e-01 -5.644204616546630859e-01 -7.353675961494445801e-01
4.675000000000000000e+03 1.377039337158203125e+01 8.673850059509277344e+00 5.805791541934013367e-02 2.979352772235870361e-01 1.067979559302330017e-01 6.908959895372390747e-02
4.676000000000000000e+03 2.791325950622558594e+01 2.390303802490234375e+01 4.178519546985626221e-02 9.040654450654983521e-02 3.965752199292182922e-02 6.645920127630233765e-02
4.677000000000000000e+03 1.063591575622558594e+01 6.737329483032226562e+00 1.714494973421096802e-01 1.115377768874168396e-01 8.489617705345153809e-02 -8.477164804935455322e-02
4.678000000000000000e+03 1.708379173278808594e+01 1.133218860626220703e+01 7.847689092159271240e-02 1.941823959350585938e-01 8.179778605699539185e-02 1.171620860695838928e-01
4.679000000000000000e+03 2.797768974304199219e+01 -1.965246722102165222e-02 -4.412810206413269043e-01 -5.168294906616210938e-01 -2.874331474304199219e-01 -1.632348597049713135e-01
4.680000000000000000e+03 1.576058101654052734e+01 1.108444118499755859e+01 6.170657277107238770e-02 2.118083983659744263e-01 8.205448836088180542e-02 9.886791557073593140e-02
4.681000000000000000e+03 1.191355609893798828e+01 6.857112407684326172e+00 1.199725642800331116e-01 2.989126741886138916e-01 1.256655752658843994e-01 -8.110679686069488525e-02
4.682000000000000000e+03 3.174978637695312500e+01 4.784800529479980469e+00 -1.506439685821533203e+00 -8.436588048934936523e-01 -7.050295472145080566e-01 -7.251498103141784668e-01
4.683000000000000000e+03 3.509967422485351562e+01 7.594179630279541016e+00 -1.013946056365966797e+00 -9.335291385650634766e-01 -5.842425823211669922e-01 -8.318799138069152832e-01
4.684000000000000000e+03 2.988149642944335938e+01 2.654632949829101562e+01 3.789202496409416199e-02 8.259058743715286255e-02 3.614478558301925659e-02 5.989048629999160767e-02
4.685000000000000000e+03 3.068258094787597656e+01 2.645919609069824219e+01 4.228617623448371887e-02 8.037990331649780273e-02 3.679982200264930725e-02 6.057381257414817810e-02
4.686000000000000000e+03 1.700263977050781250e+01 1.182294750213623047e+01 7.023341208696365356e-02 1.898806840181350708e-01 7.803422957658767700e-02 1.093967556953430176e-01
4.687000000000000000e+03 2.899732971191406250e+01 2.450430297851562500e+01 4.285155609250068665e-02 8.638541400432586670e-02 3.877108916640281677e-02 6.558908522129058838e-02
4.688000000000000000e+03 2.983933067321777344e+01 2.606152725219726562e+01 4.100758582353591919e-02 8.262529969215393066e-02 3.708986565470695496e-02 6.142223626375198364e-02
4.689000000000000000e+03 1.923415184020996094e+01 1.471449470520019531e+01 6.352791935205459595e-02 1.461983472108840942e-01 6.291788071393966675e-02 9.505854547023773193e-02
4.690000000000000000e+03 9.783226966857910156e+00 1.133042526245117188e+01 4.705914109945297241e-02 7.072094827890396118e-02 3.533402457833290100e-02 -2.179343998432159424e-02
4.691000000000000000e+03 1.327562713623046875e+01 8.217276573181152344e+00 5.926448106765747070e-02 3.153437077999114990e-01 1.123824566602706909e-01 4.422393068671226501e-02
4.692000000000000000e+03 3.359886169433593750e+01 3.135036468505859375e+01 4.138687998056411743e-02 7.103406637907028198e-02 3.372628241777420044e-02 4.698683694005012512e-02
4.693000000000000000e+03 3.249860763549804688e+01 3.001943016052246094e+01 3.973384574055671692e-02 7.447786629199981689e-02 3.426351398229598999e-02 5.034457892179489136e-02
4.694000000000000000e+03 1.514757728576660156e+01 1.099004459381103516e+01 5.499415099620819092e-02 2.164877355098724365e-01 8.144456148147583008e-02 8.703125268220901489e-02
4.695000000000000000e+03 1.607997703552246094e+01 1.073265647888183594e+01 7.152283936738967896e-02 2.146736681461334229e-01 8.585894852876663208e-02 1.107767671346664429e-01
4.696000000000000000e+03 3.143412208557128906e+01 2.714460563659667969e+01 4.235679283738136292e-02 7.841831445693969727e-02 3.623253479599952698e-02 5.878577008843421936e-02
4.697000000000000000e+03 3.077154159545898438e+01 2.851097869873046875e+01 3.695486485958099365e-02 7.855508476495742798e-02 3.465298563241958618e-02 5.344481021165847778e-02
4.698000000000000000e+03 7.347054290771484375e+01 3.161275863647460938e+01 1.260621666908264160e+00 1.335120201110839844e+01 4.383547306060791016e+00 -1.988341689109802246e+00
4.699000000000000000e+03 7.338491821289062500e+01 2.910444259643554688e+01 -1.220962643623352051e+00 1.189419746398925781e+01 3.201970577239990234e+00 -6.807052493095397949e-01
4.700000000000000000e+03 3.556257629394531250e+01 1.088473320007324219e+01 -1.113467335700988770e+00 -1.209813594818115234e+00 -6.969842910766601562e-01 -1.090395689010620117e+00
4.701000000000000000e+03 3.612428283691406250e+01 1.088616085052490234e+01 -1.073571443557739258e+00 -1.154027938842773438e+00 -6.682798266410827637e-01 -1.044728279113769531e+00
4.702000000000000000e+03 5.514299774169921875e+01 2.911966705322265625e+01 -1.258551239967346191e+00 2.359641045331954956e-01 -3.067761659622192383e-01 -8.400779962539672852e-01
4.703000000000000000e+03 5.799592590332031250e+01 2.711534309387207031e+01 -7.290497422218322754e-01 6.464995145797729492e-01 -2.476506493985652924e-02 -4.930978417396545410e-01
4.704000000000000000e+03 6.474569702148437500e+01 2.802320480346679688e+01 1.661942806094884872e-04 2.017377614974975586e+00 6.052631139755249023e-01 1.201375603675842285e+00
4.705000000000000000e+03 2.931340217590332031e+01 2.545723724365234375e+01 4.094268381595611572e-02 8.459997177124023438e-02 3.766279667615890503e-02 6.290436536073684692e-02
4.706000000000000000e+03 2.750809860229492188e+01 2.421257019042968750e+01 3.885656967759132385e-02 9.078480303287506104e-02 3.889241069555282593e-02 6.445123255252838135e-02
4.707000000000000000e+03 3.398234558105468750e+01 8.908274650573730469e+00 -1.152413368225097656e+00 -1.168700575828552246e+00 -6.963341832160949707e-01 -1.066828966140747070e+00
4.708000000000000000e+03 1.988015556335449219e+01 1.525070953369140625e+01 6.444275379180908203e-02 1.411863118410110474e-01 6.168871745467185974e-02 9.383860975503921509e-02
4.709000000000000000e+03 3.411314392089843750e+01 7.216036319732666016e+00 -1.109815835952758789e+00 -9.851740002632141113e-01 -6.284969449043273926e-01 -9.001521468162536621e-01
4.710000000000000000e+03 3.504627990722656250e+01 8.318902969360351562e+00 -1.044139981269836426e+00 -1.012902498245239258e+00 -6.171127557754516602e-01 -9.126138687133789062e-01
4.711000000000000000e+03 2.848275947570800781e+01 2.489862632751464844e+01 4.003564268350601196e-02 8.715263009071350098e-02 3.815648332238197327e-02 6.360564380884170532e-02
4.712000000000000000e+03 2.886377906799316406e+01 1.260547190904617310e-01 -3.623087406158447266e-01 -6.445321440696716309e-01 -3.020522594451904297e-01 -8.687007427215576172e-02
4.713000000000000000e+03 3.304470825195312500e+01 2.905970954895019531e+01 4.358837381005287170e-02 7.486429810523986816e-02 3.553580120205879211e-02 5.378387495875358582e-02
4.714000000000000000e+03 1.160032749176025391e+01 6.184329986572265625e+00 1.703006476163864136e-01 2.755945920944213867e-01 1.337685734033584595e-01 -1.188183426856994629e-01
4.715000000000000000e+03 7.254959869384765625e+01 2.662388420104980469e+01 -1.411395549774169922e+00 9.954382896423339844e+00 2.562896013259887695e+00 4.927873611450195312e-01
4.716000000000000000e+03 7.274896240234375000e+01 2.706942367553710938e+01 -1.451679110527038574e+00 1.031459903717041016e+01 2.658876180648803711e+00 3.172046542167663574e-01
4.717000000000000000e+03 7.392835235595703125e+01 3.062898445129394531e+01 -2.904400229454040527e-02 1.234430885314941406e+01 3.694579601287841797e+00 -1.664294242858886719e+00
4.718000000000000000e+03 9.310427665710449219e+00 9.312849044799804688e+00 9.148045629262924194e-02 4.377605393528938293e-02 4.057695344090461731e-02 -3.122113086283206940e-02
4.719000000000000000e+03 3.177232742309570312e+01 4.328356742858886719e+00 -1.416064858436584473e+00 -7.916992306709289551e-01 -6.623291969299316406e-01 -6.016775369644165039e-01
4.720000000000000000e+03 3.128924369812011719e+01 4.370135784149169922e+00 -1.569879055023193359e+00 -8.451749086380004883e-01 -7.245162129402160645e-01 -6.550407409667968750e-01
4.721000000000000000e+03 3.379973983764648438e+01 5.704892158508300781e+00 -1.118939638137817383e+00 -8.379595279693603516e-01 -5.870697498321533203e-01 -7.241943478584289551e-01
4.722000000000000000e+03 4.216555404663085938e+01 1.905739402770996094e+01 -1.058782458305358887e+00 -1.126457571983337402e+00 -6.555719971656799316e-01 -1.211432814598083496e+00
4.723000000000000000e+03 4.270139694213867188e+01 1.738174438476562500e+01 -9.243139028549194336e-01 -9.334492683410644531e-01 -5.573289394378662109e-01 -1.046877622604370117e+00
4.724000000000000000e+03 6.156089019775390625e+01 2.784268569946289062e+01 -4.027792811393737793e-01 1.008732557296752930e+00 1.817860007286071777e-01 7.365611940622329712e-02
4.725000000000000000e+03 6.546110534667968750e+01 2.778482055664062500e+01 4.515672475099563599e-02 2.618436098098754883e+00 7.990778684616088867e-01 1.558399081230163574e+00
4.726000000000000000e+03 3.092421913146972656e+01 3.114649581909179688e+01 3.215964138507843018e-02 7.528323680162429810e-02 3.223286196589469910e-02 4.419139772653579712e-02
4.727000000000000000e+03 7.294947052001953125e+01 2.856664276123046875e+01 -1.467469811439514160e+00 1.153261184692382812e+01 3.019542455673217773e+00 -9.754195064306259155e-02
4.728000000000000000e+03 1.493999385833740234e+01 9.917613029479980469e+00 6.453070789575576782e-02 2.466798126697540283e-01 9.336315840482711792e-02 9.607096761465072632e-02
4.729000000000000000e+03 1.281984615325927734e+01 7.779897689819335938e+00 6.527335196733474731e-02 3.262963593006134033e-01 1.174709126353263855e-01 1.301488839089870453e-02
4.730000000000000000e+03 2.695023727416992188e+01 2.157163619995117188e+01 5.235504731535911560e-02 9.672189503908157349e-02 4.472308233380317688e-02 7.422570139169692993e-02
4.731000000000000000e+03 2.728256034851074219e+01 2.204796028137207031e+01 5.016436055302619934e-02 9.488376230001449585e-02 4.351443424820899963e-02 7.244588434696197510e-02
4.732000000000000000e+03 7.152933502197265625e+01 3.057645034790039062e+01 -1.482598662376403809e+00 1.406973457336425781e+01 3.776140689849853516e+00 1.257245302200317383e+00
4.733000000000000000e+03 7.322574615478515625e+01 3.079626464843750000e+01 -2.166954576969146729e-01 1.336907958984375000e+01 3.945715427398681641e+00 -1.427801847457885742e+00
4.734000000000000000e+03 2.956293869018554688e+01 -2.618644945323467255e-02 -2.826905250549316406e-01 -6.582394242286682129e-01 -2.822789847850799561e-01 -2.752544358372688293e-02
4.735000000000000000e+03 5.501882171630859375e+01 2.833917808532714844e+01 -1.172338604927062988e+00 2.462115287780761719e-01 -2.778381407260894775e-01 -8.101757764816284180e-01
4.736000000000000000e+03 5.612568664550781250e+01 2.667639541625976562e+01 -8.611967563629150391e-01 4.736275970935821533e-01 -1.162707433104515076e-01 -6.262818574905395508e-01
4.737000000000000000e+03 2.669439888000488281e+01 2.374302101135253906e+01 3.817836940288543701e-02 9.367614239454269409e-02 3.955635428428649902e-02 6.498196721076965332e-02
4.738000000000000000e+03 6.380575180053710938e+01 2.769817543029785156e+01 -7.997433096170425415e-02 1.671987771987915039e+00 4.776040315628051758e-01 8.225418925285339355e-01
4.739000000000000000e+03 3.430384063720703125e+01 3.198111152648925781e+01 4.290162399411201477e-02 7.036427408456802368e-02 3.397976979613304138e-02 4.654730856418609619e-02
4.740000000000000000e+03 3.355813217163085938e+01 3.298738098144531250e+01 4.077403992414474487e-02 6.876935064792633057e-02 3.286301717162132263e-02 4.191147908568382263e-02
4.741000000000000000e+03 6.071639633178710938e+01 2.715909385681152344e+01 -3.934450745582580566e-01 1.000330448150634766e+00 1.820656061172485352e-01 -3.530796244740486145e-02
4.742000000000000000e+03 5.931610870361328125e+01 2.686769676208496094e+01 -5.365136861801147461e-01 8.385306000709533691e-01 9.060507267713546753e-02 -2.803676426410675049e-01
4.743000000000000000e+03 2.924703216552734375e+01 2.758522033691406250e+00 -1.623482823371887207e+00 -8.129476308822631836e-01 -7.309291362762451172e-01 -4.566098451614379883e-01
4.744000000000000000e+03 2.907017517089843750e+01 -3.173700273036956787e-01 -2.011432349681854248e-01 -5.210272669792175293e-01 -2.166511416435241699e-01 -7.744353730231523514e-03
4.745000000000000000e+03 3.006442642211914062e+01 3.367609024047851562e+00 -1.646144151687622070e+00 -8.701066374778747559e-01 -7.548752427101135254e-01 -5.404108762741088867e-01
4.746000000000000000e+03 1.024438476562500000e+01 7.089822292327880859e+00 1.618971228599548340e-01 8.701463043689727783e-02 7.467352598905563354e-02 -6.944049894809722900e-02
4.747000000000000000e+03 1.013274383544921875e+01 1.482264232635498047e+01 1.223793253302574158e-02 6.308077275753021240e-02 2.259561233222484589e-02 -9.532240219414234161e-03
4.748000000000000000e+03 1.023223590850830078e+01 1.587777614593505859e+01 6.749597843736410141e-03 5.574605986475944519e-02 1.874869689345359802e-02 -9.713710285723209381e-03
4.749000000000000000e+03 3.148789978027343750e+01 -1.066404938697814941e+00 9.933182597160339355e-02 -6.505776643753051758e-01 -1.653737574815750122e-01 5.647733807563781738e-02
4.750000000000000000e+03 1.214938449859619141e+01 6.936090946197509766e+00 1.034226045012474060e-01 3.325636088848114014e-01 1.307958662509918213e-01 -5.883545428514480591e-02
4.751000000000000000e+03 6.299259948730468750e+01 2.771725273132324219e+01 -1.840407550334930420e-01 1.337425947189331055e+00 3.460155427455902100e-01 5.200374126434326172e-01
4.752000000000000000e+03 3.516551971435546875e+01 3.251485061645507812e+01 4.499974474310874939e-02 6.691973656415939331e-02 3.357584401965141296e-02 4.541446268558502197e-02
4.753000000000000000e+03 7.102085876464843750e+01 2.367043113708496094e+01 -8.314864039421081543e-01 7.826980590820312500e+00 2.098648309707641602e+00 1.042542576789855957e+00
4.754000000000000000e+03 3.163216781616210938e+01 2.871393775939941406e+01 3.944974392652511597e-02 7.687196135520935059e-02 3.489651158452033997e-02 5.361201241612434387e-02
4.755000000000000000e+03 5.736036682128906250e+01 2.655116462707519531e+01 -7.149080634117126465e-01 6.364033818244934082e-01 -2.355139702558517456e-02 -5.023995041847229004e-01
4.756000000000000000e+03 5.550561904907226562e+01 2.733466720581054688e+01 -1.011765956878662109e+00 3.481000959873199463e-01 -1.990997791290283203e-01 -7.212698459625244141e-01
4.757000000000000000e+03 6.172666549682617188e+01 2.691720771789550781e+01 -2.342999130487442017e-01 1.260217905044555664e+00 3.077753782272338867e-01 2.342273741960525513e-01
4.758000000000000000e+03 9.443216323852539062e+00 8.290581703186035156e+00 1.189654022455215454e-01 3.637827932834625244e-02 4.660310223698616028e-02 -3.694982081651687622e-02
4.759000000000000000e+03 3.582553100585937500e+01 -4.372189044952392578e+00 5.594215393066406250e-01 -5.506620407104492188e-01 2.627864945679903030e-03 2.527162060141563416e-02
4.760000000000000000e+03 3.449972152709960938e+01 -4.003510951995849609e+00 5.720360875129699707e-01 -6.072415113449096680e-01 -1.056163571774959564e-02 2.057786099612712860e-02
4.761000000000000000e+03 1.002939796447753906e+01 -8.224246025085449219e+00 -2.270820885896682739e-01 -4.111779630184173584e-01 -1.914780139923095703e-01 -6.052778959274291992e-01
4.762000000000000000e+03 9.363716125488281250e+00 -9.394195556640625000e+00 -1.585095822811126709e-01 -4.502676129341125488e-01 -1.826331615447998047e-01 -5.980867147445678711e-01
4.763000000000000000e+03 1.403629493713378906e+01 -7.244492053985595703e+00 -3.632897436618804932e-01 -7.448078989982604980e-01 -3.324292898178100586e-01 -8.586484193801879883e-01
4.764000000000000000e+03 1.299636936187744141e+01 -7.934946060180664062e+00 -2.910119295120239258e-01 -6.192162036895751953e-01 -2.730684280395507812e-01 -7.914875149726867676e-01
4.765000000000000000e+03 3.845684051513671875e+01 3.524253463745117188e+01 6.130580976605415344e-02 5.598014965653419495e-02 3.518578782677650452e-02 4.059652611613273621e-02
4.766000000000000000e+03 3.315396118164062500e+01 -3.252585172653198242e+00 5.157315135002136230e-01 -6.249459981918334961e-01 -3.276434540748596191e-02 4.049329459667205811e-02
4.767000000000000000e+03 6.881198120117187500e+01 -3.154291391372680664e+00 1.247291117906570435e-01 5.435184001922607422e+00 1.667973875999450684e+00 5.113676786422729492e-01
4.768000000000000000e+03 6.836062622070312500e+01 -4.046936988830566406e+00 1.388137936592102051e-01 5.331395149230957031e+00 1.641062617301940918e+00 4.915418326854705811e-01
4.769000000000000000e+03 1.088879394531250000e+01 -9.767929077148437500e+00 -1.359842419624328613e-01 -5.304474234580993652e-01 -1.999295055866241455e-01 -6.669446825981140137e-01
4.770000000000000000e+03 6.964998626708984375e+01 2.140821647644042969e+01 -4.471469819545745850e-01 6.580183982849121094e+00 1.839911103248596191e+00 1.095129489898681641e+00
4.771000000000000000e+03 3.656855010986328125e+01 3.218729400634765625e+01 4.889183491468429565e-02 6.489765644073486328e-02 3.413684666156768799e-02 4.774330556392669678e-02
4.772000000000000000e+03 1.178260612487792969e+01 1.865144729614257812e+01 -1.812541508115828037e-03 6.420671939849853516e-02 1.871825195848941803e-02 8.622462046332657337e-04
4.773000000000000000e+03 6.797723388671875000e+01 -5.898025989532470703e+00 1.320582032203674316e-01 5.196607589721679688e+00 1.598599672317504883e+00 4.723382294178009033e-01
4.774000000000000000e+03 3.387722396850585938e+01 -3.335807800292968750e+00 4.897758364677429199e-01 -6.276392936706542969e-01 -4.135904088616371155e-02 3.844963014125823975e-02
4.775000000000000000e+03 6.893730163574218750e+01 2.052927017211914062e+01 -3.334246575832366943e-01 6.093585968017578125e+00 1.728048324584960938e+00 1.115893602371215820e+00
4.776000000000000000e+03 1.286260318756103516e+01 -2.491065216064453125e+01 1.886554062366485596e-01 -5.666786432266235352e-01 -1.134069636464118958e-01 -3.353739380836486816e-01
4.777000000000000000e+03 1.865477752685546875e+01 -2.165629577636718750e+01 2.559114694595336914e-01 -1.425841003656387329e-01 3.399820625782012939e-02 -3.451991975307464600e-01
4.778000000000000000e+03 4.432966995239257812e+01 -1.281958580017089844e+01 3.761817812919616699e-01 4.866762459278106689e-01 2.588573992252349854e-01 4.796522855758666992e-02
4.779000000000000000e+03 6.786654663085937500e+01 1.054309844970703125e+01 1.109102889895439148e-01 5.369241714477539062e+00 1.644045710563659668e+00 7.666839361190795898e-01
4.780000000000000000e+03 6.863905334472656250e+01 9.408833503723144531e+00 1.075395941734313965e-01 5.636561393737792969e+00 1.723230361938476562e+00 7.432110905647277832e-01
4.781000000000000000e+03 6.897605895996093750e+01 6.156511783599853516e+00 1.314011961221694946e-01 5.660742282867431641e+00 1.737643003463745117e+00 6.745748519897460938e-01
4.782000000000000000e+03 6.997068023681640625e+01 5.379494190216064453e+00 1.190020069479942322e-01 5.942110061645507812e+00 1.818333625793457031e+00 6.419667005538940430e-01
4.783000000000000000e+03 3.633553695678710938e+01 -5.215861320495605469e+00 5.804533362388610840e-01 -5.122359395027160645e-01 2.046521753072738647e-02 1.706762611865997314e-02
4.784000000000000000e+03 7.237136840820312500e+01 2.496097564697265625e+01 -1.125897049903869629e+00 8.991195678710937500e+00 2.359589576721191406e+00 6.167457103729248047e-01
4.785000000000000000e+03 6.908825683593750000e+01 5.342176437377929688e+00 1.384689658880233765e-01 5.681555747985839844e+00 1.746007442474365234e+00 6.540524959564208984e-01
4.786000000000000000e+03 6.866873168945312500e+01 3.639545440673828125e+00 1.401831507682800293e-01 5.532497882843017578e+00 1.701804280281066895e+00 6.334090828895568848e-01
4.787000000000000000e+03 3.578257751464843750e+01 3.408762359619140625e+01 4.636644572019577026e-02 6.367928534746170044e-02 3.301372006535530090e-02 4.110958054661750793e-02
4.788000000000000000e+03 9.835363388061523438e+00 8.827429771423339844e+00 1.008651852607727051e-01 7.571019232273101807e-02 5.297261476516723633e-02 -3.940121829509735107e-02
4.789000000000000000e+03 1.034192943572998047e+01 8.341888427734375000e+00 1.078960597515106201e-01 1.051742807030677795e-01 6.392110139131546021e-02 -4.838860407471656799e-02
4.790000000000000000e+03 6.995948028564453125e+01 1.562453556060791016e+01 -6.894804537296295166e-02 6.263945579528808594e+00 1.858499288558959961e+00 8.340774178504943848e-01
4.791000000000000000e+03 7.004470825195312500e+01 1.790915679931640625e+01 -2.015970945358276367e-01 6.464266777038574219e+00 1.878800868988037109e+00 8.698502779006958008e-01
4.792000000000000000e+03 1.133714962005615234e+01 -9.050249099731445312e+00 -1.583978682756423950e-01 -5.234133005142211914e-01 -2.045433521270751953e-01 -6.802577376365661621e-01
4.793000000000000000e+03 1.183042335510253906e+01 -8.323033332824707031e+00 -2.672874927520751953e-01 -5.172046422958374023e-01 -2.353476285934448242e-01 -7.222177386283874512e-01
4.794000000000000000e+03 7.019950866699218750e+01 1.681854820251464844e+01 -1.210236102342605591e-01 6.492587566375732422e+00 1.911469221115112305e+00 8.289759755134582520e-01
4.795000000000000000e+03 6.906359863281250000e+01 1.502005004882812500e+01 -2.073798701167106628e-02 5.900388240814208984e+00 1.763895153999328613e+00 8.403403162956237793e-01
4.796000000000000000e+03 1.008255004882812500e+01 -1.362028884887695312e+01 6.116840243339538574e-02 -6.258278489112854004e-01 -1.693978309631347656e-01 -5.674046277999877930e-01
4.797000000000000000e+03 4.159890365600585938e+01 -7.282134056091308594e+00 5.140928030014038086e-01 1.586324349045753479e-02 1.589868217706680298e-01 4.793064668774604797e-02
4.798000000000000000e+03 1.159199047088623047e+01 2.240407180786132812e+01 -7.435460109263658524e-03 3.639689087867736816e-02 8.688429370522499084e-03 -3.733245190232992172e-03
4.799000000000000000e+03 9.897060394287109375e+00 2.066994476318359375e+01 -6.839776877313852310e-03 1.954871602356433868e-02 3.812681650742888451e-03 -1.242257002741098404e-02
4.800000000000000000e+03 6.833592224121093750e+01 1.786166876554489136e-01 1.472667902708053589e-01 5.380095481872558594e+00 1.658208727836608887e+00 5.771633982658386230e-01
4.801000000000000000e+03 7.083058166503906250e+01 1.279568290710449219e+01 1.472968049347400665e-02 6.460252285003662109e+00 1.942494511604309082e+00 7.304224967956542969e-01
4.802000000000000000e+03 6.898270416259765625e+01 1.259667873382568359e+01 4.508760944008827209e-02 5.807223320007324219e+00 1.755693197250366211e+00 7.923495173454284668e-01
4.803000000000000000e+03 4.213569259643554688e+01 -5.246678352355957031e+00 4.864232838153839111e-01 4.323817417025566101e-02 1.588984280824661255e-01 1.027865707874298096e-01
4.804000000000000000e+03 4.083032226562500000e+01 -6.995201110839843750e+00 5.418058037757873535e-01 -9.243293851613998413e-02 1.348118633031845093e-01 4.817569628357887268e-02
4.805000000000000000e+03 6.938987731933593750e+01 1.843166732788085938e+01 -2.030823975801467896e-01 6.242257118225097656e+00 1.811752438545227051e+00 9.543918371200561523e-01
4.806000000000000000e+03 6.978509521484375000e+01 1.974458885192871094e+01 -3.220742940902709961e-01 6.472177505493164062e+00 1.845030903816223145e+00 9.693373441696166992e-01
4.807000000000000000e+03 1.016516971588134766e+01 9.780481338500976562e+00 7.334919273853302002e-02 9.498479217290878296e-02 5.050019547343254089e-02 -3.045634366571903229e-02
4.808000000000000000e+03 9.587090492248535156e+00 1.313542366027832031e+01 2.584786899387836456e-02 5.444266647100448608e-02 2.408716082572937012e-02 -1.532743871212005615e-02
4.809000000000000000e+03 1.075768947601318359e+01 2.317558288574218750e+01 -9.620773606002330780e-03 2.053819783031940460e-02 3.275227500125765800e-03 -8.072151802480220795e-03
4.810000000000000000e+03 6.810290527343750000e+01 -2.274792480468750000e+01 4.724267870187759399e-02 5.039007663726806641e+00 1.525875091552734375e+00 2.768298387527465820e-01
4.811000000000000000e+03 6.951278686523437500e+01 -1.883306884765625000e+01 4.557818546891212463e-02 5.333117961883544922e+00 1.613608837127685547e+00 2.802777588367462158e-01
4.812000000000000000e+03 9.776720046997070312e+00 -2.026671600341796875e+01 1.373383700847625732e-01 -7.215901613235473633e-01 -1.752755343914031982e-01 -4.136939942836761475e-01
4.813000000000000000e+03 1.526704025268554688e+01 -1.713993835449218750e+01 2.513459920883178711e-01 -4.871455132961273193e-01 -7.073985785245895386e-02 -4.309543073177337646e-01
4.814000000000000000e+03 1.146922969818115234e+01 2.394271278381347656e+01 -9.052321314811706543e-03 2.729853056371212006e-02 5.473862867802381516e-03 -5.155302118510007858e-03
4.815000000000000000e+03 1.203124523162841797e+01 2.745744514465332031e+01 -9.388721548020839691e-03 1.985283009707927704e-02 3.139232285320758820e-03 -2.969187684357166290e-03
4.816000000000000000e+03 1.025676918029785156e+01 -1.485385704040527344e+01 1.017478853464126587e-01 -6.333358287811279297e-01 -1.594763845205307007e-01 -5.332223773002624512e-01
4.817000000000000000e+03 1.501589584350585938e+01 -1.877480125427246094e+01 2.316250056028366089e-01 -4.739254117012023926e-01 -7.269012182950973511e-02 -4.243112802505493164e-01
4.818000000000000000e+03 4.527039718627929688e+01 -1.765357589721679688e+01 1.747764199972152710e-01 6.970897912979125977e-01 2.615598738193511963e-01 5.007440224289894104e-02
4.819000000000000000e+03 4.512863540649414062e+01 -1.491953468322753906e+01 2.814020216464996338e-01 6.510664224624633789e-01 2.797405421733856201e-01 4.376102611422538757e-02
4.820000000000000000e+03 1.199418067932128906e+01 2.927748107910156250e+01 -9.825479239225387573e-03 1.347091142088174820e-02 1.093629631213843822e-03 -3.561011981219053268e-03
4.821000000000000000e+03 4.356610107421875000e+01 -1.435582256317138672e+01 3.089589178562164307e-01 3.966477513313293457e-01 2.116820067167282104e-01 3.182152286171913147e-02
4.822000000000000000e+03 3.710959625244140625e+01 3.550606918334960938e+01 5.173612385988235474e-02 5.831849202513694763e-02 3.301638737320899963e-02 3.773114085197448730e-02
4.823000000000000000e+03 7.026794433593750000e+01 1.361173820495605469e+01 -5.999135784804821014e-03 6.280134201049804688e+00 1.882240533828735352e+00 7.624000310897827148e-01
4.824000000000000000e+03 6.841507720947265625e+01 1.158434581756591797e+01 8.164142072200775146e-02 5.572721004486083984e+00 1.696308732032775879e+00 7.813296318054199219e-01
4.825000000000000000e+03 1.285380649566650391e+01 -1.709012794494628906e+01 2.008150815963745117e-01 -5.950051546096801758e-01 -1.182570233941078186e-01 -4.739834368228912354e-01
4.826000000000000000e+03 1.401222896575927734e+01 -1.571622753143310547e+01 2.211036086082458496e-01 -5.734962224960327148e-01 -1.057177782058715820e-01 -4.887734949588775635e-01
4.827000000000000000e+03 1.402292442321777344e+01 -1.710085678100585938e+01 2.164887189865112305e-01 -5.590804219245910645e-01 -1.027775108814239502e-01 -4.724983274936676025e-01
4.828000000000000000e+03 6.884989929199218750e+01 -2.398019790649414062e+01 3.708954155445098877e-02 5.145152568817138672e+00 1.554672718048095703e+00 2.552238106727600098e-01
4.829000000000000000e+03 6.876479339599609375e+01 -1.502949237823486328e+00 1.398712545633316040e-01 5.478826999664306641e+00 1.685609459877014160e+00 5.388559699058532715e-01
4.830000000000000000e+03 6.814003753662109375e+01 -8.082613945007324219e+00 1.200146973133087158e-01 5.191117763519287109e+00 1.593339681625366211e+00 4.312720000743865967e-01
4.831000000000000000e+03 6.602893066406250000e+01 -2.321147918701171875e+01 6.043757498264312744e-02 4.655095100402832031e+00 1.414659857749938965e+00 2.888898849487304688e-01
4.832000000000000000e+03 6.470243072509765625e+01 -2.218139457702636719e+01 6.600769609212875366e-02 4.420660495758056641e+00 1.346000432968139648e+00 3.027868866920471191e-01
4.833000000000000000e+03 5.030207061767578125e+01 -2.726942825317382812e+01 -7.511635124683380127e-02 1.868541359901428223e+00 5.380274653434753418e-01 2.144702821969985962e-01
4.834000000000000000e+03 4.914463806152343750e+01 -1.922964096069335938e+01 1.166881546378135681e-01 1.453465700149536133e+00 4.710461497306823730e-01 1.028722971677780151e-01
4.835000000000000000e+03 6.886017608642578125e+01 -5.603666305541992188e+00 1.238297373056411743e-01 5.420236587524414062e+00 1.663219928741455078e+00 4.650043845176696777e-01
4.836000000000000000e+03 6.808558654785156250e+01 -4.995190620422363281e+00 1.412248462438583374e-01 5.264381885528564453e+00 1.621682047843933105e+00 4.833604693412780762e-01
4.837000000000000000e+03 5.084601593017578125e+01 -2.315057754516601562e+01 1.956577878445386887e-03 1.865988016128540039e+00 5.603833794593811035e-01 1.691462993621826172e-01
4.838000000000000000e+03 6.781840515136718750e+01 -1.489761543273925781e+01 8.569602668285369873e-02 5.094737052917480469e+00 1.554129958152770996e+00 3.389198184013366699e-01
4.839000000000000000e+03 9.184492111206054688e+00 3.509809112548828125e+01 -5.572569090873003006e-03 -2.358784340322017670e-02 -8.748123422265052795e-03 -5.627315025776624680e-03
4.840000000000000000e+03 1.066862964630126953e+01 -1.863645172119140625e+01 1.546745151281356812e-01 -6.748448014259338379e-01 -1.560510843992233276e-01 -4.574643075466156006e-01
4.841000000000000000e+03 1.272630310058593750e+01 -1.439180946350097656e+01 1.652219146490097046e-01 -6.263901591300964355e-01 -1.383504718542098999e-01 -5.497707724571228027e-01
4.842000000000000000e+03 2.700252342224121094e+01 2.556442022323608398e+00 -2.175850391387939453e+00 -7.062629461288452148e-01 -8.646340370178222656e-01 -7.875747084617614746e-01
4.843000000000000000e+03 3.002668571472167969e+01 3.721336603164672852e+00 -1.695193886756896973e+00 -9.242619276046752930e-01 -7.858367562294006348e-01 -6.030521392822265625e-01
4.844000000000000000e+03 6.969751739501953125e+01 3.042785263061523438e+01 -6.134295463562011719e-01 9.156952857971191406e+00 2.563056945800781250e+00 4.142054557800292969e+00
4.845000000000000000e+03 6.897948455810546875e+01 3.012449645996093750e+01 -2.306071668863296509e-01 6.861238479614257812e+00 1.989189505577087402e+00 3.881064414978027344e+00
4.846000000000000000e+03 2.886206054687500000e+01 3.022687196731567383e+00 -1.797817349433898926e+00 -9.185478091239929199e-01 -8.149095773696899414e-01 -6.341512203216552734e-01
4.847000000000000000e+03 2.740409851074218750e+01 2.295665264129638672e+00 -1.929518222808837891e+00 -7.039382457733154297e-01 -7.900369167327880859e-01 -6.374446153640747070e-01
4.848000000000000000e+03 4.272658920288085938e+01 1.851956367492675781e+01 -9.844743013381958008e-01 -1.027655124664306641e+00 -6.036388278007507324e-01 -1.124000668525695801e+00
4.849000000000000000e+03 2.694652557373046875e+01 1.244586110115051270e+00 -1.401070237159729004e+00 -5.082310438156127930e-01 -5.727903842926025391e-01 -3.860101401805877686e-01
4.850000000000000000e+03 2.649892997741699219e+01 1.177065253257751465e+00 -1.467414379119873047e+00 -4.531268477439880371e-01 -5.761623382568359375e-01 -4.392641484737396240e-01
4.851000000000000000e+03 2.700597381591796875e+01 3.768549263477325439e-01 -6.653833985328674316e-01 -4.129326641559600830e-01 -3.234948217868804932e-01 -2.124178856611251831e-01
4.852000000000000000e+03 6.891300201416015625e+01 2.963979148864746094e+01 -3.527415096759796143e-01 6.762021064758300781e+00 1.922783851623535156e+00 3.593584537506103516e+00
4.853000000000000000e+03 7.025578308105468750e+01 3.012144279479980469e+01 -1.170717120170593262e+00 1.079022693634033203e+01 2.885852813720703125e+00 3.413451433181762695e+00
4.854000000000000000e+03 4.796302795410156250e+01 2.399798202514648438e+01 -1.161779522895812988e+00 -7.872681617736816406e-01 -5.847142934799194336e-01 -1.049172997474670410e+00
4.855000000000000000e+03 7.198991394042968750e+01 2.655962181091308594e+01 -1.402983665466308594e+00 9.620154380798339844e+00 2.465151309967041016e+00 8.603292107582092285e-01
4.856000000000000000e+03 4.855158996582031250e+01 2.399474334716796875e+01 -1.114463448524475098e+00 -6.892285346984863281e-01 -5.411075949668884277e-01 -9.933931827545166016e-01
4.857000000000000000e+03 4.789437484741210938e+01 2.335313796997070312e+01 -1.105252027511596680e+00 -7.414655089378356934e-01 -5.540152788162231445e-01 -1.000747203826904297e+00
4.858000000000000000e+03 2.709154129028320312e+01 2.070801258087158203e+00 -1.892717719078063965e+00 -6.794788837432861328e-01 -7.716589570045471191e-01 -6.693624854087829590e-01
4.859000000000000000e+03 4.850897216796875000e+01 2.456647682189941406e+01 -1.169054508209228516e+00 -7.512854337692260742e-01 -5.761019587516784668e-01 -1.045776486396789551e+00
4.860000000000000000e+03 3.749700164794921875e+01 1.295628452301025391e+01 -1.073013067245483398e+00 -1.192784190177917480e+00 -6.797391772270202637e-01 -1.091960430145263672e+00
4.861000000000000000e+03 3.766553878784179688e+01 1.327785205841064453e+01 -1.072022676467895508e+00 -1.201278448104858398e+00 -6.819903850555419922e-01 -1.104087710380554199e+00
4.862000000000000000e+03 4.060277557373046875e+01 1.626080322265625000e+01 -1.031196713447570801e+00 -1.075565218925476074e+00 -6.320285797119140625e-01 -1.109716892242431641e+00
4.863000000000000000e+03 5.313784027099609375e+01 2.794108581542968750e+01 -1.218002557754516602e+00 -7.274786382913589478e-02 -3.872251212596893311e-01 -8.650436997413635254e-01
4.864000000000000000e+03 5.179525375366210938e+01 2.746429824829101562e+01 -1.226014375686645508e+00 -3.426484763622283936e-01 -4.705988764762878418e-01 -9.152393341064453125e-01
4.865000000000000000e+03 4.482262039184570312e+01 1.994107627868652344e+01 -9.674478173255920410e-01 -9.160372018814086914e-01 -5.650454759597778320e-01 -1.025443553924560547e+00
4.866000000000000000e+03 4.952113342285156250e+01 2.484872817993164062e+01 -1.113153815269470215e+00 -5.868937969207763672e-01 -5.100142955780029297e-01 -9.643170833587646484e-01
4.867000000000000000e+03 4.877048110961914062e+01 2.482006263732910156e+01 -1.168291091918945312e+00 -7.273134589195251465e-01 -5.686813592910766602e-01 -1.035910964012145996e+00
4.868000000000000000e+03 2.564234733581542969e+01 2.135990524291992188e+01 4.823509603738784790e-02 1.011990681290626526e-01 4.483025148510932922e-02 7.288839668035507202e-02
4.869000000000000000e+03 7.312090301513671875e+01 3.024036026000976562e+01 -7.937417030334472656e-01 1.298455333709716797e+01 3.657243490219116211e+00 -9.996196627616882324e-01
4.870000000000000000e+03 4.532025146484375000e+01 2.086206245422363281e+01 -1.026557445526123047e+00 -9.291267395019531250e-01 -5.867052674293518066e-01 -1.040571928024291992e+00
4.871000000000000000e+03 4.420708847045898438e+01 2.026482582092285156e+01 -1.033155798912048340e+00 -1.019634962081909180e+00 -6.158372163772583008e-01 -1.101536273956298828e+00
4.872000000000000000e+03 5.433101272583007812e+01 2.770103263854980469e+01 -1.138399004936218262e+00 1.579413861036300659e-01 -2.941372692584991455e-01 -7.967692017555236816e-01
4.873000000000000000e+03 1.585547256469726562e+01 1.139250469207763672e+01 5.994058027863502502e-02 2.039111852645874023e-01 7.915552705526351929e-02 9.713988751173019409e-02
4.874000000000000000e+03 1.738043785095214844e+01 1.338303565979003906e+01 5.731280148029327393e-02 1.663257777690887451e-01 6.709156930446624756e-02 9.424336999654769897e-02
4.875000000000000000e+03 7.146804046630859375e+01 2.990672492980957031e+01 -1.651442527770996094e+00 1.275046062469482422e+01 3.329705476760864258e+00 1.450728535652160645e+00
4.876000000000000000e+03 7.233390045166015625e+01 3.021522521972656250e+01 -1.288846611976623535e+00 1.348868846893310547e+01 3.659952640533447266e+00 -1.734132319688796997e-02
4.877000000000000000e+03 4.362709808349609375e+01 1.971823120117187500e+01 -1.019679665565490723e+00 -1.037457346916198730e+00 -6.171411275863647461e-01 -1.119809389114379883e+00
4.878000000000000000e+03 4.701033782958984375e+01 2.288521385192871094e+01 -1.121823430061340332e+00 -8.493922352790832520e-01 -5.913647413253784180e-01 -1.038005113601684570e+00
4.879000000000000000e+03 4.818710327148437500e+01 2.304004669189453125e+01 -1.047844648361206055e+00 -6.621202230453491211e-01 -5.129894614219665527e-01 -9.471101164817810059e-01
4.880000000000000000e+03 4.979767990112304688e+01 2.583921051025390625e+01 -1.183090567588806152e+00 -6.372516155242919922e-01 -5.461027026176452637e-01 -1.004737973213195801e+00
4.881000000000000000e+03 3.800065231323242188e+01 1.330576515197753906e+01 -1.053652167320251465e+00 -1.164542675018310547e+00 -6.654584407806396484e-01 -1.078896045684814453e+00
4.882000000000000000e+03 4.555668258666992188e+01 2.116396331787109375e+01 -1.040127635002136230e+00 -9.235544204711914062e-01 -5.891045928001403809e-01 -1.038516044616699219e+00
4.883000000000000000e+03 1.432390403747558594e+01 9.986016273498535156e+00 5.367298051714897156e-02 2.486175596714019775e-01 9.068716317415237427e-02 7.566930353641510010e-02
4.884000000000000000e+03 3.627203369140625000e+01 1.132654762268066406e+01 -1.080785632133483887e+00 -1.179612994194030762e+00 -6.781195402145385742e-01 -1.067236423492431641e+00
4.885000000000000000e+03 3.722489547729492188e+01 1.265116405487060547e+01 -1.075111865997314453e+00 -1.194011330604553223e+00 -6.807369589805603027e-01 -1.091967940330505371e+00
4.886000000000000000e+03 2.131826400756835938e+01 1.670704269409179688e+01 6.058982014656066895e-02 1.284562051296234131e-01 5.671380832791328430e-02 8.862800896167755127e-02
4.887000000000000000e+03 2.630376625061035156e+01 9.842649102210998535e-01 -1.448014378547668457e+00 -3.650287091732025146e-01 -5.439128875732421875e-01 -4.495203495025634766e-01
4.888000000000000000e+03 4.030102539062500000e+01 1.611535453796386719e+01 -1.046093940734863281e+00 -1.096727848052978516e+00 -6.428465247154235840e-01 -1.118466615676879883e+00
4.889000000000000000e+03 4.098312377929687500e+01 1.591111183166503906e+01 -9.774911403656005859e-01 -1.005342483520507812e+00 -5.948501229286193848e-01 -1.053665041923522949e+00
4.890000000000000000e+03 1.750391578674316406e+01 1.427632331848144531e+01 5.017231404781341553e-02 1.577358692884445190e-01 6.237245351076126099e-02 8.526114374399185181e-02
4.891000000000000000e+03 2.127819633483886719e+01 1.811300659179687500e+01 4.735153913497924805e-02 1.220893710851669312e-01 5.083227157592773438e-02 7.827622443437576294e-02
4.892000000000000000e+03 5.119566726684570312e+01 2.701533508300781250e+01 -1.214383602142333984e+00 -4.460549652576446533e-01 -4.981315732002258301e-01 -9.404063224792480469e-01
4.893000000000000000e+03 5.200990676879882812e+01 2.713758468627929688e+01 -1.189463257789611816e+00 -2.673853039741516113e-01 -4.370545744895935059e-01 -8.868779540061950684e-01
4.894000000000000000e+03 3.830684280395507812e+01 1.355078029632568359e+01 -1.041145086288452148e+00 -1.144716978073120117e+00 -6.557586193084716797e-01 -1.069683074951171875e+00
4.895000000000000000e+03 3.833028411865234375e+01 1.407017421722412109e+01 -1.069764256477355957e+00 -1.190784454345703125e+00 -6.781646013259887695e-01 -1.110338926315307617e+00
4.896000000000000000e+03 5.111676025390625000e+01 2.649100494384765625e+01 -1.169442057609558105e+00 -4.177197813987731934e-01 -4.761485457420349121e-01 -9.204951524734497070e-01
4.897000000000000000e+03 2.489350318908691406e+01 2.013720512390136719e+01 5.418566986918449402e-02 1.057480797171592712e-01 4.798012226819992065e-02 7.767464220523834229e-02
4.898000000000000000e+03 4.448641967773437500e+01 2.004103279113769531e+01 -1.001816153526306152e+00 -9.705785512924194336e-01 -5.917184352874755859e-01 -1.064881086349487305e+00
4.899000000000000000e+03 7.138335418701171875e+01 2.814851760864257812e+01 -1.585625886917114258e+00 1.046195888519287109e+01 2.662899732589721680e+00 1.449965357780456543e+00
4.900000000000000000e+03 2.210031700134277344e+01 1.870801353454589844e+01 4.845136404037475586e-02 1.172660738229751587e-01 4.971523210406303406e-02 7.784186303615570068e-02
4.901000000000000000e+03 3.859435272216796875e+01 1.382556438446044922e+01 -1.033007860183715820e+00 -1.137112617492675781e+00 -6.510361433029174805e-01 -1.067340850830078125e+00
4.902000000000000000e+03 4.580145645141601562e+01 2.142393302917480469e+01 -1.053348898887634277e+00 -9.126551747322082520e-01 -5.898012518882751465e-01 -1.035851120948791504e+00
4.903000000000000000e+03 7.212540435791015625e+01 3.002208328247070312e+01 -1.445747733116149902e+00 1.318990898132324219e+01 3.523248434066772461e+00 3.751009404659271240e-01
4.904000000000000000e+03 7.259020233154296875e+01 3.041422080993652344e+01 -1.028340697288513184e+00 1.361376762390136719e+01 3.775627851486206055e+00 -4.779155552387237549e-01
4.905000000000000000e+03 5.360630798339843750e+01 2.735529136657714844e+01 -1.129333734512329102e+00 4.317367449402809143e-02 -3.258480429649353027e-01 -8.129535317420959473e-01
4.906000000000000000e+03 3.888301086425781250e+01 1.410689449310302734e+01 -1.028123855590820312e+00 -1.126074194908142090e+00 -6.462594270706176758e-01 -1.065938949584960938e+00
4.907000000000000000e+03 4.353587341308593750e+01 1.903100204467773438e+01 -9.658392667770385742e-01 -9.888856410980224609e-01 -5.864174962043762207e-01 -1.084390401840209961e+00
4.908000000000000000e+03 2.169374465942382812e+01 1.841488075256347656e+01 4.852002859115600586e-02 1.201865002512931824e-01 5.061195790767669678e-02 7.807467877864837646e-02
4.909000000000000000e+03 3.917017745971679688e+01 1.439065456390380859e+01 -1.024184703826904297e+00 -1.114248871803283691e+00 -6.415300369262695312e-01 -1.065701246261596680e+00
4.910000000000000000e+03 5.090411376953125000e+01 2.678586769104003906e+01 -1.206090331077575684e+00 -4.917414784431457520e-01 -5.093495845794677734e-01 -9.541142582893371582e-01
4.911000000000000000e+03 1.416507530212402344e+01 1.082045173645019531e+01 4.450466856360435486e-02 2.176632136106491089e-01 7.865036278963088989e-02 6.261157989501953125e-02
4.912000000000000000e+03 1.501804447174072266e+01 1.044127750396728516e+01 5.933023244142532349e-02 2.314810752868652344e-01 8.724339306354522705e-02 9.107309579849243164e-02
4.913000000000000000e+03 4.728004455566406250e+01 2.261537933349609375e+01 -1.078124165534973145e+00 -7.813066244125366211e-01 -5.578292608261108398e-01 -9.958153963088989258e-01
4.914000000000000000e+03 4.757402038574218750e+01 2.298620033264160156e+01 -1.093305349349975586e+00 -7.596631050109863281e-01 -5.558905005455017090e-01 -1.000760555267333984e+00
4.915000000000000000e+03 3.999870681762695312e+01 1.586085414886474609e+01 -1.053958415985107422e+00 -1.114554286003112793e+00 -6.505538225173950195e-01 -1.118101477622985840e+00
4.916000000000000000e+03 4.059389495849609375e+01 1.594837379455566406e+01 -1.012522578239440918e+00 -1.052313327789306641e+00 -6.194507479667663574e-01 -1.082995891571044922e+00
4.917000000000000000e+03 5.289248657226562500e+01 2.630170822143554688e+01 -1.059067487716674805e+00 -3.380980715155601501e-02 -3.278631865978240967e-01 -7.894191145896911621e-01
4.918000000000000000e+03 3.703958129882812500e+01 1.190890979766845703e+01 -1.050607919692993164e+00 -1.150570273399353027e+00 -6.603534817695617676e-01 -1.046415328979492188e+00
4.919000000000000000e+03 6.701358032226562500e+01 2.838048934936523438e+01 1.508889836259186268e-03 3.826590776443481445e+00 1.148429870605468750e+00 2.372404098510742188e+00
4.920000000000000000e+03 3.944834899902343750e+01 1.468308544158935547e+01 -1.022319316864013672e+00 -1.104650974273681641e+00 -6.380910873413085938e-01 -1.065325736999511719e+00
4.921000000000000000e+03 4.605755233764648438e+01 2.165627479553222656e+01 -1.060109019279479980e+00 -8.948303461074829102e-01 -5.864818096160888672e-01 -1.029404520988464355e+00
4.922000000000000000e+03 4.427224349975585938e+01 1.970524406433105469e+01 -9.812142848968505859e-01 -9.674975275993347168e-01 -5.846135616302490234e-01 -1.063948869705200195e+00
4.923000000000000000e+03 6.936934661865234375e+01 3.004956817626953125e+01 -5.165420770645141602e-01 7.978601932525634766e+00 2.238617897033691406e+00 3.902303218841552734e+00
4.924000000000000000e+03 2.332544136047363281e+01 1.940682601928710938e+01 5.044617503881454468e-02 1.119350194931030273e-01 4.871435835957527161e-02 7.768999785184860229e-02
4.925000000000000000e+03 5.022486495971679688e+01 2.533400726318359375e+01 -1.112767934799194336e+00 -5.041876435279846191e-01 -4.850866496562957764e-01 -9.330933094024658203e-01
4.926000000000000000e+03 1.901730728149414062e+01 1.527109050750732422e+01 5.655301362276077271e-02 1.443318575620651245e-01 6.026546284556388855e-02 8.876278996467590332e-02
4.927000000000000000e+03 1.878471565246582031e+01 1.448329448699951172e+01 6.145122274756431580e-02 1.511485874652862549e-01 6.377994269132614136e-02 9.434641152620315552e-02
4.928000000000000000e+03 1.726519775390625000e+01 1.587659931182861328e+01 3.508393466472625732e-02 1.403789371252059937e-01 5.263886228203773499e-02 6.749892979860305786e-02
4.929000000000000000e+03 5.503025436401367188e+01 2.755887985229492188e+01 -1.068920135498046875e+00 2.785862982273101807e-01 -2.371001541614532471e-01 -7.606396675109863281e-01
4.930000000000000000e+03 5.344553375244140625e+01 2.789285087585449219e+01 -1.191895365715026855e+00 8.331810124218463898e-03 -3.550690412521362305e-01 -8.424926996231079102e-01
4.931000000000000000e+03 5.141834640502929688e+01 2.668281173706054688e+01 -1.171740055084228516e+00 -3.672980666160583496e-01 -4.617114365100860596e-01 -9.060149788856506348e-01
4.932000000000000000e+03 5.063537597656250000e+01 2.571878242492675781e+01 -1.121111154556274414e+00 -4.523528516292572021e-01 -4.720391929149627686e-01 -9.182381629943847656e-01
4.933000000000000000e+03 5.097008132934570312e+01 2.605342483520507812e+01 -1.132291555404663086e+00 -4.101931154727935791e-01 -4.627453982830047607e-01 -9.062459468841552734e-01
4.934000000000000000e+03 2.279285240173339844e+01 1.845130157470703125e+01 5.513343587517738342e-02 1.162134483456611633e-01 5.140406638383865356e-02 8.226700872182846069e-02
4.935000000000000000e+03 2.442949676513671875e+01 1.965290832519531250e+01 5.563340336084365845e-02 1.080473363399505615e-01 4.910422489047050476e-02 7.908535748720169067e-02
4.936000000000000000e+03 2.559737014770507812e+01 2.095062065124511719e+01 5.095097050070762634e-02 1.018843501806259155e-01 4.585059732198715210e-02 7.474897801876068115e-02
4.937000000000000000e+03 2.609210205078125000e+01 2.128298568725585938e+01 5.062841996550559998e-02 9.968240559101104736e-02 4.509324580430984497e-02 7.412131130695343018e-02
4.938000000000000000e+03 4.408449935913085938e+01 1.930433845520019531e+01 -9.562522172927856445e-01 -9.513496756553649902e-01 -5.722805857658386230e-01 -1.054464101791381836e+00
4.939000000000000000e+03 4.138544082641601562e+01 1.632536125183105469e+01 -9.651639461517333984e-01 -9.895961880683898926e-01 -5.864280462265014648e-01 -1.060276389122009277e+00
4.940000000000000000e+03 2.996011352539062500e+01 2.713676643371582031e+01 3.837022557854652405e-02 8.107467740774154663e-02 3.583347052335739136e-02 5.747046694159507751e-02
4.941000000000000000e+03 4.642305755615234375e+01 2.237561607360839844e+01 -1.114857554435729980e+00 -9.000028371810913086e-01 -6.044581532478332520e-01 -1.050658702850341797e+00
4.942000000000000000e+03 3.971325302124023438e+01 1.498581981658935547e+01 -1.019715547561645508e+00 -1.094091415405273438e+00 -6.341420412063598633e-01 -1.070192098617553711e+00
4.943000000000000000e+03 3.996715545654296875e+01 1.528569889068603516e+01 -1.020214200019836426e+00 -1.083522558212280273e+00 -6.311210393905639648e-01 -1.076315999031066895e+00
4.944000000000000000e+03 4.672154998779296875e+01 2.261729431152343750e+01 -1.120663642883300781e+00 -8.747383356094360352e-01 -5.986205935478210449e-01 -1.041334509849548340e+00
4.945000000000000000e+03 2.054930305480957031e+01 1.651479339599609375e+01 5.689071863889694214e-02 1.318869888782501221e-01 5.663331225514411926e-02 8.645875751972198486e-02
4.946000000000000000e+03 5.271380233764648438e+01 2.829771995544433594e+01 -1.260650038719177246e+00 -1.789790987968444824e-01 -4.318887591361999512e-01 -8.906003832817077637e-01
4.947000000000000000e+03 7.177165222167968750e+01 2.984200286865234375e+01 -1.625124096870422363e+00 1.276905250549316406e+01 3.343178510665893555e+00 1.039628505706787109e+00
4.948000000000000000e+03 4.633477401733398438e+01 2.187371253967285156e+01 -1.063118934631347656e+00 -8.663283586502075195e-01 -5.788341760635375977e-01 -1.019862532615661621e+00
4.949000000000000000e+03 4.664321899414062500e+01 2.208243751525878906e+01 -1.063398241996765137e+00 -8.386864662170410156e-01 -5.706254243850708008e-01 -1.006388664245605469e+00
4.950000000000000000e+03 3.738692474365234375e+01 1.189111995697021484e+01 -1.019569396972656250e+00 -1.107649326324462891e+00 -6.381656527519226074e-01 -1.014757871627807617e+00
4.951000000000000000e+03 2.128850555419921875e+01 1.740502738952636719e+01 5.432163923978805542e-02 1.255601048469543457e-01 5.396452546119689941e-02 8.367630839347839355e-02
4.952000000000000000e+03 2.096742630004882812e+01 1.707890701293945312e+01 5.489521101117134094e-02 1.283805519342422485e-01 5.498272553086280823e-02 8.439086377620697021e-02
4.953000000000000000e+03 1.541533088684082031e+01 1.124736595153808594e+01 5.593738332390785217e-02 2.079583853483200073e-01 7.916872948408126831e-02 9.114301204681396484e-02
4.954000000000000000e+03 2.716138648986816406e+01 1.515091896057128906e+00 -1.501114130020141602e+00 -6.101515889167785645e-01 -6.333796977996826172e-01 -4.849977493286132812e-01
4.955000000000000000e+03 1.373457336425781250e+01 9.186898231506347656e+00 5.671136453747749329e-02 2.709451615810394287e-01 9.829695522785186768e-02 6.131049990653991699e-02
4.956000000000000000e+03 3.474392700195312500e+01 9.198611259460449219e+00 -1.102615714073181152e+00 -1.122243165969848633e+00 -6.674576401710510254e-01 -1.020029425621032715e+00
4.957000000000000000e+03 3.680419158935546875e+01 1.119666385650634766e+01 -1.030376434326171875e+00 -1.108085155487060547e+00 -6.415385007858276367e-01 -1.007690787315368652e+00
4.958000000000000000e+03 4.241627502441406250e+01 1.815577697753906250e+01 -9.862520098686218262e-01 -1.026733875274658203e+00 -6.038957834243774414e-01 -1.125972032546997070e+00
4.959000000000000000e+03 4.333733367919921875e+01 1.866395568847656250e+01 -9.537127614021301270e-01 -9.786392450332641602e-01 -5.797055959701538086e-01 -1.079416155815124512e+00
4.960000000000000000e+03 7.306235504150390625e+01 2.941973304748535156e+01 -1.232720613479614258e+00 1.223718357086181641e+01 3.301338911056518555e+00 -5.054672360420227051e-01
4.961000000000000000e+03 7.350341033935546875e+01 3.038632202148437500e+01 -4.846626222133636475e-01 1.276121902465820312e+01 3.682966709136962891e+00 -1.350577712059020996e+00
4.962000000000000000e+03 2.797904968261718750e+01 1.122076153755187988e+00 -1.092547416687011719e+00 -5.483281612396240234e-01 -4.922626614570617676e-01 -2.067312747240066528e-01
4.963000000000000000e+03 3.552457809448242188e+01 1.002674770355224609e+01 -1.078115463256835938e+00 -1.134632825851440430e+00 -6.638244986534118652e-01 -1.024419188499450684e+00
4.964000000000000000e+03 2.865781974792480469e+01 2.403241348266601562e+01 4.365385696291923523e-02 8.802475035190582275e-02 3.950358182191848755e-02 6.682839989662170410e-02
4.965000000000000000e+03 3.279351806640625000e+01 4.709348201751708984e+00 -1.250359535217285156e+00 -7.881568074226379395e-01 -6.115549206733703613e-01 -6.288377642631530762e-01
4.966000000000000000e+03 4.297658538818359375e+01 1.886944770812988281e+01 -9.924702048301696777e-01 -1.035880208015441895e+00 -6.085051298141479492e-01 -1.125567555427551270e+00
4.967000000000000000e+03 1.285666084289550781e+01 7.322049140930175781e+00 7.630516588687896729e-02 3.580691516399383545e-01 1.303122937679290771e-01 5.752226337790489197e-03
4.968000000000000000e+03 1.327238464355468750e+01 8.705399513244628906e+00 5.862877517938613892e-02 2.861443161964416504e-01 1.034319251775741577e-01 3.974048793315887451e-02
4.969000000000000000e+03 6.762040710449218750e+01 2.943040466308593750e+01 7.798796147108078003e-02 4.137775897979736328e+00 1.264729142189025879e+00 2.905419111251831055e+00
4.970000000000000000e+03 1.656857872009277344e+01 1.176789951324462891e+01 6.526372581720352173e-02 1.928135752677917480e-01 7.742319256067276001e-02 1.041071712970733643e-01
4.971000000000000000e+03 1.729976654052734375e+01 1.238877868652343750e+01 6.744726002216339111e-02 1.798300147056579590e-01 7.418318092823028564e-02 1.050974428653717041e-01
4.972000000000000000e+03 2.894591522216796875e+01 2.009562969207763672e+00 -1.351894855499267578e+00 -7.411733865737915039e-01 -6.279205083847045898e-01 -3.353318274021148682e-01
4.973000000000000000e+03 6.633616638183593750e+01 2.818717193603515625e+01 4.042158275842666626e-02 3.199173450469970703e+00 9.718785285949707031e-01 2.009145259857177734e+00
4.974000000000000000e+03 2.303152275085449219e+01 1.810751152038574219e+01 6.036077812314033508e-02 1.169320121407508850e-01 5.318783596158027649e-02 8.547018468379974365e-02
4.975000000000000000e+03 2.360899543762207031e+01 1.853879547119140625e+01 6.059337779879570007e-02 1.133372783660888672e-01 5.217919871211051941e-02 8.411446213722229004e-02
4.976000000000000000e+03 1.469271469116210938e+01 1.021009445190429688e+01 5.709203332662582397e-02 2.360999584197998047e-01 8.795759826898574829e-02 8.747825771570205688e-02
4.977000000000000000e+03 3.334514236450195312e+01 5.145781993865966797e+00 -1.174176692962646484e+00 -8.028144836425781250e-01 -5.930973291397094727e-01 -6.672713756561279297e-01
4.978000000000000000e+03 3.059319114685058594e+01 2.702487373352050781e+01 3.893390670418739319e-02 8.026967197656631470e-02 3.576107323169708252e-02 5.850359424948692322e-02
4.979000000000000000e+03 2.936470794677734375e+01 2.662771415710449219e+01 3.828908503055572510e-02 8.237712830305099487e-02 3.619986400008201599e-02 5.871573463082313538e-02
4.980000000000000000e+03 7.187840270996093750e+01 2.814316940307617188e+01 -1.613700509071350098e+00 1.080533981323242188e+01 2.757491827011108398e+00 9.726133942604064941e-01
4.981000000000000000e+03 7.292889404296875000e+01 2.806817054748535156e+01 -1.495279312133789062e+00 1.110057830810546875e+01 2.881589889526367188e+00 3.799222037196159363e-02
4.982000000000000000e+03 1.687437057495117188e+01 1.228131484985351562e+01 6.324926018714904785e-02 1.828590631484985352e-01 7.383249700069427490e-02 1.016566604375839233e-01
4.983000000000000000e+03 3.668786239624023438e+01 1.078703117370605469e+01 -1.014541506767272949e+00 -1.089403748512268066e+00 -6.311835646629333496e-01 -9.840544462203979492e-01
4.984000000000000000e+03 3.510411834716796875e+01 1.008684158325195312e+01 -1.110761523246765137e+00 -1.179633140563964844e+00 -6.871184110641479492e-01 -1.062852382659912109e+00
4.985000000000000000e+03 6.501337432861328125e+01 2.753117942810058594e+01 3.417733684182167053e-02 2.408578634262084961e+00 7.328268289566040039e-01 1.351600766181945801e+00
4.986000000000000000e+03 2.743174743652343750e+01 3.785104751586914062e-01 -7.425519227981567383e-01 -4.828547835350036621e-01 -3.676220178604125977e-01 -2.293470352888107300e-01
4.987000000000000000e+03 2.979663276672363281e+01 2.787275695800781250e+01 3.402199223637580872e-02 8.081134408712387085e-02 3.445000201463699341e-02 5.455211549997329712e-02
4.988000000000000000e+03 3.040518188476562500e+01 2.806545829772949219e+01 3.710106387734413147e-02 7.947598397731781006e-02 3.497311472892761230e-02 5.514763668179512024e-02
4.989000000000000000e+03 2.819924545288085938e+01 2.436662864685058594e+01 4.075801372528076172e-02 8.892709016799926758e-02 3.890553116798400879e-02 6.523857265710830688e-02
4.990000000000000000e+03 1.494015502929687500e+01 1.128397750854492188e+01 4.872328788042068481e-02 2.126019150018692017e-01 7.839755713939666748e-02 7.919812947511672974e-02
4.991000000000000000e+03 3.129440307617187500e+01 3.933544397354125977e+00 -1.449774384498596191e+00 -7.980897426605224609e-01 -6.743592023849487305e-01 -5.381552577018737793e-01
4.992000000000000000e+03 2.929190826416015625e+01 2.610059165954589844e+01 3.760661557316780090e-02 8.388625830411911011e-02 3.644786030054092407e-02 6.041085720062255859e-02
4.993000000000000000e+03 1.136882591247558594e+01 7.477774620056152344e+00 1.160690411925315857e-01 2.054040580987930298e-01 9.644193202257156372e-02 -6.649828702211380005e-02
4.994000000000000000e+03 2.705011940002441406e+01 2.249262619018554688e+01 4.656092077493667603e-02 9.474359452724456787e-02 4.239135608077049255e-02 7.052893936634063721e-02
4.995000000000000000e+03 2.838736534118652344e+01 1.753113508224487305e+00 -1.385787487030029297e+00 -6.910876631736755371e-01 -6.230625510215759277e-01 -3.480567932128906250e-01
4.996000000000000000e+03 2.707558059692382812e+01 2.435746383666992188e+01 3.723293542861938477e-02 9.162910282611846924e-02 3.865861147642135620e-02 6.363478302955627441e-02
4.997000000000000000e+03 3.478507995605468750e+01 7.275738239288330078e+00 -1.036674022674560547e+00 -9.368535876274108887e-01 -5.920583009719848633e-01 -8.354163765907287598e-01
4.998000000000000000e+03 2.667043876647949219e+01 2.293096542358398438e+01 4.255579411983489990e-02 9.532359242439270020e-02 4.136381670832633972e-02 6.823688745498657227e-02
4.999000000000000000e+03 2.864078712463378906e+01 2.554827499389648438e+01 3.724595159292221069e-02 8.617457002401351929e-02 3.702615574002265930e-02 6.175883859395980835e-02
5.000000000000000000e+03 2.789599990844726562e+01 2.513326072692871094e+01 3.596439585089683533e-02 8.877420425415039062e-02 3.742158040404319763e-02 6.186920031905174255e-02
5.001000000000000000e+03 1.242768192291259766e+01 7.336095333099365234e+00 7.976741343736648560e-02 3.286708593368530273e-01 1.225314810872077942e-01 -2.217360958456993103e-02
5.002000000000000000e+03 1.278964424133300781e+01 8.259468078613281250e+00 6.499108672142028809e-02 2.933866679668426514e-01 1.075133234262466431e-01 1.244855578988790512e-02
5.003000000000000000e+03 3.282328796386718750e+01 3.215443801879882812e+01 3.816343843936920166e-02 7.138628512620925903e-02 3.286491706967353821e-02 4.350643977522850037e-02
5.004000000000000000e+03 3.177268600463867188e+01 3.056249618530273438e+01 3.618922084569931030e-02 7.471740990877151489e-02 3.327199071645736694e-02 4.850644245743751526e-02
5.005000000000000000e+03 3.590273666381835938e+01 9.161818504333496094e+00 -9.976254701614379883e-01 -1.011981725692749023e+00 -6.028821468353271484e-01 -9.097236990928649902e-01
5.006000000000000000e+03 3.035760116577148438e+01 3.403241872787475586e+00 -1.520638465881347656e+00 -8.363966345787048340e-01 -7.071105241775512695e-01 -4.754600226879119873e-01
5.007000000000000000e+03 3.218234252929687500e+01 3.369512796401977539e+00 -1.148720145225524902e+00 -7.219340205192565918e-01 -5.611962676048278809e-01 -3.716984391212463379e-01
5.008000000000000000e+03 3.127724647521972656e+01 2.811174392700195312e+01 3.924996778368949890e-02 7.764787226915359497e-02 3.506935387849807739e-02 5.527851730585098267e-02
5.009000000000000000e+03 4.219648361206054688e+01 1.689885330200195312e+01 -9.355345964431762695e-01 -9.448622465133666992e-01 -5.641190409660339355e-01 -1.046437501907348633e+00
5.010000000000000000e+03 1.943444824218750000e+01 1.555125617980957031e+01 5.710981413722038269e-02 1.405171155929565430e-01 5.928807705640792847e-02 8.875218778848648071e-02
5.011000000000000000e+03 2.682790756225585938e+01 2.190217208862304688e+01 4.901560768485069275e-02 9.630223363637924194e-02 4.359535500407218933e-02 7.242476195096969604e-02
5.012000000000000000e+03 2.661726951599121094e+01 2.226045608520507812e+01 4.631474986672401428e-02 9.669025987386703491e-02 4.290150105953216553e-02 7.077194005250930786e-02
5.013000000000000000e+03 6.419460296630859375e+01 2.743132972717285156e+01 2.111158566549420357e-03 1.986943721771240234e+00 5.967164635658264160e-01 1.034291625022888184e+00
5.014000000000000000e+03 1.671826553344726562e+01 1.271872043609619141e+01 5.649994313716888428e-02 1.792383641004562378e-01 7.072149217128753662e-02 9.337706863880157471e-02
5.015000000000000000e+03 5.865012741088867188e+01 2.701482200622558594e+01 -6.423124670982360840e-01 7.329850196838378906e-01 2.720177732408046722e-02 -3.999509811401367188e-01
5.016000000000000000e+03 3.281245040893554688e+01 -1.621840596199035645e+00 2.549620866775512695e-01 -6.612859964370727539e-01 -1.218971759080886841e-01 6.273619830608367920e-02
5.017000000000000000e+03 2.947772979736328125e+01 2.237799167633056641e+00 -1.356012821197509766e+00 -7.483358979225158691e-01 -6.313046216964721680e-01 -3.158371150493621826e-01
5.018000000000000000e+03 3.468111801147460938e+01 7.938776969909667969e+00 -1.069000124931335449e+00 -1.012022972106933594e+00 -6.243069767951965332e-01 -9.185395836830139160e-01
5.019000000000000000e+03 5.537211990356445312e+01 2.785947036743164062e+01 -1.085900068283081055e+00 3.082678914070129395e-01 -2.332896739244461060e-01 -7.653489708900451660e-01
5.020000000000000000e+03 5.550474548339843750e+01 2.671295738220214844e+01 -9.205970168113708496e-01 3.838773071765899658e-01 -1.610159128904342651e-01 -6.739219427108764648e-01
5.021000000000000000e+03 7.319317626953125000e+01 2.983601570129394531e+01 -1.042821645736694336e+00 1.256860446929931641e+01 3.457735061645507812e+00 -8.084895014762878418e-01
5.022000000000000000e+03 3.482828521728515625e+01 6.049232482910156250e+00 -9.757689237594604492e-01 -8.152250647544860840e-01 -5.372982025146484375e-01 -6.738522648811340332e-01
5.023000000000000000e+03 3.044315719604492188e+01 3.133844375610351562e+00 -1.443646669387817383e+00 -8.119111657142639160e-01 -6.766673326492309570e-01 -4.282785058021545410e-01
5.024000000000000000e+03 1.089260292053222656e+01 7.940641403198242188e+00 1.135078147053718567e-01 1.588135063648223877e-01 8.169639855623245239e-02 -5.814293771982192993e-02
5.025000000000000000e+03 6.315768432617187500e+01 2.684389877319335938e+01 -5.261745676398277283e-02 1.716455459594726562e+00 4.991514086723327637e-01 6.946411728858947754e-01
5.026000000000000000e+03 1.099412536621093750e+01 7.092020034790039062e+00 1.437674909830093384e-01 1.696603000164031982e-01 9.402833878993988037e-02 -8.137948065996170044e-02
5.027000000000000000e+03 3.194896507263183594e+01 -7.148746848106384277e-01 2.184308506548404694e-02 -6.793754696846008301e-01 -1.972597092390060425e-01 5.966596677899360657e-02
5.028000000000000000e+03 3.534486770629882812e+01 -3.496397733688354492e+00 4.834088087081909180e-01 -5.823290348052978516e-01 -2.967606671154499054e-02 5.341577157378196716e-02
5.029000000000000000e+03 7.235353088378906250e+01 2.764019203186035156e+01 -1.546250462532043457e+00 1.060853767395019531e+01 2.718686342239379883e+00 5.724614858627319336e-01
5.030000000000000000e+03 3.251043319702148438e+01 3.410715484619140625e+01 3.664427250623703003e-02 6.940498203039169312e-02 3.181477636098861694e-02 3.674032911658287048e-02
5.031000000000000000e+03 3.283798217773437500e+01 -2.629126548767089844e+00 4.501536786556243896e-01 -6.517985463142395020e-01 -6.049345061182975769e-02 3.343905135989189148e-02
5.032000000000000000e+03 3.043341636657714844e+01 2.610934495925903320e+00 -1.271558046340942383e+00 -7.890093326568603516e-01 -6.181702017784118652e-01 -3.304230868816375732e-01
5.033000000000000000e+03 3.034772682189941406e+01 -3.245835006237030029e-01 -1.302077621221542358e-01 -6.765238642692565918e-01 -2.420194894075393677e-01 1.739596389234066010e-02
5.034000000000000000e+03 1.202855873107910156e+01 7.287440776824951172e+00 9.855136275291442871e-02 2.893210053443908691e-01 1.163617074489593506e-01 -5.335708335041999817e-02
5.035000000000000000e+03 5.619951248168945312e+01 2.541831016540527344e+01 -6.858261823654174805e-01 5.866867899894714355e-01 -2.974181994795799255e-02 -4.961963593959808350e-01
5.036000000000000000e+03 7.169601440429687500e+01 2.462924194335937500e+01 -1.043469548225402832e+00 8.505313873291015625e+00 2.238553285598754883e+00 8.923177719116210938e-01
5.037000000000000000e+03 6.534370422363281250e+01 2.712681198120117188e+01 3.429016843438148499e-02 2.835344076156616211e+00 8.608902692794799805e-01 1.507067918777465820e+00
5.038000000000000000e+03 3.715657806396484375e+01 -4.664613246917724609e+00 5.410376191139221191e-01 -4.672571718692779541e-01 2.213412895798683167e-02 3.620522096753120422e-02
5.039000000000000000e+03 3.506684494018554688e+01 -2.599762439727783203e+00 3.818104863166809082e-01 -6.077428460121154785e-01 -6.777970492839813232e-02 5.916235968470573425e-02
5.040000000000000000e+03 9.535311698913574219e+00 9.957625389099121094e+00 7.583080232143402100e-02 6.300530582666397095e-02 4.165083169937133789e-02 -3.002974949777126312e-02
5.041000000000000000e+03 4.019363021850585938e+01 -5.837327003479003906e+00 5.275613665580749512e-01 -1.797075122594833374e-01 1.043561473488807678e-01 6.541104614734649658e-02
5.042000000000000000e+03 3.135027122497558594e+01 2.985302734375000000e+01 3.680346533656120300e-02 7.592435181140899658e-02 3.381834551692008972e-02 4.953247681260108948e-02
5.043000000000000000e+03 5.999306106567382812e+01 2.668559074401855469e+01 -4.298220872879028320e-01 9.614288210868835449e-01 1.594820171594619751e-01 -1.378972083330154419e-01
5.044000000000000000e+03 1.107904624938964844e+01 1.480533981323242188e+01 1.370991766452789307e-02 8.388433605432510376e-02 2.927827648818492889e-02 -2.027773065492510796e-03
5.045000000000000000e+03 1.152688694000244141e+01 1.770333862304687500e+01 1.654476509429514408e-04 6.701660156250000000e-02 2.015461586415767670e-02 4.573305341182276607e-05
5.046000000000000000e+03 5.798271942138671875e+01 2.646302604675292969e+01 -6.355954408645629883e-01 7.229226827621459961e-01 2.619817107915878296e-02 -4.231950938701629639e-01
5.047000000000000000e+03 6.773126220703125000e+01 4.064778327941894531e+00 1.601941436529159546e-01 5.256808757781982422e+00 1.625100851058959961e+00 6.556903123855590820e-01
5.048000000000000000e+03 6.723419189453125000e+01 3.173082590103149414e+00 1.690457016229629517e-01 5.116248607635498047e+00 1.585588216781616211e+00 6.429590582847595215e-01
5.049000000000000000e+03 1.029887866973876953e+01 1.274552059173583984e+01 2.987061813473701477e-02 8.221794664859771729e-02 3.362656757235527039e-02 -1.330060139298439026e-02
5.050000000000000000e+03 1.120718479156494141e+01 1.396558570861816406e+01 1.625500805675983429e-02 9.643258154392242432e-02 3.380627930164337158e-02 -1.692705554887652397e-03
5.051000000000000000e+03 3.455847930908203125e+01 3.367256164550781250e+01 4.378745704889297485e-02 6.747786700725555420e-02 3.337959572672843933e-02 4.205976054072380066e-02
5.052000000000000000e+03 1.130981445312500000e+01 1.674867248535156250e+01 3.659047884866595268e-03 7.125494629144668579e-02 2.247419953346252441e-02 -1.092145568691194057e-03
5.053000000000000000e+03 1.064513492584228516e+01 1.791929817199707031e+01 -8.202153258025646210e-04 4.971243441104888916e-02 1.466766651719808578e-02 -6.955850869417190552e-03
5.054000000000000000e+03 1.377267169952392578e+01 1.086885452270507812e+01 4.324648901820182800e-02 2.109156697988510132e-01 7.624864578247070312e-02 5.159702524542808533e-02
5.055000000000000000e+03 7.094972991943359375e+01 2.446419334411621094e+01 -9.515872001647949219e-01 7.995865345001220703e+00 2.113283395767211914e+00 1.146729111671447754e+00
5.056000000000000000e+03 6.610942077636718750e+01 2.759678459167480469e+01 2.587864920496940613e-02 3.249531269073486328e+00 9.826229810714721680e-01 1.847390055656433105e+00
5.057000000000000000e+03 1.225534629821777344e+01 2.343106079101562500e+01 -9.128524921834468842e-03 3.919179737567901611e-02 9.018981829285621643e-03 -8.711804985068738461e-04
5.058000000000000000e+03 9.960671424865722656e+00 1.204386711120605469e+01 3.716820850968360901e-02 7.640352100133895874e-02 3.407151997089385986e-02 -1.711507141590118408e-02
5.059000000000000000e+03 6.738902282714843750e+01 1.206661415100097656e+01 9.489575028419494629e-02 5.244066238403320312e+00 1.601688623428344727e+00 8.015957474708557129e-01
5.060000000000000000e+03 6.678701782226562500e+01 1.102464485168457031e+01 1.224569305777549744e-01 5.025350093841552734e+00 1.544342160224914551e+00 7.843188047409057617e-01
5.061000000000000000e+03 3.848023605346679688e+01 -4.870584011077880859e+00 5.237607359886169434e-01 -3.586365878582000732e-01 4.953725263476371765e-02 4.792379215359687805e-02
5.062000000000000000e+03 3.899639892578125000e+01 -5.575976848602294922e+00 5.331680178642272949e-01 -3.050595223903656006e-01 6.843253970146179199e-02 5.171004682779312134e-02
5.063000000000000000e+03 6.617510986328125000e+01 -3.015454053878784180e+00 1.800073236227035522e-01 4.809299945831298828e+00 1.496792078018188477e+00 5.347598791122436523e-01
5.064000000000000000e+03 6.699508666992187500e+01 -5.941789627075195312e+00 1.498559713363647461e-01 4.986456394195556641e+00 1.540893793106079102e+00 4.725919961929321289e-01
5.065000000000000000e+03 6.867702484130859375e+01 6.907220840454101562e+00 1.231799051165580750e-01 5.582215785980224609e+00 1.711618661880493164e+00 6.921997070312500000e-01
5.066000000000000000e+03 4.390336990356445312e+01 -1.062419319152832031e+01 4.443770945072174072e-01 3.978593051433563232e-01 2.526709139347076416e-01 6.043546646833419800e-02
5.067000000000000000e+03 4.253995895385742188e+01 -9.665482521057128906e+00 4.824951291084289551e-01 1.768166720867156982e-01 1.977935433387756348e-01 4.294579848647117615e-02
5.068000000000000000e+03 9.630623817443847656e+00 -1.136601638793945312e+01 -3.648515045642852783e-02 -5.497644543647766113e-01 -1.758748739957809448e-01 -5.930650234222412109e-01
5.069000000000000000e+03 1.124009132385253906e+01 1.976409149169921875e+01 -4.798882640898227692e-03 4.834385588765144348e-02 1.306349225342273712e-02 -3.436271334066987038e-03
5.070000000000000000e+03 6.950664520263671875e+01 1.723428916931152344e+01 -1.470436006784439087e-01 6.159389495849609375e+00 1.803703784942626953e+00 8.831821680068969727e-01
5.071000000000000000e+03 3.820429229736328125e+01 3.861832427978515625e+01 6.260816752910614014e-02 4.955625534057617188e-02 3.364932909607887268e-02 2.427632361650466919e-02
5.072000000000000000e+03 3.548577117919921875e+01 3.551321792602539062e+01 4.771828278899192810e-02 6.301319599151611328e-02 3.321944177150726318e-02 3.664478287100791931e-02
5.073000000000000000e+03 6.876229095458984375e+01 1.778981018066406250e+01 -1.266255676746368408e-01 5.848601341247558594e+00 1.716592788696289062e+00 9.422538876533508301e-01
5.074000000000000000e+03 1.028313350677490234e+01 -1.019791507720947266e+01 -9.719944000244140625e-02 -5.229493379592895508e-01 -1.860446333885192871e-01 -6.358060836791992188e-01
5.075000000000000000e+03 6.892207336425781250e+01 2.119123840332031250e+01 -3.745936751365661621e-01 6.189891815185546875e+00 1.744589447975158691e+00 1.191928505897521973e+00
5.076000000000000000e+03 6.787638854980468750e+01 1.979694747924804688e+01 -1.860226392745971680e-01 5.508753299713134766e+00 1.596819162368774414e+00 1.092387914657592773e+00
5.077000000000000000e+03 6.821604919433593750e+01 4.725002288818359375e+00 1.477465927600860596e-01 5.416845798492431641e+00 1.669377803802490234e+00 6.667625904083251953e-01
5.078000000000000000e+03 8.711994171142578125e+00 -1.268245887756347656e+01 7.011378183960914612e-03 -5.798857212066650391e-01 -1.718623042106628418e-01 -5.416052341461181641e-01
5.079000000000000000e+03 1.023010635375976562e+01 -9.424829483032226562e+00 -1.468997746706008911e-01 -4.738460481166839600e-01 -1.862237453460693359e-01 -6.190063357353210449e-01
5.080000000000000000e+03 1.353605365753173828e+01 -2.093628883361816406e+01 2.044680267572402954e-01 -5.434498786926269531e-01 -1.016945540904998779e-01 -4.111200869083404541e-01
5.081000000000000000e+03 1.496436500549316406e+01 -2.044021034240722656e+01 2.342104464769363403e-01 -4.500586688518524170e-01 -6.475446373224258423e-02 -3.935335576534271240e-01
5.082000000000000000e+03 6.886483764648437500e+01 1.266794800758361816e+00 1.380147486925125122e-01 5.551818370819091797e+00 1.706949949264526367e+00 5.834497213363647461e-01
5.083000000000000000e+03 6.666235351562500000e+01 -3.069209158420562744e-01 1.779856085777282715e-01 4.947079658508300781e+00 1.537519574165344238e+00 5.806624889373779297e-01
5.084000000000000000e+03 6.714563751220703125e+01 -6.951366901397705078e+00 1.457206457853317261e-01 5.014101982116699219e+00 1.547946810722351074e+00 4.552231132984161377e-01
5.085000000000000000e+03 6.812094879150390625e+01 -6.905661106109619141e+00 1.329626142978668213e-01 5.203259944915771484e+00 1.600866794586181641e+00 4.569040834903717041e-01
5.086000000000000000e+03 4.112165069580078125e+01 -5.518563270568847656e+00 4.996412098407745361e-01 -7.351414859294891357e-02 1.278381198644638062e-01 7.234130054712295532e-02
5.087000000000000000e+03 6.825123596191406250e+01 5.977923870086669922e+00 1.522030979394912720e-01 5.469629764556884766e+00 1.686549901962280273e+00 6.756396889686584473e-01
5.088000000000000000e+03 4.568130111694335938e+01 -1.593938541412353516e+01 2.464916557073593140e-01 7.476389408111572266e-01 2.982391715049743652e-01 5.031992122530937195e-02
5.089000000000000000e+03 4.252103424072265625e+01 -8.425779342651367188e+00 4.999176859855651855e-01 1.418817788362503052e-01 1.925398409366607666e-01 4.646695032715797424e-02
5.090000000000000000e+03 1.913052749633789062e+01 -2.913320350646972656e+01 2.643929719924926758e-01 -1.247358620166778564e-01 4.189712926745414734e-02 -3.091520369052886963e-01
5.091000000000000000e+03 1.280857944488525391e+01 -1.577180385589599609e+01 1.821801811456680298e-01 -6.230478286743164062e-01 -1.322602927684783936e-01 -5.207477211952209473e-01
5.092000000000000000e+03 7.034376525878906250e+01 -1.493631839752197266e+01 5.543419718742370605e-02 5.564580917358398438e+00 1.686004519462585449e+00 2.941528558731079102e-01
5.093000000000000000e+03 6.889659881591796875e+01 -1.633552169799804688e+01 6.067680567502975464e-02 5.249807834625244141e+00 1.593145370483398438e+00 3.065961599349975586e-01
5.094000000000000000e+03 6.667734527587890625e+01 -1.724492073059082031e+01 7.713358104228973389e-02 4.839428901672363281e+00 1.474968791007995605e+00 3.212839961051940918e-01
5.095000000000000000e+03 6.665996551513671875e+01 -1.956117820739746094e+01 6.168911606073379517e-02 4.802807331085205078e+00 1.459348917007446289e+00 3.065285980701446533e-01
5.096000000000000000e+03 6.863213348388671875e+01 -1.957211112976074219e+01 5.360921472311019897e-02 5.176647186279296875e+00 1.569077014923095703e+00 2.790432870388031006e-01
5.097000000000000000e+03 6.830938720703125000e+01 -9.386902809143066406e+00 1.141125783324241638e-01 5.219658374786376953e+00 1.600131273269653320e+00 4.115310907363891602e-01
5.098000000000000000e+03 6.774584960937500000e+01 -1.236675930023193359e+01 9.546769410371780396e-02 5.067674636840820312e+00 1.548942685127258301e+00 3.625640273094177246e-01
5.099000000000000000e+03 6.755834960937500000e+01 -1.607498550415039062e+01 7.446817308664321899e-02 4.996252536773681641e+00 1.521216273307800293e+00 3.277970552444458008e-01
5.100000000000000000e+03 6.935574340820312500e+01 1.357429981231689453e+01 1.751329004764556885e-02 5.984264850616455078e+00 1.800533413887023926e+00 7.947849035263061523e-01
5.101000000000000000e+03 6.790771484375000000e+01 1.308067035675048828e+01 5.428592860698699951e-02 5.407124996185302734e+00 1.638423204421997070e+00 8.236685395240783691e-01
5.102000000000000000e+03 1.052239513397216797e+01 -1.738095664978027344e+01 1.453194022178649902e-01 -6.571314930915832520e-01 -1.535436362028121948e-01 -4.758430123329162598e-01
5.103000000000000000e+03 1.305459690093994141e+01 -1.953385353088378906e+01 2.109706550836563110e-01 -5.616625547409057617e-01 -1.052075698971748352e-01 -4.187673926353454590e-01
5.104000000000000000e+03 6.793189239501953125e+01 -2.552396059036254883e+00 1.486665308475494385e-01 5.247328281402587891e+00 1.618798494338989258e+00 5.289433002471923828e-01
5.105000000000000000e+03 1.629737854003906250e+01 -2.025111579895019531e+01 2.415500879287719727e-01 -3.611840307712554932e-01 -3.589018434286117554e-02 -3.881934881210327148e-01
5.106000000000000000e+03 1.299071407318115234e+01 -2.687318420410156250e+01 1.738177388906478882e-01 -5.675061941146850586e-01 -1.181065440177917480e-01 -3.082437813282012939e-01
5.107000000000000000e+03 6.767081451416015625e+01 9.468727111816406250e+00 1.259550750255584717e-01 5.297916889190673828e+00 1.627161622047424316e+00 7.523527145385742188e-01
5.108000000000000000e+03 6.680860137939453125e+01 2.156895637512207031e+00 1.748339384794235229e-01 4.991088390350341797e+00 1.549776673316955566e+00 6.277459263801574707e-01
5.109000000000000000e+03 6.780874633789062500e+01 1.707500219345092773e+00 1.588693857192993164e-01 5.261451244354248047e+00 1.626096248626708984e+00 6.143429279327392578e-01
5.110000000000000000e+03 5.295698928833007812e+01 -2.126635169982910156e+01 5.740567669272422791e-02 2.218218803405761719e+00 6.826873421669006348e-01 1.953299939632415771e-01
5.111000000000000000e+03 4.784332656860351562e+01 -1.714688301086425781e+01 1.936048120260238647e-01 1.164108276367187500e+00 4.073139429092407227e-01 8.659854531288146973e-02
5.112000000000000000e+03 6.692997741699218750e+01 -4.814121246337890625e+00 1.609505414962768555e-01 4.970176219940185547e+00 1.539338111877441406e+00 4.971950948238372803e-01
5.113000000000000000e+03 4.547204971313476562e+01 -1.251415729522705078e+01 3.786083459854125977e-01 6.708160638809204102e-01 3.148273229598999023e-01 6.430056691169738770e-02
5.114000000000000000e+03 5.125018692016601562e+01 -2.984662818908691406e+01 -2.424572594463825226e-02 2.065061569213867188e+00 6.122447252273559570e-01 3.047825396060943604e-01
5.115000000000000000e+03 6.687355804443359375e+01 -2.183615875244140625e+01 5.561355128884315491e-02 4.835903167724609375e+00 1.467455029487609863e+00 2.925762832164764404e-01
5.116000000000000000e+03 2.786517143249511719e+01 4.881994128227233887e-01 -6.764792203903198242e-01 -4.894361495971679688e-01 -3.497745990753173828e-01 -9.936779737472534180e-02
5.117000000000000000e+03 2.770807266235351562e+01 1.461354970932006836e+00 -1.351285934448242188e+00 -6.533855795860290527e-01 -6.014014482498168945e-01 -4.081791937351226807e-01
5.118000000000000000e+03 2.773534393310546875e+01 2.041687726974487305e+00 -1.661466360092163086e+00 -7.044144272804260254e-01 -7.097642421722412109e-01 -5.276547074317932129e-01
5.119000000000000000e+03 2.735977935791015625e+01 7.543317079544067383e-01 -9.065638780593872070e-01 -4.690819084644317627e-01 -4.126937389373779297e-01 -1.816574037075042725e-01
5.120000000000000000e+03 4.886765670776367188e+01 2.367945098876953125e+01 -1.060238838195800781e+00 -6.053149104118347168e-01 -4.996660947799682617e-01 -9.401341080665588379e-01
5.121000000000000000e+03 4.876300811767578125e+01 2.431560897827148438e+01 -1.123758077621459961e+00 -6.800901889801025391e-01 -5.411544442176818848e-01 -9.985048174858093262e-01
5.122000000000000000e+03 3.786278533935546875e+01 1.268363475799560547e+01 -1.029830813407897949e+00 -1.131975173950195312e+00 -6.485418081283569336e-01 -1.043103933334350586e+00
5.123000000000000000e+03 6.801940917968750000e+01 2.935469818115234375e+01 -5.166403576731681824e-02 4.898250579833984375e+00 1.453975915908813477e+00 3.108163833618164062e+00
5.124000000000000000e+03 4.787023925781250000e+01 2.269316482543945312e+01 -1.036803007125854492e+00 -6.822910308837890625e-01 -5.157281756401062012e-01 -9.483790397644042969e-01
5.125000000000000000e+03 7.027136230468750000e+01 2.972539901733398438e+01 -1.269677758216857910e+00 1.037801933288574219e+01 2.732502460479736328e+00 3.114771127700805664e+00
5.126000000000000000e+03 4.931238937377929688e+01 2.443568229675292969e+01 -1.095112800598144531e+00 -5.859507322311401367e-01 -5.043190717697143555e-01 -9.554083943367004395e-01
5.127000000000000000e+03 3.692718124389648438e+01 1.157890319824218750e+01 -1.043466210365295410e+00 -1.131465792655944824e+00 -6.524795889854431152e-01 -1.030520439147949219e+00
5.128000000000000000e+03 3.753817749023437500e+01 1.238581752777099609e+01 -1.037087798118591309e+00 -1.141465544700622559e+00 -6.535660028457641602e-01 -1.044678807258605957e+00
5.129000000000000000e+03 4.980999374389648438e+01 2.534643745422363281e+01 -1.139911413192749023e+00 -5.880596637725830078e-01 -5.183913707733154297e-01 -9.733532667160034180e-01
5.130000000000000000e+03 4.563824081420898438e+01 2.066379928588867188e+01 -9.880436062812805176e-01 -8.712576627731323242e-01 -5.577903985977172852e-01 -1.001074552536010742e+00
5.131000000000000000e+03 4.354605865478515625e+01 1.808703422546386719e+01 -9.046268463134765625e-01 -8.996816873550415039e-01 -5.412925481796264648e-01 -1.021199703216552734e+00
5.132000000000000000e+03 2.516591835021972656e+01 2.104559707641601562e+01 4.800035804510116577e-02 1.031367257237434387e-01 4.534112662076950073e-02 7.344541698694229126e-02
5.133000000000000000e+03 4.368992233276367188e+01 1.939416503906250000e+01 -9.871659278869628906e-01 -1.006389737129211426e+00 -5.980666875839233398e-01 -1.094335317611694336e+00
5.134000000000000000e+03 3.820389556884765625e+01 1.299768161773681641e+01 -1.017518162727355957e+00 -1.115358233451843262e+00 -6.398629546165466309e-01 -1.037070870399475098e+00
5.135000000000000000e+03 4.984582138061523438e+01 2.447549629211425781e+01 -1.057167291641235352e+00 -4.980996549129486084e-01 -4.665800929069519043e-01 -9.089556336402893066e-01
5.136000000000000000e+03 4.581346893310546875e+01 2.097416305541992188e+01 -1.006743431091308594e+00 -8.710866570472717285e-01 -5.633490085601806641e-01 -1.005395054817199707e+00
5.137000000000000000e+03 7.186729431152343750e+01 3.018449783325195312e+01 -1.506010413169860840e+00 1.342417049407958984e+01 3.575448036193847656e+00 7.596125006675720215e-01
5.138000000000000000e+03 7.141455841064453125e+01 2.950327682495117188e+01 -1.673382163047790527e+00 1.206862163543701172e+01 3.118571996688842773e+00 1.546690940856933594e+00
5.139000000000000000e+03 4.696521759033203125e+01 2.231821060180664062e+01 -1.067074060440063477e+00 -8.093436956405639648e-01 -5.629253387451171875e-01 -9.987039566040039062e-01
5.140000000000000000e+03 4.852482223510742188e+01 2.335924530029296875e+01 -1.054434180259704590e+00 -6.349727511405944824e-01 -5.068221092224121094e-01 -9.455307722091674805e-01
5.141000000000000000e+03 2.138529396057128906e+01 1.881443977355957031e+01 4.289015009999275208e-02 1.186400875449180603e-01 4.845907166600227356e-02 7.411230355501174927e-02
5.142000000000000000e+03 3.853908538818359375e+01 1.328872203826904297e+01 -1.005556821823120117e+00 -1.099260210990905762e+00 -6.314451098442077637e-01 -1.029793739318847656e+00
5.143000000000000000e+03 7.104608917236328125e+01 2.957180404663085938e+01 -1.619451642036437988e+00 1.167620563507080078e+01 3.017026424407958984e+00 2.110330581665039062e+00
5.144000000000000000e+03 1.645630455017089844e+01 1.219206237792968750e+01 5.871272459626197815e-02 1.883571296930313110e-01 7.412096112966537476e-02 9.625995159149169922e-02
5.145000000000000000e+03 1.763330078125000000e+01 1.390302562713623047e+01 5.494606122374534607e-02 1.596021503210067749e-01 6.436446309089660645e-02 9.105364978313446045e-02
5.146000000000000000e+03 3.177232551574707031e+01 3.888535022735595703e+00 -1.353678584098815918e+00 -7.806447148323059082e-01 -6.402969956398010254e-01 -5.079841613769531250e-01
5.147000000000000000e+03 5.172269821166992188e+01 2.690240478515625000e+01 -1.179179310798645020e+00 -3.189886212348937988e-01 -4.494503736495971680e-01 -8.958276510238647461e-01
5.148000000000000000e+03 3.884063339233398438e+01 1.357631492614746094e+01 -9.992703795433044434e-01 -1.088013529777526855e+00 -6.261851787567138672e-01 -1.026621460914611816e+00
5.149000000000000000e+03 4.054553222656250000e+01 1.563191986083984375e+01 -9.964029788970947266e-01 -1.034871101379394531e+00 -6.093822121620178223e-01 -1.064056634902954102e+00
5.150000000000000000e+03 2.742084693908691406e+01 1.770966768264770508e+00 -1.601799845695495605e+00 -5.819038152694702148e-01 -6.551110744476318359e-01 -4.263883531093597412e-01
5.151000000000000000e+03 5.068810272216796875e+01 2.606528472900390625e+01 -1.149744272232055664e+00 -4.696395695209503174e-01 -4.858151674270629883e-01 -9.331096410751342773e-01
5.152000000000000000e+03 1.909935760498046875e+01 1.594768619537353516e+01 5.029257014393806458e-02 1.398081630468368530e-01 5.703022330999374390e-02 8.308410644531250000e-02
5.153000000000000000e+03 1.972423934936523438e+01 1.593179035186767578e+01 5.645002424716949463e-02 1.374093294143676758e-01 5.815780907869338989e-02 8.675531297922134399e-02
5.154000000000000000e+03 3.914772796630859375e+01 1.384897804260253906e+01 -9.900708198547363281e-01 -1.071541547775268555e+00 -6.184837222099304199e-01 -1.024242043495178223e+00
5.155000000000000000e+03 4.475355911254882812e+01 2.027568817138671875e+01 -1.000405669212341309e+00 -9.518572688102722168e-01 -5.856788754463195801e-01 -1.053842902183532715e+00
5.156000000000000000e+03 4.627107238769531250e+01 2.140185928344726562e+01 -1.016875863075256348e+00 -8.383246064186096191e-01 -5.565601587295532227e-01 -9.921513199806213379e-01
5.157000000000000000e+03 2.467013740539550781e+01 2.078978538513183594e+01 4.751330614089965820e-02 1.049917861819267273e-01 4.575152695178985596e-02 7.358838617801666260e-02
5.158000000000000000e+03 2.466397285461425781e+01 2.043707656860351562e+01 4.975694790482521057e-02 1.054653897881507874e-01 4.656670242547988892e-02 7.512805610895156860e-02
5.159000000000000000e+03 1.787533569335937500e+01 1.437546157836914062e+01 5.311661213636398315e-02 1.540625989437103271e-01 6.215376406908035278e-02 8.827554434537887573e-02
5.160000000000000000e+03 1.840712738037109375e+01 1.422484683990478516e+01 6.024299189448356628e-02 1.534655392169952393e-01 6.411255896091461182e-02 9.477228671312332153e-02
5.161000000000000000e+03 5.558527374267578125e+01 2.606035995483398438e+01 -8.292847275733947754e-01 4.439128637313842773e-01 -1.156115531921386719e-01 -6.078702211380004883e-01
5.162000000000000000e+03 5.226865005493164062e+01 2.684698104858398438e+01 -1.141143202781677246e+00 -1.877469867467880249e-01 -3.986670672893524170e-01 -8.554593920707702637e-01
5.163000000000000000e+03 3.976771163940429688e+01 1.439924526214599609e+01 -9.791219830513000488e-01 -1.042617559432983398e+00 -6.065218448638916016e-01 -1.019974112510681152e+00
5.164000000000000000e+03 2.369065093994140625e+01 1.928312683105468750e+01 5.405701696872711182e-02 1.110535934567451477e-01 4.953318089246749878e-02 7.962971180677413940e-02
5.165000000000000000e+03 2.094510269165039062e+01 1.853305816650390625e+01 4.274946451187133789e-02 1.210940927267074585e-01 4.915306717157363892e-02 7.398855686187744141e-02
5.166000000000000000e+03 4.336556625366210938e+01 1.767194175720214844e+01 -8.881885409355163574e-01 -8.796821832656860352e-01 -5.303612351417541504e-01 -1.005702853202819824e+00
5.167000000000000000e+03 5.022969055175781250e+01 2.487579154968261719e+01 -1.069739341735839844e+00 -4.641009271144866943e-01 -4.601520895957946777e-01 -9.021837711334228516e-01
5.168000000000000000e+03 4.373866653442382812e+01 1.849109077453613281e+01 -9.170299172401428223e-01 -9.155736565589904785e-01 -5.497810840606689453e-01 -1.032289028167724609e+00
5.169000000000000000e+03 5.323908996582031250e+01 2.664731025695800781e+01 -1.076679706573486328e+00 1.824680902063846588e-02 -3.175298571586608887e-01 -7.924355268478393555e-01
5.170000000000000000e+03 4.022803497314453125e+01 1.555104255676269531e+01 -1.013441681861877441e+00 -1.068769931793212891e+00 -6.246634721755981445e-01 -1.080060005187988281e+00
5.171000000000000000e+03 4.131760787963867188e+01 1.542090892791748047e+01 -9.195384383201599121e-01 -9.302265644073486328e-01 -5.549294948577880859e-01 -9.913026690483093262e-01
5.172000000000000000e+03 4.879370498657226562e+01 2.303574943542480469e+01 -9.999454021453857422e-01 -5.602836012840270996e-01 -4.680687189102172852e-01 -8.948302268981933594e-01
5.173000000000000000e+03 5.063050079345703125e+01 2.530103111267089844e+01 -1.083860039710998535e+00 -4.164866209030151367e-01 -4.501039683818817139e-01 -8.949868083000183105e-01
5.174000000000000000e+03 4.651191711425781250e+01 2.159713745117187500e+01 -1.019601583480834961e+00 -8.151857852935791016e-01 -5.504361987113952637e-01 -9.836011528968811035e-01
5.175000000000000000e+03 2.057830810546875000e+01 1.695683288574218750e+01 5.289087817072868347e-02 1.294674724340438843e-01 5.470750480890274048e-02 8.334117382764816284e-02
5.176000000000000000e+03 5.375445556640625000e+01 2.772152900695800781e+01 -1.172600507736206055e+00 4.759059846401214600e-02 -3.375029563903808594e-01 -8.284090161323547363e-01
5.177000000000000000e+03 1.802559852600097656e+01 1.403918075561523438e+01 5.811997875571250916e-02 1.581459045410156250e-01 6.487976759672164917e-02 9.289976954460144043e-02
5.178000000000000000e+03 2.893776512145996094e+01 7.569832205772399902e-01 -7.266294360160827637e-01 -6.818839311599731445e-01 -4.225540161132812500e-01 -1.383890956640243530e-01
5.179000000000000000e+03 2.923670005798339844e+01 4.052925705909729004e-01 -5.488198995590209961e-01 -5.750290751457214355e-01 -3.371547162532806396e-01 -4.357381165027618408e-02
5.180000000000000000e+03 2.429742050170898438e+01 2.028139305114746094e+01 4.992267489433288574e-02 1.071440726518630981e-01 4.712002351880073547e-02 7.549606263637542725e-02
5.181000000000000000e+03 4.392401123046875000e+01 1.888906097412109375e+01 -9.327486157417297363e-01 -9.298945069313049316e-01 -5.587929487228393555e-01 -1.041126489639282227e+00
5.182000000000000000e+03 4.542393493652343750e+01 2.029382705688476562e+01 -9.623789191246032715e-01 -8.669123053550720215e-01 -5.487873554229736328e-01 -9.956732392311096191e-01
5.183000000000000000e+03 4.141807937622070312e+01 1.585406589508056641e+01 -9.372895359992980957e-01 -9.482173323631286621e-01 -5.656520724296569824e-01 -1.016618609428405762e+00
5.184000000000000000e+03 7.203322601318359375e+01 2.978909873962402344e+01 -1.573536515235900879e+00 1.284901142120361328e+01 3.382642507553100586e+00 6.425529718399047852e-01
5.185000000000000000e+03 7.227041625976562500e+01 2.979888153076171875e+01 -1.455498695373535156e+00 1.285239696502685547e+01 3.419069290161132812e+00 2.370657175779342651e-01
5.186000000000000000e+03 1.463678264617919922e+01 1.122843647003173828e+01 4.603389278054237366e-02 2.099916934967041016e-01 7.680767774581909180e-02 7.263758778572082520e-02
5.187000000000000000e+03 4.004286575317382812e+01 1.471123600006103516e+01 -9.773893952369689941e-01 -1.030812382698059082e+00 -6.024605035781860352e-01 -1.023129820823669434e+00
5.188000000000000000e+03 4.027627563476562500e+01 1.503123664855957031e+01 -9.749314785003662109e-01 -1.023092746734619141e+00 -5.994072556495666504e-01 -1.032030224800109863e+00
5.189000000000000000e+03 2.012932014465332031e+01 1.700183486938476562e+01 4.943557456135749817e-02 1.308769583702087402e-01 5.409375950694084167e-02 8.034523576498031616e-02
5.190000000000000000e+03 2.401296043395996094e+01 1.997313499450683594e+01 5.070009082555770874e-02 1.079372242093086243e-01 4.759119451045989990e-02 7.623964548110961914e-02
5.191000000000000000e+03 1.166409969329833984e+01 6.761364936828613281e+00 1.315290629863739014e-01 2.643098831176757812e-01 1.187516823410987854e-01 -8.295696228742599487e-02
5.192000000000000000e+03 2.616905021667480469e+01 2.220538330078125000e+01 4.459309577941894531e-02 9.727823734283447266e-02 4.256140068173408508e-02 7.020667940378189087e-02
5.193000000000000000e+03 6.751766967773437500e+01 2.894340896606445312e+01 2.373601775616407394e-03 4.251599788665771484e+00 1.276191949844360352e+00 2.716694593429565430e+00
5.194000000000000000e+03 3.557671737670898438e+01 1.045048618316650391e+01 -1.091917753219604492e+00 -1.166372060775756836e+00 -6.774869561195373535e-01 -1.054255485534667969e+00
5.195000000000000000e+03 3.780656814575195312e+01 1.203365516662597656e+01 -9.921472668647766113e-01 -1.076045632362365723e+00 -6.204578876495361328e-01 -9.892151951789855957e-01
5.196000000000000000e+03 3.536787033081054688e+01 9.104780197143554688e+00 -1.040974020957946777e+00 -1.060690522193908691e+00 -6.304993629455566406e-01 -9.520927667617797852e-01
5.197000000000000000e+03 3.723492813110351562e+01 1.070071792602539062e+01 -9.636560678482055664e-01 -1.021733880043029785e+00 -5.956169962882995605e-01 -9.270257949829101562e-01
5.198000000000000000e+03 4.188474273681640625e+01 1.587177944183349609e+01 -8.997934460639953613e-01 -8.985905051231384277e-01 -5.395151972770690918e-01 -9.851342439651489258e-01
5.199000000000000000e+03 7.239483642578125000e+01 2.811758804321289062e+01 -1.582643151283264160e+00 1.102827739715576172e+01 2.833690404891967773e+00 5.066494345664978027e-01
5.200000000000000000e+03 1.333553791046142578e+01 1.051997756958007812e+01 4.380627721548080444e-02 2.157396525144577026e-01 7.786377519369125366e-02 3.946975618600845337e-02
5.201000000000000000e+03 1.325657558441162109e+01 9.189854621887207031e+00 5.064431950449943542e-02 2.668241858482360840e-01 9.524055570363998413e-02 4.137756302952766418e-02
5.202000000000000000e+03 2.086149978637695312e+01 1.778334999084472656e+01 4.781552776694297791e-02 1.250796765089035034e-01 5.186855792999267578e-02 7.856416702270507812e-02
5.203000000000000000e+03 4.683581161499023438e+01 2.174946022033691406e+01 -1.016766309738159180e+00 -7.813295722007751465e-01 -5.394287705421447754e-01 -9.683284163475036621e-01
5.204000000000000000e+03 2.059021568298339844e+01 1.739257049560546875e+01 4.855048656463623047e-02 1.268597543239593506e-01 5.262307077646255493e-02 7.950673997402191162e-02
5.205000000000000000e+03 2.010319900512695312e+01 1.664352798461914062e+01 5.194111540913581848e-02 1.334278434514999390e-01 5.561069026589393616e-02 8.334653824567794800e-02
5.206000000000000000e+03 1.367974758148193359e+01 1.001429557800292969e+01 4.960256069898605347e-02 2.396360635757446289e-01 8.677158504724502563e-02 5.396283045411109924e-02
5.207000000000000000e+03 5.249750518798828125e+01 2.712795257568359375e+01 -1.166993856430053711e+00 -1.626679897308349609e-01 -3.988985717296600342e-01 -8.559681177139282227e-01
5.208000000000000000e+03 1.327239322662353516e+01 1.174464988708496094e+01 3.205921500921249390e-02 1.809789240360260010e-01 6.391143798828125000e-02 3.510294109582901001e-02
5.209000000000000000e+03 1.446897602081298828e+01 1.059671401977539062e+01 4.940227046608924866e-02 2.302107959985733032e-01 8.388391882181167603e-02 7.428839057683944702e-02
5.210000000000000000e+03 4.285563278198242188e+01 1.785797691345214844e+01 -9.382311105728149414e-01 -9.585428237915039062e-01 -5.690321922302246094e-01 -1.067638635635375977e+00
5.211000000000000000e+03 3.007497406005859375e+01 2.408308833837509155e-01 -3.930062651634216309e-01 -6.242005228996276855e-01 -3.051620423793792725e-01 3.026924096047878265e-03
5.212000000000000000e+03 3.061223602294921875e+01 3.335845470428466797e+00 -1.463830471038818359e+00 -8.098430037498474121e-01 -6.821020245552062988e-01 -4.468024075031280518e-01
5.213000000000000000e+03 3.599265289306640625e+01 9.997750282287597656e+00 -1.038967251777648926e+00 -1.082841277122497559e+00 -6.365425586700439453e-01 -9.788561463356018066e-01
5.214000000000000000e+03 3.227941513061523438e+01 4.275846958160400391e+00 -1.303603291511535645e+00 -7.787142395973205566e-01 -6.246952414512634277e-01 -5.657219886779785156e-01
5.215000000000000000e+03 6.391207885742187500e+01 2.701258277893066406e+01 1.240561949089169502e-03 2.022352695465087891e+00 6.070779561996459961e-01 9.534690380096435547e-01
5.216000000000000000e+03 6.263735580444335938e+01 2.716370964050292969e+01 -1.527098566293716431e-01 1.414581418037414551e+00 3.785614669322967529e-01 4.658474922180175781e-01
5.217000000000000000e+03 2.659352493286132812e+01 2.499250602722167969e+01 3.235965967178344727e-02 9.119595587253570557e-02 3.706668317317962646e-02 6.003706529736518860e-02
5.218000000000000000e+03 2.466526222229003906e+01 2.345370864868164062e+01 3.047995269298553467e-02 9.789711982011795044e-02 3.851312026381492615e-02 6.106386706233024597e-02
5.219000000000000000e+03 1.135385417938232422e+01 1.011508655548095703e+01 5.612980574369430542e-02 1.581939607858657837e-01 6.429713219404220581e-02 -1.485448516905307770e-02
5.220000000000000000e+03 2.907336997985839844e+01 2.417485237121582031e+00 -1.442307233810424805e+00 -8.159459233283996582e-01 -6.774759292602539062e-01 -4.176375567913055420e-01
5.221000000000000000e+03 2.403818511962890625e+01 1.907264518737792969e+01 5.835755169391632080e-02 1.101259887218475342e-01 5.054506286978721619e-02 8.155312389135360718e-02
5.222000000000000000e+03 2.382621765136718750e+01 1.962572097778320312e+01 5.191842839121818542e-02 1.094373017549514771e-01 4.840671643614768982e-02 7.751674950122833252e-02
5.223000000000000000e+03 3.174298477172851562e+01 3.473309516906738281e+00 -1.250741600990295410e+00 -7.567115426063537598e-01 -6.022359728813171387e-01 -4.234610795974731445e-01
5.224000000000000000e+03 1.616977119445800781e+01 1.172881603240966797e+01 5.998647212982177734e-02 1.976295560598373413e-01 7.728481292724609375e-02 9.792001545429229736e-02
5.225000000000000000e+03 1.876347923278808594e+01 1.578136062622070312e+01 4.785935953259468079e-02 1.398593187332153320e-01 5.631560087203979492e-02 8.126339316368103027e-02
5.226000000000000000e+03 1.820875930786132812e+01 1.454292297363281250e+01 5.565740168094635010e-02 1.525771170854568481e-01 6.247035786509513855e-02 8.923242986202239990e-02
5.227000000000000000e+03 6.932823944091796875e+01 2.954440498352050781e+01 -6.439511179924011230e-01 7.877043247222900391e+00 2.169927597045898438e+00 3.563339471817016602e+00
5.228000000000000000e+03 7.149520874023437500e+01 2.672032356262207031e+01 -1.402158021926879883e+00 9.436399459838867188e+00 2.410272598266601562e+00 1.181771397590637207e+00
5.229000000000000000e+03 3.606574630737304688e+01 1.043289279937744141e+01 -1.052869677543640137e+00 -1.119653463363647461e+00 -6.517569422721862793e-01 -1.011615395545959473e+00
5.230000000000000000e+03 3.658587646484375000e+01 1.036546707153320312e+01 -1.005808830261230469e+00 -1.061414122581481934e+00 -6.201668977737426758e-01 -9.565816521644592285e-01
5.231000000000000000e+03 1.696631050109863281e+01 1.326495075225830078e+01 5.398828163743019104e-02 1.709436327219009399e-01 6.747957319021224976e-02 9.011372923851013184e-02
5.232000000000000000e+03 2.858648109436035156e+01 4.349902868270874023e-01 -6.825785040855407715e-01 -5.278263092041015625e-01 -3.631214499473571777e-01 -9.134207665920257568e-02
5.233000000000000000e+03 1.415373897552490234e+01 1.041586780548095703e+01 4.826816171407699585e-02 2.308538258075714111e-01 8.373659849166870117e-02 6.594941020011901855e-02
5.234000000000000000e+03 2.617968559265136719e+01 2.339574813842773438e+01 3.757495433092117310e-02 9.497743099927902222e-02 3.976571559906005859e-02 6.494718044996261597e-02
5.235000000000000000e+03 2.933380889892578125e+01 2.712318611145019531e+01 3.386138007044792175e-02 8.277087658643722534e-02 3.498967736959457397e-02 5.633831396698951721e-02
5.236000000000000000e+03 1.559047317504882812e+01 1.151866912841796875e+01 5.513388291001319885e-02 2.050153762102127075e-01 7.804477959871292114e-02 9.039878845214843750e-02
5.237000000000000000e+03 2.279653930664062500e+01 1.879512405395507812e+01 5.273303762078285217e-02 1.152325198054313660e-01 5.038966611027717590e-02 7.991536706686019897e-02
5.238000000000000000e+03 2.240920066833496094e+01 1.828799629211425781e+01 5.453255400061607361e-02 1.185647100210189819e-01 5.192917957901954651e-02 8.196733891963958740e-02
5.239000000000000000e+03 6.998551940917968750e+01 2.343498039245605469e+01 -6.916505694389343262e-01 7.101833343505859375e+00 1.923054814338684082e+00 1.271462559700012207e+00
5.240000000000000000e+03 6.538788604736328125e+01 2.646607780456542969e+01 2.413657493889331818e-02 3.147857189178466797e+00 9.515981078147888184e-01 1.514454483985900879e+00
5.241000000000000000e+03 3.429045104980468750e+01 6.658896923065185547e+00 -1.081985831260681152e+00 -9.134518504142761230e-01 -5.986313223838806152e-01 -8.171833753585815430e-01
5.242000000000000000e+03 3.638333892822265625e+01 9.554640769958496094e+00 -9.783530831336975098e-01 -1.005722641944885254e+00 -5.952227115631103516e-01 -9.029062986373901367e-01
5.243000000000000000e+03 2.361585044860839844e+01 1.804035186767578125e+01 6.508771330118179321e-02 1.146326884627342224e-01 5.391612276434898376e-02 8.763621747493743896e-02
5.244000000000000000e+03 3.542850875854492188e+01 9.591268539428710938e+00 -1.067201375961303711e+00 -1.096295475959777832e+00 -6.490490436553955078e-01 -9.928008317947387695e-01
5.245000000000000000e+03 3.602027893066406250e+01 8.762557983398437500e+00 -9.653946757316589355e-01 -9.699764251708984375e-01 -5.806113481521606445e-01 -8.606874346733093262e-01
5.246000000000000000e+03 2.885608863830566406e+01 2.687221336364746094e+01 3.395291790366172791e-02 8.427184075117111206e-02 3.546742722392082214e-02 5.754271522164344788e-02
5.247000000000000000e+03 7.186255645751953125e+01 2.685355567932128906e+01 -1.457410931587219238e+00 9.791114807128906250e+00 2.500111103057861328e+00 9.708387851715087891e-01
5.248000000000000000e+03 2.955597686767578125e+01 2.868398666381835938e+01 3.325293958187103271e-02 7.979451864957809448e-02 3.391423821449279785e-02 5.167765542864799500e-02
5.249000000000000000e+03 3.419752502441406250e+01 6.311105251312255859e+00 -1.092257022857666016e+00 -8.683995604515075684e-01 -5.881969332695007324e-01 -7.764986157417297363e-01
5.250000000000000000e+03 2.717611885070800781e+01 2.483090400695800781e+01 3.455778956413269043e-02 9.071754664182662964e-02 3.758260235190391541e-02 6.153274700045585632e-02
5.251000000000000000e+03 6.665019226074218750e+01 2.845474624633789062e+01 3.583296015858650208e-02 3.380765676498413086e+00 1.024979591369628906e+00 2.156701564788818359e+00
5.252000000000000000e+03 6.842247009277343750e+01 2.927567863464355469e+01 -1.943103075027465820e-01 5.720424175262451172e+00 1.657834172248840332e+00 3.253113031387329102e+00
5.253000000000000000e+03 2.865752601623535156e+01 2.628683853149414062e+01 3.590877354145050049e-02 8.479788899421691895e-02 3.621200099587440491e-02 5.872923508286476135e-02
5.254000000000000000e+03 1.233801364898681641e+01 7.792797565460205078e+00 7.787273079156875610e-02 2.910056412220001221e-01 1.106635108590126038e-01 -1.920521445572376251e-02
5.255000000000000000e+03 1.277667236328125000e+01 8.749972343444824219e+00 5.585910007357597351e-02 2.703856527805328369e-01 9.787342697381973267e-02 1.904301159083843231e-02
5.256000000000000000e+03 2.650213241577148438e+01 2.435997581481933594e+01 3.398799896240234375e-02 9.258794784545898438e-02 3.797278180718421936e-02 6.191306933760643005e-02
5.257000000000000000e+03 2.770793533325195312e+01 2.463644409179687500e+01 3.853052109479904175e-02 8.952496200799942017e-02 3.841664269566535950e-02 6.364483386278152466e-02
5.258000000000000000e+03 7.219904327392578125e+01 2.682126998901367188e+01 -1.449261546134948730e+00 9.937402725219726562e+00 2.546442508697509766e+00 7.063181996345520020e-01
5.259000000000000000e+03 2.801169395446777344e+01 2.571268463134765625e+01 3.575476258993148804e-02 8.734489977359771729e-02 3.692989796400070190e-02 6.046586483716964722e-02
5.260000000000000000e+03 2.733627319335937500e+01 2.531999015808105469e+01 3.444030508399009705e-02 8.919057995080947876e-02 3.708926588296890259e-02 6.063206493854522705e-02
5.261000000000000000e+03 2.556248474121093750e+01 2.381027030944824219e+01 3.315138816833496094e-02 9.560400992631912231e-02 3.862661868333816528e-02 6.234212219715118408e-02
5.262000000000000000e+03 2.563820266723632812e+01 2.181291580200195312e+01 4.440743476152420044e-02 1.000332236289978027e-01 4.333219677209854126e-02 7.083179801702499390e-02
5.263000000000000000e+03 2.742338371276855469e+01 2.630919265747070312e+01 3.090924024581909180e-02 8.769216388463973999e-02 3.558042272925376892e-02 5.700922757387161255e-02
5.264000000000000000e+03 3.500434875488281250e+01 -1.804005146026611328e+00 2.695598304271697998e-01 -6.034951210021972656e-01 -1.001805886626243591e-01 8.241648226976394653e-02
5.265000000000000000e+03 3.398404312133789062e+01 -9.345149993896484375e-01 7.484398037195205688e-02 -6.452562808990478516e-01 -1.711236983537673950e-01 7.004455476999282837e-02
5.266000000000000000e+03 3.434299850463867188e+01 5.857785701751708984e+00 -1.045538663864135742e+00 -8.123863935470581055e-01 -5.573775172233581543e-01 -6.874415278434753418e-01
5.267000000000000000e+03 3.022604942321777344e+01 2.869946670532226562e+01 3.352909907698631287e-02 7.905959337949752808e-02 3.377660736441612244e-02 5.209463462233543396e-02
5.268000000000000000e+03 3.280937194824218750e+01 4.236502647399902344e+00 -1.176088213920593262e+00 -7.444440722465515137e-01 -5.761597156524658203e-01 -5.204410552978515625e-01
5.269000000000000000e+03 3.465282821655273438e+01 5.334237575531005859e+00 -9.612190127372741699e-01 -7.613822221755981445e-01 -5.167803764343261719e-01 -5.831891894340515137e-01
5.270000000000000000e+03 6.463391113281250000e+01 2.716786384582519531e+01 2.832220122218132019e-02 2.323524951934814453e+00 7.055541276931762695e-01 1.206928014755249023e+00
5.271000000000000000e+03 6.346057891845703125e+01 2.731859397888183594e+01 -6.314911693334579468e-02 1.675814509391784668e+00 4.837996065616607666e-01 7.525468468666076660e-01
5.272000000000000000e+03 7.250881195068359375e+01 2.907130050659179688e+01 -1.551859021186828613e+00 1.200086879730224609e+01 3.134702920913696289e+00 1.931918710470199585e-01
5.273000000000000000e+03 7.216782379150390625e+01 2.923608970642089844e+01 -1.601998090744018555e+00 1.213772392272949219e+01 3.160717964172363281e+00 5.646441578865051270e-01
5.274000000000000000e+03 4.181388473510742188e+01 1.636815452575683594e+01 -9.365414381027221680e-01 -9.457538127899169922e-01 -5.646885633468627930e-01 -1.034069299697875977e+00
5.275000000000000000e+03 2.603655815124511719e+01 2.084729576110839844e+01 5.372327193617820740e-02 1.008517518639564514e-01 4.637250676751136780e-02 7.587205618619918823e-02
5.276000000000000000e+03 3.546094894409179688e+01 7.895208358764648438e+00 -9.838703870773315430e-01 -9.355635046958923340e-01 -5.758301615715026855e-01 -8.302345871925354004e-01
5.277000000000000000e+03 3.552178192138671875e+01 8.600903511047363281e+00 -1.012513399124145508e+00 -1.003182768821716309e+00 -6.047088503837585449e-01 -8.992171287536621094e-01
5.278000000000000000e+03 5.399679946899414062e+01 2.744527626037597656e+01 -1.120784759521484375e+00 1.193281561136245728e-01 -3.004370033740997314e-01 -7.977489233016967773e-01
5.279000000000000000e+03 3.161178207397460938e+01 -2.577923834323883057e-01 -1.464692801237106323e-01 -6.588978171348571777e-01 -2.416101247072219849e-01 4.555904492735862732e-02
5.280000000000000000e+03 3.108263587951660156e+01 6.697990298271179199e-01 -4.884745776653289795e-01 -6.531058549880981445e-01 -3.424741327762603760e-01 -1.328396052122116089e-02
5.281000000000000000e+03 2.967628669738769531e+01 2.570570707321166992e+00 -1.369683623313903809e+00 -8.283166885375976562e-01 -6.594001054763793945e-01 -3.829168379306793213e-01
5.282000000000000000e+03 5.616208648681640625e+01 2.604689025878906250e+01 -7.727662920951843262e-01 5.238838195800781250e-01 -7.466474920511245728e-02 -5.639940500259399414e-01
5.283000000000000000e+03 5.326815795898437500e+01 2.755966949462890625e+01 -1.162537336349487305e+00 -1.997831463813781738e-02 -3.547546863555908203e-01 -8.358280062675476074e-01
5.284000000000000000e+03 3.274529647827148438e+01 -7.450565695762634277e-01 4.171529412269592285e-02 -6.625742912292480469e-01 -1.862576901912689209e-01 6.202864274382591248e-02
5.285000000000000000e+03 3.234440612792968750e+01 -1.163024425506591797e+00 1.229894906282424927e-01 -6.660654544830322266e-01 -1.629227995872497559e-01 6.881216168403625488e-02
5.286000000000000000e+03 6.570759582519531250e+01 2.739224624633789062e+01 3.368279337882995605e-02 2.993547916412353516e+00 9.081692099571228027e-01 1.661541342735290527e+00
5.287000000000000000e+03 3.228013992309570312e+01 3.788749456405639648e+00 -1.202255010604858398e+00 -7.380521893501281738e-01 -5.820921659469604492e-01 -4.512369036674499512e-01
5.288000000000000000e+03 7.223702239990234375e+01 2.625144767761230469e+01 -1.342428088188171387e+00 9.573207855224609375e+00 2.469233989715576172e+00 6.889900565147399902e-01
5.289000000000000000e+03 3.104208755493164062e+01 3.403163194656372070e+00 -1.403763532638549805e+00 -7.871352434158325195e-01 -6.572695970535278320e-01 -4.459560811519622803e-01
5.290000000000000000e+03 3.666453933715820312e+01 -3.878175973892211914e+00 4.870006442070007324e-01 -5.119875669479370117e-01 -7.496082223951816559e-03 5.787264555692672729e-02
5.291000000000000000e+03 3.623430633544921875e+01 -3.095950126647949219e+00 4.217236638069152832e-01 -5.423195958137512207e-01 -3.617878630757331848e-02 6.127590313553810120e-02
5.292000000000000000e+03 1.025856018066406250e+01 9.157721519470214844e+00 8.841461688280105591e-02 9.776958823204040527e-02 5.585526302456855774e-02 -3.711396455764770508e-02
5.293000000000000000e+03 3.338995742797851562e+01 -2.117642164230346680e+00 3.220393061637878418e-01 -6.529600024223327637e-01 -9.927621483802795410e-02 6.395357847213745117e-02
5.294000000000000000e+03 3.434038925170898438e+01 -1.752883553504943848e+00 2.270999550819396973e-01 -6.309645771980285645e-01 -1.211593896150588989e-01 7.349447906017303467e-02
5.295000000000000000e+03 5.925556182861328125e+01 2.620219421386718750e+01 -4.534767866134643555e-01 9.397233128547668457e-01 1.458739638328552246e-01 -2.100181877613067627e-01
5.296000000000000000e+03 1.196787452697753906e+01 1.484108352661132812e+01 1.222848333418369293e-02 1.041777506470680237e-01 3.492186963558197021e-02 7.985964417457580566e-03
5.297000000000000000e+03 5.675518798828125000e+01 2.599328804016113281e+01 -7.040079832077026367e-01 6.139535903930664062e-01 -2.701631374657154083e-02 -5.037155747413635254e-01
5.298000000000000000e+03 5.735444259643554688e+01 2.591391181945800781e+01 -6.308057308197021484e-01 7.025939822196960449e-01 2.153647318482398987e-02 -4.342746436595916748e-01
5.299000000000000000e+03 1.061610317230224609e+01 8.731539726257324219e+00 9.601663798093795776e-02 1.269910484552383423e-01 6.690230220556259155e-02 -4.439966380596160889e-02
5.300000000000000000e+03 6.291020965576171875e+01 2.630937767028808594e+01 -3.471692651510238647e-02 1.796604990959167480e+00 5.285664200782775879e-01 6.562984585762023926e-01
5.301000000000000000e+03 6.122669982910156250e+01 2.733730697631835938e+01 -3.608288466930389404e-01 1.055465579032897949e+00 2.083910256624221802e-01 5.801074206829071045e-02
5.302000000000000000e+03 1.801407432556152344e+01 1.480090808868408203e+01 5.035666003823280334e-02 1.496917456388473511e-01 6.001451984047889709e-02 8.475059270858764648e-02
5.303000000000000000e+03 1.203540420532226562e+01 1.962841796875000000e+01 -4.147248808294534683e-03 5.984263494610786438e-02 1.670861616730690002e-02 8.371404255740344524e-04
5.304000000000000000e+03 3.204786300659179688e+01 2.934072494506835938e+01 3.932010009884834290e-02 7.555443793535232544e-02 3.446236252784729004e-02 5.217757076025009155e-02
5.305000000000000000e+03 3.225978469848632812e+01 3.132117080688476562e+01 3.653430193662643433e-02 7.361976802349090576e-02 3.304621949791908264e-02 4.541511088609695435e-02
5.306000000000000000e+03 6.740713500976562500e+01 7.225707530975341797e+00 1.521366685628890991e-01 5.204541206359863281e+00 1.607003331184387207e+00 7.066218256950378418e-01
5.307000000000000000e+03 6.827635192871093750e+01 7.649237632751464844e+00 1.352295875549316406e-01 5.475819587707519531e+00 1.683314800262451172e+00 7.065098881721496582e-01
5.308000000000000000e+03 1.255621910095214844e+01 2.183848381042480469e+01 -7.233696989715099335e-03 5.127450078725814819e-02 1.321224123239517212e-02 1.715642050839960575e-03
5.309000000000000000e+03 1.126412582397460938e+01 2.064987945556640625e+01 -6.276795640587806702e-03 4.187336191534996033e-02 1.067897025495767593e-02 -4.784614779055118561e-03
5.310000000000000000e+03 6.861906433105468750e+01 2.180653572082519531e+01 -3.823633491992950439e-01 6.037193298339843750e+00 1.696449041366577148e+00 1.256475687026977539e+00
5.311000000000000000e+03 6.933724975585937500e+01 2.221580314636230469e+01 -4.811436533927917480e-01 6.499523639678955078e+00 1.805513978004455566e+00 1.227291822433471680e+00
5.312000000000000000e+03 1.084694862365722656e+01 1.232636737823486328e+01 3.128867223858833313e-02 1.024409160017967224e-01 4.011887684464454651e-02 -7.081502582877874374e-03
5.313000000000000000e+03 6.835521697998046875e+01 2.086304473876953125e+01 -2.820893824100494385e-01 5.758310317993164062e+00 1.642866253852844238e+00 1.182906150817871094e+00
5.314000000000000000e+03 1.204337310791015625e+01 1.570472145080566406e+01 9.155865758657455444e-03 9.507624059915542603e-02 3.126963227987289429e-02 7.406048011034727097e-03
5.315000000000000000e+03 1.218699264526367188e+01 1.660307502746582031e+01 4.760480485856533051e-03 8.853169530630111694e-02 2.798765338957309723e-02 7.586954627186059952e-03
5.316000000000000000e+03 6.587409210205078125e+01 5.478041648864746094e+00 1.818286329507827759e-01 4.752676486968994141e+00 1.480351567268371582e+00 6.947568058967590332e-01
5.317000000000000000e+03 6.620755767822265625e+01 3.494380950927734375e+00 1.849000155925750732e-01 4.847638130187988281e+00 1.509761452674865723e+00 6.557306051254272461e-01
5.318000000000000000e+03 3.978957748413085938e+01 -5.083199977874755859e+00 5.091981887817382812e-01 -2.249802201986312866e-01 8.526539802551269531e-02 5.743787810206413269e-02
5.319000000000000000e+03 3.927662658691406250e+01 -4.357263088226318359e+00 4.752715826034545898e-01 -2.868606150150299072e-01 5.652328953146934509e-02 7.554106414318084717e-02
5.320000000000000000e+03 1.314332389831542969e+01 2.295352745056152344e+01 -6.864537950605154037e-03 5.129032209515571594e-02 1.332773454487323761e-02 4.437819588929414749e-03
5.321000000000000000e+03 1.424935436248779297e+01 2.535863876342773438e+01 -7.713076658546924591e-03 4.923509433865547180e-02 1.245660614222288132e-02 6.835279986262321472e-03
5.322000000000000000e+03 1.073437023162841797e+01 9.160943984985351562e+00 7.738219201564788818e-02 1.368056237697601318e-01 6.425634026527404785e-02 -3.394497558474540710e-02
5.323000000000000000e+03 1.146527290344238281e+01 1.067653465270996094e+01 4.449450597167015076e-02 1.527222543954849243e-01 5.916502699255943298e-02 -6.144717801362276077e-03
5.324000000000000000e+03 7.128956604003906250e+01 2.637104225158691406e+01 -1.319713473320007324e+00 9.121313095092773438e+00 2.340479850769042969e+00 1.251832842826843262e+00
5.325000000000000000e+03 6.898413848876953125e+01 2.617373275756835938e+01 -7.310388088226318359e-01 6.796277999877929688e+00 1.819571733474731445e+00 2.057297229766845703e+00
5.326000000000000000e+03 6.596800994873046875e+01 -1.284171223640441895e+00 1.894289553165435791e-01 4.763636112213134766e+00 1.485919594764709473e+00 5.641023516654968262e-01
5.327000000000000000e+03 1.104537200927734375e+01 -1.210450553894042969e+01 2.256784960627555847e-02 -6.128689646720886230e-01 -1.770903319120407104e-01 -6.224904060363769531e-01
5.328000000000000000e+03 4.370729827880859375e+01 -7.079295635223388672e+00 4.861597120761871338e-01 2.876335680484771729e-01 2.321379929780960083e-01 9.280405193567276001e-02
5.329000000000000000e+03 6.943628692626953125e+01 1.643551254272460938e+01 -7.647588104009628296e-02 6.106780052185058594e+00 1.809091329574584961e+00 8.710507750511169434e-01
5.330000000000000000e+03 2.877101135253906250e+01 2.861339759826660156e+01 2.909652702510356903e-02 8.125491440296173096e-02 3.310543298721313477e-02 5.050925165414810181e-02
5.331000000000000000e+03 6.758485412597656250e+01 5.924182415008544922e+00 1.532863974571228027e-01 5.239869117736816406e+00 1.617946624755859375e+00 6.855709552764892578e-01
5.332000000000000000e+03 6.980258941650390625e+01 1.433086585998535156e+01 -1.606693677604198456e-02 6.142251968383789062e+00 1.837855577468872070e+00 8.050878643989562988e-01
5.333000000000000000e+03 6.727893066406250000e+01 6.911411881446838379e-01 1.666772812604904175e-01 5.111639976501464844e+00 1.583495140075683594e+00 5.990675687789916992e-01
5.334000000000000000e+03 6.778172302246093750e+01 -1.365952873229980469e+01 9.534946829080581665e-02 5.096703529357910156e+00 1.557615995407104492e+00 3.503313064575195312e-01
5.335000000000000000e+03 4.465710067749023438e+01 -1.388263702392578125e+01 3.330117166042327881e-01 5.652359724044799805e-01 2.694742977619171143e-01 4.100004956126213074e-02
5.336000000000000000e+03 4.565135955810546875e+01 -1.344715499877929688e+01 3.369921147823333740e-01 7.121891975402832031e-01 3.147543966770172119e-01 5.802589282393455505e-02
5.337000000000000000e+03 6.550697326660156250e+01 1.306397914886474609e+01 1.149615868926048279e-01 4.561527729034423828e+00 1.402946829795837402e+00 8.182795047760009766e-01
5.338000000000000000e+03 1.526159286499023438e+01 -2.203024482727050781e+01 2.192938625812530518e-01 -4.202371537685394287e-01 -6.028299033641815186e-02 -3.835173547267913818e-01
5.339000000000000000e+03 1.283801364898681641e+01 -1.834800148010253906e+01 1.905490905046463013e-01 -5.963866114616394043e-01 -1.217512637376785278e-01 -4.609775245189666748e-01
5.340000000000000000e+03 4.377717971801757812e+01 -8.290971755981445312e+00 4.825549125671386719e-01 3.221397995948791504e-01 2.414084076881408691e-01 8.597504347562789917e-02
5.341000000000000000e+03 6.631315612792968750e+01 -7.184995651245117188e+00 1.557222753763198853e-01 4.804214477539062500e+00 1.487981081008911133e+00 4.531391859054565430e-01
5.342000000000000000e+03 3.379925918579101562e+01 3.505596160888671875e+01 4.107388481497764587e-02 6.573066115379333496e-02 3.204136341810226440e-02 3.508652001619338989e-02
5.343000000000000000e+03 1.169379329681396484e+01 -1.719307327270507812e+01 1.645118296146392822e-01 -6.396486163139343262e-01 -1.425410360097885132e-01 -4.921898841857910156e-01
5.344000000000000000e+03 6.701222229003906250e+01 -7.913255691528320312e+00 1.402833759784698486e-01 4.959638595581054688e+00 1.529976606369018555e+00 4.425892829895019531e-01
5.345000000000000000e+03 4.535476303100585938e+01 -1.144043350219726562e+01 4.071964323520660400e-01 6.235045790672302246e-01 3.092103004455566406e-01 7.573214918375015259e-02
5.346000000000000000e+03 4.503628158569335938e+01 -1.038651371002197266e+01 4.359390437602996826e-01 5.582288503646850586e-01 2.982503473758697510e-01 7.094514369964599609e-02
5.347000000000000000e+03 4.615093612670898438e+01 -1.433835220336914062e+01 3.096133172512054443e-01 8.026106357574462891e-01 3.336671888828277588e-01 6.192241981625556946e-02
5.348000000000000000e+03 3.741227722167968750e+01 3.699472427368164062e+01 6.090643256902694702e-02 5.552462488412857056e-02 3.492931649088859558e-02 3.156059235334396362e-02
5.349000000000000000e+03 4.651724243164062500e+01 -1.989464187622070312e+01 8.627668023109436035e-02 9.438126087188720703e-01 3.090267777442932129e-01 7.089056819677352905e-02
5.350000000000000000e+03 4.701226806640625000e+01 -1.797056388854980469e+01 1.667185425758361816e-01 1.016840696334838867e+00 3.550677597522735596e-01 6.891269236803054810e-02
5.351000000000000000e+03 6.596290588378906250e+01 1.011179542541503906e+01 1.475241482257843018e-01 4.765788555145263672e+00 1.473993778228759766e+00 7.645659446716308594e-01
5.352000000000000000e+03 6.775581359863281250e+01 -2.061539649963378906e+01 5.636814981698989868e-02 4.991977691650390625e+00 1.514503717422485352e+00 2.954168319702148438e-01
5.353000000000000000e+03 6.371670913696289062e+01 -2.365780258178710938e+01 6.421593576669692993e-02 4.240084171295166016e+00 1.291290044784545898e+00 3.000919520854949951e-01
5.354000000000000000e+03 1.358819580078125000e+01 2.737421798706054688e+01 -8.948662318289279938e-03 3.607691824436187744e-02 8.138476870954036713e-03 2.403785940259695053e-03
5.355000000000000000e+03 6.597225189208984375e+01 -6.159933090209960938e+00 1.712813228368759155e-01 4.742224693298339844e+00 1.474051833152770996e+00 4.754614531993865967e-01
5.356000000000000000e+03 1.945648193359375000e+01 -2.464466857910156250e+01 2.522151172161102295e-01 -6.427520513534545898e-02 5.638197064399719238e-02 -3.408449888229370117e-01
5.357000000000000000e+03 1.087663078308105469e+01 -1.982157135009765625e+01 1.573560088872909546e-01 -6.618906855583190918e-01 -1.513603925704956055e-01 -4.240077137947082520e-01
5.358000000000000000e+03 1.142479038238525391e+01 -2.075335502624511719e+01 1.783730238676071167e-01 -6.406498551368713379e-01 -1.386830508708953857e-01 -4.104118049144744873e-01
5.359000000000000000e+03 6.678504180908203125e+01 5.797233104705810547e+00 1.652809083461761475e-01 5.002351284027099609e+00 1.550289630889892578e+00 6.886101365089416504e-01
5.360000000000000000e+03 1.396486949920654297e+01 -2.259628677368164062e+01 2.093475162982940674e-01 -4.962069392204284668e-01 -8.605782687664031982e-02 -3.710901141166687012e-01
5.361000000000000000e+03 9.958899497985839844e+00 -2.701299285888671875e+01 1.225943863391876221e-01 -7.823341488838195801e-01 -1.979219317436218262e-01 -2.842773795127868652e-01
5.362000000000000000e+03 1.136574935913085938e+01 -2.856143760681152344e+01 1.420793831348419189e-01 -6.880695223808288574e-01 -1.637970358133316040e-01 -2.630795240402221680e-01
5.363000000000000000e+03 6.441192626953125000e+01 -1.732209014892578125e+01 9.890413284301757812e-02 4.373322963714599609e+00 1.341668128967285156e+00 3.323046565055847168e-01
5.364000000000000000e+03 4.872562789916992188e+01 -2.043445587158203125e+01 6.357469409704208374e-02 1.402426242828369141e+00 4.398002922534942627e-01 1.076288223266601562e-01
5.365000000000000000e+03 5.145092773437500000e+01 -1.977320480346679688e+01 1.065802872180938721e-01 1.919746518135070801e+00 6.078980565071105957e-01 1.713276058435440063e-01
5.366000000000000000e+03 4.856891250610351562e+01 -1.770870208740234375e+01 1.797668188810348511e-01 1.329151153564453125e+00 4.526754021644592285e-01 1.062361821532249451e-01
5.367000000000000000e+03 1.249369144439697266e+01 -1.304543304443359375e+01 1.082495003938674927e-01 -6.558186411857604980e-01 -1.642707437276840210e-01 -6.086824536323547363e-01
5.368000000000000000e+03 6.142643737792968750e+01 -2.696470451354980469e+01 7.760107517242431641e-02 3.829054117202758789e+00 1.171996593475341797e+00 2.966090738773345947e-01
5.369000000000000000e+03 5.369453430175781250e+01 -2.296227455139160156e+01 3.686640039086341858e-02 2.365085363388061523e+00 7.205855250358581543e-01 2.167633175849914551e-01
5.370000000000000000e+03 3.981151962280273438e+01 4.046833038330078125e+01 8.406293392181396484e-02 4.474348574876785278e-02 3.864192590117454529e-02 1.333617698401212692e-02
5.371000000000000000e+03 3.277976989746093750e+01 3.678743743896484375e+01 3.717244789004325867e-02 6.609719246625900269e-02 3.098089247941970825e-02 2.734159119427204132e-02
5.372000000000000000e+03 4.917508316040039062e+01 2.333318710327148438e+01 -1.000248908996582031e+00 -5.120027661323547363e-01 -4.536754786968231201e-01 -8.844413161277770996e-01
5.373000000000000000e+03 6.655080413818359375e+01 2.777615165710449219e+01 2.619050908833742142e-03 3.591896772384643555e+00 1.078354716300964355e+00 2.077286958694458008e+00
5.374000000000000000e+03 6.747090148925781250e+01 2.843762016296386719e+01 -7.457268238067626953e-02 4.453514575958251953e+00 1.313682556152343750e+00 2.592884778976440430e+00
5.375000000000000000e+03 2.862431526184082031e+01 1.116796135902404785e+00 -9.846557974815368652e-01 -6.072792410850524902e-01 -4.775805175304412842e-01 -1.679696291685104370e-01
5.376000000000000000e+03 3.879834365844726562e+01 1.304001235961914062e+01 -9.743492007255554199e-01 -1.052639961242675781e+00 -6.080967187881469727e-01 -9.907196760177612305e-01
5.377000000000000000e+03 3.820590209960937500e+01 1.233068752288818359e+01 -9.770073294639587402e-01 -1.056846857070922852e+00 -6.101562976837158203e-01 -9.799736738204956055e-01
5.378000000000000000e+03 3.739468002319335938e+01 1.153739356994628906e+01 -1.001595258712768555e+00 -1.080936312675476074e+00 -6.247594952583312988e-01 -9.855444431304931641e-01
5.379000000000000000e+03 4.920029449462890625e+01 2.396784210205078125e+01 -1.060434818267822266e+00 -5.729549527168273926e-01 -4.900169372558593750e-01 -9.323214888572692871e-01
5.380000000000000000e+03 4.985979843139648438e+01 2.489231872558593750e+01 -1.095582604408264160e+00 -5.302194952964782715e-01 -4.877406060695648193e-01 -9.375636577606201172e-01
5.381000000000000000e+03 4.756101989746093750e+01 2.230493354797363281e+01 -1.019735693931579590e+00 -7.036477327346801758e-01 -5.170150399208068848e-01 -9.464606046676635742e-01
5.382000000000000000e+03 4.467671203613281250e+01 1.955302619934082031e+01 -9.356149435043334961e-01 -8.958245515823364258e-01 -5.494318604469299316e-01 -1.012286067008972168e+00
5.383000000000000000e+03 4.584776687622070312e+01 2.014681053161621094e+01 -9.171201586723327637e-01 -7.885339856147766113e-01 -5.116962194442749023e-01 -9.444053769111633301e-01
5.384000000000000000e+03 3.851710891723632812e+01 1.270654582977294922e+01 -9.739118218421936035e-01 -1.053324580192565918e+00 -6.081709265708923340e-01 -9.869675040245056152e-01
5.385000000000000000e+03 4.600711822509765625e+01 2.053574180603027344e+01 -9.474458098411560059e-01 -8.012409806251525879e-01 -5.246060490608215332e-01 -9.575719833374023438e-01
5.386000000000000000e+03 2.977119255065917969e+01 1.986950874328613281e+00 -1.143905520439147949e+00 -7.664020657539367676e-01 -5.730922818183898926e-01 -2.574314773082733154e-01
5.387000000000000000e+03 3.733083343505859375e+01 1.112962722778320312e+01 -9.776401519775390625e-01 -1.054049253463745117e+00 -6.095068454742431641e-01 -9.562539458274841309e-01
5.388000000000000000e+03 4.384865570068359375e+01 1.751509666442871094e+01 -8.430041670799255371e-01 -8.122068047523498535e-01 -4.965632855892181396e-01 -9.517671465873718262e-01
5.389000000000000000e+03 2.482969093322753906e+01 2.153996086120605469e+01 4.317639768123626709e-02 1.023135706782341003e-01 4.364699125289916992e-02 7.036931812763214111e-02
5.390000000000000000e+03 2.522004127502441406e+01 2.140500068664550781e+01 4.585270211100578308e-02 1.020951196551322937e-01 4.438434541225433350e-02 7.173744589090347290e-02
5.391000000000000000e+03 4.627838134765625000e+01 2.003674697875976562e+01 -8.775789737701416016e-01 -7.127382755279541016e-01 -4.770951569080352783e-01 -8.981092572212219238e-01
5.392000000000000000e+03 4.417037582397460938e+01 1.833791923522949219e+01 -8.775928616523742676e-01 -8.483011126518249512e-01 -5.177682042121887207e-01 -9.814653396606445312e-01
5.393000000000000000e+03 5.127437973022460938e+01 2.616209793090820312e+01 -1.128997206687927246e+00 -3.538897037506103516e-01 -4.448660910129547119e-01 -8.886010646820068359e-01
5.394000000000000000e+03 2.018132019042968750e+01 1.875409126281738281e+01 3.556765988469123840e-02 1.207081004977226257e-01 4.688272997736930847e-02 6.831116229295730591e-02
5.395000000000000000e+03 3.937761688232421875e+01 1.358192729949951172e+01 -9.584637880325317383e-01 -1.024954319000244141e+00 -5.950254201889038086e-01 -9.854210615158081055e-01
5.396000000000000000e+03 4.450993347167968750e+01 1.915519714355468750e+01 -9.149799942970275879e-01 -8.829646110534667969e-01 -5.393833518028259277e-01 -1.002877354621887207e+00
5.397000000000000000e+03 7.175616455078125000e+01 2.947963714599609375e+01 -1.663547277450561523e+00 1.233430480957031250e+01 3.201227188110351562e+00 1.071522355079650879e+00
5.398000000000000000e+03 7.099301147460937500e+01 2.911997222900390625e+01 -1.585564613342285156e+00 1.101349639892578125e+01 2.828379631042480469e+00 2.064213991165161133e+00
5.399000000000000000e+03 3.946367645263671875e+01 1.411407661437988281e+01 -9.835132360458374023e-01 -1.057132363319396973e+00 -6.121936440467834473e-01 -1.019524216651916504e+00
5.400000000000000000e+03 1.277865886688232422e+01 9.240740776062011719e+00 5.486892908811569214e-02 2.470234781503677368e-01 9.056772291660308838e-02 1.903478801250457764e-02
5.401000000000000000e+03 1.327237796783447266e+01 1.009813785552978516e+01 4.487243667244911194e-02 2.276349365711212158e-01 8.175221085548400879e-02 3.942800313234329224e-02
5.402000000000000000e+03 5.197370147705078125e+01 2.655135536193847656e+01 -1.126874446868896484e+00 -2.337962239980697632e-01 -4.082012176513671875e-01 -8.567112684249877930e-01
5.403000000000000000e+03 5.162584304809570312e+01 2.631363105773925781e+01 -1.125105977058410645e+00 -2.896543443202972412e-01 -4.244281053543090820e-01 -8.682760596275329590e-01
5.404000000000000000e+03 4.720815658569335938e+01 2.196988487243652344e+01 -1.013261795043945312e+00 -7.356321811676025391e-01 -5.246682167053222656e-01 -9.519365429878234863e-01
5.405000000000000000e+03 4.789471054077148438e+01 2.205383300781250000e+01 -9.653998017311096191e-01 -6.256053447723388672e-01 -4.773015379905700684e-01 -8.984842896461486816e-01
5.406000000000000000e+03 4.046545410156250000e+01 1.533075618743896484e+01 -9.800590276718139648e-01 -1.018036842346191406e+00 -5.994287729263305664e-01 -1.043492197990417480e+00
5.407000000000000000e+03 5.019196319580078125e+01 2.441771697998046875e+01 -1.029772639274597168e+00 -4.273297190666198730e-01 -4.371306896209716797e-01 -8.760685920715332031e-01
5.408000000000000000e+03 1.680288124084472656e+01 1.369674587249755859e+01 4.795243963599205017e-02 1.645315736532211304e-01 6.374520808458328247e-02 8.396013081073760986e-02
5.409000000000000000e+03 1.709737205505371094e+01 1.420869541168212891e+01 4.644566774368286133e-02 1.577437669038772583e-01 6.125683337450027466e-02 8.198573440313339233e-02
5.410000000000000000e+03 4.603467941284179688e+01 2.119146156311035156e+01 -1.012941479682922363e+00 -8.540524840354919434e-01 -5.600981712341308594e-01 -9.972316026687622070e-01
5.411000000000000000e+03 1.974170494079589844e+01 1.687714576721191406e+01 4.738828539848327637e-02 1.312728226184844971e-01 5.359833315014839172e-02 7.900706678628921509e-02
5.412000000000000000e+03 3.791201782226562500e+01 1.158405017852783203e+01 -9.560036659240722656e-01 -1.029478311538696289e+00 -5.956445932388305664e-01 -9.446103572845458984e-01
5.413000000000000000e+03 4.509629821777343750e+01 1.943638801574707031e+01 -9.013535976409912109e-01 -8.297846913337707520e-01 -5.193414688110351562e-01 -9.676544070243835449e-01
5.414000000000000000e+03 4.524014282226562500e+01 1.987014770507812500e+01 -9.334353208541870117e-01 -8.521445989608764648e-01 -5.356739759445190430e-01 -9.844344258308410645e-01
5.415000000000000000e+03 1.261551952362060547e+01 1.845215606689453125e+01 -2.462864213157445192e-04 7.735578715801239014e-02 2.313285134732723236e-02 7.709579542279243469e-03
5.416000000000000000e+03 1.935809707641601562e+01 1.622322082519531250e+01 5.028072372078895569e-02 1.374914348125457764e-01 5.633164569735527039e-02 8.240990340709686279e-02
5.417000000000000000e+03 2.432418632507324219e+01 2.105589485168457031e+01 4.397896677255630493e-02 1.049093157052993774e-01 4.466648399829864502e-02 7.095733284950256348e-02
5.418000000000000000e+03 5.063260269165039062e+01 2.483828926086425781e+01 -1.040324449539184570e+00 -3.770795166492462158e-01 -4.252211749553680420e-01 -8.656410574913024902e-01
5.419000000000000000e+03 1.874186134338378906e+01 1.625993919372558594e+01 4.408933967351913452e-02 1.363773792982101440e-01 5.414001271128654480e-02 7.709001004695892334e-02
5.420000000000000000e+03 5.173237609863281250e+01 2.589679527282714844e+01 -1.078253269195556641e+00 -2.366484999656677246e-01 -3.944705128669738770e-01 -8.397839069366455078e-01
5.421000000000000000e+03 4.434295272827148438e+01 1.874700546264648438e+01 -8.955634236335754395e-01 -8.672649860382080078e-01 -5.288485288619995117e-01 -9.933219552040100098e-01
5.422000000000000000e+03 5.102881622314453125e+01 2.530213356018066406e+01 -1.060644268989562988e+00 -3.353585004806518555e-01 -4.188008606433868408e-01 -8.608276844024658203e-01
5.423000000000000000e+03 4.041302871704101562e+01 1.443922996520996094e+01 -9.293542504310607910e-01 -9.623545408248901367e-01 -5.675126314163208008e-01 -9.738250374794006348e-01
5.424000000000000000e+03 4.091563415527343750e+01 1.554635524749755859e+01 -9.616533517837524414e-01 -9.912882447242736816e-01 -5.858824849128723145e-01 -1.030318856239318848e+00
5.425000000000000000e+03 4.400214004516601562e+01 1.792776870727539062e+01 -8.601003885269165039e-01 -8.302544355392456055e-01 -5.071064829826354980e-01 -9.670080542564392090e-01
5.426000000000000000e+03 4.322965240478515625e+01 1.724266624450683594e+01 -8.718236684799194336e-01 -8.591930270195007324e-01 -5.193049907684326172e-01 -9.856393337249755859e-01
5.427000000000000000e+03 6.689128875732421875e+01 2.873376846313476562e+01 7.211361825466156006e-02 3.538879632949829102e+00 1.083297967910766602e+00 2.372776985168457031e+00
5.428000000000000000e+03 3.133286285400390625e+01 3.527044296264648438e+00 -1.369823336601257324e+00 -7.850409746170043945e-01 -6.464592814445495605e-01 -4.533814787864685059e-01
5.429000000000000000e+03 6.794572448730468750e+01 2.889318466186523438e+01 -1.246319785714149475e-01 5.048159122467041016e+00 1.477058053016662598e+00 2.937548398971557617e+00
5.430000000000000000e+03 6.833797454833984375e+01 2.885399246215820312e+01 -2.673282623291015625e-01 5.708773612976074219e+00 1.632433533668518066e+00 3.084623813629150391e+00
5.431000000000000000e+03 4.696954345703125000e+01 2.134829330444335938e+01 -9.654695391654968262e-01 -7.200275063514709473e-01 -5.056490898132324219e-01 -9.262959957122802734e-01
5.432000000000000000e+03 4.776687240600585938e+01 2.163360977172851562e+01 -9.401569366455078125e-01 -6.174048185348510742e-01 -4.672685265541076660e-01 -8.786919713020324707e-01
5.433000000000000000e+03 4.009886169433593750e+01 1.408094882965087891e+01 -9.336944222450256348e-01 -9.752059578895568848e-01 -5.726701021194458008e-01 -9.678586125373840332e-01
5.434000000000000000e+03 5.292827224731445312e+01 2.742202568054199219e+01 -1.167611479759216309e+00 -7.696838676929473877e-02 -3.733739554882049561e-01 -8.456739187240600586e-01
5.435000000000000000e+03 5.286541748046875000e+01 2.696946334838867188e+01 -1.126064300537109375e+00 -7.043513655662536621e-02 -3.589498400688171387e-01 -8.273767828941345215e-01
5.436000000000000000e+03 2.473250579833984375e+01 2.115101432800292969e+01 4.476352781057357788e-02 1.029708608984947205e-01 4.432031512260437012e-02 7.148707658052444458e-02
5.437000000000000000e+03 3.015970611572265625e+01 2.984606027603149414e+00 -1.434867024421691895e+00 -8.071908950805664062e-01 -6.726173758506774902e-01 -3.882914483547210693e-01
5.438000000000000000e+03 2.766983032226562500e+01 8.981940746307373047e-01 -1.016358375549316406e+00 -5.779407024383544922e-01 -4.782897233963012695e-01 -2.984105348587036133e-01
5.439000000000000000e+03 1.186314964294433594e+01 1.185064411163330078e+01 3.113084845244884491e-02 1.449545025825500488e-01 5.282560735940933228e-02 5.676942877471446991e-03
5.440000000000000000e+03 7.017891693115234375e+01 2.927700805664062500e+01 -1.240515232086181641e+00 9.780728340148925781e+00 2.562063932418823242e+00 2.938899040222167969e+00
5.441000000000000000e+03 4.656463241577148438e+01 2.128416252136230469e+01 -9.873918890953063965e-01 -7.802757620811462402e-01 -5.303002595901489258e-01 -9.579532742500305176e-01
5.442000000000000000e+03 2.290131187438964844e+01 1.980038261413574219e+01 4.521796479821205139e-02 1.105383783578872681e-01 4.672690108418464661e-02 7.377405464649200439e-02
5.443000000000000000e+03 3.785848236083984375e+01 1.110116481781005859e+01 -9.332420825958251953e-01 -9.913356900215148926e-01 -5.773733258247375488e-01 -9.070252180099487305e-01
5.444000000000000000e+03 2.005994606018066406e+01 1.746057319641113281e+01 4.499527439475059509e-02 1.273332983255386353e-01 5.169856920838356018e-02 7.664918899536132812e-02
5.445000000000000000e+03 1.952829933166503906e+01 1.655162048339843750e+01 4.756346344947814941e-02 1.339693665504455566e-01 5.445985123515129089e-02 7.998675853013992310e-02
5.446000000000000000e+03 1.025089550018310547e+01 1.044968605041503906e+01 5.959256365895271301e-02 9.690418839454650879e-02 4.694902524352073669e-02 -2.437110617756843567e-02
5.447000000000000000e+03 1.375523757934570312e+01 1.042378807067871094e+01 4.499031975865364075e-02 2.275787293910980225e-01 8.177071064710617065e-02 5.419965833425521851e-02
5.448000000000000000e+03 1.227751636505126953e+01 8.291325569152832031e+00 6.749077886343002319e-02 2.668665945529937744e-01 1.003072112798690796e-01 -9.850258007645606995e-03
5.449000000000000000e+03 3.132574272155761719e+01 2.060157656669616699e-01 -2.980866730213165283e-01 -6.960561275482177734e-01 -2.982428371906280518e-01 2.086076885461807251e-02
5.450000000000000000e+03 3.235614013671875000e+01 -3.627244830131530762e-01 -8.532419800758361816e-02 -6.677670478820800781e-01 -2.259273827075958252e-01 5.501946434378623962e-02
5.451000000000000000e+03 7.140756988525390625e+01 2.907440185546875000e+01 -1.654392004013061523e+00 1.143707656860351562e+01 2.934805154800415039e+00 1.541040420532226562e+00
5.452000000000000000e+03 7.204015350341796875e+01 2.950916290283203125e+01 -1.611724495887756348e+00 1.243211650848388672e+01 3.246117591857910156e+00 7.395176887512207031e-01
5.453000000000000000e+03 7.135716247558593750e+01 2.765196037292480469e+01 -1.521150708198547363e+00 9.995869636535644531e+00 2.542415857315063477e+00 1.402190923690795898e+00
5.454000000000000000e+03 7.184970092773437500e+01 2.766721153259277344e+01 -1.559385180473327637e+00 1.037421607971191406e+01 2.644449472427368164e+00 9.947594404220581055e-01
5.455000000000000000e+03 2.046343040466308594e+01 1.823764038085937500e+01 4.115895554423332214e-02 1.225311830639839172e-01 4.910704120993614197e-02 7.347331196069717407e-02
5.456000000000000000e+03 1.990426063537597656e+01 1.800979995727539062e+01 3.975417837500572205e-02 1.253537982702255249e-01 4.953239485621452332e-02 7.222259789705276489e-02
5.457000000000000000e+03 3.712345504760742188e+01 1.026863765716552734e+01 -9.503423571586608887e-01 -9.986063241958618164e-01 -5.846846103668212891e-01 -9.001134634017944336e-01
5.458000000000000000e+03 3.623873519897460938e+01 6.705857276916503906e+00 -8.347517251968383789e-01 -7.773797512054443359e-01 -4.836394488811492920e-01 -6.297002434730529785e-01
5.459000000000000000e+03 1.567537307739257812e+01 1.197639751434326172e+01 5.136905610561370850e-02 1.951018124818801880e-01 7.394126057624816895e-02 8.559540659189224243e-02
5.460000000000000000e+03 1.376465511322021484e+01 1.129330158233642578e+01 3.738110885024070740e-02 1.999098658561706543e-01 7.118729501962661743e-02 4.877416417002677917e-02
5.461000000000000000e+03 3.632321166992187500e+01 9.206398010253906250e+00 -9.583319425582885742e-01 -9.859147667884826660e-01 -5.832740068435668945e-01 -8.742398023605346680e-01
5.462000000000000000e+03 3.628318405151367188e+01 8.386083602905273438e+00 -9.320191740989685059e-01 -9.171225428581237793e-01 -5.547425150871276855e-01 -8.071052432060241699e-01
5.463000000000000000e+03 4.233928680419921875e+01 1.597488880157470703e+01 -8.663248419761657715e-01 -8.494868278503417969e-01 -5.147435069084167480e-01 -9.582690596580505371e-01
5.464000000000000000e+03 1.227049446105957031e+01 8.805573463439941406e+00 6.392894685268402100e-02 2.413987517356872559e-01 9.159830957651138306e-02 -6.143182516098022461e-03
5.465000000000000000e+03 3.592082595825195312e+01 9.575088500976562500e+00 -1.018951892852783203e+00 -1.052568316459655762e+00 -6.214560270309448242e-01 -9.448521733283996582e-01
5.466000000000000000e+03 6.793090820312500000e+01 2.843421554565429688e+01 -2.019914984703063965e-01 5.175123691558837891e+00 1.491939544677734375e+00 2.769078731536865234e+00
5.467000000000000000e+03 2.348328971862792969e+01 2.032461547851562500e+01 4.454524815082550049e-02 1.088123694062232971e-01 4.600728303194046021e-02 7.273040711879730225e-02
5.468000000000000000e+03 1.589311695098876953e+01 1.248406887054443359e+01 4.914921149611473083e-02 1.858289986848831177e-01 7.049345970153808594e-02 8.368385583162307739e-02
5.469000000000000000e+03 1.583008766174316406e+01 1.167123603820800781e+01 5.595851689577102661e-02 1.988999396562576294e-01 7.645753771066665649e-02 9.309663623571395874e-02
5.470000000000000000e+03 1.422252559661865234e+01 1.126915359497070312e+01 4.219399392604827881e-02 2.067525088787078857e-01 7.468394935131072998e-02 6.057503819465637207e-02
5.471000000000000000e+03 1.512038040161132812e+01 1.150365638732910156e+01 4.861826077103614807e-02 2.050027847290039062e-01 7.608631253242492676e-02 7.946725934743881226e-02
5.472000000000000000e+03 3.648139953613281250e+01 9.948138236999511719e+00 -9.899734854698181152e-01 -1.034354448318481445e+00 -6.072983741760253906e-01 -9.294304251670837402e-01
5.473000000000000000e+03 2.939706802368164062e+01 1.874660611152648926e+00 -1.145658731460571289e+00 -7.303208708763122559e-01 -5.627939105033874512e-01 -2.503247559070587158e-01
5.474000000000000000e+03 2.885155677795410156e+01 1.546433448791503906e+00 -1.106419205665588379e+00 -6.889020204544067383e-01 -5.385963916778564453e-01 -2.395442724227905273e-01
5.475000000000000000e+03 2.243827438354492188e+01 1.902572822570800781e+01 4.864194616675376892e-02 1.155853942036628723e-01 4.926820099353790283e-02 7.703165709972381592e-02
5.476000000000000000e+03 2.310002326965332031e+01 1.860174369812011719e+01 5.679249390959739685e-02 1.150346770882606506e-01 5.154815316200256348e-02 8.234575390815734863e-02
5.477000000000000000e+03 2.335731697082519531e+01 1.878623962402343750e+01 5.630059167742729187e-02 1.134883761405944824e-01 5.093669146299362183e-02 8.196625858545303345e-02
5.478000000000000000e+03 2.516400337219238281e+01 2.178211593627929688e+01 4.316154494881629944e-02 1.015962362289428711e-01 4.342733323574066162e-02 7.000653445720672607e-02
5.479000000000000000e+03 4.266897201538085938e+01 1.689526557922363281e+01 -8.987407684326171875e-01 -8.937546610832214355e-01 -5.377486348152160645e-01 -1.009370565414428711e+00
5.480000000000000000e+03 4.224488830566406250e+01 1.642628669738769531e+01 -9.048328995704650879e-01 -8.994707465171813965e-01 -5.412911176681518555e-01 -1.004885554313659668e+00
5.481000000000000000e+03 3.584671401977539062e+01 7.509225368499755859e+00 -9.260052442550659180e-01 -8.645750880241394043e-01 -5.371741056442260742e-01 -7.512538433074951172e-01
5.482000000000000000e+03 2.839604949951171875e+01 2.750404930114746094e+01 3.078488260507583618e-02 8.339162915945053101e-02 3.425295278429985046e-02 5.374198779463768005e-02
5.483000000000000000e+03 1.701997756958007812e+01 1.462818813323974609e+01 4.232223704457283020e-02 1.543820798397064209e-01 5.901129543781280518e-02 7.671806216239929199e-02
5.484000000000000000e+03 2.748026084899902344e+01 2.580380630493164062e+01 3.208760172128677368e-02 8.821982145309448242e-02 3.609222918748855591e-02 5.826550722122192383e-02
5.485000000000000000e+03 3.561241149902343750e+01 5.962962627410888672e+00 -8.634316325187683105e-01 -7.619292140007019043e-01 -4.876082539558410645e-01 -5.927981734275817871e-01
5.486000000000000000e+03 6.710480499267578125e+01 2.743376731872558594e+01 -1.250406056642532349e-01 4.359797000885009766e+00 1.270426988601684570e+00 2.239337682723999023e+00
5.487000000000000000e+03 7.229334259033203125e+01 2.951353454589843750e+01 -1.519609689712524414e+00 1.255078792572021484e+01 3.309353590011596680e+00 2.720407545566558838e-01
5.488000000000000000e+03 2.771965217590332031e+01 2.720432662963867188e+01 2.991341613233089447e-02 8.542849868535995483e-02 3.460257500410079956e-02 5.453849211335182190e-02
5.489000000000000000e+03 6.991700744628906250e+01 2.773606109619140625e+01 -1.101382017135620117e+00 8.352685928344726562e+00 2.175391197204589844e+00 2.348989248275756836e+00
5.490000000000000000e+03 7.189737701416015625e+01 2.862964820861816406e+01 -1.656987667083740234e+00 1.134167766571044922e+01 2.905406951904296875e+00 9.378965497016906738e-01
5.491000000000000000e+03 7.140523529052734375e+01 2.862348365783691406e+01 -1.637189507484436035e+00 1.094018745422363281e+01 2.790899276733398438e+00 1.511519551277160645e+00
5.492000000000000000e+03 2.907785797119140625e+01 2.776518440246582031e+01 3.369385004043579102e-02 8.196743577718734741e-02 3.469838574528694153e-02 5.447875335812568665e-02
5.493000000000000000e+03 2.990273666381835938e+01 8.096115589141845703e-01 -6.615152359008789062e-01 -7.060245871543884277e-01 -4.102619290351867676e-01 -8.253950625658035278e-02
5.494000000000000000e+03 2.579398918151855469e+01 2.449847412109375000e+01 3.131306171417236328e-02 9.356193989515304565e-02 3.746249899268150330e-02 6.011320650577545166e-02
5.495000000000000000e+03 6.502542877197265625e+01 2.680436706542968750e+01 4.579237848520278931e-02 2.741892337799072266e+00 8.363054394721984863e-01 1.377538800239562988e+00
5.496000000000000000e+03 3.548442077636718750e+01 7.244757175445556641e+00 -9.530323147773742676e-01 -8.725823163986206055e-01 -5.476843714714050293e-01 -7.550716400146484375e-01
5.497000000000000000e+03 3.517081832885742188e+01 6.953389644622802734e+00 -9.889401197433471680e-01 -8.581526279449462891e-01 -5.541278123855590820e-01 -7.491190433502197266e-01
5.498000000000000000e+03 6.816058349609375000e+01 2.479831123352050781e+01 -4.642237424850463867e-01 5.786227703094482422e+00 1.596601128578186035e+00 1.744521975517272949e+00
5.499000000000000000e+03 3.168063163757324219e+01 3.048463344573974609e+00 -1.160015463829040527e+00 -7.386512160301208496e-01 -5.695999860763549805e-01 -3.249019980430603027e-01
5.500000000000000000e+03 3.177374267578125000e+01 4.663975536823272705e-01 -3.676945865154266357e-01 -6.600278615951538086e-01 -3.083167374134063721e-01 7.929821498692035675e-03
5.501000000000000000e+03 2.937928962707519531e+01 8.427727222442626953e-01 -6.875362396240234375e-01 -6.271666884422302246e-01 -3.944108784198760986e-01 -7.573276013135910034e-02
5.502000000000000000e+03 3.203410720825195312e+01 3.715883567929267883e-02 -2.072421461343765259e-01 -6.881244182586669922e-01 -2.686099708080291748e-01 3.526944667100906372e-02
5.503000000000000000e+03 3.335293579101562500e+01 3.726987361907958984e+00 -9.809045791625976562e-01 -6.922307610511779785e-01 -5.019406080245971680e-01 -3.848175704479217529e-01
5.504000000000000000e+03 3.338203048706054688e+01 4.678771495819091797e+00 -1.119148135185241699e+00 -7.546796798706054688e-01 -5.621483325958251953e-01 -5.694368481636047363e-01
5.505000000000000000e+03 1.171954345703125000e+01 8.307134628295898438e+00 8.321464061737060547e-02 2.219734340906143188e-01 9.155642241239547729e-02 -3.549402952194213867e-02
5.506000000000000000e+03 1.182329750061035156e+01 7.742271900177001953e+00 8.985070884227752686e-02 2.515552639961242676e-01 1.024217978119850159e-01 -4.370195791125297546e-02
5.507000000000000000e+03 5.466744995117187500e+01 2.722902679443359375e+01 -1.054252505302429199e+00 2.376208454370498657e-01 -2.449895143508911133e-01 -7.528142333030700684e-01
5.508000000000000000e+03 6.365009689331054688e+01 2.657081985473632812e+01 4.469344392418861389e-03 2.043336868286132812e+00 6.143419146537780762e-01 8.892484903335571289e-01
5.509000000000000000e+03 6.627321624755859375e+01 2.719833755493164062e+01 -1.288141217082738876e-02 3.600535392761230469e+00 1.076296210289001465e+00 1.889830231666564941e+00
5.510000000000000000e+03 5.676546478271484375e+01 2.535733985900878906e+01 -6.225902438163757324e-01 6.770967841148376465e-01 1.635195873677730560e-02 -4.372588992118835449e-01
5.511000000000000000e+03 6.233912658691406250e+01 2.658383941650390625e+01 -1.186870634555816650e-01 1.527541875839233398e+00 4.226564168930053711e-01 4.510828852653503418e-01
5.512000000000000000e+03 3.590452575683593750e+01 -2.333707571029663086e+00 3.376643359661102295e-01 -5.566561818122863770e-01 -6.569754332304000854e-02 7.298135757446289062e-02
5.513000000000000000e+03 5.419198989868164062e+01 2.701708984375000000e+01 -1.054931640625000000e+00 1.699963510036468506e-01 -2.654805779457092285e-01 -7.628556489944458008e-01
5.514000000000000000e+03 3.462696075439453125e+01 -5.667732357978820801e-01 3.677571425214409828e-03 -6.216156482696533203e-01 -1.853814274072647095e-01 4.940346628427505493e-02
5.515000000000000000e+03 3.059783172607421875e+01 4.444415271282196045e-01 -4.328567981719970703e-01 -7.042014002799987793e-01 -3.411174714565277100e-01 -1.192356366664171219e-02
5.516000000000000000e+03 3.007819557189941406e+01 2.308646440505981445e+00 -1.239700555801391602e+00 -7.336114048957824707e-01 -5.919935703277587891e-01 -2.660099267959594727e-01
5.517000000000000000e+03 3.796602630615234375e+01 -4.129576683044433594e+00 4.809372127056121826e-01 -4.137299656867980957e-01 2.016217634081840515e-02 6.523485481739044189e-02
5.518000000000000000e+03 3.748150634765625000e+01 -3.383838415145874023e+00 4.333253204822540283e-01 -4.542708396911621094e-01 -6.283657159656286240e-03 6.390630453824996948e-02
5.519000000000000000e+03 5.856528854370117188e+01 2.569355773925781250e+01 -4.686716198921203613e-01 9.114702939987182617e-01 1.328396052122116089e-01 -2.562554478645324707e-01
5.520000000000000000e+03 6.070976257324218750e+01 2.651179695129394531e+01 -3.114157021045684814e-01 1.132565498352050781e+00 2.463449239730834961e-01 4.081726446747779846e-02
5.521000000000000000e+03 6.273018264770507812e+01 2.572811889648437500e+01 -2.709760330617427826e-02 1.907083868980407715e+00 5.639958977699279785e-01 6.451621651649475098e-01
5.522000000000000000e+03 3.319663238525390625e+01 -1.136032819747924805e+00 1.193154975771903992e-01 -6.602720618247985840e-01 -1.622869670391082764e-01 7.000254094600677490e-02
5.523000000000000000e+03 1.170722866058349609e+01 7.101006507873535156e+00 1.178905963897705078e-01 2.672368884086608887e-01 1.155382469296455383e-01 -7.506877928972244263e-02
5.524000000000000000e+03 7.149045562744140625e+01 2.526014137268066406e+01 -1.150376558303833008e+00 8.669361114501953125e+00 2.255695343017578125e+00 1.035996079444885254e+00
5.525000000000000000e+03 6.953372955322265625e+01 2.838055038452148438e+01 -9.266719222068786621e-01 7.989717960357666016e+00 2.118913888931274414e+00 2.788128376007080078e+00
5.526000000000000000e+03 1.179645824432373047e+01 9.425961494445800781e+00 6.170589476823806763e-02 1.947773844003677368e-01 7.694498449563980103e-02 -1.277147885411977768e-02
5.527000000000000000e+03 3.177891921997070312e+01 3.293362808227539062e+01 3.440358862280845642e-02 7.194405049085617065e-02 3.190429508686065674e-02 3.944553434848785400e-02
5.528000000000000000e+03 1.196798992156982422e+01 1.403760528564453125e+01 1.701674796640872955e-02 1.118447855114936829e-01 3.865845873951911926e-02 8.614602498710155487e-03
5.529000000000000000e+03 1.290447902679443359e+01 1.560542106628417969e+01 1.052262727171182632e-02 1.114997044205665588e-01 3.660669922828674316e-02 1.770826801657676697e-02
5.530000000000000000e+03 1.134189414978027344e+01 1.259606170654296875e+01 2.671024762094020844e-02 1.175428554415702820e-01 4.327593371272087097e-02 -1.229952787980437279e-03
5.531000000000000000e+03 1.056480121612548828e+01 1.173713588714599609e+01 3.904429078102111816e-02 9.981999546289443970e-02 4.165928810834884644e-02 -1.481076236814260483e-02
5.532000000000000000e+03 6.789131927490234375e+01 1.718603515625000000e+01 -7.404452562332153320e-02 5.486691951751708984e+00 1.623794198036193848e+00 9.420878291130065918e-01
5.533000000000000000e+03 6.837603759765625000e+01 1.413028335571289062e+01 2.632380835711956024e-02 5.606051921844482422e+00 1.689712762832641602e+00 8.331438899040222168e-01
5.534000000000000000e+03 7.089581298828125000e+01 2.511872482299804688e+01 -1.062046170234680176e+00 8.241432189941406250e+00 2.153815984725952148e+00 1.274420976638793945e+00
5.535000000000000000e+03 6.545061492919921875e+01 -9.620782852172851562e+00 1.576809734106063843e-01 4.602256298065185547e+00 1.427981257438659668e+00 4.279263317584991455e-01
5.536000000000000000e+03 6.707906341552734375e+01 -9.865815162658691406e+00 1.308890432119369507e-01 4.969114303588867188e+00 1.530001044273376465e+00 4.070158600807189941e-01
5.537000000000000000e+03 1.198963260650634766e+01 1.327675151824951172e+01 2.123925648629665375e-02 1.261878460645675659e-01 4.422813281416893005e-02 9.137633256614208221e-03
5.538000000000000000e+03 1.665657234191894531e+01 1.414401435852050781e+01 4.258423671126365662e-02 1.606071591377258301e-01 6.095741689205169678e-02 7.695050537586212158e-02
5.539000000000000000e+03 6.143713378906250000e+01 2.626853179931640625e+01 -1.957859098911285400e-01 1.355897307395935059e+00 3.480333983898162842e-01 2.381669878959655762e-01
5.540000000000000000e+03 1.279907512664794922e+01 9.725308418273925781e+00 4.747930541634559631e-02 2.293865233659744263e-01 8.305975049734115601e-02 2.320535294711589813e-02
5.541000000000000000e+03 3.102560424804687500e+01 2.914823150634765625e+01 3.615955635905265808e-02 7.703898102045059204e-02 3.395956009626388550e-02 5.167457088828086853e-02
5.542000000000000000e+03 1.359888362884521484e+01 1.464686107635498047e+01 1.698357425630092621e-02 1.342362761497497559e-01 4.536595568060874939e-02 3.034536726772785187e-02
5.543000000000000000e+03 6.897861480712890625e+01 2.303297615051269531e+01 -5.160114169120788574e-01 6.336654186248779297e+00 1.746192812919616699e+00 1.373987078666687012e+00
5.544000000000000000e+03 6.772856903076171875e+01 2.052947807312011719e+01 -2.223601192235946655e-01 5.442387580871582031e+00 1.566008210182189941e+00 1.145869493484497070e+00
5.545000000000000000e+03 6.629132843017578125e+01 1.197036266326904297e+00 1.868800371885299683e-01 4.851612567901611328e+00 1.511547803878784180e+00 6.108891963958740234e-01
5.546000000000000000e+03 6.712552642822265625e+01 2.011692619323730469e+01 -1.477572619915008545e-01 5.112714767456054688e+00 1.489487171173095703e+00 1.113793015480041504e+00
5.547000000000000000e+03 3.875234222412109375e+01 -3.622323513031005859e+00 4.382488131523132324e-01 -3.445154726505279541e-01 2.812000364065170288e-02 6.988508254289627075e-02
5.548000000000000000e+03 6.616616058349609375e+01 4.505167007446289062e+00 1.831989288330078125e-01 4.845084190368652344e+00 1.508484840393066406e+00 6.730296015739440918e-01
5.549000000000000000e+03 6.517357635498046875e+01 4.354896545410156250e+00 2.019619196653366089e-01 4.553952217102050781e+00 1.426774144172668457e+00 6.686090230941772461e-01
5.550000000000000000e+03 1.238235759735107422e+01 1.751865386962890625e+01 2.501211129128932953e-03 8.283525705337524414e-02 2.560093998908996582e-02 7.643327116966247559e-03
5.551000000000000000e+03 4.004644012451171875e+01 -3.871644496917724609e+00 4.434823989868164062e-01 -2.162081003189086914e-01 6.818228960037231445e-02 7.932760566473007202e-02
5.552000000000000000e+03 6.673484039306640625e+01 1.938605308532714844e+01 -9.751842916011810303e-02 4.920818328857421875e+00 1.446990013122558594e+00 1.071249604225158691e+00
5.553000000000000000e+03 4.380128097534179688e+01 -9.471508026123046875e+00 4.736470580101013184e-01 3.486053049564361572e-01 2.466757148504257202e-01 6.429609656333923340e-02
5.554000000000000000e+03 6.522666931152343750e+01 -2.216052770614624023e+00 2.028382718563079834e-01 4.567434787750244141e+00 1.431081891059875488e+00 5.537378787994384766e-01
5.555000000000000000e+03 6.707554626464843750e+01 4.812368392944335938e+00 1.680168807506561279e-01 5.080595493316650391e+00 1.574583649635314941e+00 6.687130331993103027e-01
5.556000000000000000e+03 6.584725189208984375e+01 1.166732788085937500e+01 1.285401433706283569e-01 4.690999031066894531e+00 1.445861816406250000e+00 7.914034128189086914e-01
5.557000000000000000e+03 1.334841728210449219e+01 1.128894901275634766e+01 3.703749924898147583e-02 1.907162666320800781e-01 6.832613050937652588e-02 3.811961784958839417e-02
5.558000000000000000e+03 1.111405944824218750e+01 1.146970844268798828e+01 3.791793063282966614e-02 1.265342384576797485e-01 4.933565109968185425e-02 -6.749397609382867813e-03
5.559000000000000000e+03 6.762408447265625000e+01 1.890957641601562500e+01 -1.332562714815139771e-01 5.393007278442382812e+00 1.577925324440002441e+00 1.045892953872680664e+00
5.560000000000000000e+03 6.711112976074218750e+01 1.805076599121093750e+01 -7.111217826604843140e-02 5.154051303863525391e+00 1.524881720542907715e+00 1.001558065414428711e+00
5.561000000000000000e+03 1.010083198547363281e+01 1.920417594909667969e+01 -3.996341023594141006e-03 3.087938763201236725e-02 8.064913563430309296e-03 -1.087070256471633911e-02
5.562000000000000000e+03 6.697910308837890625e+01 8.148659706115722656e+00 1.521728634834289551e-01 5.087025642395019531e+00 1.571759462356567383e+00 7.274101972579956055e-01
5.563000000000000000e+03 6.790227508544921875e+01 8.483453750610351562e+00 1.331964880228042603e-01 5.365353584289550781e+00 1.649565100669860840e+00 7.226882576942443848e-01
5.564000000000000000e+03 6.523257446289062500e+01 -3.908734083175659180e+00 1.957487463951110840e-01 4.586716651916503906e+00 1.434739589691162109e+00 5.196884274482727051e-01
5.565000000000000000e+03 6.571896362304687500e+01 -4.997001171112060547e+00 1.789544671773910522e-01 4.694375514984130859e+00 1.461999058723449707e+00 4.990203380584716797e-01
5.566000000000000000e+03 6.602384948730468750e+01 -1.048402881622314453e+01 1.385762840509414673e-01 4.723305225372314453e+00 1.458564519882202148e+00 4.177664816379547119e-01
5.567000000000000000e+03 1.371166801452636719e+01 2.410657119750976562e+01 -7.842127233743667603e-03 5.127524957060813904e-02 1.302993670105934143e-02 5.966841708868741989e-03
5.568000000000000000e+03 4.242519378662109375e+01 -6.194614887237548828e+00 4.923700392246246338e-01 8.324608951807022095e-02 1.726848334074020386e-01 8.233781903982162476e-02
5.569000000000000000e+03 4.124692916870117188e+01 -2.799345493316650391e+00 3.717545866966247559e-01 -9.520639479160308838e-02 8.296445757150650024e-02 9.584426879882812500e-02
5.570000000000000000e+03 3.534595870971679688e+01 3.721062088012695312e+01 4.745994508266448975e-02 5.990831181406974792e-02 3.221047669649124146e-02 2.680717222392559052e-02
5.571000000000000000e+03 6.642784118652343750e+01 1.257164382934570312e+01 1.002896502614021301e-01 4.896757602691650391e+00 1.499114155769348145e+00 8.086540102958679199e-01
5.572000000000000000e+03 4.671238327026367188e+01 -1.529215145111083984e+01 2.647574543952941895e-01 9.292733669281005859e-01 3.582092523574829102e-01 7.055666297674179077e-02
5.573000000000000000e+03 1.451643943786621094e+01 -2.437014389038085938e+01 2.099220752716064453e-01 -4.678755402565002441e-01 -7.738603651523590088e-02 -3.527381420135498047e-01
5.574000000000000000e+03 1.141610908508300781e+01 -2.691090965270996094e+01 1.490384191274642944e-01 -6.771581172943115234e-01 -1.584359109401702881e-01 -2.867790758609771729e-01
5.575000000000000000e+03 4.419758224487304688e+01 -1.832059478759765625e+01 1.280280202627182007e-01 5.240087509155273438e-01 1.956110298633575439e-01 5.461776256561279297e-02
5.576000000000000000e+03 4.759387969970703125e+01 -1.986414718627929688e+01 8.663151413202285767e-02 1.159964799880981445e+00 3.739788830280303955e-01 8.040029555559158325e-02
5.577000000000000000e+03 4.257249069213867188e+01 -7.249597549438476562e+00 5.107768774032592773e-01 1.216079071164131165e-01 1.897154301404953003e-01 8.451174199581146240e-02
5.578000000000000000e+03 1.675844001770019531e+01 -2.476093482971191406e+01 2.352669835090637207e-01 -2.920777499675750732e-01 -1.704322919249534607e-02 -3.434422016143798828e-01
5.579000000000000000e+03 1.590166854858398438e+01 -2.876798439025878906e+01 2.240178138017654419e-01 -3.694830238819122314e-01 -4.363956302404403687e-02 -2.975880205631256104e-01
5.580000000000000000e+03 8.505306243896484375e+00 -2.704944801330566406e+01 9.048984944820404053e-02 -8.796679377555847168e-01 -2.367534339427947998e-01 -2.582176029682159424e-01
5.581000000000000000e+03 1.405578708648681641e+01 2.248302078247070312e+01 -6.022433750331401825e-03 6.415163725614547729e-02 1.743876002728939056e-02 1.038555800914764404e-02
5.582000000000000000e+03 6.643117523193359375e+01 -1.381658840179443359e+01 1.072834432125091553e-01 4.782015323638916016e+00 1.466789722442626953e+00 3.563379943370819092e-01
5.583000000000000000e+03 6.665048980712890625e+01 -1.515020084381103516e+01 9.529983252286911011e-02 4.809722900390625000e+00 1.471506834030151367e+00 3.456515967845916748e-01
5.584000000000000000e+03 6.790474700927734375e+01 6.542353630065917969e+00 1.412608325481414795e-01 5.336446285247802734e+00 1.643312096595764160e+00 6.828756928443908691e-01
5.585000000000000000e+03 6.647998046875000000e+01 6.769761562347412109e+00 1.674416065216064453e-01 4.931957721710205078e+00 1.529819846153259277e+00 7.099967002868652344e-01
5.586000000000000000e+03 5.440317153930664062e+01 -2.053075408935546875e+01 9.239865839481353760e-02 2.466851472854614258e+00 7.677750587463378906e-01 2.125205248594284058e-01
5.587000000000000000e+03 5.363408660888671875e+01 -1.793763542175292969e+01 1.516724079847335815e-01 2.266567945480346680e+00 7.254720926284790039e-01 1.957155615091323853e-01
5.588000000000000000e+03 6.417909240722656250e+01 -4.504688739776611328e+00 2.107907086610794067e-01 4.318291664123535156e+00 1.358724713325500488e+00 5.157876014709472656e-01
5.589000000000000000e+03 6.457135009765625000e+01 -5.475462436676025391e+00 1.961800903081893921e-01 4.396902561187744141e+00 1.377924799919128418e+00 4.969528019428253174e-01
5.590000000000000000e+03 4.597987365722656250e+01 -1.876131248474121094e+01 1.190900504589080811e-01 8.444268703460693359e-01 2.890550792217254639e-01 6.495840102434158325e-02
5.591000000000000000e+03 5.141027450561523438e+01 -1.844991302490234375e+01 1.436705142259597778e-01 1.887268900871276855e+00 6.092818379402160645e-01 1.647820770740509033e-01
5.592000000000000000e+03 4.996971893310546875e+01 -1.679379272460937500e+01 2.045022547245025635e-01 1.566404581069946289e+00 5.312720537185668945e-01 1.317239999771118164e-01
5.593000000000000000e+03 5.244234848022460938e+01 -1.817584037780761719e+01 1.493707001209259033e-01 2.063934564590454102e+00 6.639915704727172852e-01 1.869010627269744873e-01
5.594000000000000000e+03 5.480778884887695312e+01 -2.458712196350097656e+01 1.655821502208709717e-02 2.619539022445678711e+00 7.908291816711425781e-01 2.566211819648742676e-01
5.595000000000000000e+03 3.847100448608398438e+01 1.156686782836914062e+01 -9.135841131210327148e-01 -9.692195653915405273e-01 -5.648410916328430176e-01 -8.996888995170593262e-01
5.596000000000000000e+03 2.800760841369628906e+01 1.710395097732543945e+00 -1.419448733329772949e+00 -6.261584758758544922e-01 -6.136821508407592773e-01 -3.553994297981262207e-01
5.597000000000000000e+03 4.806435012817382812e+01 2.110696029663085938e+01 -8.684681057929992676e-01 -5.218783020973205566e-01 -4.171039164066314697e-01 -8.165025115013122559e-01
5.598000000000000000e+03 4.641723632812500000e+01 2.045875549316406250e+01 -9.100816845893859863e-01 -7.303315401077270508e-01 -4.921239912509918213e-01 -9.145470857620239258e-01
5.599000000000000000e+03 4.611590957641601562e+01 2.089871597290039062e+01 -9.786755442619323730e-01 -8.184877634048461914e-01 -5.391489863395690918e-01 -9.716081619262695312e-01
5.600000000000000000e+03 3.888187789916992188e+01 1.247385692596435547e+01 -9.326056241989135742e-01 -9.990824460983276367e-01 -5.795063972473144531e-01 -9.395889639854431152e-01
5.601000000000000000e+03 3.907263183593750000e+01 1.333558368682861328e+01 -9.678157567977905273e-01 -1.041955828666687012e+00 -6.029314994812011719e-01 -9.918877482414245605e-01
5.602000000000000000e+03 4.973083114624023438e+01 2.407927894592285156e+01 -1.030811905860900879e+00 -4.810797274112701416e-01 -4.535675048828125000e-01 -8.904302716255187988e-01
5.603000000000000000e+03 4.568440628051757812e+01 1.973673629760742188e+01 -8.892361521720886230e-01 -7.760375142097473145e-01 -4.995820820331573486e-01 -9.324704408645629883e-01
5.604000000000000000e+03 6.839424133300781250e+01 2.747058677673339844e+01 -4.958823323249816895e-01 6.070991516113281250e+00 1.672532796859741211e+00 2.526267290115356445e+00
5.605000000000000000e+03 7.086390686035156250e+01 2.706700515747070312e+01 -1.348584055900573730e+00 9.157458305358886719e+00 2.342662334442138672e+00 1.614672303199768066e+00
5.606000000000000000e+03 4.902732086181640625e+01 2.269362640380859375e+01 -9.552341103553771973e-01 -4.917911589145660400e-01 -4.341075718402862549e-01 -8.535608649253845215e-01
5.607000000000000000e+03 4.815609359741210938e+01 2.242864418029785156e+01 -9.924559593200683594e-01 -6.152866482734680176e-01 -4.823227822780609131e-01 -9.061546921730041504e-01
5.608000000000000000e+03 3.982371520996093750e+01 1.261798572540283203e+01 -8.664348721504211426e-01 -8.962979316711425781e-01 -5.288198590278625488e-01 -8.762251734733581543e-01
5.609000000000000000e+03 5.008245468139648438e+01 2.396466064453125000e+01 -9.980154633522033691e-01 -4.122216701507568359e-01 -4.230711460113525391e-01 -8.548136353492736816e-01
5.610000000000000000e+03 4.371614074707031250e+01 1.709761810302734375e+01 -8.272461295127868652e-01 -7.907166481018066406e-01 -4.853888452053070068e-01 -9.337674379348754883e-01
5.611000000000000000e+03 3.955091857910156250e+01 1.301878356933593750e+01 -9.091537594795227051e-01 -9.639393687248229980e-01 -5.619279742240905762e-01 -9.291804432868957520e-01
5.612000000000000000e+03 5.257913208007812500e+01 2.659250640869140625e+01 -1.099752664566040039e+00 -1.065304279327392578e-01 -3.618849217891693115e-01 -8.228827714920043945e-01
5.613000000000000000e+03 5.228279113769531250e+01 2.625766944885253906e+01 -1.086816072463989258e+00 -1.507081091403961182e-01 -3.712572753429412842e-01 -8.223372101783752441e-01
5.614000000000000000e+03 3.946733474731445312e+01 1.093646907806396484e+01 -7.889450788497924805e-01 -8.085859417915344238e-01 -4.792593121528625488e-01 -7.670827507972717285e-01
5.615000000000000000e+03 3.929220962524414062e+01 1.312505340576171875e+01 -9.410206079483032227e-01 -1.003142476081848145e+00 -5.832489728927612305e-01 -9.603283405303955078e-01
5.616000000000000000e+03 4.553184127807617188e+01 1.931522369384765625e+01 -8.645161390304565430e-01 -7.598980665206909180e-01 -4.873242676258087158e-01 -9.200336933135986328e-01
5.617000000000000000e+03 5.135926437377929688e+01 2.578740119934082031e+01 -1.087058901786804199e+00 -3.102393448352813721e-01 -4.191894829273223877e-01 -8.627183437347412109e-01
5.618000000000000000e+03 5.100131988525390625e+01 2.571523284912109375e+01 -1.100504875183105469e+00 -3.741612434387207031e-01 -4.423998296260833740e-01 -8.870335221290588379e-01
5.619000000000000000e+03 1.742440223693847656e+01 1.464116859436035156e+01 4.623993858695030212e-02 1.529212296009063721e-01 5.974835157394409180e-02 8.102402091026306152e-02
5.620000000000000000e+03 1.776192665100097656e+01 1.467389392852783203e+01 4.933315515518188477e-02 1.529285311698913574e-01 6.067850813269615173e-02 8.383454382419586182e-02
5.621000000000000000e+03 2.444534111022949219e+01 2.189649200439453125e+01 3.866866976022720337e-02 1.019621267914772034e-01 4.218924045562744141e-02 6.726638972759246826e-02
5.622000000000000000e+03 1.890607452392578125e+01 1.712980079650878906e+01 3.861135989427566528e-02 1.307429373264312744e-01 5.080629140138626099e-02 7.141228020191192627e-02
5.623000000000000000e+03 1.287425804138183594e+01 1.941964530944824219e+01 -1.841980731114745140e-03 7.217539101839065552e-02 2.110002376139163971e-02 8.316815830767154694e-03
5.624000000000000000e+03 4.313815689086914062e+01 1.680152893066406250e+01 -8.538292646408081055e-01 -8.322232365608215332e-01 -5.058157444000244141e-01 -9.605954885482788086e-01
5.625000000000000000e+03 4.432200622558593750e+01 1.736984062194824219e+01 -8.012104034423828125e-01 -7.407785058021545410e-01 -4.625966548919677734e-01 -8.993077278137207031e-01
5.626000000000000000e+03 5.512506484985351562e+01 2.541062355041503906e+01 -7.848301529884338379e-01 4.193975627422332764e-01 -1.096297800540924072e-01 -5.828094482421875000e-01
5.627000000000000000e+03 4.446480941772460938e+01 1.778252983093261719e+01 -8.177499771118164062e-01 -7.606968283653259277e-01 -4.735340476036071777e-01 -9.158291816711425781e-01
5.628000000000000000e+03 4.494016647338867188e+01 1.902163314819335938e+01 -8.775603175163269043e-01 -8.118549585342407227e-01 -5.068246126174926758e-01 -9.557008147239685059e-01
5.629000000000000000e+03 7.095158386230468750e+01 2.865336990356445312e+01 -1.542747974395751953e+00 1.045088291168212891e+01 2.672440528869628906e+00 1.966333866119384766e+00
5.630000000000000000e+03 4.063944244384765625e+01 1.481906127929687500e+01 -9.326657056808471680e-01 -9.607936739921569824e-01 -5.680378079414367676e-01 -9.871675372123718262e-01
5.631000000000000000e+03 4.167759704589843750e+01 1.513754272460937500e+01 -8.780567049980163574e-01 -8.687270283699035645e-01 -5.240350961685180664e-01 -9.414967894554138184e-01
5.632000000000000000e+03 5.059045028686523438e+01 2.435038375854492188e+01 -9.976533651351928711e-01 -3.481563329696655273e-01 -4.037429094314575195e-01 -8.373755812644958496e-01
5.633000000000000000e+03 4.870853042602539062e+01 2.243164253234863281e+01 -9.527286887168884277e-01 -5.270160436630249023e-01 -4.439234137535095215e-01 -8.589215874671936035e-01
5.634000000000000000e+03 5.350446319580078125e+01 2.619042968750000000e+01 -1.002084493637084961e+00 9.708268195390701294e-02 -2.715005576610565186e-01 -7.466901540756225586e-01
5.635000000000000000e+03 4.946065902709960938e+01 2.422201347351074219e+01 -1.058873057365417480e+00 -5.389035344123840332e-01 -4.793329536914825439e-01 -9.252275228500366211e-01
5.636000000000000000e+03 7.058715057373046875e+01 2.919027900695800781e+01 -1.442434549331665039e+00 1.042865371704101562e+01 2.695865631103515625e+00 2.516249179840087891e+00
5.637000000000000000e+03 5.106321716308593750e+01 2.481436157226562500e+01 -1.009628891944885254e+00 -2.841046154499053955e-01 -3.881200551986694336e-01 -8.254241347312927246e-01
5.638000000000000000e+03 5.141453170776367188e+01 2.536552619934082031e+01 -1.043687105178833008e+00 -2.631975412368774414e-01 -3.920654058456420898e-01 -8.332490324974060059e-01
5.639000000000000000e+03 5.209083557128906250e+01 2.590737724304199219e+01 -1.062120556831359863e+00 -1.678573191165924072e-01 -3.689933717250823975e-01 -8.167154788970947266e-01
5.640000000000000000e+03 4.461932754516601562e+01 1.819498252868652344e+01 -8.365939855575561523e-01 -7.788758873939514160e-01 -4.846409559249877930e-01 -9.294195175170898438e-01
5.641000000000000000e+03 4.612744903564453125e+01 1.961590194702148438e+01 -8.511867523193359375e-01 -6.976931691169738770e-01 -4.646639823913574219e-01 -8.847633600234985352e-01
5.642000000000000000e+03 3.953666305541992188e+01 1.330932331085205078e+01 -9.328293204307556152e-01 -9.895209074020385742e-01 -5.767050385475158691e-01 -9.562328457832336426e-01
5.643000000000000000e+03 4.078798675537109375e+01 1.519561386108398438e+01 -9.429368376731872559e-01 -9.770811200141906738e-01 -5.760053992271423340e-01 -1.009059190750122070e+00
5.644000000000000000e+03 4.204588317871093750e+01 1.538724136352539062e+01 -8.626651167869567871e-01 -8.441193103790283203e-01 -5.120353102684020996e-01 -9.366517066955566406e-01
5.645000000000000000e+03 3.839028930664062500e+01 1.106527709960937500e+01 -8.880938887596130371e-01 -9.365484118461608887e-01 -5.473927259445190430e-01 -8.635867834091186523e-01
5.646000000000000000e+03 6.702470397949218750e+01 2.790514755249023438e+01 -4.646700248122215271e-02 4.080636978149414062e+00 1.210250973701477051e+00 2.304911136627197266e+00
5.647000000000000000e+03 4.102981948852539062e+01 1.473752784729003906e+01 -8.984267711639404297e-01 -9.135268330574035645e-01 -5.435860753059387207e-01 -9.549220800399780273e-01
5.648000000000000000e+03 4.112074279785156250e+01 1.507719230651855469e+01 -9.183216094970703125e-01 -9.285683035850524902e-01 -5.540669560432434082e-01 -9.776612520217895508e-01
5.649000000000000000e+03 2.405890274047851562e+01 2.153260040283203125e+01 3.919851034879684448e-02 1.047886833548545837e-01 4.319616034626960754e-02 6.857664883136749268e-02
5.650000000000000000e+03 1.343882369995117188e+01 1.824317741394042969e+01 2.830766141414642334e-03 8.984825015068054199e-02 2.780370600521564484e-02 1.600125804543495178e-02
5.651000000000000000e+03 7.087721252441406250e+01 2.764412307739257812e+01 -1.429720640182495117e+00 9.551581382751464844e+00 2.436558246612548828e+00 1.757662534713745117e+00
5.652000000000000000e+03 4.076280975341796875e+01 1.413650417327880859e+01 -8.883811235427856445e-01 -9.039540290832519531e-01 -5.377005338668823242e-01 -9.289846420288085938e-01
5.653000000000000000e+03 4.842172241210937500e+01 2.219236946105957031e+01 -9.455776810646057129e-01 -5.482870936393737793e-01 -4.481594264507293701e-01 -8.631759285926818848e-01
5.654000000000000000e+03 4.817523193359375000e+01 2.153103446960449219e+01 -9.029095172882080078e-01 -5.379678010940551758e-01 -4.322631955146789551e-01 -8.381437063217163086e-01
5.655000000000000000e+03 3.777396392822265625e+01 1.063183212280273438e+01 -9.121071696281433105e-01 -9.638249278068542480e-01 -5.627796053886413574e-01 -8.752031326293945312e-01
5.656000000000000000e+03 1.932305145263671875e+01 1.784997940063476562e+01 3.588721901178359985e-02 1.265305727720260620e-01 4.872533679008483887e-02 6.916213035583496094e-02
5.657000000000000000e+03 2.270098304748535156e+01 1.930035400390625000e+01 4.761649295687675476e-02 1.131519377231597900e-01 4.823052883148193359e-02 7.615898549556732178e-02
5.658000000000000000e+03 2.387556076049804688e+01 2.074319267272949219e+01 4.318527877330780029e-02 1.065090075135231018e-01 4.490828514099121094e-02 7.145598530769348145e-02
5.659000000000000000e+03 1.328632640838623047e+01 1.259543895721435547e+01 2.847649157047271729e-02 1.625716090202331543e-01 5.731442943215370178e-02 3.272450715303421021e-02
5.660000000000000000e+03 1.950073814392089844e+01 1.730929183959960938e+01 4.230127856135368347e-02 1.303598880767822266e-01 5.179835110902786255e-02 7.471714913845062256e-02
5.661000000000000000e+03 1.479610538482666016e+01 1.153511905670166016e+01 4.526476562023162842e-02 2.051789611577987671e-01 7.513311505317687988e-02 7.216101139783859253e-02
5.662000000000000000e+03 1.269248676300048828e+01 1.400960826873779297e+01 1.751567982137203217e-02 1.290406584739685059e-01 4.396690055727958679e-02 1.879658922553062439e-02
5.663000000000000000e+03 3.640788269042968750e+01 8.910799026489257812e+00 -9.386780261993408203e-01 -9.506316184997558594e-01 -5.667929053306579590e-01 -8.431907296180725098e-01
5.664000000000000000e+03 3.682393646240234375e+01 9.460090637207031250e+00 -9.265694618225097656e-01 -9.592387080192565918e-01 -5.657424330711364746e-01 -8.537861108779907227e-01
5.665000000000000000e+03 2.334698295593261719e+01 1.982888793945312500e+01 4.738817363977432251e-02 1.105490103363990784e-01 4.738115519285202026e-02 7.502537220716476440e-02
5.666000000000000000e+03 3.487683868408203125e+01 6.666109085083007812e+00 -1.005609989166259766e+00 -8.668251037597656250e-01 -5.617305040359497070e-01 -7.515848875045776367e-01
5.667000000000000000e+03 3.665878677368164062e+01 9.131300926208496094e+00 -9.277617931365966797e-01 -9.415850639343261719e-01 -5.608040690422058105e-01 -8.385502099990844727e-01
5.668000000000000000e+03 1.233625411987304688e+01 9.828011512756347656e+00 5.175304412841796875e-02 2.085835039615631104e-01 7.810096442699432373e-02 6.627766415476799011e-03
5.669000000000000000e+03 4.479597091674804688e+01 1.722916412353515625e+01 -7.585676312446594238e-01 -6.679642200469970703e-01 -4.279595613479614258e-01 -8.478740453720092773e-01
5.670000000000000000e+03 1.507325077056884766e+01 1.212731742858886719e+01 4.317368194460868835e-02 1.933033317327499390e-01 7.094310969114303589e-02 7.239075750112533569e-02
5.671000000000000000e+03 1.529324626922607422e+01 1.272606086730957031e+01 4.049487039446830750e-02 1.821646690368652344e-01 6.679785996675491333e-02 7.086318731307983398e-02
5.672000000000000000e+03 4.265790557861328125e+01 1.646553802490234375e+01 -8.770303130149841309e-01 -8.623045086860656738e-01 -5.218004584312438965e-01 -9.766259789466857910e-01
5.673000000000000000e+03 4.248176193237304688e+01 1.554201889038085938e+01 -8.334695100784301758e-01 -8.044943213462829590e-01 -4.913891553878784180e-01 -9.133675098419189453e-01
5.674000000000000000e+03 1.605457878112792969e+01 1.210086250305175781e+01 5.465860664844512939e-02 1.899305880069732666e-01 7.337675988674163818e-02 9.162437170743942261e-02
5.675000000000000000e+03 1.654711151123046875e+01 1.314956474304199219e+01 5.023089051246643066e-02 1.723685413599014282e-01 6.677982956171035767e-02 8.664336055517196655e-02
5.676000000000000000e+03 1.533100509643554688e+01 1.177472877502441406e+01 4.813385009765625000e-02 1.983991414308547974e-01 7.395990192890167236e-02 8.225997537374496460e-02
5.677000000000000000e+03 1.370409107208251953e+01 1.171357250213623047e+01 3.623298928141593933e-02 1.904262602329254150e-01 6.799777597188949585e-02 4.552098363637924194e-02
5.678000000000000000e+03 3.003907585144042969e+01 1.685106873512268066e+00 -1.021174073219299316e+00 -6.909627914428710938e-01 -5.136410593986511230e-01 -1.649783998727798462e-01
5.679000000000000000e+03 1.654721260070800781e+01 1.462360858917236328e+01 3.766517713665962219e-02 1.531134098768234253e-01 5.723357573151588440e-02 7.111895084381103516e-02
5.680000000000000000e+03 6.594297027587890625e+01 2.704970741271972656e+01 2.087016217410564423e-02 3.289639234542846680e+00 9.931527972221374512e-01 1.733255267143249512e+00
5.681000000000000000e+03 1.630341529846191406e+01 1.260698032379150391e+01 5.272953584790229797e-02 1.808677166700363159e-01 7.007917761802673340e-02 8.944541215896606445e-02
5.682000000000000000e+03 1.552393722534179688e+01 1.441207504272460938e+01 2.981135249137878418e-02 1.533789336681365967e-01 5.495708435773849487e-02 5.966302007436752319e-02
5.683000000000000000e+03 2.937333106994628906e+01 1.393953680992126465e+00 -1.012711763381958008e+00 -6.957033872604370117e-01 -5.125245451927185059e-01 -1.898314952850341797e-01
5.684000000000000000e+03 4.763373184204101562e+01 2.123714447021484375e+01 -9.090793132781982422e-01 -6.021355390548706055e-01 -4.533644616603851318e-01 -8.618673682212829590e-01
5.685000000000000000e+03 4.737960433959960938e+01 2.154681968688964844e+01 -9.558153152465820312e-01 -6.688452363014221191e-01 -4.873981773853302002e-01 -9.059514999389648438e-01
5.686000000000000000e+03 2.298403167724609375e+01 1.942045211791992188e+01 4.881616309285163879e-02 1.123603433370590210e-01 4.835295304656028748e-02 7.636411488056182861e-02
5.687000000000000000e+03 1.113724327087402344e+01 8.447436332702636719e+00 8.941773325204849243e-02 1.715476512908935547e-01 7.828962057828903198e-02 -4.202615097165107727e-02
5.688000000000000000e+03 3.586697769165039062e+01 8.155201911926269531e+00 -9.570227265357971191e-01 -9.229199290275573730e-01 -5.639827847480773926e-01 -8.149795532226562500e-01
5.689000000000000000e+03 7.079133605957031250e+01 2.576881599426269531e+01 -1.137873530387878418e+00 8.418403625488281250e+00 2.184159040451049805e+00 1.387957930564880371e+00
5.690000000000000000e+03 5.368773269653320312e+01 2.688041114807128906e+01 -1.078141808509826660e+00 8.029528707265853882e-02 -2.993539571762084961e-01 -7.827019095420837402e-01
5.691000000000000000e+03 6.434580230712890625e+01 2.674707031250000000e+01 2.852323465049266815e-02 2.332573890686035156e+00 7.083291411399841309e-01 1.118521094322204590e+00
5.692000000000000000e+03 6.851538085937500000e+01 2.491030502319335938e+01 -5.224575400352478027e-01 6.116391658782958984e+00 1.678180336952209473e+00 1.716793298721313477e+00
5.693000000000000000e+03 3.624111557006835938e+01 7.757156372070312500e+00 -9.028855562210083008e-01 -8.644738197326660156e-01 -5.302078127861022949e-01 -7.481542825698852539e-01
5.694000000000000000e+03 3.583114624023437500e+01 6.917377471923828125e+00 -9.108319878578186035e-01 -8.122333884239196777e-01 -5.169196128845214844e-01 -6.891797780990600586e-01
5.695000000000000000e+03 3.354581832885742188e+01 2.726622581481933594e+00 -7.564125061035156250e-01 -6.507655978202819824e-01 -4.221534430980682373e-01 -2.193754911422729492e-01
5.696000000000000000e+03 3.078709983825683594e+01 2.221671581268310547e+00 -1.074055194854736328e+00 -7.136427760124206543e-01 -5.363093614578247070e-01 -2.072031646966934204e-01
5.697000000000000000e+03 3.281996536254882812e+01 3.727262496948242188e+00 -1.100428342819213867e+00 -7.274511456489562988e-01 -5.483638644218444824e-01 -4.214042425155639648e-01
5.698000000000000000e+03 2.678427314758300781e+01 2.554738616943359375e+01 3.024534322321414948e-02 8.988303691148757935e-02 3.603851422667503357e-02 5.773993209004402161e-02
5.699000000000000000e+03 2.620242691040039062e+01 2.587393951416015625e+01 2.771941944956779480e-02 8.967303484678268433e-02 3.521773591637611389e-02 5.581558123230934143e-02
5.700000000000000000e+03 3.401278305053710938e+01 5.168023586273193359e+00 -1.039195775985717773e+00 -7.616392374038696289e-01 -5.402505397796630859e-01 -5.981020927429199219e-01
5.701000000000000000e+03 3.596992874145507812e+01 6.317073822021484375e+00 -8.454837203025817871e-01 -7.548043727874755859e-01 -4.800864458084106445e-01 -6.042582392692565918e-01
5.702000000000000000e+03 5.491668701171875000e+01 2.664669418334960938e+01 -9.652622342109680176e-01 3.027689158916473389e-01 -1.987479925155639648e-01 -7.039991617202758789e-01
5.703000000000000000e+03 5.438883590698242188e+01 2.649822998046875000e+01 -9.884408712387084961e-01 2.208696305751800537e-01 -2.302713841199874878e-01 -7.195500135421752930e-01
5.704000000000000000e+03 6.410506439208984375e+01 2.634055709838867188e+01 2.949488721787929535e-02 2.359847545623779297e+00 7.168027162551879883e-01 1.049846172332763672e+00
5.705000000000000000e+03 6.882014465332031250e+01 2.916384887695312500e+01 -4.325695037841796875e-01 6.688121795654296875e+00 1.876665711402893066e+00 3.302730798721313477e+00
5.706000000000000000e+03 2.703835868835449219e+01 2.602012825012207031e+01 3.050290234386920929e-02 8.823785930871963501e-02 3.562222793698310852e-02 5.715400353074073792e-02
5.707000000000000000e+03 3.241107177734375000e+01 3.009470403194427490e-01 -2.779452800750732422e-01 -6.588541865348815918e-01 -2.810398340225219727e-01 1.981180347502231598e-02
5.708000000000000000e+03 3.221461486816406250e+01 7.039083838462829590e-01 -3.944350779056549072e-01 -6.907679438591003418e-01 -3.255609273910522461e-01 -3.965424839407205582e-03
5.709000000000000000e+03 3.497746276855468750e+01 -1.192987322807312012e+00 1.392898857593536377e-01 -6.077083349227905273e-01 -1.405255347490310669e-01 6.610956788063049316e-02
5.710000000000000000e+03 3.169199371337890625e+01 2.611424446105957031e+00 -1.049606680870056152e+00 -7.023130655288696289e-01 -5.255758762359619141e-01 -2.432329654693603516e-01
5.711000000000000000e+03 3.247523880004882812e+01 3.062752723693847656e+00 -1.021064996719360352e+00 -7.273147106170654297e-01 -5.245139002799987793e-01 -3.097645044326782227e-01
5.712000000000000000e+03 2.112014579772949219e+01 1.922665023803710938e+01 3.909852355718612671e-02 1.175119206309318542e-01 4.698313400149345398e-02 7.058211416006088257e-02
5.713000000000000000e+03 1.964009094238281250e+01 1.857542610168457031e+01 3.237905725836753845e-02 1.211507841944694519e-01 4.605895280838012695e-02 6.599566340446472168e-02
5.714000000000000000e+03 3.029065704345703125e+01 2.947038078308105469e+01 3.402001410722732544e-02 7.813347131013870239e-02 3.364604711532592773e-02 4.970491304993629456e-02
5.715000000000000000e+03 2.796714782714843750e+01 2.842069816589355469e+01 2.782131545245647430e-02 8.290114998817443848e-02 3.321674093604087830e-02 5.056904256343841553e-02
5.716000000000000000e+03 1.854909706115722656e+01 1.518216609954833984e+01 5.272121727466583252e-02 1.455754041671752930e-01 5.948898568749427795e-02 8.597226440906524658e-02
5.717000000000000000e+03 2.524093437194824219e+01 2.553626441955566406e+01 2.505600638687610626e-02 9.142081439495086670e-02 3.494304791092872620e-02 5.449765175580978394e-02
5.718000000000000000e+03 2.595271682739257812e+01 2.522081947326660156e+01 2.844480983912944794e-02 9.136141836643218994e-02 3.594186902046203613e-02 5.726977810263633728e-02
5.719000000000000000e+03 3.026475524902343750e+01 1.361645579338073730e+00 -8.065172433853149414e-01 -7.348313927650451660e-01 -4.624046087265014648e-01 -1.302473545074462891e-01
5.720000000000000000e+03 3.257265853881835938e+01 2.561130285263061523e+00 -8.719835281372070312e-01 -6.769735217094421387e-01 -4.646871089935302734e-01 -2.095980346202850342e-01
5.721000000000000000e+03 6.211003112792968750e+01 2.596295547485351562e+01 -8.813226222991943359e-02 1.634696483612060547e+00 4.639692902565002441e-01 4.590287804603576660e-01
5.722000000000000000e+03 5.504032516479492188e+01 2.601668167114257812e+01 -8.664983510971069336e-01 3.628681302070617676e-01 -1.510890573263168335e-01 -6.395799517631530762e-01
5.723000000000000000e+03 5.565147018432617188e+01 2.543799018859863281e+01 -7.394969463348388672e-01 4.998263120651245117e-01 -7.190119475126266479e-02 -5.465320944786071777e-01
5.724000000000000000e+03 5.571711349487304688e+01 2.426928520202636719e+01 -5.952652692794799805e-01 6.171743273735046387e-01 6.572729907929897308e-03 -4.304091632366180420e-01
5.725000000000000000e+03 6.475002288818359375e+01 2.645249176025390625e+01 4.441912099719047546e-02 2.655086994171142578e+00 8.098518848419189453e-01 1.268710970878601074e+00
5.726000000000000000e+03 2.257274818420410156e+01 2.008949661254882812e+01 4.141416400671005249e-02 1.114284172654151917e-01 4.585277289152145386e-02 7.141079753637313843e-02
5.727000000000000000e+03 2.214686012268066406e+01 1.943000602722167969e+01 4.299497604370117188e-02 1.144731268286705017e-01 4.724042862653732300e-02 7.349568605422973633e-02
5.728000000000000000e+03 2.656909561157226562e+01 2.645178794860839844e+01 2.692760527133941650e-02 8.839851617813110352e-02 3.459783643484115601e-02 5.428141355514526367e-02
5.729000000000000000e+03 4.951174926757812500e+01 2.368491744995117188e+01 -1.010934591293334961e+00 -4.820376932621002197e-01 -4.478916823863983154e-01 -8.814034461975097656e-01
5.730000000000000000e+03 1.821538925170898438e+01 1.646484947204589844e+01 3.809763118624687195e-02 1.363468170166015625e-01 5.233333259820938110e-02 7.159864157438278198e-02
5.731000000000000000e+03 6.804078674316406250e+01 2.147587203979492188e+01 -2.931953668594360352e-01 5.618890762329101562e+00 1.597708582878112793e+00 1.234082937240600586e+00
5.732000000000000000e+03 6.566276550292968750e+01 2.677968597412109375e+01 2.936768718063831329e-02 3.201041936874389648e+00 9.691228866577148438e-01 1.637175679206848145e+00
5.733000000000000000e+03 1.702592849731445312e+01 1.505129814147949219e+01 3.915733471512794495e-02 1.492519378662109375e-01 5.652278289198875427e-02 7.266227900981903076e-02
5.734000000000000000e+03 3.495027542114257812e+01 2.463516891002655029e-01 -1.214399635791778564e-01 -6.084597110748291016e-01 -2.189699113368988037e-01 1.489913091063499451e-02
5.735000000000000000e+03 2.986365127563476562e+01 1.320091843605041504e+00 -8.537924289703369141e-01 -6.815457344055175781e-01 -4.606014490127563477e-01 -1.151563897728919983e-01
5.736000000000000000e+03 3.040649032592773438e+01 9.308562874794006348e-01 -6.455725431442260742e-01 -6.469107866287231445e-01 -3.877449929714202881e-01 -4.732583463191986084e-02
5.737000000000000000e+03 5.918517684936523438e+01 2.554469490051269531e+01 -3.749160766601562500e-01 1.036367893218994141e+00 1.984355300664901733e-01 -1.424145400524139404e-01
5.738000000000000000e+03 5.795737457275390625e+01 2.581419181823730469e+01 -5.484493970870971680e-01 8.022642135620117188e-01 7.614444941282272339e-02 -3.508723974227905273e-01
5.739000000000000000e+03 3.394918060302734375e+01 4.137197971343994141e+00 -9.389455914497375488e-01 -6.937624812126159668e-01 -4.898124039173126221e-01 -4.289982020854949951e-01
5.740000000000000000e+03 3.420960998535156250e+01 -4.476040303707122803e-01 -6.732237990945577621e-03 -6.274079680442810059e-01 -1.902420669794082642e-01 4.765607789158821106e-02
5.741000000000000000e+03 3.267635726928710938e+01 8.847464919090270996e-01 -4.098853766918182373e-01 -6.560289263725280762e-01 -3.197742998600006104e-01 -1.859946735203266144e-02
5.742000000000000000e+03 1.264254093170166016e+01 1.325735950469970703e+01 2.284429967403411865e-02 1.382249295711517334e-01 4.832077026367187500e-02 1.984543167054653168e-02
5.743000000000000000e+03 1.199537658691406250e+01 1.253377151489257812e+01 2.795035950839519501e-02 1.370299309492111206e-01 4.949408769607543945e-02 8.516468107700347900e-03
5.744000000000000000e+03 6.906970214843750000e+01 2.850914955139160156e+01 -6.755252480506896973e-01 7.152353763580322266e+00 1.943048596382141113e+00 2.970394372940063477e+00
5.745000000000000000e+03 7.091157531738281250e+01 2.816486930847167969e+01 -1.488378882408142090e+00 9.970149993896484375e+00 2.544531345367431641e+00 1.874553918838500977e+00
5.746000000000000000e+03 7.039854431152343750e+01 2.767276954650878906e+01 -1.280448079109191895e+00 8.986957550048828125e+00 2.311952829360961914e+00 2.075471639633178711e+00
5.747000000000000000e+03 1.315975093841552734e+01 2.042268371582031250e+01 -4.063779953867197037e-03 6.859360635280609131e-02 1.935894601047039032e-02 8.551943115890026093e-03
5.748000000000000000e+03 5.622071838378906250e+01 2.479825210571289062e+01 -6.085839271545410156e-01 6.477966308593750000e-01 1.176382321864366531e-02 -4.338787496089935303e-01
5.749000000000000000e+03 6.126531219482421875e+01 2.557384109497070312e+01 -1.516153067350387573e-01 1.481029152870178223e+00 3.988241553306579590e-01 2.738182842731475830e-01
5.750000000000000000e+03 5.991473770141601562e+01 2.602478790283203125e+01 -3.458757400512695312e-01 1.077846050262451172e+00 2.195910960435867310e-01 -6.840901821851730347e-02
5.751000000000000000e+03 1.131612205505371094e+01 1.202649402618408203e+01 3.327574580907821655e-02 1.259623318910598755e-01 4.777142405509948730e-02 -3.627850208431482315e-03
5.752000000000000000e+03 1.163050937652587891e+01 1.124643707275390625e+01 3.984253853559494019e-02 1.496757268905639648e-01 5.685548111796379089e-02 -2.748108701780438423e-03
5.753000000000000000e+03 1.279154205322265625e+01 1.478539085388183594e+01 1.463926769793033600e-02 1.185396313667297363e-01 3.995367139577865601e-02 1.786181330680847168e-02
5.754000000000000000e+03 6.538169860839843750e+01 1.693202376365661621e+00 2.027000635862350464e-01 4.616516590118408203e+00 1.445765018463134766e+00 6.224334239959716797e-01
5.755000000000000000e+03 6.332824707031250000e+01 -8.199703097343444824e-01 2.381423115730285645e-01 4.090332031250000000e+00 1.298542261123657227e+00 5.784708261489868164e-01
5.756000000000000000e+03 1.037986278533935547e+01 1.109959983825683594e+01 4.639636725187301636e-02 9.964005649089813232e-02 4.381092637777328491e-02 -1.777801848948001862e-02
5.757000000000000000e+03 1.075057506561279297e+01 9.696365356445312500e+00 6.986518949270248413e-02 1.332516521215438843e-01 6.093505024909973145e-02 -2.929823100566864014e-02
5.758000000000000000e+03 6.262463760375976562e+01 2.508897590637207031e+01 -6.443481892347335815e-03 2.056916952133178711e+00 6.151420474052429199e-01 6.595030426979064941e-01
5.759000000000000000e+03 2.485343360900878906e+01 2.408207321166992188e+01 2.892412431538105011e-02 9.576193988323211670e-02 3.740581870079040527e-02 5.891209840774536133e-02
5.760000000000000000e+03 3.664524459838867188e+01 -1.956430196762084961e+00 2.900901436805725098e-01 -5.227218866348266602e-01 -6.978952139616012573e-02 7.076753675937652588e-02
5.761000000000000000e+03 1.321498394012451172e+01 1.734499359130859375e+01 4.590568598359823227e-03 9.608451277017593384e-02 3.020252473652362823e-02 1.623178273439407349e-02
5.762000000000000000e+03 1.370903587341308594e+01 1.916070175170898438e+01 2.328473638044670224e-04 8.496096730232238770e-02 2.555814385414123535e-02 1.577827893197536469e-02
5.763000000000000000e+03 1.220854377746582031e+01 2.070475006103515625e+01 -5.714469589293003082e-03 5.358154326677322388e-02 1.436012238264083862e-02 1.316492562182247639e-03
5.764000000000000000e+03 6.779678344726562500e+01 2.331656265258789062e+01 -3.376129865646362305e-01 5.504906177520751953e+00 1.550188064575195312e+00 1.461328387260437012e+00
5.765000000000000000e+03 1.123506736755371094e+01 9.006804466247558594e+00 7.613620162010192871e-02 1.718705743551254272e-01 7.440203428268432617e-02 -3.104925900697708130e-02
5.766000000000000000e+03 1.303783988952636719e+01 1.646359062194824219e+01 7.970113307237625122e-03 1.033066660165786743e-01 3.338303416967391968e-02 1.690824888646602631e-02
5.767000000000000000e+03 1.354216575622558594e+01 2.143890953063964844e+01 -4.247039556503295898e-03 6.619461625814437866e-02 1.858427375555038452e-02 9.256120771169662476e-03
5.768000000000000000e+03 1.465855216979980469e+01 2.358580207824707031e+01 -5.135855171829462051e-03 6.330487132072448730e-02 1.745070330798625946e-02 1.208964921534061432e-02
5.769000000000000000e+03 1.750309181213378906e+01 1.536093616485595703e+01 4.072199761867523193e-02 1.462975442409515381e-01 5.610586330294609070e-02 7.503937184810638428e-02
5.770000000000000000e+03 6.971448516845703125e+01 2.431966781616210938e+01 -7.448592185974121094e-01 7.070311069488525391e+00 1.897635579109191895e+00 1.460257530212402344e+00
5.771000000000000000e+03 3.948979568481445312e+01 -3.152133941650390625e+00 3.934707343578338623e-01 -2.786626219749450684e-01 3.444243222475051880e-02 8.865048736333847046e-02
5.772000000000000000e+03 6.975753021240234375e+01 2.653058624267578125e+01 -9.574408531188964844e-01 7.662707805633544922e+00 2.011579990386962891e+00 1.978332996368408203e+00
5.773000000000000000e+03 6.529116821289062500e+01 3.574697971343994141e+00 1.969478279352188110e-01 4.579763412475585938e+00 1.433013319969177246e+00 6.615798473358154297e-01
5.774000000000000000e+03 6.691719818115234375e+01 1.352413845062255859e+01 7.365594059228897095e-02 5.081714153289794922e+00 1.546611070632934570e+00 8.351085782051086426e-01
5.775000000000000000e+03 6.738584899902343750e+01 1.564926624298095703e+01 5.516807083040475845e-03 5.251378536224365234e+00 1.577068686485290527e+00 8.978292942047119141e-01
5.776000000000000000e+03 6.844911193847656250e+01 1.603115272521972656e+01 -3.783337399363517761e-02 5.695006370544433594e+00 1.697151899337768555e+00 8.800727128982543945e-01
5.777000000000000000e+03 3.589226531982421875e+01 -7.381859421730041504e-01 1.102877631783485413e-01 -5.664013624191284180e-01 -1.368340700864791870e-01 5.429068952798843384e-02
5.778000000000000000e+03 3.566173934936523438e+01 -1.637963652610778809e+00 2.403002828359603882e-01 -5.811029672622680664e-01 -1.022408083081245422e-01 6.893762201070785522e-02
5.779000000000000000e+03 2.854585647583007812e+01 3.347885894775390625e+01 2.313969284296035767e-02 7.351715862751007080e-02 2.899705618619918823e-02 3.416739404201507568e-02
5.780000000000000000e+03 2.945196723937988281e+01 2.961194229125976562e+01 2.928156219422817230e-02 7.875318825244903564e-02 3.241042420268058777e-02 4.801815003156661987e-02
5.781000000000000000e+03 6.597789001464843750e+01 1.968594169616699219e+01 -6.713961064815521240e-02 4.555506706237792969e+00 1.346510052680969238e+00 1.072549223899841309e+00
5.782000000000000000e+03 2.707484054565429688e+01 2.690607261657714844e+01 2.786070667207241058e-02 8.631003648042678833e-02 3.425122424960136414e-02 5.371993407607078552e-02
5.783000000000000000e+03 6.568367004394531250e+01 2.761839628219604492e-01 1.971228867769241333e-01 4.692608833312988281e+00 1.466919541358947754e+00 5.952249169349670410e-01
5.784000000000000000e+03 6.357369232177734375e+01 -2.338680505752563477e+00 2.311419844627380371e-01 4.167154788970947266e+00 1.319489002227783203e+00 5.482437014579772949e-01
5.785000000000000000e+03 4.801575088500976562e+01 -1.299001502990722656e+01 3.396960794925689697e-01 1.119422316551208496e+00 4.377354979515075684e-01 1.087216362357139587e-01
5.786000000000000000e+03 6.732670593261718750e+01 1.455166721343994141e+01 3.794718533754348755e-02 5.242692470550537109e+00 1.584191918373107910e+00 8.651355504989624023e-01
5.787000000000000000e+03 1.591264438629150391e+01 2.607695960998535156e+01 -5.506683606654405594e-03 6.222758442163467407e-02 1.701627112925052643e-02 1.430732477456331253e-02
5.788000000000000000e+03 6.500330352783203125e+01 9.418413162231445312e+00 1.745301783084869385e-01 4.448697566986083984e+00 1.386968374252319336e+00 7.431269884109497070e-01
5.789000000000000000e+03 4.725310516357421875e+01 -1.200168132781982422e+01 3.711953461170196533e-01 9.584761261940002441e-01 3.989014327526092529e-01 1.058957651257514954e-01
5.790000000000000000e+03 1.484073257446289062e+01 2.674314117431640625e+01 -7.750065065920352936e-03 4.820034280419349670e-02 1.213508285582065582e-02 8.261445909738540649e-03
5.791000000000000000e+03 4.729209136962890625e+01 -1.625803565979003906e+01 2.256602346897125244e-01 1.044168829917907715e+00 3.809486925601959229e-01 6.745395809412002563e-02
5.792000000000000000e+03 6.492791748046875000e+01 -6.573031425476074219e+00 1.800772994756698608e-01 4.500381946563720703e+00 1.404137730598449707e+00 4.837220907211303711e-01
5.793000000000000000e+03 4.226895904541015625e+01 -4.384083747863769531e+00 4.391646981239318848e-01 4.964254051446914673e-02 1.466421782970428467e-01 1.082288250327110291e-01
5.794000000000000000e+03 4.065924835205078125e+01 -4.614157676696777344e+00 4.703806340694427490e-01 -1.366605460643768311e-01 1.001160293817520142e-01 9.297043085098266602e-02
5.795000000000000000e+03 5.381460952758789062e+01 -1.921918678283691406e+01 1.080329716205596924e-01 2.329809427261352539e+00 7.313527464866638184e-01 1.950907856225967407e-01
5.796000000000000000e+03 4.503035354614257812e+01 -9.359843254089355469e+00 4.605439901351928711e-01 5.427805781364440918e-01 3.009973764419555664e-01 9.865904599428176880e-02
5.797000000000000000e+03 3.037368202209472656e+01 3.349798583984375000e+01 2.659138105809688568e-02 7.198227196931838989e-02 2.957209572196006775e-02 3.572776168584823608e-02
5.798000000000000000e+03 3.048042297363281250e+01 3.037236404418945312e+01 3.159964457154273987e-02 7.685445249080657959e-02 3.253623098134994507e-02 4.722492396831512451e-02
5.799000000000000000e+03 3.138200378417968750e+01 3.189440155029296875e+01 3.274323418736457825e-02 7.278556376695632935e-02 3.165863826870918274e-02 4.295212775468826294e-02
5.800000000000000000e+03 6.445835113525390625e+01 -3.036239385604858398e+00 2.138793021440505981e-01 4.392872333526611328e+00 1.382025480270385742e+00 5.425147414207458496e-01
5.801000000000000000e+03 4.351053619384765625e+01 -5.871635913848876953e+00 4.737371802330017090e-01 2.376669794321060181e-01 2.134212553501129150e-01 1.205336153507232666e-01
5.802000000000000000e+03 4.877312469482421875e+01 -1.669788742065429688e+01 2.119633853435516357e-01 1.340780854225158691e+00 4.658232629299163818e-01 1.048435494303703308e-01
5.803000000000000000e+03 6.604240417480468750e+01 7.701125144958496094e+00 1.716708987951278687e-01 4.795750141143798828e+00 1.490226387977600098e+00 7.321673035621643066e-01
5.804000000000000000e+03 6.554224395751953125e+01 6.380506992340087891e+00 1.830401122570037842e-01 4.645139217376708984e+00 1.448453783988952637e+00 7.061150074005126953e-01
5.805000000000000000e+03 6.464605712890625000e+01 -1.169211101531982422e+01 1.509237140417098999e-01 4.431761264801025391e+00 1.374805450439453125e+00 3.868244290351867676e-01
5.806000000000000000e+03 6.626216125488281250e+01 -8.785001754760742188e+00 1.485769152641296387e-01 4.788267135620117188e+00 1.481053113937377930e+00 4.358821511268615723e-01
5.807000000000000000e+03 4.305574798583984375e+01 -4.889077663421630859e+00 4.623643755912780762e-01 1.612907499074935913e-01 1.870965361595153809e-01 1.150889322161674500e-01
5.808000000000000000e+03 6.431535339355468750e+01 -1.495504951477050781e+01 1.169168651103973389e-01 4.360260963439941406e+00 1.343153357505798340e+00 3.557040691375732422e-01
5.809000000000000000e+03 3.093914222717285156e+01 3.534549713134765625e+01 3.117982484400272369e-02 6.915110349655151367e-02 3.009927831590175629e-02 2.951679565012454987e-02
5.810000000000000000e+03 1.146652889251708984e+01 -3.027954864501953125e+01 1.341629326343536377e-01 -6.937834024429321289e-01 -1.678861379623413086e-01 -2.372598350048065186e-01
5.811000000000000000e+03 1.694599723815917969e+01 -2.267860221862792969e+01 2.351024150848388672e-01 -2.725426256656646729e-01 -1.123206689953804016e-02 -3.579055070877075195e-01
5.812000000000000000e+03 5.049828720092773438e+01 -1.839639091491699219e+01 1.452325582504272461e-01 1.676164031028747559e+00 5.464189648628234863e-01 1.418282836675643921e-01
5.813000000000000000e+03 4.954285430908203125e+01 -1.804195594787597656e+01 1.437148749828338623e-01 1.510326504707336426e+00 4.962124228477478027e-01 1.013017371296882629e-01
5.814000000000000000e+03 5.163329696655273438e+01 -2.798089981079101562e+01 -4.196226969361305237e-02 2.093578815460205078e+00 6.154849529266357422e-01 2.734854817390441895e-01
5.815000000000000000e+03 6.314119720458984375e+01 -4.913996219635009766e+00 2.239349484443664551e-01 4.076097011566162109e+00 1.290009617805480957e+00 5.067464113235473633e-01
5.816000000000000000e+03 6.420573425292968750e+01 -2.650955581665039062e+01 7.275602966547012329e-02 4.318545818328857422e+00 1.317390441894531250e+00 2.899198234081268311e-01
5.817000000000000000e+03 6.588819122314453125e+01 -2.758344650268554688e+01 6.663395464420318604e-02 4.598135948181152344e+00 1.399430871009826660e+00 2.742278277873992920e-01
5.818000000000000000e+03 6.566880798339843750e+01 -2.082140159606933594e+01 6.768316030502319336e-02 4.605421066284179688e+00 1.401931166648864746e+00 3.029113709926605225e-01
5.819000000000000000e+03 6.237662124633789062e+01 -2.244335365295410156e+01 7.033174484968185425e-02 3.991017818450927734e+00 1.218404889106750488e+00 2.991762459278106689e-01
5.820000000000000000e+03 6.540817260742187500e+01 -7.739726543426513672e+00 1.639085561037063599e-01 4.601808071136474609e+00 1.429715037345886230e+00 4.639423191547393799e-01
5.821000000000000000e+03 6.508258056640625000e+01 -1.059000110626220703e+01 1.537679582834243774e-01 4.511483669281005859e+00 1.399575471878051758e+00 4.009442627429962158e-01
5.822000000000000000e+03 4.709279632568359375e+01 -1.368498516082763672e+01 3.213201463222503662e-01 9.722717404365539551e-01 3.880775570869445801e-01 9.215632081031799316e-02
5.823000000000000000e+03 4.657239151000976562e+01 1.950319290161132812e+01 -8.116641044616699219e-01 -6.191092133522033691e-01 -4.292320013046264648e-01 -8.371530175209045410e-01
5.824000000000000000e+03 4.858192443847656250e+01 2.190253829956054688e+01 -8.999053835868835449e-01 -4.942061305046081543e-01 -4.182334542274475098e-01 -8.293648958206176758e-01
5.825000000000000000e+03 4.685420989990234375e+01 2.039131546020507812e+01 -8.729867339134216309e-01 -6.536560058593750000e-01 -4.579928219318389893e-01 -8.705846667289733887e-01
5.826000000000000000e+03 3.909666442871093750e+01 1.283013153076171875e+01 -9.359789490699768066e-01 -1.002737998962402344e+00 -5.816150903701782227e-01 -9.516389369964599609e-01
5.827000000000000000e+03 5.259833908081054688e+01 2.599365234375000000e+01 -1.036279797554016113e+00 -6.498267501592636108e-02 -3.303787410259246826e-01 -7.887263298034667969e-01
5.828000000000000000e+03 5.235867309570312500e+01 2.572315216064453125e+01 -1.025750279426574707e+00 -9.886005520820617676e-02 -3.373830914497375488e-01 -7.837694883346557617e-01
5.829000000000000000e+03 3.974162673950195312e+01 1.379611778259277344e+01 -9.435063600540161133e-01 -9.957810044288635254e-01 -5.817862153053283691e-01 -9.740022420883178711e-01
5.830000000000000000e+03 4.597821426391601562e+01 1.919233322143554688e+01 -8.241122961044311523e-01 -6.818144321441650391e-01 -4.517780244350433350e-01 -8.701235651969909668e-01
5.831000000000000000e+03 4.046645355224609375e+01 1.379156112670898438e+01 -8.941932916641235352e-01 -9.154028296470642090e-01 -5.428788065910339355e-01 -9.232733249664306641e-01
5.832000000000000000e+03 6.749385070800781250e+01 2.795636177062988281e+01 -1.573273092508316040e-01 4.678805351257324219e+00 1.356443405151367188e+00 2.486552476882934570e+00
5.833000000000000000e+03 5.049061584472656250e+01 2.386717224121093750e+01 -9.580769538879394531e-01 -3.203874230384826660e-01 -3.835393190383911133e-01 -8.104363679885864258e-01
5.834000000000000000e+03 4.894302749633789062e+01 2.207320404052734375e+01 -8.953411579132080078e-01 -4.493089318275451660e-01 -4.033950269222259521e-01 -8.094677329063415527e-01
5.835000000000000000e+03 4.493309402465820312e+01 1.764307975769042969e+01 -7.772517800331115723e-01 -6.866331696510314941e-01 -4.391655027866363525e-01 -8.633495569229125977e-01
5.836000000000000000e+03 4.230149459838867188e+01 1.495355892181396484e+01 -8.133854866027832031e-01 -7.792297005653381348e-01 -4.777845442295074463e-01 -8.790225982666015625e-01
5.837000000000000000e+03 4.137401199340820312e+01 1.486573028564453125e+01 -8.815897703170776367e-01 -8.776118159294128418e-01 -5.277604460716247559e-01 -9.416293501853942871e-01
5.838000000000000000e+03 4.419175720214843750e+01 1.695581626892089844e+01 -7.845434546470642090e-01 -7.209653854370117188e-01 -4.516526460647583008e-01 -8.821014761924743652e-01
5.839000000000000000e+03 4.478034591674804688e+01 1.860820960998535156e+01 -8.560235500335693359e-01 -7.954162359237670898e-01 -4.954319298267364502e-01 -9.422215223312377930e-01
5.840000000000000000e+03 5.178108978271484375e+01 2.546681022644042969e+01 -1.030738830566406250e+00 -1.887867450714111328e-01 -3.658576607704162598e-01 -8.121679425239562988e-01
5.841000000000000000e+03 1.229247570037841797e+01 9.319652557373046875e+00 5.392372235655784607e-02 2.233776301145553589e-01 8.319040387868881226e-02 3.164863912388682365e-03
5.842000000000000000e+03 1.240989303588867188e+01 1.032912540435791016e+01 4.336559399962425232e-02 1.962368786334991455e-01 7.188074290752410889e-02 1.321624685078859329e-02
5.843000000000000000e+03 4.538066101074218750e+01 1.889386558532714844e+01 -8.381586670875549316e-01 -7.406651377677917480e-01 -4.736471474170684814e-01 -9.064001441001892090e-01
5.844000000000000000e+03 1.908097648620605469e+01 1.659410476684570312e+01 4.392004758119583130e-02 1.354125738143920898e-01 5.379978567361831665e-02 7.710820436477661133e-02
5.845000000000000000e+03 3.914757537841796875e+01 1.190667915344238281e+01 -8.762450218200683594e-01 -9.175919890403747559e-01 -5.381510853767395020e-01 -8.699907660484313965e-01
5.846000000000000000e+03 1.907789802551269531e+01 1.840957260131835938e+01 3.088985010981559753e-02 1.229187771677970886e-01 4.614258930087089539e-02 6.368316709995269775e-02
5.847000000000000000e+03 4.983883666992187500e+01 2.306245422363281250e+01 -9.280524849891662598e-01 -3.755339980125427246e-01 -3.910759389400482178e-01 -8.122135400772094727e-01
5.848000000000000000e+03 2.328184318542480469e+01 2.182813453674316406e+01 3.294060751795768738e-02 1.035483404994010925e-01 4.094668477773666382e-02 6.380153447389602661e-02
5.849000000000000000e+03 5.102851104736328125e+01 2.427939987182617188e+01 -9.607923030853271484e-01 -2.446086853742599487e-01 -3.616203069686889648e-01 -7.947238683700561523e-01
5.850000000000000000e+03 5.210539627075195312e+01 2.555948448181152344e+01 -1.024829149246215820e+00 -1.407199501991271973e-01 -3.496647477149963379e-01 -7.935402393341064453e-01
5.851000000000000000e+03 7.008173370361328125e+01 2.879456520080566406e+01 -1.206062912940979004e+00 9.211042404174804688e+00 2.401494026184082031e+00 2.756778478622436523e+00
5.852000000000000000e+03 4.114176559448242188e+01 1.436490821838378906e+01 -8.741031885147094727e-01 -8.756321072578430176e-01 -5.249205827713012695e-01 -9.219430685043334961e-01
5.853000000000000000e+03 4.514850997924804688e+01 1.667562294006347656e+01 -6.986808776855468750e-01 -5.715606212615966797e-01 -3.810724318027496338e-01 -7.774204611778259277e-01
5.854000000000000000e+03 5.453063964843750000e+01 2.592961502075195312e+01 -9.001024961471557617e-01 2.805351018905639648e-01 -1.858702003955841064e-01 -6.694208979606628418e-01
5.855000000000000000e+03 5.149438095092773438e+01 2.489677429199218750e+01 -9.908962845802307129e-01 -2.077430039644241333e-01 -3.595917820930480957e-01 -7.968898415565490723e-01
5.856000000000000000e+03 4.696836853027343750e+01 2.087494087219238281e+01 -9.157257080078125000e-01 -6.791681051254272461e-01 -4.784681499004364014e-01 -8.932697772979736328e-01
5.857000000000000000e+03 6.922165679931640625e+01 2.903284645080566406e+01 -6.837992072105407715e-01 7.549015998840332031e+00 2.059565067291259766e+00 3.246681690216064453e+00
5.858000000000000000e+03 6.867964172363281250e+01 2.870802879333496094e+01 -4.638263583183288574e-01 6.429760932922363281e+00 1.789780378341674805e+00 3.047271013259887695e+00
5.859000000000000000e+03 3.988971710205078125e+01 1.341040325164794922e+01 -9.101772308349609375e-01 -9.526870846748352051e-01 -5.588592886924743652e-01 -9.362719655036926270e-01
5.860000000000000000e+03 6.667870330810546875e+01 2.730453109741210938e+01 -5.515968427062034607e-02 3.961041450500488281e+00 1.171764492988586426e+00 2.078505992889404297e+00
5.861000000000000000e+03 6.795294952392578125e+01 2.751688385009765625e+01 -3.408040702342987061e-01 5.438193798065185547e+00 1.529216885566711426e+00 2.484318017959594727e+00
5.862000000000000000e+03 4.650978088378906250e+01 2.089088439941406250e+01 -9.527016878128051758e-01 -7.571328878402709961e-01 -5.129503607749938965e-01 -9.387452602386474609e-01
5.863000000000000000e+03 3.698428344726562500e+01 9.848301887512207031e+00 -9.409268498420715332e-01 -9.768170118331909180e-01 -5.753231644630432129e-01 -8.754917979240417480e-01
5.864000000000000000e+03 3.830931091308593750e+01 1.058758640289306641e+01 -8.705980181694030762e-01 -9.054431915283203125e-01 -5.328123569488525391e-01 -8.312957882881164551e-01
5.865000000000000000e+03 1.414591503143310547e+01 1.177772331237792969e+01 3.771840035915374756e-02 1.943540722131729126e-01 6.962174177169799805e-02 5.492190271615982056e-02
5.866000000000000000e+03 2.251889228820800781e+01 1.965320968627929688e+01 4.373980686068534851e-02 1.134320348501205444e-01 4.715155437588691711e-02 7.326728105545043945e-02
5.867000000000000000e+03 3.123728370666503906e+01 2.466519594192504883e+00 -1.087799906730651855e+00 -7.438372969627380371e-01 -5.494911670684814453e-01 -2.541493177413940430e-01
5.868000000000000000e+03 3.767836761474609375e+01 1.015207481384277344e+01 -8.948661684989929199e-01 -9.310719370841979980e-01 -5.477814078330993652e-01 -8.413239717483520508e-01
5.869000000000000000e+03 1.397327041625976562e+01 1.225389385223388672e+01 3.287985920906066895e-02 1.783733218908309937e-01 6.337595731019973755e-02 4.894788935780525208e-02
5.870000000000000000e+03 4.671632003784179688e+01 1.993958282470703125e+01 -8.415945172309875488e-01 -6.358011364936828613e-01 -4.432187080383300781e-01 -8.532616496086120605e-01
5.871000000000000000e+03 4.790098571777343750e+01 2.065807151794433594e+01 -8.267357349395751953e-01 -5.050727128982543945e-01 -3.995425403118133545e-01 -7.996797561645507812e-01
5.872000000000000000e+03 4.277344512939453125e+01 1.608890724182128906e+01 -8.384844064712524414e-01 -8.130608797073364258e-01 -4.954635798931121826e-01 -9.314741492271423340e-01
5.873000000000000000e+03 4.262994003295898438e+01 1.513333320617675781e+01 -7.973802089691162109e-01 -7.626815438270568848e-01 -4.680185019969940186e-01 -8.701950907707214355e-01
5.874000000000000000e+03 3.663385391235351562e+01 7.335621356964111328e+00 -8.374081254005432129e-01 -7.915476560592651367e-01 -4.886867403984069824e-01 -6.649449467658996582e-01
5.875000000000000000e+03 3.665977859497070312e+01 8.627183914184570312e+00 -9.044551849365234375e-01 -9.009109139442443848e-01 -5.416098237037658691e-01 -7.953181266784667969e-01
5.876000000000000000e+03 3.749699020385742188e+01 9.686132431030273438e+00 -8.825843930244445801e-01 -9.122124910354614258e-01 -5.384390950202941895e-01 -8.172337412834167480e-01
5.877000000000000000e+03 3.724105834960937500e+01 9.275265693664550781e+00 -8.825731873512268066e-01 -9.010072946548461914e-01 -5.350741744041442871e-01 -8.016850352287292480e-01
5.878000000000000000e+03 1.790569877624511719e+01 1.525376224517822266e+01 4.532552883028984070e-02 1.470577716827392578e-01 5.771499127149581909e-02 8.001149445772171021e-02
5.879000000000000000e+03 1.799239921569824219e+01 1.561479091644287109e+01 4.364869371056556702e-02 1.439675837755203247e-01 5.628488212823867798e-02 7.745688408613204956e-02
5.880000000000000000e+03 4.360050582885742188e+01 1.666640472412109375e+01 -8.112500905990600586e-01 -7.694711685180664062e-01 -4.742163717746734619e-01 -9.120105504989624023e-01
5.881000000000000000e+03 1.742661476135253906e+01 1.500405597686767578e+01 4.327274858951568604e-02 1.494918763637542725e-01 5.782938376069068909e-02 7.771395891904830933e-02
5.882000000000000000e+03 2.283473014831542969e+01 2.063512420654296875e+01 3.891991823911666870e-02 1.086203381419181824e-01 4.426207765936851501e-02 6.910428404808044434e-02
5.883000000000000000e+03 3.555291748046875000e+01 6.622284889221191406e+00 -9.164367914199829102e-01 -8.192500472068786621e-01 -5.207060575485229492e-01 -6.813951134681701660e-01
5.884000000000000000e+03 3.663042449951171875e+01 8.026199340820312500e+00 -8.777714371681213379e-01 -8.504889011383056641e-01 -5.184780955314636230e-01 -7.375195622444152832e-01
5.885000000000000000e+03 4.304226684570312500e+01 1.636651611328125000e+01 -8.351047635078430176e-01 -8.057935833930969238e-01 -4.922694861888885498e-01 -9.337330460548400879e-01
5.886000000000000000e+03 4.294312667846679688e+01 1.567152500152587891e+01 -8.041440248489379883e-01 -7.644764184951782227e-01 -4.705861210823059082e-01 -8.900039196014404297e-01
5.887000000000000000e+03 1.462421131134033203e+01 1.190916156768798828e+01 4.014695435762405396e-02 1.927780061960220337e-01 6.987749040126800537e-02 6.530141830444335938e-02
5.888000000000000000e+03 1.372512054443359375e+01 1.319692420959472656e+01 2.660300210118293762e-02 1.575233340263366699e-01 5.523790419101715088e-02 3.789690136909484863e-02
5.889000000000000000e+03 2.825695419311523438e+01 1.398341178894042969e+00 -1.142248034477233887e+00 -6.652343869209289551e-01 -5.422447323799133301e-01 -2.992813289165496826e-01
5.890000000000000000e+03 4.940229797363281250e+01 2.294786643981933594e+01 -9.474348425865173340e-01 -4.380868971347808838e-01 -4.156565070152282715e-01 -8.359520435333251953e-01
5.891000000000000000e+03 1.619601058959960938e+01 1.405257225036621094e+01 3.887977823615074158e-02 1.603136509656906128e-01 5.975802987813949585e-02 7.253651320934295654e-02
5.892000000000000000e+03 1.612764358520507812e+01 1.302636241912841797e+01 4.686680436134338379e-02 1.767195463180541992e-01 6.707590073347091675e-02 8.144579082727432251e-02
5.893000000000000000e+03 2.045360183715820312e+01 1.941913414001464844e+01 3.315037488937377930e-02 1.169935986399650574e-01 4.504319280385971069e-02 6.572258472442626953e-02
5.894000000000000000e+03 2.355713462829589844e+01 2.128161430358886719e+01 3.907302767038345337e-02 1.062273159623146057e-01 4.359010234475135803e-02 6.872310489416122437e-02
5.895000000000000000e+03 6.599647521972656250e+01 2.648178863525390625e+01 -1.451002620160579681e-02 3.573356389999389648e+00 1.067653894424438477e+00 1.713774442672729492e+00
5.896000000000000000e+03 3.065438461303710938e+01 1.557452082633972168e+00 -8.527559638023376465e-01 -6.754707098007202148e-01 -4.584680199623107910e-01 -1.058843880891799927e-01
5.897000000000000000e+03 3.039731979370117188e+01 1.951349973678588867e+00 -1.032681703567504883e+00 -7.586965560913085938e-01 -5.374134778976440430e-01 -2.127037346363067627e-01
5.898000000000000000e+03 1.443152523040771484e+01 1.238452625274658203e+01 3.528008237481117249e-02 1.829447001218795776e-01 6.546743214130401611e-02 5.633948743343353271e-02
5.899000000000000000e+03 3.697589492797851562e+01 8.919961929321289062e+00 -8.882662653923034668e-01 -9.005562067031860352e-01 -5.366467237472534180e-01 -7.946057915687561035e-01
5.900000000000000000e+03 1.293317508697509766e+01 1.064900112152099609e+01 3.969051316380500793e-02 2.027823626995086670e-01 7.274186611175537109e-02 2.789684385061264038e-02
5.901000000000000000e+03 1.306593227386474609e+01 1.107577133178710938e+01 3.892099112272262573e-02 1.945481151342391968e-01 7.004073262214660645e-02 2.874307520687580109e-02
5.902000000000000000e+03 3.154203987121582031e+01 9.045473337173461914e-01 -5.099530220031738281e-01 -7.062885165214538574e-01 -3.648724555969238281e-01 -3.012980334460735321e-02
5.903000000000000000e+03 3.644992065429687500e+01 6.011296272277832031e+00 -7.705982327461242676e-01 -7.080584764480590820e-01 -4.435970187187194824e-01 -5.374386310577392578e-01
5.904000000000000000e+03 3.269949722290039062e+01 6.195773603394627571e-04 -1.480258256196975708e-01 -6.713663339614868164e-01 -2.458176463842391968e-01 3.507167100906372070e-02
5.905000000000000000e+03 3.309627914428710938e+01 -2.968443632125854492e-01 -8.014465868473052979e-02 -6.590085029602050781e-01 -2.217459529638290405e-01 5.840823054313659668e-02
5.906000000000000000e+03 6.896408081054687500e+01 2.493656921386718750e+01 -6.548777818679809570e-01 6.636947154998779297e+00 1.794620871543884277e+00 1.710372328758239746e+00
5.907000000000000000e+03 7.000167846679687500e+01 2.534644126892089844e+01 -9.014879465103149414e-01 7.514105319976806641e+00 1.983785152435302734e+00 1.587162613868713379e+00
5.908000000000000000e+03 6.344442749023437500e+01 2.608483695983886719e+01 7.235227618366479874e-03 2.105916738510131836e+00 6.339455842971801758e-01 8.468200564384460449e-01
5.909000000000000000e+03 6.450906372070312500e+01 2.612636947631835938e+01 4.798375815153121948e-02 2.648144960403442383e+00 8.088386058807373047e-01 1.198345065116882324e+00
5.910000000000000000e+03 1.175472259521484375e+01 8.880724906921386719e+00 6.652696430683135986e-02 2.061213701963424683e-01 8.179450035095214844e-02 -1.908595673739910126e-02
5.911000000000000000e+03 1.094097423553466797e+01 1.087840270996093750e+01 4.786845669150352478e-02 1.265065371990203857e-01 5.231249704957008362e-02 -1.482574548572301865e-02
5.912000000000000000e+03 2.090678215026855469e+01 1.967387580871582031e+01 3.408057615160942078e-02 1.147556453943252563e-01 4.465086758136749268e-02 6.601700186729431152e-02
5.913000000000000000e+03 2.067278289794921875e+01 1.897940635681152344e+01 3.719896823167800903e-02 1.184183880686759949e-01 4.668520763516426086e-02 6.944872438907623291e-02
5.914000000000000000e+03 6.964547729492187500e+01 2.890628433227539062e+01 -9.480334520339965820e-01 8.371961593627929688e+00 2.227178335189819336e+00 3.056132316589355469e+00
5.915000000000000000e+03 6.837358093261718750e+01 2.846011161804199219e+01 -3.651198744773864746e-01 5.943108558654785156e+00 1.673396587371826172e+00 2.898531675338745117e+00
5.916000000000000000e+03 1.185620307922363281e+01 9.960238456726074219e+00 5.043271929025650024e-02 1.844522804021835327e-01 7.046549767255783081e-02 -3.318885806947946548e-03
5.917000000000000000e+03 1.081780910491943359e+01 1.028125190734863281e+01 5.578470602631568909e-02 1.284408271312713623e-01 5.526765808463096619e-02 -1.970464177429676056e-02
5.918000000000000000e+03 2.324340057373046875e+01 2.378545379638671875e+01 2.354449220001697540e-02 9.749452769756317139e-02 3.631170466542243958e-02 5.532789602875709534e-02
5.919000000000000000e+03 2.504286384582519531e+01 2.478132247924804688e+01 2.644131518900394440e-02 9.351575374603271484e-02 3.598712012171745300e-02 5.668670684099197388e-02
5.920000000000000000e+03 3.988396453857421875e+01 1.300339984893798828e+01 -8.822731971740722656e-01 -9.181835055351257324e-01 -5.401369929313659668e-01 -9.021677970886230469e-01
5.921000000000000000e+03 1.563215637207031250e+01 1.938051605224609375e+01 6.839453242719173431e-03 1.012958511710166931e-01 3.244059160351753235e-02 3.135560825467109680e-02
5.922000000000000000e+03 6.573884582519531250e+01 2.618344116210937500e+01 -2.113443566486239433e-03 3.476045370101928711e+00 1.042179584503173828e+00 1.628697395324707031e+00
5.923000000000000000e+03 3.336729812622070312e+01 4.208246707916259766e+00 -1.069070696830749512e+00 -7.312961816787719727e-01 -5.401100516319274902e-01 -4.872198402881622314e-01
5.924000000000000000e+03 5.285745239257812500e+01 2.567555999755859375e+01 -9.904279112815856934e-01 -2.691422589123249054e-03 -2.979357838630676270e-01 -7.525519132614135742e-01
5.925000000000000000e+03 5.411376953125000000e+01 2.527728080749511719e+01 -8.515750169754028320e-01 2.540098726749420166e-01 -1.792695522308349609e-01 -6.434453129768371582e-01
5.926000000000000000e+03 3.451374053955078125e+01 3.949504137039184570e+00 -8.375571370124816895e-01 -6.734171509742736816e-01 -4.532922804355621338e-01 -3.780142962932586670e-01
5.927000000000000000e+03 3.517354965209960938e+01 5.633980751037597656e+00 -9.043177366256713867e-01 -7.451202273368835449e-01 -4.948314130306243896e-01 -5.810669660568237305e-01
5.928000000000000000e+03 5.391334915161132812e+01 2.636124992370605469e+01 -9.962667226791381836e-01 1.552211195230484009e-01 -2.523136734962463379e-01 -7.331678271293640137e-01
5.929000000000000000e+03 6.194686126708984375e+01 2.528264427185058594e+01 -6.126623973250389099e-02 1.756427764892578125e+00 5.085484385490417480e-01 4.748314917087554932e-01
5.930000000000000000e+03 6.269523239135742188e+01 2.445253562927246094e+01 2.513006329536437988e-03 2.245044708251953125e+00 6.742672920227050781e-01 7.079071998596191406e-01
5.931000000000000000e+03 5.315904235839843750e+01 2.595018577575683594e+01 -9.966888427734375000e-01 3.797898069024085999e-02 -2.876129746437072754e-01 -7.517767548561096191e-01
5.932000000000000000e+03 3.382327651977539062e+01 -1.897009611129760742e-01 -7.395797222852706909e-02 -6.455804109573364258e-01 -2.158615142107009888e-01 6.286533176898956299e-02
5.933000000000000000e+03 2.752576637268066406e+01 2.953963851928710938e+01 2.326424419879913330e-02 8.082423359155654907e-02 3.122654184699058533e-02 4.489496722817420959e-02
5.934000000000000000e+03 2.720772933959960938e+01 2.808947944641113281e+01 2.530964836478233337e-02 8.373393118381500244e-02 3.271307423710823059e-02 4.940173774957656860e-02
5.935000000000000000e+03 2.445537567138671875e+01 2.585748481750488281e+01 2.081610448658466339e-02 9.025606513023376465e-02 3.332165256142616272e-02 5.106002464890480042e-02
5.936000000000000000e+03 6.058897399902343750e+01 2.582159042358398438e+01 -2.414876073598861694e-01 1.266740679740905762e+00 3.075759410858154297e-01 9.964593499898910522e-02
5.937000000000000000e+03 2.493802452087402344e+01 2.227038383483886719e+01 3.852325677871704102e-02 1.003276780247688293e-01 4.165527969598770142e-02 6.703876703977584839e-02
5.938000000000000000e+03 2.522651100158691406e+01 2.321528434753417969e+01 3.517489135265350342e-02 9.779539704322814941e-02 3.989108651876449585e-02 6.420534104108810425e-02
5.939000000000000000e+03 3.863957595825195312e+01 1.205395030975341797e+01 -9.266762137413024902e-01 -9.908218979835510254e-01 -5.752494335174560547e-01 -9.258357286453247070e-01
5.940000000000000000e+03 2.594783592224121094e+01 2.700815010070800781e+01 2.370178699493408203e-02 8.706703782081604004e-02 3.323064744472503662e-02 5.106638744473457336e-02
5.941000000000000000e+03 2.552710914611816406e+01 2.629194259643554688e+01 2.357514016330242157e-02 8.907130360603332520e-02 3.379393368959426880e-02 5.228769034147262573e-02
5.942000000000000000e+03 3.367794799804687500e+01 4.767363965511322021e-01 -2.448013126850128174e-01 -6.484019160270690918e-01 -2.679609656333923340e-01 1.814960688352584839e-02
5.943000000000000000e+03 3.447922897338867188e+01 -1.115638613700866699e+00 1.610230058431625366e-01 -6.286600828170776367e-01 -1.402911245822906494e-01 6.905875355005264282e-02
5.944000000000000000e+03 3.385578536987304688e+01 3.684275150299072266e+00 -8.983017802238464355e-01 -6.861863136291503906e-01 -4.753464162349700928e-01 -3.652162551879882812e-01
5.945000000000000000e+03 3.893028259277343750e+01 1.100343513488769531e+01 -8.423436880111694336e-01 -8.745962977409362793e-01 -5.150820016860961914e-01 -8.156876564025878906e-01
5.946000000000000000e+03 3.200259017944335938e+01 1.135093688964843750e+00 -5.465679168701171875e-01 -6.667941808700561523e-01 -3.640086054801940918e-01 -4.391647130250930786e-02
5.947000000000000000e+03 3.290623092651367188e+01 3.185324430465698242e+00 -9.592591524124145508e-01 -6.845999360084533691e-01 -4.931577146053314209e-01 -3.101762235164642334e-01
5.948000000000000000e+03 3.191912460327148438e+01 2.236345052719116211e+00 -8.975504636764526367e-01 -7.118067741394042969e-01 -4.828071594238281250e-01 -1.875063329935073853e-01
5.949000000000000000e+03 1.284894561767578125e+01 1.019722938537597656e+01 4.597201570868492126e-02 2.146675884723663330e-01 7.819187641143798828e-02 2.469524741172790527e-02
5.950000000000000000e+03 7.045245361328125000e+01 2.820760726928710938e+01 -1.350667238235473633e+00 9.410937309265136719e+00 2.418081045150756836e+00 2.237272500991821289e+00
5.951000000000000000e+03 1.758798980712890625e+01 1.654315185546875000e+01 3.294999524950981140e-02 1.348340064287185669e-01 5.033520236611366272e-02 6.587793678045272827e-02
5.952000000000000000e+03 5.851002883911132812e+01 2.503988456726074219e+01 -3.949689865112304688e-01 9.957045316696166992e-01 1.802206635475158691e-01 -1.899065971374511719e-01
5.953000000000000000e+03 5.734229660034179688e+01 2.526882934570312500e+01 -5.501552224159240723e-01 7.762558460235595703e-01 6.783019006252288818e-02 -3.640578091144561768e-01
5.954000000000000000e+03 5.569810867309570312e+01 2.484070587158203125e+01 -6.643623709678649902e-01 5.599972605705261230e-01 -3.130951896309852600e-02 -4.845390021800994873e-01
5.955000000000000000e+03 5.788587188720703125e+01 2.450201225280761719e+01 -4.095270335674285889e-01 9.636778831481933594e-01 1.662452518939971924e-01 -2.142500579357147217e-01
5.956000000000000000e+03 1.336514568328857422e+01 1.390155410766601562e+01 2.121224626898765564e-02 1.418141722679138184e-01 4.890792816877365112e-02 2.932434715330600739e-02
5.957000000000000000e+03 1.275457382202148438e+01 1.181347560882568359e+01 3.256189823150634766e-02 1.682312190532684326e-01 6.023793667554855347e-02 2.303158678114414215e-02
5.958000000000000000e+03 5.981790924072265625e+01 2.536396026611328125e+01 -2.840189039707183838e-01 1.193220973014831543e+00 2.727605998516082764e-01 -5.422536749392747879e-03
5.959000000000000000e+03 3.619118118286132812e+01 7.116753101348876953e+00 -8.697310090065002441e-01 -8.069315552711486816e-01 -5.029987692832946777e-01 -6.795607209205627441e-01
5.960000000000000000e+03 6.934266662597656250e+01 2.725846099853515625e+01 -8.626306653022766113e-01 7.379104137420654297e+00 1.954942107200622559e+00 2.348688602447509766e+00
5.961000000000000000e+03 7.030448150634765625e+01 2.648200416564941406e+01 -1.128790140151977539e+00 8.303725242614746094e+00 2.152480602264404297e+00 1.747898459434509277e+00
5.962000000000000000e+03 6.508444213867187500e+01 2.887596607208251953e+00 2.104569077491760254e-01 4.531741619110107422e+00 1.422659516334533691e+00 6.482400894165039062e-01
5.963000000000000000e+03 3.825983047485351562e+01 -2.885784626007080078e+00 3.774727880954742432e-01 -3.973860740661621094e-01 -5.973980762064456940e-03 8.003814518451690674e-02
5.964000000000000000e+03 3.778699493408203125e+01 -2.177460908889770508e+00 3.179244995117187500e-01 -4.381512999534606934e-01 -3.606803342700004578e-02 7.287210971117019653e-02
5.965000000000000000e+03 2.647587394714355469e+01 3.291322708129882812e+01 1.641091890633106232e-02 7.373295724391937256e-02 2.704316377639770508e-02 3.131032735109329224e-02
5.966000000000000000e+03 2.651605415344238281e+01 2.762604522705078125e+01 2.410083077847957611e-02 8.594434708356857300e-02 3.301355242729187012e-02 5.024383962154388428e-02
5.967000000000000000e+03 1.385532188415527344e+01 1.633467292785644531e+01 1.070808712393045425e-02 1.150641366839408875e-01 3.773166611790657043e-02 2.669134922325611115e-02
5.968000000000000000e+03 4.472521972656250000e+01 -5.574442386627197266e+00 4.540862143039703369e-01 4.074896574020385742e-01 2.584727704524993896e-01 1.322344839572906494e-01
5.969000000000000000e+03 6.427410888671875000e+01 -1.496455550193786621e+00 2.169678211212158203e-01 4.330213546752929688e+00 1.364154338836669922e+00 5.678919553756713867e-01
5.970000000000000000e+03 6.159382247924804688e+01 -9.756861329078674316e-01 2.665450572967529297e-01 3.673082590103149414e+00 1.181888222694396973e+00 5.606817007064819336e-01
5.971000000000000000e+03 3.535213088989257812e+01 4.007978916168212891e+00 -7.169003486633300781e-01 -6.422078609466552734e-01 -4.077324569225311279e-01 -3.481613695621490479e-01
5.972000000000000000e+03 3.543708038330078125e+01 -1.069600105285644531e+00 1.332589536905288696e-01 -5.769100785255432129e-01 -1.330953389406204224e-01 7.101541757583618164e-02
5.973000000000000000e+03 6.798954010009765625e+01 2.516931915283203125e+01 -4.105866849422454834e-01 5.598722457885742188e+00 1.556440711021423340e+00 1.827061414718627930e+00
5.974000000000000000e+03 6.976279449462890625e+01 2.589343833923339844e+01 -9.105586409568786621e-01 7.456372261047363281e+00 1.963744163513183594e+00 1.844990730285644531e+00
5.975000000000000000e+03 1.425967884063720703e+01 1.440576934814453125e+01 2.226084657013416290e-02 1.456024348735809326e-01 5.035898089408874512e-02 4.025460779666900635e-02
5.976000000000000000e+03 6.729332733154296875e+01 2.126077842712402344e+01 -2.039405256509780884e-01 5.201421737670898438e+00 1.499244332313537598e+00 1.226541638374328613e+00
5.977000000000000000e+03 6.699229431152343750e+01 1.664178276062011719e+01 -1.016483828425407410e-02 5.078284263610839844e+00 1.520435929298400879e+00 9.274969696998596191e-01
5.978000000000000000e+03 6.852428436279296875e+01 2.369195365905761719e+01 -4.952172935009002686e-01 6.094101428985595703e+00 1.679665207862854004e+00 1.517266511917114258e+00
5.979000000000000000e+03 3.901090240478515625e+01 -2.390636682510375977e+00 3.371738493442535400e-01 -3.317560851573944092e-01 1.625330420210957527e-03 7.834699004888534546e-02
5.980000000000000000e+03 6.873075103759765625e+01 2.684418106079101562e+01 -6.435442566871643066e-01 6.463377475738525391e+00 1.745949983596801758e+00 2.294332742691040039e+00
5.981000000000000000e+03 1.554769134521484375e+01 1.683369636535644531e+01 1.697435975074768066e-02 1.250439584255218506e-01 4.260549694299697876e-02 4.330642521381378174e-02
5.982000000000000000e+03 6.476945495605468750e+01 8.664994239807128906e-01 2.150024175643920898e-01 4.454299449920654297e+00 1.400790572166442871e+00 6.090584397315979004e-01
5.983000000000000000e+03 6.456068420410156250e+01 2.221189498901367188e+00 2.190092653036117554e-01 4.396239280700683594e+00 1.384574532508850098e+00 6.325569152832031250e-01
5.984000000000000000e+03 6.556840515136718750e+01 8.597942352294921875e+00 1.698631495237350464e-01 4.624585628509521484e+00 1.438334703445434570e+00 7.411066889762878418e-01
5.985000000000000000e+03 4.764881515502929688e+01 -1.023664665222167969e+01 4.035501778125762939e-01 1.000181555747985840e+00 4.211195111274719238e-01 1.369621306657791138e-01
5.986000000000000000e+03 4.596310424804687500e+01 -9.851065635681152344e+00 4.312613606452941895e-01 6.898763775825500488e-01 3.363413214683532715e-01 1.096642017364501953e-01
5.987000000000000000e+03 6.594411468505859375e+01 1.391917324066162109e+01 9.276735782623291016e-02 4.710660934448242188e+00 1.441028475761413574e+00 8.397372961044311523e-01
5.988000000000000000e+03 4.015223312377929688e+01 -2.724391937255859375e+00 3.648614287376403809e-01 -2.209107726812362671e-01 4.318519681692123413e-02 9.019430726766586304e-02
5.989000000000000000e+03 6.465030670166015625e+01 8.054277420043945312e+00 1.907510459423065186e-01 4.361358642578125000e+00 1.365632891654968262e+00 7.199150919914245605e-01
5.990000000000000000e+03 6.495989990234375000e+01 5.182900905609130859e+00 2.010733336210250854e-01 4.495742321014404297e+00 1.409044742584228516e+00 6.759988069534301758e-01
5.991000000000000000e+03 6.205205154418945312e+01 -2.858966588973999023e+00 2.609026432037353516e-01 3.793648004531860352e+00 1.216365218162536621e+00 5.330289602279663086e-01
5.992000000000000000e+03 6.371448135375976562e+01 -3.689773321151733398e+00 2.251675724983215332e-01 4.229528903961181641e+00 1.336408972740173340e+00 5.252224802970886230e-01
5.993000000000000000e+03 4.509871673583984375e+01 -8.163955688476562500e+00 4.631069600582122803e-01 5.214293003082275391e-01 2.953608930110931396e-01 1.068725585937500000e-01
5.994000000000000000e+03 4.492886352539062500e+01 -6.862952232360839844e+00 4.687303304672241211e-01 4.702772796154022217e-01 2.817022800445556641e-01 1.312029659748077393e-01
5.995000000000000000e+03 4.771541213989257812e+01 -1.464120006561279297e+01 2.857225239276885986e-01 1.097708106040954590e+00 4.150291979312896729e-01 9.095000475645065308e-02
5.996000000000000000e+03 5.019974517822265625e+01 -1.439210033416748047e+01 2.804952263832092285e-01 1.568781375885009766e+00 5.547829866409301758e-01 1.615214794874191284e-01
5.997000000000000000e+03 4.837586975097656250e+01 -1.564907836914062500e+01 2.397334575653076172e-01 1.251250743865966797e+00 4.472952485084533691e-01 1.041423901915550232e-01
5.998000000000000000e+03 4.866849517822265625e+01 -1.397942733764648438e+01 2.983110249042510986e-01 1.256419658660888672e+00 4.664191901683807373e-01 1.162184625864028931e-01
5.999000000000000000e+03 6.392184829711914062e+01 1.496399521827697754e+00 2.277079671621322632e-01 4.235951900482177734e+00 1.339097976684570312e+00 6.192335486412048340e-01
6.000000000000000000e+03 1.492577552795410156e+01 2.198262786865234375e+01 -2.153640612959861755e-03 7.592761516571044922e-02 2.213219180703163147e-02 1.733111217617988586e-02
6.001000000000000000e+03 1.553657436370849609e+01 2.296675109863281250e+01 -3.330996492877602577e-03 7.405363768339157104e-02 2.121679298579692841e-02 1.875994168221950531e-02
6.002000000000000000e+03 6.510126495361328125e+01 -1.358197307586669922e+01 1.266970485448837280e-01 4.510319709777832031e+00 1.391104936599731445e+00 3.721730411052703857e-01
6.003000000000000000e+03 6.561082458496093750e+01 -1.227109336853027344e+01 1.343868970870971680e-01 4.622045040130615234e+00 1.426929593086242676e+00 3.875154852867126465e-01
6.004000000000000000e+03 2.852099800109863281e+01 2.965507888793945312e+01 2.740212716162204742e-02 7.976144552230834961e-02 3.214907273650169373e-02 4.675955697894096375e-02
6.005000000000000000e+03 3.036776351928710938e+01 3.206329727172851562e+01 3.037901967763900757e-02 7.442818582057952881e-02 3.144216164946556091e-02 4.123933240771293640e-02
6.006000000000000000e+03 6.424067687988281250e+01 -1.021372795104980469e+01 1.720860451459884644e-01 4.362504482269287109e+00 1.360377073287963867e+00 4.075000882148742676e-01
6.007000000000000000e+03 6.550984191894531250e+01 -1.606576919555664062e+01 9.889464825391769409e-02 4.591083049774169922e+00 1.406993389129638672e+00 3.452709913253784180e-01
6.008000000000000000e+03 6.291186904907226562e+01 -4.009884834289550781e+00 2.334428578615188599e-01 4.011883735656738281e+00 1.273597955703735352e+00 5.210048556327819824e-01
6.009000000000000000e+03 5.031428146362304688e+01 -1.552457332611083984e+01 2.314313203096389771e-01 1.601198434829711914e+00 5.497889518737792969e-01 1.458505988121032715e-01
6.010000000000000000e+03 5.880701065063476562e+01 -2.114698028564453125e+01 8.926375955343246460e-02 3.307801961898803711e+00 1.019119739532470703e+00 2.843644320964813232e-01
6.011000000000000000e+03 5.472630691528320312e+01 -1.840670204162597656e+01 1.345716118812561035e-01 2.486140251159667969e+00 7.862135171890258789e-01 2.188923805952072144e-01
6.012000000000000000e+03 1.690757942199707031e+01 -2.758605194091796875e+01 2.364055365324020386e-01 -2.728740572929382324e-01 -1.094055734574794769e-02 -3.211435377597808838e-01
6.013000000000000000e+03 1.565121459960937500e+01 -2.601994132995605469e+01 2.205383032560348511e-01 -3.684055209159851074e-01 -4.436016827821731567e-02 -3.312416076660156250e-01
6.014000000000000000e+03 4.695586776733398438e+01 -9.117111206054687500e+00 4.353257417678833008e-01 8.382821083068847656e-01 3.820823729038238525e-01 1.303803026676177979e-01
6.015000000000000000e+03 5.347512817382812500e+01 -2.564111518859863281e+01 2.407183405011892319e-03 2.386894702911376953e+00 7.167906165122985840e-01 2.509353458881378174e-01
6.016000000000000000e+03 5.996340179443359375e+01 -2.252626419067382812e+01 7.172631472349166870e-02 3.542331218719482422e+00 1.084217190742492676e+00 2.860374450683593750e-01
6.017000000000000000e+03 6.264393234252929688e+01 -2.526466178894042969e+01 6.397743523120880127e-02 4.041451454162597656e+00 1.231628656387329102e+00 2.973845303058624268e-01
6.018000000000000000e+03 4.688564682006835938e+01 1.895636367797851562e+01 -7.469993829727172852e-01 -5.218504667282104492e-01 -3.806549608707427979e-01 -7.741330862045288086e-01
6.019000000000000000e+03 4.863036346435546875e+01 2.149218940734863281e+01 -8.607594370841979980e-01 -4.500208795070648193e-01 -3.932341039180755615e-01 -7.939013242721557617e-01
6.020000000000000000e+03 4.507928085327148438e+01 1.805785942077636719e+01 -7.955083847045898438e-01 -7.048448920249938965e-01 -4.501059651374816895e-01 -8.784239292144775391e-01
6.021000000000000000e+03 4.642980194091796875e+01 1.907278442382812500e+01 -7.864682078361511230e-01 -6.027566194534301758e-01 -4.167674481868743896e-01 -8.225426673889160156e-01
6.022000000000000000e+03 4.012352752685546875e+01 1.177000713348388672e+01 -7.913571596145629883e-01 -8.001710772514343262e-01 -4.774584770202636719e-01 -7.885610461235046387e-01
6.023000000000000000e+03 4.181568908691406250e+01 1.364859867095947266e+01 -7.717022299766540527e-01 -7.409940958023071289e-01 -4.538089036941528320e-01 -8.105348348617553711e-01
6.024000000000000000e+03 4.156277465820312500e+01 1.451640033721923828e+01 -8.426787853240966797e-01 -8.364036679267883301e-01 -5.037247538566589355e-01 -9.002252221107482910e-01
6.025000000000000000e+03 5.189043045043945312e+01 2.505732917785644531e+01 -9.800796508789062500e-01 -1.419770121574401855e-01 -3.366169929504394531e-01 -7.793858647346496582e-01
6.026000000000000000e+03 5.256558990478515625e+01 2.542000579833984375e+01 -9.864324331283569336e-01 -3.778190538287162781e-02 -3.072642982006072998e-01 -7.563990354537963867e-01
6.027000000000000000e+03 5.224658203125000000e+01 2.521631050109863281e+01 -9.771915078163146973e-01 -9.173652529716491699e-02 -3.206784129142761230e-01 -7.659952640533447266e-01
6.028000000000000000e+03 4.583164215087890625e+01 1.876842880249023438e+01 -8.005203008651733398e-01 -6.651554107666015625e-01 -4.397027194499969482e-01 -8.566643595695495605e-01
6.029000000000000000e+03 4.265863418579101562e+01 1.474366092681884766e+01 -7.746065855026245117e-01 -7.246069312095642090e-01 -4.497640430927276611e-01 -8.330824971199035645e-01
6.030000000000000000e+03 4.196665191650390625e+01 1.470721817016601562e+01 -8.219973444938659668e-01 -7.995137572288513184e-01 -4.864533245563507080e-01 -8.851082324981689453e-01
6.031000000000000000e+03 4.540736770629882812e+01 1.750665664672851562e+01 -7.351322770118713379e-01 -6.102092266082763672e-01 -4.036024510860443115e-01 -8.121740221977233887e-01
6.032000000000000000e+03 4.105455398559570312e+01 1.383166694641113281e+01 -8.477852940559387207e-01 -8.473418951034545898e-01 -5.085381865501403809e-01 -8.836588263511657715e-01
6.033000000000000000e+03 4.172819900512695312e+01 1.410444068908691406e+01 -8.129547834396362305e-01 -7.904328107833862305e-01 -4.810162782669067383e-01 -8.571965694427490234e-01
6.034000000000000000e+03 4.466849899291992188e+01 1.681641197204589844e+01 -7.432067394256591797e-01 -6.470445990562438965e-01 -4.170753955841064453e-01 -8.293808698654174805e-01
6.035000000000000000e+03 4.911448669433593750e+01 2.162797355651855469e+01 -8.381527066230773926e-01 -3.796048760414123535e-01 -3.653272688388824463e-01 -7.636979818344116211e-01
6.036000000000000000e+03 4.522967147827148438e+01 1.847490882873535156e+01 -8.169338107109069824e-01 -7.222287654876708984e-01 -4.617487788200378418e-01 -8.927713632583618164e-01
6.037000000000000000e+03 4.743966674804687500e+01 2.079767417907714844e+01 -8.768916726112365723e-01 -5.954020023345947266e-01 -4.416880905628204346e-01 -8.513879179954528809e-01
6.038000000000000000e+03 4.702011489868164062e+01 1.939273834228515625e+01 -7.746313214302062988e-01 -5.396862030029296875e-01 -3.942952454090118408e-01 -7.910829186439514160e-01
6.039000000000000000e+03 4.629001617431640625e+01 1.864576721191406250e+01 -7.606792449951171875e-01 -5.855795741081237793e-01 -4.038776457309722900e-01 -8.069472908973693848e-01
6.040000000000000000e+03 5.518880462646484375e+01 2.483388328552246094e+01 -7.083172798156738281e-01 4.734559953212738037e-01 -7.045838236808776855e-02 -5.289875864982604980e-01
6.041000000000000000e+03 4.527476119995117188e+01 1.708979225158691406e+01 -7.177459597587585449e-01 -5.905877351760864258e-01 -3.925001025199890137e-01 -7.948806285858154297e-01
6.042000000000000000e+03 5.166532897949218750e+01 2.449047851562500000e+01 -9.434937834739685059e-01 -1.469645202159881592e-01 -3.271375000476837158e-01 -7.593426704406738281e-01
6.043000000000000000e+03 5.204572677612304688e+01 2.466369819641113281e+01 -9.383473396301269531e-01 -9.035806357860565186e-02 -3.086116313934326172e-01 -7.442151904106140137e-01
6.044000000000000000e+03 1.879908370971679688e+01 1.770062065124511719e+01 3.407000377774238586e-02 1.279648095369338989e-01 4.861044511198997498e-02 6.740258634090423584e-02
6.045000000000000000e+03 5.242282867431640625e+01 2.484422302246093750e+01 -9.275532960891723633e-01 -2.636868506669998169e-02 -2.861765921115875244e-01 -7.286167144775390625e-01
6.046000000000000000e+03 3.964012527465820312e+01 1.181848907470703125e+01 -8.299962282180786133e-01 -8.589729666709899902e-01 -5.066907405853271484e-01 -8.261644244194030762e-01
6.047000000000000000e+03 4.953047943115234375e+01 2.256807899475097656e+01 -9.014465808868408203e-01 -3.853101432323455811e-01 -3.860270082950592041e-01 -7.955218553543090820e-01
6.048000000000000000e+03 4.924787902832031250e+01 2.234966850280761719e+01 -8.971145153045654297e-01 -4.132331609725952148e-01 -3.931042850017547607e-01 -8.047072291374206543e-01
6.049000000000000000e+03 4.502508163452148438e+01 1.626535606384277344e+01 -6.830214858055114746e-01 -5.533919930458068848e-01 -3.709240555763244629e-01 -7.582580447196960449e-01
6.050000000000000000e+03 3.763148880004882812e+01 9.026264190673828125e+00 -8.355057239532470703e-01 -8.508794307708740234e-01 -5.059155225753784180e-01 -7.513874173164367676e-01
6.051000000000000000e+03 2.300371551513671875e+01 2.126879882812500000e+01 3.571165725588798523e-02 1.060535609722137451e-01 4.252956435084342957e-02 6.615778803825378418e-02
6.052000000000000000e+03 2.388201713562011719e+01 2.210110092163085938e+01 3.466797620058059692e-02 1.030920296907424927e-01 4.132800176739692688e-02 6.471880525350570679e-02
6.053000000000000000e+03 6.720424652099609375e+01 2.698427009582519531e+01 -1.759106218814849854e-01 4.600273132324218750e+00 1.327308773994445801e+00 2.194271087646484375e+00
6.054000000000000000e+03 2.201125717163085938e+01 2.025280189514160156e+01 3.731045126914978027e-02 1.113541349768638611e-01 4.459937661886215210e-02 6.810463964939117432e-02
6.055000000000000000e+03 3.824153900146484375e+01 1.011476421356201172e+01 -8.450615406036376953e-01 -8.745306134223937988e-01 -5.158776640892028809e-01 -7.945845723152160645e-01
6.056000000000000000e+03 1.631502151489257812e+01 2.230053329467773438e+01 1.285310019738972187e-03 8.491731435060501099e-02 2.586078643798828125e-02 2.592433616518974304e-02
6.057000000000000000e+03 3.885102844238281250e+01 1.054534244537353516e+01 -8.184326887130737305e-01 -8.459497094154357910e-01 -4.993146955966949463e-01 -7.820100188255310059e-01
6.058000000000000000e+03 1.350769138336181641e+01 1.210456371307373047e+01 3.212177008390426636e-02 1.780055761337280273e-01 6.303820759057998657e-02 3.700982034206390381e-02
6.059000000000000000e+03 1.997318077087402344e+01 1.924401855468750000e+01 3.070482611656188965e-02 1.170775368809700012e-01 4.433470964431762695e-02 6.357890367507934570e-02
6.060000000000000000e+03 1.770069313049316406e+01 1.813777351379394531e+01 2.316661179065704346e-02 1.217563226819038391e-01 4.347687959671020508e-02 5.546069890260696411e-02
6.061000000000000000e+03 4.407246017456054688e+01 1.653553962707519531e+01 -7.700352072715759277e-01 -6.985465884208679199e-01 -4.405745267868041992e-01 -8.625823855400085449e-01
6.062000000000000000e+03 4.347912979125976562e+01 1.620809936523437500e+01 -7.935368418693542480e-01 -7.474458217620849609e-01 -4.622947871685028076e-01 -8.883595466613769531e-01
6.063000000000000000e+03 4.715836334228515625e+01 1.983956336975097656e+01 -8.030931949615478516e-01 -5.565570592880249023e-01 -4.078950881958007812e-01 -8.080468177795410156e-01
6.064000000000000000e+03 4.774345779418945312e+01 2.019303321838378906e+01 -7.978931069374084473e-01 -4.917218089103698730e-01 -3.868844807147979736e-01 -7.805159687995910645e-01
6.065000000000000000e+03 3.703239440917968750e+01 7.667209625244140625e+00 -8.134524822235107422e-01 -7.907021045684814453e-01 -4.812463819980621338e-01 -6.691341996192932129e-01
6.066000000000000000e+03 3.793622589111328125e+01 9.414561271667480469e+00 -8.302335739135742188e-01 -8.511765599250793457e-01 -5.044230222702026367e-01 -7.603232264518737793e-01
6.067000000000000000e+03 2.236688041687011719e+01 2.154311370849609375e+01 3.052456118166446686e-02 1.063946485519409180e-01 4.107576236128807068e-02 6.247279420495033264e-02
6.068000000000000000e+03 3.149641418457031250e+01 2.010088682174682617e+00 -8.681819438934326172e-01 -6.886938214302062988e-01 -4.670627415180206299e-01 -1.475702673196792603e-01
6.069000000000000000e+03 4.304457473754882812e+01 1.519922828674316406e+01 -7.689027190208435059e-01 -7.127196788787841797e-01 -4.444867074489593506e-01 -8.452281355857849121e-01
6.070000000000000000e+03 6.346333312988281250e+01 2.214916992187500000e+01 3.804861009120941162e-02 3.068219661712646484e+00 9.318804740905761719e-01 9.024509787559509277e-01
6.071000000000000000e+03 5.368130874633789062e+01 2.576414680480957031e+01 -9.382361769676208496e-01 1.568576842546463013e-01 -2.344135642051696777e-01 -7.076908349990844727e-01
6.072000000000000000e+03 6.756684112548828125e+01 2.708700561523437500e+01 -2.508705258369445801e-01 4.956151485443115234e+00 1.411584258079528809e+00 2.269201755523681641e+00
6.073000000000000000e+03 1.128654384613037109e+01 9.559282302856445312e+00 6.218910589814186096e-02 1.645461171865463257e-01 6.802056729793548584e-02 -1.956391893327236176e-02
6.074000000000000000e+03 1.593826484680175781e+01 1.346258068084716797e+01 4.099830240011215210e-02 1.686651706695556641e-01 6.289903819561004639e-02 7.450734078884124756e-02
6.075000000000000000e+03 5.002587127685546875e+01 2.199562835693359375e+01 -8.004709482192993164e-01 -2.392243146896362305e-01 -3.119085729122161865e-01 -7.120490074157714844e-01
6.076000000000000000e+03 2.181760597229003906e+01 1.976512336730957031e+01 3.941931575536727905e-02 1.137676537036895752e-01 4.595609009265899658e-02 7.028191536664962769e-02
6.077000000000000000e+03 2.178527450561523438e+01 1.910070800781250000e+01 4.355635866522789001e-02 1.169713884592056274e-01 4.815832525491714478e-02 7.382461428642272949e-02
6.078000000000000000e+03 1.657071304321289062e+01 1.511799812316894531e+01 3.425801917910575867e-02 1.484957039356231689e-01 5.482611432671546936e-02 6.706075370311737061e-02
6.079000000000000000e+03 1.504450225830078125e+01 1.425366020202636719e+01 2.867967635393142700e-02 1.559127569198608398e-01 5.537773296236991882e-02 5.365826934576034546e-02
6.080000000000000000e+03 1.548506832122802734e+01 1.233105182647705078e+01 4.589495435357093811e-02 1.868687719106674194e-01 6.982912123203277588e-02 7.923103123903274536e-02
6.081000000000000000e+03 3.280192184448242188e+01 4.219169318675994873e-01 -2.910597920417785645e-01 -6.738762855529785156e-01 -2.894808053970336914e-01 1.419955305755138397e-02
6.082000000000000000e+03 3.323730850219726562e+01 4.937835931777954102e-01 -2.506842911243438721e-01 -6.481392979621887207e-01 -2.696470618247985840e-01 1.561973057687282562e-02
6.083000000000000000e+03 1.424361896514892578e+01 1.388516616821289062e+01 2.384493686258792877e-02 1.525695770978927612e-01 5.292435362935066223e-02 4.235980659723281860e-02
6.084000000000000000e+03 1.339730548858642578e+01 1.091397285461425781e+01 3.978154808282852173e-02 2.065117210149765015e-01 7.388798147439956665e-02 4.049262776970863342e-02
6.085000000000000000e+03 1.209566020965576172e+01 1.102429485321044922e+01 3.836998715996742249e-02 1.671738475561141968e-01 6.166314706206321716e-02 8.055097423493862152e-03
6.086000000000000000e+03 3.248439025878906250e+01 1.345765352249145508e+00 -5.604302287101745605e-01 -6.858665943145751953e-01 -3.738890588283538818e-01 -6.119688227772712708e-02
6.087000000000000000e+03 3.902269744873046875e+01 1.146406841278076172e+01 -8.573381304740905762e-01 -8.992128372192382812e-01 -5.269652605056762695e-01 -8.454377651214599609e-01
6.088000000000000000e+03 3.939503479003906250e+01 1.047788143157958984e+01 -7.700029611587524414e-01 -7.831645011901855469e-01 -4.659502208232879639e-01 -7.344447374343872070e-01
6.089000000000000000e+03 6.330938720703125000e+01 2.556010437011718750e+01 1.567159406840801239e-02 2.208921670913696289e+00 6.673780083656311035e-01 8.316736221313476562e-01
6.090000000000000000e+03 6.226499176025390625e+01 2.422410202026367188e+01 1.554007409140467644e-03 2.095308780670166016e+00 6.290588378906250000e-01 6.056272983551025391e-01
6.091000000000000000e+03 3.418761444091796875e+01 2.065854072570800781e+00 -5.538587570190429688e-01 -6.291254162788391113e-01 -3.548952639102935791e-01 -1.379038542509078979e-01
6.092000000000000000e+03 5.066891860961914062e+01 2.147950363159179688e+01 -7.201151847839355469e-01 -9.314151853322982788e-02 -2.439770102500915527e-01 -6.279829740524291992e-01
6.093000000000000000e+03 6.622993469238281250e+01 2.681932449340820312e+01 -2.404981292784214020e-02 3.706095933914184570e+00 1.104613780975341797e+00 1.837065458297729492e+00
6.094000000000000000e+03 6.393964385986328125e+01 2.590570831298828125e+01 3.679301589727401733e-02 2.412188053131103516e+00 7.346943020820617676e-01 1.014770269393920898e+00
6.095000000000000000e+03 6.513078308105468750e+01 2.610148048400878906e+01 3.153723478317260742e-02 3.083973407745361328e+00 9.346531629562377930e-01 1.399357438087463379e+00
6.096000000000000000e+03 2.062331581115722656e+01 2.007916450500488281e+01 3.042177110910415649e-02 1.136838123202323914e-01 4.323167353868484497e-02 6.316402554512023926e-02
6.097000000000000000e+03 3.627888107299804688e+01 -1.309740781784057617e+00 1.899533867835998535e-01 -5.353051424026489258e-01 -1.036055311560630798e-01 6.991864740848541260e-02
6.098000000000000000e+03 3.086875152587890625e+01 1.123196244239807129e+00 -6.421368718147277832e-01 -7.255123257637023926e-01 -4.102947711944580078e-01 -6.969662010669708252e-02
6.099000000000000000e+03 3.106563186645507812e+01 1.784187316894531250e+00 -8.610638380050659180e-01 -7.329818606376647949e-01 -4.782137274742126465e-01 -1.470869630575180054e-01
6.100000000000000000e+03 1.760067367553710938e+01 1.570770740509033203e+01 3.977247327566146851e-02 1.435808092355728149e-01 5.500598624348640442e-02 7.335670292377471924e-02
6.101000000000000000e+03 5.338429641723632812e+01 2.559623336791992188e+01 -9.458092451095581055e-01 1.032689437270164490e-01 -2.527621090412139893e-01 -7.147160768508911133e-01
6.102000000000000000e+03 3.475107955932617188e+01 4.407096862792968750e+00 -8.550205230712890625e-01 -6.930350065231323242e-01 -4.644166529178619385e-01 -4.352165758609771729e-01
6.103000000000000000e+03 3.562836074829101562e+01 5.216315746307373047e+00 -8.109890222549438477e-01 -7.062975764274597168e-01 -4.551860094070434570e-01 -4.991519451141357422e-01
6.104000000000000000e+03 1.252581787109375000e+01 1.081831932067871094e+01 4.091991484165191650e-02 1.882149428129196167e-01 6.874045729637145996e-02 1.686116680502891541e-02
6.105000000000000000e+03 2.151834297180175781e+01 1.945643615722656250e+01 3.934220597147941589e-02 1.158395111560821533e-01 4.655451700091362000e-02 7.094094157218933105e-02
6.106000000000000000e+03 7.051571655273437500e+01 2.871048164367675781e+01 -1.396547079086303711e+00 9.890093803405761719e+00 2.548064231872558594e+00 2.386893510818481445e+00
6.107000000000000000e+03 1.759978294372558594e+01 1.712965393066406250e+01 2.864491753280162811e-02 1.295723319053649902e-01 4.746517539024353027e-02 6.116032972931861877e-02
6.108000000000000000e+03 1.823157691955566406e+01 1.712663650512695312e+01 3.363915905356407166e-02 1.310976743698120117e-01 4.942104965448379517e-02 6.687121093273162842e-02
6.109000000000000000e+03 6.843939208984375000e+01 2.799462318420410156e+01 -4.643208980560302734e-01 6.087450981140136719e+00 1.686939001083374023e+00 2.725542068481445312e+00
6.110000000000000000e+03 5.310684585571289062e+01 2.532380294799804688e+01 -9.405574202537536621e-01 6.597679853439331055e-02 -2.623741924762725830e-01 -7.144550085067749023e-01
6.111000000000000000e+03 6.385417556762695312e+01 2.543385505676269531e+01 3.249439597129821777e-02 2.509419679641723633e+00 7.625741958618164062e-01 1.000687479972839355e+00
6.112000000000000000e+03 7.035172271728515625e+01 2.709650039672851562e+01 -1.211213469505310059e+00 8.599547386169433594e+00 2.216500043869018555e+00 1.911120414733886719e+00
6.113000000000000000e+03 3.405919265747070312e+01 4.631527423858642578e+00 -9.958657026290893555e-01 -7.276792526245117188e-01 -5.170634984970092773e-01 -5.178864002227783203e-01
6.114000000000000000e+03 3.339763259887695312e+01 3.232070446014404297e+00 -8.990460634231567383e-01 -6.901226639747619629e-01 -4.767506122589111328e-01 -3.083768784999847412e-01
6.115000000000000000e+03 3.305093002319335938e+01 2.662317276000976562e+00 -8.220822811126708984e-01 -6.859953403472900391e-01 -4.524232745170593262e-01 -2.179957479238510132e-01
6.116000000000000000e+03 3.345313644409179688e+01 1.803740024566650391e+00 -5.697665810585021973e-01 -6.537311077117919922e-01 -3.670493364334106445e-01 -1.037214025855064392e-01
6.117000000000000000e+03 3.131242561340332031e+01 1.344546318054199219e+00 -6.869951486587524414e-01 -6.677063107490539551e-01 -4.064104259014129639e-01 -6.704992800951004028e-02
6.118000000000000000e+03 2.428315925598144531e+01 2.503230094909667969e+01 2.326300740242004395e-02 9.297717362642288208e-02 3.487205505371093750e-02 5.337074026465415955e-02
6.119000000000000000e+03 5.910618209838867188e+01 2.489065170288085938e+01 -3.183048963546752930e-01 1.134285449981689453e+00 2.447941601276397705e-01 -7.972204685211181641e-02
6.120000000000000000e+03 6.949196624755859375e+01 2.506565093994140625e+01 -7.866132855415344238e-01 7.076819419860839844e+00 1.887061834335327148e+00 1.681743741035461426e+00
6.121000000000000000e+03 5.673195648193359375e+01 2.407384109497070312e+01 -4.823751151561737061e-01 8.080923557281494141e-01 9.771516174077987671e-02 -3.107992410659790039e-01
6.122000000000000000e+03 5.676225662231445312e+01 2.471792984008789062e+01 -5.450032353401184082e-01 7.429940104484558105e-01 5.939723923802375793e-02 -3.709991872310638428e-01
6.123000000000000000e+03 2.514068984985351562e+01 2.764945602416992188e+01 1.881900988519191742e-02 8.574950695037841797e-02 3.137055411934852600e-02 4.632417112588882446e-02
6.124000000000000000e+03 3.318273162841796875e+01 2.195598602294921875e+00 -7.131198048591613770e-01 -6.476792097091674805e-01 -4.082396924495697021e-01 -1.562526673078536987e-01
6.125000000000000000e+03 1.711054992675781250e+01 1.547060871124267578e+01 3.624636307358741760e-02 1.443292200565338135e-01 5.417267605662345886e-02 6.987716257572174072e-02
6.126000000000000000e+03 6.984304809570312500e+01 2.715755462646484375e+01 -1.052164912223815918e+00 8.014977455139160156e+00 2.088843822479248047e+00 2.167433261871337891e+00
6.127000000000000000e+03 2.472050285339355469e+01 2.674436569213867188e+01 1.951393112540245056e-02 8.822490274906158447e-02 3.232165053486824036e-02 4.867461696267127991e-02
6.128000000000000000e+03 3.732135009765625000e+01 -1.513232111930847168e+00 2.314777523279190063e-01 -4.714285135269165039e-01 -7.198522984981536865e-02 7.044266909360885620e-02
6.129000000000000000e+03 1.232318687438964844e+01 1.155419921875000000e+01 3.451377898454666138e-02 1.637830734252929688e-01 5.948905646800994873e-02 1.275497116148471832e-02
6.130000000000000000e+03 1.270453453063964844e+01 1.128546237945556641e+01 3.489786386489868164e-02 1.831935346126556396e-01 6.542741507291793823e-02 2.251326665282249451e-02
6.131000000000000000e+03 1.323720741271972656e+01 1.323293876647949219e+01 2.234173566102981567e-02 1.525330096483230591e-01 5.246242508292198181e-02 2.866474352777004242e-02
6.132000000000000000e+03 1.266549205780029297e+01 1.249902629852294922e+01 2.646469511091709137e-02 1.552316546440124512e-01 5.450890213251113892e-02 2.029958181083202362e-02
6.133000000000000000e+03 2.468819236755371094e+01 2.285901069641113281e+01 3.505782783031463623e-02 9.961768239736557007e-02 4.040265455842018127e-02 6.407047063112258911e-02
6.134000000000000000e+03 1.375300121307373047e+01 1.548235988616943359e+01 1.477749552577733994e-02 1.241973042488098145e-01 4.169243946671485901e-02 2.889128960669040680e-02
6.135000000000000000e+03 2.349603843688964844e+01 2.520628356933593750e+01 1.922987401485443115e-02 9.259557723999023438e-02 3.354763612151145935e-02 5.057825893163681030e-02
6.136000000000000000e+03 6.894939422607421875e+01 2.428131484985351562e+01 -5.883720517158508301e-01 6.464342594146728516e+00 1.762791156768798828e+00 1.554664492607116699e+00
6.137000000000000000e+03 6.882242584228515625e+01 2.548158454895019531e+01 -6.484159231185913086e-01 6.480772495269775391e+00 1.749706983566284180e+00 1.864546775817871094e+00
6.138000000000000000e+03 1.401856994628906250e+01 1.717697143554687500e+01 8.353409357368946075e-03 1.073062270879745483e-01 3.469789028167724609e-02 2.528077177703380585e-02
6.139000000000000000e+03 1.455665111541748047e+01 1.545598030090332031e+01 1.811137050390243530e-02 1.340550035238265991e-01 4.564991220831871033e-02 3.913734853267669678e-02
6.140000000000000000e+03 1.857869529724121094e+01 1.817531013488769531e+01 2.831450477242469788e-02 1.233236193656921387e-01 4.549143835902214050e-02 6.148163974285125732e-02
6.141000000000000000e+03 6.653031921386718750e+01 2.081660270690917969e+01 -1.208655759692192078e-01 4.775023937225341797e+00 1.396247506141662598e+00 1.158647775650024414e+00
6.142000000000000000e+03 6.717325592041015625e+01 2.206486701965332031e+01 -2.204446494579315186e-01 5.083158016204833984e+00 1.458813905715942383e+00 1.304488062858581543e+00
6.143000000000000000e+03 3.543949890136718750e+01 3.187412977218627930e+00 -5.956082344055175781e-01 -6.074677705764770508e-01 -3.609227836132049561e-01 -2.375271469354629517e-01
6.144000000000000000e+03 6.568771362304687500e+01 1.687078475952148438e+01 3.774000331759452820e-02 4.544224262237548828e+00 1.374589323997497559e+00 9.111126661300659180e-01
6.145000000000000000e+03 1.485142230987548828e+01 1.974183845520019531e+01 2.258823020383715630e-03 9.155679494142532349e-02 2.814468368887901306e-02 2.353983186185359955e-02
6.146000000000000000e+03 1.403097343444824219e+01 2.009222412109375000e+01 -7.174602360464632511e-04 8.105368912220001221e-02 2.410086989402770996e-02 1.577750407159328461e-02
6.147000000000000000e+03 6.628246307373046875e+01 1.477180385589599609e+01 6.160934641957283020e-02 4.806078910827636719e+00 1.460306525230407715e+00 8.691313862800598145e-01
6.148000000000000000e+03 6.461705017089843750e+01 1.351912021636962891e+01 1.223129555583000183e-01 4.225510597229003906e+00 1.304347038269042969e+00 8.059098720550537109e-01
6.149000000000000000e+03 6.108965301513671875e+01 2.490971946716308594e+01 -1.160862073302268982e-01 1.584903478622436523e+00 4.406451880931854248e-01 3.009322881698608398e-01
6.150000000000000000e+03 1.195083427429199219e+01 1.049172496795654297e+01 4.672764241695404053e-02 1.762389540672302246e-01 6.688997894525527954e-02 3.586589009501039982e-04
6.151000000000000000e+03 6.254973983764648438e+01 -1.745855808258056641e+00 2.503648698329925537e-01 3.900696516036987305e+00 1.245318412780761719e+00 5.564066171646118164e-01
6.152000000000000000e+03 6.094418716430664062e+01 -2.826811313629150391e+00 2.774234116077423096e-01 3.547184705734252930e+00 1.147382378578186035e+00 5.265105366706848145e-01
6.153000000000000000e+03 6.839728546142578125e+01 2.533058547973632812e+01 -5.312622189521789551e-01 6.107964992523193359e+00 1.673010826110839844e+00 1.824304819107055664e+00
6.154000000000000000e+03 6.809548950195312500e+01 2.274039268493652344e+01 -3.697862625122070312e-01 5.717659950256347656e+00 1.604362130165100098e+00 1.363112092018127441e+00
6.155000000000000000e+03 1.442893695831298828e+01 2.102766036987304688e+01 -2.276327228173613548e-03 7.770613580942153931e-02 2.262894250452518463e-02 1.639556884765625000e-02
6.156000000000000000e+03 1.573074817657470703e+01 2.145499229431152344e+01 7.050203857943415642e-04 8.569642901420593262e-02 2.592043392360210419e-02 2.455078437924385071e-02
6.157000000000000000e+03 6.385791397094726562e+01 5.633744239807128906e+00 2.184511423110961914e-01 4.166848182678222656e+00 1.315589785575866699e+00 6.818802356719970703e-01
6.158000000000000000e+03 6.407782745361328125e+01 3.339964523911476135e-02 2.258661091327667236e-01 4.280102729797363281e+00 1.351790666580200195e+00 5.952113270759582520e-01
6.159000000000000000e+03 3.972751617431640625e+01 -2.064439296722412109e+00 3.137639164924621582e-01 -2.717252969741821289e-01 1.261158846318721771e-02 8.973482996225357056e-02
6.160000000000000000e+03 6.419384002685546875e+01 4.115580558776855469e+00 2.158249318599700928e-01 4.270161628723144531e+00 1.345795989036560059e+00 6.596767902374267578e-01
6.161000000000000000e+03 6.326419448852539062e+01 3.633377075195312500e+00 2.291102409362792969e-01 4.026311874389648438e+00 1.276626706123352051e+00 6.434515118598937988e-01
6.162000000000000000e+03 6.466251373291015625e+01 5.999263286590576172e+00 2.014083415269851685e-01 4.382819175720214844e+00 1.375268340110778809e+00 6.881864070892333984e-01
6.163000000000000000e+03 6.498473358154296875e+01 1.224293708801269531e+01 1.347961276769638062e-01 4.392165184020996094e+00 1.358088493347167969e+00 7.920761108398437500e-01
6.164000000000000000e+03 6.805084991455078125e+01 2.415354347229003906e+01 -4.264520406723022461e-01 5.754752635955810547e+00 1.598490238189697266e+00 1.633418083190917969e+00
6.165000000000000000e+03 6.802603912353515625e+01 2.208951759338378906e+01 -3.216741085052490234e-01 5.699468612670898438e+00 1.613338351249694824e+00 1.310682773590087891e+00
6.166000000000000000e+03 2.576918601989746094e+01 3.040778923034667969e+01 1.678339950740337372e-02 7.869558781385421753e-02 2.864369563758373260e-02 3.833054751157760620e-02
6.167000000000000000e+03 2.376075553894042969e+01 2.715784835815429688e+01 1.455525960773229599e-02 8.582961559295654297e-02 3.011546283960342407e-02 4.407848045229911804e-02
6.168000000000000000e+03 6.622580718994140625e+01 1.626165199279785156e+01 3.308685496449470520e-02 4.770751953125000000e+00 1.441151738166809082e+00 8.949015140533447266e-01
6.169000000000000000e+03 6.417826843261718750e+01 1.274465465545654297e+01 1.453837901353836060e-01 4.103463649749755859e+00 1.274654269218444824e+00 7.746769785881042480e-01
6.170000000000000000e+03 6.434210968017578125e+01 1.015379238128662109e+01 1.766549497842788696e-01 4.238359451293945312e+00 1.324504375457763672e+00 7.411004304885864258e-01
6.171000000000000000e+03 1.451725673675537109e+01 1.888041305541992188e+01 4.194537177681922913e-03 9.608756750822067261e-02 3.008463047444820404e-02 2.365538850426673889e-02
6.172000000000000000e+03 2.413774108886718750e+01 2.427774810791015625e+01 2.455943822860717773e-02 9.537545591592788696e-02 3.598047047853469849e-02 5.580834299325942993e-02
6.173000000000000000e+03 2.712806510925292969e+01 3.100814056396484375e+01 2.055567689239978790e-02 7.860068976879119873e-02 2.974691055715084076e-02 3.998816013336181641e-02
6.174000000000000000e+03 2.275218582153320312e+01 2.889588356018066406e+01 7.644302677363157272e-03 7.897070795297622681e-02 2.598450332880020142e-02 3.480967134237289429e-02
6.175000000000000000e+03 2.657172775268554688e+01 2.913397979736328125e+01 2.150722406804561615e-02 8.267869800329208374e-02 3.125577419996261597e-02 4.527729004621505737e-02
6.176000000000000000e+03 6.242511367797851562e+01 -8.058607101440429688e+00 2.078109234571456909e-01 3.959346532821655273e+00 1.250147223472595215e+00 4.403131902217864990e-01
6.177000000000000000e+03 6.380303955078125000e+01 -6.988077163696289062e+00 1.983512192964553833e-01 4.229275703430175781e+00 1.328288078308105469e+00 4.702935516834259033e-01
6.178000000000000000e+03 6.347848510742187500e+01 -5.875468254089355469e+00 2.101304829120635986e-01 4.150308132171630859e+00 1.308131575584411621e+00 4.948187768459320068e-01
6.179000000000000000e+03 2.914501762390136719e+01 3.179377937316894531e+01 2.480198815464973450e-02 7.602290809154510498e-02 3.024746850132942200e-02 3.953876346349716187e-02
6.180000000000000000e+03 2.844158744812011719e+01 3.092036247253417969e+01 2.360578067600727081e-02 7.735475897789001465e-02 3.028816170990467072e-02 4.142234474420547485e-02
6.181000000000000000e+03 6.423883056640625000e+01 -8.205922126770019531e+00 1.879462450742721558e-01 4.356586933135986328e+00 1.363359928131103516e+00 4.474214017391204834e-01
6.182000000000000000e+03 6.193388366699218750e+01 -4.067867755889892578e+00 2.503721117973327637e-01 3.770379304885864258e+00 1.206225514411926270e+00 5.032666921615600586e-01
6.183000000000000000e+03 6.411376953125000000e+01 8.819620132446289062e+00 1.866858601570129395e-01 4.190351486206054688e+00 1.313111186027526855e+00 7.208844423294067383e-01
6.184000000000000000e+03 6.639184570312500000e+01 1.740810394287109375e+01 -3.051062813028693199e-03 4.831331253051757812e+00 1.448484063148498535e+00 9.483836293220520020e-01
6.185000000000000000e+03 1.611213302612304688e+01 3.173772048950195312e+01 -7.489386014640331268e-03 3.937115892767906189e-02 9.564531967043876648e-03 6.962460000067949295e-03
6.186000000000000000e+03 6.644235992431640625e+01 1.557339477539062500e+01 3.356409817934036255e-02 4.853956699371337891e+00 1.466256260871887207e+00 8.803648352622985840e-01
6.187000000000000000e+03 2.164627647399902344e+01 2.622241783142089844e+01 9.884625673294067383e-03 8.651266247034072876e-02 2.891918644309043884e-02 4.004082083702087402e-02
6.188000000000000000e+03 1.535211849212646484e+01 2.476332092285156250e+01 -5.824687890708446503e-03 6.293965131044387817e-02 1.713448762893676758e-02 1.401243545114994049e-02
6.189000000000000000e+03 4.141803359985351562e+01 -3.962340354919433594e+00 4.455286860466003418e-01 -6.191741302609443665e-02 1.150833815336227417e-01 9.572953730821609497e-02
6.190000000000000000e+03 4.072067642211914062e+01 -3.351623535156250000e+00 3.968881964683532715e-01 -1.532417684793472290e-01 7.309392839670181274e-02 9.926687180995941162e-02
6.191000000000000000e+03 4.643567657470703125e+01 -7.883465290069580078e+00 4.474133253097534180e-01 7.254633903503417969e-01 3.518630266189575195e-01 1.450383365154266357e-01
6.192000000000000000e+03 4.616618728637695312e+01 -6.603517532348632812e+00 4.493173956871032715e-01 6.470837593078613281e-01 3.289203643798828125e-01 1.491032093763351440e-01
6.193000000000000000e+03 5.565451812744140625e+01 -1.733942413330078125e+01 1.526265293359756470e-01 2.642277479171752930e+00 8.384711742401123047e-01 2.430226355791091919e-01
6.194000000000000000e+03 5.347930145263671875e+01 -1.648174476623535156e+01 1.860759556293487549e-01 2.229412794113159180e+00 7.246465682983398438e-01 2.083792686462402344e-01
6.195000000000000000e+03 5.099852752685546875e+01 -1.741602325439453125e+01 1.729786694049835205e-01 1.771899580955505371e+00 5.834634900093078613e-01 1.548572778701782227e-01
6.196000000000000000e+03 5.169433212280273438e+01 -1.536487674713134766e+01 2.321486324071884155e-01 1.844889879226684570e+00 6.231115460395812988e-01 1.771157383918762207e-01
6.197000000000000000e+03 6.333301162719726562e+01 -1.859070014953613281e+01 9.555905312299728394e-02 4.163170814514160156e+00 1.277618885040283203e+00 3.194321393966674805e-01
6.198000000000000000e+03 6.512800598144531250e+01 7.239089012145996094e+00 1.916894912719726562e-01 4.508602142333984375e+00 1.410087466239929199e+00 7.135275006294250488e-01
6.199000000000000000e+03 5.773814010620117188e+01 -1.980759429931640625e+01 1.044924408197402954e-01 3.095545291900634766e+00 9.600113034248352051e-01 2.714817821979522705e-01
6.200000000000000000e+03 5.778842926025390625e+01 -1.740974235534667969e+01 1.409904807806015015e-01 3.066177129745483398e+00 9.621502757072448730e-01 2.791804969310760498e-01
6.201000000000000000e+03 6.314468765258789062e+01 2.197330951690673828e+00 2.402961552143096924e-01 4.018438339233398438e+00 1.277620315551757812e+00 6.247802376747131348e-01
6.202000000000000000e+03 5.996785736083984375e+01 -1.744534492492675781e+01 1.276737302541732788e-01 3.507011175155639648e+00 1.090405464172363281e+00 3.058373332023620605e-01
6.203000000000000000e+03 6.113917922973632812e+01 -2.118503952026367188e+01 8.287671953439712524e-02 3.754327297210693359e+00 1.151161193847656250e+00 2.999290227890014648e-01
6.204000000000000000e+03 6.449406433105468750e+01 -1.972969627380371094e+01 7.757994532585144043e-02 4.388952732086181641e+00 1.339959859848022461e+00 3.138141632080078125e-01
6.205000000000000000e+03 4.966308975219726562e+01 -1.335556411743164062e+01 3.115437626838684082e-01 1.433592796325683594e+00 5.235409736633300781e-01 1.422486305236816406e-01
6.206000000000000000e+03 3.567565917968750000e+01 3.914797973632812500e+01 5.566043034195899963e-02 5.672368779778480530e-02 3.371523693203926086e-02 2.005163393914699554e-02
6.207000000000000000e+03 3.232537078857421875e+01 4.137281036376953125e+01 3.719946369528770447e-02 6.336017698049545288e-02 3.016789257526397705e-02 4.640527535229921341e-03
6.208000000000000000e+03 1.268422698974609375e+01 -2.852496528625488281e+01 1.665390878915786743e-01 -6.074230670928955078e-01 -1.322651952505111694e-01 -2.710908055305480957e-01
6.209000000000000000e+03 1.843142318725585938e+01 -2.694715499877929688e+01 2.504324316978454590e-01 -1.630528122186660767e-01 2.621388062834739685e-02 -3.194596469402313232e-01
6.210000000000000000e+03 4.833155441284179688e+01 -1.129316043853759766e+01 3.787520229816436768e-01 1.137056112289428711e+00 4.547424316406250000e-01 1.366483420133590698e-01
6.211000000000000000e+03 4.029768371582031250e+01 1.339440155029296875e+01 -8.809670805931091309e-01 -9.045685529708862305e-01 -5.356606841087341309e-01 -9.072552323341369629e-01
6.212000000000000000e+03 4.061780166625976562e+01 1.294755077362060547e+01 -8.221922516822814941e-01 -8.318668603897094727e-01 -4.962177276611328125e-01 -8.433552384376525879e-01
6.213000000000000000e+03 3.973695373535156250e+01 1.222797870635986328e+01 -8.500794768333435059e-01 -8.765925168991088867e-01 -5.180015563964843750e-01 -8.511471152305603027e-01
6.214000000000000000e+03 4.267300415039062500e+01 1.428946495056152344e+01 -7.437738776206970215e-01 -6.880533695220947266e-01 -4.295481741428375244e-01 -8.008749485015869141e-01
6.215000000000000000e+03 4.897827529907226562e+01 2.082835388183593750e+01 -7.757194042205810547e-01 -3.372968137264251709e-01 -3.339048624038696289e-01 -7.199516296386718750e-01
6.216000000000000000e+03 4.853867340087890625e+01 2.100985336303710938e+01 -8.222339749336242676e-01 -4.265566468238830566e-01 -3.746371865272521973e-01 -7.667726874351501465e-01
6.217000000000000000e+03 5.092266082763671875e+01 2.375489425659179688e+01 -9.152619242668151855e-01 -2.266696393489837646e-01 -3.425794839859008789e-01 -7.665971517562866211e-01
6.218000000000000000e+03 4.729900360107421875e+01 2.030450439453125000e+01 -8.377639651298522949e-01 -5.761983990669250488e-01 -4.241887032985687256e-01 -8.267279267311096191e-01
6.219000000000000000e+03 4.568838882446289062e+01 1.834585952758789062e+01 -7.762231826782226562e-01 -6.466819643974304199e-01 -4.268715381622314453e-01 -8.422876596450805664e-01
6.220000000000000000e+03 5.143709182739257812e+01 2.415427017211914062e+01 -9.232994318008422852e-01 -1.628039032220840454e-01 -3.258309960365295410e-01 -7.537670731544494629e-01
6.221000000000000000e+03 5.278224945068359375e+01 2.506415367126464844e+01 -9.258835315704345703e-01 2.570828422904014587e-02 -2.700525820255279541e-01 -7.188889384269714355e-01
6.222000000000000000e+03 5.368190383911132812e+01 2.449879455566406250e+01 -8.011461496353149414e-01 2.350644022226333618e-01 -1.698245108127593994e-01 -6.135675907135009766e-01
6.223000000000000000e+03 4.554672622680664062e+01 1.792499160766601562e+01 -7.561129331588745117e-01 -6.277942657470703125e-01 -4.151721596717834473e-01 -8.273280262947082520e-01
6.224000000000000000e+03 4.662450790405273438e+01 1.809998130798339844e+01 -6.982721686363220215e-01 -4.866546094417572021e-01 -3.554780185222625732e-01 -7.424713969230651855e-01
6.225000000000000000e+03 6.999440765380859375e+01 2.827973556518554688e+01 -1.152230978012084961e+00 8.738737106323242188e+00 2.275951862335205078e+00 2.556771516799926758e+00
6.226000000000000000e+03 5.180779647827148438e+01 2.411783599853515625e+01 -8.924576044082641602e-01 -8.612944185733795166e-02 -2.935761213302612305e-01 -7.230124473571777344e-01
6.227000000000000000e+03 4.563389587402343750e+01 1.653175735473632812e+01 -6.568458080291748047e-01 -4.926261901855468750e-01 -3.448415994644165039e-01 -7.248504757881164551e-01
6.228000000000000000e+03 4.931634521484375000e+01 2.119731903076171875e+01 -7.852876782417297363e-01 -3.104951977729797363e-01 -3.287348747253417969e-01 -7.166495323181152344e-01
6.229000000000000000e+03 4.588735961914062500e+01 1.737352943420410156e+01 -6.954285502433776855e-01 -5.297089219093322754e-01 -3.675412535667419434e-01 -7.601833939552307129e-01
6.230000000000000000e+03 4.615370559692382812e+01 1.822072982788085938e+01 -7.383112311363220215e-01 -5.675088763236999512e-01 -3.917460441589355469e-01 -7.921274900436401367e-01
6.231000000000000000e+03 4.972391510009765625e+01 2.142409896850585938e+01 -7.781970500946044922e-01 -2.541905939579010010e-01 -3.097162842750549316e-01 -7.011345624923706055e-01
6.232000000000000000e+03 4.960455322265625000e+01 2.181621170043945312e+01 -8.160958886146545410e-01 -3.031297624111175537e-01 -3.357676863670349121e-01 -7.356871366500854492e-01
6.233000000000000000e+03 4.133618545532226562e+01 1.400662422180175781e+01 -8.322684764862060547e-01 -8.235286474227905273e-01 -4.967391490936279297e-01 -8.765996694564819336e-01
6.234000000000000000e+03 4.601971054077148438e+01 1.779646682739257812e+01 -7.147998809814453125e-01 -5.493419766426086426e-01 -3.792425394058227539e-01 -7.766038775444030762e-01
6.235000000000000000e+03 3.732666778564453125e+01 8.659579277038574219e+00 -8.428735136985778809e-01 -8.454688191413879395e-01 -5.065026879310607910e-01 -7.412888407707214355e-01
6.236000000000000000e+03 3.802001571655273438e+01 8.752334594726562500e+00 -7.832107543945312500e-01 -7.899370789527893066e-01 -4.719443619251251221e-01 -6.927024126052856445e-01
6.237000000000000000e+03 3.930510330200195312e+01 1.003483486175537109e+01 -7.505032420158386230e-01 -7.648042440414428711e-01 -4.545922577381134033e-01 -7.092356681823730469e-01
6.238000000000000000e+03 4.004898071289062500e+01 1.133734989166259766e+01 -7.665634751319885254e-01 -7.789598703384399414e-01 -4.636570215225219727e-01 -7.574834227561950684e-01
6.239000000000000000e+03 4.575907897949218750e+01 1.695150375366210938e+01 -6.740989685058593750e-01 -5.117062330245971680e-01 -3.557415604591369629e-01 -7.435531020164489746e-01
6.240000000000000000e+03 4.084737014770507812e+01 1.355030059814453125e+01 -8.487935662269592285e-01 -8.523630499839782715e-01 -5.103469491004943848e-01 -8.761650323867797852e-01
6.241000000000000000e+03 4.025303649902343750e+01 1.297891330718994141e+01 -8.532025218009948730e-01 -8.760737180709838867e-01 -5.187828540802001953e-01 -8.742366433143615723e-01
6.242000000000000000e+03 5.477230072021484375e+01 2.423788833618164062e+01 -6.847602128982543945e-01 4.456948041915893555e-01 -7.171961665153503418e-02 -5.080835223197937012e-01
6.243000000000000000e+03 3.452642440795898438e+01 -1.034291163086891174e-01 -6.690969318151473999e-02 -6.255558729171752930e-01 -2.077396810054779053e-01 5.320380628108978271e-02
6.244000000000000000e+03 4.834379196166992188e+01 2.053203964233398438e+01 -7.858206033706665039e-01 -4.179489612579345703e-01 -3.611308634281158447e-01 -7.516380548477172852e-01
6.245000000000000000e+03 4.934526824951171875e+01 2.056023788452148438e+01 -7.227739095687866211e-01 -2.442398965358734131e-01 -2.901041507720947266e-01 -6.688843965530395508e-01
6.246000000000000000e+03 5.219952011108398438e+01 2.425328826904296875e+01 -8.803425431251525879e-01 -2.369761094450950623e-02 -2.712120413780212402e-01 -7.001074552536010742e-01
6.247000000000000000e+03 6.795420074462890625e+01 2.797593498229980469e+01 -2.833223044872283936e-01 5.299571514129638672e+00 1.504874825477600098e+00 2.626077651977539062e+00
6.248000000000000000e+03 6.943368530273437500e+01 2.783126640319824219e+01 -9.026530385017395020e-01 7.671733379364013672e+00 2.030724048614501953e+00 2.575730085372924805e+00
6.249000000000000000e+03 3.771259307861328125e+01 8.380463600158691406e+00 -7.902160286903381348e-01 -7.905898690223693848e-01 -4.742417633533477783e-01 -6.849963068962097168e-01
6.250000000000000000e+03 4.348154449462890625e+01 1.523816585540771484e+01 -7.396947145462036133e-01 -6.633920073509216309e-01 -4.209260046482086182e-01 -8.119710683822631836e-01
6.251000000000000000e+03 4.311232757568359375e+01 1.474952030181884766e+01 -7.384930849075317383e-01 -6.660697460174560547e-01 -4.213688373565673828e-01 -8.000504374504089355e-01
6.252000000000000000e+03 2.137560653686523438e+01 1.984740257263183594e+01 3.634202480316162109e-02 1.137529239058494568e-01 4.502848535776138306e-02 6.759218871593475342e-02
6.253000000000000000e+03 2.215692138671875000e+01 2.086811065673828125e+01 3.292554244399070740e-02 1.087655574083328247e-01 4.250733181834220886e-02 6.506078690290451050e-02
6.254000000000000000e+03 1.827200126647949219e+01 1.775668907165527344e+01 2.940206602215766907e-02 1.262694895267486572e-01 4.670146480202674866e-02 6.233573332428932190e-02
6.255000000000000000e+03 3.830764770507812500e+01 9.696316719055175781e+00 -8.184367418289184570e-01 -8.382768034934997559e-01 -4.970140755176544189e-01 -7.584781646728515625e-01
6.256000000000000000e+03 4.454901885986328125e+01 1.640410232543945312e+01 -7.254827618598937988e-01 -6.249107122421264648e-01 -4.051180481910705566e-01 -8.094419836997985840e-01
6.257000000000000000e+03 4.053126907348632812e+01 1.130241394042968750e+01 -7.267749309539794922e-01 -7.186670303344726562e-01 -4.336325824260711670e-01 -7.193143963813781738e-01
6.258000000000000000e+03 4.342769622802734375e+01 1.572422790527343750e+01 -7.726205587387084961e-01 -7.157530784606933594e-01 -4.465121030807495117e-01 -8.569297194480895996e-01
6.259000000000000000e+03 4.396863937377929688e+01 1.610761833190917969e+01 -7.508317828178405762e-01 -6.722456812858581543e-01 -4.269232451915740967e-01 -8.388977646827697754e-01
6.260000000000000000e+03 3.272537994384765625e+01 2.039020538330078125e+00 -7.443165779113769531e-01 -6.880990266799926758e-01 -4.297246932983398438e-01 -1.451610177755355835e-01
6.261000000000000000e+03 3.831262207031250000e+01 9.108495712280273438e+00 -7.746897339820861816e-01 -7.853077054023742676e-01 -4.679992198944091797e-01 -7.027322649955749512e-01
6.262000000000000000e+03 3.858247375488281250e+01 9.420059204101562500e+00 -7.760838270187377930e-01 -7.852572798728942871e-01 -4.684023261070251465e-01 -7.083533406257629395e-01
6.263000000000000000e+03 3.878352737426757812e+01 1.011494827270507812e+01 -7.970933318138122559e-01 -8.178846836090087891e-01 -4.844934046268463135e-01 -7.507107853889465332e-01
6.264000000000000000e+03 6.655733489990234375e+01 2.660873031616210938e+01 -8.479286730289459229e-02 4.075463294982910156e+00 1.197201132774353027e+00 1.917104005813598633e+00
6.265000000000000000e+03 6.784315490722656250e+01 2.556314849853515625e+01 -3.774178028106689453e-01 5.487423419952392578e+00 1.533001780509948730e+00 1.885343313217163086e+00
6.266000000000000000e+03 1.472827625274658203e+01 1.478445625305175781e+01 2.128603495657444000e-02 1.433203816413879395e-01 4.938192665576934814e-02 4.529554769396781921e-02
6.267000000000000000e+03 4.998158264160156250e+01 2.057438278198242188e+01 -6.835877895355224609e-01 -1.335407942533493042e-01 -2.451385706663131714e-01 -6.205292344093322754e-01
6.268000000000000000e+03 4.955619049072265625e+01 2.221521759033203125e+01 -8.694577217102050781e-01 -3.477189540863037109e-01 -3.651530146598815918e-01 -7.706924676895141602e-01
6.269000000000000000e+03 6.894142150878906250e+01 2.794862365722656250e+01 -6.687741279602050781e-01 6.879437446594238281e+00 1.863198995590209961e+00 2.711964130401611328e+00
6.270000000000000000e+03 5.036304855346679688e+01 2.341958618164062500e+01 -9.239635467529296875e-01 -3.066327571868896484e-01 -3.691788911819458008e-01 -7.893179059028625488e-01
6.271000000000000000e+03 4.988537597656250000e+01 2.265308570861816406e+01 -8.867551684379577637e-01 -3.307588994503021240e-01 -3.652542233467102051e-01 -7.778192758560180664e-01
6.272000000000000000e+03 1.603298568725585938e+01 1.454997634887695312e+01 3.353160992264747620e-02 1.545960754156112671e-01 5.643830820918083191e-02 6.519515812397003174e-02
6.273000000000000000e+03 1.551463222503662109e+01 1.331408882141113281e+01 3.814048692584037781e-02 1.721609085798263550e-01 6.309041380882263184e-02 6.908844411373138428e-02
6.274000000000000000e+03 1.380665397644042969e+01 1.271520328521728516e+01 2.906749956309795380e-02 1.697061061859130859e-01 5.963208153843879700e-02 4.206603020429611206e-02
6.275000000000000000e+03 1.669944381713867188e+01 1.559772777557373047e+01 3.230777382850646973e-02 1.428934335708618164e-01 5.256036296486854553e-02 6.413300335407257080e-02
6.276000000000000000e+03 1.486992454528808594e+01 1.254995059967041016e+01 3.749875351786613464e-02 1.813827008008956909e-01 6.566444039344787598e-02 6.452752649784088135e-02
6.277000000000000000e+03 1.488431549072265625e+01 1.359213352203369141e+01 3.038798458874225616e-02 1.645322293043136597e-01 5.847606435418128967e-02 5.612920597195625305e-02
6.278000000000000000e+03 6.922055053710937500e+01 2.666157150268554688e+01 -8.092935681343078613e-01 7.078153133392333984e+00 1.880657792091369629e+00 2.162393093109130859e+00
6.279000000000000000e+03 6.752604675292968750e+01 2.750564575195312500e+01 -2.007419914007186890e-01 4.821886062622070312e+00 1.386343240737915039e+00 2.374905347824096680e+00
6.280000000000000000e+03 6.325051498413085938e+01 2.500259017944335938e+01 2.725402452051639557e-02 2.342428445816040039e+00 7.109047174453735352e-01 8.410188555717468262e-01
6.281000000000000000e+03 1.468385314941406250e+01 1.298201847076416016e+01 3.340729326009750366e-02 1.739698499441146851e-01 6.221314519643783569e-02 5.701738968491554260e-02
6.282000000000000000e+03 3.513621520996093750e+01 4.840150833129882812e+00 -8.495445251464843750e-01 -6.946509480476379395e-01 -4.632586538791656494e-01 -4.752332568168640137e-01
6.283000000000000000e+03 3.801965332031250000e+01 7.012844562530517578e+00 -6.781139969825744629e-01 -6.634784936904907227e-01 -4.024777412414550781e-01 -5.333200693130493164e-01
6.284000000000000000e+03 6.635712432861328125e+01 2.617349433898925781e+01 -8.318168669939041138e-02 4.016676425933837891e+00 1.180048346519470215e+00 1.786160826683044434e+00
6.285000000000000000e+03 6.555440521240234375e+01 2.583692741394042969e+01 5.135095561854541302e-04 3.465910673141479492e+00 1.039927244186401367e+00 1.511560201644897461e+00
6.286000000000000000e+03 3.223112869262695312e+01 1.827058553695678711e+00 -7.262994647026062012e-01 -6.736947298049926758e-01 -4.199982583522796631e-01 -1.174965873360633850e-01
6.287000000000000000e+03 3.954740524291992188e+01 1.138702392578125000e+01 -8.133985996246337891e-01 -8.348885774612426758e-01 -4.944861531257629395e-01 -7.992192506790161133e-01
6.288000000000000000e+03 2.025390625000000000e+01 1.980709075927734375e+01 2.973052859306335449e-02 1.141288802027702332e-01 4.315782338380813599e-02 6.192702427506446838e-02
6.289000000000000000e+03 1.877238655090332031e+01 1.904561805725097656e+01 2.407443709671497345e-02 1.171410530805587769e-01 4.236464574933052063e-02 5.709630995988845825e-02
6.290000000000000000e+03 1.942221260070800781e+01 1.914438056945800781e+01 2.833098545670509338e-02 1.176871061325073242e-01 4.380542784929275513e-02 6.095996499061584473e-02
6.291000000000000000e+03 3.176324653625488281e+01 1.575996994972229004e+00 -7.102599740028381348e-01 -7.056370377540588379e-01 -4.247691035270690918e-01 -9.667804092168807983e-02
6.292000000000000000e+03 3.994227218627929688e+01 1.040034484863281250e+01 -7.176772952079772949e-01 -7.196598052978515625e-01 -4.312011301517486572e-01 -6.874321699142456055e-01
6.293000000000000000e+03 3.738680648803710938e+01 8.015785217285156250e+00 -8.008211851119995117e-01 -7.881423830986022949e-01 -4.766890704631805420e-01 -6.737517118453979492e-01
6.294000000000000000e+03 3.677275848388671875e+01 6.472804546356201172e+00 -7.729307413101196289e-01 -7.159270048141479492e-01 -4.466573297977447510e-01 -5.673465132713317871e-01
6.295000000000000000e+03 2.386857414245605469e+01 2.281930541992187500e+01 3.096864931285381317e-02 1.004621461033821106e-01 3.942923992872238159e-02 6.170880421996116638e-02
6.296000000000000000e+03 4.747047042846679688e+01 1.928111457824707031e+01 -7.358071804046630859e-01 -4.571590721607208252e-01 -3.578898906707763672e-01 -7.443683743476867676e-01
6.297000000000000000e+03 6.539934539794921875e+01 2.423554801940917969e+01 -3.465144708752632141e-02 3.742405414581298828e+00 1.112326145172119141e+00 1.346551656723022461e+00
6.298000000000000000e+03 6.439190673828125000e+01 2.578055381774902344e+01 4.140124097466468811e-02 2.708459377288818359e+00 8.249582052230834961e-01 1.149795055389404297e+00
6.299000000000000000e+03 5.367733001708984375e+01 2.533570289611816406e+01 -8.903335332870483398e-01 1.786924898624420166e-01 -2.134923189878463745e-01 -6.743832230567932129e-01
6.300000000000000000e+03 5.567372512817382812e+01 2.373110961914062500e+01 -5.457615852355957031e-01 6.598792076110839844e-01 3.423530235886573792e-02 -3.811707198619842529e-01
6.301000000000000000e+03 6.480787658691406250e+01 2.581925964355468750e+01 3.677397966384887695e-02 2.955893516540527344e+00 8.978002667427062988e-01 1.296540260314941406e+00
6.302000000000000000e+03 6.611042022705078125e+01 2.467258071899414062e+01 -9.779311716556549072e-02 4.170443534851074219e+00 1.221795201301574707e+00 1.547297716140747070e+00
6.303000000000000000e+03 5.666426849365234375e+01 2.342148399353027344e+01 -4.218679964542388916e-01 8.666281104087829590e-01 1.334280371665954590e-01 -2.549738585948944092e-01
6.304000000000000000e+03 5.620946884155273438e+01 2.418276214599609375e+01 -5.418732166290283203e-01 7.046357393264770508e-01 4.882875457406044006e-02 -3.741839826107025146e-01
6.305000000000000000e+03 2.150750541687011719e+01 2.093425559997558594e+01 2.968534827232360840e-02 1.089408993721008301e-01 4.158787429332733154e-02 6.201840192079544067e-02
6.306000000000000000e+03 2.091732025146484375e+01 2.044620323181152344e+01 2.974655665457248688e-02 1.110075488686561584e-01 4.222623258829116821e-02 6.194514036178588867e-02
6.307000000000000000e+03 4.022740554809570312e+01 1.258282089233398438e+01 -8.333908319473266602e-01 -8.480775952339172363e-01 -5.044405460357666016e-01 -8.435040712356567383e-01
6.308000000000000000e+03 4.228892135620117188e+01 1.373486995697021484e+01 -7.344526648521423340e-01 -6.856237649917602539e-01 -4.260229170322418213e-01 -7.785632610321044922e-01
6.309000000000000000e+03 1.759758377075195312e+01 2.112335586547851562e+01 9.009011089801788330e-03 1.001058816909790039e-01 3.273446857929229736e-02 3.829004243016242981e-02
6.310000000000000000e+03 1.525083255767822266e+01 2.059875869750976562e+01 1.635498367249965668e-03 8.867597579956054688e-02 2.709344215691089630e-02 2.370930649340152740e-02
6.311000000000000000e+03 1.730579185485839844e+01 1.763109207153320312e+01 2.393278293311595917e-02 1.258373707532882690e-01 4.493104666471481323e-02 5.557043105363845825e-02
6.312000000000000000e+03 1.426188659667968750e+01 1.283000755310058594e+01 3.139037638902664185e-02 1.704397946596145630e-01 6.054905056953430176e-02 5.085384100675582886e-02
6.313000000000000000e+03 6.927822875976562500e+01 2.570150184631347656e+01 -7.868950366973876953e-01 7.009776592254638672e+00 1.866864442825317383e+00 1.879424333572387695e+00
6.314000000000000000e+03 6.031035232543945312e+01 2.449468612670898438e+01 -1.593350470066070557e-01 1.474659800529479980e+00 3.945974409580230713e-01 1.797468215227127075e-01
6.315000000000000000e+03 1.448609828948974609e+01 1.342358303070068359e+01 2.914067544043064117e-02 1.630171537399291992e-01 5.764734745025634766e-02 5.103975161910057068e-02
6.316000000000000000e+03 3.319896697998046875e+01 1.014366388320922852e+00 -4.243031442165374756e-01 -6.666239500045776367e-01 -3.272781372070312500e-01 -3.267172724008560181e-02
6.317000000000000000e+03 3.379976654052734375e+01 9.726067781448364258e-01 -3.417588770389556885e-01 -6.325161457061767578e-01 -2.922824919223785400e-01 -2.694024890661239624e-02
6.318000000000000000e+03 1.588891506195068359e+01 1.591511440277099609e+01 2.407994680106639862e-02 1.371517926454544067e-01 4.836952313780784607e-02 5.231047794222831726e-02
6.319000000000000000e+03 6.173144912719726562e+01 2.462019348144531250e+01 -4.947195947170257568e-02 1.851038336753845215e+00 5.404698848724365234e-01 4.762623906135559082e-01
6.320000000000000000e+03 3.692374420166015625e+01 1.448854804039001465e-01 -7.010975386947393417e-03 -5.027242302894592285e-01 -1.529205590486526489e-01 2.539294399321079254e-02
6.321000000000000000e+03 5.728086853027343750e+01 2.395255279541015625e+01 -4.131546318531036377e-01 9.214524030685424805e-01 1.524893343448638916e-01 -2.352812737226486206e-01
6.322000000000000000e+03 3.850120162963867188e+01 -1.666450619697570801e+00 2.611465752124786377e-01 -3.787117600440979004e-01 -3.526955470442771912e-02 7.693533599376678467e-02
6.323000000000000000e+03 3.794983291625976562e+01 -1.032979965209960938e+00 1.881517618894577026e-01 -4.314306974411010742e-01 -7.298368215560913086e-02 6.243473291397094727e-02
6.324000000000000000e+03 6.326561737060546875e+01 8.263413429260253906e+00 2.045787572860717773e-01 3.949744462966918945e+00 1.246297001838684082e+00 6.935709118843078613e-01
6.325000000000000000e+03 6.505020141601562500e+01 1.926986694335937500e+01 -1.824197708629071712e-03 4.117513179779052734e+00 1.234706640243530273e+00 9.707672595977783203e-01
6.326000000000000000e+03 2.268918228149414062e+01 2.524990844726562500e+01 1.609205454587936401e-02 9.220770746469497681e-02 3.248992934823036194e-02 4.756441339850425720e-02
6.327000000000000000e+03 2.358415603637695312e+01 2.611634254455566406e+01 1.713132485747337341e-02 8.981356769800186157e-02 3.208346664905548096e-02 4.721658304333686829e-02
6.328000000000000000e+03 2.268385887145996094e+01 2.741645431518554688e+01 1.104585547000169754e-02 8.478499203920364380e-02 2.874925546348094940e-02 3.987819701433181763e-02
6.329000000000000000e+03 6.499327087402343750e+01 1.432636070251464844e+01 9.942994266748428345e-02 4.340948104858398438e+00 1.332113504409790039e+00 8.281695246696472168e-01
6.330000000000000000e+03 6.341667175292968750e+01 1.314588451385498047e+01 1.416430473327636719e-01 3.838665485382080078e+00 1.194092512130737305e+00 7.482685446739196777e-01
6.331000000000000000e+03 6.587136840820312500e+01 2.147954559326171875e+01 -8.620198071002960205e-02 4.394583225250244141e+00 1.292514324188232422e+00 1.176835894584655762e+00
6.332000000000000000e+03 3.699507904052734375e+01 8.325247764587402344e+00 -8.575659394264221191e-01 -8.483672142028808594e-01 -5.117799043655395508e-01 -7.380174994468688965e-01
6.333000000000000000e+03 1.532091808319091797e+01 1.492052555084228516e+01 2.561794035136699677e-02 1.467459946870803833e-01 5.170917883515357971e-02 5.249829962849617004e-02
6.334000000000000000e+03 1.463028049468994141e+01 1.623471641540527344e+01 1.455073803663253784e-02 1.238192021846771240e-01 4.151098430156707764e-02 3.581952303647994995e-02
6.335000000000000000e+03 6.274385833740234375e+01 2.385955047607421875e+01 2.498764730989933014e-02 2.452796697616577148e+00 7.433353066444396973e-01 7.446568012237548828e-01
6.336000000000000000e+03 6.438541412353515625e+01 2.488334655761718750e+01 2.925823442637920380e-02 2.936646461486816406e+00 8.897714018821716309e-01 1.149287462234497070e+00
6.337000000000000000e+03 2.344831085205078125e+01 2.443132019042968750e+01 2.230443246662616730e-02 9.475185722112655640e-02 3.511688485741615295e-02 5.318012461066246033e-02
6.338000000000000000e+03 6.573426818847656250e+01 1.802450752258300781e+01 9.344328427687287331e-04 4.527427673339843750e+00 1.358508586883544922e+00 9.604886174201965332e-01
6.339000000000000000e+03 1.423920249938964844e+01 1.802423667907714844e+01 5.601255223155021667e-03 1.011048182845115662e-01 3.201182186603546143e-02 2.422934025526046753e-02
6.340000000000000000e+03 1.627685737609863281e+01 1.670788764953613281e+01 2.151712216436862946e-02 1.308217644691467285e-01 4.570166766643524170e-02 5.198723822832107544e-02
6.341000000000000000e+03 3.908792114257812500e+01 -1.082785248756408691e+00 2.204794883728027344e-01 -3.363757729530334473e-01 -3.476888686418533325e-02 6.743443012237548828e-02
6.342000000000000000e+03 6.821683502197265625e+01 2.574145126342773438e+01 -4.902525246143341064e-01 5.913417816162109375e+00 1.626949667930603027e+00 1.972920775413513184e+00
6.343000000000000000e+03 6.681507110595703125e+01 2.597951126098632812e+01 -1.596523374319076538e-01 4.459792613983154297e+00 1.290042161941528320e+00 1.883196473121643066e+00
6.344000000000000000e+03 4.468265151977539062e+01 -4.357393264770507812e+00 4.374305307865142822e-01 3.836833834648132324e-01 2.463341802358627319e-01 1.526582390069961548e-01
6.345000000000000000e+03 6.385907745361328125e+01 2.859900236129760742e+00 2.266272902488708496e-01 4.203966617584228516e+00 1.329178214073181152e+00 6.395249366760253906e-01
6.346000000000000000e+03 2.297555541992187500e+01 2.305239486694335938e+01 2.596422471106052399e-02 1.001558974385261536e-01 3.783603757619857788e-02 5.739957094192504883e-02
6.347000000000000000e+03 6.321260833740234375e+01 7.216540575027465820e-01 2.407758682966232300e-01 4.055040836334228516e+00 1.288745045661926270e+00 6.039004921913146973e-01
6.348000000000000000e+03 4.193243408203125000e+01 -3.191536426544189453e+00 3.807077407836914062e-01 -1.363969221711158752e-02 1.101204156875610352e-01 1.142425760626792908e-01
6.349000000000000000e+03 6.537126159667968750e+01 1.989412307739257812e+01 -4.145227372646331787e-02 4.188376426696777344e+00 1.244077324867248535e+00 1.018859863281250000e+00
6.350000000000000000e+03 4.810739135742187500e+01 -8.533439636230468750e+00 4.191676080226898193e-01 1.031186223030090332e+00 4.351061582565307617e-01 1.782332211732864380e-01
6.351000000000000000e+03 4.871067810058593750e+01 -9.599464416503906250e+00 4.007167518138885498e-01 1.163716435432434082e+00 4.693299829959869385e-01 1.695538014173507690e-01
6.352000000000000000e+03 6.239322662353515625e+01 -6.218039989471435547e+00 2.290684133768081665e-01 3.905253171920776367e+00 1.240296483039855957e+00 4.659854769706726074e-01
6.353000000000000000e+03 6.168751907348632812e+01 -8.659398078918457031e+00 2.209442257881164551e-01 3.754881620407104492e+00 1.192747712135314941e+00 4.278393685817718506e-01
6.354000000000000000e+03 4.218979644775390625e+01 -2.483284473419189453e+00 3.602368533611297607e-01 1.249343156814575195e-03 1.084458604454994202e-01 1.156370714306831360e-01
6.355000000000000000e+03 6.436363220214843750e+01 1.148877811431884766e+01 1.539605110883712769e-01 4.205976486206054688e+00 1.307981133460998535e+00 7.606646418571472168e-01
6.356000000000000000e+03 6.403823089599609375e+01 4.921211719512939453e+00 2.138824313879013062e-01 4.214434146881103516e+00 1.328494906425476074e+00 6.678321957588195801e-01
6.357000000000000000e+03 6.586866760253906250e+01 2.033366584777832031e+01 -6.609829515218734741e-02 4.453161239624023438e+00 1.316118836402893066e+00 1.084380984306335449e+00
6.358000000000000000e+03 6.629780578613281250e+01 2.223851394653320312e+01 -1.363517045974731445e-01 4.570242404937744141e+00 1.330167293548583984e+00 1.267426490783691406e+00
6.359000000000000000e+03 6.671779632568359375e+01 2.384426116943359375e+01 -1.894453465938568115e-01 4.731138229370117188e+00 1.362507820129394531e+00 1.495907068252563477e+00
6.360000000000000000e+03 6.425566101074218750e+01 6.779663562774658203e+00 2.041712552309036255e-01 4.264082908630371094e+00 1.340476274490356445e+00 7.023241519927978516e-01
6.361000000000000000e+03 6.403963470458984375e+01 1.474541473388671875e+01 1.088379919528961182e-01 3.967106819152832031e+00 1.222783446311950684e+00 7.973475456237792969e-01
6.362000000000000000e+03 6.601750946044921875e+01 2.585506629943847656e+01 -6.055312231183052063e-02 3.856155157089233398e+00 1.138680577278137207e+00 1.663301587104797363e+00
6.363000000000000000e+03 6.744820404052734375e+01 2.389183044433593750e+01 -3.003100454807281494e-01 5.248432636260986328e+00 1.484436869621276855e+00 1.565419077873229980e+00
6.364000000000000000e+03 6.244202423095703125e+01 -9.561233967542648315e-02 2.529268562793731689e-01 3.876988649368286133e+00 1.238974690437316895e+00 5.841445922851562500e-01
6.365000000000000000e+03 2.332797431945800781e+01 3.052134132385253906e+01 8.313846774399280548e-03 7.608105242252349854e-02 2.531846985220909119e-02 3.171526268124580383e-02
6.366000000000000000e+03 2.838437652587890625e+01 3.585856246948242188e+01 1.989719830453395844e-02 6.912927329540252686e-02 2.670794166624546051e-02 2.400145120918750763e-02
6.367000000000000000e+03 2.540296363830566406e+01 3.517165756225585938e+01 1.172591187059879303e-02 6.900507211685180664e-02 2.421929500997066498e-02 2.233759127557277679e-02
6.368000000000000000e+03 6.364405822753906250e+01 1.204286766052246094e+01 1.575088649988174438e-01 3.953772068023681641e+00 1.233384251594543457e+00 7.466681599617004395e-01
6.369000000000000000e+03 4.030292510986328125e+01 -1.758260726928710938e+00 2.981187999248504639e-01 -2.073629796504974365e-01 2.722674608230590820e-02 8.556517213582992554e-02
6.370000000000000000e+03 6.367166519165039062e+01 -1.108970069885253906e+01 1.676143109798431396e-01 4.220783710479736328e+00 1.316519379615783691e+00 4.035448729991912842e-01
6.371000000000000000e+03 6.325191497802734375e+01 -1.621527671813964844e+01 1.198443248867988586e-01 4.141595363616943359e+00 1.278431892395019531e+00 3.372295200824737549e-01
6.372000000000000000e+03 5.133761215209960938e+01 -1.399462699890136719e+01 2.781025767326354980e-01 1.746637225151062012e+00 6.074219346046447754e-01 1.793344765901565552e-01
6.373000000000000000e+03 5.075394439697265625e+01 -1.278841400146484375e+01 3.151811957359313965e-01 1.630036354064941406e+00 5.835652351379394531e-01 1.925514489412307739e-01
6.374000000000000000e+03 6.201018524169921875e+01 -5.233158111572265625e+00 2.457926124334335327e-01 3.812083244323730469e+00 1.217362761497497559e+00 4.840976595878601074e-01
6.375000000000000000e+03 4.902395248413085938e+01 -1.232183456420898438e+01 3.426100611686706543e-01 1.287398099899291992e+00 4.890024363994598389e-01 1.419702172279357910e-01
6.376000000000000000e+03 1.629479408264160156e+01 2.395327186584472656e+01 -2.049691742286086082e-03 7.485387474298477173e-02 2.184125408530235291e-02 2.060890197753906250e-02
6.377000000000000000e+03 1.574578475952148438e+01 1.756798171997070312e+01 1.435962412506341934e-02 1.184380576014518738e-01 3.983930498361587524e-02 4.131402447819709778e-02
6.378000000000000000e+03 1.529172325134277344e+01 1.858946990966796875e+01 7.970166392624378204e-03 1.052961722016334534e-01 3.397990018129348755e-02 3.193000331521034241e-02
6.379000000000000000e+03 6.072294235229492188e+01 -8.824821472167968750e+00 2.416166365146636963e-01 3.561735868453979492e+00 1.141005754470825195e+00 4.070100486278533936e-01
6.380000000000000000e+03 6.450621032714843750e+01 -9.306496620178222656e+00 1.731894463300704956e-01 4.431833744049072266e+00 1.381506919860839844e+00 4.274689555168151855e-01
6.381000000000000000e+03 2.264858055114746094e+01 2.624743843078613281e+01 1.295901555567979813e-02 8.831596374511718750e-02 3.038249351084232330e-02 4.350797832012176514e-02
6.382000000000000000e+03 1.591578578948974609e+01 2.751548385620117188e+01 -6.893137935549020767e-03 5.419444292783737183e-02 1.419039163738489151e-02 1.147260516881942749e-02
6.383000000000000000e+03 6.535106658935546875e+01 1.510329151153564453e+01 7.340729236602783203e-02 4.448597908020019531e+00 1.356601595878601074e+00 8.463656902313232422e-01
6.384000000000000000e+03 6.445677947998046875e+01 1.557943916320800781e+01 8.815675973892211914e-02 4.078996181488037109e+00 1.250145792961120605e+00 8.336993455886840820e-01
6.385000000000000000e+03 5.009385299682617188e+01 -1.167793178558349609e+01 3.487437069416046143e-01 1.460927248001098633e+00 5.429012775421142578e-01 1.731044352054595947e-01
6.386000000000000000e+03 6.288837051391601562e+01 -1.035058975219726562e+01 1.969106495380401611e-01 4.045139789581298828e+00 1.272615194320678711e+00 4.195992648601531982e-01
6.387000000000000000e+03 4.070676422119140625e+01 -2.305825471878051758e+00 3.327617347240447998e-01 -1.612344384193420410e-01 5.145819485187530518e-02 9.825894981622695923e-02
6.388000000000000000e+03 6.243424224853515625e+01 2.955204010009765625e+00 2.437539398670196533e-01 3.816095113754272461e+00 1.217954754829406738e+00 6.230446100234985352e-01
6.389000000000000000e+03 6.240302658081054688e+01 1.464344382286071777e+00 2.500272393226623535e-01 3.840984582901000977e+00 1.227303504943847656e+00 6.041544675827026367e-01
6.390000000000000000e+03 6.103625869750976562e+01 -1.626840591430664062e+01 1.415014415979385376e-01 3.700408697128295898e+00 1.152572989463806152e+00 3.236783444881439209e-01
6.391000000000000000e+03 6.225204467773437500e+01 -1.987568855285644531e+01 8.892050385475158691e-02 3.963247299194335938e+00 1.215650320053100586e+00 3.072184026241302490e-01
6.392000000000000000e+03 1.769114303588867188e+01 2.914711761474609375e+01 -4.175541922450065613e-03 5.841566994786262512e-02 1.627203822135925293e-02 1.647735759615898132e-02
6.393000000000000000e+03 5.207233810424804688e+01 -1.679462051391601562e+01 1.892465353012084961e-01 1.943527340888977051e+00 6.398321986198425293e-01 1.743019521236419678e-01
6.394000000000000000e+03 5.315124130249023438e+01 -1.489664936065673828e+01 2.387009710073471069e-01 2.127090692520141602e+00 7.097374796867370605e-01 2.121825069189071655e-01
6.395000000000000000e+03 5.478106689453125000e+01 -1.610157966613769531e+01 1.911294311285018921e-01 2.436035633087158203e+00 7.881495356559753418e-01 2.278261780738830566e-01
6.396000000000000000e+03 5.887334442138671875e+01 -1.863811683654785156e+01 1.225114762783050537e-01 3.297095298767089844e+00 1.025882005691528320e+00 2.920931279659271240e-01
6.397000000000000000e+03 5.671660614013671875e+01 -1.854071998596191406e+01 1.305565983057022095e-01 2.876517057418823242e+00 9.021221399307250977e-01 2.581113576889038086e-01
6.398000000000000000e+03 5.589536285400390625e+01 -2.631566047668457031e+01 3.729857876896858215e-02 2.819989442825317383e+00 8.571863770484924316e-01 2.931478619575500488e-01
6.399000000000000000e+03 5.755240249633789062e+01 -2.237264823913574219e+01 6.760346144437789917e-02 3.090953111648559570e+00 9.475669860839843750e-01 2.707196772098541260e-01
6.400000000000000000e+03 1.455728816986083984e+01 -2.752064323425292969e+01 2.042449116706848145e-01 -4.776380658149719238e-01 -8.201794326305389404e-02 -3.036415874958038330e-01
6.401000000000000000e+03 1.282604503631591797e+01 -2.995410346984863281e+01 1.493670791387557983e-01 -6.032708287239074707e-01 -1.361711174249649048e-01 -2.504400610923767090e-01
6.402000000000000000e+03 1.355233097076416016e+01 -3.162450790405273438e+01 1.741955280303955078e-01 -5.565660595893859863e-01 -1.147111579775810242e-01 -2.263324409723281860e-01
6.403000000000000000e+03 1.170987415313720703e+01 3.141190528869628906e+01 -8.758917450904846191e-03 6.623448804020881653e-03 -6.406406173482537270e-04 -2.642216160893440247e-03
6.404000000000000000e+03 5.611691665649414062e+01 -3.156935691833496094e+01 1.472031176090240479e-01 2.890316009521484375e+00 9.112557768821716309e-01 3.745301365852355957e-01
6.405000000000000000e+03 2.762226867675781250e+01 4.121815109252929688e+01 1.826444268226623535e-02 6.558924913406372070e-02 2.515610679984092712e-02 4.357757046818733215e-03
6.406000000000000000e+03 4.746270751953125000e+01 1.744374656677246094e+01 -5.995939970016479492e-01 -2.986517548561096191e-01 -2.694737315177917480e-01 -6.284128427505493164e-01
6.407000000000000000e+03 4.875036239624023438e+01 2.038461112976074219e+01 -7.496212124824523926e-01 -3.394928276538848877e-01 -3.267342150211334229e-01 -7.076296806335449219e-01
6.408000000000000000e+03 5.025425338745117188e+01 2.303132057189941406e+01 -9.011847972869873047e-01 -2.969532907009124756e-01 -3.594413995742797852e-01 -7.732723951339721680e-01
6.409000000000000000e+03 4.066121673583984375e+01 1.217230033874511719e+01 -7.764800786972045898e-01 -7.710527181625366211e-01 -4.642598330974578857e-01 -7.818826436996459961e-01
6.410000000000000000e+03 4.018698501586914062e+01 1.218436336517333984e+01 -8.115808367729187012e-01 -8.237959742546081543e-01 -4.906130433082580566e-01 -8.155370354652404785e-01
6.411000000000000000e+03 5.137493515014648438e+01 2.362475013732910156e+01 -8.697718381881713867e-01 -1.280087828636169434e-01 -2.993341684341430664e-01 -7.198791503906250000e-01
6.412000000000000000e+03 6.828679656982421875e+01 2.697103881835937500e+01 -4.941924810409545898e-01 5.946656703948974609e+00 1.635739207267761230e+00 2.357928991317749023e+00
6.413000000000000000e+03 4.734644699096679688e+01 1.884162521362304688e+01 -7.095504999160766602e-01 -4.396893382072448730e-01 -3.447719514369964600e-01 -7.273856997489929199e-01
6.414000000000000000e+03 5.340994644165039062e+01 2.495666885375976562e+01 -8.674302697181701660e-01 1.552921533584594727e-01 -2.136414200067520142e-01 -6.653407216072082520e-01
6.415000000000000000e+03 4.911416244506835938e+01 2.021208763122558594e+01 -7.094693183898925781e-01 -2.597965300083160400e-01 -2.907797694206237793e-01 -6.640360355377197266e-01
6.416000000000000000e+03 4.217729568481445312e+01 1.422501468658447266e+01 -7.787503004074096680e-01 -7.371134757995605469e-01 -4.547591507434844971e-01 -8.322231769561767578e-01
6.417000000000000000e+03 5.301189041137695312e+01 2.467177009582519531e+01 -8.645573854446411133e-01 9.960293769836425781e-02 -2.294863313436508179e-01 -6.722022891044616699e-01
6.418000000000000000e+03 3.871171569824218750e+01 8.864890098571777344e+00 -7.297756671905517578e-01 -7.294540405273437500e-01 -4.377689063549041748e-01 -6.520743370056152344e-01
6.419000000000000000e+03 4.234073638916015625e+01 1.330337238311767578e+01 -7.093110680580139160e-01 -6.576064229011535645e-01 -4.100752472877502441e-01 -7.471425533294677734e-01
6.420000000000000000e+03 4.991770935058593750e+01 2.229774093627929688e+01 -8.527616262435913086e-01 -2.922933697700500488e-01 -3.435164988040924072e-01 -7.474103569984436035e-01
6.421000000000000000e+03 4.649681854248046875e+01 1.767349052429199219e+01 -6.768429875373840332e-01 -4.672079682350158691e-01 -3.432152867317199707e-01 -7.263352870941162109e-01
6.422000000000000000e+03 5.260680770874023438e+01 2.444028854370117188e+01 -8.714458942413330078e-01 3.841888532042503357e-02 -2.499081045389175415e-01 -6.838765740394592285e-01
6.423000000000000000e+03 5.386003494262695312e+01 2.396406936645507812e+01 -7.231707572937011719e-01 3.091461658477783203e-01 -1.242073848843574524e-01 -5.569418072700500488e-01
6.424000000000000000e+03 5.185876083374023438e+01 2.363480567932128906e+01 -8.360816836357116699e-01 -3.900381177663803101e-02 -2.625256478786468506e-01 -6.813584566116333008e-01
6.425000000000000000e+03 4.444031143188476562e+01 1.599181747436523438e+01 -7.084372639656066895e-01 -6.031041741371154785e-01 -3.934624195098876953e-01 -7.887083888053894043e-01
6.426000000000000000e+03 4.359298706054687500e+01 1.475103378295898438e+01 -6.966384053230285645e-01 -6.054596304893493652e-01 -3.906294107437133789e-01 -7.619563341140747070e-01
6.427000000000000000e+03 4.637120056152343750e+01 1.724610710144042969e+01 -6.534134745597839355e-01 -4.491271376609802246e-01 -3.307621777057647705e-01 -7.096174955368041992e-01
6.428000000000000000e+03 4.093903732299804688e+01 1.303449058532714844e+01 -8.008565902709960938e-01 -7.981150746345520020e-01 -4.796915054321289062e-01 -8.256227970123291016e-01
6.429000000000000000e+03 4.330612945556640625e+01 1.391857814788818359e+01 -6.654210686683654785e-01 -5.800094604492187500e-01 -3.736291527748107910e-01 -7.192716598510742188e-01
6.430000000000000000e+03 5.233428192138671875e+01 2.380411720275878906e+01 -8.170400261878967285e-01 3.488111123442649841e-02 -2.346476763486862183e-01 -6.605530977249145508e-01
6.431000000000000000e+03 4.490341567993164062e+01 1.585767364501953125e+01 -6.657109856605529785e-01 -5.332081913948059082e-01 -3.596757352352142334e-01 -7.392066717147827148e-01
6.432000000000000000e+03 5.487267684936523438e+01 2.372917175292968750e+01 -6.155286431312561035e-01 5.101440548896789551e-01 -3.161538392305374146e-02 -4.575595557689666748e-01
6.433000000000000000e+03 4.065837097167968750e+01 1.258193111419677734e+01 -7.990651130676269531e-01 -7.993849515914916992e-01 -4.795350134372711182e-01 -8.111524581909179688e-01
6.434000000000000000e+03 4.118362045288085938e+01 1.218473243713378906e+01 -7.305444478988647461e-01 -7.099885940551757812e-01 -4.321599006652832031e-01 -7.412681579589843750e-01
6.435000000000000000e+03 4.388224029541015625e+01 1.526239395141601562e+01 -7.134488224983215332e-01 -6.233590841293334961e-01 -4.010423719882965088e-01 -7.861418724060058594e-01
6.436000000000000000e+03 4.314660263061523438e+01 1.432482433319091797e+01 -7.133712172508239746e-01 -6.406768560409545898e-01 -4.062144160270690918e-01 -7.707230448722839355e-01
6.437000000000000000e+03 5.078711700439453125e+01 2.327665901184082031e+01 -8.810431957244873047e-01 -2.139183133840560913e-01 -3.284884691238403320e-01 -7.443824410438537598e-01
6.438000000000000000e+03 4.390007019042968750e+01 1.567874431610107422e+01 -7.318925261497497559e-01 -6.463893651962280273e-01 -4.134845733642578125e-01 -8.132968544960021973e-01
6.439000000000000000e+03 4.138903045654296875e+01 1.364175224304199219e+01 -8.052074909210205078e-01 -7.885612845420837402e-01 -4.781306385993957520e-01 -8.400354385375976562e-01
6.440000000000000000e+03 3.873152542114257812e+01 9.735433578491210938e+00 -7.835117578506469727e-01 -7.997256517410278320e-01 -4.749712347984313965e-01 -7.276050448417663574e-01
6.441000000000000000e+03 3.381863784790039062e+01 3.262514114379882812e+00 -8.320154547691345215e-01 -6.541956663131713867e-01 -4.458633363246917725e-01 -2.950537800788879395e-01
6.442000000000000000e+03 3.917127990722656250e+01 9.617170333862304688e+00 -7.398371696472167969e-01 -7.448010444641113281e-01 -4.453914761543273926e-01 -6.819472312927246094e-01
6.443000000000000000e+03 4.045872879028320312e+01 1.086363220214843750e+01 -7.082009911537170410e-01 -6.971471905708312988e-01 -4.216044545173645020e-01 -6.915345788002014160e-01
6.444000000000000000e+03 4.091120529174804688e+01 1.082288455963134766e+01 -6.659369468688964844e-01 -6.368644833564758301e-01 -3.908404409885406494e-01 -6.509047150611877441e-01
6.445000000000000000e+03 5.026430130004882812e+01 2.231173324584960938e+01 -8.239215016365051270e-01 -2.255751341581344604e-01 -3.148489892482757568e-01 -7.146211862564086914e-01
6.446000000000000000e+03 5.032144546508789062e+01 2.174633026123046875e+01 -7.640210390090942383e-01 -1.761201620101928711e-01 -2.820423841476440430e-01 -6.739404201507568359e-01
6.447000000000000000e+03 3.897180557250976562e+01 9.229222297668457031e+00 -7.301697134971618652e-01 -7.346763610839843750e-01 -4.394538402557373047e-01 -6.637724637985229492e-01
6.448000000000000000e+03 3.711935043334960938e+01 6.922525405883789062e+00 -7.617893218994140625e-01 -7.298088669776916504e-01 -4.474794566631317139e-01 -5.903064012527465820e-01
6.449000000000000000e+03 3.782542037963867188e+01 7.714555263519287109e+00 -7.402520179748535156e-01 -7.294595837593078613e-01 -4.409134685993194580e-01 -6.130777597427368164e-01
6.450000000000000000e+03 1.614317893981933594e+01 1.528427982330322266e+01 3.001085482537746429e-02 1.460565626621246338e-01 5.282022431492805481e-02 6.091335043311119080e-02
6.451000000000000000e+03 3.442647552490234375e+01 7.075489163398742676e-01 -2.578851580619812012e-01 -6.263049244880676270e-01 -2.652570307254791260e-01 -2.020510146394371986e-03
6.452000000000000000e+03 3.454578781127929688e+01 2.977262735366821289e+00 -6.780942678451538086e-01 -6.307927966117858887e-01 -3.926661312580108643e-01 -2.428416311740875244e-01
6.453000000000000000e+03 1.529846572875976562e+01 1.376825809478759766e+01 3.265335410833358765e-02 1.625431478023529053e-01 5.855895206332206726e-02 6.137557700276374817e-02
6.454000000000000000e+03 1.573712158203125000e+01 1.392445087432861328e+01 3.612857684493064880e-02 1.627537161111831665e-01 5.966468900442123413e-02 6.652575731277465820e-02
6.455000000000000000e+03 1.509727001190185547e+01 1.314947223663330078e+01 3.558959066867828369e-02 1.716022342443466187e-01 6.215754523873329163e-02 6.360240280628204346e-02
6.456000000000000000e+03 1.411267280578613281e+01 1.326074314117431641e+01 2.837668545544147491e-02 1.638204753398895264e-01 5.765914544463157654e-02 4.579136893153190613e-02
6.457000000000000000e+03 6.732799530029296875e+01 2.652329444885253906e+01 -2.447189539670944214e-01 4.868239879608154297e+00 1.387056231498718262e+00 2.083639621734619141e+00
6.458000000000000000e+03 4.760107040405273438e+01 1.973107910156250000e+01 -7.656592130661010742e-01 -4.758954644203186035e-01 -3.724664151668548584e-01 -7.626542448997497559e-01
6.459000000000000000e+03 3.699002075195312500e+01 5.663944721221923828e+00 -6.889494061470031738e-01 -6.488558650016784668e-01 -4.013415873050689697e-01 -4.641902446746826172e-01
6.460000000000000000e+03 3.998110580444335938e+01 1.088649559020996094e+01 -7.456302642822265625e-01 -7.525692582130432129e-01 -4.494598507881164551e-01 -7.253096103668212891e-01
6.461000000000000000e+03 3.984351730346679688e+01 9.906346321105957031e+00 -7.001035213470458984e-01 -6.924170255661010742e-01 -4.177561700344085693e-01 -6.552706956863403320e-01
6.462000000000000000e+03 4.733816146850585938e+01 1.701622200012207031e+01 -5.755646228790283203e-01 -2.829249203205108643e-01 -2.575468420982360840e-01 -6.120368242263793945e-01
6.463000000000000000e+03 4.803876495361328125e+01 1.961763191223144531e+01 -7.273094058036804199e-01 -3.920400440692901611e-01 -3.358048200607299805e-01 -7.174469828605651855e-01
6.464000000000000000e+03 3.363196945190429688e+01 2.230515003204345703e+00 -6.533250808715820312e-01 -6.619065403938293457e-01 -3.945694863796234131e-01 -1.539729386568069458e-01
6.465000000000000000e+03 3.301115036010742188e+01 1.531902194023132324e+00 -5.403391122817993164e-01 -6.567944288253784180e-01 -3.591400384902954102e-01 -7.027444988489151001e-02
6.466000000000000000e+03 6.676167297363281250e+01 2.459941101074218750e+01 -2.047430127859115601e-01 4.680862903594970703e+00 1.342836022377014160e+00 1.630524754524230957e+00
6.467000000000000000e+03 1.815114784240722656e+01 1.871498298645019531e+01 2.333725802600383759e-02 1.187381669878959656e-01 4.262262582778930664e-02 5.525361001491546631e-02
6.468000000000000000e+03 6.771684265136718750e+01 2.672637939453125000e+01 -3.343426287174224854e-01 5.268256664276123047e+00 1.480174303054809570e+00 2.187047004699707031e+00
6.469000000000000000e+03 2.143008232116699219e+01 2.034950447082519531e+01 3.250033780932426453e-02 1.120706051588058472e-01 4.337128251791000366e-02 6.506861746311187744e-02
6.470000000000000000e+03 1.934995079040527344e+01 1.973436737060546875e+01 2.452008426189422607e-02 1.140001416206359863e-01 4.155606776475906372e-02 5.723921954631805420e-02
6.471000000000000000e+03 2.397720527648925781e+01 2.356357383728027344e+01 2.776897884905338287e-02 9.783008694648742676e-02 3.767972066998481750e-02 5.843240022659301758e-02
6.472000000000000000e+03 1.670153045654296875e+01 1.798610877990722656e+01 1.775071211159229279e-02 1.194307655096054077e-01 4.115444421768188477e-02 4.774538427591323853e-02
6.473000000000000000e+03 1.684179687500000000e+01 1.607927894592285156e+01 2.970883250236511230e-02 1.379022002220153809e-01 5.028330907225608826e-02 6.223024427890777588e-02
6.474000000000000000e+03 1.501028919219970703e+01 1.779704284667968750e+01 1.004314981400966644e-02 1.109086573123931885e-01 3.628554195165634155e-02 3.279484063386917114e-02
6.475000000000000000e+03 5.524069595336914062e+01 2.429302597045898438e+01 -6.455005407333374023e-01 5.263981223106384277e-01 -3.573072329163551331e-02 -4.744961559772491455e-01
6.476000000000000000e+03 5.461534118652343750e+01 2.534731101989746094e+01 -8.181788325309753418e-01 3.404809832572937012e-01 -1.433093398809432983e-01 -6.130456924438476562e-01
6.477000000000000000e+03 5.603651809692382812e+01 2.289278984069824219e+01 -4.347709715366363525e-01 7.970249056816101074e-01 1.086761876940727234e-01 -2.748876214027404785e-01
6.478000000000000000e+03 3.472592163085937500e+01 3.304926156997680664e+00 -7.002446651458740234e-01 -6.499418020248413086e-01 -4.050559401512145996e-01 -2.821159660816192627e-01
6.479000000000000000e+03 3.573968505859375000e+01 4.404606342315673828e+00 -7.123242020606994629e-01 -6.477366685867309570e-01 -4.080182611942291260e-01 -3.810502588748931885e-01
6.480000000000000000e+03 6.382464599609375000e+01 2.492877769470214844e+01 3.477555513381958008e-02 2.622471570968627930e+00 7.971740961074829102e-01 9.855252504348754883e-01
6.481000000000000000e+03 6.493551635742187500e+01 2.535874938964843750e+01 2.113169617950916290e-02 3.160493612289428711e+00 9.544875621795654297e-01 1.312390327453613281e+00
6.482000000000000000e+03 6.677033996582031250e+01 2.533626937866210938e+01 -1.786488443613052368e-01 4.565862178802490234e+00 1.316164016723632812e+00 1.766851782798767090e+00
6.483000000000000000e+03 3.637820816040039062e+01 -3.104269504547119141e-01 3.626740351319313049e-02 -5.304816961288452148e-01 -1.482642889022827148e-01 5.070618167519569397e-02
6.484000000000000000e+03 5.027106857299804688e+01 2.267997550964355469e+01 -8.560017347335815430e-01 -2.552087008953094482e-01 -3.333631157875061035e-01 -7.417195439338684082e-01
6.485000000000000000e+03 1.718957138061523438e+01 2.044353675842285156e+01 9.553925134241580963e-03 1.021786704659461975e-01 3.351977840065956116e-02 3.855354711413383484e-02
6.486000000000000000e+03 4.675412750244140625e+01 1.852654647827148438e+01 -7.231842875480651855e-01 -5.042511224746704102e-01 -3.682306408882141113e-01 -7.587749361991882324e-01
6.487000000000000000e+03 4.282201766967773438e+01 -3.480764150619506836e+00 4.128316044807434082e-01 9.932918101549148560e-02 1.536482274532318115e-01 1.227490156888961792e-01
6.488000000000000000e+03 4.418598937988281250e+01 -2.196640014648437500e+00 3.516166806221008301e-01 2.638231515884399414e-01 1.846319586038589478e-01 1.437225192785263062e-01
6.489000000000000000e+03 3.542515182495117188e+01 -2.615908682346343994e-01 -8.086934685707092285e-03 -5.776533484458923340e-01 -1.757220774888992310e-01 5.130700021982192993e-02
6.490000000000000000e+03 3.686285018920898438e+01 -8.910247683525085449e-01 1.500872224569320679e-01 -5.085874199867248535e-01 -1.075500696897506714e-01 5.771078541874885559e-02
6.491000000000000000e+03 6.790792846679687500e+01 2.708577728271484375e+01 -3.741305470466613770e-01 5.488324642181396484e+00 1.534258246421813965e+00 2.329421520233154297e+00
6.492000000000000000e+03 6.090941238403320312e+01 2.426140213012695312e+01 -9.133200347423553467e-02 1.682357907295227051e+00 4.773077964782714844e-01 3.245089948177337646e-01
6.493000000000000000e+03 5.406793212890625000e+01 2.583914566040039062e+01 -9.260070919990539551e-01 2.061399221420288086e-01 -2.159601449966430664e-01 -6.917405128479003906e-01
6.494000000000000000e+03 6.202075958251953125e+01 2.374410247802734375e+01 -2.860107924789190292e-03 2.103255510330200195e+00 6.301186680793762207e-01 5.934213399887084961e-01
6.495000000000000000e+03 5.902252960205078125e+01 2.424512100219726562e+01 -2.668359577655792236e-01 1.220632791519165039e+00 2.861390411853790283e-01 -2.762068063020706177e-02
6.496000000000000000e+03 5.845227432250976562e+01 2.438257217407226562e+01 -3.410682678222656250e-01 1.077557802200317383e+00 2.209468632936477661e-01 -1.230991035699844360e-01
6.497000000000000000e+03 3.501831436157226562e+01 3.626201629638671875e+00 -7.182439565658569336e-01 -6.510413289070129395e-01 -4.107855856418609619e-01 -3.122279345989227295e-01
6.498000000000000000e+03 3.480315399169921875e+01 1.858881592750549316e+00 -4.507457017898559570e-01 -6.154994964599609375e-01 -3.198735713958740234e-01 -1.002511233091354370e-01
6.499000000000000000e+03 1.695363426208496094e+01 1.660781860351562500e+01 2.749175764620304108e-02 1.330035030841827393e-01 4.814857989549636841e-02 5.887092277407646179e-02
6.500000000000000000e+03 3.398542022705078125e+01 1.513101458549499512e+00 -4.651117324829101562e-01 -6.411154866218566895e-01 -3.318681716918945312e-01 -6.519947201013565063e-02
6.501000000000000000e+03 3.852326583862304688e+01 -5.267022252082824707e-01 1.347679197788238525e-01 -3.838511407375335693e-01 -7.472496479749679565e-02 5.392872169613838196e-02
6.502000000000000000e+03 6.860213470458984375e+01 2.593368148803710938e+01 -5.876196622848510742e-01 6.320647239685058594e+00 1.719908356666564941e+00 1.985919833183288574e+00
6.503000000000000000e+03 2.095862197875976562e+01 2.087828445434570312e+01 2.655277028679847717e-02 1.091965958476066589e-01 4.072481021285057068e-02 5.992284789681434631e-02
6.504000000000000000e+03 1.982005310058593750e+01 2.078936386108398438e+01 2.148549072444438934e-02 1.091433316469192505e-01 3.918864578008651733e-02 5.463377386331558228e-02
6.505000000000000000e+03 3.976400375366210938e+01 -1.413745403289794922e+00 2.508201599121093750e-01 -2.673433423042297363e-01 -4.956952761858701706e-03 7.536432147026062012e-02
6.506000000000000000e+03 3.412169647216796875e+01 2.447818070650100708e-01 -1.630499809980392456e-01 -6.268614530563354492e-01 -2.369734346866607666e-01 1.018148846924304962e-02
6.507000000000000000e+03 2.270464897155761719e+01 2.224916839599609375e+01 2.836143597960472107e-02 1.029622554779052734e-01 3.939710557460784912e-02 6.031964346766471863e-02
6.508000000000000000e+03 2.208062171936035156e+01 2.330713653564453125e+01 2.045408450067043304e-02 9.876412898302078247e-02 3.576546162366867065e-02 5.295353010296821594e-02
6.509000000000000000e+03 6.260256576538085938e+01 4.411487579345703125e+00 2.326314896345138550e-01 3.846426486968994141e+00 1.223717331886291504e+00 6.432343721389770508e-01
6.510000000000000000e+03 1.479199600219726562e+01 1.701123619079589844e+01 1.180507149547338486e-02 1.169477328658103943e-01 3.862584009766578674e-02 3.407838568091392517e-02
6.511000000000000000e+03 1.523466300964355469e+01 1.548537349700927734e+01 2.201621979475021362e-02 1.383469700813293457e-01 4.810895398259162903e-02 4.792452976107597351e-02
6.512000000000000000e+03 6.378353500366210938e+01 7.531450748443603516e+00 2.033459544181823730e-01 4.118607997894287109e+00 1.296586275100708008e+00 6.995515227317810059e-01
6.513000000000000000e+03 2.410191535949707031e+01 2.832050895690917969e+01 1.410366594791412354e-02 8.315732330083847046e-02 2.917829714715480804e-02 4.121312126517295837e-02
6.514000000000000000e+03 2.156294250488281250e+01 2.741621398925781250e+01 7.483977824449539185e-03 8.242162317037582397e-02 2.697168104350566864e-02 3.628562018275260925e-02
6.515000000000000000e+03 6.578273010253906250e+01 2.328770065307617188e+01 -7.715739309787750244e-02 4.126682758331298828e+00 1.214857578277587891e+00 1.327834367752075195e+00
6.516000000000000000e+03 6.352095031738281250e+01 9.543601989746093750e+00 1.911448538303375244e-01 3.993180036544799805e+00 1.255297422409057617e+00 7.158849835395812988e-01
6.517000000000000000e+03 6.270795440673828125e+01 8.978641510009765625e+00 2.023254185914993286e-01 3.768649101257324219e+00 1.191292405128479004e+00 6.853716969490051270e-01
6.518000000000000000e+03 4.766208648681640625e+01 -7.422118663787841797e+00 4.323934316635131836e-01 9.286882281303405762e-01 4.083244800567626953e-01 1.718291342258453369e-01
6.519000000000000000e+03 4.452407455444335938e+01 -3.297434091567993164e+00 3.921473622322082520e-01 3.318841457366943359e-01 2.172094583511352539e-01 1.472925990819931030e-01
6.520000000000000000e+03 6.657231140136718750e+01 2.306108093261718750e+01 -1.749720424413681030e-01 4.696116447448730469e+00 1.356343269348144531e+00 1.390346765518188477e+00
6.521000000000000000e+03 6.295125198364257812e+01 1.411250400543212891e+01 1.356845349073410034e-01 3.640719652175903320e+00 1.132921218872070312e+00 7.396246194839477539e-01
6.522000000000000000e+03 6.756411743164062500e+01 2.495616531372070312e+01 -3.332765102386474609e-01 5.223135948181152344e+00 1.466957807540893555e+00 1.756226658821105957e+00
6.523000000000000000e+03 6.438616180419921875e+01 2.535640716552734375e+01 3.559440374374389648e-02 2.795387983322143555e+00 8.492947220802307129e-01 1.142224431037902832e+00
6.524000000000000000e+03 6.327560043334960938e+01 2.441258430480957031e+01 2.530106343328952789e-02 2.484059810638427734e+00 7.528082728385925293e-01 8.576724529266357422e-01
6.525000000000000000e+03 1.602679824829101562e+01 2.016213798522949219e+01 5.446402821689844131e-03 9.728229790925979614e-02 3.081860952079296112e-02 3.128332644701004028e-02
6.526000000000000000e+03 1.701553535461425781e+01 2.306586265563964844e+01 1.225986750796437263e-03 8.516315370798110962e-02 2.591674216091632843e-02 2.768200822174549103e-02
6.527000000000000000e+03 6.365391540527343750e+01 1.082573318481445312e+01 1.752289235591888428e-01 3.997347354888916016e+00 1.251772880554199219e+00 7.333595156669616699e-01
6.528000000000000000e+03 6.376024246215820312e+01 1.389357757568359375e+01 1.246830821037292480e-01 3.906478404998779297e+00 1.209348440170288086e+00 7.660324573516845703e-01
6.529000000000000000e+03 1.643176078796386719e+01 1.735552406311035156e+01 1.964407600462436676e-02 1.248122975230216980e-01 4.333691298961639404e-02 4.926012456417083740e-02
6.530000000000000000e+03 4.303388214111328125e+01 -2.443263053894042969e+00 3.501519858837127686e-01 1.214927956461906433e-01 1.414934396743774414e-01 1.189624220132827759e-01
6.531000000000000000e+03 4.372143554687500000e+01 -4.017379760742187500e+00 4.209457039833068848e-01 2.338868975639343262e-01 1.964497864246368408e-01 1.317193508148193359e-01
6.532000000000000000e+03 6.301949691772460938e+01 1.250446796417236328e+01 1.619965583086013794e-01 3.749578952789306641e+00 1.173472642898559570e+00 7.282326221466064453e-01
6.533000000000000000e+03 6.289514541625976562e+01 1.023953628540039062e+01 1.909275799989700317e-01 3.783327341079711914e+00 1.192276477813720703e+00 7.002575993537902832e-01
6.534000000000000000e+03 4.939977645874023438e+01 -1.063062763214111328e+01 3.730012476444244385e-01 1.316492080688476562e+00 5.068479776382446289e-01 1.723408699035644531e-01
6.535000000000000000e+03 6.570998382568359375e+01 1.578528690338134766e+01 4.925743490457534790e-02 4.547739982604980469e+00 1.379099130630493164e+00 8.806812167167663574e-01
6.536000000000000000e+03 4.268212127685546875e+01 -1.593899488449096680e+00 3.101585209369659424e-01 6.630823016166687012e-02 1.129400208592414856e-01 1.171940043568611145e-01
6.537000000000000000e+03 5.455253219604492188e+01 -1.474519920349121094e+01 2.279819846153259277e-01 2.363796472549438477e+00 7.775335311889648438e-01 2.424261868000030518e-01
6.538000000000000000e+03 6.058331298828125000e+01 -7.868073463439941406e+00 2.462102621793746948e-01 3.504895448684692383e+00 1.125331640243530273e+00 4.277690649032592773e-01
6.539000000000000000e+03 6.269804000854492188e+01 -7.135361671447753906e+00 2.228392362594604492e-01 4.009362697601318359e+00 1.269660592079162598e+00 4.504354000091552734e-01
6.540000000000000000e+03 6.507651519775390625e+01 1.748713684082031250e+01 4.649288952350616455e-02 4.274445533752441406e+00 1.296281576156616211e+00 9.076733589172363281e-01
6.541000000000000000e+03 6.504733276367187500e+01 1.628417015075683594e+01 6.645552068948745728e-02 4.292492389678955078e+00 1.307684421539306641e+00 8.695911765098571777e-01
6.542000000000000000e+03 6.080202865600585938e+01 -5.633225664496421814e-02 2.712797820568084717e-01 3.460998773574829102e+00 1.119683623313903809e+00 5.617244839668273926e-01
6.543000000000000000e+03 6.086186599731445312e+01 -4.098546504974365234e+00 2.753885984420776367e-01 3.543952226638793945e+00 1.145802259445190430e+00 4.988806545734405518e-01
6.544000000000000000e+03 6.308028030395507812e+01 -1.400931835174560547e+01 1.426444351673126221e-01 4.093396186828613281e+00 1.270812153816223145e+00 3.662264049053192139e-01
6.545000000000000000e+03 1.637535858154296875e+01 1.900915145874023438e+01 1.155170239508152008e-02 1.088609546422958374e-01 3.612379729747772217e-02 3.942666947841644287e-02
6.546000000000000000e+03 6.164073562622070312e+01 2.244621515274047852e+00 2.589440047740936279e-01 3.628358602523803711e+00 1.166190743446350098e+00 5.965386629104614258e-01
6.547000000000000000e+03 6.447074127197265625e+01 1.817974662780761719e+01 4.881354793906211853e-02 3.971849679946899414e+00 1.206198930740356445e+00 8.962342143058776855e-01
6.548000000000000000e+03 6.515655517578125000e+01 1.862059783935546875e+01 9.438919834792613983e-03 4.219573974609375000e+00 1.268703818321228027e+00 9.633107185363769531e-01
6.549000000000000000e+03 5.045365142822265625e+01 -9.946224212646484375e+00 3.728194832801818848e-01 1.483125805854797363e+00 5.567835569381713867e-01 2.108699679374694824e-01
6.550000000000000000e+03 2.058020782470703125e+01 2.190678596496582031e+01 1.954943686723709106e-02 1.032462790608406067e-01 3.683871775865554810e-02 5.236437544226646423e-02
6.551000000000000000e+03 1.716489028930664062e+01 2.589543151855468750e+01 -2.797745866701006889e-03 6.947737187147140503e-02 2.000388875603675842e-02 1.995750330388545990e-02
6.552000000000000000e+03 2.187315177917480469e+01 2.518350791931152344e+01 1.308921724557876587e-02 9.132865071296691895e-02 3.132535889744758606e-02 4.454392194747924805e-02
6.553000000000000000e+03 6.313312911987304688e+01 -8.768959999084472656e+00 1.983587741851806641e-01 4.089222431182861328e+00 1.286274313926696777e+00 4.386148154735565186e-01
6.554000000000000000e+03 5.620409774780273438e+01 -2.352559471130371094e+01 4.805929213762283325e-02 2.839016437530517578e+00 8.661227226257324219e-01 2.626259326934814453e-01
6.555000000000000000e+03 6.123404312133789062e+01 -2.390943145751953125e+01 6.567716598510742188e-02 3.786013841629028320e+00 1.155507326126098633e+00 2.977526485919952393e-01
6.556000000000000000e+03 6.292165374755859375e+01 -1.204462242126464844e+01 1.738305836915969849e-01 4.061445713043212891e+00 1.270582795143127441e+00 3.907781839370727539e-01
6.557000000000000000e+03 1.723633575439453125e+01 2.458602523803710938e+01 -1.600049436092376709e-03 7.615660130977630615e-02 2.236696518957614899e-02 2.356234565377235413e-02
6.558000000000000000e+03 6.342996215820312500e+01 6.299102306365966797e+00 2.164598256349563599e-01 4.047759532928466797e+00 1.279265761375427246e+00 6.771955490112304688e-01
6.559000000000000000e+03 6.218209457397460938e+01 -1.743854904174804688e+01 1.142248809337615967e-01 3.940499067306518555e+00 1.216417193412780762e+00 3.234557509422302246e-01
6.560000000000000000e+03 5.998085784912109375e+01 -1.990853118896484375e+01 9.726103395223617554e-02 3.529174327850341797e+00 1.087930560111999512e+00 2.926253080368041992e-01
6.561000000000000000e+03 6.192279815673828125e+01 5.144862651824951172e+00 2.379000186920166016e-01 3.639125823974609375e+00 1.163107752799987793e+00 6.374527215957641602e-01
6.562000000000000000e+03 6.325729751586914062e+01 5.104404449462890625e+00 2.284748107194900513e-01 4.005961418151855469e+00 1.270330905914306641e+00 6.593573689460754395e-01
6.563000000000000000e+03 6.162662887573242188e+01 7.008285522460937500e-01 2.619938254356384277e-01 3.655891656875610352e+00 1.175365686416625977e+00 5.788938403129577637e-01
6.564000000000000000e+03 5.883986282348632812e+01 -1.622351646423339844e+01 1.619234085083007812e-01 3.260703802108764648e+00 1.026788234710693359e+00 3.059197068214416504e-01
6.565000000000000000e+03 5.671800613403320312e+01 -1.627105712890625000e+01 1.773303300142288208e-01 2.837970495223999023e+00 9.045902490615844727e-01 2.712129354476928711e-01
6.566000000000000000e+03 4.737034606933593750e+01 -6.278570175170898438e+00 4.334439039230346680e-01 8.487269878387451172e-01 3.846512734889984131e-01 1.839096695184707642e-01
6.567000000000000000e+03 2.465892791748046875e+01 3.193099021911621094e+01 1.072518900036811829e-02 7.480045408010482788e-02 2.565769292414188385e-02 3.069006651639938354e-02
6.568000000000000000e+03 6.156494522094726562e+01 -7.811994552612304688e+00 2.315250039100646973e-01 3.701363801956176758e+00 1.179866671562194824e+00 4.509931802749633789e-01
6.569000000000000000e+03 5.058728027343750000e+01 2.286590957641601562e+01 -8.553171157836914062e-01 -2.144966870546340942e-01 -3.209441602230072021e-01 -7.298063635826110840e-01
6.570000000000000000e+03 4.837849807739257812e+01 1.906730270385742188e+01 -6.603373289108276367e-01 -2.869499325752258301e-01 -2.841861844062805176e-01 -6.539133191108703613e-01
6.571000000000000000e+03 4.967310333251953125e+01 2.028962898254394531e+01 -6.791204214096069336e-01 -1.626677513122558594e-01 -2.525364458560943604e-01 -6.259377002716064453e-01
6.572000000000000000e+03 4.710154724121093750e+01 1.798336791992187500e+01 -6.611009836196899414e-01 -4.024568498134613037e-01 -3.190673589706420898e-01 -6.939006447792053223e-01
6.573000000000000000e+03 5.322524642944335938e+01 2.423456192016601562e+01 -8.071491122245788574e-01 1.684270650148391724e-01 -1.916166096925735474e-01 -6.263966560363769531e-01
6.574000000000000000e+03 5.278179931640625000e+01 2.400376129150390625e+01 -8.124250769615173340e-01 1.027207076549530029e-01 -2.129113078117370605e-01 -6.409415602684020996e-01
6.575000000000000000e+03 5.167407608032226562e+01 2.278542327880859375e+01 -7.673422098159790039e-01 -8.552712388336658478e-03 -2.327684760093688965e-01 -6.386352181434631348e-01
6.576000000000000000e+03 4.359090805053710938e+01 1.428054904937744141e+01 -6.665955185890197754e-01 -5.698257088661193848e-01 -3.709263503551483154e-01 -7.261395454406738281e-01
6.577000000000000000e+03 4.283860015869140625e+01 1.324955272674560547e+01 -6.690703034400939941e-01 -5.868328809738159180e-01 -3.767709434032440186e-01 -7.050041556358337402e-01
6.578000000000000000e+03 4.060816955566406250e+01 1.174122714996337891e+01 -7.468041777610778809e-01 -7.457810044288635254e-01 -4.477755725383758545e-01 -7.498364448547363281e-01
6.579000000000000000e+03 5.063407897949218750e+01 2.214250183105468750e+01 -7.814901471138000488e-01 -1.547619253396987915e-01 -2.808756232261657715e-01 -6.768469810485839844e-01
6.580000000000000000e+03 4.962646865844726562e+01 2.086713790893554688e+01 -7.343963384628295898e-01 -2.210876792669296265e-01 -2.866452038288116455e-01 -6.679548621177673340e-01
6.581000000000000000e+03 4.624809265136718750e+01 1.681734466552734375e+01 -6.339927911758422852e-01 -4.285327196121215820e-01 -3.187576532363891602e-01 -6.915064454078674316e-01
6.582000000000000000e+03 4.685590744018554688e+01 1.712707710266113281e+01 -6.152640581130981445e-01 -3.650804162025451660e-01 -2.941033542156219482e-01 -6.596187949180603027e-01
6.583000000000000000e+03 4.281361770629882812e+01 1.377060127258300781e+01 -6.939209699630737305e-01 -6.270696520805358887e-01 -3.962971866130828857e-01 -7.440630793571472168e-01
6.584000000000000000e+03 4.477838134765625000e+01 1.544286155700683594e+01 -6.487783193588256836e-01 -5.145817399024963379e-01 -3.490079939365386963e-01 -7.183247208595275879e-01
6.585000000000000000e+03 4.401376724243164062e+01 1.486492919921875000e+01 -6.756097078323364258e-01 -5.627664923667907715e-01 -3.715128600597381592e-01 -7.388303279876708984e-01
6.586000000000000000e+03 4.550595474243164062e+01 1.611696052551269531e+01 -6.391613483428955078e-01 -4.749899506568908691e-01 -3.342453837394714355e-01 -7.079789042472839355e-01
6.587000000000000000e+03 4.673802185058593750e+01 1.669285774230957031e+01 -5.921773910522460938e-01 -3.462988138198852539e-01 -2.815428674221038818e-01 -6.415034532546997070e-01
6.588000000000000000e+03 5.201074218750000000e+01 2.315324783325195312e+01 -7.876341342926025391e-01 1.623359695076942444e-02 -2.314201593399047852e-01 -6.404696702957153320e-01
6.589000000000000000e+03 5.248358154296875000e+01 2.333718681335449219e+01 -7.717041969299316406e-01 9.602327644824981689e-02 -2.027042806148529053e-01 -6.189460158348083496e-01
6.590000000000000000e+03 4.612630081176757812e+01 1.638779449462890625e+01 -6.127468347549438477e-01 -4.103015363216400146e-01 -3.069145083427429199e-01 -6.740179657936096191e-01
6.591000000000000000e+03 4.434289169311523438e+01 1.558086776733398438e+01 -6.907878518104553223e-01 -5.782486796379089355e-01 -3.807109594345092773e-01 -7.663295865058898926e-01
6.592000000000000000e+03 4.423956680297851562e+01 1.518219184875488281e+01 -6.734567284584045410e-01 -5.505336523056030273e-01 -3.671971261501312256e-01 -7.418825030326843262e-01
6.593000000000000000e+03 5.294787216186523438e+01 2.353851699829101562e+01 -7.525259256362915039e-01 1.710771620273590088e-01 -1.744346320629119873e-01 -5.966705083847045898e-01
6.594000000000000000e+03 4.792286682128906250e+01 1.916977691650390625e+01 -6.982598304748535156e-01 -3.744236230850219727e-01 -3.218050301074981689e-01 -6.987042427062988281e-01
6.595000000000000000e+03 6.808913421630859375e+01 2.647538757324218750e+01 -4.460863471031188965e-01 5.715801715850830078e+00 1.580914616584777832e+00 2.164032936096191406e+00
6.596000000000000000e+03 6.885729980468750000e+01 2.737980651855468750e+01 -6.633781790733337402e-01 6.683663368225097656e+00 1.806085586547851562e+00 2.472609043121337891e+00
6.597000000000000000e+03 4.013935089111328125e+01 9.228394508361816406e+00 -6.377403736114501953e-01 -6.150242686271667480e-01 -3.758293986320495605e-01 -5.804968476295471191e-01
6.598000000000000000e+03 3.912344741821289062e+01 8.640474319458007812e+00 -6.779320836067199707e-01 -6.765587329864501953e-01 -4.063472449779510498e-01 -6.056157946586608887e-01
6.599000000000000000e+03 3.940478134155273438e+01 9.022416114807128906e+00 -6.867083311080932617e-01 -6.768931150436401367e-01 -4.090804457664489746e-01 -6.153490543365478516e-01
6.600000000000000000e+03 4.781478881835937500e+01 1.872886466979980469e+01 -6.703392267227172852e-01 -3.535285890102386475e-01 -3.071603477001190186e-01 -6.790776848793029785e-01
6.601000000000000000e+03 4.722452545166015625e+01 1.841020965576171875e+01 -6.835529208183288574e-01 -4.211688637733459473e-01 -3.314165472984313965e-01 -7.095602154731750488e-01
6.602000000000000000e+03 3.584683227539062500e+01 1.274671405553817749e-01 -4.112503305077552795e-02 -5.688456892967224121e-01 -1.829912215471267700e-01 2.323386073112487793e-02
6.603000000000000000e+03 4.042736053466796875e+01 1.042057800292968750e+01 -6.835189461708068848e-01 -6.656869053840637207e-01 -4.047617614269256592e-01 -6.565037369728088379e-01
6.604000000000000000e+03 6.149166870117187500e+01 2.400874710083007812e+01 -4.588439315557479858e-02 1.916958332061767578e+00 5.613222122192382812e-01 4.567936360836029053e-01
6.605000000000000000e+03 6.170755767822265625e+01 2.077304649353027344e+01 4.499873518943786621e-02 2.608652353286743164e+00 7.960953116416931152e-01 6.328306794166564941e-01
6.606000000000000000e+03 2.120532989501953125e+01 2.200240707397460938e+01 2.238747663795948029e-02 1.033168435096740723e-01 3.771129623055458069e-02 5.493968725204467773e-02
6.607000000000000000e+03 2.176880645751953125e+01 2.185106086730957031e+01 2.607410959899425507e-02 1.047738566994667053e-01 3.925438970327377319e-02 5.871295183897018433e-02
6.608000000000000000e+03 5.943675613403320312e+01 2.342084503173828125e+01 -1.653977781534194946e-01 1.467261672019958496e+00 3.905591666698455811e-01 1.267522126436233521e-01
6.609000000000000000e+03 6.016699600219726562e+01 2.383115196228027344e+01 -1.280814558267593384e-01 1.562500119209289551e+00 4.303255975246429443e-01 2.161429375410079956e-01
6.610000000000000000e+03 4.697769927978515625e+01 1.755664825439453125e+01 -6.365210413932800293e-01 -3.854925334453582764e-01 -3.066040873527526855e-01 -6.772143840789794922e-01
6.611000000000000000e+03 6.613304138183593750e+01 2.532712364196777344e+01 -8.801852166652679443e-02 4.053977489471435547e+00 1.189787626266479492e+00 1.630907893180847168e+00
6.612000000000000000e+03 3.813140869140625000e+01 8.106362342834472656e+00 -7.348792552947998047e-01 -7.305658459663391113e-01 -4.396335184574127197e-01 -6.247765421867370605e-01
6.613000000000000000e+03 3.659844589233398438e+01 5.222677707672119141e+00 -6.918752193450927734e-01 -6.497477293014526367e-01 -4.024868905544281006e-01 -4.383804500102996826e-01
6.614000000000000000e+03 3.769542694091796875e+01 6.576604843139648438e+00 -6.818843483924865723e-01 -6.530771851539611816e-01 -4.004884660243988037e-01 -5.085988044738769531e-01
6.615000000000000000e+03 1.583449077606201172e+01 1.501303291320800781e+01 2.908171154558658600e-02 1.464008688926696777e-01 5.264477431774139404e-02 5.944317206740379333e-02
6.616000000000000000e+03 3.757044219970703125e+01 5.296792507171630859e+00 -5.889174938201904297e-01 -5.865470767021179199e-01 -3.526393771171569824e-01 -3.884509801864624023e-01
6.617000000000000000e+03 3.606822586059570312e+01 5.600598335266113281e+00 -7.891871929168701172e-01 -6.964699625968933105e-01 -4.456971585750579834e-01 -5.141637921333312988e-01
6.618000000000000000e+03 3.735227584838867188e+01 6.123478889465332031e+00 -6.771888732910156250e-01 -6.548336148262023926e-01 -3.996067345142364502e-01 -4.893606007099151611e-01
6.619000000000000000e+03 6.551861572265625000e+01 2.534241485595703125e+01 -2.286223322153091431e-02 3.554186820983886719e+00 1.059397339820861816e+00 1.459696888923645020e+00
6.620000000000000000e+03 4.817601013183593750e+01 2.007207870483398438e+01 -7.586156725883483887e-01 -4.067732393741607666e-01 -3.496166765689849854e-01 -7.359967231750488281e-01
6.621000000000000000e+03 5.417593383789062500e+01 2.469059944152832031e+01 -7.826829552650451660e-01 3.064705133438110352e-01 -1.428637206554412842e-01 -5.933349132537841797e-01
6.622000000000000000e+03 5.468599700927734375e+01 2.477952957153320312e+01 -7.470096349716186523e-01 3.905779421329498291e-01 -1.069295108318328857e-01 -5.620658397674560547e-01
6.623000000000000000e+03 5.527880859375000000e+01 2.381191825866699219e+01 -5.963000655174255371e-01 5.686931610107421875e-01 -8.282070979475975037e-03 -4.302120506763458252e-01
6.624000000000000000e+03 6.856486511230468750e+01 2.636200332641601562e+01 -5.990733504295349121e-01 6.290608882904052734e+00 1.707460641860961914e+00 2.129577159881591797e+00
6.625000000000000000e+03 6.736450958251953125e+01 2.541892433166503906e+01 -2.886888384819030762e-01 5.086249351501464844e+00 1.439268112182617188e+00 1.845314264297485352e+00
6.626000000000000000e+03 6.787509918212890625e+01 2.599747276306152344e+01 -3.951078653335571289e-01 5.546536445617675781e+00 1.545428633689880371e+00 2.009429693222045898e+00
6.627000000000000000e+03 1.703951072692871094e+01 1.716080856323242188e+01 2.398861199617385864e-02 1.290407180786132812e-01 4.590879753232002258e-02 5.654421448707580566e-02
6.628000000000000000e+03 1.707158279418945312e+01 1.860940361022949219e+01 1.714561320841312408e-02 1.165350228548049927e-01 4.010419175028800964e-02 4.743318259716033936e-02
6.629000000000000000e+03 1.752878761291503906e+01 1.926893234252929688e+01 1.641783677041530609e-02 1.126558780670166016e-01 3.872211277484893799e-02 4.740667343139648438e-02
6.630000000000000000e+03 2.056257057189941406e+01 2.071918678283691406e+01 2.575955353677272797e-02 1.105570346117019653e-01 4.089497774839401245e-02 5.902476236224174500e-02
6.631000000000000000e+03 1.822355461120605469e+01 2.082448959350585938e+01 1.395146641880273819e-02 1.037839204072952271e-01 3.532061725854873657e-02 4.432522505521774292e-02
6.632000000000000000e+03 1.464360713958740234e+01 1.403741645812988281e+01 2.672179415822029114e-02 1.540490537881851196e-01 5.423125252127647400e-02 4.991156607866287231e-02
6.633000000000000000e+03 5.542122650146484375e+01 2.340401458740234375e+01 -5.268617868423461914e-01 6.459369659423828125e-01 3.572256118059158325e-02 -3.763788640499114990e-01
6.634000000000000000e+03 5.556210708618164062e+01 2.294264221191406250e+01 -4.788396358489990234e-01 7.203875780105590820e-01 7.246438413858413696e-02 -3.232503235340118408e-01
6.635000000000000000e+03 1.628320503234863281e+01 1.615553474426269531e+01 2.473193407058715820e-02 1.352896690368652344e-01 4.800647869706153870e-02 5.538796260952949524e-02
6.636000000000000000e+03 4.109903717041015625e+01 1.170358943939208984e+01 -7.064502239227294922e-01 -6.797718405723571777e-01 -4.158666133880615234e-01 -7.083129286766052246e-01
6.637000000000000000e+03 4.155965042114257812e+01 1.291788387298583984e+01 -7.470982074737548828e-01 -7.179174423217773438e-01 -4.395046830177307129e-01 -7.722092270851135254e-01
6.638000000000000000e+03 5.094209289550781250e+01 2.258969879150390625e+01 -8.026253581047058105e-01 -1.328770071268081665e-01 -2.806507050991058350e-01 -6.831980943679809570e-01
6.639000000000000000e+03 5.122924804687500000e+01 2.307739639282226562e+01 -8.294631838798522949e-01 -1.148757189512252808e-01 -2.833016812801361084e-01 -6.947512030601501465e-01
6.640000000000000000e+03 3.588095092773437500e+01 2.759464502334594727e+00 -4.863394200801849365e-01 -5.823941826820373535e-01 -3.206200599670410156e-01 -1.821709126234054565e-01
6.641000000000000000e+03 1.602357292175292969e+01 1.829371833801269531e+01 1.295661367475986481e-02 1.136319264769554138e-01 3.797656297683715820e-02 4.006806388497352600e-02
6.642000000000000000e+03 2.026883125305175781e+01 2.113510894775390625e+01 2.146809175610542297e-02 1.072126850485801697e-01 3.860423341393470764e-02 5.458641424775123596e-02
6.643000000000000000e+03 2.136243057250976562e+01 2.148258209228515625e+01 2.577780187129974365e-02 1.062607914209365845e-01 3.961157798767089844e-02 5.879707261919975281e-02
6.644000000000000000e+03 3.543111801147460938e+01 5.575773715972900391e-01 -1.544055938720703125e-01 -5.809736847877502441e-01 -2.206137776374816895e-01 5.016885232180356979e-03
6.645000000000000000e+03 5.841021728515625000e+01 2.370821380615234375e+01 -2.830913364887237549e-01 1.176927447319030762e+00 2.681508362293243408e-01 -5.891604721546173096e-02
6.646000000000000000e+03 5.784583282470703125e+01 2.382447242736816406e+01 -3.468286395072937012e-01 1.050656914710998535e+00 2.111485004425048828e-01 -1.530290246009826660e-01
6.647000000000000000e+03 3.617490768432617188e+01 4.805439949035644531e+00 -7.119508981704711914e-01 -6.393586993217468262e-01 -4.053928852081298828e-01 -4.077951908111572266e-01
6.648000000000000000e+03 2.023614883422851562e+01 2.042007827758789062e+01 2.546368725597858429e-02 1.106823608279228210e-01 4.084381461143493652e-02 5.799384415149688721e-02
6.649000000000000000e+03 1.535531997680664062e+01 1.612835693359375000e+01 1.879078894853591919e-02 1.319281458854675293e-01 4.521567746996879578e-02 4.560415074229240417e-02
6.650000000000000000e+03 4.878568649291992188e+01 -7.006315708160400391e+00 4.219169318675994873e-01 1.109520435333251953e+00 4.594312012195587158e-01 2.148512005805969238e-01
6.651000000000000000e+03 6.410305023193359375e+01 2.326597213745117188e+01 2.734329737722873688e-02 3.173176288604736328e+00 9.601558446884155273e-01 1.050132155418395996e+00
6.652000000000000000e+03 3.531341934204101562e+01 1.129256129264831543e+00 -2.661528885364532471e-01 -5.958446264266967773e-01 -2.585992515087127686e-01 -3.883484005928039551e-02
6.653000000000000000e+03 3.396086120605468750e+01 2.868052482604980469e+00 -7.358884811401367188e-01 -6.505674719810485840e-01 -4.159367978572845459e-01 -2.251679599285125732e-01
6.654000000000000000e+03 6.448545074462890625e+01 2.388788223266601562e+01 2.613929286599159241e-02 3.241437911987304688e+00 9.802731275558471680e-01 1.138394713401794434e+00
6.655000000000000000e+03 3.842601776123046875e+01 8.493577003479003906e+00 -7.303335666656494141e-01 -7.294770479202270508e-01 -4.379431605339050293e-01 -6.412546038627624512e-01
6.656000000000000000e+03 2.279629516601562500e+01 2.436125946044921875e+01 1.961130090057849884e-02 9.540076553821563721e-02 3.450362011790275574e-02 5.125325173139572144e-02
6.657000000000000000e+03 4.085675430297851562e+01 -1.455541253089904785e+00 2.840385735034942627e-01 -1.574316471815109253e-01 3.798207268118858337e-02 8.540660887956619263e-02
6.658000000000000000e+03 6.735006713867187500e+01 2.452645492553710938e+01 -2.975699603557586670e-01 5.107738971710205078e+00 1.443050742149353027e+00 1.683658838272094727e+00
6.659000000000000000e+03 6.381949996948242188e+01 1.886779975891113281e+01 4.659362882375717163e-02 3.644070863723754883e+00 1.107199311256408691e+00 8.619981408119201660e-01
6.660000000000000000e+03 6.531878662109375000e+01 2.086019134521484375e+01 -2.912138588726520538e-02 4.144447803497314453e+00 1.234597921371459961e+00 1.079624414443969727e+00
6.661000000000000000e+03 6.461551666259765625e+01 2.340758705139160156e+01 4.010949283838272095e-03 3.367070913314819336e+00 1.011324524879455566e+00 1.143891692161560059e+00
6.662000000000000000e+03 3.907941055297851562e+01 -3.553853556513786316e-02 1.053059101104736328e-01 -3.388977050781250000e-01 -7.007753849029541016e-02 3.890772536396980286e-02
6.663000000000000000e+03 2.195796775817871094e+01 2.251774787902832031e+01 2.387711964547634125e-02 1.020918041467666626e-01 3.779067844152450562e-02 5.603928864002227783e-02
6.664000000000000000e+03 1.647436332702636719e+01 2.093354034423828125e+01 4.990674555301666260e-03 9.522189199924468994e-02 3.006377071142196655e-02 3.164509311318397522e-02
6.665000000000000000e+03 2.135530662536621094e+01 2.876279449462890625e+01 4.721985198557376862e-03 7.582528144121170044e-02 2.416418120265007019e-02 3.083774074912071228e-02
6.666000000000000000e+03 6.299670028686523438e+01 1.145090103149414062e+01 1.689342260360717773e-01 3.764822483062744141e+00 1.180127024650573730e+00 7.152623534202575684e-01
6.667000000000000000e+03 6.211819076538085938e+01 9.684859275817871094e+00 1.998014152050018311e-01 3.574452161788940430e+00 1.132276058197021484e+00 6.722599267959594727e-01
6.668000000000000000e+03 6.307274246215820312e+01 1.491459465026855469e+01 1.231833025813102722e-01 3.636438608169555664e+00 1.127886533737182617e+00 7.569085955619812012e-01
6.669000000000000000e+03 3.723014831542968750e+01 3.033574581146240234e+00 -3.926764726638793945e-01 -5.150485634803771973e-01 -2.723174989223480225e-01 -1.732129752635955811e-01
6.670000000000000000e+03 3.743730545043945312e+01 -4.282128810882568359e-01 9.095316380262374878e-02 -4.668291509151458740e-01 -1.127627938985824585e-01 5.093165114521980286e-02
6.671000000000000000e+03 6.244544982910156250e+01 7.718339443206787109e+00 2.160727083683013916e-01 3.727826595306396484e+00 1.183169841766357422e+00 6.681681871414184570e-01
6.672000000000000000e+03 6.295275497436523438e+01 7.004178047180175781e+00 2.168891429901123047e-01 3.890075922012329102e+00 1.232089519500732422e+00 6.726475358009338379e-01
6.673000000000000000e+03 5.900463867187500000e+01 -1.361408829689025879e+00 3.019260168075561523e-01 3.073203086853027344e+00 1.012538790702819824e+00 5.047883391380310059e-01
6.674000000000000000e+03 6.059370040893554688e+01 -1.689385771751403809e+00 2.808652818202972412e-01 3.459033489227294922e+00 1.121969699859619141e+00 5.372603535652160645e-01
6.675000000000000000e+03 6.167261123657226562e+01 1.165548896789550781e+01 1.775459498167037964e-01 3.358041048049926758e+00 1.060676097869873047e+00 6.621683239936828613e-01
6.676000000000000000e+03 6.597748565673828125e+01 2.399652290344238281e+01 -9.157487750053405762e-02 4.169589042663574219e+00 1.223404169082641602e+00 1.430723786354064941e+00
6.677000000000000000e+03 5.933151626586914062e+01 1.570499777793884277e+00 2.822121977806091309e-01 3.068387746810913086e+00 1.005180001258850098e+00 5.466042160987854004e-01
6.678000000000000000e+03 5.957588195800781250e+01 -2.205565452575683594e+00 2.974481880664825439e-01 3.213386058807373047e+00 1.053250312805175781e+00 5.030602216720581055e-01
6.679000000000000000e+03 6.000847244262695312e+01 -3.034809589385986328e+00 2.944556772708892822e-01 3.342294931411743164e+00 1.091025233268737793e+00 5.026615262031555176e-01
6.680000000000000000e+03 5.878568267822265625e+01 -3.989855051040649414e+00 3.043374121189117432e-01 3.064608812332153320e+00 1.010683894157409668e+00 4.762962162494659424e-01
6.681000000000000000e+03 6.076440811157226562e+01 -5.405288696289062500e+00 2.610469758510589600e-01 3.527543306350708008e+00 1.136577129364013672e+00 4.727464020252227783e-01
6.682000000000000000e+03 6.439975738525390625e+01 1.689816474914550781e+01 7.573817670345306396e-02 4.024710655212402344e+00 1.230134606361389160e+00 8.644860982894897461e-01
6.683000000000000000e+03 6.173111724853515625e+01 -6.891714572906494141e+00 2.395138144493103027e-01 3.741418123245239258e+00 1.194279670715332031e+00 4.581729769706726074e-01
6.684000000000000000e+03 5.119359207153320312e+01 -1.101345252990722656e+01 3.428804874420166016e-01 1.656148552894592285e+00 5.997087359428405762e-01 2.240778803825378418e-01
6.685000000000000000e+03 6.215655136108398438e+01 6.455998420715332031e+00 2.296609282493591309e-01 3.676497936248779297e+00 1.171847701072692871e+00 6.499633789062500000e-01
6.686000000000000000e+03 5.352664184570312500e+01 -1.059563827514648438e+01 3.226731717586517334e-01 2.089789152145385742e+00 7.237387299537658691e-01 2.707619071006774902e-01
6.687000000000000000e+03 5.733184051513671875e+01 -1.269697666168212891e+01 2.283872365951538086e-01 2.910772800445556641e+00 9.417480230331420898e-01 3.158923089504241943e-01
6.688000000000000000e+03 3.952806472778320312e+01 -5.232980251312255859e-01 1.610327214002609253e-01 -3.032200336456298828e-01 -4.265619069337844849e-02 5.736848339438438416e-02
6.689000000000000000e+03 4.116741561889648438e+01 -1.914902210235595703e+00 3.262043297290802002e-01 -1.083898618817329407e-01 6.534434109926223755e-02 8.980643004179000854e-02
6.690000000000000000e+03 1.886481094360351562e+01 2.197440147399902344e+01 1.247673574835062027e-02 9.936179220676422119e-02 3.355155885219573975e-02 4.300021007657051086e-02
6.691000000000000000e+03 6.190979003906250000e+01 8.429726600646972656e+00 2.137359380722045898e-01 3.554073810577392578e+00 1.130342960357666016e+00 6.570475101470947266e-01
6.692000000000000000e+03 6.208594894409179688e+01 -1.117042827606201172e+01 1.941685676574707031e-01 3.881032943725585938e+00 1.222560524940490723e+00 3.983559608459472656e-01
6.693000000000000000e+03 6.208565521240234375e+01 -1.513093090057373047e+01 1.441963911056518555e-01 3.906440496444702148e+00 1.215191125869750977e+00 3.462559580802917480e-01
6.694000000000000000e+03 6.055529022216796875e+01 -1.090131282806396484e+01 2.119293212890625000e-01 3.560373544692993164e+00 1.131690859794616699e+00 3.845811486244201660e-01
6.695000000000000000e+03 6.370280838012695312e+01 1.624656677246093750e+01 9.725131839513778687e-02 3.776936292648315430e+00 1.162256240844726562e+00 8.071599602699279785e-01
6.696000000000000000e+03 2.151605415344238281e+01 3.189309883117675781e+01 2.209716243669390678e-03 6.704369932413101196e-02 2.077602408826351166e-02 2.347269095480442047e-02
6.697000000000000000e+03 1.779991722106933594e+01 2.369940948486328125e+01 3.155581420287489891e-03 8.508924394845962524e-02 2.647344768047332764e-02 3.010712191462516785e-02
6.698000000000000000e+03 1.838859558105468750e+01 2.574418640136718750e+01 1.022186479531228542e-03 7.692926377058029175e-02 2.338543534278869629e-02 2.725350111722946167e-02
6.699000000000000000e+03 6.393025207519531250e+01 -1.285913944244384766e+01 1.415614634752273560e-01 4.265676498413085938e+00 1.322171449661254883e+00 3.734482228755950928e-01
6.700000000000000000e+03 4.986647033691406250e+01 -6.715314865112304688e+00 4.083830118179321289e-01 1.311549186706542969e+00 5.159796476364135742e-01 2.365095466375350952e-01
6.701000000000000000e+03 6.005340576171875000e+01 7.902565002441406250e-01 2.765862941741943359e-01 3.268465995788574219e+00 1.063515663146972656e+00 5.550470352172851562e-01
6.702000000000000000e+03 2.047553634643554688e+01 2.774892807006835938e+01 3.356256987899541855e-03 7.595050334930419922e-02 2.379202842712402344e-02 3.048838116228580475e-02
6.703000000000000000e+03 5.935385131835937500e+01 -1.121598339080810547e+01 2.276485115289688110e-01 3.292231082916259766e+00 1.055963873863220215e+00 3.650510013103485107e-01
6.704000000000000000e+03 4.715578842163085938e+01 -5.121968269348144531e+00 4.266236126422882080e-01 7.769550085067749023e-01 3.610735833644866943e-01 1.858647614717483521e-01
6.705000000000000000e+03 5.186862564086914062e+01 -1.219015693664550781e+01 3.183922767639160156e-01 1.816617608070373535e+00 6.405029892921447754e-01 2.163236141204833984e-01
6.706000000000000000e+03 5.213690185546875000e+01 2.267753219604492188e+01 -7.243044376373291016e-01 8.979520201683044434e-02 -1.903527826070785522e-01 -5.924078822135925293e-01
6.707000000000000000e+03 5.117809677124023438e+01 2.073532295227050781e+01 -6.162105202674865723e-01 6.547447293996810913e-02 -1.652208119630813599e-01 -5.331318974494934082e-01
6.708000000000000000e+03 5.020557785034179688e+01 2.089630317687988281e+01 -6.959394812583923340e-01 -1.247342899441719055e-01 -2.462021261453628540e-01 -6.228860020637512207e-01
6.709000000000000000e+03 4.411485671997070312e+01 1.401628208160400391e+01 -6.181737184524536133e-01 -4.872314929962158203e-01 -3.316215574741363525e-01 -6.707900166511535645e-01
6.710000000000000000e+03 4.858348464965820312e+01 1.994808578491210938e+01 -7.193710207939147949e-01 -3.281485438346862793e-01 -3.142558634281158447e-01 -6.932073831558227539e-01
6.711000000000000000e+03 4.223141479492187500e+01 1.293350887298583984e+01 -6.947962045669555664e-01 -6.415699124336242676e-01 -4.009098410606384277e-01 -7.242777943611145020e-01
6.712000000000000000e+03 4.461626815795898438e+01 1.358295726776123047e+01 -5.594832301139831543e-01 -3.907357156276702881e-01 -2.850656807422637939e-01 -5.996235609054565430e-01
6.713000000000000000e+03 5.340586090087890625e+01 2.375399208068847656e+01 -7.396560311317443848e-01 2.375467717647552490e-01 -1.506327688694000244e-01 -5.743159651756286621e-01
6.714000000000000000e+03 5.401874160766601562e+01 2.344748306274414062e+01 -6.597480773925781250e-01 3.787722289562225342e-01 -8.429275453090667725e-02 -5.008470416069030762e-01
6.715000000000000000e+03 5.263273620605468750e+01 2.285056304931640625e+01 -7.066784501075744629e-01 1.689083427190780640e-01 -1.613310277462005615e-01 -5.654215812683105469e-01
6.716000000000000000e+03 4.722156524658203125e+01 1.658218002319335938e+01 -5.542647242546081543e-01 -2.620654404163360596e-01 -2.448990494012832642e-01 -5.926244258880615234e-01
6.717000000000000000e+03 3.465440750122070312e+01 1.262560367584228516e+00 -3.239515721797943115e-01 -6.096339225769042969e-01 -2.800756394863128662e-01 -4.363451153039932251e-02
6.718000000000000000e+03 3.539626312255859375e+01 1.707582116127014160e+00 -3.583439290523529053e-01 -5.817628502845764160e-01 -2.820320427417755127e-01 -7.981165498495101929e-02
6.719000000000000000e+03 4.442559432983398438e+01 1.451795005798339844e+01 -6.190335154533386230e-01 -4.885171949863433838e-01 -3.322652280330657959e-01 -6.779671311378479004e-01
6.720000000000000000e+03 4.463389205932617188e+01 1.499960136413574219e+01 -6.296019554138183594e-01 -5.018694996833801270e-01 -3.394414186477661133e-01 -6.987277269363403320e-01
6.721000000000000000e+03 4.599927902221679688e+01 1.595936107635498047e+01 -5.964035987854003906e-01 -3.929365575313568115e-01 -2.968020439147949219e-01 -6.544468998908996582e-01
6.722000000000000000e+03 4.537000274658203125e+01 1.571085929870605469e+01 -6.269049644470214844e-01 -4.625553786754608154e-01 -3.268381059169769287e-01 -6.917370557785034180e-01
6.723000000000000000e+03 5.310939788818359375e+01 2.305192565917968750e+01 -6.905474066734313965e-01 2.400671839714050293e-01 -1.351440697908401489e-01 -5.437512397766113281e-01
6.724000000000000000e+03 4.662426376342773438e+01 1.625306892395019531e+01 -5.728642344474792480e-01 -3.238711357116699219e-01 -2.690206170082092285e-01 -6.216455101966857910e-01
6.725000000000000000e+03 4.100226211547851562e+01 1.125340366363525391e+01 -6.864543557167053223e-01 -6.607323288917541504e-01 -4.041560292243957520e-01 -6.819089055061340332e-01
6.726000000000000000e+03 4.522060775756835938e+01 1.530667209625244141e+01 -6.081671118736267090e-01 -4.511775672435760498e-01 -3.178034126758575439e-01 -6.773761510848999023e-01
6.727000000000000000e+03 4.585745620727539062e+01 1.553230857849121094e+01 -5.822508931159973145e-01 -3.764399290084838867e-01 -2.876072525978088379e-01 -6.382968425750732422e-01
6.728000000000000000e+03 5.094586944580078125e+01 2.114043807983398438e+01 -6.710035800933837891e-01 -5.679741501808166504e-03 -2.030050009489059448e-01 -5.805449485778808594e-01
6.729000000000000000e+03 5.008756256103515625e+01 2.140731430053710938e+01 -7.556549310684204102e-01 -1.807211339473724365e-01 -2.809128165245056152e-01 -6.691354513168334961e-01
6.730000000000000000e+03 4.942228317260742188e+01 2.003266525268554688e+01 -6.753826737403869629e-01 -1.873784959316253662e-01 -2.588283419609069824e-01 -6.275704503059387207e-01
6.731000000000000000e+03 4.961109161376953125e+01 1.978814697265625000e+01 -6.413000226020812988e-01 -1.321647316217422485e-01 -2.320394217967987061e-01 -5.960967540740966797e-01
6.732000000000000000e+03 4.193295288085937500e+01 1.321603679656982422e+01 -7.363784313201904297e-01 -6.960186362266540527e-01 -4.297191202640533447e-01 -7.695876955986022949e-01
6.733000000000000000e+03 3.952685928344726562e+01 8.387037277221679688e+00 -6.281642317771911621e-01 -6.164893507957458496e-01 -3.733960688114166260e-01 -5.527506470680236816e-01
6.734000000000000000e+03 3.964546203613281250e+01 9.445913314819335938e+00 -6.878302097320556641e-01 -6.811619400978088379e-01 -4.106976389884948730e-01 -6.334791183471679688e-01
6.735000000000000000e+03 4.109217453002929688e+01 9.887589454650878906e+00 -6.021682024002075195e-01 -5.563267469406127930e-01 -3.475484848022460938e-01 -5.687466859817504883e-01
6.736000000000000000e+03 4.082937622070312500e+01 1.042231273651123047e+01 -6.449227333068847656e-01 -6.234441399574279785e-01 -3.805100619792938232e-01 -6.277471780776977539e-01
6.737000000000000000e+03 4.037698364257812500e+01 9.696005821228027344e+00 -6.453204751014709473e-01 -6.245272755622863770e-01 -3.809543251991271973e-01 -6.034780740737915039e-01
6.738000000000000000e+03 2.079035568237304688e+01 2.134910202026367188e+01 2.416786737740039825e-02 1.069732978940010071e-01 3.934235125780105591e-02 5.658669769763946533e-02
6.739000000000000000e+03 4.770467758178710938e+01 1.829565238952636719e+01 -6.459836959838867188e-01 -3.350622653961181641e-01 -2.943137884140014648e-01 -6.621910929679870605e-01
6.740000000000000000e+03 4.758716964721679688e+01 1.786868667602539062e+01 -6.209086775779724121e-01 -3.178183436393737793e-01 -2.816181182861328125e-01 -6.442477107048034668e-01
6.741000000000000000e+03 3.831181716918945312e+01 7.439589500427246094e+00 -6.807240247726440430e-01 -6.672511696815490723e-01 -4.043925702571868896e-01 -5.535038113594055176e-01
6.742000000000000000e+03 6.551029205322265625e+01 2.477666282653808594e+01 -3.143480047583580017e-02 3.704091310501098633e+00 1.101796984672546387e+00 1.411116480827331543e+00
6.743000000000000000e+03 3.718649291992187500e+01 4.822795391082763672e+00 -5.986921191215515137e-01 -5.859742164611816406e-01 -3.553999066352844238e-01 -3.592035472393035889e-01
6.744000000000000000e+03 3.829010772705078125e+01 6.271811485290527344e+00 -5.971767306327819824e-01 -5.952086448669433594e-01 -3.577156066894531250e-01 -4.451089501380920410e-01
6.745000000000000000e+03 5.431368637084960938e+01 2.412921905517578125e+01 -7.080044746398925781e-01 3.776029944419860840e-01 -9.912045300006866455e-02 -5.358340144157409668e-01
6.746000000000000000e+03 4.929809570312500000e+01 1.938593864440917969e+01 -6.296523809432983398e-01 -1.588954031467437744e-01 -2.365643382072448730e-01 -5.960994958877563477e-01
6.747000000000000000e+03 4.888482666015625000e+01 1.942266464233398438e+01 -6.580116152763366699e-01 -2.314909547567367554e-01 -2.668507695198059082e-01 -6.330485939979553223e-01
6.748000000000000000e+03 5.100605392456054688e+01 2.184397888183593750e+01 -7.282996773719787598e-01 -5.459874123334884644e-02 -2.348695248365402222e-01 -6.256579160690307617e-01
6.749000000000000000e+03 5.445015335083007812e+01 2.360570716857910156e+01 -6.356752514839172363e-01 4.418838620185852051e-01 -5.813741683959960938e-02 -4.822099804878234863e-01
6.750000000000000000e+03 2.027574539184570312e+01 2.336617279052734375e+01 1.259380485862493515e-02 9.483176469802856445e-02 3.222767263650894165e-02 4.438653960824012756e-02
6.751000000000000000e+03 5.613284683227539062e+01 2.355510902404785156e+01 -4.850170016288757324e-01 7.544007897377014160e-01 8.081514388322830200e-02 -3.218611478805541992e-01
6.752000000000000000e+03 6.735990905761718750e+01 2.600300216674804688e+01 -2.690160274505615234e-01 5.006180763244628906e+00 1.421149492263793945e+00 1.972875118255615234e+00
6.753000000000000000e+03 3.598490142822265625e+01 5.867130756378173828e-01 -1.317088305950164795e-01 -5.599550604820251465e-01 -2.074991762638092041e-01 -1.699425163678824902e-03
6.754000000000000000e+03 3.608099746704101562e+01 2.025541067123413086e+00 -3.473381400108337402e-01 -5.581427216529846191e-01 -2.716442644596099854e-01 -1.023688763380050659e-01
6.755000000000000000e+03 6.317528915405273438e+01 2.059648513793945312e+01 4.994124174118041992e-02 3.193578958511352539e+00 9.730560183525085449e-01 8.433500528335571289e-01
6.756000000000000000e+03 3.586470031738281250e+01 3.584987163543701172e+00 -5.956549048423767090e-01 -6.060310006141662598e-01 -3.605057895183563232e-01 -2.738240957260131836e-01
6.757000000000000000e+03 3.783889007568359375e+01 4.393123149871826172e+00 -4.731830060482025146e-01 -5.269130468368530273e-01 -3.000288307666778564e-01 -2.835592925548553467e-01
6.758000000000000000e+03 3.884123611450195312e+01 8.261228561401367188e+00 -6.789957880973815918e-01 -6.733550429344177246e-01 -4.057052433490753174e-01 -5.874915719032287598e-01
6.759000000000000000e+03 3.986735534667968750e+01 8.758626937866210938e+00 -6.279294490814208984e-01 -6.110025644302368164e-01 -3.716796040534973145e-01 -5.623879432678222656e-01
6.760000000000000000e+03 1.868608474731445312e+01 1.980306243896484375e+01 2.053302899003028870e-02 1.124191135168075562e-01 3.988564014434814453e-02 5.234557390213012695e-02
6.761000000000000000e+03 1.889970016479492188e+01 2.060769081115722656e+01 1.703384332358837128e-02 1.077522560954093933e-01 3.743582963943481445e-02 4.931989312171936035e-02
6.762000000000000000e+03 1.793103218078613281e+01 2.002253341674804688e+01 1.563438773155212402e-02 1.091746315360069275e-01 3.744270652532577515e-02 4.676258563995361328e-02
6.763000000000000000e+03 6.134988021850585938e+01 2.340275001525878906e+01 -2.956758812069892883e-02 1.988100767135620117e+00 5.875599384307861328e-01 4.666952490806579590e-01
6.764000000000000000e+03 5.657038116455078125e+01 2.275597953796386719e+01 -3.791243731975555420e-01 9.223467707633972168e-01 1.629667133092880249e-01 -2.059448659420013428e-01
6.765000000000000000e+03 5.721919250488281250e+01 2.328259277343750000e+01 -3.613121211528778076e-01 9.918353557586669922e-01 1.891569644212722778e-01 -1.784819066524505615e-01
6.766000000000000000e+03 4.122045135498046875e+01 1.328995227813720703e+01 -7.979696989059448242e-01 -7.865588068962097168e-01 -4.753585755825042725e-01 -8.277283906936645508e-01
6.767000000000000000e+03 4.113012695312500000e+01 1.265855979919433594e+01 -7.656285762786865234e-01 -7.474968433380126953e-01 -4.539376199245452881e-01 -7.814146876335144043e-01
6.768000000000000000e+03 3.496838760375976562e+01 2.425867319107055664e+00 -5.267521739006042480e-01 -6.086637377738952637e-01 -3.406247794628143311e-01 -1.606707274913787842e-01
6.769000000000000000e+03 1.933441352844238281e+01 2.126149749755859375e+01 1.614050008356571198e-02 1.044705882668495178e-01 3.618332743644714355e-02 4.827404767274856567e-02
6.770000000000000000e+03 1.994258117675781250e+01 2.167112731933593750e+01 1.830581016838550568e-02 1.035138666629791260e-01 3.654590249061584473e-02 5.017091706395149231e-02
6.771000000000000000e+03 6.075607299804687500e+01 2.361401367187500000e+01 -7.811390608549118042e-02 1.770665645599365234e+00 5.077655315399169922e-01 3.369011878967285156e-01
6.772000000000000000e+03 5.779991149902343750e+01 2.313689994812011719e+01 -2.924602031707763672e-01 1.128758788108825684e+00 2.508895695209503174e-01 -9.058258682489395142e-02
6.773000000000000000e+03 4.006575393676757812e+01 -7.983626723289489746e-01 2.158631682395935059e-01 -2.431137710809707642e-01 -8.175179362297058105e-03 7.274915277957916260e-02
6.774000000000000000e+03 2.203531265258789062e+01 2.421772575378417969e+01 1.761484518647193909e-02 9.556506574153900146e-02 3.395397588610649109e-02 4.931010678410530090e-02
6.775000000000000000e+03 2.118477630615234375e+01 2.337328529357910156e+01 1.669169962406158447e-02 9.742919355630874634e-02 3.423626720905303955e-02 4.884386062622070312e-02
6.776000000000000000e+03 6.481793212890625000e+01 2.025857925415039062e+01 -6.258809939026832581e-03 3.955806970596313477e+00 1.184864401817321777e+00 1.007438778877258301e+00
6.777000000000000000e+03 1.627837371826171875e+01 1.571416950225830078e+01 2.905853465199470520e-02 1.417893618345260620e-01 5.125436559319496155e-02 5.977145954966545105e-02
6.778000000000000000e+03 6.267422485351562500e+01 5.751741886138916016e+00 2.291842550039291382e-01 3.830161094665527344e+00 1.217803597450256348e+00 6.520351171493530273e-01
6.779000000000000000e+03 6.136887741088867188e+01 5.889323234558105469e+00 2.368073463439941406e-01 3.477360248565673828e+00 1.114250302314758301e+00 6.291878819465637207e-01
6.780000000000000000e+03 6.392594909667968750e+01 2.382528495788574219e+01 2.985462732613086700e-02 2.967720270156860352e+00 8.992724418640136719e-01 1.024816632270812988e+00
6.781000000000000000e+03 6.247629928588867188e+01 2.335540771484375000e+01 2.172574773430824280e-02 2.413619518280029297e+00 7.306035757064819336e-01 7.057992219924926758e-01
6.782000000000000000e+03 6.494662475585937500e+01 2.485130500793457031e+01 1.076988130807876587e-02 3.290332078933715820e+00 9.903305768966674805e-01 1.287643432617187500e+00
6.783000000000000000e+03 6.503443145751953125e+01 2.394618606567382812e+01 -5.233586765825748444e-03 3.586104154586791992e+00 1.074261188507080078e+00 1.259674429893493652e+00
6.784000000000000000e+03 6.269401931762695312e+01 1.340807247161865234e+01 1.400644183158874512e-01 3.570838928222656250e+00 1.113270998001098633e+00 7.147563695907592773e-01
6.785000000000000000e+03 6.439281463623046875e+01 2.273186492919921875e+01 8.207836188375949860e-03 3.436356544494628906e+00 1.033369302749633789e+00 1.078231573104858398e+00
6.786000000000000000e+03 6.513047790527343750e+01 2.344862174987792969e+01 -2.808244712650775909e-02 3.719182968139648438e+00 1.107330203056335449e+00 1.239470720291137695e+00
6.787000000000000000e+03 1.700142097473144531e+01 2.167479133605957031e+01 4.600199405103921890e-03 9.346102923154830933e-02 2.941836789250373840e-02 3.243933990597724915e-02
6.788000000000000000e+03 1.677833366394042969e+01 1.972275352478027344e+01 1.067675184458494186e-02 1.057136431336402893e-01 3.491711989045143127e-02 3.911339119076728821e-02
6.789000000000000000e+03 6.150929260253906250e+01 1.039108276367187500e+01 1.959978044033050537e-01 3.366024494171142578e+00 1.068606615066528320e+00 6.545901894569396973e-01
6.790000000000000000e+03 4.175693893432617188e+01 7.601481437683105469e+00 -3.999538421630859375e-01 -3.367303311824798584e-01 -2.210052460432052612e-01 -3.490049242973327637e-01
6.791000000000000000e+03 6.243914794921875000e+01 1.207385349273681641e+01 1.683679819107055664e-01 3.565079927444458008e+00 1.120034337043762207e+00 7.000523209571838379e-01
6.792000000000000000e+03 6.492771148681640625e+01 2.438348007202148438e+01 5.360757000744342804e-03 3.376157283782958984e+00 1.014455437660217285e+00 1.268407583236694336e+00
6.793000000000000000e+03 6.440570068359375000e+01 2.438576316833496094e+01 2.698763087391853333e-02 3.098444461822509766e+00 9.376296401023864746e-01 1.141991257667541504e+00
6.794000000000000000e+03 3.800341033935546875e+01 5.643926933407783508e-02 5.626388639211654663e-02 -4.283421337604522705e-01 -1.116234734654426575e-01 3.296465426683425903e-02
6.795000000000000000e+03 3.806791687011718750e+01 1.134423971176147461e+00 -8.012467622756958008e-02 -4.352298080921173096e-01 -1.546063423156738281e-01 -2.316236682236194611e-02
6.796000000000000000e+03 5.922402572631835938e+01 9.811557829380035400e-02 2.893298566341400146e-01 3.080125093460083008e+00 1.010836482048034668e+00 5.273644328117370605e-01
6.797000000000000000e+03 5.811485671997070312e+01 -1.809358358383178711e+00 3.116108477115631104e-01 2.880930900573730469e+00 9.577625393867492676e-01 4.775497615337371826e-01
6.798000000000000000e+03 6.226854705810546875e+01 1.092584419250488281e+01 1.863170117139816284e-01 3.574611186981201172e+00 1.128278374671936035e+00 6.830139160156250000e-01
6.799000000000000000e+03 6.089967346191406250e+01 3.042680740356445312e+00 2.603727579116821289e-01 3.425852298736572266e+00 1.105867505073547363e+00 5.911229252815246582e-01
6.800000000000000000e+03 6.174358749389648438e+01 3.732318401336669922e+00 2.460945099592208862e-01 3.622106075286865234e+00 1.160460114479064941e+00 6.154866218566894531e-01
6.801000000000000000e+03 5.508725357055664062e+01 -1.334205245971679688e+01 2.492282241582870483e-01 2.453159809112548828e+00 8.107163906097412109e-01 2.634604871273040771e-01
6.802000000000000000e+03 5.402621078491210938e+01 -9.438290596008300781e+00 3.311860263347625732e-01 2.168948173522949219e+00 7.500402927398681641e-01 2.924089729785919189e-01
6.803000000000000000e+03 5.759299087524414062e+01 -3.742057085037231445e+00 3.145310282707214355e-01 2.803246736526489258e+00 9.353333711624145508e-01 4.399451315402984619e-01
6.804000000000000000e+03 4.031027984619140625e+01 1.744744896888732910e+00 -3.097805567085742950e-02 -2.467599660158157349e-01 -8.332140743732452393e-02 -2.083373442292213440e-02
6.805000000000000000e+03 6.059471130371093750e+01 -6.743917942047119141e+00 2.572393417358398438e-01 3.508708238601684570e+00 1.129784226417541504e+00 4.512694776058197021e-01
6.806000000000000000e+03 5.937658309936523438e+01 -3.426326990127563477e+00 2.929418385028839111e-01 3.178163528442382812e+00 1.041331648826599121e+00 4.942536354064941406e-01
6.807000000000000000e+03 6.134357452392578125e+01 9.140330314636230469e+00 2.103329598903656006e-01 3.367147207260131836e+00 1.073243975639343262e+00 6.437624692916870117e-01
6.808000000000000000e+03 4.698116683959960938e+01 -3.958494901657104492e+00 4.080921709537506104e-01 7.301462292671203613e-01 3.414715230464935303e-01 1.988855302333831787e-01
6.809000000000000000e+03 1.824056816101074219e+01 2.454370498657226562e+01 1.903524273075163364e-03 8.220919966697692871e-02 2.523381635546684265e-02 2.974635735154151917e-02
6.810000000000000000e+03 4.566399765014648438e+01 -2.996643066406250000e+00 3.844285309314727783e-01 4.988219738006591797e-01 2.649751603603363037e-01 1.756803393363952637e-01
6.811000000000000000e+03 4.582758331298828125e+01 -4.176266670227050781e+00 4.169533252716064453e-01 5.463421940803527832e-01 2.889886498451232910e-01 1.639535427093505859e-01
6.812000000000000000e+03 5.005344009399414062e+01 -7.580338478088378906e+00 3.949178755283355713e-01 1.355111122131347656e+00 5.250086784362792969e-01 2.260131835937500000e-01
6.813000000000000000e+03 6.310536193847656250e+01 1.700400352478027344e+01 9.308775514364242554e-02 3.494348287582397461e+00 1.076230883598327637e+00 7.780785560607910156e-01
6.814000000000000000e+03 6.139675521850585938e+01 -1.029362487792968750e+01 2.143434882164001465e-01 3.730489730834960938e+00 1.183449983596801758e+00 4.027782976627349854e-01
6.815000000000000000e+03 5.980450439453125000e+01 -8.505304336547851562e+00 2.595432698726654053e-01 3.353803157806396484e+00 1.084003925323486328e+00 4.109013378620147705e-01
6.816000000000000000e+03 2.022291374206542969e+01 3.009386634826660156e+01 2.227351797046139836e-04 6.763802468776702881e-02 2.035822905600070953e-02 2.372654713690280914e-02
6.817000000000000000e+03 1.925506973266601562e+01 2.852792167663574219e+01 -1.476964913308620453e-03 6.887559592723846436e-02 2.021958865225315094e-02 2.333335764706134796e-02
6.818000000000000000e+03 6.200352478027343750e+01 -1.301902866363525391e+01 1.624371558427810669e-01 3.866048812866210938e+00 1.208545804023742676e+00 3.722517490386962891e-01
6.819000000000000000e+03 1.764830207824707031e+01 2.231567764282226562e+01 5.960218608379364014e-03 9.260737150907516479e-02 2.957027778029441833e-02 3.381267189979553223e-02
6.820000000000000000e+03 2.309939575195312500e+01 3.375878524780273438e+01 6.201612297445535660e-03 6.766971200704574585e-02 2.216139622032642365e-02 2.230719290673732758e-02
6.821000000000000000e+03 1.945161437988281250e+01 2.543721771240234375e+01 3.960746340453624725e-03 8.264365792274475098e-02 2.598132006824016571e-02 3.270825743675231934e-02
6.822000000000000000e+03 1.991180038452148438e+01 2.655179977416992188e+01 3.953372128307819366e-03 7.933442294597625732e-02 2.498633973300457001e-02 3.180554881691932678e-02
6.823000000000000000e+03 1.871235847473144531e+01 2.707022666931152344e+01 -1.010560779832303524e-03 7.192585617303848267e-02 2.127458713948726654e-02 2.456266805529594421e-02
6.824000000000000000e+03 5.988736343383789062e+01 -1.505416870117187500e+01 1.695958822965621948e-01 3.468900203704833984e+00 1.091548800468444824e+00 3.259696960449218750e-01
6.825000000000000000e+03 6.109813690185546875e+01 -1.866943550109863281e+01 1.098234355449676514e-01 3.731596946716308594e+00 1.152426123619079590e+00 3.096004724502563477e-01
6.826000000000000000e+03 5.769070053100585938e+01 -1.506529140472412109e+01 1.903074681758880615e-01 3.011235475540161133e+00 9.604629278182983398e-01 2.957387864589691162e-01
6.827000000000000000e+03 5.121893692016601562e+01 -9.175044059753417969e+00 3.730338513851165771e-01 1.613871335983276367e+00 5.960715413093566895e-01 2.339368611574172974e-01
6.828000000000000000e+03 5.075325775146484375e+01 -6.985879898071289062e+00 3.942620158195495605e-01 1.476075291633605957e+00 5.611011981964111328e-01 2.556959688663482666e-01
6.829000000000000000e+03 2.087424468994140625e+01 3.591591644287109375e+01 -6.929265800863504410e-04 5.568506196141242981e-02 1.649763993918895721e-02 1.246977131813764572e-02
6.830000000000000000e+03 4.135123062133789062e+01 1.073746395111083984e+01 -6.231845021247863770e-01 -5.875286459922790527e-01 -3.632139265537261963e-01 -6.176714301109313965e-01
6.831000000000000000e+03 4.338748550415039062e+01 1.306443786621093750e+01 -6.191731691360473633e-01 -5.071042776107788086e-01 -3.378832340240478516e-01 -6.526514887809753418e-01
6.832000000000000000e+03 5.278942108154296875e+01 2.234618759155273438e+01 -6.417364478111267090e-01 2.366852313280105591e-01 -1.215153560042381287e-01 -5.158390402793884277e-01
6.833000000000000000e+03 4.371838378906250000e+01 1.354657745361328125e+01 -6.231595277786254883e-01 -5.007148385047912598e-01 -3.371622860431671143e-01 -6.650461554527282715e-01
6.834000000000000000e+03 4.245285034179687500e+01 1.231427097320556641e+01 -6.419039964675903320e-01 -5.626431107521057129e-01 -3.613641262054443359e-01 -6.591016054153442383e-01
6.835000000000000000e+03 4.267393493652343750e+01 1.275991821289062500e+01 -6.514201760292053223e-01 -5.683021545410156250e-01 -3.659166991710662842e-01 -6.779758930206298828e-01
6.836000000000000000e+03 4.511879348754882812e+01 1.385144615173339844e+01 -5.390210151672363281e-01 -3.479636311531066895e-01 -2.660953998565673828e-01 -5.823264122009277344e-01
6.837000000000000000e+03 5.357187271118164062e+01 2.325694847106933594e+01 -6.748873591423034668e-01 3.115942776203155518e-01 -1.089879199862480164e-01 -5.235037803649902344e-01
6.838000000000000000e+03 4.781339263916015625e+01 1.690693092346191406e+01 -5.384684801101684570e-01 -1.964933425188064575e-01 -2.204885482788085938e-01 -5.638998746871948242e-01
6.839000000000000000e+03 4.768915939331054688e+01 1.648435211181640625e+01 -5.171187520027160645e-01 -1.808542758226394653e-01 -2.093919217586517334e-01 -5.474134683609008789e-01
6.840000000000000000e+03 4.500205230712890625e+01 1.437324428558349609e+01 -5.767521858215332031e-01 -3.992114365100860596e-01 -2.927890717983245850e-01 -6.275771260261535645e-01
6.841000000000000000e+03 4.508721542358398438e+01 1.486873626708984375e+01 -5.982356071472167969e-01 -4.309637248516082764e-01 -3.087598085403442383e-01 -6.567181944847106934e-01
6.842000000000000000e+03 4.552340698242187500e+01 1.480747699737548828e+01 -5.667624473571777344e-01 -3.599174916744232178e-01 -2.780039906501770020e-01 -6.181790232658386230e-01
6.843000000000000000e+03 5.327556991577148438e+01 2.255601692199707031e+01 -6.270431280136108398e-01 3.111222684383392334e-01 -9.477625042200088501e-02 -4.919641613960266113e-01
6.844000000000000000e+03 5.374077606201171875e+01 2.275789451599121094e+01 -6.113076806068420410e-01 3.851346075534820557e-01 -6.785192340612411499e-02 -4.703412353992462158e-01
6.845000000000000000e+03 4.711873245239257812e+01 1.613769149780273438e+01 -5.324080586433410645e-01 -2.402931451797485352e-01 -2.318103611469268799e-01 -5.717905163764953613e-01
6.846000000000000000e+03 4.651063537597656250e+01 1.580916404724121094e+01 -5.525889396667480469e-01 -3.046695590019226074e-01 -2.571775615215301514e-01 -6.036975383758544922e-01
6.847000000000000000e+03 5.072809982299804688e+01 2.048000717163085938e+01 -6.254923343658447266e-01 1.842310302890837193e-03 -1.870950013399124146e-01 -5.529114007949829102e-01
6.848000000000000000e+03 5.038743591308593750e+01 2.119096183776855469e+01 -7.137538790702819824e-01 -1.212937533855438232e-01 -2.505142986774444580e-01 -6.287744641304016113e-01
6.849000000000000000e+03 4.896281814575195312e+01 1.983081054687500000e+01 -6.863760948181152344e-01 -2.531808018684387207e-01 -2.818670868873596191e-01 -6.524329781532287598e-01
6.850000000000000000e+03 4.846639633178710938e+01 1.950932693481445312e+01 -6.923918128013610840e-01 -3.096688091754913330e-01 -3.006182014942169189e-01 -6.740114688873291016e-01
6.851000000000000000e+03 4.820348739624023438e+01 1.818155670166015625e+01 -6.049718856811523438e-01 -2.439835965633392334e-01 -2.546866536140441895e-01 -6.107308268547058105e-01
6.852000000000000000e+03 4.565687561035156250e+01 1.515932273864746094e+01 -5.763472914695739746e-01 -3.700271546840667725e-01 -2.839123308658599854e-01 -6.314718127250671387e-01
6.853000000000000000e+03 4.795295715332031250e+01 1.732637405395507812e+01 -5.593187808990478516e-01 -2.133495360612869263e-01 -2.318004965782165527e-01 -5.799639225006103516e-01
6.854000000000000000e+03 4.293803405761718750e+01 1.208752822875976562e+01 -5.907811522483825684e-01 -4.885276556015014648e-01 -3.237926363945007324e-01 -6.111906766891479492e-01
6.855000000000000000e+03 4.829660034179687500e+01 1.862259101867675781e+01 -6.316081881523132324e-01 -2.665626108646392822e-01 -2.694512307643890381e-01 -6.324486136436462402e-01
6.856000000000000000e+03 4.089404296875000000e+01 9.459123611450195312e+00 -5.899294018745422363e-01 -5.496627092361450195e-01 -3.418776392936706543e-01 -5.478536486625671387e-01
6.857000000000000000e+03 4.064030075073242188e+01 1.008120250701904297e+01 -6.475752592086791992e-01 -6.237141489982604980e-01 -3.813868463039398193e-01 -6.142110824584960938e-01
6.858000000000000000e+03 4.124247741699218750e+01 1.030815601348876953e+01 -6.137545108795166016e-01 -5.704345107078552246e-01 -3.552567362785339355e-01 -5.922294855117797852e-01
6.859000000000000000e+03 4.065866470336914062e+01 9.001418113708496094e+00 -5.842992663383483887e-01 -5.499835014343261719e-01 -3.402848243713378906e-01 -5.310572981834411621e-01
6.860000000000000000e+03 3.857914352416992188e+01 7.856774806976318359e+00 -6.815336346626281738e-01 -6.691987514495849609e-01 -4.052197039127349854e-01 -5.727583765983581543e-01
6.861000000000000000e+03 4.195745468139648438e+01 1.255393505096435547e+01 -6.910490393638610840e-01 -6.441875100135803223e-01 -4.005709588527679443e-01 -7.139577865600585938e-01
6.862000000000000000e+03 6.126213073730468750e+01 2.279661178588867188e+01 -1.082898862659931183e-02 2.079043388366699219e+00 6.204643249511718750e-01 4.843816459178924561e-01
6.863000000000000000e+03 5.029645156860351562e+01 2.022261238098144531e+01 -6.331794857978820801e-01 -5.372114852070808411e-02 -2.060701847076416016e-01 -5.718133449554443359e-01
6.864000000000000000e+03 3.630235671997070312e+01 3.977710247039794922e+00 -5.951235890388488770e-01 -5.954806208610534668e-01 -3.571812808513641357e-01 -3.025494813919067383e-01
6.865000000000000000e+03 5.137982940673828125e+01 2.227499771118164062e+01 -7.436304092407226562e-01 -2.347186207771301270e-02 -2.301306724548339844e-01 -6.246796846389770508e-01
6.866000000000000000e+03 5.226373291015625000e+01 2.213685989379882812e+01 -6.660625934600830078e-01 1.521124988794326782e-01 -1.541850268840789795e-01 -5.457954406738281250e-01
6.867000000000000000e+03 3.793888092041015625e+01 5.786345481872558594e+00 -5.969705581665039062e-01 -5.854302048683166504e-01 -3.547202348709106445e-01 -4.162785410881042480e-01
6.868000000000000000e+03 5.543104934692382812e+01 2.243736267089843750e+01 -4.378921091556549072e-01 7.346955537796020508e-01 8.904103934764862061e-02 -2.880791127681732178e-01
6.869000000000000000e+03 5.516900634765625000e+01 2.281897735595703125e+01 -5.144284963607788086e-01 6.362711787223815918e-01 3.655280545353889465e-02 -3.550270795822143555e-01
6.870000000000000000e+03 4.006291961669921875e+01 -1.979332119226455688e-01 1.430153250694274902e-01 -2.486977130174636841e-01 -3.170471265912055969e-02 5.001948401331901550e-02
6.871000000000000000e+03 3.968644332885742188e+01 8.003701210021972656e+00 -5.942559242248535156e-01 -5.790190696716308594e-01 -3.519825041294097900e-01 -5.119110345840454102e-01
6.872000000000000000e+03 3.556123733520507812e+01 2.264178037643432617e+00 -4.517542421817779541e-01 -5.904973149299621582e-01 -3.126754760742187500e-01 -1.359314471483230591e-01
6.873000000000000000e+03 3.593750381469726562e+01 1.581904888153076172e+00 -3.017665147781372070e-01 -5.707456469535827637e-01 -2.617536485195159912e-01 -6.867837905883789062e-02
6.874000000000000000e+03 3.957906723022460938e+01 7.519137859344482422e+00 -5.634225010871887207e-01 -5.570802688598632812e-01 -3.361508250236511230e-01 -4.740860760211944580e-01
6.875000000000000000e+03 3.642078018188476562e+01 1.477427601814270020e+00 -2.220688015222549438e-01 -5.313155055046081543e-01 -2.260152846574783325e-01 -5.385765433311462402e-02
6.876000000000000000e+03 3.674370193481445312e+01 2.095159053802490234e+00 -3.023370802402496338e-01 -5.345528125762939453e-01 -2.510669827461242676e-01 -9.368189424276351929e-02
6.877000000000000000e+03 5.589682388305664062e+01 2.221682929992675781e+01 -3.900715112686157227e-01 8.459722399711608887e-01 1.367702186107635498e-01 -2.301346808671951294e-01
6.878000000000000000e+03 2.119642639160156250e+01 2.262906646728515625e+01 1.924242265522480011e-02 1.004431918263435364e-01 3.590568527579307556e-02 5.199426412582397461e-02
6.879000000000000000e+03 5.133469009399414062e+01 2.146827507019042969e+01 -6.733745336532592773e-01 3.213612362742424011e-02 -1.923715174198150635e-01 -5.728488564491271973e-01
6.880000000000000000e+03 4.169829559326171875e+01 1.020536327362060547e+01 -5.725120902061462402e-01 -5.091108083724975586e-01 -3.244868814945220947e-01 -5.538397431373596191e-01
6.881000000000000000e+03 5.903583908081054688e+01 2.302344131469726562e+01 -1.691733002662658691e-01 1.424877166748046875e+00 3.767111599445343018e-01 1.012416556477546692e-01
6.882000000000000000e+03 6.000117492675781250e+01 2.314593505859375000e+01 -1.040329039096832275e-01 1.638878345489501953e+00 4.604536592960357666e-01 2.387928217649459839e-01
6.883000000000000000e+03 6.293645095825195312e+01 2.275951194763183594e+01 3.603501990437507629e-02 2.725689411163330078e+00 8.285173177719116211e-01 8.047128319740295410e-01
6.884000000000000000e+03 6.332586669921875000e+01 2.376294708251953125e+01 3.207761421799659729e-02 2.680288791656494141e+00 8.137099146842956543e-01 8.756694197654724121e-01
6.885000000000000000e+03 6.218210601806640625e+01 1.479055404663085938e+01 1.311425417661666870e-01 3.331656455993652344e+00 1.038839697837829590e+00 7.056586146354675293e-01
6.886000000000000000e+03 6.288258743286132812e+01 1.574899578094482422e+01 1.103406846523284912e-01 3.528391838073730469e+00 1.091619729995727539e+00 7.551804780960083008e-01
6.887000000000000000e+03 3.969644927978515625e+01 3.857544064521789551e-01 8.086093515157699585e-02 -2.866250574588775635e-01 -6.172924116253852844e-02 3.350742906332015991e-02
6.888000000000000000e+03 5.841382598876953125e+01 2.299953269958496094e+01 -2.222046554088592529e-01 1.294176220893859863e+00 3.215914666652679443e-01 9.032278321683406830e-03
6.889000000000000000e+03 3.652385711669921875e+01 1.802795290946960449e+00 -2.974038124084472656e-01 -5.299748182296752930e-01 -2.482135891914367676e-01 -8.765796571969985962e-02
6.890000000000000000e+03 5.894342422485351562e+01 2.363015365600585938e+01 -2.379587441682815552e-01 1.282330870628356934e+00 3.133116364479064941e-01 1.776684820652008057e-02
6.891000000000000000e+03 2.023439979553222656e+01 2.424139022827148438e+01 1.015785057097673416e-02 9.116973727941513062e-02 3.039827570319175720e-02 4.114614054560661316e-02
6.892000000000000000e+03 3.906225204467773438e+01 7.650251388549804688e+00 -6.273604631423950195e-01 -6.152560114860534668e-01 -3.727849423885345459e-01 -5.232951641082763672e-01
6.893000000000000000e+03 3.746971511840820312e+01 6.591637730598449707e-01 -5.865528807044029236e-02 -4.678342938423156738e-01 -1.579468697309494019e-01 -2.852032193914055824e-03
6.894000000000000000e+03 3.858271026611328125e+01 5.213347673416137695e-01 2.326472289860248566e-02 -3.813872635364532471e-01 -1.074367687106132507e-01 1.681631244719028473e-02
6.895000000000000000e+03 1.962069892883300781e+01 2.237221145629882812e+01 1.324987970292568207e-02 9.884947538375854492e-02 3.362980484962463379e-02 4.518374800682067871e-02
6.896000000000000000e+03 6.468592071533203125e+01 2.128565597534179688e+01 -5.307030398398637772e-03 3.804937362670898438e+00 1.139889121055603027e+00 1.044177055358886719e+00
6.897000000000000000e+03 4.308271789550781250e+01 -3.159511983394622803e-01 2.298877686262130737e-01 9.940655529499053955e-02 9.878829866647720337e-02 9.596338868141174316e-02
6.898000000000000000e+03 6.422431945800781250e+01 2.068303871154785156e+01 2.090540900826454163e-02 3.653897523880004883e+00 1.102440834045410156e+00 9.666962623596191406e-01
6.899000000000000000e+03 6.378318023681640625e+01 1.758110427856445312e+01 7.403789460659027100e-02 3.718358516693115234e+00 1.137718915939331055e+00 8.305672407150268555e-01
6.900000000000000000e+03 6.436886596679687500e+01 1.955963897705078125e+01 1.558750215917825699e-02 3.809783458709716797e+00 1.147611260414123535e+00 9.352506995201110840e-01
6.901000000000000000e+03 6.236243438720703125e+01 1.273497104644775391e+01 1.573484688997268677e-01 3.509762287139892578e+00 1.100133180618286133e+00 6.953040957450866699e-01
6.902000000000000000e+03 5.840326690673828125e+01 -5.484990477561950684e-01 3.039445877075195312e-01 2.898844718933105469e+00 9.608367681503295898e-01 4.964632093906402588e-01
6.903000000000000000e+03 6.164468765258789062e+01 1.300508308410644531e+01 1.590408980846405029e-01 3.279953241348266602e+00 1.031698226928710938e+00 6.674081087112426758e-01
6.904000000000000000e+03 6.165025329589843750e+01 7.173712253570556641e+00 2.267043739557266235e-01 3.518235206604003906e+00 1.123481869697570801e+00 6.411452293395996094e-01
6.905000000000000000e+03 6.389411544799804688e+01 2.253420639038085938e+01 2.256375364959239960e-02 3.184949636459350586e+00 9.622539877891540527e-01 9.697069525718688965e-01
6.906000000000000000e+03 4.401232528686523438e+01 -1.086870551109313965e+00 2.881967425346374512e-01 2.207700163125991821e-01 1.526900231838226318e-01 1.267298161983489990e-01
6.907000000000000000e+03 6.010445785522460938e+01 2.315444946289062500e+00 2.724348902702331543e-01 3.250510454177856445e+00 1.056883573532104492e+00 5.705366134643554688e-01
6.908000000000000000e+03 5.834014129638671875e+01 -3.339647054672241211e+00 2.991209626197814941e-01 2.958339691162109375e+00 9.772381782531738281e-01 4.658499956130981445e-01
6.909000000000000000e+03 5.960606384277343750e+01 -5.461996555328369141e+00 2.797540128231048584e-01 3.272957086563110352e+00 1.065813302993774414e+00 4.648583531379699707e-01
6.910000000000000000e+03 6.108306121826171875e+01 4.519832134246826172e+00 2.511859536170959473e-01 3.440964460372924805e+00 1.107645153999328613e+00 6.131647825241088867e-01
6.911000000000000000e+03 6.014528274536132812e+01 3.874427318572998047e+00 2.636465728282928467e-01 3.207114934921264648e+00 1.041228413581848145e+00 5.805904865264892578e-01
6.912000000000000000e+03 6.373733139038085938e+01 2.007092857360839844e+01 3.539550676941871643e-02 3.486407279968261719e+00 1.056540846824645996e+00 8.894271254539489746e-01
6.913000000000000000e+03 6.130878448486328125e+01 1.776844215393066406e+01 8.152521401643753052e-02 2.811585187911987305e+00 8.679330945014953613e-01 6.205620765686035156e-01
6.914000000000000000e+03 4.682755279541015625e+01 -2.782900810241699219e+00 3.730466663837432861e-01 6.754407882690429688e-01 3.145462274551391602e-01 1.900480836629867554e-01
6.915000000000000000e+03 4.978549957275390625e+01 -5.683364391326904297e+00 4.039363861083984375e-01 1.263015151023864746e+00 5.000854730606079102e-01 2.516262531280517578e-01
6.916000000000000000e+03 4.855232620239257812e+01 -5.950898170471191406e+00 4.180114269256591797e-01 1.039328575134277344e+00 4.372020065784454346e-01 2.092088162899017334e-01
6.917000000000000000e+03 5.929133987426757812e+01 -6.658455371856689453e+00 2.781409323215484619e-01 3.224896907806396484e+00 1.050911307334899902e+00 4.379318356513977051e-01
6.918000000000000000e+03 5.807445144653320312e+01 -6.200520515441894531e+00 3.032785058021545410e-01 2.930278778076171875e+00 9.700672030448913574e-01 4.263394176959991455e-01
6.919000000000000000e+03 5.937184524536132812e+01 -4.612627029418945312e+00 3.040422499179840088e-01 3.226639270782470703e+00 1.059204459190368652e+00 4.777946174144744873e-01
6.920000000000000000e+03 4.311262512207031250e+01 -1.065120339393615723e+00 2.861188054084777832e-01 1.129546612501144409e-01 1.197220459580421448e-01 1.114927604794502258e-01
6.921000000000000000e+03 4.381282806396484375e+01 -2.073536068201065063e-01 2.429152727127075195e-01 1.876604408025741577e-01 1.291727125644683838e-01 1.164926961064338684e-01
6.922000000000000000e+03 1.842126464843750000e+01 2.289168930053710938e+01 6.181832402944564819e-03 9.157732129096984863e-02 2.932774461805820465e-02 3.596229851245880127e-02
6.923000000000000000e+03 1.815085220336914062e+01 2.158025360107421875e+01 9.690709412097930908e-03 9.886200726032257080e-02 3.256581351161003113e-02 4.026518017053604126e-02
6.924000000000000000e+03 5.725307083129882812e+01 -1.886570930480957031e+00 3.194489777088165283e-01 2.668932914733886719e+00 8.965145945549011230e-01 4.571849405765533447e-01
6.925000000000000000e+03 5.852207946777343750e+01 8.570249080657958984e-01 2.932404875755310059e-01 2.885109663009643555e+00 9.535050392150878906e-01 5.156545639038085938e-01
6.926000000000000000e+03 5.769749450683593750e+01 1.688517928123474121e-01 3.059939444065093994e-01 2.724550485610961914e+00 9.091632962226867676e-01 4.881779253482818604e-01
6.927000000000000000e+03 6.053488540649414062e+01 5.324543952941894531e+00 2.446823418140411377e-01 3.282670497894287109e+00 1.058205842971801758e+00 6.010335087776184082e-01
6.928000000000000000e+03 2.033060073852539062e+01 2.512736892700195312e+01 7.733024656772613525e-03 8.669737726449966431e-02 2.832911908626556396e-02 3.781316429376602173e-02
6.929000000000000000e+03 1.832618904113769531e+01 3.114725685119628906e+01 -4.329055547714233398e-03 5.494136735796928406e-02 1.518369279801845551e-02 1.516885962337255478e-02
6.930000000000000000e+03 6.241005706787109375e+01 1.650501251220703125e+01 1.062931492924690247e-01 3.298563957214355469e+00 1.021457195281982422e+00 7.249931693077087402e-01
6.931000000000000000e+03 6.113170623779296875e+01 7.892107963562011719e+00 2.232353985309600830e-01 3.352110624313354492e+00 1.072603821754455566e+00 6.301584839820861816e-01
6.932000000000000000e+03 6.095737075805664062e+01 -1.399351787567138672e+01 1.692527532577514648e-01 3.655699729919433594e+00 1.147485733032226562e+00 3.480994403362274170e-01
6.933000000000000000e+03 6.112162017822265625e+01 -1.196986389160156250e+01 1.999333351850509644e-01 3.675633907318115234e+00 1.162670135498046875e+00 3.818308115005493164e-01
6.934000000000000000e+03 5.590237808227539062e+01 -1.195563030242919922e+01 2.689756453037261963e-01 2.583904266357421875e+00 8.558639287948608398e-01 3.023826777935028076e-01
6.935000000000000000e+03 4.833729171752929688e+01 -4.856571197509765625e+00 4.115466475486755371e-01 9.843719601631164551e-01 4.187755882740020752e-01 2.211960852146148682e-01
6.936000000000000000e+03 4.927085876464843750e+01 -3.507527828216552734e+00 3.870110809803009033e-01 1.118448257446289062e+00 4.516378045082092285e-01 2.540824413299560547e-01
6.937000000000000000e+03 1.932552909851074219e+01 2.326594543457031250e+01 9.186361916363239288e-03 9.309158474206924438e-02 3.068338334560394287e-02 3.961418196558952332e-02
6.938000000000000000e+03 5.382558822631835938e+01 -1.249706554412841797e+01 2.848410308361053467e-01 2.182447910308837891e+00 7.401866912841796875e-01 2.512132525444030762e-01
6.939000000000000000e+03 5.646294021606445312e+01 -1.408547401428222656e+01 2.213517427444458008e-01 2.760837316513061523e+00 8.946567177772521973e-01 2.820572853088378906e-01
6.940000000000000000e+03 5.870010757446289062e+01 -1.376333045959472656e+01 2.026005089282989502e-01 3.197460651397705078e+00 1.020018339157104492e+00 3.257439136505126953e-01
6.941000000000000000e+03 5.826367187500000000e+01 -9.451521873474121094e+00 2.678487896919250488e-01 3.045662879943847656e+00 9.940535426139831543e-01 3.832990825176239014e-01
6.942000000000000000e+03 5.184891510009765625e+01 -8.539073944091796875e+00 3.743090331554412842e-01 1.719030022621154785e+00 6.280017495155334473e-01 2.782189846038818359e-01
6.943000000000000000e+03 5.464884948730468750e+01 -1.125264930725097656e+01 2.913394868373870850e-01 2.344340085983276367e+00 7.907038927078247070e-01 2.847527563571929932e-01
6.944000000000000000e+03 5.160856246948242188e+01 2.102777862548828125e+01 -6.117189526557922363e-01 1.212975978851318359e-01 -1.471264064311981201e-01 -5.162269473075866699e-01
6.945000000000000000e+03 5.298330307006835938e+01 2.184116363525390625e+01 -5.894022583961486816e-01 3.139760196208953857e-01 -8.262787759304046631e-02 -4.622830748558044434e-01
6.946000000000000000e+03 4.223896408081054688e+01 1.188224983215332031e+01 -6.302024722099304199e-01 -5.608554482460021973e-01 -3.573173880577087402e-01 -6.421381235122680664e-01
6.947000000000000000e+03 4.431894302368164062e+01 1.245952796936035156e+01 -5.135716795921325684e-01 -3.434850573539733887e-01 -2.571170330047607422e-01 -5.404353737831115723e-01
6.948000000000000000e+03 4.553860473632812500e+01 1.440740680694580078e+01 -5.356429219245910645e-01 -3.253228068351745605e-01 -2.582897245883941650e-01 -5.847353935241699219e-01
6.949000000000000000e+03 5.342845916748046875e+01 2.085912704467773438e+01 -4.659243822097778320e-01 4.855193495750427246e-01 5.878488067537546158e-03 -3.529000878334045410e-01
6.950000000000000000e+03 4.759648132324218750e+01 1.604968070983886719e+01 -4.972059726715087891e-01 -1.576694250106811523e-01 -1.964626163244247437e-01 -5.260706543922424316e-01
6.951000000000000000e+03 4.827518081665039062e+01 1.678127670288085938e+01 -5.007973313331604004e-01 -1.120575442910194397e-01 -1.838564723730087280e-01 -5.171462297439575195e-01
6.952000000000000000e+03 5.418429946899414062e+01 2.294302749633789062e+01 -5.960727930068969727e-01 4.519802331924438477e-01 -4.322776570916175842e-02 -4.486036002635955811e-01
6.953000000000000000e+03 5.345597457885742188e+01 2.206071662902832031e+01 -5.670202374458312988e-01 3.870235681533813477e-01 -5.399899184703826904e-02 -4.389124512672424316e-01
6.954000000000000000e+03 4.804536819458007812e+01 1.599136447906494141e+01 -4.646905660629272461e-01 -7.971388101577758789e-02 -1.633213311433792114e-01 -4.855829179286956787e-01
6.955000000000000000e+03 4.638772964477539062e+01 1.536762332916259766e+01 -5.409526824951171875e-01 -2.879474461078643799e-01 -2.486700415611267090e-01 -5.829412341117858887e-01
6.956000000000000000e+03 4.808832550048828125e+01 1.774962425231933594e+01 -5.831888318061828613e-01 -2.252397984266281128e-01 -2.425285875797271729e-01 -5.952525734901428223e-01
6.957000000000000000e+03 4.992972183227539062e+01 1.997052383422851562e+01 -6.357059478759765625e-01 -9.406417608261108398e-02 -2.189310342073440552e-01 -5.845375061035156250e-01
6.958000000000000000e+03 5.185300064086914062e+01 2.055500411987304688e+01 -5.529674887657165527e-01 2.103215456008911133e-01 -1.027937829494476318e-01 -4.632090032100677490e-01
6.959000000000000000e+03 4.873579788208007812e+01 1.806849288940429688e+01 -5.639650225639343262e-01 -1.461305022239685059e-01 -2.130286544561386108e-01 -5.610553622245788574e-01
6.960000000000000000e+03 4.970618820190429688e+01 1.943881797790527344e+01 -6.071049571037292480e-01 -8.955268561840057373e-02 -2.089972943067550659e-01 -5.659170150756835938e-01
6.961000000000000000e+03 4.812755584716796875e+01 1.639040565490722656e+01 -4.846433401107788086e-01 -9.967346489429473877e-02 -1.752950400114059448e-01 -5.041044950485229492e-01
6.962000000000000000e+03 4.590636825561523438e+01 1.487672328948974609e+01 -5.382983088493347168e-01 -3.124670982360839844e-01 -2.552296221256256104e-01 -5.865901112556457520e-01
6.963000000000000000e+03 4.632028579711914062e+01 1.495207595825195312e+01 -5.153075456619262695e-01 -2.638369500637054443e-01 -2.337433397769927979e-01 -5.632683634757995605e-01
6.964000000000000000e+03 4.205329895019531250e+01 1.146222782135009766e+01 -6.244449019432067871e-01 -5.549216866493225098e-01 -3.538099825382232666e-01 -6.231389641761779785e-01
6.965000000000000000e+03 4.501448440551757812e+01 1.311485099792480469e+01 -4.956250190734863281e-01 -2.961707115173339844e-01 -2.375387251377105713e-01 -5.346316695213317871e-01
6.966000000000000000e+03 4.702912139892578125e+01 1.567909717559814453e+01 -5.124972462654113770e-01 -2.104151844978332520e-01 -2.168737351894378662e-01 -5.481768846511840820e-01
6.967000000000000000e+03 4.845150756835937500e+01 1.718449401855468750e+01 -5.176907181739807129e-01 -1.160306558012962341e-01 -1.901164203882217407e-01 -5.280291438102722168e-01
6.968000000000000000e+03 4.421071243286132812e+01 1.318659210205078125e+01 -5.638145208358764648e-01 -4.138723611831665039e-01 -2.933060824871063232e-01 -6.032182574272155762e-01
6.969000000000000000e+03 4.038729095458984375e+01 8.518690109252929688e+00 -5.735636353492736816e-01 -5.439400672912597656e-01 -3.352510929107666016e-01 -5.094053745269775391e-01
6.970000000000000000e+03 4.143883132934570312e+01 9.278165817260742188e+00 -5.369707345962524414e-01 -4.800997078418731689e-01 -3.051211237907409668e-01 -5.008646249771118164e-01
6.971000000000000000e+03 4.121651840209960938e+01 8.773879051208496094e+00 -5.276495814323425293e-01 -4.701786637306213379e-01 -2.993484735488891602e-01 -4.743101000785827637e-01
6.972000000000000000e+03 4.159620666503906250e+01 9.752383232116699219e+00 -5.557632446289062500e-01 -4.928844273090362549e-01 -3.145942986011505127e-01 -5.249761939048767090e-01
6.973000000000000000e+03 5.176145935058593750e+01 2.183961868286132812e+01 -6.774750947952270508e-01 8.315019309520721436e-02 -1.782974749803543091e-01 -5.635991096496582031e-01
6.974000000000000000e+03 5.250777053833007812e+01 2.160263061523437500e+01 -6.004331111907958984e-01 2.471426576375961304e-01 -1.059871315956115723e-01 -4.842799603939056396e-01
6.975000000000000000e+03 4.091666793823242188e+01 8.324740409851074219e+00 -5.127152204513549805e-01 -4.727909266948699951e-01 -2.956518232822418213e-01 -4.594396948814392090e-01
6.976000000000000000e+03 4.861846542358398438e+01 1.761296653747558594e+01 -5.392057299613952637e-01 -1.298657506704330444e-01 -2.007214426994323730e-01 -5.411269664764404297e-01
6.977000000000000000e+03 4.880001831054687500e+01 1.853517341613769531e+01 -5.906935334205627441e-01 -1.685097366571426392e-01 -2.277609854936599731e-01 -5.844696760177612305e-01
6.978000000000000000e+03 3.676031875610351562e+01 4.383732318878173828e+00 -5.913708806037902832e-01 -5.974537730216979980e-01 -3.566473722457885742e-01 -3.348767459392547607e-01
6.979000000000000000e+03 3.817923355102539062e+01 4.946343421936035156e+00 -5.040276050567626953e-01 -5.247632265090942383e-01 -3.086372613906860352e-01 -3.231958448886871338e-01
6.980000000000000000e+03 6.063716506958007812e+01 2.296604919433593750e+01 -5.464192107319831848e-02 1.856639623641967773e+00 5.405992865562438965e-01 3.577155172824859619e-01
6.981000000000000000e+03 6.051170349121093750e+01 2.094158744812011719e+01 -2.422427758574485779e-03 2.128512144088745117e+00 6.378269195556640625e-01 4.401899278163909912e-01
6.982000000000000000e+03 5.929670715332031250e+01 2.240253829956054688e+01 -1.319266259670257568e-01 1.575516700744628906e+00 4.330770373344421387e-01 1.786556839942932129e-01
6.983000000000000000e+03 5.460327148437500000e+01 2.310905647277832031e+01 -5.794749259948730469e-01 5.135949850082397461e-01 -1.976398192346096039e-02 -4.219220876693725586e-01
6.984000000000000000e+03 3.924832916259765625e+01 8.059775352478027344e+00 -6.369450092315673828e-01 -6.238115429878234863e-01 -3.782269656658172607e-01 -5.459529161453247070e-01
6.985000000000000000e+03 4.012562942504882812e+01 7.449101924896240234e+00 -5.236009955406188965e-01 -4.967371821403503418e-01 -3.061014413833618164e-01 -4.377628266811370850e-01
6.986000000000000000e+03 5.436779403686523438e+01 2.244311332702636719e+01 -5.303866267204284668e-01 5.338711738586425781e-01 1.045364304445683956e-03 -3.924244642257690430e-01
6.987000000000000000e+03 5.409917068481445312e+01 2.178094100952148438e+01 -4.934459626674652100e-01 5.359661579132080078e-01 1.275606453418731689e-02 -3.609382510185241699e-01
6.988000000000000000e+03 6.195524597167968750e+01 2.322146606445312500e+01 1.730047911405563354e-02 2.239717006683349609e+00 6.771053075790405273e-01 6.047130227088928223e-01
6.989000000000000000e+03 5.095597839355468750e+01 2.002978706359863281e+01 -5.716582536697387695e-01 8.471056073904037476e-02 -1.460843086242675781e-01 -5.031990408897399902e-01
6.990000000000000000e+03 4.267981338500976562e+01 9.034576416015625000e+00 -4.261981546878814697e-01 -3.177547454833984375e-01 -2.231858670711517334e-01 -4.026599526405334473e-01
6.991000000000000000e+03 4.172633361816406250e+01 1.209370136260986328e+01 -6.870436072349548340e-01 -6.388388872146606445e-01 -3.977647423744201660e-01 -6.957203745841979980e-01
6.992000000000000000e+03 5.204770660400390625e+01 2.132913017272949219e+01 -6.048079133033752441e-01 1.846866756677627563e-01 -1.260363608598709106e-01 -5.009638071060180664e-01
6.993000000000000000e+03 3.673942184448242188e+01 2.745666742324829102e+00 -4.011014103889465332e-01 -5.392172932624816895e-01 -2.820956110954284668e-01 -1.633482575416564941e-01
6.994000000000000000e+03 3.922724914550781250e+01 6.509311199188232422e+00 -5.263957381248474121e-01 -5.268941521644592285e-01 -3.159869611263275146e-01 -4.090730547904968262e-01
6.995000000000000000e+03 3.859622573852539062e+01 6.743529319763183594e+00 -6.083662509918212891e-01 -5.953252911567687988e-01 -3.611074686050415039e-01 -4.679981470108032227e-01
6.996000000000000000e+03 4.930412292480468750e+01 1.974566459655761719e+01 -6.581053733825683594e-01 -1.870484799146652222e-01 -2.535461783409118652e-01 -6.177379488945007324e-01
6.997000000000000000e+03 4.884114837646484375e+01 1.899070167541503906e+01 -6.269212365150451660e-01 -2.018112242221832275e-01 -2.486197352409362793e-01 -6.096215248107910156e-01
6.998000000000000000e+03 3.632660293579101562e+01 3.161517143249511719e+00 -4.977053105831146240e-01 -5.671156644821166992e-01 -3.194462954998016357e-01 -2.120157331228256226e-01
6.999000000000000000e+03 3.635111236572265625e+01 2.416831254959106445e+00 -3.881154358386993408e-01 -5.494255423545837402e-01 -2.812622785568237305e-01 -1.350852102041244507e-01
7.000000000000000000e+03 5.645919418334960938e+01 2.208868598937988281e+01 -3.293358385562896729e-01 9.770745038986206055e-01 1.943216025829315186e-01 -1.561238020658493042e-01
7.001000000000000000e+03 5.713198852539062500e+01 2.260995101928710938e+01 -3.144970834255218506e-01 1.056207656860351562e+00 2.225131541490554810e-01 -1.257519274950027466e-01
7.002000000000000000e+03 6.190594482421875000e+01 2.265613174438476562e+01 1.372752431780099869e-02 2.322407960891723633e+00 7.008406519889831543e-01 6.172453165054321289e-01
7.003000000000000000e+03 6.056930923461914062e+01 2.230817031860351562e+01 -3.797623142600059509e-02 1.943430066108703613e+00 5.716361403465270996e-01 3.882782459259033203e-01
7.004000000000000000e+03 3.891073226928710938e+01 5.986778259277343750e+00 -5.240271687507629395e-01 -5.211063623428344727e-01 -3.135400414466857910e-01 -3.795309960842132568e-01
7.005000000000000000e+03 2.076773834228515625e+01 2.586749458312988281e+01 7.432060316205024719e-03 8.494596183300018311e-02 2.771340683102607727e-02 3.738763928413391113e-02
7.006000000000000000e+03 5.787344360351562500e+01 1.553972125053405762e+00 2.949363589286804199e-01 2.729585409164428711e+00 9.073565006256103516e-01 5.054679512977600098e-01
7.007000000000000000e+03 5.771693801879882812e+01 2.245064735412597656e+01 -2.525685429573059082e-01 1.198065996170043945e+00 2.836492359638214111e-01 -3.975490108132362366e-02
7.008000000000000000e+03 3.688885116577148438e+01 1.492632508277893066e+00 -1.917566210031509399e-01 -5.175535082817077637e-01 -2.127930372953414917e-01 -5.575106292963027954e-02
7.009000000000000000e+03 2.114855766296386719e+01 2.420505142211914062e+01 1.356647629290819168e-02 9.355658292770385742e-02 3.213691711425781250e-02 4.542326182126998901e-02
7.010000000000000000e+03 6.440910339355468750e+01 2.220836257934570312e+01 6.860089953988790512e-03 3.522405624389648438e+00 1.058779716491699219e+00 1.064458727836608887e+00
7.011000000000000000e+03 6.351886367797851562e+01 2.309442901611328125e+01 4.268069192767143250e-02 2.908704042434692383e+00 8.854154348373413086e-01 9.162813425064086914e-01
7.012000000000000000e+03 6.121078872680664062e+01 2.217142295837402344e+01 -4.047910042572766542e-04 2.181483507156372070e+00 6.543236374855041504e-01 5.053946971893310547e-01
7.013000000000000000e+03 6.405065917968750000e+01 2.168250465393066406e+01 2.296042814850807190e-02 3.435247898101806641e+00 1.037462472915649414e+00 9.816640615463256836e-01
7.014000000000000000e+03 6.191588592529296875e+01 1.829643440246582031e+01 7.680000364780426025e-02 2.946283817291259766e+00 9.069251418113708496e-01 6.726836562156677246e-01
7.015000000000000000e+03 6.315940475463867188e+01 1.825505828857421875e+01 7.626949995756149292e-02 3.423241853713989258e+00 1.049853444099426270e+00 7.972024679183959961e-01
7.016000000000000000e+03 3.942030334472656250e+01 7.025980949401855469e+00 -5.524558424949645996e-01 -5.396496653556823730e-01 -3.276316523551940918e-01 -4.413913190364837646e-01
7.017000000000000000e+03 4.797888183593750000e+01 -2.626176595687866211e+00 3.728031516075134277e-01 8.650228977203369141e-01 3.713478147983551025e-01 2.240817993879318237e-01
7.018000000000000000e+03 6.137140274047851562e+01 1.456532478332519531e+01 1.317507624626159668e-01 3.079732179641723633e+00 9.634448885917663574e-01 6.423833370208740234e-01
7.019000000000000000e+03 6.223545455932617188e+01 1.417440605163574219e+01 1.414186954498291016e-01 3.387176513671875000e+00 1.058578610420227051e+00 7.125052213668823242e-01
7.020000000000000000e+03 6.251472854614257812e+01 1.768359184265136719e+01 8.818531781435012817e-02 3.225896835327148438e+00 9.942246079444885254e-01 7.388018369674682617e-01
7.021000000000000000e+03 6.171308898925781250e+01 1.609217834472656250e+01 1.159130558371543884e-01 3.089302539825439453e+00 9.615646600723266602e-01 6.618216633796691895e-01
7.022000000000000000e+03 6.202206802368164062e+01 1.544681549072265625e+01 1.162598654627799988e-01 3.243385076522827148e+00 1.007893443107604980e+00 6.846874952316284180e-01
7.023000000000000000e+03 6.103421020507812500e+01 1.236450862884521484e+01 1.688531190156936646e-01 3.133197784423828125e+00 9.906152486801147461e-01 6.351152658462524414e-01
7.024000000000000000e+03 4.671351623535156250e+01 -1.572714447975158691e+00 3.404670655727386475e-01 6.286755800247192383e-01 2.907427847385406494e-01 1.892038732767105103e-01
7.025000000000000000e+03 4.545600509643554688e+01 -1.792700767517089844e+00 3.367118537425994873e-01 4.487074017524719238e-01 2.356257885694503784e-01 1.621605008840560913e-01
7.026000000000000000e+03 6.086888122558593750e+01 6.636445999145507812e+00 2.331511676311492920e-01 3.323236465454101562e+00 1.066916227340698242e+00 6.161903738975524902e-01
7.027000000000000000e+03 4.236296081542968750e+01 -2.956683933734893799e-01 2.236599922180175781e-01 1.770018017850816250e-03 6.762900203466415405e-02 8.643491566181182861e-02
7.028000000000000000e+03 4.219580078125000000e+01 6.544473648071289062e+00 -3.041260242462158203e-01 -2.320749014616012573e-01 -1.608602851629257202e-01 -2.516703009605407715e-01
7.029000000000000000e+03 4.351460266113281250e+01 4.596967995166778564e-01 1.862480491399765015e-01 1.369340866804122925e-01 9.695464372634887695e-02 8.682670444250106812e-02
7.030000000000000000e+03 6.027161026000976562e+01 1.179688739776611328e+01 1.768031418323516846e-01 2.930008649826049805e+00 9.320435523986816406e-01 5.922961831092834473e-01
7.031000000000000000e+03 5.930050659179687500e+01 8.771658897399902344e+00 2.153809368610382080e-01 2.819137811660766602e+00 9.103556275367736816e-01 5.590628385543823242e-01
7.032000000000000000e+03 6.013525009155273438e+01 1.054850864410400391e+01 1.936558932065963745e-01 2.958542346954345703e+00 9.456594586372375488e-01 5.896584987640380859e-01
7.033000000000000000e+03 6.000731277465820312e+01 9.306386947631835938e+00 2.112377285957336426e-01 2.983030557632446289e+00 9.582805037498474121e-01 5.890246629714965820e-01
7.034000000000000000e+03 2.040594100952148438e+01 2.257879066467285156e+01 1.614316180348396301e-02 9.939950704574584961e-02 3.466280177235603333e-02 4.831672459840774536e-02
7.035000000000000000e+03 6.315510559082031250e+01 1.948494720458984375e+01 5.432274565100669861e-02 3.286893367767333984e+00 1.002364873886108398e+00 8.175917863845825195e-01
7.036000000000000000e+03 6.074896621704101562e+01 9.848124504089355469e+00 2.031305283308029175e-01 3.165040731430053711e+00 1.010451436042785645e+00 6.202616691589355469e-01
7.037000000000000000e+03 5.931686782836914062e+01 3.093645572662353516e+00 2.713128924369812012e-01 3.032236337661743164e+00 9.910647869110107422e-01 5.565521717071533203e-01
7.038000000000000000e+03 5.157561492919921875e+01 -6.277520656585693359e+00 3.833102881908416748e-01 1.617460250854492188e+00 6.002311706542968750e-01 2.824710905551910400e-01
7.039000000000000000e+03 5.806375122070312500e+01 -4.587124347686767578e+00 3.178939819335937500e-01 2.932009458541870117e+00 9.749710559844970703e-01 4.431662559509277344e-01
7.040000000000000000e+03 5.792693710327148438e+01 -1.108309364318847656e+01 2.539391815662384033e-01 2.998630285263061523e+00 9.757708907127380371e-01 3.502553403377532959e-01
7.041000000000000000e+03 5.346547698974609375e+01 -7.972614765167236328e+00 3.515656590461730957e-01 2.026223182678222656e+00 7.133366465568542480e-01 2.902874946594238281e-01
7.042000000000000000e+03 6.298304367065429688e+01 2.166849136352539062e+01 5.033620819449424744e-02 2.927529811859130859e+00 8.933598399162292480e-01 8.223484158515930176e-01
7.043000000000000000e+03 6.053849411010742188e+01 2.019705009460449219e+01 2.143502794206142426e-02 2.256759881973266602e+00 6.834585070610046387e-01 4.755570292472839355e-01
7.044000000000000000e+03 1.924539947509765625e+01 2.432076835632324219e+01 5.722174420952796936e-03 8.703225851058959961e-02 2.782632969319820404e-02 3.528659790754318237e-02
7.045000000000000000e+03 4.507528305053710938e+01 -7.022560238838195801e-01 2.864341139793395996e-01 3.752777278423309326e-01 1.985135525465011597e-01 1.486306190490722656e-01
7.046000000000000000e+03 5.876521682739257812e+01 -7.999960899353027344e+00 2.790865302085876465e-01 3.137773513793945312e+00 1.025058031082153320e+00 4.157815873622894287e-01
7.047000000000000000e+03 5.572320556640625000e+01 -8.588859558105468750e+00 3.154263198375701904e-01 2.499119758605957031e+00 8.443638682365417480e-01 3.427299559116363525e-01
7.048000000000000000e+03 6.007897567749023438e+01 6.126656055450439453e+00 2.390281558036804199e-01 3.125218391418457031e+00 1.009274005889892578e+00 5.856040120124816895e-01
7.049000000000000000e+03 5.217426681518554688e+01 -9.402347564697265625e+00 3.544640541076660156e-01 1.805000662803649902e+00 6.478394269943237305e-01 2.664714455604553223e-01
7.050000000000000000e+03 5.236841964721679688e+01 -1.048264980316162109e+01 3.430025577545166016e-01 1.852278351783752441e+00 6.585842370986938477e-01 2.459970116615295410e-01
7.051000000000000000e+03 5.226869964599609375e+01 -7.158505439758300781e+00 3.786860704421997070e-01 1.755874633789062500e+00 6.403682231903076172e-01 2.899378836154937744e-01
7.052000000000000000e+03 4.952662658691406250e+01 -4.584404945373535156e+00 3.976986706256866455e-01 1.184849500656127930e+00 4.747644364833831787e-01 2.494244426488876343e-01
7.053000000000000000e+03 5.135487365722656250e+01 -7.759775638580322266e+00 3.758598864078521729e-01 1.610785245895385742e+00 5.959935188293457031e-01 2.645919620990753174e-01
7.054000000000000000e+03 5.694713211059570312e+01 -5.978646874427795410e-01 3.195472657680511475e-01 2.585977792739868164e+00 8.716574907302856445e-01 4.638190865516662598e-01
7.055000000000000000e+03 5.767300033569335938e+01 -1.153909087181091309e+00 3.133913576602935791e-01 2.754860877990722656e+00 9.204756617546081543e-01 4.730325937271118164e-01
7.056000000000000000e+03 1.932827186584472656e+01 3.340271759033203125e+01 -3.767624264582991600e-03 5.368121713399887085e-02 1.497407723218202591e-02 1.385696511715650558e-02
7.057000000000000000e+03 4.585040664672851562e+01 1.290516757965087891e+01 -4.273690283298492432e-01 -1.621231585741043091e-01 -1.768476516008377075e-01 -4.589003324508666992e-01
7.058000000000000000e+03 4.583867263793945312e+01 1.357582759857177734e+01 -4.796665906906127930e-01 -2.240518629550933838e-01 -2.111155390739440918e-01 -5.121380686759948730e-01
7.059000000000000000e+03 4.564278793334960938e+01 1.398639488220214844e+01 -5.035281181335449219e-01 -2.823420763015747070e-01 -2.357610464096069336e-01 -5.491622686386108398e-01
7.060000000000000000e+03 4.611088562011718750e+01 1.408916759490966797e+01 -4.828721284866333008e-01 -2.113836407661437988e-01 -2.082767337560653687e-01 -5.179864168167114258e-01
7.061000000000000000e+03 4.599448013305664062e+01 1.448321628570556641e+01 -5.023725628852844238e-01 -2.636622786521911621e-01 -2.298104614019393921e-01 -5.488096475601196289e-01
7.062000000000000000e+03 5.364862060546875000e+01 2.157496070861816406e+01 -5.182487964630126953e-01 4.648261368274688721e-01 -1.602679863572120667e-02 -3.846569359302520752e-01
7.063000000000000000e+03 5.391933441162109375e+01 2.226242637634277344e+01 -5.484266281127929688e-01 4.592952132225036621e-01 -2.673942781984806061e-02 -4.162627458572387695e-01
7.064000000000000000e+03 4.851088333129882812e+01 1.628019523620605469e+01 -4.539306461811065674e-01 -2.849271520972251892e-02 -1.447270065546035767e-01 -4.648877978324890137e-01
7.065000000000000000e+03 4.753837966918945312e+01 1.559443283081054688e+01 -4.743542969226837158e-01 -1.315695196390151978e-01 -1.817771345376968384e-01 -5.008058547973632812e-01
7.066000000000000000e+03 5.478914260864257812e+01 2.261964225769042969e+01 -5.198940038681030273e-01 5.896047949790954590e-01 2.091324888169765472e-02 -3.702948987483978271e-01
7.067000000000000000e+03 4.844549942016601562e+01 1.596694660186767578e+01 -4.448297023773193359e-01 -9.710562415421009064e-03 -1.363620758056640625e-01 -4.534109830856323242e-01
7.068000000000000000e+03 4.932645416259765625e+01 1.849363327026367188e+01 -5.559365153312683105e-01 -7.566785067319869995e-02 -1.894813179969787598e-01 -5.357553362846374512e-01
7.069000000000000000e+03 4.694060897827148438e+01 1.519936370849609375e+01 -4.841598570346832275e-01 -1.838163137435913086e-01 -2.003928571939468384e-01 -5.232598185539245605e-01
7.070000000000000000e+03 5.070971298217773438e+01 1.933769607543945312e+01 -5.323317050933837891e-01 1.001728624105453491e-01 -1.296476572751998901e-01 -4.768544733524322510e-01
7.071000000000000000e+03 5.052118301391601562e+01 1.979264640808105469e+01 -5.785004496574401855e-01 2.618235163390636444e-02 -1.656954437494277954e-01 -5.214384198188781738e-01
7.072000000000000000e+03 4.362929153442382812e+01 1.231698322296142578e+01 -5.576363801956176758e-01 -4.284731447696685791e-01 -2.958328723907470703e-01 -5.776558518409729004e-01
7.073000000000000000e+03 4.640658569335937500e+01 1.458258247375488281e+01 -4.859268069267272949e-01 -2.086076587438583374e-01 -2.083603441715240479e-01 -5.253419280052185059e-01
7.074000000000000000e+03 4.182523727416992188e+01 8.589659690856933594e+00 -4.625471234321594238e-01 -3.965586423873901367e-01 -2.577317357063293457e-01 -4.227905869483947754e-01
7.075000000000000000e+03 4.895599365234375000e+01 1.697978019714355469e+01 -4.733725786209106445e-01 -1.332112774252891541e-02 -1.460081040859222412e-01 -4.735853970050811768e-01
7.076000000000000000e+03 4.069567489624023438e+01 7.418877601623535156e+00 -4.728232622146606445e-01 -4.453809559345245361e-01 -2.754612565040588379e-01 -4.026680588722229004e-01
7.077000000000000000e+03 4.118838119506835938e+01 7.971714496612548828e+00 -4.682513475418090820e-01 -4.256794750690460205e-01 -2.681792378425598145e-01 -4.135370850563049316e-01
7.078000000000000000e+03 4.871253204345703125e+01 1.660180473327636719e+01 -4.625649452209472656e-01 -2.044605277478694916e-02 -1.449033021926879883e-01 -4.698440730571746826e-01
7.079000000000000000e+03 4.932412719726562500e+01 1.796604537963867188e+01 -5.150875449180603027e-01 -2.642971649765968323e-02 -1.624551862478256226e-01 -5.010772347450256348e-01
7.080000000000000000e+03 4.177941894531250000e+01 1.063982200622558594e+01 -5.887101888656616211e-01 -5.271687507629394531e-01 -3.347636759281158447e-01 -5.808655619621276855e-01
7.081000000000000000e+03 4.388499832153320312e+01 1.276339626312255859e+01 -5.618157386779785156e-01 -4.239928424358367920e-01 -2.957425713539123535e-01 -5.937939882278442383e-01
7.082000000000000000e+03 4.189284515380859375e+01 1.105412101745605469e+01 -6.043709516525268555e-01 -5.469014644622802734e-01 -3.453817367553710938e-01 -6.067227125167846680e-01
7.083000000000000000e+03 4.003467941284179688e+01 6.924151420593261719e+00 -4.902286231517791748e-01 -4.808293879032135010e-01 -2.913174033164978027e-01 -4.006589055061340332e-01
7.084000000000000000e+03 6.212746047973632812e+01 1.998157691955566406e+01 6.040406972169876099e-02 2.853571414947509766e+00 8.741926550865173340e-01 6.923721432685852051e-01
7.085000000000000000e+03 4.020627212524414062e+01 7.990823268890380859e+00 -5.479211211204528809e-01 -5.252611041069030762e-01 -3.219546675682067871e-01 -4.775971770286560059e-01
7.086000000000000000e+03 4.125050354003906250e+01 7.471420764923095703e+00 -4.333483576774597168e-01 -3.813753128051757812e-01 -2.444171011447906494e-01 -3.680908083915710449e-01
7.087000000000000000e+03 3.852407455444335938e+01 5.471871376037597656e+00 -5.123398900032043457e-01 -5.291301012039184570e-01 -3.124409914016723633e-01 -3.553963005542755127e-01
7.088000000000000000e+03 6.074066925048828125e+01 1.724007415771484375e+01 8.436990529298782349e-02 2.687639713287353516e+00 8.316028714179992676e-01 5.755674242973327637e-01
7.089000000000000000e+03 3.926432418823242188e+01 1.852479457855224609e+00 -9.205289930105209351e-02 -3.462871313095092773e-01 -1.315020024776458740e-01 -4.623552784323692322e-02
7.090000000000000000e+03 5.274760818481445312e+01 2.109473609924316406e+01 -5.349999070167541504e-01 3.340182304382324219e-01 -6.029449030756950378e-02 -4.281233251094818115e-01
7.091000000000000000e+03 4.978628921508789062e+01 1.901816558837890625e+01 -5.671950578689575195e-01 -4.217841848731040955e-02 -1.828120499849319458e-01 -5.311839580535888672e-01
7.092000000000000000e+03 4.931267929077148438e+01 1.896564102172851562e+01 -5.943583846092224121e-01 -1.197211071848869324e-01 -2.142238467931747437e-01 -5.669096708297729492e-01
7.093000000000000000e+03 6.244429779052734375e+01 2.227235794067382812e+01 2.760262787342071533e-02 2.591066598892211914e+00 7.856007814407348633e-01 7.137423157691955566e-01
7.094000000000000000e+03 5.140487289428710938e+01 2.028436088562011719e+01 -5.627129077911376953e-01 1.445727348327636719e-01 -1.254420578479766846e-01 -4.812621176242828369e-01
7.095000000000000000e+03 3.590727615356445312e+01 1.100030303001403809e+00 -2.060684561729431152e-01 -5.521688461303710938e-01 -2.274711877107620239e-01 -3.267417475581169128e-02
7.096000000000000000e+03 3.884657287597656250e+01 7.204119205474853516e+00 -6.110013723373413086e-01 -6.030684709548950195e-01 -3.642209470272064209e-01 -4.960120618343353271e-01
7.097000000000000000e+03 3.836838150024414062e+01 2.061712741851806641e+00 -1.730787605047225952e-01 -4.218818545341491699e-01 -1.784881949424743652e-01 -7.507663965225219727e-02
7.098000000000000000e+03 4.161502075195312500e+01 -2.467252910137176514e-01 1.878811866044998169e-01 -8.127738535404205322e-02 3.198114037513732910e-02 7.707673311233520508e-02
7.099000000000000000e+03 3.706244659423828125e+01 2.315630435943603516e+00 -2.971364259719848633e-01 -5.052875280380249023e-01 -2.407271862030029297e-01 -1.167629510164260864e-01
7.100000000000000000e+03 3.681424331665039062e+01 3.526131153106689453e+00 -4.874030053615570068e-01 -5.565471053123474121e-01 -3.131850361824035645e-01 -2.376544773578643799e-01
7.101000000000000000e+03 4.250430679321289062e+01 7.452015399932861328e+00 -3.451894819736480713e-01 -2.429149746894836426e-01 -1.764313280582427979e-01 -3.001769185066223145e-01
7.102000000000000000e+03 4.234806060791015625e+01 3.607296347618103027e-01 1.641411781311035156e-01 -8.807788253761827946e-04 4.897812008857727051e-02 7.034878432750701904e-02
7.103000000000000000e+03 4.315833663940429688e+01 1.255864238739013672e+01 -6.079906821250915527e-01 -4.955890774726867676e-01 -3.310739398002624512e-01 -6.287668347358703613e-01
7.104000000000000000e+03 5.426167678833007812e+01 2.133305740356445312e+01 -4.560086727142333984e-01 6.006178855895996094e-01 4.338277131319046021e-02 -3.151465058326721191e-01
7.105000000000000000e+03 5.833446502685546875e+01 2.227409744262695312e+01 -1.938681453466415405e-01 1.367915391921997070e+00 3.522141873836517334e-01 5.592205747961997986e-02
7.106000000000000000e+03 6.063153076171875000e+01 1.529404640197753906e+01 1.133338883519172668e-01 2.804605484008789062e+00 8.753817677497863770e-01 5.822717547416687012e-01
7.107000000000000000e+03 5.795926284790039062e+01 2.778005599975585938e+00 2.801738679409027100e-01 2.729128599166870117e+00 9.027907848358154297e-01 5.163144469261169434e-01
7.108000000000000000e+03 5.737670516967773438e+01 2.216801643371582031e+00 2.899379730224609375e-01 2.605755805969238281e+00 8.687081336975097656e-01 4.921548068523406982e-01
7.109000000000000000e+03 6.127008056640625000e+01 1.668906593322753906e+01 1.025346517562866211e-01 2.899667739868164062e+00 9.006606936454772949e-01 6.304069161415100098e-01
7.110000000000000000e+03 6.252336120605468750e+01 1.888620948791503906e+01 7.074293494224548340e-02 3.110368251800537109e+00 9.543333053588867188e-01 7.409390807151794434e-01
7.111000000000000000e+03 4.790625000000000000e+01 -1.536173582077026367e+00 3.395583629608154297e-01 8.288940787315368652e-01 3.505357503890991211e-01 2.151990681886672974e-01
7.112000000000000000e+03 3.917829513549804688e+01 9.435319900512695312e-01 -7.870488800108432770e-03 -3.405752778053283691e-01 -1.045337319374084473e-01 -1.038265181705355644e-03
7.113000000000000000e+03 4.023703765869140625e+01 8.338064551353454590e-01 5.751096457242965698e-02 -2.395469248294830322e-01 -5.461078882217407227e-02 1.763459108769893646e-02
7.114000000000000000e+03 6.361883926391601562e+01 2.114814567565917969e+01 3.563540056347846985e-02 3.312192201614379883e+00 1.004348278045654297e+00 9.044467806816101074e-01
7.115000000000000000e+03 4.591046524047851562e+01 6.125264987349510193e-02 2.643820345401763916e-01 4.754053950309753418e-01 2.219362258911132812e-01 1.523377150297164917e-01
7.116000000000000000e+03 5.994374084472656250e+01 2.172303199768066406e+01 -5.205273628234863281e-02 1.852721691131591797e+00 5.402007102966308594e-01 3.238191604614257812e-01
7.117000000000000000e+03 5.992929840087890625e+01 2.243385124206542969e+01 -8.612406253814697266e-02 1.726417899131774902e+00 4.920881688594818115e-01 2.736729383468627930e-01
7.118000000000000000e+03 6.105573654174804688e+01 1.354486942291259766e+01 1.530423760414123535e-01 3.055447101593017578e+00 9.625468254089355469e-01 6.263378262519836426e-01
7.119000000000000000e+03 6.039650726318359375e+01 1.301482009887695312e+01 1.515543609857559204e-01 2.883482217788696289e+00 9.105109572410583496e-01 5.938588976860046387e-01
7.120000000000000000e+03 6.205763244628906250e+01 1.361763000488281250e+01 1.560872644186019897e-01 3.376742601394653320e+00 1.059848904609680176e+00 6.980082988739013672e-01
7.121000000000000000e+03 6.188151168823242188e+01 1.716637420654296875e+01 9.773389995098114014e-02 3.051626443862915039e+00 9.448081254959106445e-01 6.751655340194702148e-01
7.122000000000000000e+03 6.037409210205078125e+01 7.373055934906005859e+00 2.307942062616348267e-01 3.160105228424072266e+00 1.017269849777221680e+00 5.990321040153503418e-01
7.123000000000000000e+03 5.939488220214843750e+01 9.994221687316894531e+00 1.955896019935607910e-01 2.783396959304809570e+00 8.936960101127624512e-01 5.566678047180175781e-01
7.124000000000000000e+03 5.869176864624023438e+01 9.436279296875000000e+00 2.024265676736831665e-01 2.627079486846923828e+00 8.488518595695495605e-01 5.263077616691589355e-01
7.125000000000000000e+03 5.888339614868164062e+01 1.194553184509277344e+01 1.619050055742263794e-01 2.537259340286254883e+00 8.097492456436157227e-01 5.074970126152038574e-01
7.126000000000000000e+03 3.986899948120117188e+01 5.442451953887939453e+00 -4.000884294509887695e-01 -4.091494083404541016e-01 -2.427713572978973389e-01 -2.873601019382476807e-01
7.127000000000000000e+03 4.453958129882812500e+01 1.496042013168334961e-01 2.292936146259307861e-01 2.645019590854644775e-01 1.481386721134185791e-01 1.185343638062477112e-01
7.128000000000000000e+03 5.959518814086914062e+01 4.794104576110839844e+00 2.565114498138427734e-01 3.047312259674072266e+00 9.911471009254455566e-01 5.703181028366088867e-01
7.129000000000000000e+03 5.835718917846679688e+01 3.613669395446777344e+00 2.690780758857727051e-01 2.795129537582397461e+00 9.192622900009155273e-01 5.308115482330322266e-01
7.130000000000000000e+03 3.753882217407226562e+01 2.480154275894165039e+00 -2.986393570899963379e-01 -4.944766163825988770e-01 -2.379347980022430420e-01 -1.249776780605316162e-01
7.131000000000000000e+03 3.774060821533203125e+01 1.821964979171752930e+00 -1.813123375177383423e-01 -4.545844495296478271e-01 -1.907690316438674927e-01 -5.821679532527923584e-02
7.132000000000000000e+03 5.728257751464843750e+01 -2.807028770446777344e+00 3.236586451530456543e-01 2.689002990722656250e+00 9.037985205650329590e-01 4.516065716743469238e-01
7.133000000000000000e+03 5.719332122802734375e+01 -5.302344799041748047e+00 3.149476647377014160e-01 2.736708641052246094e+00 9.154968857765197754e-01 4.233816564083099365e-01
7.134000000000000000e+03 5.524971008300781250e+01 -9.959957122802734375e+00 3.090675175189971924e-01 2.425049543380737305e+00 8.202350735664367676e-01 3.190768659114837646e-01
7.135000000000000000e+03 5.585655593872070312e+01 -2.500445604324340820e+00 3.367518484592437744e-01 2.391219615936279297e+00 8.183914422988891602e-01 4.253981113433837891e-01
7.136000000000000000e+03 5.818935394287109375e+01 -2.610406398773193359e+00 3.133327960968017578e-01 2.920528411865234375e+00 9.701583981513977051e-01 4.734387695789337158e-01
7.137000000000000000e+03 5.871937942504882812e+01 -5.244875431060791016e+00 2.982481122016906738e-01 3.061682939529418945e+00 1.007979393005371094e+00 4.539831280708312988e-01
7.138000000000000000e+03 5.102643966674804688e+01 -5.346520900726318359e+00 3.909815251827239990e-01 1.477655768394470215e+00 5.605911612510681152e-01 2.776612937450408936e-01
7.139000000000000000e+03 5.695695114135742188e+01 9.113560914993286133e-01 3.053770661354064941e-01 2.534001350402832031e+00 8.518135547637939453e-01 4.726732969284057617e-01
7.140000000000000000e+03 5.674081420898437500e+01 -4.187029361724853516e+00 3.299308121204376221e-01 2.610138654708862305e+00 8.820208311080932617e-01 4.281721115112304688e-01
7.141000000000000000e+03 5.890102005004882812e+01 6.453018665313720703e+00 2.395045310258865356e-01 2.808401346206665039e+00 9.143717288970947266e-01 5.488132238388061523e-01
7.142000000000000000e+03 5.851553726196289062e+01 4.577990055084228516e+00 2.632894217967987061e-01 2.805119752883911133e+00 9.205227494239807129e-01 5.351446866989135742e-01
7.143000000000000000e+03 5.033267974853515625e+01 -3.225685358047485352e+00 3.789041042327880859e-01 1.297582030296325684e+00 5.029458403587341309e-01 2.805816829204559326e-01
7.144000000000000000e+03 4.899397277832031250e+01 -1.446555376052856445e+00 3.468275368213653564e-01 1.010784268379211426e+00 4.072835445404052734e-01 2.458096444606781006e-01
7.145000000000000000e+03 5.563696289062500000e+01 -3.428204536437988281e+00 3.360171914100646973e-01 2.347510576248168945e+00 8.050583004951477051e-01 4.103282988071441650e-01
7.146000000000000000e+03 5.170487213134765625e+01 -3.728242158889770508e+00 3.748430311679840088e-01 1.581294655799865723e+00 5.868412852287292480e-01 3.027869164943695068e-01
7.147000000000000000e+03 5.990204620361328125e+01 -1.271687221527099609e+01 1.981068849563598633e-01 3.419606685638427734e+00 1.085314035415649414e+00 3.560933768749237061e-01
7.148000000000000000e+03 5.652713775634765625e+01 -1.052232646942138672e+01 2.772023379802703857e-01 2.691954374313354492e+00 8.907470107078552246e-01 3.271996080875396729e-01
7.149000000000000000e+03 1.343328475952148438e+01 3.460852050781250000e+01 -7.443280890583992004e-03 1.339227333664894104e-02 1.784697757102549076e-03 -2.702467609196901321e-04
7.150000000000000000e+03 5.467689895629882812e+01 2.142238807678222656e+01 -4.232596158981323242e-01 6.859378814697265625e-01 7.880348712205886841e-02 -2.825630307197570801e-01
7.151000000000000000e+03 5.298843383789062500e+01 2.060024452209472656e+01 -4.787712991237640381e-01 4.247788488864898682e-01 -1.619773358106613159e-02 -3.712131977081298828e-01
7.152000000000000000e+03 4.877691650390625000e+01 1.606631469726562500e+01 -4.308197498321533203e-01 3.842414543032646179e-02 -1.177186816930770874e-01 -4.279838800430297852e-01
7.153000000000000000e+03 5.503645324707031250e+01 2.210765266418457031e+01 -4.437763690948486328e-01 6.918941140174865723e-01 7.443532347679138184e-02 -3.006541728973388672e-01
7.154000000000000000e+03 4.803029632568359375e+01 1.557213687896728516e+01 -4.461410343647003174e-01 -4.871211573481559753e-02 -1.484559476375579834e-01 -4.634157717227935791e-01
7.155000000000000000e+03 4.750598526000976562e+01 1.509888172149658203e+01 -4.506301283836364746e-01 -9.487713873386383057e-02 -1.636521816253662109e-01 -4.762597680091857910e-01
7.156000000000000000e+03 4.986093902587890625e+01 1.853937339782714844e+01 -5.281298160552978516e-01 1.005387492477893829e-02 -1.554227769374847412e-01 -4.946227371692657471e-01
7.157000000000000000e+03 4.321839904785156250e+01 1.136047172546386719e+01 -5.248075127601623535e-01 -4.036405682563781738e-01 -2.785344123840332031e-01 -5.372638106346130371e-01
7.158000000000000000e+03 4.203311920166015625e+01 9.142475128173828125e+00 -4.887710809707641602e-01 -4.061114788055419922e-01 -2.684647738933563232e-01 -4.554364085197448730e-01
7.159000000000000000e+03 5.010948562622070312e+01 1.958527755737304688e+01 -5.905209183692932129e-01 -3.208569064736366272e-02 -1.867819726467132568e-01 -5.431578159332275391e-01
7.160000000000000000e+03 4.168667221069335938e+01 8.062309265136718750e+00 -4.449022710323333740e-01 -3.764687180519104004e-01 -2.464112937450408936e-01 -3.951351046562194824e-01
7.161000000000000000e+03 4.219132995605468750e+01 1.015297508239746094e+01 -5.334298610687255859e-01 -4.471186697483062744e-01 -2.941645681858062744e-01 -5.175451636314392090e-01
7.162000000000000000e+03 4.909131240844726562e+01 1.631745719909667969e+01 -4.201861321926116943e-01 7.202837616205215454e-02 -1.044473275542259216e-01 -4.195878207683563232e-01
7.163000000000000000e+03 4.243589401245117188e+01 8.409920692443847656e+00 -4.037502706050872803e-01 -3.041405379772186279e-01 -2.123672366142272949e-01 -3.693103790283203125e-01
7.164000000000000000e+03 3.736972045898437500e+01 3.906782388687133789e+00 -4.761439859867095947e-01 -5.315262675285339355e-01 -3.023010790348052979e-01 -2.516961097717285156e-01
7.165000000000000000e+03 4.049014663696289062e+01 4.122138977050781250e+00 -2.406502366065979004e-01 -2.917723059654235840e-01 -1.597267687320709229e-01 -1.590185761451721191e-01
7.166000000000000000e+03 3.908686065673828125e+01 5.194705009460449219e+00 -4.489233195781707764e-01 -4.718362390995025635e-01 -2.762278616428375244e-01 -3.049457967281341553e-01
7.167000000000000000e+03 5.229956436157226562e+01 2.082970619201660156e+01 -5.466644763946533203e-01 2.731280624866485596e-01 -8.206091821193695068e-02 -4.459572434425354004e-01
7.168000000000000000e+03 5.578338241577148438e+01 2.153905296325683594e+01 -3.412465453147888184e-01 8.939236402511596680e-01 1.658031344413757324e-01 -1.856311708688735962e-01
7.169000000000000000e+03 4.068613052368164062e+01 6.893556118011474609e+00 -4.367080032825469971e-01 -4.079664349555969238e-01 -2.534023225307464600e-01 -3.584110736846923828e-01
7.170000000000000000e+03 4.405360794067382812e+01 1.012699317932128906e+01 -3.954380452632904053e-01 -2.167100161314010620e-01 -1.836444139480590820e-01 -3.941051959991455078e-01
7.171000000000000000e+03 4.340847396850585938e+01 1.185676383972167969e+01 -5.456132888793945312e-01 -4.152336120605468750e-01 -2.882540822029113770e-01 -5.605167746543884277e-01
7.172000000000000000e+03 3.993082046508789062e+01 6.389131069183349609e+00 -4.663677811622619629e-01 -4.596376419067382812e-01 -2.778016328811645508e-01 -3.600057363510131836e-01
7.173000000000000000e+03 4.090426635742187500e+01 4.897353351116180420e-01 1.055373474955558777e-01 -1.789486557245254517e-01 -2.202338911592960358e-02 4.080625250935554504e-02
7.174000000000000000e+03 4.936995315551757812e+01 1.592195034027099609e+01 -3.883867561817169189e-01 1.430903077125549316e-01 -7.358893007040023804e-02 -3.765838742256164551e-01
7.175000000000000000e+03 5.920212554931640625e+01 2.045910263061523438e+01 -4.739272594451904297e-02 1.823996782302856445e+00 5.329812169075012207e-01 2.950867712497711182e-01
7.176000000000000000e+03 5.278356552124023438e+01 1.984189414978027344e+01 -4.318028986454010010e-01 4.509827494621276855e-01 5.753951147198677063e-03 -3.350573480129241943e-01
7.177000000000000000e+03 3.873933410644531250e+01 2.847605943679809570e+00 -2.402595579624176025e-01 -4.117494225502014160e-01 -1.956027001142501831e-01 -1.213669851422309875e-01
7.178000000000000000e+03 5.450761032104492188e+01 2.098351287841796875e+01 -3.946187198162078857e-01 6.886710524559020996e-01 8.821570128202438354e-02 -2.620778679847717285e-01
7.179000000000000000e+03 5.702500534057617188e+01 2.194311332702636719e+01 -2.721160054206848145e-01 1.111194610595703125e+00 2.517235577106475830e-01 -8.252814412117004395e-02
7.180000000000000000e+03 4.228632736206054688e+01 1.090636157989501953e+01 -5.673451423645019531e-01 -4.883247017860412598e-01 -3.167009651660919189e-01 -5.661447048187255859e-01
7.181000000000000000e+03 4.271137237548828125e+01 1.021368217468261719e+01 -4.978618919849395752e-01 -3.917820453643798828e-01 -2.668931782245635986e-01 -4.885465204715728760e-01
7.182000000000000000e+03 6.020721435546875000e+01 1.904674530029296875e+01 3.509874641895294189e-02 2.306126117706298828e+00 7.023674845695495605e-01 4.763500094413757324e-01
7.183000000000000000e+03 6.069664764404296875e+01 1.622455787658691406e+01 1.074205636978149414e-01 2.768661499023437500e+00 8.628246188163757324e-01 5.864837765693664551e-01
7.184000000000000000e+03 3.945315170288085938e+01 4.492706298828125000e+00 -3.546545505523681641e-01 -4.014404118061065674e-01 -2.268284857273101807e-01 -2.250760942697525024e-01
7.185000000000000000e+03 4.622929763793945312e+01 1.368039989471435547e+01 -4.492115676403045654e-01 -1.638335436582565308e-01 -1.839135289192199707e-01 -4.826735854148864746e-01
7.186000000000000000e+03 4.857684326171875000e+01 1.519748497009277344e+01 -3.900339305400848389e-01 6.846198439598083496e-02 -9.647157788276672363e-02 -3.975932300090789795e-01
7.187000000000000000e+03 6.132863235473632812e+01 1.886274909973144531e+01 6.722135841846466064e-02 2.701849222183227539e+00 8.307211399078369141e-01 6.113320589065551758e-01
7.188000000000000000e+03 3.871696090698242188e+01 1.484138011932373047e+00 -8.102184534072875977e-02 -3.818762898445129395e-01 -1.388694345951080322e-01 -3.094307146966457367e-02
7.189000000000000000e+03 3.973581695556640625e+01 1.386304020881652832e+00 -2.509227767586708069e-02 -3.006254136562347412e-01 -9.771531075239181519e-02 -1.266319397836923599e-02
7.190000000000000000e+03 5.637821960449218750e+01 2.811579704284667969e+00 2.799125313758850098e-01 2.337683200836181641e+00 7.852787375450134277e-01 4.573685228824615479e-01
7.191000000000000000e+03 5.648915863037109375e+01 1.821608066558837891e+00 2.999342978000640869e-01 2.419497728347778320e+00 8.158296346664428711e-01 4.667512476444244385e-01
7.192000000000000000e+03 6.061775970458984375e+01 1.416376876831054688e+01 1.400834769010543823e-01 2.876666784286499023e+00 9.050250649452209473e-01 5.978396534919738770e-01
7.193000000000000000e+03 6.163272094726562500e+01 1.399241352081298828e+01 1.462289541959762573e-01 3.202030897140502930e+00 1.004477977752685547e+00 6.619110703468322754e-01
7.194000000000000000e+03 6.053695297241210938e+01 2.163609123229980469e+01 -1.639416255056858063e-02 2.036819696426391602e+00 6.061276793479919434e-01 4.203070998191833496e-01
7.195000000000000000e+03 6.187319564819335938e+01 1.938987731933593750e+01 5.644072964787483215e-02 2.814569473266601562e+00 8.613030910491943359e-01 6.660889387130737305e-01
7.196000000000000000e+03 4.908404541015625000e+01 -2.456023454666137695e+00 3.660551309585571289e-01 1.053173422813415527e+00 4.257685542106628418e-01 2.467056959867477417e-01
7.197000000000000000e+03 5.072212219238281250e+01 -4.258320808410644531e+00 3.833325207233428955e-01 1.402032375335693359e+00 5.356094241142272949e-01 2.846156060695648193e-01
7.198000000000000000e+03 5.985727310180664062e+01 8.085378646850585938e+00 2.262132018804550171e-01 2.993774890899658203e+00 9.659964442253112793e-01 5.845882892608642578e-01
7.199000000000000000e+03 6.257056427001953125e+01 2.109592628479003906e+01 5.231734737753868103e-02 2.825794219970703125e+00 8.634334802627563477e-01 7.533395886421203613e-01
7.200000000000000000e+03 5.989757537841796875e+01 1.366015052795410156e+01 1.414856910705566406e-01 2.698906898498535156e+00 8.521177768707275391e-01 5.532718300819396973e-01
7.201000000000000000e+03 4.183840942382812500e+01 2.420913457870483398e+00 -1.148087531328201294e-02 -1.088815331459045410e-01 -3.610872104763984680e-02 -1.615606062114238739e-02
7.202000000000000000e+03 6.058647918701171875e+01 8.605485916137695312e+00 2.187627851963043213e-01 3.172227859497070312e+00 1.017297267913818359e+00 6.111123561859130859e-01
7.203000000000000000e+03 4.401731872558593750e+01 8.316462635993957520e-01 1.755172461271286011e-01 1.846523582935333252e-01 1.080508828163146973e-01 1.002996712923049927e-01
7.204000000000000000e+03 6.186806869506835938e+01 2.140342140197753906e+01 2.826967462897300720e-02 2.541644096374511719e+00 7.709741592407226562e-01 6.435887813568115234e-01
7.205000000000000000e+03 5.991514587402343750e+01 2.100982475280761719e+01 -2.179582230746746063e-02 1.961205482482910156e+00 5.818228721618652344e-01 3.616392910480499268e-01
7.206000000000000000e+03 5.951086807250976562e+01 1.124310016632080078e+01 1.782973408699035645e-01 2.747512340545654297e+00 8.777428865432739258e-01 5.515567660331726074e-01
7.207000000000000000e+03 4.687655258178710938e+01 -3.804486989974975586e-01 2.898870408535003662e-01 6.235667467117309570e-01 2.740361392498016357e-01 1.816836297512054443e-01
7.208000000000000000e+03 6.116955566406250000e+01 2.153191566467285156e+01 4.019076935946941376e-03 2.264114379882812500e+00 6.804400682449340820e-01 5.145630836486816406e-01
7.209000000000000000e+03 5.939406967163085938e+01 2.178819656372070312e+01 -7.646970450878143311e-02 1.717982649803161621e+00 4.924538731575012207e-01 2.487981319427490234e-01
7.210000000000000000e+03 5.220658493041992188e+01 -5.391178607940673828e+00 3.785209655761718750e-01 1.717650413513183594e+00 6.288514137268066406e-01 3.078763484954833984e-01
7.211000000000000000e+03 5.926853561401367188e+01 5.693721771240234375e+00 2.413697987794876099e-01 2.927488565444946289e+00 9.506574869155883789e-01 5.629500746726989746e-01
7.212000000000000000e+03 4.195650863647460938e+01 7.122535228729248047e+00 -3.677869737148284912e-01 -2.955536544322967529e-01 -1.990021914243698120e-01 -3.104726076126098633e-01
7.213000000000000000e+03 5.915661621093750000e+01 7.589247226715087891e+00 2.306707203388214111e-01 2.832572698593139648e+00 9.189730286598205566e-01 5.569152235984802246e-01
7.214000000000000000e+03 5.450619125366210938e+01 -8.230329513549804688e+00 3.405902385711669922e-01 2.231491565704345703e+00 7.716245651245117188e-01 3.319717943668365479e-01
7.215000000000000000e+03 5.383433532714843750e+01 -1.927744150161743164e+00 3.427214324474334717e-01 1.958949089050292969e+00 6.905011534690856934e-01 3.809001743793487549e-01
7.216000000000000000e+03 5.636186599731445312e+01 -1.545037150382995605e+00 3.247798085212707520e-01 2.470495462417602539e+00 8.385825753211975098e-01 4.444589018821716309e-01
7.217000000000000000e+03 5.700342941284179688e+01 -9.020400047302246094e+00 2.962984442710876465e-01 2.774192094802856445e+00 9.211471676826477051e-01 3.614587783813476562e-01
7.218000000000000000e+03 5.606175231933593750e+01 -7.147740840911865234e+00 3.261702358722686768e-01 2.543815135955810547e+00 8.609955906867980957e-01 3.728611767292022705e-01
7.219000000000000000e+03 5.319862365722656250e+01 2.134374618530273438e+01 -5.271733403205871582e-01 3.999601602554321289e-01 -3.816395625472068787e-02 -4.076738953590393066e-01
7.220000000000000000e+03 5.969052505493164062e+01 1.710556030273437500e+01 6.428901106119155884e-02 2.349062919616699219e+00 7.240056395530700684e-01 4.659032225608825684e-01
7.221000000000000000e+03 4.894622039794921875e+01 1.571608543395996094e+01 -3.987563848495483398e-01 9.152031689882278442e-02 -9.217082709074020386e-02 -3.970941007137298584e-01
7.222000000000000000e+03 4.850093841552734375e+01 1.560509014129638672e+01 -4.164736568927764893e-01 2.827974595129489899e-02 -1.164581701159477234e-01 -4.262095689773559570e-01
7.223000000000000000e+03 5.254105758666992188e+01 2.033481407165527344e+01 -4.860610365867614746e-01 3.603440225124359131e-01 -3.771509975194931030e-02 -3.911120295524597168e-01
7.224000000000000000e+03 5.025165939331054688e+01 1.914958572387695312e+01 -5.470467209815979004e-01 3.057467378675937653e-02 -1.549416184425354004e-01 -5.017184615135192871e-01
7.225000000000000000e+03 5.162866210937500000e+01 1.980800437927246094e+01 -5.069006681442260742e-01 2.293601930141448975e-01 -8.326215296983718872e-02 -4.303429424762725830e-01
7.226000000000000000e+03 5.116839599609375000e+01 1.956165885925292969e+01 -5.168736577033996582e-01 1.634262353181838989e-01 -1.060342341661453247e-01 -4.515681266784667969e-01
7.227000000000000000e+03 4.704349517822265625e+01 1.439049434661865234e+01 -4.374689459800720215e-01 -1.164160445332527161e-01 -1.661655008792877197e-01 -4.669175744056701660e-01
7.228000000000000000e+03 3.856745910644531250e+01 3.472810983657836914e+00 -3.208730220794677734e-01 -4.388159215450286865e-01 -2.279066741466522217e-01 -1.770374029874801636e-01
7.229000000000000000e+03 3.881490707397460938e+01 4.671760559082031250e+00 -4.173871874809265137e-01 -4.725304245948791504e-01 -2.669752836227416992e-01 -2.718447744846343994e-01
7.230000000000000000e+03 6.109712982177734375e+01 2.029365539550781250e+01 3.734667971730232239e-02 2.445791244506835938e+00 7.449414134025573730e-01 5.568448901176452637e-01
7.231000000000000000e+03 4.919937515258789062e+01 1.743510246276855469e+01 -4.908554553985595703e-01 -6.962514482438564301e-03 -1.493453979492187500e-01 -4.810193777084350586e-01
7.232000000000000000e+03 4.293560791015625000e+01 1.092234230041503906e+01 -5.225769281387329102e-01 -4.075576066970825195e-01 -2.790403664112091064e-01 -5.219560265541076660e-01
7.233000000000000000e+03 4.215697097778320312e+01 9.670010566711425781e+00 -5.080901384353637695e-01 -4.220904707908630371e-01 -2.790541946887969971e-01 -4.851501584053039551e-01
7.234000000000000000e+03 4.215930557250976562e+01 7.889852523803710938e+00 -3.925803601741790771e-01 -3.125362992286682129e-01 -2.115349918603897095e-01 -3.500466942787170410e-01
7.235000000000000000e+03 4.250411605834960938e+01 1.124441337585449219e+01 -5.759800672531127930e-01 -4.894669651985168457e-01 -3.196341097354888916e-01 -5.802386403083801270e-01
7.236000000000000000e+03 4.256348037719726562e+01 1.064379882812500000e+01 -5.346547365188598633e-01 -4.328802227973937988e-01 -2.902604937553405762e-01 -5.278185009956359863e-01
7.237000000000000000e+03 3.892395401000976562e+01 2.291138648986816406e+00 -1.661186963319778442e-01 -3.825197517871856689e-01 -1.645915359258651733e-01 -7.585842162370681763e-02
7.238000000000000000e+03 3.949060058593750000e+01 2.336151361465454102e+00 -1.342999190092086792e-01 -3.376878499984741211e-01 -1.415963172912597656e-01 -6.728495657444000244e-02
7.239000000000000000e+03 5.208713912963867188e+01 2.006828498840332031e+01 -4.979719817638397217e-01 2.957703173160552979e-01 -6.066049635410308838e-02 -4.095104634761810303e-01
7.240000000000000000e+03 4.327215194702148438e+01 8.807466506958007812e+00 -3.778103590011596680e-01 -2.361807674169540405e-01 -1.841973364353179932e-01 -3.534275591373443604e-01
7.241000000000000000e+03 5.635880661010742188e+01 2.144311714172363281e+01 -2.875097095966339111e-01 1.023471951484680176e+00 2.207886576652526855e-01 -1.184811443090438843e-01
7.242000000000000000e+03 6.069595718383789062e+01 1.836398315429687500e+01 6.393473595380783081e-02 2.541721820831298828e+00 7.816969752311706543e-01 5.491346716880798340e-01
7.243000000000000000e+03 4.134035110473632812e+01 6.941849231719970703e+00 -3.894701004028320312e-01 -3.424932062625885010e-01 -2.195889949798583984e-01 -3.241220414638519287e-01
7.244000000000000000e+03 4.067081451416015625e+01 6.360607147216796875e+00 -3.985961377620697021e-01 -3.814910054206848145e-01 -2.340261489152908325e-01 -3.180270195007324219e-01
7.245000000000000000e+03 3.858801269531250000e+01 4.099560737609863281e+00 -3.903423547744750977e-01 -4.615678191184997559e-01 -2.555730342864990234e-01 -2.298373281955718994e-01
7.246000000000000000e+03 3.782988739013671875e+01 3.323109626770019531e+00 -3.693747222423553467e-01 -4.958339631557464600e-01 -2.595626115798950195e-01 -1.904461681842803955e-01
7.247000000000000000e+03 5.519292449951171875e+01 2.148991584777832031e+01 -3.867497742176055908e-01 7.768421173095703125e-01 1.170276924967765808e-01 -2.388324439525604248e-01
7.248000000000000000e+03 4.975151062011718750e+01 1.712076568603515625e+01 -4.327902197837829590e-01 1.152695193886756897e-01 -9.525620937347412109e-02 -4.129164516925811768e-01
7.249000000000000000e+03 4.007904815673828125e+01 2.950167894363403320e+00 -1.608516126871109009e-01 -2.954615652561187744e-01 -1.368939578533172607e-01 -9.498900175094604492e-02
7.250000000000000000e+03 5.801708221435546875e+01 2.090721702575683594e+01 -1.382266879081726074e-01 1.463487863540649414e+00 3.975783586502075195e-01 1.129024326801300049e-01
7.251000000000000000e+03 5.184897232055664062e+01 1.931719970703125000e+01 -4.537252485752105713e-01 3.137295842170715332e-01 -4.199870303273200989e-02 -3.782690465450286865e-01
7.252000000000000000e+03 5.367666244506835938e+01 2.038955879211425781e+01 -4.126281738281250000e-01 5.775322318077087402e-01 4.947122186422348022e-02 -2.952055335044860840e-01
7.253000000000000000e+03 5.873180389404296875e+01 2.134918022155761719e+01 -1.108941733837127686e-01 1.574409961700439453e+00 4.390547275543212891e-01 1.766065359115600586e-01
7.254000000000000000e+03 5.816530227661132812e+01 2.157531547546386719e+01 -1.631018221378326416e-01 1.419722199440002441e+00 3.769861161708831787e-01 8.419698476791381836e-02
7.255000000000000000e+03 3.810631179809570312e+01 2.683730363845825195e+00 -2.695746719837188721e-01 -4.456204473972320557e-01 -2.145585417747497559e-01 -1.174593642354011536e-01
7.256000000000000000e+03 5.410114669799804688e+01 2.067125320434570312e+01 -3.987129926681518555e-01 6.387529373168945312e-01 7.201197743415832520e-02 -2.774546146392822266e-01
7.257000000000000000e+03 4.910042953491210938e+01 1.527644920349121094e+01 -3.601259589195251465e-01 1.579294055700302124e-01 -6.065896898508071899e-02 -3.560789525508880615e-01
7.258000000000000000e+03 6.014020919799804688e+01 1.475381565093994141e+01 1.143466755747795105e-01 2.696233510971069336e+00 8.431740403175354004e-01 5.589984655380249023e-01
7.259000000000000000e+03 4.278722381591796875e+01 9.657373428344726562e+00 -4.599652588367462158e-01 -3.459507524967193604e-01 -2.417748123407363892e-01 -4.417207837104797363e-01
7.260000000000000000e+03 4.994090270996093750e+01 1.800100517272949219e+01 -4.800827205181121826e-01 7.482454925775527954e-02 -1.215774491429328918e-01 -4.508664011955261230e-01
7.261000000000000000e+03 5.759537887573242188e+01 2.177323341369628906e+01 -2.155153006315231323e-01 1.261854767799377441e+00 3.139018416404724121e-01 1.021728152409195900e-03
7.262000000000000000e+03 5.537873077392578125e+01 2.035406684875488281e+01 -2.906098365783691406e-01 9.253970384597778320e-01 1.904361546039581299e-01 -1.358673125505447388e-01
7.263000000000000000e+03 4.557561492919921875e+01 1.220970344543457031e+01 -4.177882373332977295e-01 -1.573392897844314575e-01 -1.725382506847381592e-01 -4.331284165382385254e-01
7.264000000000000000e+03 4.965087890625000000e+01 1.460761260986328125e+01 -2.795860469341278076e-01 2.964638173580169678e-01 5.063327960669994354e-03 -2.743395566940307617e-01
7.265000000000000000e+03 3.965540313720703125e+01 4.984364032745361328e+00 -3.726499974727630615e-01 -4.136514365673065186e-01 -2.358904331922531128e-01 -2.569033205509185791e-01
7.266000000000000000e+03 3.933493804931640625e+01 3.986522436141967773e+00 -3.017919361591339111e-01 -3.905262351036071777e-01 -2.076954543590545654e-01 -1.849737018346786499e-01
7.267000000000000000e+03 6.108395767211914062e+01 1.573883724212646484e+01 1.133664026856422424e-01 2.905902624130249023e+00 9.057807326316833496e-01 6.229231953620910645e-01
7.268000000000000000e+03 6.080844879150390625e+01 1.947233009338378906e+01 4.072777181863784790e-02 2.453404664993286133e+00 7.482397556304931641e-01 5.355648994445800781e-01
7.269000000000000000e+03 5.951533889770507812e+01 1.426753425598144531e+01 1.236749216914176941e-01 2.570563077926635742e+00 8.082713484764099121e-01 5.154985785484313965e-01
7.270000000000000000e+03 5.889368057250976562e+01 2.199713134765625000e+01 -1.333073228597640991e-01 1.524678587913513184e+00 4.174113869667053223e-01 1.493849903345108032e-01
7.271000000000000000e+03 5.969485855102539062e+01 1.953945541381835938e+01 1.228252891451120377e-02 2.087432384490966797e+00 6.299144625663757324e-01 4.028047621250152588e-01
7.272000000000000000e+03 4.165342330932617188e+01 3.922852575778961182e-01 1.578643918037414551e-01 -9.060755372047424316e-02 2.017705328762531281e-02 6.074013933539390564e-02
7.273000000000000000e+03 4.281532287597656250e+01 6.921497344970703125e+00 -2.852355837821960449e-01 -1.782153844833374023e-01 -1.390352845191955566e-01 -2.472083419561386108e-01
7.274000000000000000e+03 5.987281417846679688e+01 2.024526214599609375e+01 -9.358230046927928925e-03 2.049733877182006836e+00 6.121126413345336914e-01 3.963043093681335449e-01
7.275000000000000000e+03 4.495359420776367188e+01 1.247311305999755859e+01 -4.695954620838165283e-01 -2.584483325481414795e-01 -2.184131443500518799e-01 -4.919258654117584229e-01
7.276000000000000000e+03 4.676784515380859375e+01 1.316913700103759766e+01 -3.872989118099212646e-01 -5.846909433603286743e-02 -1.337303966283798218e-01 -4.060845077037811279e-01
7.277000000000000000e+03 5.863893508911132812e+01 8.251330375671386719e+00 2.205543965101242065e-01 2.672792673110961914e+00 8.680041432380676270e-01 5.343205332756042480e-01
7.278000000000000000e+03 5.737953948974609375e+01 9.469974517822265625e+00 1.875089704990386963e-01 2.292161464691162109e+00 7.439011335372924805e-01 4.521090090274810791e-01
7.279000000000000000e+03 4.797402572631835938e+01 -4.858996868133544922e-01 3.128079175949096680e-01 8.143624663352966309e-01 3.381511270999908447e-01 2.126392722129821777e-01
7.280000000000000000e+03 5.805378723144531250e+01 8.879741668701171875e+00 2.034954577684402466e-01 2.497294664382934570e+00 8.102370500564575195e-01 4.997277259826660156e-01
7.281000000000000000e+03 5.876065826416015625e+01 1.067395114898681641e+01 1.796336024999618530e-01 2.577775239944458008e+00 8.272226452827453613e-01 5.151935219764709473e-01
7.282000000000000000e+03 5.803598403930664062e+01 1.008312225341796875e+01 1.781367212533950806e-01 2.419131755828857422e+00 7.791805267333984375e-01 4.840455055236816406e-01
7.283000000000000000e+03 5.611108779907226562e+01 5.972240865230560303e-02 3.171202242374420166e-01 2.384830474853515625e+00 8.105852007865905762e-01 4.470818638801574707e-01
7.284000000000000000e+03 5.489263916015625000e+01 -2.179736137390136719e+00 3.433223366737365723e-01 2.166233062744140625e+00 7.528666257858276367e-01 4.027525186538696289e-01
7.285000000000000000e+03 4.229010391235351562e+01 1.776686906814575195e+00 4.610794037580490112e-02 -4.679410532116889954e-02 -2.058489626506343484e-04 1.740904524922370911e-02
7.286000000000000000e+03 6.017004394531250000e+01 1.574605941772460938e+01 1.043832749128341675e-01 2.617114067077636719e+00 8.164492249488830566e-01 5.404365658760070801e-01
7.287000000000000000e+03 5.935111999511718750e+01 1.649785041809082031e+01 6.906531006097793579e-02 2.299160242080688477e+00 7.104676961898803711e-01 4.491225779056549072e-01
7.288000000000000000e+03 4.642944717407226562e+01 1.006834626197814941e+00 2.222558706998825073e-01 5.344063639640808105e-01 2.269986718893051147e-01 1.506401598453521729e-01
7.289000000000000000e+03 4.309025955200195312e+01 1.984507918357849121e+00 7.311993092298507690e-02 4.041080549359321594e-02 3.405922278761863708e-02 3.329358249902725220e-02
7.290000000000000000e+03 5.010854339599609375e+01 -2.247020721435546875e+00 3.649728894233703613e-01 1.230601310729980469e+00 4.786722660064697266e-01 2.773913741111755371e-01
7.291000000000000000e+03 5.104607772827148438e+01 -2.015285253524780273e+00 3.583016693592071533e-01 1.397458195686340332e+00 5.267279744148254395e-01 2.976629137992858887e-01
7.292000000000000000e+03 5.553598403930664062e+01 2.706249952316284180e+00 2.835381627082824707e-01 2.182454347610473633e+00 7.397977113723754883e-01 4.377931952476501465e-01
7.293000000000000000e+03 5.721743011474609375e+01 2.939130544662475586e+00 2.828202545642852783e-01 2.533448219299316406e+00 8.448805212974548340e-01 4.901900887489318848e-01
7.294000000000000000e+03 5.844773864746093750e+01 5.437900543212890625e+00 2.494625598192214966e-01 2.750024795532226562e+00 8.998461961746215820e-01 5.346844196319580078e-01
7.295000000000000000e+03 5.740098571777343750e+01 4.727241516113281250e+00 2.593293786048889160e-01 2.497217178344726562e+00 8.269639611244201660e-01 4.906891286373138428e-01
7.296000000000000000e+03 5.686349868774414062e+01 8.836427688598632812e+00 1.891804188489913940e-01 2.201988458633422852e+00 7.173506617546081543e-01 4.375416934490203857e-01
7.297000000000000000e+03 5.847208786010742188e+01 7.124572277069091797e+00 2.327229529619216919e-01 2.676161766052246094e+00 8.726654648780822754e-01 5.345128774642944336e-01
7.298000000000000000e+03 5.256001663208007812e+01 -4.339352130889892578e+00 3.719040751457214355e-01 1.757156372070312500e+00 6.387181282043457031e-01 3.224138319492340088e-01
7.299000000000000000e+03 5.297686386108398438e+01 -3.486120462417602539e+00 3.602067530155181885e-01 1.812520146369934082e+00 6.518180966377258301e-01 3.421050906181335449e-01
7.300000000000000000e+03 5.603989028930664062e+01 -5.745788097381591797e+00 3.318195044994354248e-01 2.513875007629394531e+00 8.537083268165588379e-01 3.946803212165832520e-01
7.301000000000000000e+03 5.745377731323242188e+01 -7.506512165069580078e+00 2.991913557052612305e-01 2.837039709091186523e+00 9.408693313598632812e-01 3.976450860500335693e-01
7.302000000000000000e+03 5.473141479492187500e+01 -4.600778579711914062e+00 3.501723408699035645e-01 2.203238725662231445e+00 7.660232782363891602e-01 3.668673038482666016e-01
7.303000000000000000e+03 5.643589019775390625e+01 -3.167558908462524414e+00 3.292282819747924805e-01 2.530107498168945312e+00 8.578007221221923828e-01 4.322604835033416748e-01
7.304000000000000000e+03 5.926434326171875000e+01 1.587592315673828125e+01 8.302500098943710327e-02 2.334146261215209961e+00 7.251513600349426270e-01 4.645731449127197266e-01
7.305000000000000000e+03 5.958717346191406250e+01 1.528405189514160156e+01 9.237728267908096313e-02 2.465434551239013672e+00 7.673435211181640625e-01 4.984921813011169434e-01
7.306000000000000000e+03 5.365349578857421875e+01 -4.574675083160400391e+00 3.662920296192169189e-01 1.987734675407409668e+00 7.062079906463623047e-01 3.523263633251190186e-01
7.307000000000000000e+03 5.474783706665039062e+01 -5.784189701080322266e+00 3.509364128112792969e-01 2.235817670822143555e+00 7.760262489318847656e-01 3.549187183380126953e-01
7.308000000000000000e+03 5.578057861328125000e+01 -4.499954223632812500e+00 3.375124335289001465e-01 2.412246942520141602e+00 8.249278664588928223e-01 4.095915555953979492e-01
7.309000000000000000e+03 5.820232391357421875e+01 6.080696582794189453e+00 2.352531105279922485e-01 2.647340059280395508e+00 8.647779822349548340e-01 5.253868699073791504e-01
7.310000000000000000e+03 5.013319396972656250e+01 1.747686576843261719e+01 -4.353122711181640625e-01 1.439328789710998535e-01 -8.741381019353866577e-02 -4.047715067863464355e-01
7.311000000000000000e+03 5.038285446166992188e+01 1.867273521423339844e+01 -5.036417245864868164e-01 9.815338999032974243e-02 -1.216465085744857788e-01 -4.587520360946655273e-01
7.312000000000000000e+03 4.758154678344726562e+01 1.456283855438232422e+01 -4.100781083106994629e-01 -4.203907027840614319e-02 -1.356351524591445923e-01 -4.394762814044952393e-01
7.313000000000000000e+03 4.864926910400390625e+01 1.477329730987548828e+01 -3.657824397087097168e-01 1.058955192565917969e-01 -7.796607911586761475e-02 -3.692970275878906250e-01
7.314000000000000000e+03 5.231976318359375000e+01 1.957442665100097656e+01 -4.414708614349365234e-01 3.821167349815368652e-01 -1.780623383820056915e-02 -3.565598428249359131e-01
7.315000000000000000e+03 5.088462829589843750e+01 1.885780143737792969e+01 -4.814076423645019531e-01 1.717573106288909912e-01 -9.289509803056716919e-02 -4.275899529457092285e-01
7.316000000000000000e+03 4.945494461059570312e+01 1.665842437744140625e+01 -4.228607118129730225e-01 1.035019457340240479e-01 -9.580762684345245361e-02 -4.108840823173522949e-01
7.317000000000000000e+03 4.372523498535156250e+01 9.288986206054687500e+00 -3.718792200088500977e-01 -2.098572850227355957e-01 -1.745209544897079468e-01 -3.601626455783843994e-01
7.318000000000000000e+03 4.298158264160156250e+01 8.247740745544433594e+00 -3.578129708766937256e-01 -2.389631122350692749e-01 -1.790328323841094971e-01 -3.313548564910888672e-01
7.319000000000000000e+03 4.839319992065429688e+01 1.362726974487304688e+01 -3.063770830631256104e-01 1.701598763465881348e-01 -4.086516052484512329e-02 -3.075883984565734863e-01
7.320000000000000000e+03 3.932540130615234375e+01 3.461513996124267578e+00 -2.639929056167602539e-01 -3.793847262859344482e-01 -1.930132955312728882e-01 -1.541818976402282715e-01
7.321000000000000000e+03 5.577868652343750000e+01 2.090989685058593750e+01 -2.993395030498504639e-01 9.507985711097717285e-01 1.954377144575119019e-01 -1.357263028621673584e-01
7.322000000000000000e+03 4.619783782958984375e+01 1.325290775299072266e+01 -4.271570742130279541e-01 -1.386700719594955444e-01 -1.697481423616409302e-01 -4.534115195274353027e-01
7.323000000000000000e+03 4.272631454467773438e+01 1.164265346527099609e+01 -5.848182439804077148e-01 -4.860665798187255859e-01 -3.212654292583465576e-01 -5.932164788246154785e-01
7.324000000000000000e+03 4.324855804443359375e+01 1.043556308746337891e+01 -4.764534831047058105e-01 -3.430825769901275635e-01 -2.458608150482177734e-01 -4.718787372112274170e-01
7.325000000000000000e+03 4.957000350952148438e+01 1.546160602569580078e+01 -3.420044779777526855e-01 2.157110720872879028e-01 -3.788801655173301697e-02 -3.286894261837005615e-01
7.326000000000000000e+03 5.052245330810546875e+01 1.816917991638183594e+01 -4.527759850025177002e-01 1.636120826005935669e-01 -8.674916625022888184e-02 -4.128233194351196289e-01
7.327000000000000000e+03 5.577753067016601562e+01 2.038965225219726562e+01 -2.708535790443420410e-01 1.006886363029479980e+00 2.208098173141479492e-01 -1.004519015550613403e-01
7.328000000000000000e+03 4.736972045898437500e+01 1.332494258880615234e+01 -3.629202246665954590e-01 2.272553741931915283e-02 -1.020584106445312500e-01 -3.744508922100067139e-01
7.329000000000000000e+03 5.859038162231445312e+01 2.068243217468261719e+01 -9.051381051540374756e-02 1.636602282524108887e+00 4.638265371322631836e-01 2.010821253061294556e-01
7.330000000000000000e+03 4.144383239746093750e+01 6.349337100982666016e+00 -3.435504436492919922e-01 -3.011217713356018066e-01 -1.934016644954681396e-01 -2.773477733135223389e-01
7.331000000000000000e+03 4.003677749633789062e+01 4.363779544830322266e+00 -2.872906923294067383e-01 -3.538358509540557861e-01 -1.923379600048065186e-01 -1.892800778150558472e-01
7.332000000000000000e+03 5.857872009277343750e+01 1.588171958923339844e+01 6.614302843809127808e-02 2.158236503601074219e+00 6.673138737678527832e-01 4.100537300109863281e-01
7.333000000000000000e+03 4.462594223022460938e+01 1.281844902038574219e+01 -5.074449181556701660e-01 -3.299226164817810059e-01 -2.512102723121643066e-01 -5.391638875007629395e-01
7.334000000000000000e+03 4.385469436645507812e+01 1.165601634979248047e+01 -5.083389878273010254e-01 -3.581534922122955322e-01 -2.599477469921112061e-01 -5.205941200256347656e-01
7.335000000000000000e+03 5.746290588378906250e+01 2.111655044555664062e+01 -1.875591427087783813e-01 1.311508297920227051e+00 3.371847569942474365e-01 3.312534093856811523e-02
7.336000000000000000e+03 5.691335678100585938e+01 2.129893302917480469e+01 -2.374514639377593994e-01 1.163560867309570312e+00 2.778328359127044678e-01 -4.440584778785705566e-02
7.337000000000000000e+03 4.061209106445312500e+01 5.832036018371582031e+00 -3.783253729343414307e-01 -3.672996759414672852e-01 -2.236875146627426147e-01 -2.835048139095306396e-01
7.338000000000000000e+03 4.725120162963867188e+01 6.719921231269836426e-01 2.550948262214660645e-01 6.569467186927795410e-01 2.736124694347381592e-01 1.774683296680450439e-01
7.339000000000000000e+03 4.385057830810546875e+01 1.849403738975524902e+00 9.710915386676788330e-02 1.333643496036529541e-01 6.914205104112625122e-02 5.770310387015342712e-02
7.340000000000000000e+03 5.978985214233398438e+01 1.619978141784667969e+01 9.318586438894271851e-02 2.480667829513549805e+00 7.721560597419738770e-01 5.006485581398010254e-01
7.341000000000000000e+03 5.884634399414062500e+01 1.907450675964355469e+01 -7.489561103284358978e-03 1.906350612640380859e+00 5.696583390235900879e-01 3.180490434169769287e-01
7.342000000000000000e+03 4.884505844116210938e+01 2.740748643875122070e+00 2.055559456348419189e-01 8.534159660339355469e-01 3.176915645599365234e-01 1.846975833177566528e-01
7.343000000000000000e+03 4.616837692260742188e+01 1.237441921234130859e+01 -3.807296454906463623e-01 -7.971510291099548340e-02 -1.381334215402603149e-01 -3.999320566654205322e-01
7.344000000000000000e+03 4.535759353637695312e+01 1.267458438873291016e+01 -4.485480487346649170e-01 -2.197899669408798218e-01 -2.005013972520828247e-01 -4.779413342475891113e-01
7.345000000000000000e+03 5.954973983764648438e+01 1.887184143066406250e+01 2.156180329620838165e-02 2.139574527740478516e+00 6.483408808708190918e-01 4.082445204257965088e-01
7.346000000000000000e+03 4.238288497924804688e+01 1.042288780212402344e+00 1.236272081732749939e-01 -1.279451139271259308e-02 3.324981033802032471e-02 5.403231829404830933e-02
7.347000000000000000e+03 5.526674270629882812e+01 2.085037612915039062e+01 -3.302376270294189453e-01 8.598245978355407715e-01 1.588760912418365479e-01 -1.794176101684570312e-01
7.348000000000000000e+03 5.619990921020507812e+01 2.031465911865234375e+01 -2.303558886051177979e-01 1.106090784072875977e+00 2.627204656600952148e-01 -4.551214724779129028e-02
7.349000000000000000e+03 4.451311492919921875e+01 1.344641327857971191e+00 1.592255234718322754e-01 2.340708523988723755e-01 1.179889142513275146e-01 9.303366392850875854e-02
7.350000000000000000e+03 4.097011184692382812e+01 3.749851465225219727e+00 -1.696307063102722168e-01 -2.422678470611572266e-01 -1.235695630311965942e-01 -1.199108585715293884e-01
7.351000000000000000e+03 4.343515396118164062e+01 9.832089424133300781e+00 -4.216924905776977539e-01 -2.753494977951049805e-01 -2.091125845909118652e-01 -4.123510718345642090e-01
7.352000000000000000e+03 5.965089035034179688e+01 1.249104213714599609e+01 1.601273715496063232e-01 2.706855773925781250e+00 8.600949048995971680e-01 5.478354692459106445e-01
7.353000000000000000e+03 5.630394363403320312e+01 3.771919012069702148e+00 2.681875824928283691e-01 2.283798933029174805e+00 7.655959129333496094e-01 4.548384845256805420e-01
7.354000000000000000e+03 5.542635345458984375e+01 1.723979234695434570e+00 2.995292842388153076e-01 2.193523406982421875e+00 7.479158043861389160e-01 4.315266311168670654e-01
7.355000000000000000e+03 5.908525848388671875e+01 1.322436904907226562e+01 1.333224326372146606e-01 2.488173246383666992e+00 7.864487171173095703e-01 4.982261657714843750e-01
7.356000000000000000e+03 4.541571044921875000e+01 2.665890932083129883e+00 1.171098649501800537e-01 3.247017264366149902e-01 1.325434744358062744e-01 7.187820225954055786e-02
7.357000000000000000e+03 4.375865936279296875e+01 8.435348510742187500e+00 -3.103211522102355957e-01 -1.480149179697036743e-01 -1.375008225440979004e-01 -2.957342863082885742e-01
7.358000000000000000e+03 4.517494583129882812e+01 7.378348112106323242e-01 2.072490453720092773e-01 3.403335809707641602e-01 1.642747819423675537e-01 1.222466006875038147e-01
7.359000000000000000e+03 4.568488693237304688e+01 1.470386147499084473e+00 1.884145885705947876e-01 4.047039151191711426e-01 1.779355555772781372e-01 1.148080751299858093e-01
7.360000000000000000e+03 5.736442947387695312e+01 1.071879482269287109e+01 1.577641069889068604e-01 2.207246065139770508e+00 7.095030546188354492e-01 4.312385916709899902e-01
7.361000000000000000e+03 4.088507080078125000e+01 1.894044041633605957e+00 -1.563317887485027313e-02 -2.027083933353424072e-01 -6.550247222185134888e-02 -1.550807245075702667e-02
7.362000000000000000e+03 4.108469390869140625e+01 1.019483447074890137e+00 7.227839529514312744e-02 -1.683792322874069214e-01 -2.883025445044040680e-02 2.431571483612060547e-02
7.363000000000000000e+03 4.017795944213867188e+01 2.357224225997924805e+00 -9.316632896661758423e-02 -2.766475081443786621e-01 -1.109441518783569336e-01 -5.881240218877792358e-02
7.364000000000000000e+03 4.899863052368164062e+01 -4.777452051639556885e-01 3.153023719787597656e-01 9.809218645095825195e-01 3.888672590255737305e-01 2.375937551259994507e-01
7.365000000000000000e+03 5.234673690795898438e+01 -3.116677999496459961e+00 3.722992241382598877e-01 1.714309930801391602e+00 6.259827613830566406e-01 3.332936167716979980e-01
7.366000000000000000e+03 4.996807861328125000e+01 -3.972019255161285400e-01 3.235333263874053955e-01 1.152545571327209473e+00 4.428236484527587891e-01 2.672904431819915771e-01
7.367000000000000000e+03 5.000265121459960938e+01 -1.306815624237060547e+00 3.431710302829742432e-01 1.182327032089233398e+00 4.576494395732879639e-01 2.697843015193939209e-01
7.368000000000000000e+03 5.125404739379882812e+01 -2.880205869674682617e+00 3.728279173374176025e-01 1.456727623939514160e+00 5.488666892051696777e-01 3.002367913722991943e-01
7.369000000000000000e+03 5.801363372802734375e+01 7.752793788909912109e+00 2.220699042081832886e-01 2.550022125244140625e+00 8.316276669502258301e-01 5.114287137985229492e-01
7.370000000000000000e+03 5.345382690429687500e+01 -5.715078830718994141e+00 3.649327456951141357e-01 1.962980389595031738e+00 6.983739733695983887e-01 3.327825367450714111e-01
7.371000000000000000e+03 5.342336654663085938e+01 -6.893183231353759766e+00 3.601199388504028320e-01 1.974502921104431152e+00 7.003868818283081055e-01 3.132973909378051758e-01
7.372000000000000000e+03 5.632175064086914062e+01 4.787610530853271484e+00 2.514114975929260254e-01 2.252061843872070312e+00 7.510420083999633789e-01 4.543445706367492676e-01
7.373000000000000000e+03 5.470761489868164062e+01 -6.996076583862304688e+00 3.419456481933593750e-01 2.251570940017700195e+00 7.780550122261047363e-01 3.474340140819549561e-01
7.374000000000000000e+03 5.459785461425781250e+01 -4.181143641471862793e-01 3.248358964920043945e-01 2.072194814682006836e+00 7.191092371940612793e-01 4.087326824665069580e-01
7.375000000000000000e+03 5.542369842529296875e+01 -1.011401653289794922e+00 3.289484381675720215e-01 2.239201545715332031e+00 7.704449892044067383e-01 4.263523221015930176e-01
7.376000000000000000e+03 5.341743850708007812e+01 -2.811009645462036133e+00 3.653901815414428711e-01 1.913045525550842285e+00 6.835307478904724121e-01 3.617233932018280029e-01
7.377000000000000000e+03 5.471098327636718750e+01 -3.410723924636840820e+00 3.457289040088653564e-01 2.164591789245605469e+00 7.530962228775024414e-01 3.876547515392303467e-01
7.378000000000000000e+03 5.480805969238281250e+01 2.909742832183837891e+00 2.770492136478424072e-01 1.994235754013061523e+00 6.813855171203613281e-01 4.050541818141937256e-01
7.379000000000000000e+03 5.106068801879882812e+01 1.835713195800781250e+01 -4.362908601760864258e-01 2.450865656137466431e-01 -5.736128613352775574e-02 -3.833837509155273438e-01
7.380000000000000000e+03 5.028897857666015625e+01 1.696124839782714844e+01 -3.929766118526458740e-01 2.295548319816589355e-01 -4.902653023600578308e-02 -3.556910753250122070e-01
7.381000000000000000e+03 4.721254730224609375e+01 1.386893653869628906e+01 -3.980668485164642334e-01 -4.675551503896713257e-02 -1.334467083215713501e-01 -4.199364185333251953e-01
7.382000000000000000e+03 4.815131759643554688e+01 1.465748786926269531e+01 -3.845852017402648926e-01 4.340703040361404419e-02 -1.023534536361694336e-01 -3.993469178676605225e-01
7.383000000000000000e+03 4.993323516845703125e+01 1.513530158996582031e+01 -3.052344322204589844e-01 3.068040311336517334e-01 4.708781780209392309e-04 -2.802672386169433594e-01
7.384000000000000000e+03 5.628539276123046875e+01 2.084322547912597656e+01 -2.590190470218658447e-01 1.071029067039489746e+00 2.436030060052871704e-01 -8.145488798618316650e-02
7.385000000000000000e+03 5.841796493530273438e+01 2.000639533996582031e+01 -6.887003034353256226e-02 1.673686027526855469e+00 4.814448058605194092e-01 2.162917703390121460e-01
7.386000000000000000e+03 5.137150192260742188e+01 1.907594871520996094e+01 -4.675275683403015137e-01 2.430930137634277344e-01 -6.733036786317825317e-02 -4.036292135715484619e-01
7.387000000000000000e+03 5.157432174682617188e+01 1.857340431213378906e+01 -4.179341793060302734e-01 3.253713250160217285e-01 -2.776885032653808594e-02 -3.526427447795867920e-01
7.388000000000000000e+03 4.931219100952148438e+01 1.403714656829833984e+01 -2.723899185657501221e-01 2.846423685550689697e-01 3.675734391435980797e-03 -2.633976638317108154e-01
7.389000000000000000e+03 5.024052810668945312e+01 1.434106063842773438e+01 -2.327641099691390991e-01 4.422842860221862793e-01 6.285605579614639282e-02 -2.056945115327835083e-01
7.390000000000000000e+03 5.069363784790039062e+01 1.764746284484863281e+01 -4.144374728202819824e-01 2.332746982574462891e-01 -5.434883013367652893e-02 -3.715397119522094727e-01
7.391000000000000000e+03 4.983130264282226562e+01 1.617819595336914062e+01 -3.680686056613922119e-01 2.118751555681228638e-01 -4.685803875327110291e-02 -3.478364646434783936e-01
7.392000000000000000e+03 5.423436355590820312e+01 1.944980049133300781e+01 -3.028617203235626221e-01 7.759981155395507812e-01 1.419409215450286865e-01 -1.799415946006774902e-01
7.393000000000000000e+03 5.323679733276367188e+01 2.011430740356445312e+01 -4.194629490375518799e-01 5.154478549957275391e-01 2.879546955227851868e-02 -3.158876001834869385e-01
7.394000000000000000e+03 4.453674697875976562e+01 1.177177429199218750e+01 -4.610939323902130127e-01 -2.627027928829193115e-01 -2.171390205621719360e-01 -4.733128845691680908e-01
7.395000000000000000e+03 4.774497985839843750e+01 1.403456306457519531e+01 -3.753696978092193604e-01 2.824261412024497986e-02 -1.041381284594535828e-01 -3.914426267147064209e-01
7.396000000000000000e+03 5.394552612304687500e+01 1.992648315429687500e+01 -3.563207685947418213e-01 6.747242212295532227e-01 9.552103281021118164e-02 -2.391785532236099243e-01
7.397000000000000000e+03 5.349678802490234375e+01 1.963303947448730469e+01 -3.667581975460052490e-01 6.112495064735412598e-01 7.334739714860916138e-02 -2.582195699214935303e-01
7.398000000000000000e+03 4.332221221923828125e+01 7.282992362976074219e+00 -2.825575768947601318e-01 -1.436896026134490967e-01 -1.278741508722305298e-01 -2.416905611753463745e-01
7.399000000000000000e+03 4.341398620605468750e+01 8.024772644042968750e+00 -3.055729866027832031e-01 -1.691228747367858887e-01 -1.424087584018707275e-01 -2.863579690456390381e-01
7.400000000000000000e+03 4.565547943115234375e+01 1.171255779266357422e+01 -3.778632283210754395e-01 -1.119002699851989746e-01 -1.469290554523468018e-01 -3.925776183605194092e-01
7.401000000000000000e+03 4.690967941284179688e+01 1.250227737426757812e+01 -3.395685553550720215e-01 2.173632197082042694e-02 -9.534967690706253052e-02 -3.510332405567169189e-01
7.402000000000000000e+03 4.897038269042968750e+01 1.344888687133789062e+01 -2.641146183013916016e-01 2.728703916072845459e-01 2.626738511025905609e-03 -2.581223249435424805e-01
7.403000000000000000e+03 5.255529785156250000e+01 1.907552528381347656e+01 -3.898608982563018799e-01 4.725960195064544678e-01 2.482054010033607483e-02 -3.025317490100860596e-01
7.404000000000000000e+03 5.437331390380859375e+01 2.023881912231445312e+01 -3.543602526187896729e-01 7.254028320312500000e-01 1.113127693533897400e-01 -2.242517173290252686e-01
7.405000000000000000e+03 6.012466049194335938e+01 1.776297187805175781e+01 6.370113044977188110e-02 2.417557477951049805e+00 7.443775534629821777e-01 5.000134110450744629e-01
7.406000000000000000e+03 4.137103652954101562e+01 5.714029788970947266e+00 -2.999465465545654297e-01 -2.777922153472900391e-01 -1.733216345310211182e-01 -2.361253947019577026e-01
7.407000000000000000e+03 4.226761245727539062e+01 2.949155092239379883e+00 -2.918363176286220551e-02 -8.152777701616287231e-02 -3.321342170238494873e-02 -3.275643661618232727e-02
7.408000000000000000e+03 4.583314514160156250e+01 3.366460084915161133e+00 8.554961532354354858e-02 3.651906549930572510e-01 1.352220773696899414e-01 6.335560977458953857e-02
7.409000000000000000e+03 4.300547409057617188e+01 7.738100528717041016e+00 -3.265386521816253662e-01 -2.079690694808959961e-01 -1.603523194789886475e-01 -2.912009060382843018e-01
7.410000000000000000e+03 4.344203567504882812e+01 1.365684509277343750e+00 1.217818260192871094e-01 9.285927563905715942e-02 6.439232826232910156e-02 5.906094983220100403e-02
7.411000000000000000e+03 4.611990737915039062e+01 2.234017610549926758e+00 1.558658480644226074e-01 4.483889341354370117e-01 1.812764406204223633e-01 1.109462678432464600e-01
7.412000000000000000e+03 5.882120513916015625e+01 1.400648212432861328e+01 1.131001338362693787e-01 2.357289791107177734e+00 7.411169409751892090e-01 4.668083488941192627e-01
7.413000000000000000e+03 5.303175735473632812e+01 1.934976387023925781e+01 -3.766196072101593018e-01 5.426173210144042969e-01 4.979930818080902100e-02 -2.800056636333465576e-01
7.414000000000000000e+03 5.738053131103515625e+01 7.289789676666259766e+00 2.205215692520141602e-01 2.408454179763793945e+00 7.886927127838134766e-01 4.770673513412475586e-01
7.415000000000000000e+03 5.777884292602539062e+01 6.668311595916748047e+00 2.373006343841552734e-01 2.545102357864379883e+00 8.347209095954895020e-01 5.081218481063842773e-01
7.416000000000000000e+03 5.833432769775390625e+01 1.504355335235595703e+01 7.933387160301208496e-02 2.166536808013916016e+00 6.737611889839172363e-01 4.140736758708953857e-01
7.417000000000000000e+03 5.903749084472656250e+01 1.473713111877441406e+01 9.724539518356323242e-02 2.359473228454589844e+00 7.370155453681945801e-01 4.634234607219696045e-01
7.418000000000000000e+03 5.812311935424804688e+01 1.134890174865722656e+01 1.605082601308822632e-01 2.367444276809692383e+00 7.583857774734497070e-01 4.700916111469268799e-01
7.419000000000000000e+03 5.749583435058593750e+01 1.201314735412597656e+01 1.312574893236160278e-01 2.159951925277709961e+00 6.873628497123718262e-01 4.144258797168731689e-01
7.420000000000000000e+03 5.784619140625000000e+01 2.024686622619628906e+01 -1.133833602070808411e-01 1.502462029457092285e+00 4.167235791683197021e-01 1.373381316661834717e-01
7.421000000000000000e+03 5.820423889160156250e+01 1.931536102294921875e+01 -5.396950989961624146e-02 1.697209835052490234e+00 4.929721057415008545e-01 2.323512732982635498e-01
7.422000000000000000e+03 4.384734725952148438e+01 1.067795658111572266e+01 -4.481388330459594727e-01 -2.827946543693542480e-01 -2.192800492048263550e-01 -4.493677020072937012e-01
7.423000000000000000e+03 5.479441452026367188e+01 2.059238052368164062e+01 -3.495356142520904541e-01 7.818641662597656250e-01 1.296985596418380737e-01 -2.121433913707733154e-01
7.424000000000000000e+03 5.504441452026367188e+01 2.012424278259277344e+01 -2.898234128952026367e-01 8.892811536788940430e-01 1.798373311758041382e-01 -1.492420583963394165e-01
7.425000000000000000e+03 4.757213973999023438e+01 1.569709897041320801e+00 2.182767242193222046e-01 6.876360774040222168e-01 2.717738449573516846e-01 1.714886277914047241e-01
7.426000000000000000e+03 5.574839019775390625e+01 1.996874427795410156e+01 -2.409327626228332520e-01 1.057195186614990234e+00 2.448787391185760498e-01 -7.393776625394821167e-02
7.427000000000000000e+03 5.876509857177734375e+01 1.667230796813964844e+01 5.172121897339820862e-02 2.132377624511718750e+00 6.552296876907348633e-01 4.033647179603576660e-01
7.428000000000000000e+03 5.673344421386718750e+01 1.136442279815673828e+01 1.324238777160644531e-01 2.027200937271118164e+00 6.478874683380126953e-01 3.808422684669494629e-01
7.429000000000000000e+03 4.497163009643554688e+01 1.975256919860839844e+00 1.366786211729049683e-01 2.811480462551116943e-01 1.253480017185211182e-01 8.144312351942062378e-02
7.430000000000000000e+03 5.660616683959960938e+01 1.003676700592041016e+01 1.578541696071624756e-01 2.062462806701660156e+00 6.660950779914855957e-01 3.988387584686279297e-01
7.431000000000000000e+03 3.999750900268554688e+01 3.928217411041259766e+00 -2.556215226650238037e-01 -3.392364382743835449e-01 -1.784573942422866821e-01 -1.603281050920486450e-01
7.432000000000000000e+03 4.413793945312500000e+01 8.844759941101074219e+00 -3.159714937210083008e-01 -1.219063103199005127e-01 -1.313633471727371216e-01 -3.006637394428253174e-01
7.433000000000000000e+03 4.428038024902343750e+01 9.632780075073242188e+00 -3.525266349315643311e-01 -1.557180285453796387e-01 -1.524734050035476685e-01 -3.458651900291442871e-01
7.434000000000000000e+03 4.908039093017578125e+01 4.581096768379211426e-01 2.899663746356964111e-01 9.734387397766113281e-01 3.790215253829956055e-01 2.347884625196456909e-01
7.435000000000000000e+03 5.541661453247070312e+01 3.508280277252197266e+00 2.677570283412933350e-01 2.114412307739257812e+00 7.146508097648620605e-01 4.291496872901916504e-01
7.436000000000000000e+03 5.488573837280273438e+01 4.141863822937011719e+00 2.548425495624542236e-01 1.986754894256591797e+00 6.724792122840881348e-01 4.063677489757537842e-01
7.437000000000000000e+03 5.150559616088867188e+01 3.711176633834838867e+00 2.170604765415191650e-01 1.293533921241760254e+00 4.531783163547515869e-01 2.712594270706176758e-01
7.438000000000000000e+03 5.903497695922851562e+01 1.976984214782714844e+01 -2.888972498476505280e-02 1.874493241310119629e+00 5.536810755729675293e-01 3.068565726280212402e-01
7.439000000000000000e+03 4.086974334716796875e+01 2.361567497253417969e+00 -5.912357568740844727e-02 -2.100542485713958740e-01 -8.075334876775741577e-02 -3.993690386414527893e-02
7.440000000000000000e+03 3.940539932250976562e+01 2.907845973968505859e+00 -1.918562799692153931e-01 -3.549372851848602295e-01 -1.640380769968032837e-01 -1.099875718355178833e-01
7.441000000000000000e+03 5.201410675048828125e+01 -2.561694383621215820e+00 3.600950241088867188e-01 1.615123748779296875e+00 5.925656557083129883e-01 3.113709986209869385e-01
7.442000000000000000e+03 5.193198776245117188e+01 -1.826874256134033203e+00 3.508399128913879395e-01 1.574839830398559570e+00 5.777038931846618652e-01 3.201021552085876465e-01
7.443000000000000000e+03 5.622976684570312500e+01 5.777884960174560547e+00 2.394698262214660645e-01 2.194803476333618164e+00 7.302819490432739258e-01 4.456807076930999756e-01
7.444000000000000000e+03 5.377298736572265625e+01 -3.517892360687255859e+00 3.543882966041564941e-01 1.981642842292785645e+00 7.008093595504760742e-01 3.615580499172210693e-01
7.445000000000000000e+03 5.705760955810546875e+01 6.153729915618896484e+00 2.367956340312957764e-01 2.367309570312500000e+00 7.812315821647644043e-01 4.706878364086151123e-01
7.446000000000000000e+03 5.540763473510742188e+01 4.861302852630615234e+00 2.437204122543334961e-01 2.056526899337768555e+00 6.900741457939147949e-01 4.166936576366424561e-01
7.447000000000000000e+03 5.512242889404296875e+01 6.194078922271728516e-01 3.168350160121917725e-01 2.165936946868896484e+00 7.448315620422363281e-01 4.260024726390838623e-01
7.448000000000000000e+03 4.258282089233398438e+01 3.560093402862548828e+00 -6.711512058973312378e-02 -6.345453858375549316e-02 -3.917089849710464478e-02 -5.030968785285949707e-02
7.449000000000000000e+03 4.173274993896484375e+01 4.822853088378906250e+00 -2.086087465286254883e-01 -2.051156759262084961e-01 -1.241173297166824341e-01 -1.586026251316070557e-01
7.450000000000000000e+03 4.836326599121093750e+01 1.396467328071594238e+00 2.436732798814773560e-01 8.109699487686157227e-01 3.163929581642150879e-01 1.965790688991546631e-01
7.451000000000000000e+03 5.095834350585937500e+01 -1.141603589057922363e+00 3.447778224945068359e-01 1.359251976013183594e+00 5.112089514732360840e-01 2.978680133819580078e-01
7.452000000000000000e+03 5.262083435058593750e+01 -8.098073959350585938e+00 3.670633435249328613e-01 1.830646991729736328e+00 6.593131422996520996e-01 2.840864062309265137e-01
7.453000000000000000e+03 5.428738021850585938e+01 1.817426490783691406e+01 -2.219374626874923706e-01 8.983954191207885742e-01 2.029373794794082642e-01 -8.930472284555435181e-02
7.454000000000000000e+03 5.230072021484375000e+01 1.829873466491699219e+01 -3.536539375782012939e-01 4.889928698539733887e-01 4.060167446732521057e-02 -2.741718292236328125e-01
7.455000000000000000e+03 5.001964950561523438e+01 1.563136482238769531e+01 -3.213610649108886719e-01 2.909675240516662598e-01 -9.118054993450641632e-03 -2.967684864997863770e-01
7.456000000000000000e+03 5.905627441406250000e+01 1.740063285827636719e+01 4.591540619730949402e-02 2.144914627075195312e+00 6.572489738464355469e-01 4.055311679840087891e-01
7.457000000000000000e+03 5.731101608276367188e+01 2.048074531555175781e+01 -1.627897173166275024e-01 1.348158240318298340e+00 3.556105494499206543e-01 5.975282564759254456e-02
7.458000000000000000e+03 5.041399383544921875e+01 1.635530471801757812e+01 -3.427652716636657715e-01 2.956510186195373535e-01 -1.413428131490945816e-02 -3.119883835315704346e-01
7.459000000000000000e+03 4.832805252075195312e+01 1.415280914306640625e+01 -3.349431455135345459e-01 1.191713064908981323e-01 -6.473155319690704346e-02 -3.466132283210754395e-01
7.460000000000000000e+03 4.991913986206054688e+01 1.375009918212890625e+01 -2.255729585886001587e-01 4.196753501892089844e-01 5.823071673512458801e-02 -2.015919089317321777e-01
7.461000000000000000e+03 5.163612747192382812e+01 1.671428298950195312e+01 -2.987982332706451416e-01 4.952659904956817627e-01 5.894032865762710571e-02 -2.349055260419845581e-01
7.462000000000000000e+03 4.423035430908203125e+01 1.137592411041259766e+01 -4.587490260601043701e-01 -2.691257894039154053e-01 -2.183624505996704102e-01 -4.652755558490753174e-01
7.463000000000000000e+03 5.686169433593750000e+01 1.263703918457031250e+01 1.035900786519050598e-01 1.974545001983642578e+00 6.234405040740966797e-01 3.585483729839324951e-01
7.464000000000000000e+03 4.788208389282226562e+01 1.354786968231201172e+01 -3.382173478603363037e-01 8.595833927392959595e-02 -7.567770034074783325e-02 -3.491845428943634033e-01
7.465000000000000000e+03 5.207033157348632812e+01 1.881468009948730469e+01 -4.031834304332733154e-01 3.983338177204132080e-01 -1.454885350540280342e-03 -3.273604214191436768e-01
7.466000000000000000e+03 5.124794006347656250e+01 1.783362960815429688e+01 -3.892857730388641357e-01 3.273906409740447998e-01 -1.856853999197483063e-02 -3.336174786090850830e-01
7.467000000000000000e+03 5.664006042480468750e+01 2.012386894226074219e+01 -1.860227882862091064e-01 1.228108286857604980e+00 3.126256763935089111e-01 7.305779494345188141e-03
7.468000000000000000e+03 4.376918411254882812e+01 7.649015903472900391e+00 -2.690486907958984375e-01 -1.041054651141166687e-01 -1.119462475180625916e-01 -2.430606782436370850e-01
7.469000000000000000e+03 4.422106170654296875e+01 8.019796371459960938e+00 -2.520229220390319824e-01 -5.787272751331329346e-02 -9.296869486570358276e-02 -2.425574362277984619e-01
7.470000000000000000e+03 5.500657653808593750e+01 1.026089859008789062e+01 1.187741532921791077e-01 1.694648504257202148e+00 5.440267920494079590e-01 3.014482259750366211e-01
7.471000000000000000e+03 5.376623153686523438e+01 1.915015792846679688e+01 -3.135940730571746826e-01 7.096869945526123047e-01 1.188278645277023315e-01 -1.999258995056152344e-01
7.472000000000000000e+03 4.371498489379882812e+01 6.856077194213867188e+00 -2.266383767127990723e-01 -7.788787782192230225e-02 -9.135787934064865112e-02 -1.980518847703933716e-01
7.473000000000000000e+03 4.210348510742187500e+01 5.430106163024902344e+00 -2.347170263528823853e-01 -1.914044320583343506e-01 -1.278364360332489014e-01 -1.821734756231307983e-01
7.474000000000000000e+03 4.449012756347656250e+01 4.210999965667724609e+00 -2.223588898777961731e-02 1.466606259346008301e-01 3.732741996645927429e-02 -2.216805890202522278e-02
7.475000000000000000e+03 4.110604095458984375e+01 5.112798690795898438e+00 -2.771413922309875488e-01 -2.747096121311187744e-01 -1.655552983283996582e-01 -2.004955559968948364e-01
7.476000000000000000e+03 4.507043838500976562e+01 1.164086437225341797e+01 -4.197877943515777588e-01 -1.881723105907440186e-01 -1.823880374431610107e-01 -4.262904822826385498e-01
7.477000000000000000e+03 4.861847686767578125e+01 1.284833335876464844e+01 -2.564598619937896729e-01 2.584002315998077393e-01 5.821073427796363831e-04 -2.501125037670135498e-01
7.478000000000000000e+03 4.959660720825195312e+01 1.315110588073730469e+01 -2.179598510265350342e-01 4.032581448554992676e-01 5.558948963880538940e-02 -1.945239752531051636e-01
7.479000000000000000e+03 5.452649688720703125e+01 1.894733238220214844e+01 -2.494525313377380371e-01 8.820109963417053223e-01 1.897675395011901855e-01 -1.171694919466972351e-01
7.480000000000000000e+03 5.825675582885742188e+01 1.268571853637695312e+01 1.342668682336807251e-01 2.316518783569335938e+00 7.352356910705566406e-01 4.512764811515808105e-01
7.481000000000000000e+03 4.651892852783203125e+01 2.973011493682861328e+00 1.372736990451812744e-01 4.803536236286163330e-01 1.852882057428359985e-01 1.005479469895362854e-01
7.482000000000000000e+03 4.516301345825195312e+01 3.793937683105468750e+00 4.170437157154083252e-02 2.514408528804779053e-01 8.794356137514114380e-02 2.192535437643527985e-02
7.483000000000000000e+03 4.474164581298828125e+01 3.110923051834106445e+00 5.999191105365753174e-02 2.144593149423599243e-01 8.233536779880523682e-02 3.637410327792167664e-02
7.484000000000000000e+03 4.626325988769531250e+01 1.177584457397460938e+01 -3.411305248737335205e-01 -2.548732236027717590e-02 -1.099853590130805969e-01 -3.543741106986999512e-01
7.485000000000000000e+03 5.379444122314453125e+01 -3.315185755491256714e-02 3.244343400001525879e-01 1.885568618774414062e+00 6.630008816719055176e-01 3.869230449199676514e-01
7.486000000000000000e+03 5.749711227416992188e+01 8.339517593383789062e+00 2.061549723148345947e-01 2.388103961944580078e+00 7.782776951789855957e-01 4.725315570831298828e-01
7.487000000000000000e+03 5.086676406860351562e+01 1.709684371948242188e+01 -3.636134266853332520e-01 3.162356615066528320e-01 -1.421333476901054382e-02 -3.156671226024627686e-01
7.488000000000000000e+03 5.753801727294921875e+01 1.333871459960937500e+01 1.007040664553642273e-01 2.091954946517944336e+00 6.577976942062377930e-01 3.884986639022827148e-01
7.489000000000000000e+03 5.540752029418945312e+01 1.147070789337158203e+01 9.243595600128173828e-02 1.692102789878845215e+00 5.353615880012512207e-01 2.919696569442749023e-01
7.490000000000000000e+03 4.459096145629882812e+01 8.442089080810546875e+00 -2.559749782085418701e-01 -3.695078566670417786e-02 -8.787772804498672485e-02 -2.469693571329116821e-01
7.491000000000000000e+03 4.493453216552734375e+01 4.931274890899658203e+00 -4.256996512413024902e-02 1.715868711471557617e-01 3.870507329702377319e-02 -3.881963714957237244e-02
7.492000000000000000e+03 5.399137496948242188e+01 9.758610725402832031e-01 3.048990666866302490e-01 1.882323503494262695e+00 6.561667919158935547e-01 3.859139382839202881e-01
7.493000000000000000e+03 5.800793457031250000e+01 1.416811180114746094e+01 9.529152512550354004e-02 2.156951904296875000e+00 6.756730079650878906e-01 4.040102660655975342e-01
7.494000000000000000e+03 4.467008209228515625e+01 1.037107563018798828e+01 -3.679368495941162109e-01 -1.522108912467956543e-01 -1.560443192720413208e-01 -3.683077394962310791e-01
7.495000000000000000e+03 5.481529998779296875e+01 5.271019935607910156e+00 2.270709574222564697e-01 1.901612043380737305e+00 6.386048793792724609e-01 3.850698769092559814e-01
7.496000000000000000e+03 4.081446075439453125e+01 4.580744743347167969e+00 -2.479244768619537354e-01 -2.832545638084411621e-01 -1.593537181615829468e-01 -1.764743179082870483e-01
7.497000000000000000e+03 4.117178344726562500e+01 2.855955123901367188e+00 -8.513410389423370361e-02 -1.972084492444992065e-01 -8.470276743173599243e-02 -6.190595030784606934e-02
7.498000000000000000e+03 4.921628952026367188e+01 1.381549119949340820e+00 2.546438872814178467e-01 9.673231244087219238e-01 3.665901124477386475e-01 2.233926653861999512e-01
7.499000000000000000e+03 5.939004135131835938e+01 1.813223266601562500e+01 3.234047442674636841e-02 2.164001464843750000e+00 6.589025259017944336e-01 4.121651649475097656e-01
7.500000000000000000e+03 5.424092483520507812e+01 4.710874557495117188e+00 2.298304438591003418e-01 1.810410737991333008e+00 6.120723485946655273e-01 3.659010529518127441e-01
7.501000000000000000e+03 5.091522598266601562e+01 -2.631153166294097900e-01 3.220371901988983154e-01 1.321887016296386719e+00 4.931772649288177490e-01 2.912168502807617188e-01
7.502000000000000000e+03 4.304146194458007812e+01 2.697862386703491211e+00 1.435427740216255188e-02 1.259272824972867966e-02 8.084101602435112000e-03 3.734290134161710739e-03
7.503000000000000000e+03 4.196163177490234375e+01 3.910449743270874023e+00 -1.254479885101318359e-01 -1.473285555839538574e-01 -8.183296024799346924e-02 -9.813045710325241089e-02
7.504000000000000000e+03 5.762151718139648438e+01 1.957650375366210938e+01 -9.765773266553878784e-02 1.522287487983703613e+00 4.273889362812042236e-01 1.522076576948165894e-01
7.505000000000000000e+03 4.325334548950195312e+01 4.643068790435791016e+00 -1.142167076468467712e-01 -3.284320235252380371e-02 -4.411797225475311279e-02 -9.004957228899002075e-02
7.506000000000000000e+03 4.788075256347656250e+01 2.362119197845458984e+00 2.016058117151260376e-01 7.130230665206909180e-01 2.743886709213256836e-01 1.635387688875198364e-01
7.507000000000000000e+03 5.417204284667968750e+01 3.440145730972290039e+00 2.642720937728881836e-01 1.856676578521728516e+00 6.362845897674560547e-01 3.754848539829254150e-01
7.508000000000000000e+03 5.104042434692382812e+01 1.650213813781738281e+01 -3.205982446670532227e-01 3.891162872314453125e-01 2.055540867149829865e-02 -2.727833092212677002e-01
7.509000000000000000e+03 4.448444366455078125e+01 1.090377902984619141e+01 -4.095839560031890869e-01 -2.119784802198410034e-01 -1.864687204360961914e-01 -4.188669025897979736e-01
7.510000000000000000e+03 5.403467941284179688e+01 1.866256904602050781e+01 -2.657229900360107422e-01 8.076871633529663086e-01 1.625892668962478638e-01 -1.442477554082870483e-01
7.511000000000000000e+03 5.028754043579101562e+01 1.285328960418701172e+01 -1.690430939197540283e-01 5.541796088218688965e-01 1.155409663915634155e-01 -1.276240497827529907e-01
7.512000000000000000e+03 5.055734252929687500e+01 1.348284912109375000e+01 -1.785100698471069336e-01 5.600504875183105469e-01 1.144621297717094421e-01 -1.386875212192535400e-01
7.513000000000000000e+03 5.769529724121093750e+01 1.786878967285156250e+01 -2.532759495079517365e-02 1.732143402099609375e+00 5.120447278022766113e-01 2.486612051725387573e-01
7.514000000000000000e+03 5.468281936645507812e+01 1.976884269714355469e+01 -2.939352393150329590e-01 8.369174599647521973e-01 1.628946661949157715e-01 -1.596546471118927002e-01
7.515000000000000000e+03 5.328570175170898438e+01 1.885887527465820312e+01 -3.275555968284606934e-01 6.395285129547119141e-01 9.359187632799148560e-02 -2.246990501880645752e-01
7.516000000000000000e+03 5.786094665527343750e+01 1.609920120239257812e+01 3.627552837133407593e-02 1.945369243621826172e+00 5.944933891296386719e-01 3.380873203277587891e-01
7.517000000000000000e+03 5.237488937377929688e+01 1.630923461914062500e+01 -2.257955074310302734e-01 6.664314270019531250e-01 1.321907639503479004e-01 -1.480349749326705933e-01
7.518000000000000000e+03 5.144316101074218750e+01 1.728282356262207031e+01 -3.397637903690338135e-01 4.092507362365722656e-01 2.084608562290668488e-02 -2.844992280006408691e-01
7.519000000000000000e+03 5.062112808227539062e+01 1.565677165985107422e+01 -2.909188568592071533e-01 3.907330930233001709e-01 2.994427457451820374e-02 -2.521319389343261719e-01
7.520000000000000000e+03 5.592571258544921875e+01 1.071832847595214844e+01 1.273705512285232544e-01 1.865948557853698730e+00 5.979957580566406250e-01 3.444564342498779297e-01
7.521000000000000000e+03 5.607423400878906250e+01 9.234326362609863281e+00 1.669738590717315674e-01 1.984549999237060547e+00 6.454571485519409180e-01 3.868579268455505371e-01
7.522000000000000000e+03 4.454703521728515625e+01 7.532909870147705078e+00 -2.130907326936721802e-01 7.386302109807729721e-03 -6.171132624149322510e-02 -1.982505470514297485e-01
7.523000000000000000e+03 4.882658004760742188e+01 1.192279624938964844e+01 -1.978825777769088745e-01 3.648460805416107178e-01 5.008905380964279175e-02 -1.808303296566009521e-01
7.524000000000000000e+03 4.814465713500976562e+01 1.226375102996826172e+01 -2.522353231906890869e-01 2.216252535581588745e-01 -9.183019399642944336e-03 -2.510114312171936035e-01
7.525000000000000000e+03 5.333836364746093750e+01 1.759090042114257812e+01 -2.416207045316696167e-01 7.614108324050903320e-01 1.559370458126068115e-01 -1.414231657981872559e-01
7.526000000000000000e+03 5.305393981933593750e+01 1.807034492492675781e+01 -2.921828627586364746e-01 6.629968285560607910e-01 1.112441942095756531e-01 -1.960424482822418213e-01
7.527000000000000000e+03 4.262236785888671875e+01 5.982665538787841797e+00 -2.367122620344161987e-01 -1.611872911453247070e-01 -1.193698644638061523e-01 -1.996254026889801025e-01
7.528000000000000000e+03 5.811234664916992188e+01 1.687893867492675781e+01 2.543330006301403046e-02 1.945359110832214355e+00 5.912377238273620605e-01 3.342706859111785889e-01
7.529000000000000000e+03 5.615142440795898438e+01 1.201373767852783203e+01 9.795582294464111328e-02 1.837674498558044434e+00 5.806891322135925293e-01 3.233251273632049561e-01
7.530000000000000000e+03 4.484661483764648438e+01 8.854372978210449219e+00 -2.680168151855468750e-01 -2.431405894458293915e-02 -8.769926428794860840e-02 -2.543336451053619385e-01
7.531000000000000000e+03 4.514986801147460938e+01 8.240079879760742188e+00 -2.196500152349472046e-01 5.194566026329994202e-02 -5.031130835413932800e-02 -2.029580622911453247e-01
7.532000000000000000e+03 5.679524612426757812e+01 2.068923377990722656e+01 -2.111825197935104370e-01 1.207864761352539062e+00 2.990046739578247070e-01 -1.243791915476322174e-02
7.533000000000000000e+03 4.922216415405273438e+01 1.253950405120849609e+01 -2.077361494302749634e-01 3.812136352062225342e-01 5.204324424266815186e-02 -1.905109137296676636e-01
7.534000000000000000e+03 4.512071990966796875e+01 1.109689712524414062e+01 -3.793050944805145264e-01 -1.454470008611679077e-01 -1.574256271123886108e-01 -3.889050483703613281e-01
7.535000000000000000e+03 4.824945831298828125e+01 3.079472064971923828e+00 1.771387159824371338e-01 7.552306056022644043e-01 2.797107994556427002e-01 1.586935371160507202e-01
7.536000000000000000e+03 4.000997543334960938e+01 3.456508874893188477e+00 -2.111826241016387939e-01 -3.199288249015808105e-01 -1.593334376811981201e-01 -1.287060528993606567e-01
7.537000000000000000e+03 4.500953674316406250e+01 9.454638481140136719e+00 -2.920114398002624512e-01 -4.351508244872093201e-02 -1.006579548120498657e-01 -2.809334099292755127e-01
7.538000000000000000e+03 5.651767730712890625e+01 8.214603424072265625e+00 1.918501406908035278e-01 2.141359567642211914e+00 6.999629139900207520e-01 4.271807074546813965e-01
7.539000000000000000e+03 4.412626647949218750e+01 3.517978429794311523e+00 1.305627170950174332e-02 1.279091984033584595e-01 4.228964447975158691e-02 -1.748369191773235798e-03
7.540000000000000000e+03 4.598352432250976562e+01 9.028553962707519531e+00 -2.225510627031326294e-01 1.048957183957099915e-01 -3.529660031199455261e-02 -2.054134756326675415e-01
7.541000000000000000e+03 4.292287826538085938e+01 4.125525474548339844e+00 -8.996345102787017822e-02 -5.514416098594665527e-02 -4.353228211402893066e-02 -7.152682542800903320e-02
7.542000000000000000e+03 5.677800750732421875e+01 1.384807109832763672e+01 6.815480440855026245e-02 1.854760527610778809e+00 5.768746137619018555e-01 3.193874061107635498e-01
7.543000000000000000e+03 5.506648254394531250e+01 1.319536209106445312e+01 3.126484155654907227e-02 1.495653986930847168e+00 4.580756723880767822e-01 2.113317102193832397e-01
7.544000000000000000e+03 5.573931121826171875e+01 7.526210784912109375e+00 1.987100988626480103e-01 2.006569385528564453e+00 6.615838408470153809e-01 3.969926238059997559e-01
7.545000000000000000e+03 5.437576293945312500e+01 5.871518135070800781e+00 2.095937132835388184e-01 1.785219073295593262e+00 5.984438657760620117e-01 3.530859351158142090e-01
7.546000000000000000e+03 4.697826385498046875e+01 1.176209163665771484e+01 -2.912512421607971191e-01 8.880819380283355713e-02 -6.073291599750518799e-02 -2.990747988224029541e-01
7.547000000000000000e+03 4.775551223754882812e+01 1.158645439147949219e+01 -2.463325560092926025e-01 2.073359191417694092e-01 -1.169899106025695801e-02 -2.369385957717895508e-01
7.548000000000000000e+03 5.668592071533203125e+01 6.911715030670166016e+00 2.225358486175537109e-01 2.240242958068847656e+00 7.388336658477783203e-01 4.511789083480834961e-01
7.549000000000000000e+03 5.187230682373046875e+01 -1.120869517326354980e-01 3.272482156753540039e-01 1.509224653244018555e+00 5.509418845176696777e-01 3.231925070285797119e-01
7.550000000000000000e+03 5.433915710449218750e+01 2.030796051025390625e+00 2.938598394393920898e-01 1.919100403785705566e+00 6.638880968093872070e-01 3.926868140697479248e-01
7.551000000000000000e+03 4.720703506469726562e+01 2.639257431030273438e+00 1.680538207292556763e-01 6.005691289901733398e-01 2.305868864059448242e-01 1.358641982078552246e-01
7.552000000000000000e+03 4.853017425537109375e+01 2.149535894393920898e+00 2.176458537578582764e-01 8.214212656021118164e-01 3.117201328277587891e-01 1.858991682529449463e-01
7.553000000000000000e+03 5.575948715209960938e+01 1.901469802856445312e+01 -1.727675795555114746e-01 1.166020870208740234e+00 2.979759871959686279e-01 -9.877805598080158234e-03
7.554000000000000000e+03 5.863499069213867188e+01 1.836315155029296875e+01 -2.904930151998996735e-03 1.919101595878601074e+00 5.748590230941772461e-01 3.266366720199584961e-01
7.555000000000000000e+03 5.002103042602539062e+01 1.330669760704040527e+00 2.732067704200744629e-01 1.105268597602844238e+00 4.135425984859466553e-01 2.523680329322814941e-01
7.556000000000000000e+03 4.058658599853515625e+01 3.245958805084228516e+00 -1.600392013788223267e-01 -2.617587745189666748e-01 -1.265393942594528198e-01 -9.904641658067703247e-02
7.557000000000000000e+03 5.356484985351562500e+01 4.089529991149902344e+00 2.428805530071258545e-01 1.700885176658630371e+00 5.831297039985656738e-01 3.425251841545104980e-01
7.558000000000000000e+03 5.583600234985351562e+01 8.379295349121093750e+00 1.799345612525939941e-01 1.975376844406127930e+00 6.465934514999389648e-01 3.880918920040130615e-01
7.559000000000000000e+03 5.509138107299804688e+01 6.346681118011474609e+00 2.138090878725051880e-01 1.929883480072021484e+00 6.431077718734741211e-01 3.803466260433197021e-01
7.560000000000000000e+03 4.158623886108398438e+01 3.367867469787597656e+00 -1.106027588248252869e-01 -1.698739081621170044e-01 -8.414299786090850830e-02 -7.595282047986984253e-02
7.561000000000000000e+03 5.837668609619140625e+01 1.763659667968750000e+01 1.467870268970727921e-02 1.933191537857055664e+00 5.843610763549804688e-01 3.309495747089385986e-01
7.562000000000000000e+03 5.285385513305664062e+01 -9.338220953941345215e-01 3.407324850559234619e-01 1.736725091934204102e+00 6.232372522354125977e-01 3.515190780162811279e-01
7.563000000000000000e+03 5.189902877807617188e+01 -9.993988275527954102e-01 3.391638696193695068e-01 1.542666316032409668e+00 5.645490288734436035e-01 3.241852819919586182e-01
7.564000000000000000e+03 4.558825302124023438e+01 4.464475154876708984e+00 1.375194545835256577e-02 2.887828350067138672e-01 9.076043218374252319e-02 1.302768476307392120e-02
7.565000000000000000e+03 5.382947158813476562e+01 -9.141552448272705078e-01 3.413593471050262451e-01 1.941627264022827148e+00 6.848959922790527344e-01 3.786194026470184326e-01
7.566000000000000000e+03 5.180581665039062500e+01 7.933897376060485840e-01 3.041661679744720459e-01 1.460206985473632812e+00 5.293119549751281738e-01 3.084147274494171143e-01
7.567000000000000000e+03 5.500457000732421875e+01 1.924236488342285156e+01 -2.365330606698989868e-01 9.562796354293823242e-01 2.159239649772644043e-01 -9.360794723033905029e-02
7.568000000000000000e+03 5.081423187255859375e+01 1.404107761383056641e+01 -1.956657022237777710e-01 5.523886084556579590e-01 1.070168688893318176e-01 -1.501773744821548462e-01
7.569000000000000000e+03 5.255334854125976562e+01 1.776539993286132812e+01 -3.060747981071472168e-01 5.813936591148376465e-01 8.259565383195877075e-02 -2.197922617197036743e-01
7.570000000000000000e+03 5.354364395141601562e+01 1.837389373779296875e+01 -2.795054018497467041e-01 7.347745299339294434e-01 1.365807354450225830e-01 -1.684722453355789185e-01
7.571000000000000000e+03 5.654319000244140625e+01 1.660182189941406250e+01 -2.824444137513637543e-02 1.561448216438293457e+00 4.599611461162567139e-01 1.940823346376419067e-01
7.572000000000000000e+03 4.590275192260742188e+01 1.078919410705566406e+01 -3.085371553897857666e-01 -1.339712925255298615e-02 -9.658028185367584229e-02 -3.114301562309265137e-01
7.573000000000000000e+03 4.483935546875000000e+01 9.887625694274902344e+00 -3.285391032695770264e-01 -9.812617301940917969e-02 -1.279995888471603394e-01 -3.256613612174987793e-01
7.574000000000000000e+03 5.178633117675781250e+01 1.805050468444824219e+01 -3.704400956630706787e-01 4.088338911533355713e-01 1.151813380420207977e-02 -3.022192120552062988e-01
7.575000000000000000e+03 4.137269210815429688e+01 4.265490055084228516e+00 -1.946465522050857544e-01 -2.192906439304351807e-01 -1.241811588406562805e-01 -1.355905830860137939e-01
7.576000000000000000e+03 4.948403167724609375e+01 1.161273288726806641e+01 -1.467714756727218628e-01 4.956424236297607422e-01 1.046612858772277832e-01 -1.204766258597373962e-01
7.577000000000000000e+03 5.127440261840820312e+01 1.583904361724853516e+01 -2.660678923130035400e-01 4.926564395427703857e-01 6.797657161951065063e-02 -2.163982093334197998e-01
7.578000000000000000e+03 4.352907562255859375e+01 3.833700895309448242e+00 -3.804396465420722961e-02 3.612934425473213196e-02 -5.743860965594649315e-04 -3.696596622467041016e-02
7.579000000000000000e+03 5.279754257202148438e+01 1.857250595092773438e+01 -3.398479223251342773e-01 5.630863904953002930e-01 6.697154045104980469e-02 -2.495003789663314819e-01
7.580000000000000000e+03 4.487148666381835938e+01 6.106911182403564453e+00 -1.091947481036186218e-01 1.219681724905967712e-01 3.832026384770870209e-03 -9.740170836448669434e-02
7.581000000000000000e+03 5.710588073730468750e+01 1.985770797729492188e+01 -1.404172033071517944e-01 1.375041007995605469e+00 3.703871369361877441e-01 7.821146398782730103e-02
7.582000000000000000e+03 5.009809875488281250e+01 1.130937767028808594e+01 -1.017115563154220581e-01 6.328006982803344727e-01 1.593267470598220825e-01 -6.361914426088333130e-02
7.583000000000000000e+03 5.310710525512695312e+01 1.206882667541503906e+01 -4.987002466805279255e-04 1.159731507301330566e+00 3.477698564529418945e-01 1.162053570151329041e-01
7.584000000000000000e+03 4.532223129272460938e+01 1.055074691772460938e+01 -3.327262699604034424e-01 -7.267332822084426880e-02 -1.216198801994323730e-01 -3.349652290344238281e-01
7.585000000000000000e+03 4.569860076904296875e+01 1.122421741485595703e+01 -3.525159060955047607e-01 -7.829685509204864502e-02 -1.292438209056854248e-01 -3.592819273471832275e-01
7.586000000000000000e+03 5.534743499755859375e+01 1.869474983215332031e+01 -1.873347312211990356e-01 1.095280528068542480e+00 2.723837196826934814e-01 -2.592428214848041534e-02
7.587000000000000000e+03 4.410928344726562500e+01 7.260597229003906250e+00 -2.305917143821716309e-01 -4.835164174437522888e-02 -8.368300646543502808e-02 -2.042603045701980591e-01
7.588000000000000000e+03 4.373827362060546875e+01 5.964291095733642578e+00 -1.684748977422714233e-01 -3.004086948931217194e-02 -5.955472961068153381e-02 -1.447760164737701416e-01
7.589000000000000000e+03 4.453743362426757812e+01 6.998873233795166016e+00 -1.799560189247131348e-01 3.038379177451133728e-02 -4.487166926264762878e-02 -1.629886180162429810e-01
7.590000000000000000e+03 4.517448043823242188e+01 7.610130786895751953e+00 -1.777069568634033203e-01 8.527368307113647461e-02 -2.772998437285423279e-02 -1.711949259042739868e-01
7.591000000000000000e+03 5.718175888061523438e+01 1.635023880004882812e+01 5.540609825402498245e-03 1.747405171394348145e+00 5.258837342262268066e-01 2.641483545303344727e-01
7.592000000000000000e+03 4.322098159790039062e+01 6.431033134460449219e+00 -2.330393195152282715e-01 -1.119295731186866760e-01 -1.034906730055809021e-01 -1.965045183897018433e-01
7.593000000000000000e+03 4.272071456909179688e+01 5.017628192901611328e+00 -1.562605202198028564e-01 -1.035903021693229675e-01 -7.795524597167968750e-02 -1.266523450613021851e-01
7.594000000000000000e+03 5.589428710937500000e+01 6.662690162658691406e+00 2.142535746097564697e-01 2.077323675155639648e+00 6.874731779098510742e-01 4.184465110301971436e-01
7.595000000000000000e+03 5.622354507446289062e+01 1.320503044128417969e+01 7.099317759275436401e-02 1.772395133972167969e+00 5.530164837837219238e-01 2.936417758464813232e-01
7.596000000000000000e+03 5.559253311157226562e+01 1.263119316101074219e+01 6.719060242176055908e-02 1.659125804901123047e+00 5.178949236869812012e-01 2.707409560680389404e-01
7.597000000000000000e+03 5.370422744750976562e+01 5.342900276184082031e+00 2.076642960309982300e-01 1.675407290458679199e+00 5.649214982986450195e-01 3.341650068759918213e-01
7.598000000000000000e+03 5.322085189819335938e+01 5.995289325714111328e+00 1.895414292812347412e-01 1.535489559173583984e+00 5.175092816352844238e-01 3.036154210567474365e-01
7.599000000000000000e+03 5.640452957153320312e+01 1.963746643066406250e+01 -1.743222028017044067e-01 1.205946922302246094e+00 3.094874322414398193e-01 1.657550036907196045e-02
7.600000000000000000e+03 5.722362899780273438e+01 1.455932426452636719e+01 6.274210661649703979e-02 1.907677054405212402e+00 5.911257266998291016e-01 3.286333680152893066e-01
7.601000000000000000e+03 5.491565704345703125e+01 1.214726161956787109e+01 5.928714945912361145e-02 1.536417484283447266e+00 4.787113964557647705e-01 2.394824326038360596e-01
7.602000000000000000e+03 4.622953414916992188e+01 4.029633045196533203e+00 6.947682052850723267e-02 3.984987735748291016e-01 1.403926759958267212e-01 5.175326019525527954e-02
7.603000000000000000e+03 4.551568984985351562e+01 5.626447677612304688e+00 -5.505581572651863098e-02 2.280778884887695312e-01 5.190662294626235962e-02 -4.436846822500228882e-02
7.604000000000000000e+03 4.591613388061523438e+01 7.710943222045898438e+00 -1.484709531068801880e-01 1.782860606908798218e-01 8.944533765316009521e-03 -1.324467211961746216e-01
7.605000000000000000e+03 5.120578765869140625e+01 2.460448265075683594e+00 2.544869184494018555e-01 1.291229963302612305e+00 4.637150466442108154e-01 2.759770154953002930e-01
7.606000000000000000e+03 5.086565780639648438e+01 5.908187627792358398e-01 3.000072836875915527e-01 1.294036507606506348e+00 4.782131314277648926e-01 2.863248288631439209e-01
7.607000000000000000e+03 4.382249069213867188e+01 4.439436435699462891e+00 -6.031497195363044739e-02 5.184382945299148560e-02 -2.541342750191688538e-03 -5.398153513669967651e-02
7.608000000000000000e+03 5.042707443237304688e+01 1.995937943458557129e+00 2.512195706367492676e-01 1.161276340484619141e+00 4.237487614154815674e-01 2.550621628761291504e-01
7.609000000000000000e+03 5.629094696044921875e+01 1.822023963928222656e+01 -1.103217005729675293e-01 1.349850416183471680e+00 3.718585968017578125e-01 8.812679350376129150e-02
7.610000000000000000e+03 5.795220947265625000e+01 1.860551452636718750e+01 -3.653876483440399170e-02 1.718059062957763672e+00 5.044561028480529785e-01 2.436623722314834595e-01
7.611000000000000000e+03 5.501613998413085938e+01 1.791337394714355469e+01 -1.736685484647750854e-01 1.080792665481567383e+00 2.721372246742248535e-01 -1.994569227099418640e-02
7.612000000000000000e+03 5.460855484008789062e+01 6.983278274536132812e+00 1.941583603620529175e-01 1.794118523597717285e+00 5.964830517768859863e-01 3.497417569160461426e-01
7.613000000000000000e+03 4.689266586303710938e+01 3.660133123397827148e+00 1.075929403305053711e-01 5.126655101776123047e-01 1.860775500535964966e-01 9.051063656806945801e-02
7.614000000000000000e+03 5.284868621826171875e+01 -9.800754487514495850e-03 3.277462422847747803e-01 1.714004039764404297e+00 6.125251054763793945e-01 3.479675054550170898e-01
7.615000000000000000e+03 5.285235977172851562e+01 1.018867015838623047e+00 3.002337813377380371e-01 1.667409181594848633e+00 5.902928709983825684e-01 3.531581461429595947e-01
7.616000000000000000e+03 5.462409973144531250e+01 1.104955768585205078e+01 8.459631353616714478e-02 1.552354931831359863e+00 4.910853803157806396e-01 2.538307905197143555e-01
7.617000000000000000e+03 5.497068786621093750e+01 7.615568637847900391e+00 1.788464337587356567e-01 1.844246029853820801e+00 6.069277524948120117e-01 3.572162389755249023e-01
7.618000000000000000e+03 5.346622848510742188e+01 2.655767917633056641e+00 2.709109187126159668e-01 1.727585792541503906e+00 5.995489954948425293e-01 3.579092919826507568e-01
7.619000000000000000e+03 5.227871704101562500e+01 4.230047225952148438e+00 2.189716994762420654e-01 1.424879550933837891e+00 4.931553602218627930e-01 2.923364043235778809e-01
7.620000000000000000e+03 5.378701782226562500e+01 1.241837596893310547e+01 1.109807193279266357e-02 1.278607964515686035e+00 3.869118094444274902e-01 1.480781137943267822e-01
7.621000000000000000e+03 4.986207580566406250e+01 1.222657108306884766e+01 -1.573355048894882202e-01 5.277196168899536133e-01 1.111152395606040955e-01 -1.242927014827728271e-01
7.622000000000000000e+03 5.479856491088867188e+01 1.843090057373046875e+01 -2.044158428907394409e-01 9.878561496734619141e-01 2.350320965051651001e-01 -6.244993954896926880e-02
7.623000000000000000e+03 5.380187988281250000e+01 1.790778350830078125e+01 -2.372851967811584473e-01 8.292351365089416504e-01 1.775849759578704834e-01 -1.182858720421791077e-01
7.624000000000000000e+03 5.651630020141601562e+01 1.494605636596679688e+01 2.501094341278076172e-02 1.702999353408813477e+00 5.184031128883361816e-01 2.606055438518524170e-01
7.625000000000000000e+03 5.155873870849609375e+01 1.294431304931640625e+01 -1.056081429123878479e-01 7.761414051055908203e-01 2.011599689722061157e-01 -3.897414356470108032e-02
7.626000000000000000e+03 5.564428710937500000e+01 1.755329895019531250e+01 -1.081966608762741089e-01 1.265308141708374023e+00 3.471334278583526611e-01 6.834658235311508179e-02
7.627000000000000000e+03 5.201544952392578125e+01 1.750077819824218750e+01 -3.213296234607696533e-01 5.041175484657287598e-01 5.483637750148773193e-02 -2.485213875770568848e-01
7.628000000000000000e+03 4.520906448364257812e+01 8.716554641723632812e+00 -2.377421855926513672e-01 2.511668577790260315e-02 -6.378765404224395752e-02 -2.269996553659439087e-01
7.629000000000000000e+03 4.638730621337890625e+01 1.039389896392822266e+01 -2.614628672599792480e-01 8.948654681444168091e-02 -5.159289389848709106e-02 -2.608843147754669189e-01
7.630000000000000000e+03 4.371434402465820312e+01 5.019101142883300781e+00 -1.040971055626869202e-01 1.892099343240261078e-02 -2.555283345282077789e-02 -9.144125878810882568e-02
7.631000000000000000e+03 5.202480316162109375e+01 1.233460426330566406e+01 -6.014614179730415344e-02 9.211334586143493652e-01 2.582961916923522949e-01 2.094383910298347473e-02
7.632000000000000000e+03 4.679126358032226562e+01 1.102091789245605469e+01 -2.667343616485595703e-01 1.152759864926338196e-01 -4.543751478195190430e-02 -2.672525942325592041e-01
7.633000000000000000e+03 4.751446914672851562e+01 1.083123588562011719e+01 -2.188495695590972900e-01 2.272937297821044922e-01 2.533246530219912529e-03 -2.120572626590728760e-01
7.634000000000000000e+03 4.319913482666015625e+01 5.505750656127929688e+00 -1.620735675096511841e-01 -6.654673814773559570e-02 -6.858609616756439209e-02 -1.380806863307952881e-01
7.635000000000000000e+03 4.422121810913085938e+01 6.468025207519531250e+00 -1.764945983886718750e-01 9.591303765773773193e-03 -5.007098987698554993e-02 -1.503465473651885986e-01
7.636000000000000000e+03 5.257317352294921875e+01 2.036911725997924805e+00 2.780739068984985352e-01 1.576487541198730469e+00 5.563684105873107910e-01 3.337448835372924805e-01
7.637000000000000000e+03 4.232949829101562500e+01 4.470810413360595703e+00 -1.555091589689254761e-01 -1.263650506734848022e-01 -8.456226438283920288e-02 -1.108321249485015869e-01
7.638000000000000000e+03 5.606995010375976562e+01 1.989164352416992188e+01 -2.093626260757446289e-01 1.130017280578613281e+00 2.761963903903961182e-01 -2.206160873174667358e-02
7.639000000000000000e+03 5.744789123535156250e+01 1.710642433166503906e+01 -7.935495115816593170e-03 1.738340139389038086e+00 5.191214084625244141e-01 2.603622674942016602e-01
7.640000000000000000e+03 4.868249893188476562e+01 3.818242311477661133e+00 1.586894243955612183e-01 7.923988103866577148e-01 2.853264808654785156e-01 1.584761291742324829e-01
7.641000000000000000e+03 5.275875473022460938e+01 6.636511802673339844e+00 1.640520989894866943e-01 1.408242821693420410e+00 4.716884791851043701e-01 2.663387656211853027e-01
7.642000000000000000e+03 5.518226623535156250e+01 1.742419242858886719e+01 -1.308201551437377930e-01 1.163801074028015137e+00 3.098942637443542480e-01 3.026614710688591003e-02
7.643000000000000000e+03 4.620457839965820312e+01 1.122061920166015625e+01 -3.103487193584442139e-01 6.029038224369287491e-03 -9.129589796066284180e-02 -3.229023516178131104e-01
7.644000000000000000e+03 5.513311767578125000e+01 9.365720748901367188e+00 1.401785314083099365e-01 1.777551889419555664e+00 5.753191113471984863e-01 3.286510705947875977e-01
7.645000000000000000e+03 5.757671737670898438e+01 1.532029724121093750e+01 4.977871477603912354e-02 1.944005131721496582e+00 5.981351137161254883e-01 3.347303569316864014e-01
7.646000000000000000e+03 5.561543655395507812e+01 1.372157001495361328e+01 3.727860748767852783e-02 1.585502624511718750e+00 4.868343472480773926e-01 2.346953153610229492e-01
7.647000000000000000e+03 4.518891525268554688e+01 6.860698223114013672e+00 -1.395423114299774170e-01 1.272682100534439087e-01 -3.682229667901992798e-03 -1.247400566935539246e-01
7.648000000000000000e+03 4.602054977416992188e+01 6.929545879364013672e+00 -9.701329469680786133e-02 2.365492880344390869e-01 4.186079651117324829e-02 -8.533917367458343506e-02
7.649000000000000000e+03 5.609747314453125000e+01 1.430951118469238281e+01 3.138252347707748413e-02 1.653339862823486328e+00 5.054166913032531738e-01 2.491241693496704102e-01
7.650000000000000000e+03 5.445004272460937500e+01 1.277141571044921875e+01 2.050478197634220123e-02 1.385498762130737305e+00 4.218010604381561279e-01 1.839055418968200684e-01
7.651000000000000000e+03 5.415251159667968750e+01 8.414993286132812500e+00 1.493938863277435303e-01 1.606588363647460938e+00 5.267946720123291016e-01 2.964656949043273926e-01
7.652000000000000000e+03 5.391618728637695312e+01 6.509274959564208984e+00 1.954829096794128418e-01 1.674912452697753906e+00 5.611186027526855469e-01 3.247446417808532715e-01
7.653000000000000000e+03 5.582715988159179688e+01 1.962966346740722656e+01 -2.035339772701263428e-01 1.121365308761596680e+00 2.753493785858154297e-01 -3.666702657938003540e-02
7.654000000000000000e+03 4.661662292480468750e+01 4.619790554046630859e+00 4.717766121029853821e-02 4.293453693389892578e-01 1.429569125175476074e-01 4.591104388236999512e-02
7.655000000000000000e+03 4.757550811767578125e+01 3.359600782394409180e+00 1.532105505466461182e-01 6.316472291946411133e-01 2.354573309421539307e-01 1.264237612485885620e-01
7.656000000000000000e+03 4.722227478027343750e+01 4.281427383422851562e+00 9.185503423213958740e-02 5.390538573265075684e-01 1.892726719379425049e-01 8.277402073144912720e-02
7.657000000000000000e+03 5.056086730957031250e+01 1.496180915832519531e+01 -2.517747282981872559e-01 4.349218606948852539e-01 5.494414642453193665e-02 -2.166019231081008911e-01
7.658000000000000000e+03 5.076609039306640625e+01 1.371544241905212402e+00 2.827275693416595459e-01 1.252835154533386230e+00 4.606688320636749268e-01 2.726719677448272705e-01
7.659000000000000000e+03 4.559904479980468750e+01 9.181024551391601562e+00 -2.472185045480728149e-01 4.397916793823242188e-02 -6.097180023789405823e-02 -2.381400763988494873e-01
7.660000000000000000e+03 5.206387329101562500e+01 6.131023883819580078e+00 1.597696840763092041e-01 1.299485921859741211e+00 4.377766847610473633e-01 2.422993630170822144e-01
7.661000000000000000e+03 4.686957550048828125e+01 9.918671607971191406e+00 -2.072847634553909302e-01 1.924018114805221558e-01 -4.464887082576751709e-03 -2.016502618789672852e-01
7.662000000000000000e+03 5.503389358520507812e+01 8.458426475524902344e+00 1.704881340265274048e-01 1.823173403739929199e+00 5.980984568595886230e-01 3.448203504085540771e-01
7.663000000000000000e+03 5.701391601562500000e+01 1.810770034790039062e+01 -6.426271051168441772e-02 1.525876760482788086e+00 4.384842216968536377e-01 1.686786264181137085e-01
7.664000000000000000e+03 5.421239852905273438e+01 7.603769302368164062e+00 1.640089452266693115e-01 1.659276127815246582e+00 5.469855666160583496e-01 3.161649107933044434e-01
7.665000000000000000e+03 5.251705932617187500e+01 5.467801094055175781e+00 1.877104341983795166e-01 1.419052362442016602e+00 4.820288419723510742e-01 2.808113992214202881e-01
7.666000000000000000e+03 5.126049423217773438e+01 1.460934448242187500e+01 -2.013107985258102417e-01 5.922881960868835449e-01 1.172932162880897522e-01 -1.491446942090988159e-01
7.667000000000000000e+03 5.092833709716796875e+01 1.245212554931640625e+01 -1.153399124741554260e-01 6.905183792114257812e-01 1.725535392761230469e-01 -5.977721884846687317e-02
7.668000000000000000e+03 5.045087051391601562e+01 1.188849544525146484e+01 -1.138911172747612000e-01 6.480959057807922363e-01 1.602614372968673706e-01 -6.708011031150817871e-02
7.669000000000000000e+03 5.182604217529296875e+01 1.616715240478515625e+01 -2.504587173461914062e-01 5.773455500602722168e-01 9.806605428457260132e-02 -1.858822107315063477e-01
7.670000000000000000e+03 4.891685104370117188e+01 1.043520641326904297e+01 -1.297995150089263916e-01 4.733080863952636719e-01 1.030525714159011841e-01 -9.855685383081436157e-02
7.671000000000000000e+03 5.730160140991210938e+01 1.887540626525878906e+01 -8.293838053941726685e-02 1.520387172698974609e+00 4.312346577644348145e-01 1.574498564004898071e-01
7.672000000000000000e+03 5.559502792358398438e+01 1.812344360351562500e+01 -1.459534913301467896e-01 1.194426536560058594e+00 3.145419061183929443e-01 2.864040434360504150e-02
7.673000000000000000e+03 5.404757690429687500e+01 1.746921730041503906e+01 -1.946304291486740112e-01 9.152514338493347168e-01 2.161862999200820923e-01 -7.201017439365386963e-02
7.674000000000000000e+03 5.397070312500000000e+01 1.641876029968261719e+01 -1.454600393772125244e-01 9.947772622108459473e-01 2.547951638698577881e-01 -1.871568895876407623e-02
7.675000000000000000e+03 5.285590362548828125e+01 1.720560455322265625e+01 -2.506247460842132568e-01 6.918189525604248047e-01 1.323582530021667480e-01 -1.576118916273117065e-01
7.676000000000000000e+03 5.181816864013671875e+01 1.400139617919921875e+01 -1.371485292911529541e-01 7.613829374313354492e-01 1.872703135013580322e-01 -6.981550157070159912e-02
7.677000000000000000e+03 5.238209533691406250e+01 1.493957519531250000e+01 -1.649894714355468750e-01 7.898649573326110840e-01 1.874626576900482178e-01 -7.796245068311691284e-02
7.678000000000000000e+03 5.225346755981445312e+01 1.335063362121582031e+01 -8.789192140102386475e-02 8.948068618774414062e-01 2.420744895935058594e-01 -5.106614902615547180e-03
7.679000000000000000e+03 5.119992065429687500e+01 1.355997753143310547e+01 -1.541343629360198975e-01 6.578072309494018555e-01 1.511018723249435425e-01 -9.599868953227996826e-02
7.680000000000000000e+03 4.430818939208984375e+01 5.451500415802001953e+00 -1.002446115016937256e-01 7.500506192445755005e-02 -7.571865804493427277e-03 -8.370315283536911011e-02
7.681000000000000000e+03 4.574486923217773438e+01 8.319857597351074219e+00 -1.872298270463943481e-01 1.179080531001091003e-01 -2.079653181135654449e-02 -1.752236187458038330e-01
7.682000000000000000e+03 4.552017593383789062e+01 9.598197937011718750e+00 -2.719330787658691406e-01 1.893662288784980774e-02 -7.589893788099288940e-02 -2.629036903381347656e-01
7.683000000000000000e+03 4.849092864990234375e+01 1.129774761199951172e+01 -1.850055903196334839e-01 3.520457744598388672e-01 5.011205747723579407e-02 -1.686117947101593018e-01
7.684000000000000000e+03 5.093292999267578125e+01 1.153019332885742188e+01 -7.301925122737884521e-02 7.565357685089111328e-01 2.050549536943435669e-01 -1.296835578978061676e-02
7.685000000000000000e+03 4.681425094604492188e+01 7.052541732788085938e+00 -7.234764099121093750e-02 3.468897938728332520e-01 8.236264437437057495e-02 -5.461751669645309448e-02
7.686000000000000000e+03 5.264616775512695312e+01 9.688078880310058594e+00 5.231237784028053284e-02 1.212924957275390625e+00 3.795711994171142578e-01 1.620738804340362549e-01
7.687000000000000000e+03 4.638561630249023438e+01 9.436979293823242188e+00 -2.158313691616058350e-01 1.425045132637023926e-01 -2.199805527925491333e-02 -2.048810571432113647e-01
7.688000000000000000e+03 5.687543106079101562e+01 1.562759208679199219e+01 1.787182502448558807e-02 1.730736374855041504e+00 5.245824456214904785e-01 2.635195255279541016e-01
7.689000000000000000e+03 5.459653472900390625e+01 1.368471908569335938e+01 2.152736764401197433e-03 1.361893892288208008e+00 4.092139899730682373e-01 1.609118282794952393e-01
7.690000000000000000e+03 5.680346298217773438e+01 1.732412719726562500e+01 -4.871485754847526550e-02 1.555874824523925781e+00 4.521479904651641846e-01 1.828538924455642700e-01
7.691000000000000000e+03 5.409083557128906250e+01 1.003513526916503906e+01 9.641890972852706909e-02 1.497184514999389648e+00 4.780810475349426270e-01 2.461306154727935791e-01
7.692000000000000000e+03 5.421038436889648438e+01 1.175257396697998047e+01 4.843927174806594849e-02 1.413455843925476074e+00 4.385685324668884277e-01 2.032815515995025635e-01
7.693000000000000000e+03 4.727135086059570312e+01 5.905039787292480469e+00 7.104184478521347046e-03 4.770066738128662109e-01 1.452332586050033569e-01 2.260542660951614380e-02
7.694000000000000000e+03 4.606530380249023438e+01 5.076334953308105469e+00 2.649915870279073715e-03 3.339927494525909424e-01 1.009927988052368164e-01 2.448677783831954002e-03
7.695000000000000000e+03 5.502964019775390625e+01 1.418101882934570312e+01 -4.368972964584827423e-03 1.414651870727539062e+00 4.230848550796508789e-01 1.732929199934005737e-01
7.696000000000000000e+03 5.405525970458984375e+01 1.337973022460937500e+01 -1.560648251324892044e-02 1.251134395599365234e+00 3.706583678722381592e-01 1.289344877004623413e-01
7.697000000000000000e+03 5.346265411376953125e+01 7.190881252288818359e+00 1.657738834619522095e-01 1.531311869621276855e+00 5.091257095336914062e-01 2.865436971187591553e-01
7.698000000000000000e+03 5.368074798583984375e+01 1.718568611145019531e+01 -2.028340697288513184e-01 8.595034480094909668e-01 1.970008164644241333e-01 -9.181237965822219849e-02
7.699000000000000000e+03 5.203602218627929688e+01 2.921137094497680664e+00 2.484991848468780518e-01 1.433163285255432129e+00 5.044987201690673828e-01 3.053081333637237549e-01
7.700000000000000000e+03 5.178467941284179688e+01 4.954748630523681641e+00 1.877926290035247803e-01 1.296561837196350098e+00 4.453063309192657471e-01 2.567254602909088135e-01
7.701000000000000000e+03 4.454928588867187500e+01 9.199879646301269531e+00 -3.115755915641784668e-01 -8.927803486585617065e-02 -1.202560886740684509e-01 -2.990974485874176025e-01
7.702000000000000000e+03 5.283228683471679688e+01 3.467497348785400391e+00 2.449379414319992065e-01 1.557581663131713867e+00 5.407558679580688477e-01 3.255072534084320068e-01
7.703000000000000000e+03 5.016502380371093750e+01 3.968871116638183594e+00 1.845923364162445068e-01 1.033865332603454590e+00 3.655372858047485352e-01 2.082242965698242188e-01
7.704000000000000000e+03 5.071054077148437500e+01 3.205139636993408203e+00 2.226483970880508423e-01 1.176461696624755859e+00 4.197330474853515625e-01 2.489431351423263550e-01
7.705000000000000000e+03 5.678392791748046875e+01 1.924926948547363281e+01 -1.339872628450393677e-01 1.360114693641662598e+00 3.678382039070129395e-01 7.841330021619796753e-02
7.706000000000000000e+03 4.809341430664062500e+01 4.726056575775146484e+00 9.848292917013168335e-02 6.486265659332275391e-01 2.241328507661819458e-01 1.049157157540321350e-01
7.707000000000000000e+03 4.993514251708984375e+01 2.639098167419433594e+00 2.327224463224411011e-01 1.053720116615295410e+00 3.859327733516693115e-01 2.298323065042495728e-01
7.708000000000000000e+03 5.100714874267578125e+01 4.462403297424316406e+00 1.866680383682250977e-01 1.173858761787414551e+00 4.081580638885498047e-01 2.374931424856185913e-01
7.709000000000000000e+03 5.340415954589843750e+01 9.204981803894042969e+00 1.045524701476097107e-01 1.409242868423461914e+00 4.541386067867279053e-01 2.306232303380966187e-01
7.710000000000000000e+03 5.331143951416015625e+01 9.865063667297363281e+00 7.461091130971908569e-02 1.349873900413513184e+00 4.273454546928405762e-01 2.048126012086868286e-01
7.711000000000000000e+03 5.419634246826171875e+01 9.264367103576660156e+00 1.215375885367393494e-01 1.559100866317749023e+00 5.041915178298950195e-01 2.737148404121398926e-01
7.712000000000000000e+03 5.159753799438476562e+01 1.665697693824768066e+00 2.764658927917480469e-01 1.395365476608276367e+00 5.015494227409362793e-01 3.008160591125488281e-01
7.713000000000000000e+03 5.174038696289062500e+01 1.523610687255859375e+01 -2.039666026830673218e-01 6.314170956611633301e-01 1.282351464033126831e-01 -1.386252790689468384e-01
7.714000000000000000e+03 5.226708221435546875e+01 1.691235160827636719e+01 -2.673932313919067383e-01 6.097204685211181641e-01 1.026981696486473083e-01 -1.872812211513519287e-01
7.715000000000000000e+03 4.654604721069335938e+01 8.070788383483886719e+00 -1.309570372104644775e-01 2.556692063808441162e-01 3.741365298628807068e-02 -1.110074445605278015e-01
7.716000000000000000e+03 4.704879760742187500e+01 7.685950756072998047e+00 -8.897398412227630615e-02 3.487498164176940918e-01 7.793274521827697754e-02 -7.353282719850540161e-02
7.717000000000000000e+03 5.619046401977539062e+01 1.748526191711425781e+01 -7.685357332229614258e-02 1.399451613426208496e+00 3.967794179916381836e-01 1.213614046573638916e-01
7.718000000000000000e+03 5.470334625244140625e+01 1.712477111816406250e+01 -1.465707123279571533e-01 1.082643628120422363e+00 2.808218896389007568e-01 4.168729647062718868e-04
7.719000000000000000e+03 5.585829925537109375e+01 1.532244586944580078e+01 -1.105856988579034805e-02 1.511471629142761230e+00 4.501239061355590820e-01 1.889901608228683472e-01
7.720000000000000000e+03 4.594738769531250000e+01 9.887267112731933594e+00 -2.652024030685424805e-01 5.191677063703536987e-02 -6.398569047451019287e-02 -2.556798458099365234e-01
7.721000000000000000e+03 5.142144393920898438e+01 1.193207550048828125e+01 -6.770101189613342285e-02 8.253969550132751465e-01 2.273087799549102783e-01 6.179988849908113480e-04
7.722000000000000000e+03 5.332677841186523438e+01 1.672957801818847656e+01 -2.037880718708038330e-01 8.167946934700012207e-01 1.839019805192947388e-01 -9.717407077550888062e-02
7.723000000000000000e+03 5.415534973144531250e+01 1.698672485351562500e+01 -1.659938395023345947e-01 9.814158082008361816e-01 2.446265816688537598e-01 -3.418664261698722839e-02
7.724000000000000000e+03 5.383451843261718750e+01 1.074208068847656250e+01 7.333711534738540649e-02 1.407034397125244141e+00 4.441114664077758789e-01 2.097501903772354126e-01
7.725000000000000000e+03 5.243923568725585938e+01 1.434200668334960938e+01 -1.290474236011505127e-01 8.415033817291259766e-01 2.137367874383926392e-01 -4.011850059032440186e-02
7.726000000000000000e+03 4.917543792724609375e+01 1.101229190826416016e+01 -1.366563141345977783e-01 4.822883903980255127e-01 1.036896258592605591e-01 -1.098770424723625183e-01
7.727000000000000000e+03 5.066311645507812500e+01 1.106000423431396484e+01 -6.410074234008789062e-02 7.422364950180053711e-01 2.034407258033752441e-01 -1.193536352366209030e-02
7.728000000000000000e+03 4.955410385131835938e+01 1.012518024444580078e+01 -8.547968417406082153e-02 6.046410799026489258e-01 1.557484120130538940e-01 -4.300549626350402832e-02
7.729000000000000000e+03 4.622215270996093750e+01 6.163681030273437500e+00 -4.795735329389572144e-02 3.029550611972808838e-01 7.649931311607360840e-02 -4.166472330689430237e-02
7.730000000000000000e+03 5.291403198242187500e+01 1.375415897369384766e+01 -7.677584886550903320e-02 9.928886294364929199e-01 2.748338282108306885e-01 2.586320973932743073e-02
7.731000000000000000e+03 5.461826705932617188e+01 1.608893585205078125e+01 -9.745140373706817627e-02 1.156810164451599121e+00 3.178076446056365967e-01 4.921756312251091003e-02
7.732000000000000000e+03 5.545787048339843750e+01 1.473511028289794922e+01 -1.002900581806898117e-02 1.468636274337768555e+00 4.375821948051452637e-01 1.831153184175491333e-01
7.733000000000000000e+03 5.385527801513671875e+01 1.489911270141601562e+01 -7.679241150617599487e-02 1.095475912094116211e+00 3.056050539016723633e-01 4.978581145405769348e-02
7.734000000000000000e+03 5.349414443969726562e+01 1.141322422027587891e+01 3.633470088243484497e-02 1.289752364158630371e+00 3.978261053562164307e-01 1.637197285890579224e-01
7.735000000000000000e+03 4.949974441528320312e+01 5.670154094696044922e+00 1.004179194569587708e-01 8.417668938636779785e-01 2.826554477214813232e-01 1.327861547470092773e-01
7.736000000000000000e+03 4.700054931640625000e+01 5.094661235809326172e+00 3.979351744055747986e-02 4.679852426052093506e-01 1.523336321115493774e-01 4.329373314976692200e-02
7.737000000000000000e+03 5.292352294921875000e+01 7.778470993041992188e+00 1.321656107902526855e-01 1.391386508941650391e+00 4.570656120777130127e-01 2.494079023599624634e-01
7.738000000000000000e+03 5.332047271728515625e+01 8.466270446777343750e+00 1.239118874073028564e-01 1.431878447532653809e+00 4.667370915412902832e-01 2.463979572057723999e-01
7.739000000000000000e+03 5.274155807495117188e+01 9.199988365173339844e+00 8.977749198675155640e-02 1.278208255767822266e+00 4.103957414627075195e-01 1.950523406267166138e-01
7.740000000000000000e+03 5.134700012207031250e+01 5.656682968139648438e+00 1.560854762792587280e-01 1.184706926345825195e+00 4.022377133369445801e-01 2.262139618396759033e-01
7.741000000000000000e+03 4.940749740600585938e+01 3.358647823333740234e+00 1.870967000722885132e-01 9.241119623184204102e-01 3.333626091480255127e-01 1.959632039070129395e-01
7.742000000000000000e+03 4.790530014038085938e+01 4.044803619384765625e+00 1.185734644532203674e-01 6.512933373451232910e-01 2.309600412845611572e-01 1.168835237622261047e-01
7.743000000000000000e+03 4.794908523559570312e+01 6.031488895416259766e+00 2.760247141122817993e-02 5.699366331100463867e-01 1.792617291212081909e-01 4.760070890188217163e-02
7.744000000000000000e+03 4.973336410522460938e+01 7.324522972106933594e+00 4.636527225375175476e-02 7.960456609725952148e-01 2.527232766151428223e-01 8.848034590482711792e-02
7.745000000000000000e+03 5.236426544189453125e+01 1.018860912322998047e+01 4.180664569139480591e-02 1.134935021400451660e+00 3.530224859714508057e-01 1.361572295427322388e-01
7.746000000000000000e+03 5.179679870605468750e+01 1.136509704589843750e+01 -3.058603405952453613e-02 9.453604817390441895e-01 2.744323313236236572e-01 4.783556237816810608e-02
7.747000000000000000e+03 4.698108673095703125e+01 8.543463706970214844e+00 -1.225511282682418823e-01 3.061345517635345459e-01 5.507502704858779907e-02 -1.146708503365516663e-01
7.748000000000000000e+03 5.327904891967773438e+01 1.523921489715576172e+01 -1.305818408727645874e-01 9.511268138885498047e-01 2.461635023355484009e-01 -1.294024474918842316e-02
7.749000000000000000e+03 4.887997817993164062e+01 4.655602931976318359e+00 1.239047870039939880e-01 7.907195687294006348e-01 2.743873000144958496e-01 1.426678001880645752e-01
7.750000000000000000e+03 5.269060897827148438e+01 1.271904087066650391e+01 -5.026306211948394775e-02 1.021063089370727539e+00 2.912400066852569580e-01 5.243233963847160339e-02
7.751000000000000000e+03 5.337858200073242188e+01 1.310590839385986328e+01 -3.113818913698196411e-02 1.137046933174133301e+00 3.317725956439971924e-01 8.942124992609024048e-02
7.752000000000000000e+03 4.824811553955078125e+01 1.066463947296142578e+01 -1.723448485136032104e-01 3.520421683788299561e-01 5.390919744968414307e-02 -1.482972353696823120e-01
7.753000000000000000e+03 4.983763504028320312e+01 1.070911216735839844e+01 -9.338916838169097900e-02 6.168591380119323730e-01 1.570409834384918213e-01 -5.325172096490859985e-02
7.754000000000000000e+03 4.735374832153320312e+01 9.569043159484863281e+00 -1.612549722194671631e-01 2.934323549270629883e-01 3.965321928262710571e-02 -1.531497985124588013e-01
7.755000000000000000e+03 5.095695495605468750e+01 6.340932369232177734e+00 1.233485192060470581e-01 1.078879237174987793e+00 3.606683313846588135e-01 1.860939562320709229e-01
7.756000000000000000e+03 5.406186294555664062e+01 1.398293209075927734e+01 -3.941950574517250061e-02 1.208434939384460449e+00 3.507046103477478027e-01 1.016643196344375610e-01
7.757000000000000000e+03 5.299369430541992188e+01 1.614265251159667969e+01 -1.873781085014343262e-01 8.024861812591552734e-01 1.845324337482452393e-01 -9.459087997674942017e-02
7.758000000000000000e+03 5.483992004394531250e+01 1.512588119506835938e+01 -4.599134996533393860e-02 1.287724614143371582e+00 3.725199699401855469e-01 1.149785220623016357e-01
7.759000000000000000e+03 4.743606185913085938e+01 1.014783382415771484e+01 -1.958014070987701416e-01 2.630332708358764648e-01 2.016955427825450897e-02 -1.813860088586807251e-01
7.760000000000000000e+03 4.799957656860351562e+01 9.396376609802246094e+00 -1.187423691153526306e-01 4.031625390052795410e-01 8.532604575157165527e-02 -9.843825548887252808e-02
7.761000000000000000e+03 5.138830184936523438e+01 8.496165275573730469e+00 5.707752704620361328e-02 1.040099143981933594e+00 3.291530013084411621e-01 1.367809176445007324e-01
7.762000000000000000e+03 5.444020843505859375e+01 1.456057357788085938e+01 -4.967951402068138123e-02 1.241291522979736328e+00 3.574835956096649170e-01 1.052711308002471924e-01
7.763000000000000000e+03 5.505746459960937500e+01 1.662814331054687500e+01 -9.937864542007446289e-02 1.206765890121459961e+00 3.322161734104156494e-01 6.397587060928344727e-02
7.764000000000000000e+03 4.696772766113281250e+01 6.468289852142333984e+00 -2.582984417676925659e-02 4.010290205478668213e-01 1.125597506761550903e-01 -1.335647050291299820e-02
7.765000000000000000e+03 4.662257003784179688e+01 5.568285942077636719e+00 -1.251962967216968536e-03 3.864962458610534668e-01 1.155732795596122742e-01 8.170519024133682251e-03
7.766000000000000000e+03 5.595895767211914062e+01 1.683998870849609375e+01 -7.027766108512878418e-02 1.401841759681701660e+00 3.994692564010620117e-01 1.300698369741439819e-01
7.767000000000000000e+03 5.547109603881835938e+01 1.707496643066406250e+01 -9.481088072061538696e-02 1.268941521644592285e+00 3.522391915321350098e-01 8.009867370128631592e-02
7.768000000000000000e+03 5.308420944213867188e+01 1.048069953918457031e+01 5.433312430977821350e-02 1.260084390640258789e+00 3.943252563476562500e-01 1.684382557868957520e-01
7.769000000000000000e+03 5.235549163818359375e+01 8.218590736389160156e+00 9.495486319065093994e-02 1.235682368278503418e+00 3.991911709308624268e-01 2.019058465957641602e-01
7.770000000000000000e+03 5.229011917114257812e+01 7.237333297729492188e+00 1.385013014078140259e-01 1.290827274322509766e+00 4.287985861301422119e-01 2.230272889137268066e-01
7.771000000000000000e+03 4.743688964843750000e+01 6.874926567077636719e+00 -2.355701290071010590e-02 4.540610015392303467e-01 1.291511952877044678e-01 -1.461401674896478653e-02
7.772000000000000000e+03 5.270003509521484375e+01 1.552679252624511719e+01 -1.810840517282485962e-01 7.897194623947143555e-01 1.825906336307525635e-01 -8.866789191961288452e-02
7.773000000000000000e+03 5.362591552734375000e+01 1.582370853424072266e+01 -1.365213394165039062e-01 9.738191962242126465e-01 2.511893510818481445e-01 -1.702265813946723938e-02
7.774000000000000000e+03 4.747070312500000000e+01 5.339740753173828125e+00 4.660438001155853271e-02 5.288037657737731934e-01 1.726224422454833984e-01 5.512969940900802612e-02
7.775000000000000000e+03 5.278601837158203125e+01 1.109308719635009766e+01 2.701884135603904724e-02 1.163674116134643555e+00 3.572078943252563477e-01 1.324261873960494995e-01
7.776000000000000000e+03 5.208140182495117188e+01 1.076442813873291016e+01 1.042219810187816620e-02 1.050206542015075684e+00 3.181886374950408936e-01 9.612143039703369141e-02
7.777000000000000000e+03 5.076594543457031250e+01 8.026139259338378906e+00 5.913899466395378113e-02 9.486835598945617676e-01 3.023467659950256348e-01 1.195358559489250183e-01
7.778000000000000000e+03 4.719948577880859375e+01 9.028985977172851562e+00 -1.483300775289535522e-01 2.992305755615234375e-01 4.527014866471290588e-02 -1.309385895729064941e-01
7.779000000000000000e+03 4.742795944213867188e+01 8.261528015136718750e+00 -1.029959097504615784e-01 3.790122270584106445e-01 8.280489593744277954e-02 -7.824840396642684937e-02
7.780000000000000000e+03 5.243559646606445312e+01 1.171504116058349609e+01 -1.617075316607952118e-02 1.050076365470886230e+00 3.101716637611389160e-01 7.819578051567077637e-02
7.781000000000000000e+03 5.292816162109375000e+01 1.469844055175781250e+01 -1.133594736456871033e-01 9.203181862831115723e-01 2.420876026153564453e-01 -1.918086037039756775e-02
7.782000000000000000e+03 4.669592666625976562e+01 8.945017814636230469e+00 -1.668195426464080811e-01 2.290781140327453613e-01 1.867757551372051239e-02 -1.566677540540695190e-01
7.783000000000000000e+03 5.265295410156250000e+01 8.670676231384277344e+00 9.587708115577697754e-02 1.281884431838989258e+00 4.133284687995910645e-01 2.022457122802734375e-01
7.784000000000000000e+03 5.121136093139648438e+01 1.107644653320312500e+01 -4.349467158317565918e-02 8.409627079963684082e-01 2.392404228448867798e-01 2.536576986312866211e-02
7.785000000000000000e+03 4.975280761718750000e+01 4.814114570617675781e+00 1.453360617160797119e-01 9.267392158508300781e-01 3.216225802898406982e-01 1.745007038116455078e-01
7.786000000000000000e+03 4.807505798339843750e+01 6.619468688964843750e+00 1.463418547064065933e-02 5.702003836631774902e-01 1.754503697156906128e-01 3.386267274618148804e-02
7.787000000000000000e+03 5.523160934448242188e+01 1.569519519805908203e+01 -5.267475545406341553e-02 1.337570190429687500e+00 3.854686319828033447e-01 1.256442219018936157e-01
7.788000000000000000e+03 5.345309448242187500e+01 1.428167629241943359e+01 -7.583988457918167114e-02 1.058775663375854492e+00 2.948807477951049805e-01 4.593694955110549927e-02
7.789000000000000000e+03 5.423708724975585938e+01 1.548833370208740234e+01 -9.361963719129562378e-02 1.126596808433532715e+00 3.098931610584259033e-01 5.179119855165481567e-02
7.790000000000000000e+03 5.163559341430664062e+01 6.770943641662597656e+00 1.299315243959426880e-01 1.189218282699584961e+00 3.957449495792388916e-01 2.094388157129287720e-01
7.791000000000000000e+03 4.869729995727539062e+01 9.893188476562500000e+00 -1.207918599247932434e-01 4.691411554813385010e-01 1.045047864317893982e-01 -8.400700241327285767e-02
7.792000000000000000e+03 4.768040847778320312e+01 7.452209472656250000e+00 -4.440128058195114136e-02 4.610797762870788574e-01 1.250035464763641357e-01 -2.638420835137367249e-02
7.793000000000000000e+03 5.181472396850585938e+01 7.826648712158203125e+00 1.053318306803703308e-01 1.171723365783691406e+00 3.831165432929992676e-01 1.843695491552352905e-01
7.794000000000000000e+03 5.058576202392578125e+01 5.213551998138427734e+00 1.528255939483642578e-01 1.065664768218994141e+00 3.655471205711364746e-01 1.982465684413909912e-01
7.795000000000000000e+03 4.809407043457031250e+01 1.003527641296386719e+01 -1.526817232370376587e-01 3.706195652484893799e-01 6.538134813308715820e-02 -1.278334110975265503e-01
7.796000000000000000e+03 4.891850280761718750e+01 8.715358734130859375e+00 -5.081461369991302490e-02 5.844189524650573730e-01 1.600813120603561401e-01 -1.329841371625661850e-02
7.797000000000000000e+03 5.204297637939453125e+01 8.744858741760253906e+00 6.885901093482971191e-02 1.142425179481506348e+00 3.633852303028106689e-01 1.654603481292724609e-01
7.798000000000000000e+03 5.089564895629882812e+01 9.190711975097656250e+00 1.105048321187496185e-02 9.056951403617858887e-01 2.750236690044403076e-01 8.203779906034469604e-02
7.799000000000000000e+03 5.055217742919921875e+01 1.042304229736328125e+01 -4.414641112089157104e-02 7.675933241844177246e-01 2.170340716838836670e-01 1.108178868889808655e-02
7.800000000000000000e+03 5.133232879638671875e+01 1.044434452056884766e+01 -1.345305889844894409e-02 9.094182848930358887e-01 2.687895894050598145e-01 5.993431434035301208e-02
7.801000000000000000e+03 5.121340560913085938e+01 7.402823925018310547e+00 9.994690120220184326e-02 1.075035214424133301e+00 3.524946570396423340e-01 1.666619628667831421e-01
7.802000000000000000e+03 4.907096862792968750e+01 7.224890232086181641e+00 2.362843602895736694e-02 7.028210163116455078e-01 2.179348319768905640e-01 5.731243640184402466e-02
7.803000000000000000e+03 4.791205596923828125e+01 8.000369071960449219e+00 -6.694933772087097168e-02 4.618884623050689697e-01 1.184817403554916382e-01 -4.159448295831680298e-02
7.804000000000000000e+03 4.877278900146484375e+01 5.477786540985107422e+00 8.797215670347213745e-02 7.379883527755737305e-01 2.477881610393524170e-01 1.120372563600540161e-01
7.805000000000000000e+03 4.909358215332031250e+01 7.997557640075683594e+00 -6.457315292209386826e-03 6.556870937347412109e-01 1.947689354419708252e-01 2.778051607310771942e-02
7.806000000000000000e+03 5.021287918090820312e+01 8.575682640075683594e+00 5.465202033519744873e-03 8.061453700065612793e-01 2.434831708669662476e-01 6.054293736815452576e-02
7.807000000000000000e+03 4.746266174316406250e+01 4.828554630279541016e+00 6.676048785448074341e-02 5.503761768341064453e-01 1.851409971714019775e-01 7.328911125659942627e-02
7.808000000000000000e+03 4.994339752197265625e+01 6.677142620086669922e+00 7.923772186040878296e-02 8.648394346237182617e-01 2.832231521606445312e-01 1.210928708314895630e-01
7.809000000000000000e+03 4.856454849243164062e+01 6.193565845489501953e+00 4.573835432529449463e-02 6.707003712654113770e-01 2.149316221475601196e-01 7.282792031764984131e-02
7.810000000000000000e+03 4.843280029296875000e+01 7.902707576751708984e+00 -2.947865985333919525e-02 5.550665259361267090e-01 1.576763540506362915e-01 1.837284798966720700e-04
7.811000000000000000e+03 4.977503204345703125e+01 7.952844619750976562e+00 1.472708024084568024e-02 7.700409293174743652e-01 2.354303896427154541e-01 6.238817051053047180e-02
7.812000000000000000e+03 4.918550109863281250e+01 9.614150047302246094e+00 -7.605565339326858521e-02 5.775361657142639160e-01 1.504441499710083008e-01 -3.943881392478942871e-02
7.813000000000000000e+03 4.865831375122070312e+01 9.340234756469726562e+00 -8.346799015998840332e-02 5.029914379119873047e-01 1.258570402860641479e-01 -5.619965866208076477e-02
7.814000000000000000e+03 5.023156738281250000e+01 9.730724334716796875e+00 -2.879502624273300171e-02 7.562951445579528809e-01 2.182500362396240234e-01 2.296092174947261810e-02
7.815000000000000000e+03 4.834659194946289062e+01 7.253130912780761719e+00 6.312705809250473976e-04 5.744574666023254395e-01 1.725266277790069580e-01 2.319434285163879395e-02
7.816000000000000000e+03 5.025395965576171875e+01 7.577081203460693359e+00 5.737497285008430481e-02 8.782693743705749512e-01 2.806933224201202393e-01 1.087158024311065674e-01
7.817000000000000000e+03 4.922294998168945312e+01 6.455482006072998047e+00 6.402027606964111328e-02 7.574057579040527344e-01 2.464278042316436768e-01 9.302575886249542236e-02
7.818000000000000000e+03 4.964272308349609375e+01 9.109733581542968750e+00 -2.954718656837940216e-02 6.902244687080383301e-01 1.982031911611557007e-01 1.470597833395004272e-02
7.819000000000000000e+03 1.381171989440917969e+01 3.181308555603027344e+01 -8.877492509782314301e-03 2.420769818127155304e-02 4.599061794579029083e-03 5.775455501861870289e-04
7.820000000000000000e+03 2.602219390869140625e+01 -3.542355346679687500e+01 4.923660457134246826e-01 3.337064385414123535e-01 2.478217333555221558e-01 -2.859553396701812744e-01
7.821000000000000000e+03 1.656635665893554688e+01 3.440016937255859375e+01 -7.133133243769407272e-03 3.665068000555038452e-02 8.855263702571392059e-03 6.452673580497503281e-03
7.822000000000000000e+03 5.362517547607421875e+01 -3.214566802978515625e+01 1.676879227161407471e-01 2.491424560546875000e+00 7.977337241172790527e-01 3.774752616882324219e-01
7.823000000000000000e+03 2.388577651977539062e+01 3.780349349975585938e+01 5.904143676161766052e-03 6.125117838382720947e-02 2.014659717679023743e-02 1.218126807361841202e-02
7.824000000000000000e+03 6.900907897949218750e+01 -3.310390472412109375e+01 8.285320550203323364e-02 5.061974048614501953e+00 1.543448209762573242e+00 1.704452484846115112e-01
7.825000000000000000e+03 8.241421699523925781e+00 4.093901443481445312e+01 -5.059755407273769379e-03 -3.647617250680923462e-02 -1.246077846735715866e-02 -9.361582924611866474e-04
7.826000000000000000e+03 6.923222541809082031e+00 -3.851699829101562500e+01 5.118478462100028992e-02 -1.152627944946289062e+00 -3.304329514503479004e-01 -5.951741337776184082e-02
7.827000000000000000e+03 5.111799621582031250e+01 -3.217771530151367188e+01 1.050352230668067932e-01 2.058417320251464844e+00 6.490357518196105957e-01 3.997901082038879395e-01
7.828000000000000000e+03 5.856581115722656250e+01 -2.690073966979980469e+01 7.676320523023605347e-02 3.283005714416503906e+00 1.007930636405944824e+00 3.084093630313873291e-01
7.829000000000000000e+03 5.524759674072265625e+01 -2.923010826110839844e+01 7.139016687870025635e-02 2.739664077758789062e+00 8.433162569999694824e-01 3.416049182415008545e-01
7.830000000000000000e+03 5.300503540039062500e+01 -2.797801589965820312e+01 -1.778019592165946960e-02 2.351776361465454102e+00 7.001988291740417480e-01 2.859992086887359619e-01
7.831000000000000000e+03 6.542173385620117188e+00 3.768708419799804688e+01 -3.273730864748358727e-03 -4.898247495293617249e-02 -1.567686162889003754e-02 -3.097648033872246742e-03
7.832000000000000000e+03 1.498032474517822266e+01 -3.037079811096191406e+01 1.906511336565017700e-01 -4.717173874378204346e-01 -8.431987464427947998e-02 -2.541762888431549072e-01
7.833000000000000000e+03 1.658506774902343750e+01 -3.193692588806152344e+01 2.251909822225570679e-01 -3.196943700313568115e-01 -2.835102006793022156e-02 -2.399133443832397461e-01
7.834000000000000000e+03 7.601045227050781250e+01 -3.654036712646484375e+01 -9.973864071071147919e-03 6.250639915466308594e+00 1.872199773788452148e+00 6.441108882427215576e-02
7.835000000000000000e+03 7.207540893554687500e+01 -3.558440399169921875e+01 6.118340045213699341e-02 5.542956829071044922e+00 1.681241989135742188e+00 9.373021870851516724e-02
7.836000000000000000e+03 6.278698348999023438e+01 -3.470450592041015625e+01 2.116426825523376465e-01 3.945064544677734375e+00 1.247012257575988770e+00 2.310617268085479736e-01
7.837000000000000000e+03 6.495198822021484375e+01 -2.962608718872070312e+01 9.736007452011108398e-02 4.408322811126708984e+00 1.351704835891723633e+00 2.704395353794097900e-01
7.838000000000000000e+03 5.997333526611328125e+01 -2.542217636108398438e+01 6.580982357263565063e-02 3.555092096328735352e+00 1.086270570755004883e+00 2.884728908538818359e-01
7.839000000000000000e+03 5.732893371582031250e+01 -2.517110633850097656e+01 4.573439434170722961e-02 3.076589822769165039e+00 9.366972446441650391e-01 2.897147536277770996e-01
7.840000000000000000e+03 1.209078979492187500e+01 -3.453261184692382812e+01 1.523125767707824707e-01 -6.840649247169494629e-01 -1.595257073640823364e-01 -1.598434597253799438e-01
7.841000000000000000e+03 5.333306503295898438e+01 -3.789732360839843750e+01 6.493557691574096680e-01 2.210884332656860352e+00 8.580719828605651855e-01 3.375669121742248535e-01
7.842000000000000000e+03 1.560385322570800781e+01 -3.683752441406250000e+01 2.196581959724426270e-01 -4.221848249435424805e-01 -6.075798347592353821e-02 -1.419711410999298096e-01
7.843000000000000000e+03 2.808565521240234375e+01 -3.869716644287109375e+01 6.316097378730773926e-01 3.601650893688201904e-01 2.975324392318725586e-01 -2.099864035844802856e-01
7.844000000000000000e+03 2.767713546752929688e+01 -4.123194122314453125e+01 6.522477865219116211e-01 3.155260384082794189e-01 2.903321385383605957e-01 -6.067209318280220032e-02
7.845000000000000000e+03 5.755799865722656250e+01 -4.100526428222656250e+01 5.102451443672180176e-01 2.972080707550048828e+00 1.044697761535644531e+00 7.429840415716171265e-02
7.846000000000000000e+03 6.710408020019531250e+01 -4.112594985961914062e+01 1.606016010046005249e-01 4.682775497436523438e+00 1.453013062477111816e+00 3.827908635139465332e-02
7.847000000000000000e+03 6.645714569091796875e+01 -3.829042816162109375e+01 1.740614473819732666e-01 4.603404045104980469e+00 1.433239579200744629e+00 9.848816692829132080e-02
7.848000000000000000e+03 9.295139312744140625e+00 3.783727264404296875e+01 -6.237293127924203873e-03 -2.577940374612808228e-02 -9.605009108781814575e-03 -3.527684370055794716e-03
7.849000000000000000e+03 1.099231052398681641e+01 3.377781295776367188e+01 -7.584397215396165848e-03 -5.991836544126272202e-03 -4.072870127856731415e-03 -3.923301585018634796e-03
7.850000000000000000e+03 6.308751296997070312e+01 -2.841387748718261719e+01 8.765901625156402588e-02 4.108619689941406250e+00 1.258883595466613770e+00 2.948268055915832520e-01
7.851000000000000000e+03 6.395259094238281250e+01 -3.195374298095703125e+01 1.298159807920455933e-01 4.203742027282714844e+00 1.300067424774169922e+00 2.673256099224090576e-01
7.852000000000000000e+03 2.042218017578125000e+01 -3.467528915405273438e+01 3.316490352153778076e-01 -3.561235964298248291e-02 8.881100267171859741e-02 -2.245223671197891235e-01
7.853000000000000000e+03 5.998691177368164062e+01 -3.284149169921875000e+01 2.073580771684646606e-01 3.500229835510253906e+00 1.112276434898376465e+00 2.773540019989013672e-01
7.854000000000000000e+03 5.443692779541015625e+01 -2.728401756286621094e+01 3.555985167622566223e-03 2.604951620101928711e+00 7.825523018836975098e-01 2.974988222122192383e-01
7.855000000000000000e+03 5.699728775024414062e+01 -2.821172332763671875e+01 6.780433654785156250e-02 3.035226821899414062e+00 9.309093356132507324e-01 3.271946609020233154e-01
7.856000000000000000e+03 6.219386291503906250e+01 -3.789413452148437500e+01 2.814678549766540527e-01 3.806885004043579102e+00 1.226505875587463379e+00 1.575168669223785400e-01
7.857000000000000000e+03 1.460002136230468750e+01 -3.381542968750000000e+01 1.975444406270980835e-01 -4.980702996253967285e-01 -9.015775471925735474e-02 -1.965711712837219238e-01
7.858000000000000000e+03 6.175129699707031250e+01 -3.051664352416992188e+01 1.294416338205337524e-01 3.880135774612426758e+00 1.202873229980468750e+00 2.849824726581573486e-01
7.859000000000000000e+03 5.999930953979492188e+01 -2.871486473083496094e+01 1.043119207024574280e-01 3.550066232681274414e+00 1.096313476562500000e+00 2.904013395309448242e-01
7.860000000000000000e+03 5.057523727416992188e+01 3.790718460083007812e+01 1.790608167648315430e-01 2.959486655890941620e-02 6.259670853614807129e-02 7.411478459835052490e-02
7.861000000000000000e+03 4.699756240844726562e+01 3.624555969238281250e+01 1.010969951748847961e-01 5.176432803273200989e-02 4.585839807987213135e-02 7.276988029479980469e-02
7.862000000000000000e+03 4.504205322265625000e+01 3.560886764526367188e+01 8.599341660737991333e-02 3.907898068428039551e-02 3.752171993255615234e-02 5.378409847617149353e-02
7.863000000000000000e+03 4.073099517822265625e+01 3.173193359375000000e+01 5.995172262191772461e-02 4.947630316019058228e-02 3.282840549945831299e-02 5.325908586382865906e-02
7.864000000000000000e+03 1.765474510192871094e+01 -1.563268065452575684e+00 -2.314988613128662109e+00 -1.380476951599121094e+00 -1.108639597892761230e+00 -1.220195293426513672e+00
7.865000000000000000e+03 1.914371109008789062e+01 -7.379628419876098633e-01 -2.666600942611694336e+00 -3.804697513580322266e+00 -1.941389560699462891e+00 -2.168641328811645508e+00
7.866000000000000000e+03 1.902502059936523438e+01 -6.486710906028747559e-01 -2.499430418014526367e+00 -2.828107595443725586e+00 -1.598261356353759766e+00 -1.698225736618041992e+00
7.867000000000000000e+03 2.040726280212402344e+01 1.999518424272537231e-01 -1.803487062454223633e+00 -3.100401163101196289e+00 -1.471166491508483887e+00 -3.900620698928833008e+00
7.868000000000000000e+03 2.057971191406250000e+01 2.884292900562286377e-01 -1.651268243789672852e+00 -2.579789161682128906e+00 -1.269317150115966797e+00 -4.056843280792236328e+00
7.869000000000000000e+03 2.074511337280273438e+01 3.883372545242309570e-01 -2.144356250762939453e+00 -2.070605754852294922e+00 -1.264488577842712402e+00 -4.055046081542968750e+00
7.870000000000000000e+03 2.150612258911132812e+01 4.186516106128692627e-01 -2.226940393447875977e+00 -7.059735655784606934e-01 -8.798741698265075684e-01 -2.886577606201171875e+00
7.871000000000000000e+03 2.129532051086425781e+01 6.620205640792846680e-01 -2.413485527038574219e+00 -8.670640587806701660e-01 -9.841648936271667480e-01 -3.183065414428710938e+00
7.872000000000000000e+03 2.145925331115722656e+01 7.892802953720092773e-01 -2.597146987915039062e+00 -1.073752403259277344e+00 -1.101269841194152832e+00 -2.943466663360595703e+00
7.873000000000000000e+03 2.247291374206542969e+01 1.411770701408386230e+00 -3.215411186218261719e+00 -6.501364111900329590e-01 -1.159664273262023926e+00 -2.096227407455444336e+00
7.874000000000000000e+03 2.242480468750000000e+01 1.104304671287536621e+00 -2.871879577636718750e+00 -4.806441664695739746e-01 -1.005757093429565430e+00 -2.054876089096069336e+00
7.875000000000000000e+03 2.305945777893066406e+01 1.236957430839538574e+00 -2.705453872680664062e+00 -1.620637476444244385e-01 -8.602553009986877441e-01 -1.579784512519836426e+00
7.876000000000000000e+03 2.301567077636718750e+01 1.712553024291992188e+00 -3.363329172134399414e+00 -5.366824865341186523e-01 -1.170003533363342285e+00 -1.855804681777954102e+00
7.877000000000000000e+03 2.361816978454589844e+01 1.921230792999267578e+00 -3.230071067810058594e+00 -5.926939845085144043e-01 -1.146829485893249512e+00 -1.586823105812072754e+00
7.878000000000000000e+03 2.483445739746093750e+01 2.558984279632568359e+00 -3.278761386871337891e+00 -6.577576398849487305e-01 -1.180955767631530762e+00 -1.409940361976623535e+00
7.879000000000000000e+03 2.469320678710937500e+01 2.791935443878173828e+00 -3.431553125381469727e+00 -7.251796722412109375e-01 -1.247019886970520020e+00 -1.572541594505310059e+00
7.880000000000000000e+03 2.519733238220214844e+01 2.760427236557006836e+00 -3.190502166748046875e+00 -6.981215476989746094e-01 -1.166587114334106445e+00 -1.375733971595764160e+00
7.881000000000000000e+03 2.552117347717285156e+01 3.002219438552856445e+00 -3.196527957916259766e+00 -7.800003886222839355e-01 -1.192958474159240723e+00 -1.418348073959350586e+00
7.882000000000000000e+03 2.537670326232910156e+01 3.225394964218139648e+00 -3.340543746948242188e+00 -8.346092104911804199e-01 -1.252545833587646484e+00 -1.564344763755798340e+00
7.883000000000000000e+03 2.590403175354003906e+01 3.529951810836791992e+00 -3.257422685623168945e+00 -9.282754659652709961e-01 -1.255709409713745117e+00 -1.566314101219177246e+00
7.884000000000000000e+03 2.607606124877929688e+01 3.640859603881835938e+00 -3.195041656494140625e+00 -9.212574362754821777e-01 -1.234889745712280273e+00 -1.551321148872375488e+00
7.885000000000000000e+03 2.644767189025878906e+01 3.265370607376098633e+00 -2.858921289443969727e+00 -8.624798059463500977e-01 -1.116420388221740723e+00 -1.271196126937866211e+00
7.886000000000000000e+03 2.671727752685546875e+01 3.874711513519287109e+00 -3.018774032592773438e+00 -1.029667258262634277e+00 -1.214532375335693359e+00 -1.516172409057617188e+00
7.887000000000000000e+03 2.656939506530761719e+01 4.004151821136474609e+00 -3.100669860839843750e+00 -1.083693861961364746e+00 -1.255309104919433594e+00 -1.609851360321044922e+00
7.888000000000000000e+03 2.734273338317871094e+01 4.174217224121093750e+00 -2.799417495727539062e+00 -1.165859580039978027e+00 -1.189583182334899902e+00 -1.464942216873168945e+00
7.889000000000000000e+03 2.723715209960937500e+01 4.397316455841064453e+00 -2.957434415817260742e+00 -1.225125670433044434e+00 -1.254768013954162598e+00 -1.596809267997741699e+00
7.890000000000000000e+03 2.765276718139648438e+01 4.038311004638671875e+00 -2.600455522537231445e+00 -1.144777894020080566e+00 -1.123569965362548828e+00 -1.301898717880249023e+00
7.891000000000000000e+03 2.772443389892578125e+01 4.261448383331298828e+00 -2.647604703903198242e+00 -1.199644207954406738e+00 -1.154174685478210449e+00 -1.374997973442077637e+00
7.892000000000000000e+03 2.760505485534667969e+01 4.568680763244628906e+00 -2.829515457153320312e+00 -1.318000674247741699e+00 -1.244254827499389648e+00 -1.567731499671936035e+00
7.893000000000000000e+03 2.798903846740722656e+01 4.260488033294677734e+00 -2.554172992706298828e+00 -1.255844593048095703e+00 -1.143005251884460449e+00 -1.299735069274902344e+00
7.894000000000000000e+03 2.878294372558593750e+01 5.389794349670410156e+00 -2.498395442962646484e+00 -1.655979156494140625e+00 -1.246312379837036133e+00 -1.424327015876770020e+00
7.895000000000000000e+03 2.827802276611328125e+01 9.086954116821289062e+00 -2.533548831939697266e+00 -1.933264374732971191e+00 -1.340044021606445312e+00 -2.155804872512817383e+00
7.896000000000000000e+03 2.742436790466308594e+01 8.270503997802734375e+00 -4.381874084472656250e+00 -2.200938224792480469e+00 -1.974843621253967285e+00 -3.312385082244873047e+00
7.897000000000000000e+03 2.710642814636230469e+01 8.175982475280761719e+00 -5.066652297973632812e+00 -3.427638053894042969e+00 -2.548287153244018555e+00 -4.211078643798828125e+00
7.898000000000000000e+03 6.529991912841796875e+01 3.733984756469726562e+01 4.849828183650970459e-01 1.054492950439453125e+00 4.618427157402038574e-01 -4.303105473518371582e-01
7.899000000000000000e+03 6.982924652099609375e+01 3.559019851684570312e+01 1.883004784584045410e+00 9.907217025756835938e+00 3.537066698074340820e+00 -6.195296764373779297e+00
7.900000000000000000e+03 6.971212768554687500e+01 3.584098434448242188e+01 1.721872806549072266e+00 9.131816864013671875e+00 3.256106853485107422e+00 -5.886426925659179688e+00
7.901000000000000000e+03 7.063341522216796875e+01 3.562774276733398438e+01 -2.573980204761028290e-02 1.761644744873046875e+01 5.277212142944335938e+00 -4.027585983276367188e+00
7.902000000000000000e+03 7.092894744873046875e+01 3.603217315673828125e+01 -5.781892538070678711e-01 1.661737823486328125e+01 4.811756610870361328e+00 -2.638834714889526367e+00
7.903000000000000000e+03 7.065508270263671875e+01 3.613719177246093750e+01 -5.943381190299987793e-01 1.601428794860839844e+01 4.625985145568847656e+00 -3.519483327865600586e+00
7.904000000000000000e+03 7.226850891113281250e+01 3.514192581176757812e+01 4.059371948242187500e+00 1.688508224487304688e+01 6.283336162567138672e+00 2.513464212417602539e+00
7.905000000000000000e+03 7.249160003662109375e+01 3.406164550781250000e+01 7.718183994293212891e+00 1.517036247253417969e+01 6.866563796997070312e+00 3.778237998485565186e-01
7.906000000000000000e+03 7.241773986816406250e+01 3.359360885620117188e+01 7.696244239807128906e+00 1.547349071502685547e+01 6.950920581817626953e+00 -1.180619120597839355e+00
7.907000000000000000e+03 7.236642456054687500e+01 3.318554687500000000e+01 6.247679233551025391e+00 1.605196571350097656e+01 6.689893722534179688e+00 -2.256326436996459961e+00
7.908000000000000000e+03 7.228514862060546875e+01 3.279074096679687500e+01 4.402494907379150391e+00 1.668128776550292969e+01 6.325134754180908203e+00 -2.505621910095214844e+00
7.909000000000000000e+03 7.163423156738281250e+01 3.264951324462890625e+01 2.510348558425903320e+00 1.987515449523925781e+01 6.715651035308837891e+00 -1.812017321586608887e+00
7.910000000000000000e+03 7.174817657470703125e+01 3.220820236206054688e+01 9.542029500007629395e-01 1.832691192626953125e+01 5.784334182739257812e+00 -1.049956321716308594e+00
7.911000000000000000e+03 7.039048004150390625e+01 3.221457672119140625e+01 -2.971389293670654297e-01 1.588958072662353516e+01 4.677732467651367188e+00 5.619456768035888672e+00
7.912000000000000000e+03 7.033979034423828125e+01 3.183526611328125000e+01 -5.207207202911376953e-01 1.417832851409912109e+01 4.097282409667968750e+00 5.147247791290283203e+00
7.913000000000000000e+03 6.971926879882812500e+01 3.199006271362304688e+01 7.549742460250854492e-01 9.407563209533691406e+00 3.048761129379272461e+00 5.990844249725341797e+00
7.914000000000000000e+03 6.991673278808593750e+01 3.195199966430664062e+01 3.455222249031066895e-01 1.110540866851806641e+01 3.435279369354248047e+00 6.022772789001464844e+00
7.915000000000000000e+03 6.897416687011718750e+01 3.229026794433593750e+01 1.371640563011169434e+00 3.720917940139770508e+00 1.527767539024353027e+00 4.399120807647705078e+00
7.916000000000000000e+03 6.808416748046875000e+01 3.188485336303710938e+01 3.325813412666320801e-01 2.153302907943725586e+00 7.457653284072875977e-01 2.811661720275878906e+00
7.917000000000000000e+03 2.594206619262695312e+01 1.578996944427490234e+01 9.722591936588287354e-02 1.078826189041137695e-01 6.153256446123123169e-02 1.029969453811645508e-01
7.918000000000000000e+03 2.537229728698730469e+01 1.573112010955810547e+01 9.785030037164688110e-02 1.048750728368759155e-01 6.081761047244071960e-02 1.041411161422729492e-01
7.919000000000000000e+03 2.595891952514648438e+01 7.296532154083251953e+00 -7.330563545227050781e+00 -3.767620086669921875e+00 -3.329455137252807617e+00 -4.457576751708984375e+00
7.920000000000000000e+03 7.801610565185546875e+01 4.168485260009765625e+01 -9.040908217430114746e-01 9.016300201416015625e+00 2.433662891387939453e+00 2.533507347106933594e-01
7.921000000000000000e+03 5.438417434692382812e+01 3.793114852905273438e+01 -7.380270957946777344e-02 -2.583465874195098877e-01 -9.964479506015777588e-02 1.352596133947372437e-01
7.922000000000000000e+03 1.501774597167968750e+01 9.276649951934814453e-01 1.042705154418945312e+01 1.647497773170471191e+00 3.622364759445190430e+00 -3.950574159622192383e+00
7.923000000000000000e+03 2.001881980895996094e+01 -8.487509489059448242e-01 -5.274180412292480469e+00 -6.833783149719238281e+00 -3.632389068603515625e+00 -4.117471218109130859e+00
7.924000000000000000e+03 1.952503776550292969e+01 -1.011255860328674316e+00 -4.249378204345703125e+00 -4.893773078918457031e+00 -2.742945432662963867e+00 -3.572396993637084961e+00
7.925000000000000000e+03 4.470189285278320312e+01 -4.066835021972656250e+01 1.795145392417907715e+00 1.111671328544616699e+00 8.720449805259704590e-01 2.024109661579132080e-01
7.926000000000000000e+03 2.015360260009765625e+01 -3.903629302978515625e+01 3.381855785846710205e-01 -1.046788021922111511e-01 7.005203515291213989e-02 -9.122672677040100098e-02
7.927000000000000000e+03 1.854961585998535156e+01 -1.577665567398071289e+00 -2.301070451736450195e+00 -2.846770286560058594e+00 -1.544352293014526367e+00 -1.818709254264831543e+00
7.928000000000000000e+03 1.923515892028808594e+01 -1.071804165840148926e+00 -2.899603605270385742e+00 -4.675788402557373047e+00 -2.272617578506469727e+00 -2.848625183105468750e+00
7.929000000000000000e+03 1.931379127502441406e+01 -7.627594470977783203e-01 -3.334759235382080078e+00 -3.698104858398437500e+00 -2.109859228134155273e+00 -2.233559846878051758e+00
7.930000000000000000e+03 2.412053680419921875e+01 1.937944293022155762e+00 -3.102802038192749023e+00 -5.020694136619567871e-01 -1.081461429595947266e+00 -1.386028528213500977e+00
7.931000000000000000e+03 2.339432525634765625e+01 1.631226181983947754e+00 -3.058197975158691406e+00 -4.356178045272827148e-01 -1.048144698143005371e+00 -1.565709471702575684e+00
7.932000000000000000e+03 2.378400421142578125e+01 2.013036012649536133e+00 -3.344485759735107422e+00 -6.011492609977722168e-01 -1.183690547943115234e+00 -1.577302575111389160e+00
7.933000000000000000e+03 2.489418411254882812e+01 2.329663038253784180e+00 -2.978153944015502930e+00 -5.456170439720153809e-01 -1.057131290435791016e+00 -1.247665762901306152e+00
7.934000000000000000e+03 2.565134429931640625e+01 2.786732673645019531e+00 -2.972238063812255859e+00 -6.939057707786560059e-01 -1.099843144416809082e+00 -1.258113861083984375e+00
7.935000000000000000e+03 2.569978332519531250e+01 3.090145111083984375e+00 -3.120510578155517578e+00 -7.636443972587585449e-01 -1.165246486663818359e+00 -1.398090481758117676e+00
7.936000000000000000e+03 2.599689865112304688e+01 2.889013767242431641e+00 -2.837576627731323242e+00 -7.075411081314086914e-01 -1.063535332679748535e+00 -1.210412025451660156e+00
7.937000000000000000e+03 2.683136558532714844e+01 3.970272302627563477e+00 -2.980497598648071289e+00 -1.082959532737731934e+00 -1.219037175178527832e+00 -1.526620984077453613e+00
7.938000000000000000e+03 2.688947868347167969e+01 3.809761285781860352e+00 -2.871865272521972656e+00 -1.005187630653381348e+00 -1.163115859031677246e+00 -1.392121076583862305e+00
7.939000000000000000e+03 2.917093086242675781e+01 5.279603481292724609e+00 -2.377819538116455078e+00 -1.438143014907836914e+00 -1.144788861274719238e+00 -1.220633149147033691e+00
7.940000000000000000e+03 3.816224288940429688e+01 2.947928047180175781e+01 5.589430779218673706e-02 6.289920210838317871e-02 3.563805297017097473e-02 5.930530279874801636e-02
7.941000000000000000e+03 3.155507087707519531e+01 2.301758956909179688e+01 5.606276169419288635e-02 7.482151687145233154e-02 3.926528245210647583e-02 6.954524666070938110e-02
7.942000000000000000e+03 1.661183547973632812e+01 -2.509841680526733398e+00 -1.824209570884704590e+00 -8.557764887809753418e-01 -8.039957880973815918e-01 -1.058068752288818359e+00
7.943000000000000000e+03 1.968019104003906250e+01 -1.221393346786499023e+00 -2.188362121582031250e+00 -4.853113651275634766e+00 -2.112442731857299805e+00 -3.224861145019531250e+00
7.944000000000000000e+03 1.976681709289550781e+01 -7.239081859588623047e-01 -3.760997295379638672e+00 -4.394712924957275391e+00 -2.446713209152221680e+00 -2.919128179550170898e+00
7.945000000000000000e+03 2.040910911560058594e+01 -5.538673996925354004e-01 -4.231600761413574219e+00 -4.412239551544189453e+00 -2.593152284622192383e+00 -4.111041545867919922e+00
7.946000000000000000e+03 1.586102294921875000e+01 6.202667713165283203e+00 1.936394125223159790e-01 3.109101355075836182e-01 1.513648629188537598e-01 2.224494367837905884e-01
7.947000000000000000e+03 1.460411453247070312e+01 6.253676414489746094e+00 1.303592026233673096e-01 4.203698635101318359e-01 1.652187108993530273e-01 1.913834810256958008e-01
7.948000000000000000e+03 2.458211708068847656e+01 1.541551208496093750e+01 9.819968789815902710e-02 1.109357625246047974e-01 6.274063885211944580e-02 1.078537702560424805e-01
7.949000000000000000e+03 5.474005126953125000e+01 3.819449996948242188e+01 -1.980174332857131958e-02 -1.900669485330581665e-01 -6.296060234308242798e-02 1.486949324607849121e-01
7.950000000000000000e+03 3.964768981933593750e+01 3.184616851806640625e+01 5.825043469667434692e-02 5.535884946584701538e-02 3.408278524875640869e-02 5.223567038774490356e-02
7.951000000000000000e+03 4.452082061767578125e+01 3.640341949462890625e+01 9.872488677501678467e-02 3.570210188627243042e-02 4.032809659838676453e-02 5.542796477675437927e-02
7.952000000000000000e+03 2.368669128417968750e+01 1.739525794982910156e+00 -3.099421501159667969e+00 -4.813976883888244629e-01 -1.074245691299438477e+00 -1.448295116424560547e+00
7.953000000000000000e+03 2.698668861389160156e+01 4.038693904876708984e+00 -2.930296659469604492e+00 -1.083822488784790039e+00 -1.204235792160034180e+00 -1.505541801452636719e+00
7.954000000000000000e+03 2.723212623596191406e+01 3.902680158615112305e+00 -2.718227386474609375e+00 -1.074504852294921875e+00 -1.137819647789001465e+00 -1.361486315727233887e+00
7.955000000000000000e+03 2.833490371704101562e+01 4.739272117614746094e+00 -2.536061763763427734e+00 -1.405084252357482910e+00 -1.182343840599060059e+00 -1.382324218750000000e+00
7.956000000000000000e+03 2.884559440612792969e+01 4.916946887969970703e+00 -2.370934486389160156e+00 -1.412642240524291992e+00 -1.135073065757751465e+00 -1.219417691230773926e+00
7.957000000000000000e+03 2.112925338745117188e+01 3.820525598712265491e-04 -1.902151942253112793e+00 -6.387149691581726074e-01 -7.622600793838500977e-01 -3.170073509216308594e+00
7.958000000000000000e+03 2.228228950500488281e+01 9.777482748031616211e-01 -2.761554956436157227e+00 -2.374642938375473022e-01 -8.997057676315307617e-01 -2.145634412765502930e+00
7.959000000000000000e+03 2.325223350524902344e+01 1.430998563766479492e+00 -2.921157598495483398e+00 -3.558744788169860840e-01 -9.831096529960632324e-01 -1.508963346481323242e+00
7.960000000000000000e+03 2.071801376342773438e+01 -3.155731260776519775e-01 -1.372485637664794922e+00 -9.559327363967895508e-01 -6.985255479812622070e-01 -4.107943534851074219e+00
7.961000000000000000e+03 6.788031005859375000e+01 3.645491409301757812e+01 1.065652608871459961e+00 2.562253952026367188e+00 1.088371992111206055e+00 -2.645365476608276367e+00
7.962000000000000000e+03 6.168399429321289062e+01 3.746702575683593750e+01 -1.766436174511909485e-02 -1.329574435949325562e-01 -4.518654197454452515e-02 4.537815749645233154e-01
7.963000000000000000e+03 2.958856010437011719e+01 5.312910556793212891e+00 -2.240643978118896484e+00 -1.288161754608154297e+00 -1.058641672134399414e+00 -1.119990706443786621e+00
7.964000000000000000e+03 5.391043853759765625e+01 3.882934188842773438e+01 1.139038950204849243e-01 -2.728454470634460449e-01 -4.768246412277221680e-02 8.157233893871307373e-02
7.965000000000000000e+03 5.438071060180664062e+01 3.863785552978515625e+01 5.457055568695068359e-02 -2.845476269721984863e-01 -6.899312138557434082e-02 1.005388647317886353e-01
7.966000000000000000e+03 5.105641937255859375e+01 4.136225128173828125e+01 2.024201899766921997e-01 -3.263156861066818237e-03 5.974711105227470398e-02 3.366024931892752647e-03
7.967000000000000000e+03 5.817876434326171875e+01 3.838991165161132812e+01 1.538305729627609253e-01 -1.132394447922706604e-01 1.217733602970838547e-02 3.880092203617095947e-01
7.968000000000000000e+03 5.153486251831054688e+01 3.870382690429687500e+01 2.663024067878723145e-01 2.163435891270637512e-02 8.638102561235427856e-02 8.158532530069351196e-02
7.969000000000000000e+03 2.683971977233886719e+01 3.642254829406738281e+00 -2.841765403747558594e+00 -9.773734211921691895e-01 -1.145741701126098633e+00 -1.363549351692199707e+00
7.970000000000000000e+03 2.722008705139160156e+01 3.691005945205688477e+00 -2.685204505920410156e+00 -1.020400404930114746e+00 -1.111681461334228516e+00 -1.272580862045288086e+00
7.971000000000000000e+03 2.899658393859863281e+01 4.562071323394775391e+00 -2.228641271591186523e+00 -1.291377663612365723e+00 -1.056005716323852539e+00 -1.079882860183715820e+00
7.972000000000000000e+03 2.950194168090820312e+01 4.789447784423828125e+00 -2.122651815414428711e+00 -1.200033187866210938e+00 -9.968055486679077148e-01 -9.665250182151794434e-01
7.973000000000000000e+03 3.316781759262084961e+00 -3.909610986709594727e+00 -5.630679056048393250e-02 -6.104117259383201599e-02 -3.520438820123672485e-02 -6.195556372404098511e-02
7.974000000000000000e+03 4.859340190887451172e+00 -3.757855653762817383e+00 -1.116017997264862061e-01 -6.879346817731857300e-02 -5.411858111619949341e-02 -1.059221178293228149e-01
7.975000000000000000e+03 2.131954002380371094e+01 -4.398036897182464600e-01 -7.885358333587646484e-01 7.634153962135314941e-01 -7.536134216934442520e-03 -2.701652526855468750e+00
7.976000000000000000e+03 7.036010742187500000e+01 3.606490707397460938e+01 -9.590949118137359619e-02 1.449980831146240234e+01 4.321169376373291016e+00 -4.011918067932128906e+00
7.977000000000000000e+03 6.948024749755859375e+01 3.594810485839843750e+01 1.772189617156982422e+00 7.675637722015380859e+00 2.834348201751708984e+00 -5.529779911041259766e+00
7.978000000000000000e+03 2.624936676025390625e+01 2.795753717422485352e+00 -2.710696220397949219e+00 -7.244562506675720215e-01 -1.030545711517333984e+00 -1.097921133041381836e+00
7.979000000000000000e+03 3.018478393554687500e+01 9.944893836975097656e+00 -1.575435519218444824e+00 -1.326800584793090820e+00 -8.706708550453186035e-01 -1.422883033752441406e+00
7.980000000000000000e+03 5.256386184692382812e+01 3.278102111816406250e+01 -8.576937913894653320e-01 -4.820926487445831299e-01 -4.019359350204467773e-01 -7.355881929397583008e-01
7.981000000000000000e+03 2.658668136596679688e+01 2.921564340591430664e+00 -2.628222703933715820e+00 -7.620351910591125488e-01 -1.017077326774597168e+00 -1.063885688781738281e+00
7.982000000000000000e+03 2.511694145202636719e+01 2.369389533996582031e+00 -2.972615003585815430e+00 -5.973595976829528809e-01 -1.070992350578308105e+00 -1.226241588592529297e+00
7.983000000000000000e+03 2.535979461669921875e+01 2.093745470046997070e+00 -2.600140810012817383e+00 -5.073751211166381836e-01 -9.322547912597656250e-01 -9.993972778320312500e-01
7.984000000000000000e+03 6.916149139404296875e+01 3.630771255493164062e+01 1.431993365287780762e+00 6.734334945678710938e+00 2.449898481369018555e+00 -4.945878028869628906e+00
7.985000000000000000e+03 2.037069559097290039e+00 3.691753005981445312e+01 -1.026703044772148132e-03 -9.173376113176345825e-02 -2.782813832163810730e-02 -3.518382553011178970e-03
7.986000000000000000e+03 4.678646087646484375e+01 3.755352020263671875e+01 1.237769052386283875e-01 3.302178159356117249e-02 4.703960567712783813e-02 4.866237565875053406e-02
7.987000000000000000e+03 6.964547729492187500e+01 3.170276260375976562e+01 4.351739585399627686e-01 9.089190483093261719e+00 2.857309341430664062e+00 5.567553043365478516e+00
7.988000000000000000e+03 7.046744537353515625e+01 3.140082931518554688e+01 -1.001557707786560059e+00 1.358011531829833984e+01 3.773567438125610352e+00 4.145177841186523438e+00
7.989000000000000000e+03 6.988437652587890625e+00 -3.552631378173828125e+01 5.296031758189201355e-02 -1.155567765235900879e+00 -3.307822346687316895e-01 -9.790532290935516357e-02
7.990000000000000000e+03 7.059265899658203125e+01 3.174549102783203125e+01 -8.926663994789123535e-01 1.544550800323486328e+01 4.365852355957031250e+00 4.172935962677001953e+00
7.991000000000000000e+03 7.183361816406250000e+01 3.170630645751953125e+01 -1.610386818647384644e-01 1.672923278808593750e+01 4.970458507537841797e+00 -4.163124561309814453e-01
7.992000000000000000e+03 7.236164855957031250e+01 3.239137268066406250e+01 2.670500755310058594e+00 1.642074012756347656e+01 5.727372646331787109e+00 -2.245684146881103516e+00
7.993000000000000000e+03 7.258557128906250000e+01 3.332373809814453125e+01 6.355528354644775391e+00 1.496982192993164062e+01 6.397604942321777344e+00 -1.702707171440124512e+00
7.994000000000000000e+03 7.132049560546875000e+01 3.606476593017578125e+01 -4.381541907787322998e-01 1.797534751892089844e+01 5.261157989501953125e+00 -5.117834210395812988e-01
7.995000000000000000e+03 2.652989768981933594e+01 2.666208505630493164e+00 -2.470147371292114258e+00 -7.239076495170593262e-01 -9.582164883613586426e-01 -9.816424846649169922e-01
7.996000000000000000e+03 2.535007667541503906e+01 2.354650259017944336e+00 -2.821107149124145508e+00 -5.352517366409301758e-01 -1.006907701492309570e+00 -1.142899990081787109e+00
7.997000000000000000e+03 2.371945190429687500e+01 6.443324089050292969e-01 -1.825826644897460938e+00 -3.684167983010411263e-03 -5.488532781600952148e-01 -9.762349724769592285e-01
7.998000000000000000e+03 2.503569412231445312e+01 1.772993564605712891e+00 -2.393075942993164062e+00 -3.726215958595275879e-01 -8.297092914581298828e-01 -9.316325783729553223e-01
7.999000000000000000e+03 2.516279220581054688e+01 2.105781078338623047e+00 -2.703527927398681641e+00 -4.552700817584991455e-01 -9.476394057273864746e-01 -1.061125397682189941e+00
8.000000000000000000e+03 4.646013259887695312e+01 -3.143641853332519531e+01 -1.544080227613449097e-01 1.061581254005432129e+00 2.721519768238067627e-01 2.201648205518722534e-01
8.001000000000000000e+03 2.918725776672363281e+01 4.327905654907226562e+00 -2.104647159576416016e+00 -1.132686018943786621e+00 -9.711999297142028809e-01 -8.947278857231140137e-01
8.002000000000000000e+03 3.468584442138671875e+01 -3.674479675292968750e+01 7.697016596794128418e-01 6.672852635383605957e-01 4.310960769653320312e-01 -6.343325376510620117e-01
8.003000000000000000e+03 1.329267501831054688e+01 2.588534355163574219e+00 7.210777401924133301e-01 1.801552772521972656e+00 7.567891478538513184e-01 -6.290970444679260254e-01
8.004000000000000000e+03 2.786522483825683594e+01 3.402644872665405273e+00 -2.252248764038085938e+00 -9.471089839935302734e-01 -9.598073363304138184e-01 -9.550369381904602051e-01
8.005000000000000000e+03 3.285670852661132812e+01 2.468739128112792969e+01 5.257095396518707275e-02 7.590264081954956055e-02 3.854208067059516907e-02 6.465250253677368164e-02
8.006000000000000000e+03 4.836741638183593750e+01 -3.613031005859375000e+01 5.397159457206726074e-01 1.520806550979614258e+00 6.181567907333374023e-01 5.566473603248596191e-01
8.007000000000000000e+03 4.230618667602539062e+01 3.768711090087890625e+01 9.137623012065887451e-02 3.446807712316513062e-02 3.775329142808914185e-02 3.465645015239715576e-02
8.008000000000000000e+03 2.689444160461425781e+01 2.979855775833129883e+00 -2.496934413909912109e+00 -7.913285493850708008e-01 -9.864789247512817383e-01 -1.005168676376342773e+00
8.009000000000000000e+03 2.246422576904296875e+01 7.899621129035949707e-01 -2.588274717330932617e+00 -1.396327614784240723e-01 -8.183722496032714844e-01 -1.955774307250976562e+00
8.010000000000000000e+03 6.807619476318359375e+01 3.138863945007324219e+01 5.293228030204772949e-01 3.074482440948486328e+00 1.081141591072082520e+00 3.239741086959838867e+00
8.011000000000000000e+03 2.932485580444335938e+01 3.656746149063110352e+00 -1.863159656524658203e+00 -9.904938936233520508e-01 -8.560960888862609863e-01 -7.003654241561889648e-01
8.012000000000000000e+03 2.559291648864746094e+01 2.301454782485961914e+00 -2.700416564941406250e+00 -5.863180160522460938e-01 -9.860203862190246582e-01 -1.046930670738220215e+00
8.013000000000000000e+03 2.559992790222167969e+01 2.029120206832885742e+00 -2.413893699645996094e+00 -5.059174895286560059e-01 -8.759433627128601074e-01 -9.457800984382629395e-01
8.014000000000000000e+03 1.787766647338867188e+01 -1.952093601226806641e+00 -2.361941337585449219e+00 -2.067775487899780273e+00 -1.328915119171142578e+00 -1.489267945289611816e+00
8.015000000000000000e+03 3.097362899780273438e+01 2.301580047607421875e+01 5.478931963443756104e-02 7.905922830104827881e-02 4.015456512570381165e-02 7.064352184534072876e-02
8.016000000000000000e+03 2.743617439270019531e+01 3.941028356552124023e+00 -2.673626422882080078e+00 -1.123516440391540527e+00 -1.139142870903015137e+00 -1.338727355003356934e+00
8.017000000000000000e+03 6.855307102203369141e+00 -3.163312149047851562e+01 7.024475932121276855e-02 -1.094521403312683105e+00 -3.072829842567443848e-01 -1.643885970115661621e-01
8.018000000000000000e+03 2.385435485839843750e+01 9.531158208847045898e-01 -2.182329654693603516e+00 -1.363150328397750854e-01 -6.955934166908264160e-01 -1.143162965774536133e+00
8.019000000000000000e+03 3.887448883056640625e+01 1.889962387084960938e+01 -1.225005507469177246e+00 -1.457804918289184570e+00 -8.048431277275085449e-01 -1.386379003524780273e+00
8.020000000000000000e+03 2.451753234863281250e+01 1.589126014709472656e+01 9.285560250282287598e-02 1.120710968971252441e-01 6.147801131010055542e-02 1.053686067461967468e-01
8.021000000000000000e+03 7.058222961425781250e+01 3.101320075988769531e+01 -1.192982912063598633e+00 1.315205287933349609e+01 3.587720870971679688e+00 3.564307451248168945e+00
8.022000000000000000e+03 6.929942321777343750e+01 3.155964469909667969e+01 6.350950002670288086e-01 7.173133850097656250e+00 2.342468500137329102e+00 5.189783096313476562e+00
8.023000000000000000e+03 7.271688842773437500e+01 3.354163360595703125e+01 6.732883930206298828e+00 1.448592948913574219e+01 6.365643978118896484e+00 -1.111078262329101562e+00
8.024000000000000000e+03 7.321404266357421875e+01 3.404665756225585938e+01 5.776607513427734375e+00 1.320260810852050781e+01 5.693764686584472656e+00 1.693237572908401489e-01
8.025000000000000000e+03 4.172746658325195312e+01 3.392720794677734375e+01 6.694115698337554932e-02 4.283011704683303833e-02 3.293138369917869568e-02 5.003159493207931519e-02
8.026000000000000000e+03 7.073647308349609375e+01 3.083291053771972656e+01 -1.377826690673828125e+00 1.335477828979492188e+01 3.593085527420043945e+00 3.126984119415283203e+00
8.027000000000000000e+03 7.314568328857421875e+01 3.249540710449218750e+01 3.200683116912841797e+00 1.400178909301757812e+01 5.160741806030273438e+00 -2.098017215728759766e+00
8.028000000000000000e+03 2.993006134033203125e+01 2.163660049438476562e+01 6.369791179895401001e-02 8.297057449817657471e-02 4.400054737925529480e-02 7.374127209186553955e-02
8.029000000000000000e+03 3.860653686523437500e+01 3.222732543945312500e+01 5.328045040369033813e-02 5.906219035387039185e-02 3.370279446244239807e-02 5.116437748074531555e-02
8.030000000000000000e+03 2.940631866455078125e+01 3.335885286331176758e+00 -1.770003557205200195e+00 -9.315713047981262207e-01 -8.104724884033203125e-01 -6.106882095336914062e-01
8.031000000000000000e+03 6.875920867919921875e+01 3.155405235290527344e+01 7.783554196357727051e-01 4.727974891662597656e+00 1.651899099349975586e+00 4.330286026000976562e+00
8.032000000000000000e+03 2.971273422241210938e+01 2.135519027709960938e+01 6.553293019533157349e-02 8.357182145118713379e-02 4.473142325878143311e-02 7.469588518142700195e-02
8.033000000000000000e+03 1.714910888671875000e+01 -6.731689929962158203e+00 -1.659198403358459473e-01 -1.355505585670471191e+00 -4.564276337623596191e-01 -7.581459879875183105e-01
8.034000000000000000e+03 7.380751037597656250e+01 3.641383743286132812e+01 1.145786404609680176e+00 1.244291973114013672e+01 4.076611518859863281e+00 1.892767310142517090e+00
8.035000000000000000e+03 2.750968551635742188e+01 2.919946670532226562e+00 -2.200292825698852539e+00 -8.637819290161132812e-01 -9.192224144935607910e-01 -8.780111074447631836e-01
8.036000000000000000e+03 5.880460357666015625e+01 3.146977615356445312e+01 -1.685230970382690430e+00 2.478309720754623413e-01 -4.312199950218200684e-01 -6.426607966423034668e-01
8.037000000000000000e+03 2.677697563171386719e+01 2.608688116073608398e+00 -2.427130222320556641e+00 -7.167973518371582031e-01 -9.431782364845275879e-01 -9.409849047660827637e-01
8.038000000000000000e+03 4.256061553955078125e+01 3.399866104125976562e+01 6.626565009355545044e-02 4.167174175381660461e-02 3.238121792674064636e-02 4.897692427039146423e-02
8.039000000000000000e+03 7.436223602294921875e+01 3.747990036010742188e+01 -2.500358819961547852e-01 1.168182754516601562e+01 3.429537296295166016e+00 1.648722648620605469e+00
8.040000000000000000e+03 3.838940429687500000e+01 3.302418899536132812e+01 5.652815476059913635e-02 5.929118022322654724e-02 3.474580124020576477e-02 4.919064044952392578e-02
8.041000000000000000e+03 2.680283737182617188e+01 2.823069334030151367e+00 -2.439465999603271484e+00 -7.534005641937255859e-01 -9.578599929809570312e-01 -9.824413061141967773e-01
8.042000000000000000e+03 2.684446334838867188e+01 2.358083248138427734e+00 -2.152339458465576172e+00 -6.455662250518798828e-01 -8.393717408180236816e-01 -7.470235824584960938e-01
8.043000000000000000e+03 2.608466339111328125e+01 2.190467834472656250e+00 -2.403378248214721680e+00 -5.266916751861572266e-01 -8.790209889411926270e-01 -8.639756441116333008e-01
8.044000000000000000e+03 2.809887695312500000e+01 2.065392875671386719e+01 6.480789184570312500e-02 9.188770502805709839e-02 4.700867831707000732e-02 7.901982218027114868e-02
8.045000000000000000e+03 2.379236221313476562e+01 1.572866153717041016e+01 8.972321450710296631e-02 1.191310286521911621e-01 6.265627592802047729e-02 1.053357869386672974e-01
8.046000000000000000e+03 2.411242866516113281e+01 1.545304203033447266e+01 9.538348019123077393e-02 1.174271702766418457e-01 6.384319812059402466e-02 1.080981940031051636e-01
8.047000000000000000e+03 7.055106353759765625e+01 3.079000473022460938e+01 -1.249903082847595215e+00 1.255405235290527344e+01 3.391244888305664062e+00 3.456820011138916016e+00
8.048000000000000000e+03 7.082595062255859375e+01 3.052323913574218750e+01 -1.503588795661926270e+00 1.295384788513183594e+01 3.435077667236328125e+00 2.818326711654663086e+00
8.049000000000000000e+03 2.903169822692871094e+01 -3.175438690185546875e+01 4.379926025867462158e-01 6.648656129837036133e-01 3.308574855327606201e-01 -4.480064213275909424e-01
8.050000000000000000e+03 5.330561828613281250e+01 -2.982359313964843750e+01 3.545517101883888245e-02 2.449784278869628906e+00 7.455718517303466797e-01 3.540838658809661865e-01
8.051000000000000000e+03 3.074848175048828125e+01 3.623632431030273438e+00 -1.497853159904479980e+00 -8.325870633125305176e-01 -6.991320848464965820e-01 -4.991173148155212402e-01
8.052000000000000000e+03 2.682357788085937500e+01 1.787606596946716309e+00 -1.825442075729370117e+00 -5.423331856727600098e-01 -7.103325724601745605e-01 -5.505778789520263672e-01
8.053000000000000000e+03 4.002673339843750000e+01 3.322700881958007812e+01 6.142505258321762085e-02 5.367299914360046387e-02 3.452941402792930603e-02 4.935890808701515198e-02
8.054000000000000000e+03 3.046219253540039062e+01 2.274299430847167969e+01 5.551452189683914185e-02 8.190242201089859009e-02 4.122508317232131958e-02 7.145885378122329712e-02
8.055000000000000000e+03 2.800604629516601562e+01 2.096593284606933594e+01 6.253712624311447144e-02 9.244401752948760986e-02 4.649434238672256470e-02 7.785483449697494507e-02
8.056000000000000000e+03 2.666855812072753906e+01 1.977890586853027344e+01 6.620305031538009644e-02 9.982009977102279663e-02 4.980694502592086792e-02 8.192142844200134277e-02
8.057000000000000000e+03 4.198734664916992188e+01 3.470261001586914062e+01 7.190944254398345947e-02 4.173746705055236816e-02 3.409407287836074829e-02 4.958016052842140198e-02
8.058000000000000000e+03 6.682214355468750000e+01 2.964508056640625000e+01 1.330131888389587402e-01 2.795499563217163086e+00 8.785538077354431152e-01 2.297551393508911133e+00
8.059000000000000000e+03 6.740264892578125000e+01 3.036848640441894531e+01 2.641185224056243896e-01 3.010654687881469727e+00 9.824319481849670410e-01 2.731814622879028320e+00
8.060000000000000000e+03 7.037497711181640625e+01 3.051953506469726562e+01 -1.185310244560241699e+00 1.139216423034667969e+01 3.062056064605712891e+00 3.661765813827514648e+00
8.061000000000000000e+03 2.430085754394531250e+01 8.220507502555847168e-01 -1.770753145217895508e+00 -1.961655728518962860e-02 -5.371109247207641602e-01 -8.860238194465637207e-01
8.062000000000000000e+03 2.411426925659179688e+01 1.152166008949279785e+00 -2.235750198364257812e+00 -1.172266453504562378e-01 -7.058930993080139160e-01 -1.029399871826171875e+00
8.063000000000000000e+03 7.322396850585937500e+01 3.511282730102539062e+01 3.857017278671264648e+00 1.374234294891357422e+01 5.279808044433593750e+00 1.817635178565979004e+00
8.064000000000000000e+03 7.325052642822265625e+01 3.575823974609375000e+01 2.096815586090087891e+00 1.419736385345458984e+01 4.888253688812255859e+00 1.661550283432006836e+00
8.065000000000000000e+03 2.939134979248046875e+01 3.047256231307983398e+00 -1.642374157905578613e+00 -8.864386677742004395e-01 -7.586438059806823730e-01 -5.325301885604858398e-01
8.066000000000000000e+03 2.973456764221191406e+01 3.340738296508789062e+00 -1.656214952468872070e+00 -9.111168384552001953e-01 -7.701995372772216797e-01 -5.556697845458984375e-01
8.067000000000000000e+03 2.977138137817382812e+01 2.951240062713623047e+00 -1.560600399971008301e+00 -8.284401297569274902e-01 -7.167121767997741699e-01 -4.482633173465728760e-01
8.068000000000000000e+03 3.253281402587890625e+01 1.080232620239257812e+01 -1.386039495468139648e+00 -1.434775590896606445e+00 -8.462445139884948730e-01 -1.333046436309814453e+00
8.069000000000000000e+03 7.291629791259765625e+00 -2.537152481079101562e+01 8.155883103609085083e-02 -9.281344413757324219e-01 -2.539726793766021729e-01 -2.651243805885314941e-01
8.070000000000000000e+03 4.224293136596679688e+01 3.540209960937500000e+01 7.303615659475326538e-02 4.170511290431022644e-02 3.442238271236419678e-02 4.755244031548500061e-02
8.071000000000000000e+03 3.361861801147460938e+01 2.765439605712890625e+01 4.753617569804191589e-02 7.488114386796951294e-02 3.672519698739051819e-02 5.857764557003974915e-02
8.072000000000000000e+03 7.360121917724609375e+01 3.304442214965820312e+01 4.173348426818847656e+00 1.266291713714599609e+01 5.050879478454589844e+00 -1.446959376335144043e+00
8.073000000000000000e+03 7.332077026367187500e+01 3.322694015502929688e+01 4.989179611206054688e+00 1.319339561462402344e+01 5.454772472381591797e+00 -1.359238386154174805e+00
8.074000000000000000e+03 2.554940223693847656e+01 1.708748102188110352e+00 -2.266074895858764648e+00 -3.926494419574737549e-01 -7.976172566413879395e-01 -7.662456631660461426e-01
8.075000000000000000e+03 2.575700569152832031e+01 2.848101997375488281e+01 1.986188255250453949e-02 8.337091654539108276e-02 3.096983954310417175e-02 4.511199519038200378e-02
8.076000000000000000e+03 5.232260894775390625e+01 -2.668945121765136719e+01 -3.046298958361148834e-02 2.214346647262573242e+00 6.551650762557983398e-01 2.553628385066986084e-01
8.077000000000000000e+03 2.776587867736816406e+01 2.091298675537109375e+01 6.150443851947784424e-02 9.300956875085830688e-02 4.635420069098472595e-02 7.768549025058746338e-02
8.078000000000000000e+03 2.699441909790039062e+01 2.796228408813476562e+00 -2.389137029647827148e+00 -7.906971573829650879e-01 -9.539502263069152832e-01 -9.571430683135986328e-01
8.079000000000000000e+03 2.409183502197265625e+01 1.573639392852783203e+01 9.088112413883209229e-02 1.171313747763633728e-01 6.240374967455863953e-02 1.060350686311721802e-01
8.080000000000000000e+03 7.009377288818359375e+01 3.079660224914550781e+01 -8.845832943916320801e-01 1.086070728302001953e+01 2.992837429046630859e+00 4.220566749572753906e+00
8.081000000000000000e+03 7.050075531005859375e+01 3.026730918884277344e+01 -1.326538443565368652e+00 1.149625587463378906e+01 3.050915241241455078e+00 3.250838518142700195e+00
8.082000000000000000e+03 2.472699928283691406e+01 7.910929918289184570e-01 -1.506048798561096191e+00 -7.063230127096176147e-02 -4.730043113231658936e-01 -6.866747736930847168e-01
8.083000000000000000e+03 2.504331970214843750e+01 6.857691407203674316e-01 -1.430055499076843262e+00 -9.560433030128479004e-02 -4.576979577541351318e-01 -5.279045104980468750e-01
8.084000000000000000e+03 3.706662368774414062e+01 3.314897537231445312e+01 4.873618483543395996e-02 6.234699115157127380e-02 3.332495316863059998e-02 4.639267176389694214e-02
8.085000000000000000e+03 3.587456512451171875e+01 3.085891914367675781e+01 4.686114564538002014e-02 6.849737465381622314e-02 3.460755571722984314e-02 5.054911226034164429e-02
8.086000000000000000e+03 7.686734008789062500e+01 3.308087158203125000e+01 1.178346872329711914e+00 8.443190574645996094e+00 2.886461257934570312e+00 -6.307926774024963379e-01
8.087000000000000000e+03 4.080683135986328125e+01 2.003965187072753906e+01 -1.194198608398437500e+00 -1.294251322746276855e+00 -7.465350031852722168e-01 -1.361348986625671387e+00
8.088000000000000000e+03 3.973712158203125000e+01 1.851066207885742188e+01 -1.196810245513916016e+00 -1.305920958518981934e+00 -7.508193850517272949e-01 -1.337840199470520020e+00
8.089000000000000000e+03 2.393468093872070312e+01 1.722999572753906250e+01 7.504250854253768921e-02 1.146269738674163818e-01 5.690084770321846008e-02 9.455753862857818604e-02
8.090000000000000000e+03 2.675671005249023438e+01 9.475699067115783691e-01 -1.239544510841369629e+00 -4.333334267139434814e-01 -5.018633604049682617e-01 -3.882723748683929443e-01
8.091000000000000000e+03 2.720273780822753906e+01 1.021989822387695312e+00 -1.217083573341369629e+00 -5.235128402709960938e-01 -5.221789479255676270e-01 -3.798829913139343262e-01
8.092000000000000000e+03 7.415252685546875000e+01 3.334650421142578125e+01 3.918271541595458984e+00 1.167626380920410156e+01 4.678360462188720703e+00 -8.799648284912109375e-01
8.093000000000000000e+03 3.478705978393554688e+01 2.848711013793945312e+01 4.976600036025047302e-02 7.337399572134017944e-02 3.694199770689010620e-02 5.798241123557090759e-02
8.094000000000000000e+03 2.949541473388671875e+01 3.064067649841308594e+01 3.063567355275154114e-02 7.711943984031677246e-02 3.232653439044952393e-02 4.545114561915397644e-02
8.095000000000000000e+03 7.522897338867187500e+01 -3.510160446166992188e+01 -1.279649557545781136e-03 6.081784725189208984e+00 1.824151515960693359e+00 4.557558521628379822e-02
8.096000000000000000e+03 5.318062591552734375e+01 2.998843002319335938e+01 -1.340700745582580566e+00 -1.386926174163818359e-01 -4.438180029392242432e-01 -8.979831337928771973e-01
8.097000000000000000e+03 3.270192337036132812e+01 -4.103826522827148438e+00 6.690484881401062012e-01 -5.965314507484436035e-01 2.175510674715042114e-02 -1.233362499624490738e-02
8.098000000000000000e+03 5.246270751953125000e+01 3.099365425109863281e+01 -1.288309216499328613e+00 -4.020083844661712646e-01 -5.070952773094177246e-01 -9.010006785392761230e-01
8.099000000000000000e+03 5.234127044677734375e+01 3.047470474243164062e+01 -1.324978709220886230e+00 -3.930177986621856689e-01 -5.153989195823669434e-01 -9.294695258140563965e-01
8.100000000000000000e+03 2.790622711181640625e+01 2.124396705627441406e+01 5.842416733503341675e-02 9.273698180913925171e-02 4.534834623336791992e-02 7.609765231609344482e-02
8.101000000000000000e+03 3.577417373657226562e+01 2.842469787597656250e+01 5.337394401431083679e-02 7.108046114444732666e-02 3.733631968498229980e-02 5.737335607409477234e-02
8.102000000000000000e+03 7.179031372070312500e+01 3.075580406188964844e+01 -1.309426784515380859e+00 1.452135658264160156e+01 3.963578701019287109e+00 6.365232467651367188e-01
8.103000000000000000e+03 2.329716873168945312e+01 1.671083641052246094e+01 7.504091411828994751e-02 1.199049577116966248e-01 5.848376080393791199e-02 9.647702425718307495e-02
8.104000000000000000e+03 9.840866088867187500e+00 -7.459534645080566406e+00 -3.016115725040435791e-01 -3.250425159931182861e-01 -1.879962235689163208e-01 -5.677748322486877441e-01
8.105000000000000000e+03 5.869515991210937500e+01 -2.388238525390625000e+01 6.425453722476959229e-02 3.304472923278808594e+00 1.010618209838867188e+00 2.888564169406890869e-01
8.106000000000000000e+03 1.040897750854492188e+01 -2.411850738525390625e+01 1.414909511804580688e-01 -7.167802453041076660e-01 -1.725867986679077148e-01 -3.413212597370147705e-01
8.107000000000000000e+03 3.308133316040039062e+01 2.585728073120117188e+01 4.983593150973320007e-02 7.550425082445144653e-02 3.760205581784248352e-02 6.203009560704231262e-02
8.108000000000000000e+03 3.308364105224609375e+01 2.613401222229003906e+01 4.975901916623115540e-02 7.582007348537445068e-02 3.767372667789459229e-02 6.200300157070159912e-02
8.109000000000000000e+03 3.084804534912109375e+01 3.151984691619873047e+00 -1.378852009773254395e+00 -8.137239813804626465e-01 -6.577727794647216797e-01 -4.143303930759429932e-01
8.110000000000000000e+03 2.654190635681152344e+01 2.119283676147460938e+01 5.334959551692008972e-02 9.828440845012664795e-02 4.549020156264305115e-02 7.503651082515716553e-02
8.111000000000000000e+03 7.358641052246093750e+01 3.543613433837890625e+01 2.920511007308959961e+00 1.300166702270507812e+01 4.776653289794921875e+00 1.682957649230957031e+00
8.112000000000000000e+03 7.489641571044921875e+01 3.458663940429687500e+01 2.821275949478149414e+00 1.063532161712646484e+01 4.036979198455810547e+00 7.672473192214965820e-01
8.113000000000000000e+03 7.578369903564453125e+01 3.452726364135742188e+01 2.076362609863281250e+00 9.578746795654296875e+00 3.496532678604125977e+00 5.503002405166625977e-01
8.114000000000000000e+03 3.833824920654296875e+01 1.641396713256835938e+01 -1.209295034408569336e+00 -1.394158720970153809e+00 -7.810361385345458984e-01 -1.277777910232543945e+00
8.115000000000000000e+03 1.754917907714843750e+01 1.030514335632324219e+01 1.041141748428344727e-01 1.999995410442352295e-01 9.123411029577255249e-02 1.374702304601669312e-01
8.116000000000000000e+03 3.069261360168457031e+01 2.893347740173339844e+00 -1.304543375968933105e+00 -7.792127132415771484e-01 -6.251268386840820312e-01 -3.512186408042907715e-01
8.117000000000000000e+03 3.130178833007812500e+01 3.158579111099243164e+00 -1.237204790115356445e+00 -7.608208656311035156e-01 -5.994076728820800781e-01 -3.609558343887329102e-01
8.118000000000000000e+03 3.210298156738281250e+01 3.000683069229125977e+00 -1.057437777519226074e+00 -6.997900009155273438e-01 -5.271683335304260254e-01 -2.986966669559478760e-01
8.119000000000000000e+03 3.211783218383789062e+01 2.577708244323730469e+00 -9.612573981285095215e-01 -7.178965806961059570e-01 -5.037462115287780762e-01 -2.346907705068588257e-01
8.120000000000000000e+03 2.297730636596679688e+01 1.648058700561523438e+01 7.569395750761032104e-02 1.224679872393608093e-01 5.944858491420745850e-02 9.717070311307907104e-02
8.121000000000000000e+03 2.315446853637695312e+01 1.619409370422363281e+01 7.980655133724212646e-02 1.226912811398506165e-01 6.074934825301170349e-02 1.001402959227561951e-01
8.122000000000000000e+03 2.108933830261230469e+01 2.505805969238281250e+01 1.170239318162202835e-02 9.046585112810134888e-02 3.065047226846218109e-02 4.274816438555717468e-02
8.123000000000000000e+03 5.612993621826171875e+01 2.831780242919921875e+01 -1.101739645004272461e+00 3.661221563816070557e-01 -2.206852436065673828e-01 -7.626020312309265137e-01
8.124000000000000000e+03 5.592176818847656250e+01 2.881913948059082031e+01 -1.185038685798645020e+00 3.300638198852539062e-01 -2.564924657344818115e-01 -8.003853559494018555e-01
8.125000000000000000e+03 1.834867477416992188e+01 -1.389191627502441406e+01 2.726837396621704102e-01 -3.639549911022186279e-01 -2.738138288259506226e-02 -3.142116665840148926e-01
8.126000000000000000e+03 7.456098175048828125e+01 2.380389976501464844e+01 -7.617316246032714844e-01 9.187973976135253906e+00 2.527872800827026367e+00 -2.182607538998126984e-02
8.127000000000000000e+03 6.993335723876953125e+01 3.041565704345703125e+01 -9.080958962440490723e-01 1.021327686309814453e+01 2.791554212570190430e+00 3.878413677215576172e+00
8.128000000000000000e+03 6.969583892822265625e+01 3.006461524963378906e+01 -7.725464105606079102e-01 9.034542083740234375e+00 2.478598833084106445e+00 3.841107130050659180e+00
8.129000000000000000e+03 3.555103302001953125e+01 2.873153114318847656e+01 5.217999964952468872e-02 7.189580798149108887e-02 3.722274303436279297e-02 5.776662752032279968e-02
8.130000000000000000e+03 5.214618682861328125e+01 3.079211997985839844e+01 -1.293589830398559570e+00 -5.141355395317077637e-01 -5.423176288604736328e-01 -9.339079856872558594e-01
8.131000000000000000e+03 5.186100769042968750e+01 3.059204483032226562e+01 -1.300735831260681152e+00 -5.909400582313537598e-01 -5.675027370452880859e-01 -9.673074483871459961e-01
8.132000000000000000e+03 1.617349052429199219e+01 7.644152164459228516e+00 1.361334472894668579e-01 2.683644890785217285e-01 1.213493868708610535e-01 1.875786632299423218e-01
8.133000000000000000e+03 2.696089172363281250e+01 2.120387649536132812e+01 5.491648986935615540e-02 9.635670483112335205e-02 4.538195580244064331e-02 7.532464712858200073e-02
8.134000000000000000e+03 5.166456222534179688e+01 3.033702087402343750e+01 -1.318419456481933594e+00 -6.262451410293579102e-01 -5.833993554115295410e-01 -9.910600781440734863e-01
8.135000000000000000e+03 2.728848075866699219e+01 2.078375244140625000e+01 6.067764759063720703e-02 9.616916626691818237e-02 4.705404490232467651e-02 7.838614284992218018e-02
8.136000000000000000e+03 2.730533218383789062e+01 2.036463737487792969e+01 6.370360404253005981e-02 9.620646387338638306e-02 4.797301813960075378e-02 7.993258535861968994e-02
8.137000000000000000e+03 1.621509742736816406e+01 8.404542922973632812e+00 1.183155030012130737e-01 2.562748789787292480e-01 1.123771145939826965e-01 1.653674989938735962e-01
8.138000000000000000e+03 7.542515563964843750e+01 3.368396377563476562e+01 2.536378383636474609e+00 9.915345191955566406e+00 3.735517024993896484e+00 -3.185925185680389404e-01
8.139000000000000000e+03 7.445969390869140625e+01 3.189228248596191406e+01 1.739591240882873535e+00 1.164990806579589844e+01 4.016849994659423828e+00 -1.878973722457885742e+00
8.140000000000000000e+03 3.104142189025878906e+01 2.878250837326049805e+00 -1.237500548362731934e+00 -7.478504180908203125e-01 -5.956053137779235840e-01 -3.106090724468231201e-01
8.141000000000000000e+03 1.750137329101562500e+01 -2.159490966796875000e+01 2.437123209238052368e-01 -2.381940633058547974e-01 1.655476517044007778e-03 -3.609709441661834717e-01
8.142000000000000000e+03 4.629333877563476562e+01 -1.695979499816894531e+01 1.934915632009506226e-01 8.687829971313476562e-01 3.186823725700378418e-01 5.852967873215675354e-02
8.143000000000000000e+03 2.331578063964843750e+01 1.780149650573730469e+01 6.475635617971420288e-02 1.163874268531799316e-01 5.434313416481018066e-02 8.853829652070999146e-02
8.144000000000000000e+03 1.520399379730224609e+01 8.650725364685058594e+00 8.458779007196426392e-02 2.834202647209167480e-01 1.104024201631546021e-01 1.322072893381118774e-01
8.145000000000000000e+03 6.989743804931640625e+01 2.980338478088378906e+01 -9.954621791839599609e-01 9.411859512329101562e+00 2.524919033050537109e+00 3.556637048721313477e+00
8.146000000000000000e+03 3.431876754760742188e+01 3.543591499328613281e+00 -7.972112298011779785e-01 -6.527900099754333496e-01 -4.350003898143768311e-01 -3.225516080856323242e-01
8.147000000000000000e+03 5.616073608398437500e+01 2.784659767150878906e+01 -1.034559845924377441e+00 3.963733613491058350e-01 -1.914559304714202881e-01 -7.251026034355163574e-01
8.148000000000000000e+03 6.660754394531250000e+01 2.893480110168457031e+01 9.609460085630416870e-02 3.082656860351562500e+00 9.536254405975341797e-01 2.191908359527587891e+00
8.149000000000000000e+03 6.641160583496093750e+01 2.871459960937500000e+01 8.522434532642364502e-02 2.989899396896362305e+00 9.225371479988098145e-01 2.053622245788574219e+00
8.150000000000000000e+03 2.577666473388671875e+01 2.287649154663085938e+01 3.890195116400718689e-02 9.706553071737289429e-02 4.079024493694305420e-02 6.629505753517150879e-02
8.151000000000000000e+03 1.120537853240966797e+01 -2.278910827636718750e+01 1.624419689178466797e-01 -6.715520620346069336e-01 -1.527330279350280762e-01 -3.670815825462341309e-01
8.152000000000000000e+03 1.805619239807128906e+01 -1.640812110900878906e+01 2.510579824447631836e-01 -3.052195012569427490e-01 -1.624845340847969055e-02 -3.617316186428070068e-01
8.153000000000000000e+03 7.183584594726562500e+01 2.908287620544433594e+01 -1.670222759246826172e+00 1.183764457702636719e+01 3.050226688385009766e+00 9.904599189758300781e-01
8.154000000000000000e+03 6.423833465576171875e+01 2.788596153259277344e+01 -4.626427218317985535e-02 1.819225788116455078e+00 5.318884253501892090e-01 9.965186715126037598e-01
8.155000000000000000e+03 1.607892036437988281e+01 8.048324584960937500e+00 1.228587627410888672e-01 2.680469453334808350e-01 1.172717139124870300e-01 1.743658632040023804e-01
8.156000000000000000e+03 7.451184844970703125e+01 3.410573959350585938e+01 3.610046386718750000e+00 1.105138492584228516e+01 4.398429393768310547e+00 1.121179386973381042e-01
8.157000000000000000e+03 2.047428512573242188e+01 1.282963848114013672e+01 1.009415835142135620e-01 1.492784768342971802e-01 7.506602257490158081e-02 1.215159967541694641e-01
8.158000000000000000e+03 2.935034751892089844e+01 2.404718971252441406e+01 4.571332037448883057e-02 8.534759283065795898e-02 3.931827470660209656e-02 6.712384521961212158e-02
8.159000000000000000e+03 4.128039932250976562e+01 1.933371734619140625e+01 -1.129615068435668945e+00 -1.223160743713378906e+00 -7.058327794075012207e-01 -1.298071026802062988e+00
8.160000000000000000e+03 4.124133300781250000e+01 1.958588600158691406e+01 -1.144118070602416992e+00 -1.243556857109069824e+00 -7.163025140762329102e-01 -1.313566327095031738e+00
8.161000000000000000e+03 4.107628631591796875e+01 1.990339469909667969e+01 -1.177563190460205078e+00 -1.276139616966247559e+00 -7.361108660697937012e-01 -1.343181133270263672e+00
8.162000000000000000e+03 5.211030960083007812e+01 2.765957450866699219e+01 -1.227784514427185059e+00 -2.799169123172760010e-01 -4.523104429244995117e-01 -9.025741219520568848e-01
8.163000000000000000e+03 4.173770523071289062e+01 1.830962371826171875e+01 -1.045336246490478516e+00 -1.107082724571228027e+00 -6.457256674766540527e-01 -1.194250583648681641e+00
8.164000000000000000e+03 3.961552810668945312e+01 1.714919281005859375e+01 -1.158681988716125488e+00 -1.246445298194885254e+00 -7.215381860733032227e-01 -1.245646834373474121e+00
8.165000000000000000e+03 2.799419784545898438e+01 2.640638542175292969e+01 3.189310058951377869e-02 8.607705682516098022e-02 3.539104759693145752e-02 5.705067142844200134e-02
8.166000000000000000e+03 7.249924468994140625e+01 -2.905885124206542969e+01 2.698586136102676392e-02 5.710738658905029297e+00 1.721317291259765625e+00 1.519062817096710205e-01
8.167000000000000000e+03 2.384107589721679688e+01 1.878812408447265625e+01 5.930913984775543213e-02 1.116006597876548767e-01 5.127293989062309265e-02 8.307360857725143433e-02
8.168000000000000000e+03 7.287750244140625000e+01 -2.689985656738281250e+01 1.733153499662876129e-02 5.794940471649169922e+00 1.743681550025939941e+00 1.669718176126480103e-01
8.169000000000000000e+03 1.178187370300292969e+01 -1.845568466186523438e+01 1.834729015827178955e-01 -6.178145408630371094e-01 -1.303024888038635254e-01 -4.545193314552307129e-01
8.170000000000000000e+03 7.156120300292968750e+01 -2.321878242492675781e+01 3.402261063456535339e-02 5.669064521789550781e+00 1.710926175117492676e+00 2.154782563447952271e-01
8.171000000000000000e+03 2.269408035278320312e+01 1.789500617980957031e+01 5.951780080795288086e-02 1.187600269913673401e-01 5.348334833979606628e-02 8.593055605888366699e-02
8.172000000000000000e+03 7.296351623535156250e+01 2.542299842834472656e+01 -1.176822900772094727e+00 9.416225433349609375e+00 2.471820831298828125e+00 3.291937112808227539e-01
8.173000000000000000e+03 4.166569137573242188e+01 1.985298538208007812e+01 -1.142829775810241699e+00 -1.237297415733337402e+00 -7.140381336212158203e-01 -1.295994400978088379e+00
8.174000000000000000e+03 1.778743362426757812e+01 1.351413726806640625e+01 6.084988638758659363e-02 1.643590480089187622e-01 6.756268441677093506e-02 9.656655788421630859e-02
8.175000000000000000e+03 1.579121875762939453e+01 8.729730606079101562e+00 9.772970527410507202e-02 2.645210623741149902e-01 1.086752340197563171e-01 1.476906239986419678e-01
8.176000000000000000e+03 1.613440132141113281e+01 1.046741294860839844e+01 7.651853561401367188e-02 2.204719632863998413e-01 8.909714967012405396e-02 1.161329299211502075e-01
8.177000000000000000e+03 1.492866039276123047e+01 9.058693885803222656e+00 7.095030695199966431e-02 2.756160795688629150e-01 1.039699167013168335e-01 1.122925207018852234e-01
8.178000000000000000e+03 1.324177169799804688e+01 9.657167434692382812e+00 5.087355524301528931e-02 2.445576786994934082e-01 8.862936496734619141e-02 3.949080407619476318e-02
8.179000000000000000e+03 2.510263061523437500e+01 2.070005226135253906e+01 5.056510493159294128e-02 1.036209985613822937e-01 4.625583067536354065e-02 7.506764680147171021e-02
8.180000000000000000e+03 6.590161895751953125e+01 2.798892974853515625e+01 4.893632978200912476e-02 2.899290800094604492e+00 8.844681382179260254e-01 1.767836093902587891e+00
8.181000000000000000e+03 3.437896728515625000e+01 2.569541931152343750e+00 -6.403678655624389648e-01 -6.433182954788208008e-01 -3.851058483123779297e-01 -1.879060417413711548e-01
8.182000000000000000e+03 3.514984130859375000e+01 1.042278385162353516e+01 -1.122468590736389160e+00 -1.209292769432067871e+00 -6.995283961296081543e-01 -1.087506890296936035e+00
8.183000000000000000e+03 4.145941925048828125e+01 1.998148727416992188e+01 -1.170231223106384277e+00 -1.262058734893798828e+00 -7.296869754791259766e-01 -1.320796608924865723e+00
8.184000000000000000e+03 5.861289215087890625e+01 2.634887313842773438e+01 -5.442803502082824707e-01 8.238139152526855469e-01 8.386008441448211670e-02 -3.244920670986175537e-01
8.185000000000000000e+03 2.560564804077148438e+01 2.232747077941894531e+01 4.116647318005561829e-02 9.910723567008972168e-02 4.208211228251457214e-02 6.803789734840393066e-02
8.186000000000000000e+03 3.417573928833007812e+01 3.171221733093261719e+00 -7.448291182518005371e-01 -6.636631488800048828e-01 -4.225476980209350586e-01 -2.701562345027923584e-01
8.187000000000000000e+03 3.522589111328125000e+01 6.321642398834228516e+00 -9.423592090606689453e-01 -7.977730631828308105e-01 -5.220397114753723145e-01 -6.655680537223815918e-01
8.188000000000000000e+03 2.356134986877441406e+01 1.898737525939941406e+01 5.618783831596374512e-02 1.121869087219238281e-01 5.051242560148239136e-02 8.104656636714935303e-02
8.189000000000000000e+03 7.295742034912109375e+01 2.901433181762695312e+01 -1.409246325492858887e+00 1.183292961120605469e+01 3.127105236053466797e+00 -2.002365291118621826e-01
8.190000000000000000e+03 1.067632102966308594e+01 -1.103638553619384766e+01 -4.103042930364608765e-02 -5.622430443763732910e-01 -1.809820532798767090e-01 -6.275547742843627930e-01
8.191000000000000000e+03 3.749438095092773438e+01 7.321474075317382812e+00 -7.501072883605957031e-01 -7.266084551811218262e-01 -4.430147111415863037e-01 -5.998103022575378418e-01
8.192000000000000000e+03 1.527270317077636719e+01 9.014036178588867188e+00 8.314396440982818604e-02 2.697623074054718018e-01 1.058718860149383545e-01 1.259543895721435547e-01
8.193000000000000000e+03 1.128674697875976562e+01 -1.334150791168212891e+01 8.689773827791213989e-02 -6.179841756820678711e-01 -1.593259274959564209e-01 -5.849100947380065918e-01
8.194000000000000000e+03 7.205926513671875000e+01 2.550533866882324219e+01 -1.214045405387878418e+00 9.094850540161132812e+00 2.364241600036621094e+00 7.678628563880920410e-01
8.195000000000000000e+03 7.181678009033203125e+01 2.598250198364257812e+01 -1.290640115737915039e+00 9.229619026184082031e+00 2.381693840026855469e+00 9.049013853073120117e-01
8.196000000000000000e+03 3.704069519042968750e+01 -2.655566453933715820e+00 3.639264106750488281e-01 -4.907581210136413574e-01 -3.804950788617134094e-02 7.389008253812789917e-02
8.197000000000000000e+03 7.177511596679687500e+01 1.210296726226806641e+01 1.353536080569028854e-02 6.772252559661865234e+00 2.035736322402954102e+00 6.772015094757080078e-01
8.198000000000000000e+03 7.044270324707031250e+01 1.044136619567871094e+01 7.643764466047286987e-02 6.270644664764404297e+00 1.904124736785888672e+00 7.102543115615844727e-01
8.199000000000000000e+03 3.372690582275390625e+01 -1.501816034317016602e+00 2.247552126646041870e-01 -6.384214758872985840e-01 -1.240998804569244385e-01 6.402624398469924927e-02
8.200000000000000000e+03 5.227076721191406250e+01 2.734503364562988281e+01 -1.194524288177490234e+00 -2.228174805641174316e-01 -4.252025187015533447e-01 -8.771132230758666992e-01
8.201000000000000000e+03 2.226025772094726562e+01 1.502767848968505859e+01 8.843711763620376587e-02 1.303947865962982178e-01 6.564956903457641602e-02 1.049536243081092834e-01
8.202000000000000000e+03 2.060945320129394531e+01 1.390760231018066406e+01 8.747559785842895508e-02 1.438219994306564331e-01 6.938927620649337769e-02 1.106231138110160828e-01
8.203000000000000000e+03 2.025104522705078125e+01 1.386524677276611328e+01 8.443731814622879028e-02 1.452045142650604248e-01 6.889254599809646606e-02 1.095087602734565735e-01
8.204000000000000000e+03 3.921436309814453125e+01 1.673093223571777344e+01 -1.173146128654479980e+00 -1.287436723709106445e+00 -7.381748557090759277e-01 -1.237952113151550293e+00
8.205000000000000000e+03 1.384468936920166016e+01 -1.853685379028320312e+01 2.266895920038223267e-01 -5.415463447570800781e-01 -9.445702284574508667e-02 -4.348756372928619385e-01
8.206000000000000000e+03 3.498466873168945312e+01 2.935942173004150391e+00 -6.211293935775756836e-01 -6.279486417770385742e-01 -3.747234046459197998e-01 -2.203275114297866821e-01
8.207000000000000000e+03 6.045383834838867188e+01 2.515422821044921875e+01 -1.996773034334182739e-01 1.376815557479858398e+00 3.531414866447448730e-01 1.431146860122680664e-01
8.208000000000000000e+03 7.051840209960937500e+01 1.850871086120605469e+01 -2.348079830408096313e-01 6.692826271057128906e+00 1.937405467033386230e+00 8.445824384689331055e-01
8.209000000000000000e+03 7.077934265136718750e+01 1.744474411010742188e+01 -1.809439361095428467e-01 6.730241775512695312e+00 1.964789271354675293e+00 7.916163802146911621e-01
8.210000000000000000e+03 2.327340126037597656e+01 1.906625366210937500e+01 5.351763218641281128e-02 1.132745295763015747e-01 5.003764852881431580e-02 7.994505017995834351e-02
8.211000000000000000e+03 7.136339569091796875e+01 2.713196563720703125e+01 -1.442563772201538086e+00 9.627757072448730469e+00 2.455558061599731445e+00 1.323942065238952637e+00
8.212000000000000000e+03 1.484148216247558594e+01 9.635860443115234375e+00 6.337858736515045166e-02 2.562955617904663086e-01 9.590224921703338623e-02 9.889824688434600830e-02
8.213000000000000000e+03 7.166251373291015625e+01 2.639027595520019531e+01 -1.335853219032287598e+00 9.358077049255371094e+00 2.406667232513427734e+00 1.004557490348815918e+00
8.214000000000000000e+03 7.133218383789062500e+01 2.583488464355468750e+01 -1.227717876434326172e+00 8.856294631958007812e+00 2.288573026657104492e+00 1.168160080909729004e+00
8.215000000000000000e+03 4.898989105224609375e+01 2.587971305847167969e+01 -1.242936253547668457e+00 -8.088339567184448242e-01 -6.155310869216918945e-01 -1.094827294349670410e+00
8.216000000000000000e+03 7.083091735839843750e+01 2.643656730651855469e+01 -1.247142672538757324e+00 8.773874282836914062e+00 2.258019685745239258e+00 1.501914501190185547e+00
8.217000000000000000e+03 3.352181625366210938e+01 -6.483462452888488770e-01 2.976363524794578552e-02 -6.406566500663757324e-01 -1.832679063081741333e-01 5.533776059746742249e-02
8.218000000000000000e+03 7.025899505615234375e+01 2.584313583374023438e+01 -1.029345989227294922e+00 7.977043628692626953e+00 2.084309339523315430e+00 1.586806297302246094e+00
8.219000000000000000e+03 6.894325256347656250e+01 1.019868278503417969e+01 1.024816036224365234e-01 5.742480754852294922e+00 1.753488779067993164e+00 7.439098358154296875e-01
8.220000000000000000e+03 9.182874679565429688e+00 1.383312320709228516e+01 2.147003635764122009e-02 4.104044660925865173e-02 1.875314489006996155e-02 -1.700729131698608398e-02
8.221000000000000000e+03 3.508986663818359375e+01 -6.928002238273620605e-01 7.997214049100875854e-02 -6.066868305206298828e-01 -1.580144166946411133e-01 5.722555518150329590e-02
8.222000000000000000e+03 1.512700462341308594e+01 9.669174194335937500e+00 7.105264812707901001e-02 2.489165365695953369e-01 9.599075466394424438e-02 1.085603535175323486e-01
8.223000000000000000e+03 7.229209136962890625e+01 2.719727325439453125e+01 -1.495987534523010254e+00 1.024374961853027344e+01 2.624328374862670898e+00 6.468081474304199219e-01
8.224000000000000000e+03 7.183697509765625000e+01 2.722151947021484375e+01 -1.502215147018432617e+00 1.003378105163574219e+01 2.559469938278198242e+00 9.808876514434814453e-01
8.225000000000000000e+03 4.887722396850585938e+01 2.534465789794921875e+01 -1.198601841926574707e+00 -7.609689235687255859e-01 -5.878711938858032227e-01 -1.064248681068420410e+00
8.226000000000000000e+03 2.295785522460937500e+01 1.910526275634765625e+01 5.098016932606697083e-02 1.138642355799674988e-01 4.945332184433937073e-02 7.872278988361358643e-02
8.227000000000000000e+03 6.998588562011718750e+01 1.898865699768066406e+01 -2.635796070098876953e-01 6.495626926422119141e+00 1.869614124298095703e+00 9.243140816688537598e-01
8.228000000000000000e+03 5.792425918579101562e+01 2.516254997253417969e+01 -4.771489500999450684e-01 8.796359300613403320e-01 1.207460910081863403e-01 -2.819991111755371094e-01
8.229000000000000000e+03 5.732004928588867188e+01 2.461547088623046875e+01 -4.802320599555969238e-01 8.503572344779968262e-01 1.110375523567199707e-01 -2.998160421848297119e-01
8.230000000000000000e+03 5.970938491821289062e+01 2.470679092407226562e+01 -2.371920645236968994e-01 1.295467853546142578e+00 3.174827396869659424e-01 4.662635549902915955e-02
8.231000000000000000e+03 6.872450256347656250e+01 8.696825027465820312e+00 1.050676554441452026e-01 5.633069515228271484e+00 1.721441149711608887e+00 7.320104837417602539e-01
8.232000000000000000e+03 6.682766723632812500e+01 2.687462806701660156e+01 -1.186522394418716431e-01 4.256109237670898438e+00 1.241237163543701172e+00 2.035279512405395508e+00
8.233000000000000000e+03 6.690208435058593750e+01 2.647304153442382812e+01 -1.482036262750625610e-01 4.459532260894775391e+00 1.293398618698120117e+00 1.987522721290588379e+00
8.234000000000000000e+03 8.459154129028320312e+00 9.185790061950683594e+00 9.366152435541152954e-02 1.856010057963430882e-03 2.865526080131530762e-02 -2.184443175792694092e-02
8.235000000000000000e+03 3.343587112426757812e+01 9.484150260686874390e-02 -1.548705399036407471e-01 -6.463592052459716797e-01 -2.403689175844192505e-01 2.383345365524291992e-02
8.236000000000000000e+03 1.850489997863769531e+01 1.480117988586425781e+01 5.618631467223167419e-02 1.481314599514007568e-01 6.129533424973487854e-02 8.961078524589538574e-02
8.237000000000000000e+03 1.637001800537109375e+01 1.358970642089843750e+01 4.461781308054924011e-02 1.681330204010009766e-01 6.382524967193603516e-02 7.881540805101394653e-02
8.238000000000000000e+03 3.642060852050781250e+01 1.083119034767150879e+00 -1.999633610248565674e-01 -5.523984432220458984e-01 -2.257085293531417847e-01 -3.693312406539916992e-02
8.239000000000000000e+03 3.723269271850585938e+01 1.215727519989013672e+01 -1.042907953262329102e+00 -1.149363875389099121e+00 -6.576815247535705566e-01 -1.051630973815917969e+00
8.240000000000000000e+03 1.571077632904052734e+01 1.288684082031250000e+01 4.365001246333122253e-02 1.773663312196731567e-01 6.630489975214004517e-02 7.699693739414215088e-02
8.241000000000000000e+03 2.060967445373535156e+01 1.456684207916259766e+01 7.930903136730194092e-02 1.406906545162200928e-01 6.599990278482437134e-02 1.038665771484375000e-01
8.242000000000000000e+03 6.902079010009765625e+01 -1.770798492431640625e+01 5.636515095829963684e-02 5.254518985748291016e+00 1.593265175819396973e+00 2.950479090213775635e-01
8.243000000000000000e+03 1.949149322509765625e+01 2.031057357788085938e+01 2.241053432226181030e-02 1.105667799711227417e-01 3.989319503307342529e-02 5.467342585325241089e-02
8.244000000000000000e+03 1.822509193420410156e+01 1.504174709320068359e+01 4.965554177761077881e-02 1.485745608806610107e-01 5.946903303265571594e-02 8.393300324678421021e-02
8.245000000000000000e+03 1.837701034545898438e+01 1.565830898284912109e+01 4.647994786500930786e-02 1.433711796998977661e-01 5.695533752441406250e-02 8.020921796560287476e-02
8.246000000000000000e+03 3.692747497558593750e+01 1.030025005340576172e+00 -1.270448714494705200e-01 -4.959439635276794434e-01 -1.868966519832611084e-01 -1.844230107963085175e-02
8.247000000000000000e+03 7.037336730957031250e+01 2.476896286010742188e+01 -9.037656784057617188e-01 7.699712753295898438e+00 2.038784027099609375e+00 1.338733196258544922e+00
8.248000000000000000e+03 4.931722259521484375e+01 -1.496786117553710938e+01 2.632153034210205078e-01 1.392523765563964844e+00 4.967217147350311279e-01 1.193459779024124146e-01
8.249000000000000000e+03 6.053603744506835938e+01 -9.848618507385253906e+00 2.218630164861679077e-01 3.542340040206909180e+00 1.129260897636413574e+00 3.888317644596099854e-01
8.250000000000000000e+03 5.943777465820312500e+01 -9.739196777343750000e+00 2.470471262931823730e-01 3.273118495941162109e+00 1.056049704551696777e+00 3.986138403415679932e-01
8.251000000000000000e+03 4.969918441772460938e+01 -8.995063781738281250e+00 3.903895914554595947e-01 1.321280360221862793e+00 5.135009884834289551e-01 2.024586349725723267e-01
8.252000000000000000e+03 1.986251640319824219e+01 1.969438171386718750e+01 2.813211083412170410e-02 1.149463281035423279e-01 4.292353242635726929e-02 6.066763028502464294e-02
8.253000000000000000e+03 4.894938278198242188e+01 2.456119155883789062e+01 -1.136875510215759277e+00 -6.814164519309997559e-01 -5.454875826835632324e-01 -1.002848029136657715e+00
8.254000000000000000e+03 4.921566772460937500e+01 2.472751617431640625e+01 -1.129326224327087402e+00 -6.452268362045288086e-01 -5.323659181594848633e-01 -9.910050034523010254e-01
8.255000000000000000e+03 3.653956985473632812e+01 6.487176418304443359e-01 -9.061123430728912354e-02 -5.259727239608764648e-01 -1.849751919507980347e-01 1.859938842244446278e-03
8.256000000000000000e+03 1.995409202575683594e+01 2.008301353454589844e+01 2.612586691975593567e-02 1.132020577788352966e-01 4.179837927222251892e-02 5.902499333024024963e-02
8.257000000000000000e+03 3.716322326660156250e+01 1.822802305221557617e+00 -2.269046604633331299e-01 -5.002198815345764160e-01 -2.181373685598373413e-01 -7.529998570680618286e-02
8.258000000000000000e+03 3.941022109985351562e+01 5.672535419464111328e+00 -4.517453312873840332e-01 -4.745886921882629395e-01 -2.779002189636230469e-01 -3.297947645187377930e-01
8.259000000000000000e+03 3.992274093627929688e+01 5.889107704162597656e+00 -4.309914112091064453e-01 -4.323457479476928711e-01 -2.590011358261108398e-01 -3.230885863304138184e-01
8.260000000000000000e+03 5.085033798217773438e+01 2.630784797668457031e+01 -1.169182777404785156e+00 -4.604176580905914307e-01 -4.888801574707031250e-01 -9.324462413787841797e-01
8.261000000000000000e+03 5.959285354614257812e+01 2.405477905273437500e+01 -1.959116160869598389e-01 1.392341494560241699e+00 3.589289784431457520e-01 9.170304238796234131e-02
8.262000000000000000e+03 6.384692764282226562e+01 2.438845634460449219e+01 3.459121659398078918e-02 2.775305747985839844e+00 8.429691195487976074e-01 9.953851103782653809e-01
8.263000000000000000e+03 6.911360168457031250e+01 7.984816551208496094e+00 1.130669116973876953e-01 5.742986202239990234e+00 1.756816029548645020e+00 7.060440778732299805e-01
8.264000000000000000e+03 4.726463699340820312e+01 2.319655990600585938e+01 -1.139103770256042480e+00 -8.350210785865783691e-01 -5.922374725341796875e-01 -1.042645931243896484e+00
8.265000000000000000e+03 1.066903972625732422e+01 1.349214839935302734e+01 2.072532474994659424e-02 8.538100123405456543e-02 3.183189779520034790e-02 -5.994572304189205170e-03
8.266000000000000000e+03 1.807384300231933594e+01 1.598579788208007812e+01 4.073867574334144592e-02 1.397482901811599731e-01 5.414608865976333618e-02 7.428465783596038818e-02
8.267000000000000000e+03 1.776886177062988281e+01 1.495181465148925781e+01 4.624989628791809082e-02 1.503221094608306885e-01 5.897160246968269348e-02 8.120053261518478394e-02
8.268000000000000000e+03 4.955827331542968750e+01 2.450769805908203125e+01 -1.083654046058654785e+00 -5.467984080314636230e-01 -4.891357421875000000e-01 -9.358185529708862305e-01
8.269000000000000000e+03 6.843137359619140625e+01 2.450317382812500000e+01 -4.876643717288970947e-01 5.996717929840087891e+00 1.652716159820556641e+00 1.678571581840515137e+00
8.270000000000000000e+03 1.574645996093750000e+01 1.544304466247558594e+01 2.533096261322498322e-02 1.405795663595199585e-01 4.977315664291381836e-02 5.443369969725608826e-02
8.271000000000000000e+03 4.914599990844726562e+01 -8.021413803100585938e+00 4.102294743061065674e-01 1.208767771720886230e+00 4.856991469860076904e-01 2.016419023275375366e-01
8.272000000000000000e+03 4.202628707885742188e+01 -1.884667277336120605e+00 3.232794404029846191e-01 -1.368142664432525635e-02 9.287940710783004761e-02 9.806269407272338867e-02
8.273000000000000000e+03 5.500996398925781250e+01 2.326219177246093750e+01 -5.490778684616088867e-01 5.779758095741271973e-01 8.669373579323291779e-03 -4.018711745738983154e-01
8.274000000000000000e+03 6.303741455078125000e+01 -3.161074161529541016e+00 2.390811592340469360e-01 4.048211574554443359e+00 1.286187887191772461e+00 5.323320031166076660e-01
8.275000000000000000e+03 6.733916473388671875e+01 2.282342147827148438e+01 -2.598649263381958008e-01 5.161263942718505859e+00 1.470419645309448242e+00 1.404001116752624512e+00
8.276000000000000000e+03 5.055897521972656250e+01 -8.383633613586425781e+00 3.921560049057006836e-01 1.452332973480224609e+00 5.533466935157775879e-01 2.252897024154663086e-01
8.277000000000000000e+03 4.046323394775390625e+01 5.309630870819091797e+00 -3.355736732482910156e-01 -3.559251427650451660e-01 -2.074496448040008545e-01 -2.488421797752380371e-01
8.278000000000000000e+03 6.780207061767578125e+01 2.458620834350585938e+01 -3.797987401485443115e-01 5.504886627197265625e+00 1.537526369094848633e+00 1.686748027801513672e+00
8.279000000000000000e+03 1.760486984252929688e+01 1.607044029235839844e+01 3.598328679800033569e-02 1.389480531215667725e-01 5.247940495610237122e-02 6.943185627460479736e-02
8.280000000000000000e+03 5.288683319091796875e+01 -1.152080345153808594e+01 3.070945143699645996e-01 1.977710723876953125e+00 6.854415535926818848e-01 2.400348186492919922e-01
8.281000000000000000e+03 6.188358688354492188e+01 2.205891990661621094e+01 2.440572716295719147e-02 2.447178840637207031e+00 7.414753437042236328e-01 6.263720989227294922e-01
8.282000000000000000e+03 4.024584579467773438e+01 4.812084674835205078e+00 -3.180593252182006836e-01 -3.464317023754119873e-01 -1.993473172187805176e-01 -2.191390395164489746e-01
8.283000000000000000e+03 6.363848114013671875e+01 -9.634675979614257812e+00 1.915818154811859131e-01 4.209209442138671875e+00 1.320237398147583008e+00 4.341811239719390869e-01
8.284000000000000000e+03 6.219962692260742188e+01 -9.517045974731445312e+00 2.070702463388442993e-01 3.871829986572265625e+00 1.223670125007629395e+00 4.164492785930633545e-01
8.285000000000000000e+03 6.775384521484375000e+01 5.197589397430419922e+00 1.512955129146575928e-01 5.281614780426025391e+00 1.629873156547546387e+00 6.761928796768188477e-01
8.286000000000000000e+03 4.237994003295898438e+01 -9.554184675216674805e-01 2.506960034370422363e-01 9.577450342476367950e-03 7.808203995227813721e-02 9.781090170145034790e-02
8.287000000000000000e+03 4.162450790405273438e+01 -2.285381793975830078e+00 3.328295350074768066e-01 -6.760584563016891479e-02 7.956710457801818848e-02 1.084384173154830933e-01
8.288000000000000000e+03 1.386397361755371094e+01 1.364847850799560547e+01 2.249201759696006775e-02 1.525824368000030518e-01 5.252233520150184631e-02 3.840308636426925659e-02
8.289000000000000000e+03 6.548905944824218750e+01 2.259073448181152344e+01 -6.051130965352058411e-02 4.027836322784423828e+00 1.190197587013244629e+00 1.221220731735229492e+00
8.290000000000000000e+03 6.835951232910156250e+01 5.336465835571289062e+00 1.416526436805725098e-01 5.481150627136230469e+00 1.686841011047363281e+00 6.730787158012390137e-01
8.291000000000000000e+03 4.072304534912109375e+01 7.905935764312744141e+00 -5.074310898780822754e-01 -4.697992503643035889e-01 -2.931691110134124756e-01 -4.375971555709838867e-01
8.292000000000000000e+03 4.991581344604492188e+01 2.351284408569335938e+01 -9.661957621574401855e-01 -4.007428586483001709e-01 -4.100815951824188232e-01 -8.332250714302062988e-01
8.293000000000000000e+03 4.149773788452148438e+01 -1.498551130294799805e+00 2.850444018840789795e-01 -7.240185886621475220e-02 6.379276514053344727e-02 9.713418036699295044e-02
8.294000000000000000e+03 4.079924392700195312e+01 -8.485144376754760742e-01 2.220701575279235840e-01 -1.706595569849014282e-01 1.542318146675825119e-02 7.452995330095291138e-02
8.295000000000000000e+03 6.510126495361328125e+01 2.192141914367675781e+01 -3.761459141969680786e-02 3.916736841201782227e+00 1.163736701011657715e+00 1.131883382797241211e+00
8.296000000000000000e+03 6.489694213867187500e+01 2.296697235107421875e+01 -1.350612379610538483e-02 3.654698133468627930e+00 1.092357635498046875e+00 1.178641319274902344e+00
8.297000000000000000e+03 5.309267425537109375e+01 -8.861021041870117188e+00 3.517794907093048096e-01 1.960828423500061035e+00 6.937823891639709473e-01 2.727661132812500000e-01
8.298000000000000000e+03 5.931454849243164062e+01 2.114573669433593750e+01 -6.409037858247756958e-02 1.772958040237426758e+00 5.126603245735168457e-01 2.741681039333343506e-01
8.299000000000000000e+03 6.640094757080078125e+01 -1.149149417877197266e+01 1.279394626617431641e-01 4.790237426757812500e+00 1.475453019142150879e+00 3.962228894233703613e-01
8.300000000000000000e+03 4.997285461425781250e+01 4.815240502357482910e-01 2.926441431045532227e-01 1.119557142257690430e+00 4.236603677272796631e-01 2.582039535045623779e-01
8.301000000000000000e+03 4.425238037109375000e+01 2.461891174316406250e+00 9.185958653688430786e-02 1.680045276880264282e-01 7.795923203229904175e-02 4.557285085320472717e-02
8.302000000000000000e+03 4.062918090820312500e+01 1.260118365287780762e+00 2.968768589198589325e-02 -2.158421874046325684e-01 -5.584635213017463684e-02 7.379793096333742142e-03
8.303000000000000000e+03 4.297984313964843750e+01 3.279060721397399902e-01 1.880230009555816650e-01 7.003948837518692017e-02 7.741874456405639648e-02 8.150590956211090088e-02
8.304000000000000000e+03 4.304833221435546875e+01 9.035327434539794922e-01 1.367700994014739990e-01 7.254713773727416992e-02 6.279517710208892822e-02 6.890582293272018433e-02
8.305000000000000000e+03 4.067015457153320312e+01 1.325923824310302734e+01 -8.399631977081298828e-01 -8.517641425132751465e-01 -5.075181722640991211e-01 -8.677110075950622559e-01
8.306000000000000000e+03 6.454761505126953125e+01 3.378828525543212891e+00 2.112104892730712891e-01 4.365643024444580078e+00 1.373056054115295410e+00 6.476098895072937012e-01
8.307000000000000000e+03 5.385719299316406250e+01 2.110681724548339844e+01 -4.586516320705413818e-01 5.471785068511962891e-01 2.655806578695774078e-02 -3.343154788017272949e-01
8.308000000000000000e+03 4.904758834838867188e+01 2.428044891357421875e+01 -1.102737545967102051e+00 -6.318013072013854980e-01 -5.203616619110107422e-01 -9.702689647674560547e-01
8.309000000000000000e+03 4.161482620239257812e+01 1.574054360389709473e+00 3.848331794142723083e-02 -1.226924359798431396e-01 -2.526273578405380249e-02 1.225964818149805069e-02
8.310000000000000000e+03 4.106468963623046875e+01 1.460084199905395508e+00 1.773475296795368195e-02 -1.766438037157058716e-01 -4.767271503806114197e-02 7.182388100773096085e-03
8.311000000000000000e+03 4.135219192504882812e+01 2.067062616348266602e+00 -1.064294949173927307e-02 -1.503632664680480957e-01 -4.830186814069747925e-02 -1.536317262798547745e-02
8.312000000000000000e+03 6.110918045043945312e+01 2.089538383483886719e+01 2.352238819003105164e-02 2.345196962356567383e+00 7.106157541275024414e-01 5.310702323913574219e-01
8.313000000000000000e+03 6.158301544189453125e+01 2.021751594543457031e+01 5.245696380734443665e-02 2.614894866943359375e+00 8.002055883407592773e-01 6.176309585571289062e-01
8.314000000000000000e+03 6.227294921875000000e+01 2.053464508056640625e+01 5.495921522378921509e-02 2.806034564971923828e+00 8.582981228828430176e-01 7.201576828956604004e-01
8.315000000000000000e+03 4.145903396606445312e+01 1.116987419128417969e+01 -6.466297507286071777e-01 -5.998975634574890137e-01 -3.739582002162933350e-01 -6.421349644660949707e-01
8.316000000000000000e+03 5.269902038574218750e+01 -2.524008035659790039e+00 3.642679452896118164e-01 1.759667992591857910e+00 6.371808052062988281e-01 3.478105366230010986e-01
8.317000000000000000e+03 5.283332443237304688e+01 -1.786520123481750488e+00 3.394484221935272217e-01 1.752937912940979004e+00 6.277158856391906738e-01 3.495076596736907959e-01
8.318000000000000000e+03 4.319892120361328125e+01 3.285913228988647461e+00 -1.936985738575458527e-02 2.583621768280863762e-03 -5.035870242863893509e-03 -2.023282647132873535e-02
8.319000000000000000e+03 5.889640045166015625e+01 -2.812391996383666992e+00 3.026320636272430420e-01 3.073869466781616211e+00 1.012950420379638672e+00 4.893250763416290283e-01
8.320000000000000000e+03 4.920302200317382812e+01 2.195437669754028320e+00 2.332197278738021851e-01 9.373579621315002441e-01 3.511733114719390869e-01 2.147830873727798462e-01
8.321000000000000000e+03 4.169416427612304688e+01 1.003204107284545898e+00 8.405829221010208130e-02 -1.047404929995536804e-01 -6.204659119248390198e-03 3.424901142716407776e-02
8.322000000000000000e+03 4.158444213867187500e+01 1.161474037170410156e+01 -6.660001277923583984e-01 -6.207616925239562988e-01 -3.860285282135009766e-01 -6.691173911094665527e-01
8.323000000000000000e+03 6.132796478271484375e+01 1.979762649536132812e+01 4.758753255009651184e-02 2.573066711425781250e+00 7.861962914466857910e-01 5.970963239669799805e-01
8.324000000000000000e+03 6.269355010986328125e+01 2.008987426757812500e+01 5.385097488760948181e-02 3.026810884475708008e+00 9.241985678672790527e-01 7.698935270309448242e-01
8.325000000000000000e+03 4.544538497924804688e+01 1.336109828948974609e+01 -4.912699162960052490e-01 -2.652063667774200439e-01 -2.269428819417953491e-01 -5.214541554450988770e-01
8.326000000000000000e+03 5.963146972656250000e+01 6.885292530059814453e+00 2.356615066528320312e-01 2.977487087249755859e+00 9.639445543289184570e-01 5.754712224006652832e-01
8.327000000000000000e+03 4.407963943481445312e+01 1.205684852600097656e+01 -5.146873593330383301e-01 -3.513166010379791260e-01 -2.598011791706085205e-01 -5.305249094963073730e-01
8.328000000000000000e+03 4.369156265258789062e+01 2.937402725219726562e+00 2.671790309250354767e-02 9.642962366342544556e-02 3.694425895810127258e-02 1.276462431997060776e-02
8.329000000000000000e+03 6.125411224365234375e+01 1.519067001342773438e+01 1.155648976564407349e-01 2.999193906784057617e+00 9.344276785850524902e-01 6.353886723518371582e-01
8.330000000000000000e+03 4.374127197265625000e+01 1.121326637268066406e+01 -4.815058112144470215e-01 -3.307145535945892334e-01 -2.436661124229431152e-01 -4.924066960811614990e-01
8.331000000000000000e+03 4.218992233276367188e+01 1.056665802001953125e+01 -5.554173588752746582e-01 -4.756554067134857178e-01 -3.093218207359313965e-01 -5.477710366249084473e-01
8.332000000000000000e+03 4.675069046020507812e+01 1.479283046722412109e+01 -4.769144952297210693e-01 -1.814996898174285889e-01 -1.975242495536804199e-01 -5.103533267974853516e-01
8.333000000000000000e+03 4.657135009765625000e+01 1.419812488555908203e+01 -4.572637379169464111e-01 -1.662101894617080688e-01 -1.870421767234802246e-01 -4.894300401210784912e-01
8.334000000000000000e+03 5.537928390502929688e+01 1.993051147460937500e+01 -2.594010233879089355e-01 9.722097516059875488e-01 2.138426154851913452e-01 -1.081436276435852051e-01
8.335000000000000000e+03 5.544985580444335938e+01 1.947043418884277344e+01 -2.229659110307693481e-01 1.033460855484008789e+00 2.431484758853912354e-01 -7.588518410921096802e-02
8.336000000000000000e+03 4.670179367065429688e+01 1.373045158386230469e+01 -4.257255494594573975e-01 -1.190349981188774109e-01 -1.634281724691390991e-01 -4.506614804267883301e-01
8.337000000000000000e+03 5.301200103759765625e+01 4.781095981597900391e+00 2.143543213605880737e-01 1.544860482215881348e+00 5.277644395828247070e-01 3.118842244148254395e-01
8.338000000000000000e+03 5.765565109252929688e+01 5.561739921569824219e+00 2.491853386163711548e-01 2.532776594161987305e+00 8.345885276794433594e-01 4.973075687885284424e-01
8.339000000000000000e+03 5.024048614501953125e+01 5.964684009552001953e+00 1.146273761987686157e-01 9.568535685539245605e-01 3.214442729949951172e-01 1.611244380474090576e-01
8.340000000000000000e+03 4.470280456542968750e+01 1.219134616851806641e+01 -4.715048670768737793e-01 -2.725410163402557373e-01 -2.232137620449066162e-01 -4.887705445289611816e-01
8.341000000000000000e+03 5.700648498535156250e+01 7.856954097747802734e+00 2.102197110652923584e-01 2.290935516357421875e+00 7.503465414047241211e-01 4.615938663482666016e-01
8.342000000000000000e+03 4.516693878173828125e+01 9.082326889038085938e+00 -2.714040875434875488e-01 -2.722667297348380089e-03 -8.223802596330642700e-02 -2.519763112068176270e-01
8.343000000000000000e+03 5.607384490966796875e+01 1.931040191650390625e+01 -1.732394099235534668e-01 1.186529755592346191e+00 3.039870858192443848e-01 9.499844163656234741e-03
8.344000000000000000e+03 4.824776840209960938e+01 2.190799903869628906e+01 -9.217880964279174805e-01 -5.516550540924072266e-01 -4.420329332351684570e-01 -8.586993217468261719e-01
8.345000000000000000e+03 4.562765884399414062e+01 8.778820991516113281e+00 -2.301321029663085938e-01 7.828246057033538818e-02 -4.555489495396614075e-02 -2.109274268150329590e-01
8.346000000000000000e+03 5.626605224609375000e+01 1.887787628173828125e+01 -1.402809470891952515e-01 1.277563929557800293e+00 3.411849141120910645e-01 5.504959449172019958e-02
8.347000000000000000e+03 4.509629821777343750e+01 1.210616970062255859e+01 -4.402251541614532471e-01 -2.171702831983566284e-01 -1.972186267375946045e-01 -4.576457142829895020e-01
8.348000000000000000e+03 4.542865753173828125e+01 1.004611206054687500e+01 -2.965307533740997314e-01 -2.808347716927528381e-02 -9.738426655530929565e-02 -2.963942885398864746e-01
8.349000000000000000e+03 5.451065444946289062e+01 1.767374038696289062e+01 -1.883027106523513794e-01 9.786019325256347656e-01 2.370897531509399414e-01 -4.708544909954071045e-02
8.350000000000000000e+03 4.989959335327148438e+01 2.112512207031250000e+01 -7.401478290557861328e-01 -1.932186037302017212e-01 -2.800099253654479980e-01 -6.659079790115356445e-01
8.351000000000000000e+03 5.056644821166992188e+01 2.088809776306152344e+01 -6.762287020683288574e-01 -5.999726057052612305e-02 -2.208677828311920166e-01 -5.932141542434692383e-01
8.352000000000000000e+03 5.645719909667968750e+01 7.591530323028564453e+00 2.090508341789245605e-01 2.160978794097900391e+00 7.110089063644409180e-01 4.332241714000701904e-01
8.353000000000000000e+03 4.624877166748046875e+01 8.588047027587890625e+00 -1.758837997913360596e-01 1.613539308309555054e-01 -4.358961246907711029e-03 -1.624774634838104248e-01
8.354000000000000000e+03 5.059935379028320312e+01 6.995057106018066406e+00 9.032234549522399902e-02 9.729451537132263184e-01 3.189802467823028564e-01 1.484899073839187622e-01
8.355000000000000000e+03 4.762723922729492188e+01 1.274753570556640625e+01 -3.036877214908599854e-01 1.118404492735862732e-01 -5.755418539047241211e-02 -3.096078932285308838e-01
8.356000000000000000e+03 4.813930130004882812e+01 1.315956783294677734e+01 -2.893743216991424561e-01 1.699623018503189087e-01 -3.582360967993736267e-02 -2.968591749668121338e-01
8.357000000000000000e+03 5.730519866943359375e+01 3.786172151565551758e+00 2.642989754676818848e-01 2.506723880767822266e+00 8.313068747520446777e-01 4.915786683559417725e-01
8.358000000000000000e+03 5.622297668457031250e+01 1.593989658355712891e+01 -1.963461376726627350e-02 1.546454310417175293e+00 4.580459296703338623e-01 1.970370411872863770e-01
8.359000000000000000e+03 4.808299255371093750e+01 5.396591186523437500e+00 6.235473230481147766e-02 6.186553835868835449e-01 2.043030261993408203e-01 7.810867577791213989e-02
8.360000000000000000e+03 5.561505508422851562e+01 1.625955009460449219e+01 -5.700520798563957214e-02 1.374900341033935547e+00 3.953685462474822998e-01 1.280306428670883179e-01
8.361000000000000000e+03 4.884801864624023438e+01 1.437233734130859375e+01 -3.138130307197570801e-01 1.851142644882202148e-01 -3.860962390899658203e-02 -3.199786841869354248e-01
8.362000000000000000e+03 5.541954040527343750e+01 5.606768608093261719e+00 2.339185327291488647e-01 2.038182020187377930e+00 6.816301345825195312e-01 4.060289859771728516e-01
8.363000000000000000e+03 5.215860366821289062e+01 9.322492599487304688e+00 5.241423472762107849e-02 1.131930708885192871e+00 3.553034961223602295e-01 1.485009491443634033e-01
8.364000000000000000e+03 4.778246688842773438e+01 8.801565170288085938e+00 -9.886814653873443604e-02 4.095247387886047363e-01 9.319697320461273193e-02 -8.484754711389541626e-02
8.365000000000000000e+03 4.911964035034179688e+01 1.479219627380371094e+01 -3.278917670249938965e-01 2.009703218936920166e-01 -3.807642683386802673e-02 -3.251707255840301514e-01
8.366000000000000000e+03 4.827059555053710938e+01 8.434693336486816406e+00 -6.865908205509185791e-02 4.961661994457244873e-01 1.282521337270736694e-01 -4.036492854356765747e-02
8.367000000000000000e+03 5.163194274902343750e+01 9.764516830444335938e+00 2.560051158070564270e-02 1.003139615058898926e+00 3.086220622062683105e-01 1.036447286605834961e-01
8.368000000000000000e+03 5.216546249389648438e+01 1.577700328826904297e+01 -2.022508382797241211e-01 6.746502518653869629e-01 1.417198330163955688e-01 -1.321055442094802856e-01
8.369000000000000000e+03 2.584251785278320312e+01 7.212073326110839844e+00 -6.493008613586425781e+00 -3.467575550079345703e+00 -2.988175153732299805e+00 -4.940160751342773438e+00
8.370000000000000000e+03 2.572043228149414062e+01 7.138077259063720703e+00 -6.706383705139160156e+00 -3.282088041305541992e+00 -2.996541500091552734e+00 -4.618240356445312500e+00
8.371000000000000000e+03 2.634960937500000000e+01 7.597590446472167969e+00 -6.136363029479980469e+00 -3.750638484954833984e+00 -2.966100454330444336e+00 -4.891603469848632812e+00
8.372000000000000000e+03 2.616344833374023438e+01 7.453263759613037109e+00 -6.877759933471679688e+00 -4.274499893188476562e+00 -3.345678091049194336e+00 -5.098525047302246094e+00
8.373000000000000000e+03 2.604765129089355469e+01 7.368196010589599609e+00 -5.207890033721923828e+00 -3.047207832336425781e+00 -2.476529359817504883e+00 -4.755255222320556641e+00
8.374000000000000000e+03 2.604761314392089844e+01 7.351262569427490234e+00 -6.107556819915771484e+00 -3.266248464584350586e+00 -2.812141656875610352e+00 -5.090620517730712891e+00
8.375000000000000000e+03 2.595621299743652344e+01 7.306093692779541016e+00 -7.948562145233154297e+00 -4.160132884979248047e+00 -3.632608413696289062e+00 -4.984376430511474609e+00
8.376000000000000000e+03 2.575144386291503906e+01 7.166223526000976562e+00 -6.706665515899658203e+00 -3.319481134414672852e+00 -3.007843971252441406e+00 -4.732430934906005859e+00
8.377000000000000000e+03 2.577326011657714844e+01 7.178963184356689453e+00 -6.576528549194335938e+00 -3.249461174011230469e+00 -2.947796821594238281e+00 -4.091618537902832031e+00
8.378000000000000000e+03 2.584219551086425781e+01 7.227824687957763672e+00 -6.530648708343505859e+00 -3.381298780441284180e+00 -2.973584175109863281e+00 -5.019762992858886719e+00
8.379000000000000000e+03 2.585137367248535156e+01 7.226731300354003906e+00 -6.490476608276367188e+00 -3.489622831344604492e+00 -2.994029760360717773e+00 -5.273968696594238281e+00
8.380000000000000000e+03 2.605745124816894531e+01 7.387742996215820312e+00 -6.433853626251220703e+00 -3.710927963256835938e+00 -3.043434381484985352e+00 -4.948964118957519531e+00
8.381000000000000000e+03 1.440481185913085938e+01 9.632535576820373535e-01 3.350848674774169922e+00 2.516043663024902344e+00 1.760067701339721680e+00 -2.049860715866088867e+00
8.382000000000000000e+03 1.114653110504150391e+01 1.993262022733688354e-01 -1.807133674621582031e+00 -1.533718258142471313e-01 -5.881516337394714355e-01 5.655426979064941406e-01
8.383000000000000000e+03 1.121876430511474609e+01 9.378392100334167480e-01 -7.660136222839355469e-01 -3.946166038513183594e-01 -3.481890559196472168e-01 6.671562194824218750e-01
8.384000000000000000e+03 1.040455722808837891e+01 3.265222907066345215e-01 -1.425500512123107910e+00 -1.811043322086334229e-01 -4.819814562797546387e-01 3.959719836711883545e-01
8.385000000000000000e+03 1.188854217529296875e+01 7.071893662214279175e-02 -2.366721868515014648e+00 -2.656725347042083740e-01 -7.897183299064636230e-01 7.433343529701232910e-01
8.386000000000000000e+03 1.271423625946044922e+01 6.772393584251403809e-01 -9.096291065216064453e-01 -4.295017123222351074e-01 -4.017392396926879883e-01 1.001421570777893066e+00
8.387000000000000000e+03 1.263056278228759766e+01 -5.929099395871162415e-02 -3.056216716766357422e+00 -1.852440685033798218e-01 -9.724382758140563965e-01 9.140988588333129883e-01
8.388000000000000000e+03 1.047107124328613281e+01 1.066026568412780762e+00 -6.572534441947937012e-01 -3.102362155914306641e-01 -2.902469038963317871e-01 5.062504410743713379e-01
8.389000000000000000e+03 1.196649551391601562e+01 8.082405924797058105e-01 -8.074626922607421875e-01 -3.948153257369995117e-01 -3.606834113597869873e-01 8.208614587783813477e-01
8.390000000000000000e+03 9.729189872741699219e+00 1.127164006233215332e+00 -5.915374755859375000e-01 -2.314085662364959717e-01 -2.468838095664978027e-01 4.261192381381988525e-01
8.391000000000000000e+03 8.895327568054199219e+00 3.831142783164978027e-01 -7.309538125991821289e-01 -2.957587875425815582e-02 -2.281588912010192871e-01 1.134646534919738770e-01
8.392000000000000000e+03 8.136641502380371094e+00 3.810498118400573730e-01 -5.319734215736389160e-01 -6.505684461444616318e-03 -1.615437269210815430e-01 7.884063571691513062e-02
8.393000000000000000e+03 6.620836257934570312e+00 3.807878792285919189e-01 -2.881484329700469971e-01 -6.551703554578125477e-04 -8.664108812808990479e-02 4.412372037768363953e-02
8.394000000000000000e+03 5.863288402557373047e+00 3.777014017105102539e-01 -2.086858898401260376e-01 -8.052431978285312653e-03 -6.502149254083633423e-02 3.276693075895309448e-02
8.395000000000000000e+03 5.318059444427490234e+00 1.113148808479309082e+00 -1.514229774475097656e-01 -1.826403848826885223e-02 -5.090610682964324951e-02 7.897348701953887939e-02
8.396000000000000000e+03 4.347115039825439453e+00 3.710395395755767822e-01 -9.681306779384613037e-02 -4.870784003287553787e-03 -3.050515614449977875e-02 1.992022618651390076e-02
8.397000000000000000e+03 2.831676959991455078e+00 3.606979846954345703e-01 -2.923335693776607513e-02 -3.504523541778326035e-03 -9.821364656090736389e-03 1.110243890434503555e-02
8.398000000000000000e+03 2.076213359832763672e+00 3.580279946327209473e-01 -1.023382321000099182e-02 -1.083336421288549900e-03 -3.395147854462265968e-03 7.153955288231372833e-03
8.399000000000000000e+03 2.380638122558593750e+00 1.098027944564819336e+00 -2.991062402725219727e-02 -1.166085898876190186e-02 -1.247144490480422974e-02 2.628744952380657196e-02
8.400000000000000000e+03 1.333085298538208008e+00 3.664900958538055420e-01 -2.029838738963007927e-03 -2.560405991971492767e-03 -1.377073465846478939e-03 2.081025624647736549e-03
8.401000000000000000e+03 1.660440564155578613e+00 1.106490135192871094e+00 -1.445733848959207535e-02 -9.886731393635272980e-03 -7.303221151232719421e-03 1.557482592761516571e-02
8.402000000000000000e+03 6.547182202339172363e-01 3.947406113147735596e-01 7.329607033170759678e-04 7.822486077202484012e-05 2.433556655887514353e-04 1.078578061424195766e-03
8.403000000000000000e+03 3.519233465194702148e-01 9.575628638267517090e-01 -1.637626555748283863e-03 -1.655221800319850445e-03 -9.878545533865690231e-04 5.756308091804385185e-04
8.404000000000000000e+03 3.113171100616455078e+00 1.100697994232177734e+00 -5.115024745464324951e-02 -7.858254946768283844e-03 -1.770254969596862793e-02 3.800846636295318604e-02
8.405000000000000000e+03 3.588829517364501953e+00 3.677253723144531250e-01 -5.815845355391502380e-02 4.245555101078934968e-05 -1.743479818105697632e-02 1.656743884086608887e-02
8.406000000000000000e+03 5.105357170104980469e+00 3.731488585472106934e-01 -1.460041403770446777e-01 2.223587071057409048e-04 -4.373453557491302490e-02 2.685770019888877869e-02
8.407000000000000000e+03 6.053060531616210938e+00 1.117701411247253418e+00 -2.021358758211135864e-01 -1.625982113182544708e-02 -6.551870703697204590e-02 9.967936575412750244e-02
8.408000000000000000e+03 7.522262096405029297e+00 1.121038317680358887e+00 -3.393043577671051025e-01 -3.512879833579063416e-02 -1.123299449682235718e-01 1.627027392387390137e-01
8.409000000000000000e+03 7.378351211547851562e+00 3.810383677482604980e-01 -3.919950127601623535e-01 -1.338363252580165863e-02 -1.216135919094085693e-01 5.611275881528854370e-02
8.410000000000000000e+03 8.257620811462402344e+00 1.121049761772155762e+00 -4.319391548633575439e-01 -6.490221619606018066e-02 -1.490524113178253174e-01 2.153124809265136719e-01
8.411000000000000000e+03 8.993377685546875000e+00 1.123114228248596191e+00 -5.493701696395874023e-01 -1.065583080053329468e-01 -1.967785358428955078e-01 3.089586198329925537e-01
8.412000000000000000e+03 9.654070854187011719e+00 3.871639966964721680e-01 -1.067535638809204102e+00 -7.340513914823532104e-02 -3.422822356224060059e-01 2.173222750425338745e-01
8.413000000000000000e+03 6.787677288055419922e+00 1.120787858963012695e+00 -2.632529735565185547e-01 -3.110831044614315033e-02 -8.830838650465011597e-02 1.256113350391387939e-01
8.414000000000000000e+03 4.582747936248779297e+00 1.111039519309997559e+00 -1.104459166526794434e-01 -9.875722229480743408e-03 -3.609649091958999634e-02 6.358478963375091553e-02
8.415000000000000000e+03 3.847393035888671875e+00 1.107725381851196289e+00 -7.697758823633193970e-02 -1.254559494554996490e-02 -2.685695327818393707e-02 4.941334202885627747e-02
8.416000000000000000e+03 1.005004048347473145e+00 1.134740591049194336e+00 -6.270638667047023773e-03 -9.032995440065860748e-03 -4.591090139001607895e-03 6.557472050189971924e-03
8.417000000000000000e+03 9.574274063110351562e+00 -3.935540616512298584e-01 -1.350022852420806885e-01 3.666934557259082794e-03 -3.940060734748840332e-02 -1.158142741769552231e-02
8.418000000000000000e+03 8.789978027343750000e+00 -3.986168801784515381e-01 -1.078002676367759705e-01 3.474020049907267094e-04 -3.223586082458496094e-02 -1.647145487368106842e-02
8.419000000000000000e+03 8.686211585998535156e+00 -1.138616919517517090e+00 -1.814620941877365112e-01 -3.616795409470796585e-03 -5.552366375923156738e-02 -5.279615521430969238e-02
8.420000000000000000e+03 8.006248474121093750e+00 -3.998050093650817871e-01 -7.468050718307495117e-02 -1.108971307985484600e-03 -2.273684367537498474e-02 -1.557707693427801132e-02
8.421000000000000000e+03 7.223060607910156250e+00 -3.997795581817626953e-01 -4.492660984396934509e-02 -5.727712414227426052e-04 -1.364981476217508316e-02 -1.416616793721914291e-02
8.422000000000000000e+03 6.439927577972412109e+00 -4.006183743476867676e-01 -1.795527152717113495e-02 -2.305986592546105385e-03 -6.078377366065979004e-03 -1.128315273672342300e-02
8.423000000000000000e+03 5.657042503356933594e+00 -4.034312665462493896e-01 2.047490328550338745e-03 -6.159882177598774433e-04 4.294506215956062078e-04 -8.284341543912887573e-03
8.424000000000000000e+03 4.874185085296630859e+00 -4.075828790664672852e-01 1.711718365550041199e-02 -2.402534242719411850e-03 4.414394963532686234e-03 -5.424172617495059967e-03
8.425000000000000000e+03 4.091480255126953125e+00 -4.106692969799041748e-01 2.508366480469703674e-02 -1.123613910749554634e-03 7.188015151768922806e-03 -1.920538954436779022e-03
8.426000000000000000e+03 3.310033082962036133e+00 -4.133046567440032959e-01 2.746869623661041260e-02 -1.919833826832473278e-03 7.664658594876527786e-03 1.183424261398613453e-03
8.427000000000000000e+03 2.531398296356201172e+00 -4.163123965263366699e-01 2.324236929416656494e-02 -6.361179403029382229e-04 6.781875155866146088e-03 3.767485031858086586e-03
8.428000000000000000e+03 6.962535381317138672e-01 -1.126455783843994141e+00 1.423365669324994087e-03 4.581611603498458862e-03 1.801493228413164616e-03 5.962574854493141174e-03
8.429000000000000000e+03 3.739950358867645264e-01 -5.643373131752014160e-01 1.125497394241392612e-03 3.763186046853661537e-03 1.466604997403919697e-03 2.027416834607720375e-03
8.430000000000000000e+03 9.497249603271484375e+00 -1.133554100990295410e+00 -2.399356365203857422e-01 7.820255123078823090e-03 -6.963461637496948242e-02 -5.550779402256011963e-02
8.431000000000000000e+03 7.875741004943847656e+00 -1.139804959297180176e+00 -1.394137889146804810e-01 -1.561427605338394642e-03 -4.229256510734558105e-02 -4.989722743630409241e-02
8.432000000000000000e+03 7.065812587738037109e+00 -1.139779567718505859e+00 -9.868036210536956787e-02 -8.607726544141769409e-03 -3.218642622232437134e-02 -4.237534105777740479e-02
8.433000000000000000e+03 6.255938053131103516e+00 -1.140618443489074707e+00 -6.912062317132949829e-02 -4.471112973988056183e-03 -2.207751944661140442e-02 -3.464528173208236694e-02
8.434000000000000000e+03 5.446311473846435547e+00 -1.143431305885314941e+00 -4.144176095724105835e-02 -9.516444057226181030e-03 -1.528746169060468674e-02 -2.581373043358325958e-02
8.435000000000000000e+03 4.636712551116943359e+00 -1.147582888603210449e+00 -2.430167980492115021e-02 -5.248331930488348007e-03 -8.865003474056720734e-03 -1.629847660660743713e-02
8.436000000000000000e+03 3.827266693115234375e+00 -1.150669336318969727e+00 -9.147906675934791565e-03 -8.672796189785003662e-03 -5.346210673451423645e-03 -8.327748626470565796e-03
8.437000000000000000e+03 3.019078254699707031e+00 -1.153304696083068848e+00 -9.684706456027925014e-04 -5.668167024850845337e-03 -1.990991411730647087e-03 8.834126638248562813e-04
8.438000000000000000e+03 2.213702201843261719e+00 -1.156312346458435059e+00 4.121372941881418228e-03 -3.708824748173356056e-03 1.237644901266321540e-04 8.147870190441608429e-03
8.439000000000000000e+03 1.420517802238464355e+00 -1.151062846183776855e+00 1.465173321776092052e-03 3.131366102024912834e-03 1.378961838781833649e-03 1.121376547962427139e-02
8.440000000000000000e+03 1.764955043792724609e+00 -4.110628962516784668e-01 1.599558815360069275e-02 9.232675656676292419e-04 5.075656808912754059e-03 4.544103983789682388e-03
8.441000000000000000e+03 1.067432165145874023e+00 -3.864558041095733643e-01 7.028626278042793274e-03 -1.414379104971885681e-03 1.684274175204336643e-03 3.742647357285022736e-03
8.442000000000000000e+03 1.107046413421630859e+01 -5.791122317314147949e-01 -2.691412568092346191e-01 4.353747703135013580e-03 -7.943625748157501221e-02 4.341687308624386787e-04
8.443000000000000000e+03 1.172848224639892578e+01 -1.444193720817565918e+00 -5.267515182495117188e-01 -8.144226740114390850e-04 -1.582697778940200806e-01 -1.038812398910522461e-01
8.444000000000000000e+03 1.026795482635498047e+01 -1.192459702491760254e+00 -3.083987236022949219e-01 5.429963115602731705e-03 -9.089063107967376709e-02 -6.159589812159538269e-02
8.445000000000000000e+03 1.245870399475097656e+01 -1.572161674499511719e+00 -6.660432815551757812e-01 -4.574845079332590103e-03 -2.011854499578475952e-01 -1.444828063249588013e-01
8.446000000000000000e+03 1.254237651824951172e+01 -8.356313705444335938e-01 -5.423353910446166992e-01 -2.379938727244734764e-03 -1.634145975112915039e-01 -2.782999305054545403e-03
8.447000000000000000e+03 1.180643558502197266e+01 -7.066720724105834961e-01 -3.810837864875793457e-01 -2.341396873816847801e-03 -1.150275617837905884e-01 1.832659589126706123e-03
8.448000000000000000e+03 1.099823093414306641e+01 -1.317625284194946289e+00 -4.053079485893249512e-01 1.321723125874996185e-02 -1.176272183656692505e-01 -7.968135178089141846e-02
8.449000000000000000e+03 1.033446884155273438e+01 -4.529553353786468506e-01 -1.856805682182312012e-01 2.948818262666463852e-03 -5.481952801346778870e-02 -6.353982724249362946e-03
8.450000000000000000e+03 1.412816143035888672e+01 -9.967193007469177246e-01 -9.250922799110412598e-01 -3.643627045676112175e-03 -2.786207795143127441e-01 -6.883101910352706909e-02
8.451000000000000000e+03 1.524391746520996094e+01 -1.466321945190429688e+00 -1.467148542404174805e+00 -1.829129159450531006e-01 -4.950184524059295654e-01 -4.650748074054718018e-01
8.452000000000000000e+03 1.616965675354003906e+01 -1.725686669349670410e+00 -1.727804064750671387e+00 -4.615915119647979736e-01 -6.568186879158020020e-01 -6.802671551704406738e-01
8.453000000000000000e+03 1.574865627288818359e+01 -1.673639893531799316e+00 -1.599650502204895020e+00 -4.481531083583831787e-01 -6.143410801887512207e-01 -5.928146243095397949e-01
8.454000000000000000e+03 1.561703586578369141e+01 -9.138993620872497559e-01 -1.844238281250000000e+00 -1.714159697294235229e-01 -6.046962738037109375e-01 -2.204442173242568970e-01
8.455000000000000000e+03 1.330834674835205078e+01 -9.333403110504150391e-01 -7.265329957008361816e-01 -2.432685717940330505e-02 -2.252579629421234131e-01 -3.550590947270393372e-02
8.456000000000000000e+03 1.325672912597656250e+01 -1.671557903289794922e+00 -8.398274779319763184e-01 -4.619449004530906677e-02 -2.658065855503082275e-01 -1.885164976119995117e-01
8.457000000000000000e+03 1.414637279510498047e+01 -1.739302992820739746e+00 -1.099344730377197266e+00 -3.700897097587585449e-02 -3.409060835838317871e-01 -2.615876495838165283e-01
8.458000000000000000e+03 1.646326637268066406e+01 -1.909508228302001953e+00 -1.807842969894409180e+00 -7.275444865226745605e-01 -7.606162428855895996e-01 -8.357341289520263672e-01
8.459000000000000000e+03 1.419766807556152344e+01 -2.838388085365295410e-01 -5.771574974060058594e+00 2.165300548076629639e-01 -1.666513442993164062e+00 1.087014436721801758e+00
8.460000000000000000e+03 1.352537155151367188e+01 5.852731466293334961e-01 -3.331561982631683350e-01 -7.331495732069015503e-02 -1.219413429498672485e-01 9.471915960311889648e-01
8.461000000000000000e+03 1.342303657531738281e+01 -1.497735083103179932e-01 -4.230550765991210938e+00 -2.092585563659667969e-01 -1.331942796707153320e+00 1.077304005622863770e+00
8.462000000000000000e+03 1.515072631835937500e+01 6.366986036300659180e-01 5.369476795196533203e+00 1.352809071540832520e+00 2.016685724258422852e+00 -1.409312486648559570e+00
8.463000000000000000e+03 1.436956024169921875e+01 6.066150665283203125e-01 1.924525737762451172e+00 1.484190344810485840e+00 1.022614836692810059e+00 -4.760300815105438232e-01
8.464000000000000000e+03 2.157444953918457031e+01 4.003563880920410156e+00 -1.912127017974853516e+00 -1.183170318603515625e+00 -9.285891652107238770e-01 -1.554214358329772949e+00
8.465000000000000000e+03 2.389948272705078125e+01 5.596093177795410156e+00 -4.777690410614013672e+00 -2.303830385208129883e+00 -2.124456167221069336e+00 -3.242630720138549805e+00
8.466000000000000000e+03 2.412474632263183594e+01 4.887040615081787109e+00 1.577551007270812988e+00 -2.920470200479030609e-02 4.645038843154907227e-01 6.664023399353027344e-01
8.467000000000000000e+03 1.590177440643310547e+01 -5.061372518539428711e-01 -4.375973701477050781e+00 -2.187443226575851440e-01 -1.378415346145629883e+00 -1.319792628288269043e+00
8.468000000000000000e+03 1.952704048156738281e+01 2.294429063796997070e+00 -5.314255505800247192e-02 -8.531038165092468262e-01 -2.718739211559295654e-01 -7.218936085700988770e-01
8.469000000000000000e+03 2.090116500854492188e+01 2.502764463424682617e+00 -2.245451211929321289e-01 -2.515006065368652344e-01 -1.428137123584747314e-01 -2.782803177833557129e-01
8.470000000000000000e+03 2.118369483947753906e+01 2.726105928421020508e+00 3.126253485679626465e-01 -9.305146336555480957e-02 6.587216258049011230e-02 -4.862648621201515198e-02
8.471000000000000000e+03 2.619468307495117188e+01 6.949645519256591797e+00 -3.016510486602783203e+00 -1.826646447181701660e+00 -1.452947020530700684e+00 -2.279613256454467773e+00
8.472000000000000000e+03 2.673808860778808594e+01 7.608308792114257812e+00 -4.400628566741943359e+00 -2.702847003936767578e+00 -2.131042718887329102e+00 -3.419358015060424805e+00
8.473000000000000000e+03 2.781131172180175781e+01 8.301882743835449219e+00 -3.258060932159423828e+00 -1.297588944435119629e+00 -1.366694927215576172e+00 -2.084496021270751953e+00
8.474000000000000000e+03 2.843750381469726562e+01 8.249814033508300781e+00 -2.091238021850585938e+00 6.339522451162338257e-02 -6.083528399467468262e-01 -7.092732191085815430e-01
8.475000000000000000e+03 2.872324943542480469e+01 8.505600929260253906e+00 -2.282553195953369141e+00 -9.841818809509277344e-01 -9.800205230712890625e-01 -9.034371376037597656e-01
8.476000000000000000e+03 2.901180076599121094e+01 8.513568878173828125e+00 -1.901826381683349609e+00 -8.983676433563232422e-01 -8.400582075119018555e-01 -6.779667735099792480e-01
8.477000000000000000e+03 2.951800727844238281e+01 8.114252090454101562e+00 -8.116381168365478516e-01 -1.496895313262939453e+00 -6.925600171089172363e-01 -7.585675716400146484e-01
8.478000000000000000e+03 2.974779701232910156e+01 7.457363605499267578e+00 -6.969372034072875977e-01 -1.921151995658874512e+00 -7.854267358779907227e-01 -1.492946863174438477e+00
8.479000000000000000e+03 2.969834518432617188e+01 6.596699714660644531e+00 -1.975324273109436035e+00 -1.450923919677734375e+00 -1.027874469757080078e+00 -1.683325529098510742e+00
8.480000000000000000e+03 2.914324760437011719e+01 6.185403347015380859e+00 -2.541592359542846680e+00 -1.800608158111572266e+00 -1.302660107612609863e+00 -1.553984403610229492e+00
8.481000000000000000e+03 2.731749725341796875e+01 6.180770397186279297e+00 -3.805457830429077148e+00 -1.562993764877319336e+00 -1.610535502433776855e+00 -2.425857782363891602e+00
8.482000000000000000e+03 2.667770767211914062e+01 5.437873363494873047e+00 -3.619356870651245117e+00 -1.408466339111328125e+00 -1.508346915245056152e+00 -2.214347839355468750e+00
8.483000000000000000e+03 2.510387229919433594e+01 4.538621902465820312e+00 -3.957229614257812500e+00 -1.387202143669128418e+00 -1.603329539299011230e+00 -2.338448524475097656e+00
8.484000000000000000e+03 2.605690193176269531e+01 5.097530364990234375e+00 -3.717621803283691406e+00 -1.371242880821228027e+00 -1.526659369468688965e+00 -2.237871170043945312e+00
8.485000000000000000e+03 2.561135482788085938e+01 5.157556533813476562e+00 -3.836706638336181641e+00 -1.450324058532714844e+00 -1.586109161376953125e+00 -2.377396821975708008e+00
8.486000000000000000e+03 2.728079605102539062e+01 4.737926959991455078e+00 -3.035167932510375977e+00 -1.361401319503784180e+00 -1.318970680236816406e+00 -1.772074818611145020e+00
8.487000000000000000e+03 2.848536109924316406e+01 5.469244956970214844e+00 -2.647537708282470703e+00 -1.750072002410888672e+00 -1.319282889366149902e+00 -1.611475229263305664e+00
8.488000000000000000e+03 2.787462043762207031e+01 6.200993061065673828e+00 -3.547077417373657227e+00 -1.937310934066772461e+00 -1.645316481590270996e+00 -2.492444992065429688e+00
8.489000000000000000e+03 2.660818672180175781e+01 6.537590503692626953e+00 1.840232849121093750e+00 4.407397508621215820e-01 6.842917799949645996e-01 9.543646574020385742e-01
8.490000000000000000e+03 2.734742164611816406e+01 6.542398452758789062e+00 4.880994796752929688e+00 1.785105705261230469e+00 1.999830245971679688e+00 2.974855661392211914e+00
8.491000000000000000e+03 2.703376388549804688e+01 6.653264045715332031e+00 2.646442174911499023e+00 1.088511824607849121e+00 1.120486140251159668e+00 1.672091007232666016e+00
8.492000000000000000e+03 2.627173042297363281e+01 4.064880847930908203e+00 -3.272506713867187500e+00 -1.070594310760498047e+00 -1.302930355072021484e+00 -1.706004858016967773e+00
8.493000000000000000e+03 2.386675453186035156e+01 2.603332996368408203e+00 -3.806381702423095703e+00 -8.619190454483032227e-01 -1.400490164756774902e+00 -1.841172218322753906e+00
8.494000000000000000e+03 2.220455932617187500e+01 3.039056539535522461e+00 -5.334715843200683594e+00 -1.954830527305603027e+00 -2.186863899230957031e+00 -3.264580726623535156e+00
8.495000000000000000e+03 2.217053604125976562e+01 1.547746300697326660e+00 -3.487092971801757812e+00 -9.594897627830505371e-01 -1.333974838256835938e+00 -2.423253297805786133e+00
8.496000000000000000e+03 2.025352096557617188e+01 4.149144887924194336e-01 -1.527415752410888672e+00 -3.183701992034912109e+00 -1.413335323333740234e+00 -3.699311256408691406e+00
8.497000000000000000e+03 1.814858818054199219e+01 4.918190240859985352e-01 -6.508144736289978027e-01 -3.160347938537597656e-01 -2.900547683238983154e-01 -5.328955650329589844e-01
8.498000000000000000e+03 1.820799827575683594e+01 -8.796090483665466309e-01 -2.324552536010742188e+00 -1.520632147789001465e+00 -1.153555393218994141e+00 -1.445277333259582520e+00
8.499000000000000000e+03 2.170348358154296875e+01 2.723834276199340820e+00 -5.465919494628906250e+00 -2.094817161560058594e+00 -2.268220901489257812e+00 -3.376197099685668945e+00
8.500000000000000000e+03 2.102823257446289062e+01 2.260757684707641602e+00 -5.282200813293457031e+00 -2.108934164047241211e+00 -2.217340469360351562e+00 -3.355643272399902344e+00
8.501000000000000000e+03 1.607972335815429688e+01 -8.520542383193969727e-01 -2.134967088699340820e+00 -4.981693625450134277e-01 -7.899409532546997070e-01 -5.946202278137207031e-01
8.502000000000000000e+03 1.663420677185058594e+01 -1.785859823226928711e+00 -1.909478783607482910e+00 -6.505632400512695312e-01 -7.680125832557678223e-01 -8.008568882942199707e-01
8.503000000000000000e+03 1.890606498718261719e+01 -4.218147695064544678e-01 -2.361392974853515625e+00 -2.640291690826416016e+00 -1.500505447387695312e+00 -1.810268402099609375e+00
8.504000000000000000e+03 2.062004280090332031e+01 6.062549352645874023e-01 -2.001328706741333008e+00 -2.297164201736450195e+00 -1.289547920227050781e+00 -3.675865411758422852e+00
8.505000000000000000e+03 2.088251113891601562e+01 1.380865573883056641e+00 -3.242769718170166016e+00 -2.085495710372924805e+00 -1.598479628562927246e+00 -3.242221593856811523e+00
8.506000000000000000e+03 2.300205802917480469e+01 2.110841751098632812e+00 -3.849258184432983398e+00 -7.974839806556701660e-01 -1.394022703170776367e+00 -2.073061227798461914e+00
8.507000000000000000e+03 2.438932991027832031e+01 2.960635662078857422e+00 -3.727335929870605469e+00 -8.449714779853820801e-01 -1.371692299842834473e+00 -1.798750638961791992e+00
8.508000000000000000e+03 2.521880340576171875e+01 3.450610637664794922e+00 -3.578364849090576172e+00 -9.387892484664916992e-01 -1.355146169662475586e+00 -1.742439270019531250e+00
8.509000000000000000e+03 2.289822006225585938e+01 3.422800064086914062e+00 -5.005028724670410156e+00 -1.803724050521850586e+00 -2.042625904083251953e+00 -3.021816730499267578e+00
8.510000000000000000e+03 2.307255363464355469e+01 3.524418592453002930e+00 -4.922980308532714844e+00 -1.818173050880432129e+00 -2.022346019744873047e+00 -2.959588766098022461e+00
8.511000000000000000e+03 2.407131767272949219e+01 4.178638458251953125e+00 -4.415468692779541016e+00 -1.635059356689453125e+00 -1.815158367156982422e+00 -2.682165622711181641e+00
8.512000000000000000e+03 1.780109024047851562e+01 1.569384574890136719e+00 2.774224996566772461e+00 6.939253807067871094e-01 1.040445089340209961e+00 1.360035538673400879e+00
8.513000000000000000e+03 2.510248374938964844e+01 4.799768447875976562e+00 -3.996445655822753906e+00 -1.488211274147033691e+00 -1.645397067070007324e+00 -2.424479722976684570e+00
8.514000000000000000e+03 2.383655929565429688e+01 3.735404729843139648e+00 -4.442548274993896484e+00 -1.461501955986022949e+00 -1.771215081214904785e+00 -2.568974256515502930e+00
8.515000000000000000e+03 2.356903648376464844e+01 3.872204303741455078e+00 -4.643907546997070312e+00 -1.702942848205566406e+00 -1.904054999351501465e+00 -2.825850486755371094e+00
8.516000000000000000e+03 2.272424316406250000e+01 3.322763919830322266e+00 -5.107334613800048828e+00 -1.865638613700866699e+00 -2.091892004013061523e+00 -3.070947408676147461e+00
8.517000000000000000e+03 2.186722183227539062e+01 2.835867881774902344e+00 -5.441322803497314453e+00 -2.037436008453369141e+00 -2.243627786636352539e+00 -3.361257076263427734e+00
8.518000000000000000e+03 1.797665786743164062e+01 3.892868459224700928e-01 -6.605238914489746094e-01 -3.801913559436798096e-01 -3.122145831584930420e-01 -3.834440708160400391e-01
8.519000000000000000e+03 1.780901718139648438e+01 2.828388810157775879e-01 -6.137142181396484375e-01 -2.139022797346115112e-01 -2.482849508523941040e-01 -4.352177083492279053e-01
8.520000000000000000e+03 1.786056327819824219e+01 -7.438153028488159180e-01 -2.046141386032104492e+00 -1.035180687904357910e+00 -9.243966341018676758e-01 -1.163096904754638672e+00
8.521000000000000000e+03 1.490975666046142578e+01 -9.672126770019531250e-01 -1.164965987205505371e+00 4.213928803801536560e-02 -3.368480205535888672e-01 -5.147991701960563660e-02
8.522000000000000000e+03 1.553082847595214844e+01 -5.301201939582824707e-01 -6.473705768585205078e+00 4.750651121139526367e-01 -1.799592256546020508e+00 -8.424521237611770630e-02
8.523000000000000000e+03 2.761780357360839844e+01 7.930091857910156250e+00 -2.621273994445800781e+00 -7.756641507148742676e-01 -1.019081354141235352e+00 -1.790536046028137207e+00
8.524000000000000000e+03 2.491459465026855469e+01 6.318172931671142578e+00 -4.494009494781494141e+00 -2.614518165588378906e+00 -2.132558345794677734e+00 -3.507229089736938477e+00
8.525000000000000000e+03 2.509618377685546875e+01 5.497509956359863281e+00 2.227692127227783203e+00 8.347927927970886230e-01 9.187455177307128906e-01 1.063420057296752930e+00
8.526000000000000000e+03 2.355752754211425781e+01 5.373759746551513672e+00 -4.720973491668701172e+00 -2.084090232849121094e+00 -2.041519165039062500e+00 -3.070899248123168945e+00
8.527000000000000000e+03 2.223781585693359375e+01 4.491950511932373047e+00 -2.720890998840332031e+00 -1.392468214035034180e+00 -1.234007716178894043e+00 -1.963570356369018555e+00
8.528000000000000000e+03 2.086944961547851562e+01 3.572295188903808594e+00 -1.420388221740722656e+00 -8.856676220893859863e-01 -6.918167471885681152e-01 -1.196088075637817383e+00
8.529000000000000000e+03 2.071192550659179688e+01 3.059936761856079102e+00 -3.099945485591888428e-01 -9.079655408859252930e-01 -3.653880357742309570e-01 -8.654695153236389160e-01
8.530000000000000000e+03 2.016724014282226562e+01 3.137828350067138672e+00 -6.538104414939880371e-01 -6.040734648704528809e-01 -3.773651719093322754e-01 -7.064762711524963379e-01
8.531000000000000000e+03 2.013880538940429688e+01 2.411051511764526367e+00 -4.322020113468170166e-01 -9.233691692352294922e-01 -4.066713452339172363e-01 -8.903563022613525391e-01
8.532000000000000000e+03 1.905813980102539062e+01 1.327856063842773438e+00 -3.730185270309448242e+00 -1.342501759529113770e+00 -1.521806120872497559e+00 -2.163371562957763672e+00
8.533000000000000000e+03 1.744436645507812500e+01 1.317501544952392578e+00 3.260961532592773438e+00 7.402976155281066895e-01 1.200377702713012695e+00 1.419207692146301270e+00
8.534000000000000000e+03 1.628603553771972656e+01 8.226152062416076660e-01 5.242979049682617188e+00 4.101614952087402344e-01 1.695942163467407227e+00 1.589536786079406738e+00
8.535000000000000000e+03 1.592049598693847656e+01 7.100230455398559570e-01 5.709530830383300781e+00 7.423616647720336914e-01 1.935567736625671387e+00 9.596319198608398438e-01
8.536000000000000000e+03 1.661206626892089844e+01 8.281219750642776489e-03 -5.466273307800292969e+00 -1.176742792129516602e+00 -1.992904782295227051e+00 -2.915330171585083008e+00
8.537000000000000000e+03 1.869659805297851562e+01 1.178386449813842773e+00 -3.919812202453613281e+00 -1.691975831985473633e+00 -1.683536410331726074e+00 -2.473900794982910156e+00
8.538000000000000000e+03 1.813349723815917969e+01 1.811456799507141113e+00 2.323203086853027344e+00 5.444568991661071777e-01 8.602980375289916992e-01 1.167444109916687012e+00
8.539000000000000000e+03 1.867108726501464844e+01 1.794123888015747070e+00 4.487091898918151855e-01 -6.169586181640625000e-01 -5.047482997179031372e-02 -3.563635349273681641e-01
8.540000000000000000e+03 2.021986579895019531e+01 2.136486768722534180e+00 -1.100470542907714844e+00 -7.044428586959838867e-01 -5.414740443229675293e-01 -8.729804158210754395e-01
8.541000000000000000e+03 2.072131156921386719e+01 2.411337137222290039e+00 -4.124657809734344482e-01 -3.037533164024353027e-01 -2.148657143115997314e-01 -3.885337412357330322e-01
8.542000000000000000e+03 2.134403800964355469e+01 2.867102384567260742e+00 5.879981517791748047e-01 -7.092519104480743408e-02 1.551218777894973755e-01 6.493635475635528564e-02
8.543000000000000000e+03 2.052456855773925781e+01 3.346909999847412109e+00 -1.109127283096313477e+00 -8.181146383285522461e-01 -5.781725645065307617e-01 -9.670709371566772461e-01
8.544000000000000000e+03 2.190268898010253906e+01 3.133645534515380859e+00 1.219447135925292969e+00 2.960736453533172607e-01 4.546562433242797852e-01 5.318752527236938477e-01
8.545000000000000000e+03 2.170759963989257812e+01 3.228340387344360352e+00 8.151282668113708496e-01 -2.982615232467651367e-01 1.550600230693817139e-01 6.955183297395706177e-02
8.546000000000000000e+03 2.218294525146484375e+01 3.758147478103637695e+00 2.506084740161895752e-01 -5.117293000221252441e-01 -7.833625376224517822e-02 -3.721387982368469238e-01
8.547000000000000000e+03 2.309049415588378906e+01 3.885665655136108398e+00 2.534743070602416992e+00 7.887778878211975098e-01 9.970563054084777832e-01 1.318968415260314941e+00
8.548000000000000000e+03 2.343356513977050781e+01 4.924833297729492188e+00 -1.732911229133605957e+00 -1.344661116600036621e+00 -9.232717156410217285e-01 -1.621887087821960449e+00
8.549000000000000000e+03 2.389833259582519531e+01 4.438695907592773438e+00 3.662122249603271484e+00 1.040946960449218750e+00 1.410920739173889160e+00 1.911793708801269531e+00
8.550000000000000000e+03 2.493483924865722656e+01 5.057234764099121094e+00 4.283014297485351562e+00 1.404146313667297363e+00 1.706148147583007812e+00 2.555921792984008789e+00
8.551000000000000000e+03 2.634406471252441406e+01 5.882075309753417969e+00 4.910665035247802734e+00 1.666068315505981445e+00 1.973019957542419434e+00 2.936691761016845703e+00
8.552000000000000000e+03 2.651717948913574219e+01 6.223111629486083984e+00 3.822299718856811523e+00 1.195843815803527832e+00 1.505442976951599121e+00 2.230237722396850586e+00
8.553000000000000000e+03 2.752372932434082031e+01 6.642493247985839844e+00 4.895028114318847656e+00 1.823700070381164551e+00 2.015618324279785156e+00 2.995916604995727539e+00
8.554000000000000000e+03 2.770738792419433594e+01 6.731254100799560547e+00 5.010353565216064453e+00 1.856832742691040039e+00 2.060155868530273438e+00 2.971406459808349609e+00
8.555000000000000000e+03 2.837801170349121094e+01 8.509162902832031250e+00 -2.796710014343261719e+00 -4.490322172641754150e-01 -9.737226963043212891e-01 -1.344572305679321289e+00
8.556000000000000000e+03 2.877238655090332031e+01 8.255836486816406250e+00 -1.346869826316833496e+00 -4.840447008609771729e-01 -5.492743849754333496e-01 -2.997665405273437500e-01
8.557000000000000000e+03 2.819168090820312500e+01 8.265731811523437500e+00 -2.694914579391479492e+00 -3.338422477245330811e-01 -9.086270928382873535e-01 -1.269878864288330078e+00
8.558000000000000000e+03 2.762212753295898438e+01 6.936492919921875000e+00 3.367658615112304688e+00 1.231896877288818359e+00 1.379866719245910645e+00 1.970321178436279297e+00
8.559000000000000000e+03 2.782902908325195312e+01 6.540134429931640625e+00 -4.082878112792968750e+00 -1.810763597488403320e+00 -1.768092513084411621e+00 -2.698732137680053711e+00
8.560000000000000000e+03 2.816375541687011719e+01 6.255253791809082031e+00 -3.303407907485961914e+00 -2.269081115722656250e+00 -1.671746730804443359e+00 -2.460996150970458984e+00
8.561000000000000000e+03 2.855319404602050781e+01 6.142180919647216797e+00 -2.812712430953979492e+00 -2.306695222854614258e+00 -1.535822272300720215e+00 -1.942318677902221680e+00
8.562000000000000000e+03 2.994088172912597656e+01 7.355839729309082031e+00 -1.063626289367675781e+00 -1.758397340774536133e+00 -8.466070890426635742e-01 -1.583270788192749023e+00
8.563000000000000000e+03 2.965469932556152344e+01 6.280673980712890625e+00 -2.246190547943115234e+00 -1.373599529266357422e+00 -1.085937023162841797e+00 -1.522618532180786133e+00
8.564000000000000000e+03 2.813894844055175781e+01 5.262156963348388672e+00 -2.761134624481201172e+00 -1.669034481048583984e+00 -1.329050779342651367e+00 -1.712843656539916992e+00
8.565000000000000000e+03 2.796563339233398438e+01 5.154746055603027344e+00 -2.839175701141357422e+00 -1.593195676803588867e+00 -1.329711437225341797e+00 -1.727207779884338379e+00
8.566000000000000000e+03 2.745028686523437500e+01 4.845677852630615234e+00 -2.970322608947753906e+00 -1.395592689514160156e+00 -1.309774637222290039e+00 -1.760727286338806152e+00
8.567000000000000000e+03 2.690469741821289062e+01 4.545875072479248047e+00 -3.153739929199218750e+00 -1.243506550788879395e+00 -1.319173932075500488e+00 -1.770228147506713867e+00
8.568000000000000000e+03 2.642532920837402344e+01 4.458956241607666016e+00 -3.353230953216552734e+00 -1.182068586349487305e+00 -1.360589861869812012e+00 -1.862577676773071289e+00
8.569000000000000000e+03 2.658790779113769531e+01 4.286829948425292969e+00 -3.225574970245361328e+00 -1.138187766075134277e+00 -1.309128880500793457e+00 -1.729063987731933594e+00
8.570000000000000000e+03 2.574311637878417969e+01 3.786098003387451172e+00 -3.433574199676513672e+00 -9.833060503005981445e-01 -1.325064063072204590e+00 -1.732772469520568848e+00
8.571000000000000000e+03 2.541836547851562500e+01 3.930738449096679688e+00 -3.658004999160766602e+00 -1.059821486473083496e+00 -1.415347933769226074e+00 -1.912497520446777344e+00
8.572000000000000000e+03 2.420208168029785156e+01 2.860757350921630859e+00 -3.814661979675292969e+00 -9.086419939994812012e-01 -1.416991114616394043e+00 -1.848426699638366699e+00
8.573000000000000000e+03 2.345994377136230469e+01 2.607226133346557617e+00 -3.991749048233032227e+00 -9.219235181808471680e-01 -1.474101781845092773e+00 -2.053647518157958984e+00
8.574000000000000000e+03 2.318541145324707031e+01 2.221759319305419922e+00 -3.865451097488403320e+00 -8.738633394241333008e-01 -1.421794414520263672e+00 -1.978619694709777832e+00
8.575000000000000000e+03 2.254116249084472656e+01 2.054912328720092773e+00 -4.043257713317871094e+00 -1.070578813552856445e+00 -1.534150958061218262e+00 -2.328008413314819336e+00
8.576000000000000000e+03 2.216105842590332031e+01 1.763288617134094238e+00 -3.808529376983642578e+00 -1.085492610931396484e+00 -1.468206524848937988e+00 -2.481392383575439453e+00
8.577000000000000000e+03 2.199205207824707031e+01 1.458675265312194824e+00 -3.406505346298217773e+00 -9.395095705986022949e-01 -1.303804397583007812e+00 -2.519470930099487305e+00
8.578000000000000000e+03 2.183944702148437500e+01 1.690778493881225586e+00 -3.788979530334472656e+00 -1.324970006942749023e+00 -1.534184813499450684e+00 -2.685908555984497070e+00
8.579000000000000000e+03 2.182098770141601562e+01 1.338136911392211914e+00 -3.308528184890747070e+00 -1.080203771591186523e+00 -1.316619515419006348e+00 -2.622859954833984375e+00
8.580000000000000000e+03 2.131197357177734375e+01 1.024908065795898438e+00 -2.840826511383056641e+00 -1.201977372169494629e+00 -1.212841153144836426e+00 -3.085800170898437500e+00
8.581000000000000000e+03 2.114123344421386719e+01 9.171155691146850586e-01 -2.689914464950561523e+00 -1.640793442726135254e+00 -1.299212336540222168e+00 -3.294358015060424805e+00
8.582000000000000000e+03 2.067724800109863281e+01 9.409630894660949707e-01 -2.431294202804565430e+00 -2.179492235183715820e+00 -1.383235931396484375e+00 -3.391158819198608398e+00
8.583000000000000000e+03 2.001682472229003906e+01 1.637134432792663574e+00 -3.807788133621215820e+00 -1.882348418235778809e+00 -1.707041025161743164e+00 -2.658662319183349609e+00
8.584000000000000000e+03 2.044163322448730469e+01 5.099294185638427734e-01 -1.829808831214904785e+00 -2.747718095779418945e+00 -1.373258113861083984e+00 -3.712004423141479492e+00
8.585000000000000000e+03 1.973522758483886719e+01 4.402073472738265991e-02 -1.986817955970764160e+00 -3.144751071929931641e+00 -1.539470672607421875e+00 -2.502301931381225586e+00
8.586000000000000000e+03 2.007245063781738281e+01 2.987338006496429443e-01 -1.430564165115356445e+00 -4.248376369476318359e+00 -1.703682065010070801e+00 -3.406419277191162109e+00
8.587000000000000000e+03 1.928709983825683594e+01 -2.650651633739471436e-01 -2.574909448623657227e+00 -3.310894012451171875e+00 -1.765740990638732910e+00 -2.112370729446411133e+00
8.588000000000000000e+03 1.904242515563964844e+01 -6.172461062669754028e-02 -2.075999975204467773e+00 -2.666242122650146484e+00 -1.422672629356384277e+00 -1.871377229690551758e+00
8.589000000000000000e+03 1.837055206298828125e+01 -4.188842475414276123e-01 -1.912582278251647949e+00 -1.573255300521850586e+00 -1.045751333236694336e+00 -1.299410104751586914e+00
8.590000000000000000e+03 1.854799652099609375e+01 -6.623200178146362305e-01 -2.293578147888183594e+00 -2.060087680816650391e+00 -1.306099772453308105e+00 -1.708453178405761719e+00
8.591000000000000000e+03 1.837671661376953125e+01 -7.712314128875732422e-01 -2.103380918502807617e+00 -1.911015987396240234e+00 -1.204319000244140625e+00 -1.464379549026489258e+00
8.592000000000000000e+03 2.547790527343750000e+01 6.817430019378662109e+00 -5.432197093963623047e+00 -2.679081439971923828e+00 -2.433383703231811523e+00 -3.822521924972534180e+00
8.593000000000000000e+03 2.751976966857910156e+01 8.118475914001464844e+00 -3.563753128051757812e+00 -1.815113782882690430e+00 -1.613660097122192383e+00 -2.680695056915283203e+00
8.594000000000000000e+03 2.774594306945800781e+01 8.091825485229492188e+00 -2.824079513549804688e+00 -9.044428467750549316e-01 -1.118556737899780273e+00 -1.815887928009033203e+00
8.595000000000000000e+03 2.639754867553710938e+01 7.404555320739746094e+00 -4.821312904357910156e+00 -3.013388156890869141e+00 -2.350410461425781250e+00 -3.646032810211181641e+00
8.596000000000000000e+03 2.606106948852539062e+01 7.185231208801269531e+00 -5.382388591766357422e+00 -3.052862405776977539e+00 -2.530575275421142578e+00 -3.941408872604370117e+00
8.597000000000000000e+03 2.798363685607910156e+01 8.158415794372558594e+00 -2.818453073501586914e+00 -4.870960116386413574e-01 -9.916647076606750488e-01 -1.505590438842773438e+00
8.598000000000000000e+03 2.766287040710449219e+01 7.594291687011718750e+00 -7.872135043144226074e-01 6.121056526899337769e-02 -2.178008705377578735e-01 -7.797536253929138184e-01
8.599000000000000000e+03 2.922995376586914062e+01 8.264119148254394531e+00 -1.198152780532836914e+00 -1.246134400367736816e+00 -7.332861423492431641e-01 -5.543607473373413086e-01
8.600000000000000000e+03 2.787303733825683594e+01 7.956303119659423828e+00 -2.313172340393066406e+00 -3.199556469917297363e-02 -7.035503387451171875e-01 -1.358548760414123535e+00
8.601000000000000000e+03 2.732738494873046875e+01 7.844492435455322266e+00 -3.060386419296264648e+00 -1.492839574813842773e+00 -1.365967869758605957e+00 -2.331561565399169922e+00
8.602000000000000000e+03 2.705543899536132812e+01 7.530703067779541016e+00 -2.484804391860961914e+00 -1.384405136108398438e+00 -1.160762786865234375e+00 -1.897029042243957520e+00
8.603000000000000000e+03 2.968653678894042969e+01 7.849141120910644531e+00 -7.364233136177062988e-01 -1.739933967590332031e+00 -7.429071664810180664e-01 -1.132712364196777344e+00
8.604000000000000000e+03 2.835629081726074219e+01 6.176811218261718750e+00 -3.064326524734497070e+00 -2.353261470794677734e+00 -1.625276446342468262e+00 -2.242393493652343750e+00
8.605000000000000000e+03 2.950033187866210938e+01 6.448091506958007812e+00 -2.386504411697387695e+00 -1.482204318046569824e+00 -1.160612583160400391e+00 -1.684453725814819336e+00
8.606000000000000000e+03 2.894675827026367188e+01 6.136587142944335938e+00 -2.607039928436279297e+00 -1.963664770126342773e+00 -1.371211409568786621e+00 -1.577751874923706055e+00
8.607000000000000000e+03 2.874980735778808594e+01 6.135490417480468750e+00 -2.736486911773681641e+00 -2.197020292282104492e+00 -1.480052113533020020e+00 -1.763088226318359375e+00
8.608000000000000000e+03 2.767642974853515625e+01 6.402858257293701172e+00 -3.916219949722290039e+00 -1.711624026298522949e+00 -1.688353180885314941e+00 -2.594083547592163086e+00
8.609000000000000000e+03 2.937743759155273438e+01 6.025830745697021484e+00 -2.392250061035156250e+00 -1.557378411293029785e+00 -1.184888482093811035e+00 -1.433979988098144531e+00
8.610000000000000000e+03 2.971186447143554688e+01 7.641345977783203125e+00 -5.078405141830444336e-01 -1.969554543495178223e+00 -7.432185411453247070e-01 -1.408923983573913574e+00
8.611000000000000000e+03 1.572074985504150391e+01 2.189624011516571045e-01 -4.971933066844940186e-01 1.666455149650573730e+00 3.507785499095916748e-01 -9.966394305229187012e-01
8.612000000000000000e+03 2.408654022216796875e+01 4.547325134277343750e+00 3.904600620269775391e+00 1.070341587066650391e+00 1.492482662200927734e+00 2.049619197845458984e+00
8.613000000000000000e+03 2.037843704223632812e+01 2.863221883773803711e+00 -3.156291544437408447e-01 -9.003802537918090820e-01 -3.648028075695037842e-01 -8.106850385665893555e-01
8.614000000000000000e+03 2.261888504028320312e+01 3.930613756179809570e+00 1.177587151527404785e+00 -1.458342522382736206e-01 3.095258772373199463e-01 2.303714305162429810e-01
8.615000000000000000e+03 2.189883041381835938e+01 4.254463672637939453e+00 -2.250340700149536133e+00 -1.242824912071228027e+00 -1.047949671745300293e+00 -1.744116663932800293e+00
8.616000000000000000e+03 1.715502357482910156e+01 2.484077364206314087e-01 -5.839811801910400391e+00 -1.929355859756469727e+00 -2.330750226974487305e+00 -3.708158493041992188e+00
8.617000000000000000e+03 1.699773979187011719e+01 1.264773458242416382e-01 -6.011579990386962891e+00 -1.710494160652160645e+00 -2.316622257232666016e+00 -3.398362636566162109e+00
8.618000000000000000e+03 1.885128974914550781e+01 2.235883474349975586e+00 1.255665183067321777e+00 6.179276108741760254e-02 3.952373564243316650e-01 3.847973048686981201e-01
8.619000000000000000e+03 1.847843170166015625e+01 2.026584863662719727e+00 1.835719347000122070e+00 2.406110316514968872e-01 6.228991150856018066e-01 8.163731694221496582e-01
8.620000000000000000e+03 2.543092918395996094e+01 5.707922935485839844e+00 1.760236978530883789e+00 3.046100437641143799e-01 6.194540858268737793e-01 9.490800499916076660e-01
8.621000000000000000e+03 2.457446861267089844e+01 5.008879184722900391e+00 3.190719604492187500e+00 6.576592326164245605e-01 1.154513716697692871e+00 1.506556630134582520e+00
8.622000000000000000e+03 2.325514793395996094e+01 3.987225294113159180e+00 2.788247108459472656e+00 7.535958290100097656e-01 1.062552928924560547e+00 1.397759914398193359e+00
8.623000000000000000e+03 2.463901519775390625e+01 4.825169563293457031e+00 4.084500789642333984e+00 1.448556542396545410e+00 1.659917235374450684e+00 2.619478702545166016e+00
8.624000000000000000e+03 2.104832649230957031e+01 2.598700046539306641e+00 1.967522874474525452e-02 -1.558603793382644653e-01 -4.085554555058479309e-02 -1.207390874624252319e-01
8.625000000000000000e+03 2.219436645507812500e+01 3.388534784317016602e+00 1.695153117179870605e+00 3.485096991062164307e-01 6.130988597869873047e-01 7.124833464622497559e-01
8.626000000000000000e+03 2.275546455383300781e+01 3.693754434585571289e+00 2.212992668151855469e+00 5.331460833549499512e-01 8.238416910171508789e-01 1.127123475074768066e+00
8.627000000000000000e+03 2.191262245178222656e+01 3.660018205642700195e+00 3.429243341088294983e-02 -5.942825078964233398e-01 -1.679970175027847290e-01 -5.236781239509582520e-01
8.628000000000000000e+03 2.427522277832031250e+01 4.646494388580322266e+00 4.148757934570312500e+00 1.148868203163146973e+00 1.589287757873535156e+00 2.216392040252685547e+00
8.629000000000000000e+03 2.446111488342285156e+01 4.740173339843750000e+00 4.256568908691406250e+00 1.241498827934265137e+00 1.649420261383056641e+00 2.450565099716186523e+00
8.630000000000000000e+03 2.528694915771484375e+01 5.271379947662353516e+00 4.424933910369873047e+00 1.578580260276794434e+00 1.801054239273071289e+00 2.501758098602294922e+00
8.631000000000000000e+03 2.717264175415039062e+01 6.434658527374267578e+00 4.855887889862060547e+00 1.691599845886230469e+00 1.964246392250061035e+00 2.927176952362060547e+00
8.632000000000000000e+03 1.733164405822753906e+01 3.668887019157409668e-01 -5.916797161102294922e+00 -2.428325891494750977e+00 -2.503536939620971680e+00 -3.427650928497314453e+00
8.633000000000000000e+03 1.705279922485351562e+01 1.104628801345825195e+00 3.907299757003784180e+00 7.140931487083435059e-01 1.386417865753173828e+00 1.410312771797180176e+00
8.634000000000000000e+03 1.820470809936523438e+01 1.020192623138427734e+00 -2.958548069000244141e+00 -1.755665540695190430e+00 -1.414264082908630371e+00 -2.443122863769531250e+00
8.635000000000000000e+03 1.934757041931152344e+01 1.523654103279113770e+00 -2.802096843719482422e+00 -1.300231695175170898e+00 -1.230698585510253906e+00 -1.838724255561828613e+00
8.636000000000000000e+03 1.620856475830078125e+01 -2.564688026905059814e-01 -4.999660015106201172e+00 -1.234027504920959473e+00 -1.870106339454650879e+00 -2.234472274780273438e+00
8.637000000000000000e+03 1.637600135803222656e+01 -1.055432707071304321e-01 -5.283220291137695312e+00 -1.141822338104248047e+00 -1.927512884140014648e+00 -2.551222085952758789e+00
8.638000000000000000e+03 1.682551574707031250e+01 6.590063869953155518e-02 -5.717325210571289062e+00 -1.662762999534606934e+00 -2.214026451110839844e+00 -3.061379432678222656e+00
8.639000000000000000e+03 2.681288909912109375e+01 6.210831165313720703e+00 4.678779125213623047e+00 1.854155421257019043e+00 1.959880471229553223e+00 2.940407752990722656e+00
8.640000000000000000e+03 2.041065216064453125e+01 2.207756280899047852e+00 -8.709936141967773438e-01 -5.440265536308288574e-01 -4.245060682296752930e-01 -6.982949376106262207e-01
8.641000000000000000e+03 1.647114562988281250e+01 -6.173247694969177246e-01 -1.351609587669372559e+00 -3.087678551673889160e-01 -4.981132149696350098e-01 -6.060095429420471191e-01
8.642000000000000000e+03 2.714648437500000000e+01 6.079617023468017578e+00 -3.756839036941528320e+00 -1.525138854980468750e+00 -1.584593415260314941e+00 -2.394685983657836914e+00
8.643000000000000000e+03 2.610667991638183594e+01 3.989916086196899414e+00 -3.345715522766113281e+00 -1.037265181541442871e+00 -1.314894199371337891e+00 -1.743887305259704590e+00
8.644000000000000000e+03 1.833070755004882812e+01 5.895792841911315918e-01 -7.763578891754150391e-01 -5.470105409622192383e-01 -3.970105350017547607e-01 -5.246787667274475098e-01
8.645000000000000000e+03 2.237835693359375000e+01 3.131584405899047852e+00 -5.267936229705810547e+00 -1.959506154060363770e+00 -2.168232679367065430e+00 -3.189486503601074219e+00
8.646000000000000000e+03 1.764385032653808594e+01 1.744001954793930054e-01 -6.703248620033264160e-01 -2.984875440597534180e-01 -2.906437218189239502e-01 -3.515857160091400146e-01
8.647000000000000000e+03 1.916730690002441406e+01 1.125744342803955078e+00 -1.829523444175720215e+00 -1.211799025535583496e+00 -9.123967885971069336e-01 -1.458927392959594727e+00
8.648000000000000000e+03 2.649093246459960938e+01 5.643176078796386719e+00 -3.710393905639648438e+00 -1.455420374870300293e+00 -1.549744248390197754e+00 -2.302818775177001953e+00
8.649000000000000000e+03 2.631550598144531250e+01 5.527283191680908203e+00 -3.727943658828735352e+00 -1.437343358993530273e+00 -1.549586057662963867e+00 -2.302551984786987305e+00
8.650000000000000000e+03 2.612833976745605469e+01 5.438388347625732422e+00 -3.752481222152709961e+00 -1.430582165718078613e+00 -1.554919004440307617e+00 -2.314683198928833008e+00
8.651000000000000000e+03 2.492999267578125000e+01 4.705292224884033203e+00 -4.061914443969726562e+00 -1.492584109306335449e+00 -1.666349649429321289e+00 -2.479501485824584961e+00
8.652000000000000000e+03 2.546989440917968750e+01 4.657116889953613281e+00 -3.834769487380981445e+00 -1.346740484237670898e+00 -1.554453015327453613e+00 -2.249525308609008789e+00
8.653000000000000000e+03 2.545153236389160156e+01 5.036966800689697266e+00 -3.891065359115600586e+00 -1.487662076950073242e+00 -1.613618135452270508e+00 -2.377806425094604492e+00
8.654000000000000000e+03 2.459490013122558594e+01 4.509659290313720703e+00 -4.192907333374023438e+00 -1.547695636749267578e+00 -1.722180843353271484e+00 -2.559247732162475586e+00
8.655000000000000000e+03 2.469862174987792969e+01 4.145606040954589844e+00 -4.088991641998291016e+00 -1.351697087287902832e+00 -1.632206559181213379e+00 -2.328196525573730469e+00
8.656000000000000000e+03 2.373550224304199219e+01 3.974582195281982422e+00 -4.566920757293701172e+00 -1.691759347915649414e+00 -1.877604126930236816e+00 -2.767215728759765625e+00
8.657000000000000000e+03 2.424369049072265625e+01 4.286685943603515625e+00 -4.339075565338134766e+00 -1.584612727165222168e+00 -1.777106523513793945e+00 -2.636134624481201172e+00
8.658000000000000000e+03 2.339944267272949219e+01 3.365537881851196289e+00 -4.599247455596923828e+00 -1.476758122444152832e+00 -1.822801589965820312e+00 -2.591019868850708008e+00
8.659000000000000000e+03 1.737028121948242188e+01 -1.417335867881774902e+00 -2.169764995574951172e+00 -9.321486949920654297e-01 -9.305740594863891602e-01 -1.033661127090454102e+00
8.660000000000000000e+03 1.628935050964355469e+01 -7.278177142143249512e-01 -1.574810743331909180e+00 -3.237206339836120605e-01 -5.695593953132629395e-01 -6.844933629035949707e-01
8.661000000000000000e+03 1.664281463623046875e+01 -5.031195878982543945e-01 -1.162768363952636719e+00 -3.063019216060638428e-01 -4.407210946083068848e-01 -5.503548979759216309e-01
8.662000000000000000e+03 2.750169563293457031e+01 6.282786369323730469e+00 -3.857129096984863281e+00 -1.679669380187988281e+00 -1.661039590835571289e+00 -2.481389522552490234e+00
8.663000000000000000e+03 2.573222351074218750e+01 4.982469081878662109e+00 -3.800253391265869141e+00 -1.387613534927368164e+00 -1.556360125541687012e+00 -2.281949281692504883e+00
8.664000000000000000e+03 2.255205917358398438e+01 3.223788022994995117e+00 -5.177976608276367188e+00 -1.869085192680358887e+00 -2.114118576049804688e+00 -3.151352405548095703e+00
8.665000000000000000e+03 2.247628593444824219e+01 2.902311563491821289e+00 -4.992980003356933594e+00 -1.655270934104919434e+00 -1.994475245475769043e+00 -2.930389881134033203e+00
8.666000000000000000e+03 2.120512962341308594e+01 2.366119623184204102e+00 -5.352403163909912109e+00 -2.115396499633789062e+00 -2.240339756011962891e+00 -3.378515005111694336e+00
8.667000000000000000e+03 1.982842826843261719e+01 1.562138557434082031e+00 -3.570298433303833008e+00 -1.714966535568237305e+00 -1.585579514503479004e+00 -2.408998012542724609e+00
8.668000000000000000e+03 1.685240936279296875e+01 -8.052365779876708984e-01 -1.735328912734985352e+00 -3.581524491310119629e-01 -6.280444264411926270e-01 -6.796595454216003418e-01
8.669000000000000000e+03 2.866297340393066406e+01 5.560963630676269531e+00 -2.610524654388427734e+00 -1.786593556404113770e+00 -1.319135427474975586e+00 -1.553151965141296387e+00
8.670000000000000000e+03 2.709033966064453125e+01 4.650040626525878906e+00 -3.091419219970703125e+00 -1.284201383590698242e+00 -1.312686204910278320e+00 -1.774612545967102051e+00
8.671000000000000000e+03 1.701620674133300781e+01 -1.598754167556762695e+00 -2.001835346221923828e+00 -7.883037924766540527e-01 -8.370417356491088867e-01 -9.171508550643920898e-01
8.672000000000000000e+03 1.990662193298339844e+01 1.681541800498962402e-01 -1.134772062301635742e+00 -3.993717908859252930e+00 -1.538547039031982422e+00 -2.374819755554199219e+00
8.673000000000000000e+03 2.402393531799316406e+01 2.738673686981201172e+00 -3.812754154205322266e+00 -8.535124063491821289e-01 -1.399880051612854004e+00 -1.846997976303100586e+00
8.674000000000000000e+03 2.919072723388671875e+01 5.915001869201660156e+00 -2.470895290374755859e+00 -1.662074327468872070e+00 -1.239890813827514648e+00 -1.410222530364990234e+00
8.675000000000000000e+03 2.800765800476074219e+01 5.494798660278320312e+00 -2.943172693252563477e+00 -1.769789695739746094e+00 -1.413888692855834961e+00 -1.922042489051818848e+00
8.676000000000000000e+03 2.761833190917968750e+01 4.951700210571289062e+00 -2.961485862731933594e+00 -1.481487870216369629e+00 -1.332892179489135742e+00 -1.787144064903259277e+00
8.677000000000000000e+03 2.456723022460937500e+01 3.055789470672607422e+00 -3.733485221862792969e+00 -8.863165378570556641e-01 -1.385940551757812500e+00 -1.785071253776550293e+00
8.678000000000000000e+03 2.249617195129394531e+01 1.752540349960327148e+00 -3.695961475372314453e+00 -9.026075005531311035e-01 -1.379570722579956055e+00 -2.227689981460571289e+00
8.679000000000000000e+03 2.233315849304199219e+01 1.638239860534667969e+00 -3.570274591445922852e+00 -8.057498931884765625e-01 -1.312807321548461914e+00 -2.321914672851562500e+00
8.680000000000000000e+03 2.148179817199707031e+01 1.128484606742858887e+00 -2.964121818542480469e+00 -1.262507915496826172e+00 -1.267988920211791992e+00 -2.907025575637817383e+00
8.681000000000000000e+03 2.096979713439941406e+01 8.090916872024536133e-01 -2.468688488006591797e+00 -1.615541100502014160e+00 -1.225268840789794922e+00 -3.377023220062255859e+00
8.682000000000000000e+03 2.354416084289550781e+01 2.388252258300781250e+00 -3.820816993713378906e+00 -8.368025422096252441e-01 -1.397285819053649902e+00 -1.867310881614685059e+00
8.683000000000000000e+03 2.522423934936523438e+01 4.140122890472412109e+00 -3.812360048294067383e+00 -1.194949746131896973e+00 -1.502192974090576172e+00 -2.109711170196533203e+00
8.684000000000000000e+03 2.577788734436035156e+01 4.142484188079833984e+00 -3.536664724349975586e+00 -1.102210760116577148e+00 -1.391662597656250000e+00 -1.899709224700927734e+00
8.685000000000000000e+03 2.091345596313476562e+01 1.713690042495727539e+00 -3.897568464279174805e+00 -2.106889486312866211e+00 -1.801337361335754395e+00 -3.155358314514160156e+00
8.686000000000000000e+03 2.337233734130859375e+01 2.300741434097290039e+00 -3.801355838775634766e+00 -7.925872206687927246e-01 -1.378182888031005859e+00 -1.933171987533569336e+00
8.687000000000000000e+03 2.489199066162109375e+01 3.406341314315795898e+00 -3.683666706085205078e+00 -9.516719579696655273e-01 -1.390601634979248047e+00 -1.834119319915771484e+00
8.688000000000000000e+03 2.883820724487304688e+01 5.658454418182373047e+00 -2.522426128387451172e+00 -1.780423045158386230e+00 -1.290854811668395996e+00 -1.489549636840820312e+00
8.689000000000000000e+03 2.854191970825195312e+01 5.962574481964111328e+00 -2.774305582046508789e+00 -2.149389028549194336e+00 -1.477108478546142578e+00 -1.865174174308776855e+00
8.690000000000000000e+03 2.817785644531250000e+01 5.623554706573486328e+00 -2.875612497329711914e+00 -1.860777497291564941e+00 -1.420917034149169922e+00 -1.901866197586059570e+00
8.691000000000000000e+03 2.474594879150390625e+01 3.141265630722045898e+00 -3.630445480346679688e+00 -8.642454743385314941e-01 -1.348407268524169922e+00 -1.745010375976562500e+00
8.692000000000000000e+03 2.469014930725097656e+01 3.378220081329345703e+00 -3.845895528793334961e+00 -1.017579078674316406e+00 -1.459042310714721680e+00 -1.927771568298339844e+00
8.693000000000000000e+03 2.319405364990234375e+01 2.760295867919921875e+00 -4.373887538909912109e+00 -1.175954699516296387e+00 -1.664952635765075684e+00 -2.339334011077880859e+00
8.694000000000000000e+03 2.271275901794433594e+01 2.695827960968017578e+00 -4.605085849761962891e+00 -1.374722003936767578e+00 -1.793942332267761230e+00 -2.597462415695190430e+00
8.695000000000000000e+03 2.165103340148925781e+01 1.230265378952026367e+00 -3.124274730682373047e+00 -1.082744359970092773e+00 -1.262105703353881836e+00 -2.828177690505981445e+00
8.696000000000000000e+03 2.101836776733398438e+01 1.156368136405944824e+00 -2.896217823028564453e+00 -1.734764218330383301e+00 -1.389294624328613281e+00 -3.193442106246948242e+00
8.697000000000000000e+03 1.959152603149414062e+01 -8.714351803064346313e-02 -1.706234931945800781e+00 -4.047615051269531250e+00 -1.726155042648315430e+00 -2.528115749359130859e+00
8.698000000000000000e+03 1.910376167297363281e+01 -3.396536111831665039e-01 -1.980938434600830078e+00 -2.957112312316894531e+00 -1.481415271759033203e+00 -1.846504449844360352e+00
8.699000000000000000e+03 1.737996482849121094e+01 -1.082728028297424316e+00 -1.968351483345031738e+00 -7.971612215042114258e-01 -8.296537995338439941e-01 -1.002358913421630859e+00
8.700000000000000000e+03 1.665299797058105469e+01 -1.366106986999511719e+00 -1.821087479591369629e+00 -5.522466301918029785e-01 -7.120002508163452148e-01 -6.594660282135009766e-01
8.701000000000000000e+03 2.560299110412597656e+01 4.036937236785888672e+00 -3.625063896179199219e+00 -1.107306003570556641e+00 -1.419710993766784668e+00 -1.913475871086120605e+00
8.702000000000000000e+03 2.556997489929199219e+01 3.676821708679199219e+00 -3.474242448806762695e+00 -9.922813177108764648e-01 -1.339957118034362793e+00 -1.737898468971252441e+00
8.703000000000000000e+03 2.267225265502929688e+01 1.856473326683044434e+00 -3.669354438781738281e+00 -7.822175025939941406e-01 -1.335471630096435547e+00 -2.125336170196533203e+00
8.704000000000000000e+03 1.875694274902343750e+01 1.500918716192245483e-01 -1.680865406990051270e+00 -1.748939275741577148e+00 -1.028941392898559570e+00 -1.444936513900756836e+00
8.705000000000000000e+03 1.945619201660156250e+01 -1.930207461118698120e-01 -1.612546443939208984e+00 -3.594300508499145508e+00 -1.562054157257080078e+00 -2.076893091201782227e+00
8.706000000000000000e+03 2.010481643676757812e+01 1.357575654983520508e+00 -2.887992382049560547e+00 -2.389284133911132812e+00 -1.583182930946350098e+00 -2.843073606491088867e+00
8.707000000000000000e+03 1.841072654724121094e+01 5.619067698717117310e-02 -1.436869502067565918e+00 -1.239644646644592285e+00 -8.029542565345764160e-01 -1.143068194389343262e+00
8.708000000000000000e+03 2.293848037719726562e+01 3.778915882110595703e+00 2.294103145599365234e+00 6.170919537544250488e-01 8.733584880828857422e-01 1.295485258102416992e+00
8.709000000000000000e+03 2.319155120849609375e+01 4.172224521636962891e+00 1.895292401313781738e+00 2.498243600130081177e-01 6.435350179672241211e-01 7.720059156417846680e-01
8.710000000000000000e+03 2.230008888244628906e+01 2.838378667831420898e+00 -5.088362216949462891e+00 -1.789551973342895508e+00 -2.063374280929565430e+00 -3.015480279922485352e+00
8.711000000000000000e+03 2.168866348266601562e+01 2.394690036773681641e+00 -4.986923694610595703e+00 -1.871546149253845215e+00 -2.057540893554687500e+00 -3.106143951416015625e+00
8.712000000000000000e+03 1.698645019531250000e+01 5.031378865242004395e-01 -1.828546047210693359e+00 -5.329984426498413086e-01 -7.084633111953735352e-01 -1.259036779403686523e+00
8.713000000000000000e+03 1.666123962402343750e+01 9.482248425483703613e-01 4.694812297821044922e+00 5.742512941360473633e-01 1.580718994140625000e+00 1.428027987480163574e+00
8.714000000000000000e+03 1.766868972778320312e+01 5.414660573005676270e-01 -5.455713272094726562e+00 -2.307740688323974609e+00 -2.329035997390747070e+00 -3.533436298370361328e+00
8.715000000000000000e+03 2.321248054504394531e+01 5.169775009155273438e+00 -4.402101993560791016e+00 -1.822699785232543945e+00 -1.867440581321716309e+00 -2.831028461456298828e+00
8.716000000000000000e+03 2.459815216064453125e+01 6.050763130187988281e+00 -4.527954101562500000e+00 -2.611258506774902344e+00 -2.141763925552368164e+00 -3.316547393798828125e+00
8.717000000000000000e+03 2.424361228942871094e+01 5.820015430450439453e+00 -4.660082817077636719e+00 -2.437520980834960938e+00 -2.129281282424926758e+00 -3.314980745315551758e+00
8.718000000000000000e+03 2.288629722595214844e+01 4.957085609436035156e+00 -3.800431013107299805e+00 -1.641489386558532715e+00 -1.632576107978820801e+00 -2.564249515533447266e+00
8.719000000000000000e+03 2.257455825805664062e+01 4.721637248992919922e+00 -3.146640777587890625e+00 -1.512147665023803711e+00 -1.397636532783508301e+00 -2.241628885269165039e+00
8.720000000000000000e+03 1.947818183898925781e+01 2.024142265319824219e+00 -6.383405923843383789e-01 -1.040195345878601074e+00 -5.035607814788818359e-01 -1.020862221717834473e+00
8.721000000000000000e+03 1.982610702514648438e+01 2.928222179412841797e+00 -2.660955786705017090e-01 -4.337651133537292480e-01 -2.099582105875015259e-01 -3.715811371803283691e-01
8.722000000000000000e+03 2.083228874206542969e+01 2.681646585464477539e+00 -3.292926028370857239e-02 -5.383898019790649414e-01 -1.713957190513610840e-01 -4.343198835849761963e-01
8.723000000000000000e+03 1.949709129333496094e+01 2.715226173400878906e+00 1.575768440961837769e-01 -1.889361143112182617e-01 -9.407783858478069305e-03 -1.246508359909057617e-01
8.724000000000000000e+03 1.919207572937011719e+01 2.472609281539916992e+00 7.029254436492919922e-01 -6.128476560115814209e-02 1.924922168254852295e-01 1.392479240894317627e-01
8.725000000000000000e+03 2.121676445007324219e+01 3.790680646896362305e+00 -1.743826746940612793e+00 -1.101413249969482422e+00 -8.535720109939575195e-01 -1.329698443412780762e+00
8.726000000000000000e+03 2.519695091247558594e+01 6.583257198333740234e+00 -4.950239181518554688e+00 -2.595588445663452148e+00 -2.263748407363891602e+00 -3.676800012588500977e+00
8.727000000000000000e+03 1.563149452209472656e+01 6.393854022026062012e-01 6.324490070343017578e+00 1.194162607192993164e+00 2.255595684051513672e+00 -8.256744593381881714e-02
8.728000000000000000e+03 2.067097282409667969e+01 2.069600105285644531e+00 -4.988882541656494141e+00 -2.104943990707397461e+00 -2.128148078918457031e+00 -3.236023664474487305e+00
8.729000000000000000e+03 1.747878456115722656e+01 6.543330848217010498e-02 -6.751865148544311523e-01 -1.956815719604492188e-01 -2.612604200839996338e-01 -4.226971566677093506e-01
8.730000000000000000e+03 2.746684837341308594e+01 5.217572212219238281e+00 -3.127241373062133789e+00 -1.496894121170043945e+00 -1.387240648269653320e+00 -1.941384434700012207e+00
8.731000000000000000e+03 2.720285987854003906e+01 7.952029705047607422e+00 -4.023122787475585938e+00 -2.290204524993896484e+00 -1.893998146057128906e+00 -2.984263181686401367e+00
8.732000000000000000e+03 2.720083045959472656e+01 7.676205158233642578e+00 -2.775993347167968750e+00 -1.475690960884094238e+00 -1.275505304336547852e+00 -2.144573688507080078e+00
8.733000000000000000e+03 2.689942932128906250e+01 7.720446586608886719e+00 -4.241003513336181641e+00 -2.578555822372436523e+00 -2.045867919921875000e+00 -3.386687040328979492e+00
8.734000000000000000e+03 2.759079551696777344e+01 7.387093544006347656e+00 2.511606216430664062e-01 2.474272847175598145e-01 1.495763659477233887e-01 -7.935658097267150879e-02
8.735000000000000000e+03 2.735442161560058594e+01 8.031585693359375000e+00 -3.803469181060791016e+00 -1.757371664047241211e+00 -1.668252229690551758e+00 -2.810975313186645508e+00
8.736000000000000000e+03 2.757423591613769531e+01 7.161364555358886719e+00 1.689043164253234863e+00 7.665424942970275879e-01 7.366756796836853027e-01 8.747961521148681641e-01
8.737000000000000000e+03 1.913147354125976562e+01 1.708049178123474121e+00 -1.403648734092712402e+00 -1.175802588462829590e+00 -7.738354206085205078e-01 -1.398925900459289551e+00
8.738000000000000000e+03 1.783256149291992188e+01 6.709766387939453125e-01 -5.279202938079833984e+00 -2.199989080429077148e+00 -2.243757724761962891e+00 -3.318519830703735352e+00
8.739000000000000000e+03 2.203362846374511719e+01 3.262252807617187500e+00 1.423668026924133301e+00 2.853633463382720947e-01 5.127094388008117676e-01 6.589052677154541016e-01
8.740000000000000000e+03 2.494200134277343750e+01 5.372527599334716797e+00 2.154595375061035156e+00 5.458308458328247070e-01 8.101279139518737793e-01 1.306204438209533691e+00
8.741000000000000000e+03 2.355599021911621094e+01 4.197517395019531250e+00 3.229785203933715820e+00 9.427591562271118164e-01 1.251763343811035156e+00 1.723499298095703125e+00
8.742000000000000000e+03 1.835742568969726562e+01 9.198219180107116699e-01 -4.524214744567871094e+00 -1.752627611160278320e+00 -1.883052706718444824e+00 -2.924089431762695312e+00
8.743000000000000000e+03 1.981208992004394531e+01 1.908708810806274414e+00 -1.490850806236267090e+00 -8.833048939704895020e-01 -7.122467160224914551e-01 -1.273501873016357422e+00
8.744000000000000000e+03 1.889168930053710938e+01 1.260418415069580078e+00 -3.776893854141235352e+00 -1.455808162689208984e+00 -1.569810628890991211e+00 -2.336573123931884766e+00
8.745000000000000000e+03 2.579296684265136719e+01 5.605371475219726562e+00 4.578164577484130859e+00 1.683656573295593262e+00 1.878546357154846191e+00 2.691140413284301758e+00
8.746000000000000000e+03 2.328168487548828125e+01 4.355839252471923828e+00 1.417094111442565918e+00 -1.328853368759155273e-01 3.852626383304595947e-01 3.148576617240905762e-01
8.747000000000000000e+03 1.962993812561035156e+01 1.788683295249938965e+00 -1.940561175346374512e+00 -1.100140094757080078e+00 -9.122104048728942871e-01 -1.400204896926879883e+00
8.748000000000000000e+03 2.154427337646484375e+01 2.975977420806884766e+00 7.893104553222656250e-01 -4.527230560779571533e-02 2.232114523649215698e-01 1.949677318334579468e-01
8.749000000000000000e+03 2.562596130371093750e+01 5.488987922668457031e+00 4.500004291534423828e+00 1.533095121383666992e+00 1.809929728507995605e+00 2.754258632659912109e+00
8.750000000000000000e+03 2.240906715393066406e+01 3.824522256851196289e+00 8.702310323715209961e-01 -3.273440897464752197e-01 1.628660857677459717e-01 -2.944677835330367088e-04
8.751000000000000000e+03 1.945355224609375000e+01 1.662100911140441895e+00 -2.061683893203735352e+00 -1.119742512702941895e+00 -9.544278979301452637e-01 -1.689248442649841309e+00
8.752000000000000000e+03 2.344686126708984375e+01 4.526854038238525391e+00 1.079276800155639648e+00 -2.984631061553955078e-01 2.342441231012344360e-01 7.377276569604873657e-02
8.753000000000000000e+03 2.002790832519531250e+01 2.680840253829956055e+00 -1.668197959661483765e-01 -8.399394750595092773e-01 -3.020277917385101318e-01 -7.065797448158264160e-01
8.754000000000000000e+03 1.999521446228027344e+01 2.037484884262084961e+00 -1.310319066047668457e+00 -8.670799732208251953e-01 -6.532196998596191406e-01 -1.049814343452453613e+00
8.755000000000000000e+03 2.472340774536132812e+01 5.524893760681152344e+00 -4.414069354534149170e-01 -7.626042962074279785e-01 -3.612033724784851074e-01 -4.920187592506408691e-01
8.756000000000000000e+03 1.850706863403320312e+01 1.045880794525146484e+00 -4.112310886383056641e+00 -1.762659311294555664e+00 -1.762491106986999512e+00 -2.732367038726806641e+00
8.757000000000000000e+03 1.807388114929199219e+01 1.353222250938415527e+00 3.822540938854217529e-01 -8.082557916641235352e-01 -1.278005093336105347e-01 -5.610008835792541504e-01
8.758000000000000000e+03 2.476775360107421875e+01 5.282151699066162109e+00 1.816984176635742188e+00 3.158912360668182373e-01 6.398625969886779785e-01 9.743555188179016113e-01
8.759000000000000000e+03 1.802577590942382812e+01 7.688775658607482910e-01 -5.114544391632080078e+00 -2.000209569931030273e+00 -2.134426116943359375e+00 -3.210939884185791016e+00
8.760000000000000000e+03 1.751261901855468750e+01 4.459056854248046875e-01 -5.798790931701660156e+00 -1.797218561172485352e+00 -2.278802871704101562e+00 -3.642292261123657227e+00
8.761000000000000000e+03 1.748308944702148438e+01 7.161186337471008301e-01 -2.019601583480834961e+00 -9.435153007507324219e-01 -8.889350295066833496e-01 -1.886946558952331543e+00
8.762000000000000000e+03 2.175073432922363281e+01 3.445808649063110352e+00 2.378464639186859131e-01 -5.496852397918701172e-01 -9.355163574218750000e-02 -3.342487215995788574e-01
8.763000000000000000e+03 2.698365974426269531e+01 6.330865859985351562e+00 4.803158283233642578e+00 1.845417141914367676e+00 1.994572639465332031e+00 2.827505826950073242e+00
8.764000000000000000e+03 2.316289901733398438e+01 4.730809688568115234e+00 -1.460383534431457520e+00 -1.177311778068542480e+00 -7.913086414337158203e-01 -1.452622652053833008e+00
8.765000000000000000e+03 2.390306663513183594e+01 4.072781562805175781e+00 -4.484580993652343750e+00 -1.652538895606994629e+00 -1.841135978698730469e+00 -2.728266239166259766e+00
8.766000000000000000e+03 2.434104156494140625e+01 4.051373481750488281e+00 -4.244888305664062500e+00 -1.450882077217102051e+00 -1.708731174468994141e+00 -2.466869354248046875e+00
8.767000000000000000e+03 1.749348831176757812e+01 -2.773938775062561035e-01 -1.285767793655395508e+00 -4.005882441997528076e-01 -5.059068202972412109e-01 -6.866892576217651367e-01
8.768000000000000000e+03 1.681100463867187500e+01 -3.843196630477905273e-01 -1.023679018020629883e+00 -2.579641044139862061e-01 -3.844929337501525879e-01 -5.247802138328552246e-01
8.769000000000000000e+03 2.064845657348632812e+01 1.720833301544189453e+00 -4.051053524017333984e+00 -2.140277385711669922e+00 -1.857399344444274902e+00 -3.120975255966186523e+00
8.770000000000000000e+03 2.354714202880859375e+01 3.523911237716674805e+00 -4.557536602020263672e+00 -1.496639490127563477e+00 -1.816252708435058594e+00 -2.620753526687622070e+00
8.771000000000000000e+03 2.284470939636230469e+01 3.051742553710937500e+00 -4.818673610687255859e+00 -1.538008451461791992e+00 -1.907004594802856445e+00 -2.776377916336059570e+00
8.772000000000000000e+03 2.114830780029296875e+01 1.961969375610351562e+00 -4.431923389434814453e+00 -1.944122314453125000e+00 -1.912813663482666016e+00 -3.112961053848266602e+00
8.773000000000000000e+03 2.664954948425292969e+01 5.772653579711914062e+00 -3.697952747344970703e+00 -1.465177893638610840e+00 -1.548939108848571777e+00 -2.320373773574829102e+00
8.774000000000000000e+03 2.085013771057128906e+01 2.169435262680053711e+00 -5.152335643768310547e+00 -2.085235118865966797e+00 -2.171271324157714844e+00 -3.330953121185302734e+00
8.775000000000000000e+03 2.347192382812500000e+01 2.782396554946899414e+00 -4.216784954071044922e+00 -1.002731204032897949e+00 -1.565854907035827637e+00 -2.111566781997680664e+00
8.776000000000000000e+03 2.442706489562988281e+01 4.389493942260742188e+00 -4.265826702117919922e+00 -1.587688922882080078e+00 -1.756054639816284180e+00 -2.582130670547485352e+00
8.777000000000000000e+03 1.697849273681640625e+01 -2.681143581867218018e-01 -9.191424250602722168e-01 -2.737099230289459229e-01 -3.578557074069976807e-01 -4.594713449478149414e-01
8.778000000000000000e+03 1.953655624389648438e+01 1.334767699241638184e+00 -2.532584905624389648e+00 -1.497224450111389160e+00 -1.208942770957946777e+00 -1.915582537651062012e+00
8.779000000000000000e+03 1.868786430358886719e+01 5.500091910362243652e-01 -1.422155141830444336e+00 -1.051978588104248047e+00 -7.422401309013366699e-01 -1.121445417404174805e+00
8.780000000000000000e+03 1.882062339782714844e+01 9.368521571159362793e-01 -1.266655087471008301e+00 -7.648906707763671875e-01 -6.094636917114257812e-01 -9.946265816688537598e-01
8.781000000000000000e+03 2.038509559631347656e+01 1.609160423278808594e+00 -3.695671558380126953e+00 -2.201527595520019531e+00 -1.769159793853759766e+00 -3.040971040725708008e+00
8.782000000000000000e+03 2.033870124816894531e+01 1.899681448936462402e+00 -4.513120174407958984e+00 -1.885605931282043457e+00 -1.919617891311645508e+00 -3.036664962768554688e+00
8.783000000000000000e+03 1.850164413452148438e+01 7.063417434692382812e-01 -8.078510165214538574e-01 -5.007482767105102539e-01 -3.925797641277313232e-01 -7.443382740020751953e-01
8.784000000000000000e+03 2.476949882507324219e+01 4.374063491821289062e+00 -4.072189331054687500e+00 -1.419206500053405762e+00 -1.647418737411499023e+00 -2.398473501205444336e+00
8.785000000000000000e+03 2.643661117553710938e+01 5.221018314361572266e+00 -3.601465702056884766e+00 -1.387446641921997070e+00 -1.496673703193664551e+00 -2.187639474868774414e+00
8.786000000000000000e+03 1.714562606811523438e+01 -1.553380340337753296e-01 -8.201891183853149414e-01 -2.132508158683776855e-01 -3.100319802761077881e-01 -4.535004496574401855e-01
8.787000000000000000e+03 2.687044715881347656e+01 5.361169338226318359e+00 -3.466241359710693359e+00 -1.427131414413452148e+00 -1.468011856079101562e+00 -2.153727054595947266e+00
8.788000000000000000e+03 2.709128570556640625e+01 5.285356521606445312e+00 -3.366027832031250000e+00 -1.459894657135009766e+00 -1.447776794433593750e+00 -2.093394041061401367e+00
8.789000000000000000e+03 2.118954086303710938e+01 1.274497270584106445e+00 -3.125570058822631836e+00 -1.746030688285827637e+00 -1.461480140686035156e+00 -3.137537956237792969e+00
8.790000000000000000e+03 2.019433784484863281e+01 1.759514331817626953e+00 -4.072468280792236328e+00 -1.912395000457763672e+00 -1.795458912849426270e+00 -2.868502378463745117e+00
8.791000000000000000e+03 2.018190765380859375e+01 1.064736366271972656e+00 -2.225658416748046875e+00 -2.549884796142578125e+00 -1.432662963867187500e+00 -3.051800251007080078e+00
8.792000000000000000e+03 1.935871696472167969e+01 1.216935992240905762e+00 -2.155937433242797852e+00 -1.286151409149169922e+00 -1.032626628875732422e+00 -1.763291120529174805e+00
8.793000000000000000e+03 2.539921188354492188e+01 3.561335802078247070e+00 -3.516993761062622070e+00 -9.508644342422485352e-01 -1.340357422828674316e+00 -1.746983408927917480e+00
8.794000000000000000e+03 1.571566581726074219e+01 -1.323912382125854492e+00 -1.540059089660644531e+00 -3.541066050529479980e-01 -5.682497024536132812e-01 -4.725246131420135498e-01
8.795000000000000000e+03 2.263900375366210938e+01 2.504871845245361328e+00 -4.457654476165771484e+00 -1.288182854652404785e+00 -1.723751187324523926e+00 -2.507869005203247070e+00
8.796000000000000000e+03 2.800488471984863281e+01 5.848486900329589844e+00 -3.112182617187500000e+00 -1.944359540939331055e+00 -1.516962647438049316e+00 -2.164330005645751953e+00
8.797000000000000000e+03 1.719545364379882812e+01 -1.510667562484741211e+00 -2.112365722656250000e+00 -8.767325878143310547e-01 -8.967294692993164062e-01 -9.866153597831726074e-01
8.798000000000000000e+03 1.787138938903808594e+01 -1.097423791885375977e+00 -2.334104776382446289e+00 -1.312744736671447754e+00 -1.094054818153381348e+00 -1.320901036262512207e+00
8.799000000000000000e+03 2.079612731933593750e+01 7.050688266754150391e-01 -2.247313976287841797e+00 -2.057078123092651367e+00 -1.291317701339721680e+00 -3.621646165847778320e+00
8.800000000000000000e+03 2.169133377075195312e+01 1.558170557022094727e+00 -3.599914789199829102e+00 -1.291958093643188477e+00 -1.467561841011047363e+00 -2.789899587631225586e+00
8.801000000000000000e+03 2.729758262634277344e+01 5.097759246826171875e+00 -3.180867910385131836e+00 -1.449394941329956055e+00 -1.389078855514526367e+00 -1.948888063430786133e+00
8.802000000000000000e+03 2.415109443664550781e+01 3.541301012039184570e+00 -4.208250999450683594e+00 -1.221884012222290039e+00 -1.629040479660034180e+00 -2.272185564041137695e+00
8.803000000000000000e+03 2.448440170288085938e+01 3.341402530670166016e+00 -3.900885105133056641e+00 -9.975098967552185059e-01 -1.469518542289733887e+00 -1.981408119201660156e+00
8.804000000000000000e+03 1.683305740356445312e+01 -1.691916942596435547e+00 -2.102322101593017578e+00 -6.912148594856262207e-01 -8.380610942840576172e-01 -8.828428387641906738e-01
8.805000000000000000e+03 2.622740745544433594e+01 7.297908306121826172e+00 -5.050946235656738281e+00 -2.950342655181884766e+00 -2.400386571884155273e+00 -3.840043544769287109e+00
8.806000000000000000e+03 2.697657012939453125e+01 5.983730792999267578e+00 -3.735546588897705078e+00 -1.511545300483703613e+00 -1.574127554893493652e+00 -2.347551822662353516e+00
8.807000000000000000e+03 2.779113769531250000e+01 5.052097320556640625e+00 -2.917406558990478516e+00 -1.494532942771911621e+00 -1.323581814765930176e+00 -1.759887814521789551e+00
8.808000000000000000e+03 2.248469924926757812e+01 4.194937229156494141e+00 -6.453384160995483398e-01 -8.909482359886169434e-01 -4.608860015869140625e-01 -9.253469109535217285e-01
8.809000000000000000e+03 2.810100364685058594e+01 6.046474933624267578e+00 -3.179357767105102539e+00 -2.094616651535034180e+00 -1.582192420959472656e+00 -2.280169486999511719e+00
8.810000000000000000e+03 2.771772384643554688e+01 5.859869003295898438e+00 -3.319882392883300781e+00 -1.793321251869201660e+00 -1.533961176872253418e+00 -2.282631158828735352e+00
8.811000000000000000e+03 2.727552604675292969e+01 5.811677932739257812e+00 -3.543658256530761719e+00 -1.574855089187622070e+00 -1.535553932189941406e+00 -2.301312208175659180e+00
8.812000000000000000e+03 1.802574157714843750e+01 -6.289025545120239258e-01 -1.921709537506103516e+00 -1.216231346130371094e+00 -9.413822889328002930e-01 -1.227159500122070312e+00
8.813000000000000000e+03 2.210570907592773438e+01 2.492837190628051758e+00 -4.840357303619384766e+00 -1.617128729820251465e+00 -1.937245845794677734e+00 -2.900265932083129883e+00
8.814000000000000000e+03 2.677413558959960938e+01 6.737572669982910156e+00 1.102620840072631836e+00 2.749105393886566162e-01 4.132593870162963867e-01 6.215273141860961914e-01
8.815000000000000000e+03 2.137590599060058594e+01 2.484710216522216797e+00 -5.408546447753906250e+00 -2.112484455108642578e+00 -2.256309270858764648e+00 -3.399261951446533203e+00
8.816000000000000000e+03 2.203787803649902344e+01 2.063200950622558594e+00 -4.281517982482910156e+00 -1.386469006538391113e+00 -1.700396180152893066e+00 -2.665657520294189453e+00
8.817000000000000000e+03 2.509796905517578125e+01 3.919186592102050781e+00 -3.860191583633422852e+00 -1.112783670425415039e+00 -1.491892576217651367e+00 -2.037408828735351562e+00
8.818000000000000000e+03 2.195049285888671875e+01 1.871048808097839355e+00 -3.977279901504516602e+00 -1.290434122085571289e+00 -1.580314159393310547e+00 -2.661641359329223633e+00
8.819000000000000000e+03 2.650942611694335938e+01 5.975653648376464844e+00 4.906758785247802734e+00 1.802014827728271484e+00 2.012632131576538086e+00 3.001668453216552734e+00
8.820000000000000000e+03 2.526243782043457031e+01 3.778376102447509766e+00 -3.671191453933715820e+00 -1.053813219070434570e+00 -1.417501449584960938e+00 -1.885058164596557617e+00
8.821000000000000000e+03 2.581404304504394531e+01 5.989075660705566406e+00 1.868323922157287598e+00 4.699756205081939697e-01 7.014898657798767090e-01 8.931071162223815918e-01
8.822000000000000000e+03 2.056393432617187500e+01 2.613148450851440430e+00 -1.981159597635269165e-01 -7.507237792015075684e-01 -2.846519052982330322e-01 -6.614111661911010742e-01
8.823000000000000000e+03 2.220507812500000000e+01 4.010235309600830078e+00 -6.503155231475830078e-01 -8.345901370048522949e-01 -4.454717040061950684e-01 -9.055973887443542480e-01
8.824000000000000000e+03 2.517549514770507812e+01 5.827631950378417969e+00 -4.419054388999938965e-01 -3.193616867065429688e-01 -2.283801436424255371e-01 -4.104852974414825439e-01
8.825000000000000000e+03 2.293656158447265625e+01 4.501118659973144531e+00 -7.666282057762145996e-01 -9.103186130523681641e-01 -5.030840635299682617e-01 -1.025746941566467285e+00
8.826000000000000000e+03 2.442124557495117188e+01 5.519610404968261719e+00 -1.661149978637695312e+00 -1.306232452392578125e+00 -8.902147412300109863e-01 -1.358352065086364746e+00
8.827000000000000000e+03 2.104181480407714844e+01 3.073762416839599609e+00 -7.591991126537322998e-02 -7.600941658020019531e-01 -2.508042156696319580e-01 -6.757409572601318359e-01
8.828000000000000000e+03 2.142096900939941406e+01 3.482760190963745117e+00 -3.835717439651489258e-01 -9.148755669593811035e-01 -3.895341753959655762e-01 -8.663789033889770508e-01
8.829000000000000000e+03 2.412429046630859375e+01 5.373105525970458984e+00 -2.062413454055786133e+00 -1.400817751884460449e+00 -1.038969397544860840e+00 -1.623394608497619629e+00
8.830000000000000000e+03 2.116611099243164062e+01 3.312534093856811523e+00 -3.884001672267913818e-01 -9.610549807548522949e-01 -4.048365354537963867e-01 -8.468455076217651367e-01
8.831000000000000000e+03 1.517877674102783203e+01 2.289497256278991699e-01 -1.635309755802154541e-01 1.786680340766906738e+00 4.869448244571685791e-01 -8.909423351287841797e-01
8.832000000000000000e+03 2.783670806884765625e+01 5.383440017700195312e+00 -3.006125450134277344e+00 -1.649971723556518555e+00 -1.396829128265380859e+00 -1.939512848854064941e+00
8.833000000000000000e+03 1.819314384460449219e+01 -5.126250386238098145e-01 -2.057142496109008789e+00 -1.277603268623352051e+00 -1.000423789024353027e+00 -1.340797066688537598e+00
8.834000000000000000e+03 2.597503852844238281e+01 5.709755897521972656e+00 4.691065311431884766e+00 1.620649456977844238e+00 1.893514394760131836e+00 2.718435287475585938e+00
8.835000000000000000e+03 1.796308708190917969e+01 1.059279084205627441e+00 -1.222632050514221191e+00 -1.185733675956726074e+00 -7.225097417831420898e-01 -1.543353319168090820e+00
8.836000000000000000e+03 2.720183753967285156e+01 6.784772396087646484e+00 2.513872385025024414e+00 8.884319663047790527e-01 1.020691275596618652e+00 1.588987827301025391e+00
8.837000000000000000e+03 1.673983955383300781e+01 5.516457557678222656e-01 -6.049492359161376953e-01 -4.666131734848022461e-02 -1.954831779003143311e-01 -5.454981923103332520e-01
8.838000000000000000e+03 2.389292526245117188e+01 4.802043437957763672e+00 1.264125704765319824e+00 -8.961457014083862305e-02 3.523533344268798828e-01 2.218155860900878906e-01
8.839000000000000000e+03 1.610945892333984375e+01 3.070570528507232666e-01 -2.982393205165863037e-01 2.964213490486145020e-01 -5.453973426483571529e-04 -5.784562230110168457e-01
8.840000000000000000e+03 2.368414306640625000e+01 3.659442424774169922e+00 -4.549558639526367188e+00 -1.520808815956115723e+00 -1.821110248565673828e+00 -2.608311414718627930e+00
8.841000000000000000e+03 2.561004066467285156e+01 4.838339805603027344e+00 -3.829449176788330078e+00 -1.364055037498474121e+00 -1.558051228523254395e+00 -2.277262449264526367e+00
8.842000000000000000e+03 2.371541023254394531e+01 2.803117275238037109e+00 -4.035989761352539062e+00 -9.690045714378356934e-01 -1.501498341560363770e+00 -2.013858318328857422e+00
8.843000000000000000e+03 2.558269309997558594e+01 4.275063514709472656e+00 -3.659929037094116211e+00 -1.176748752593994141e+00 -1.451003313064575195e+00 -2.027082681655883789e+00
8.844000000000000000e+03 2.534510612487792969e+01 4.405199050903320312e+00 -3.846910238265991211e+00 -1.269160032272338867e+00 -1.534821033477783203e+00 -2.181957960128784180e+00
8.845000000000000000e+03 2.360383987426757812e+01 3.146109819412231445e+00 -4.371376991271972656e+00 -1.229560017585754395e+00 -1.680281162261962891e+00 -2.332572937011718750e+00
8.846000000000000000e+03 2.136069869995117188e+01 1.376713991165161133e+00 -3.299739360809326172e+00 -1.453103899955749512e+00 -1.425852894783020020e+00 -3.002899885177612305e+00
8.847000000000000000e+03 1.911192321777343750e+01 8.317236304283142090e-01 -1.344798684120178223e+00 -1.672393560409545898e+00 -9.051576852798461914e-01 -1.516299843788146973e+00
8.848000000000000000e+03 2.709817886352539062e+01 5.751211166381835938e+00 -3.569449424743652344e+00 -1.522674322128295898e+00 -1.527637124061584473e+00 -2.287473917007446289e+00
8.849000000000000000e+03 2.756222724914550781e+01 5.541855812072753906e+00 -3.215268373489379883e+00 -1.616424560546875000e+00 -1.449507832527160645e+00 -2.105231285095214844e+00
8.850000000000000000e+03 1.706620979309082031e+01 -1.017040967941284180e+00 -1.802783608436584473e+00 -5.041432976722717285e-01 -6.920780539512634277e-01 -7.922803163528442383e-01
8.851000000000000000e+03 2.030491447448730469e+01 7.856969833374023438e-01 -1.901283740997314453e+00 -2.810997009277343750e+00 -1.413684248924255371e+00 -3.412478923797607422e+00
8.852000000000000000e+03 2.607737541198730469e+01 4.842619895935058594e+00 -3.613300085067749023e+00 -1.306868433952331543e+00 -1.476050615310668945e+00 -2.139956712722778320e+00
8.853000000000000000e+03 2.666492843627929688e+01 4.805519580841064453e+00 -3.370419025421142578e+00 -1.276481866836547852e+00 -1.394070267677307129e+00 -1.954947233200073242e+00
8.854000000000000000e+03 2.630720329284667969e+01 4.768382549285888672e+00 -3.525192022323608398e+00 -1.269618272781372070e+00 -1.438443064689636230e+00 -2.041884660720825195e+00
8.855000000000000000e+03 2.283657073974609375e+01 1.973399281501770020e+00 -3.810178279876708984e+00 -8.972173929214477539e-01 -1.412218689918518066e+00 -2.102751970291137695e+00
8.856000000000000000e+03 2.334562683105468750e+01 2.934128522872924805e+00 -4.402849197387695312e+00 -1.243187785148620605e+00 -1.693811058998107910e+00 -2.347042798995971680e+00
8.857000000000000000e+03 1.984938049316406250e+01 5.231701135635375977e-01 -1.245398283004760742e+00 -3.044401168823242188e+00 -1.286939740180969238e+00 -2.651376724243164062e+00
8.858000000000000000e+03 2.011395072937011719e+01 7.077939510345458984e-01 -1.664538383483886719e+00 -3.050339460372924805e+00 -1.414463281631469727e+00 -3.229954481124877930e+00
8.859000000000000000e+03 1.963491249084472656e+01 7.110378742218017578e-01 -1.753684759140014648e+00 -2.583382844924926758e+00 -1.301120281219482422e+00 -2.485713720321655273e+00
8.860000000000000000e+03 1.723280715942382812e+01 -1.188942551612854004e+00 -2.097280502319335938e+00 -7.516936063766479492e-01 -8.546922206878662109e-01 -9.349105358123779297e-01
8.861000000000000000e+03 1.616164016723632812e+01 -1.410947084426879883e+00 -1.730695247650146484e+00 -5.143840909004211426e-01 -6.735237836837768555e-01 -5.042354464530944824e-01
8.862000000000000000e+03 2.569254302978515625e+01 4.493881225585937500e+00 -3.739254951477050781e+00 -1.223143458366394043e+00 -1.488719463348388672e+00 -2.098028182983398438e+00
8.863000000000000000e+03 1.685601615905761719e+01 -1.279227972030639648e+00 -2.035114049911499023e+00 -5.148742794990539551e-01 -7.649964690208435059e-01 -7.272756695747375488e-01
8.864000000000000000e+03 1.799986267089843750e+01 -2.705654203891754150e-01 -1.574658274650573730e+00 -9.071614742279052734e-01 -7.445459365844726562e-01 -9.553642272949218750e-01
8.865000000000000000e+03 2.143686676025390625e+01 1.690131187438964844e+00 -3.880308151245117188e+00 -1.645246148109436035e+00 -1.657666206359863281e+00 -2.937990188598632812e+00
8.866000000000000000e+03 2.634053611755371094e+01 6.562598705291748047e+00 3.041119277477264404e-01 -3.145037591457366943e-01 -3.117549233138561249e-03 5.545189231634140015e-02
8.867000000000000000e+03 2.582064056396484375e+01 6.539969921112060547e+00 -2.176679134368896484e+00 -1.361143469810485840e+00 -1.061346769332885742e+00 -1.727348446846008301e+00
8.868000000000000000e+03 2.690040969848632812e+01 7.386531829833984375e+00 -2.408777475357055664e+00 -1.402817726135253906e+00 -1.143478512763977051e+00 -1.891761183738708496e+00
8.869000000000000000e+03 2.739855003356933594e+01 6.886539459228515625e+00 2.769585609436035156e+00 1.055891275405883789e+00 1.147643089294433594e+00 1.607916355133056641e+00
8.870000000000000000e+03 2.546012306213378906e+01 6.374949455261230469e+00 -2.541768074035644531e+00 -1.531816005706787109e+00 -1.222075223922729492e+00 -2.080817461013793945e+00
8.871000000000000000e+03 2.576717567443847656e+01 6.282899379730224609e+00 -5.523976683616638184e-01 -4.604302942752838135e-01 -3.038483858108520508e-01 -6.029708981513977051e-01
8.872000000000000000e+03 2.224742889404296875e+01 2.353343725204467773e+00 -4.552572250366210938e+00 -1.482143759727478027e+00 -1.810414791107177734e+00 -2.715578317642211914e+00
8.873000000000000000e+03 1.846948242187500000e+01 3.501643538475036621e-01 -1.269829392433166504e+00 -1.002432584762573242e+00 -6.816785931587219238e-01 -1.051536202430725098e+00
8.874000000000000000e+03 2.635047340393066406e+01 7.097494602203369141e+00 -3.299348831176757812e+00 -1.990041613578796387e+00 -1.586817145347595215e+00 -2.407828807830810547e+00
8.875000000000000000e+03 1.812079811096191406e+01 1.768802553415298462e-01 -1.102220535278320312e+00 -6.285029649734497070e-01 -5.192170143127441406e-01 -8.100985884666442871e-01
8.876000000000000000e+03 2.571139526367187500e+01 6.977231502532958984e+00 -5.573298454284667969e+00 -2.921092033386230469e+00 -2.548317193984985352e+00 -3.925921678543090820e+00
8.877000000000000000e+03 2.285479354858398438e+01 4.230628013610839844e+00 3.253577053546905518e-01 -5.084933042526245117e-01 -5.494068562984466553e-02 -3.340440988540649414e-01
8.878000000000000000e+03 1.606735420227050781e+01 -3.954804837703704834e-01 -4.197019100189208984e+00 -2.989270985126495361e-01 -1.348783850669860840e+00 -2.361809730529785156e+00
8.879000000000000000e+03 1.644632148742675781e+01 -1.453485488891601562e+00 -1.899812102317810059e+00 -5.069124102592468262e-01 -7.220173478126525879e-01 -6.811864376068115234e-01
8.880000000000000000e+03 1.625562286376953125e+01 -1.167083740234375000e+00 -1.736559391021728516e+00 -3.967180550098419189e-01 -6.399832367897033691e-01 -4.028396606445312500e-01
8.881000000000000000e+03 1.906036376953125000e+01 1.955818653106689453e+00 -1.139035299420356750e-01 -7.806897163391113281e-01 -2.683779895305633545e-01 -7.548878788948059082e-01
8.882000000000000000e+03 1.830961990356445312e+01 -2.198664695024490356e-01 -1.854801654815673828e+00 -1.202822089195251465e+00 -9.172871112823486328e-01 -1.250865697860717773e+00
8.883000000000000000e+03 1.897157478332519531e+01 5.663049221038818359e-01 -1.724828124046325684e+00 -1.653953194618225098e+00 -1.013634443283081055e+00 -1.712059855461120605e+00
8.884000000000000000e+03 2.714145660400390625e+01 5.515115261077880859e+00 -3.425479888916015625e+00 -1.489635825157165527e+00 -1.474534630775451660e+00 -2.174575805664062500e+00
8.885000000000000000e+03 2.736359596252441406e+01 5.513992786407470703e+00 -3.336363077163696289e+00 -1.579350113868713379e+00 -1.474713921546936035e+00 -2.151839256286621094e+00
8.886000000000000000e+03 2.710399055480957031e+01 7.190565109252929688e+00 -5.137667655944824219e-01 -2.291041761636734009e-01 -2.228612750768661499e-01 -3.479166328907012939e-01
8.887000000000000000e+03 2.526805114746093750e+01 6.093179225921630859e+00 -1.626074790954589844e+00 -8.945119976997375488e-01 -7.561760544776916504e-01 -1.336206436157226562e+00
8.888000000000000000e+03 2.039383125305175781e+01 1.114218592643737793e+00 -2.492108106613159180e+00 -2.497039318084716797e+00 -1.496744275093078613e+00 -3.200311899185180664e+00
8.889000000000000000e+03 2.417414855957031250e+01 3.933209896087646484e+00 -4.302844524383544922e+00 -1.422928094863891602e+00 -1.717731833457946777e+00 -2.491748809814453125e+00
8.890000000000000000e+03 2.251664733886718750e+01 2.358477115631103516e+00 -4.398982048034667969e+00 -1.303454399108886719e+00 -1.710731029510498047e+00 -2.536328077316284180e+00
8.891000000000000000e+03 1.867271995544433594e+01 3.759214282035827637e-01 -1.082403421401977539e+00 -1.360717058181762695e+00 -7.329361438751220703e-01 -1.266838192939758301e+00
8.892000000000000000e+03 1.949674224853515625e+01 9.525567889213562012e-01 -1.780858039855957031e+00 -2.405283927917480469e+00 -1.255842566490173340e+00 -2.204027414321899414e+00
8.893000000000000000e+03 1.783939170837402344e+01 -3.905213475227355957e-01 -1.688049197196960449e+00 -7.525495290756225586e-01 -7.321796417236328125e-01 -9.770484566688537598e-01
8.894000000000000000e+03 2.321898460388183594e+01 3.217948198318481445e+00 -4.653733730316162109e+00 -1.445712447166442871e+00 -1.829833865165710449e+00 -2.620019197463989258e+00
8.895000000000000000e+03 2.300796318054199219e+01 2.877877712249755859e+00 -4.569230079650878906e+00 -1.354336380958557129e+00 -1.777069926261901855e+00 -2.522668600082397461e+00
8.896000000000000000e+03 2.580160903930664062e+01 4.695583820343017578e+00 -3.697946548461914062e+00 -1.286256313323974609e+00 -1.495260834693908691e+00 -2.152458906173706055e+00
8.897000000000000000e+03 2.489657402038574219e+01 4.026909351348876953e+00 -3.940741539001464844e+00 -1.229438900947570801e+00 -1.551054120063781738e+00 -2.182167291641235352e+00
8.898000000000000000e+03 1.720486450195312500e+01 -8.704810738563537598e-01 -1.899637341499328613e+00 -5.248864889144897461e-01 -7.273571491241455078e-01 -8.014085888862609863e-01
8.899000000000000000e+03 1.967807006835937500e+01 1.468261122703552246e+00 -2.901921749114990234e+00 -1.462382912635803223e+00 -1.309291362762451172e+00 -2.275830507278442383e+00
8.900000000000000000e+03 1.999178695678710938e+01 9.750122427940368652e-01 -2.025632619857788086e+00 -2.646656513214111328e+00 -1.401686668395996094e+00 -2.866721391677856445e+00
8.901000000000000000e+03 1.881453514099121094e+01 -1.145941466093063354e-01 -1.652483582496643066e+00 -2.069771528244018555e+00 -1.116676568984985352e+00 -1.504825949668884277e+00
8.902000000000000000e+03 2.476461601257324219e+01 3.816526651382446289e+00 -3.973227024078369141e+00 -1.148046016693115234e+00 -1.536381959915161133e+00 -2.105859518051147461e+00
8.903000000000000000e+03 2.222923851013183594e+01 2.596244335174560547e+00 -4.885996818542480469e+00 -1.678267836570739746e+00 -1.969279408454895020e+00 -2.890438556671142578e+00
8.904000000000000000e+03 2.157818603515625000e+01 1.730562210083007812e+00 -3.863604545593261719e+00 -1.476380109786987305e+00 -1.601995348930358887e+00 -2.900671243667602539e+00
8.905000000000000000e+03 1.753607368469238281e+01 -9.707576036453247070e-01 -2.105034112930297852e+00 -8.660832643508911133e-01 -8.913352489471435547e-01 -1.026254177093505859e+00
8.906000000000000000e+03 1.557396507263183594e+01 -2.852958738803863525e-01 -5.137472629547119141e+00 1.364842891693115234e+00 -1.131788849830627441e+00 -1.084619760513305664e+00
8.907000000000000000e+03 1.580789661407470703e+01 -2.014942407608032227e+00 -1.622603178024291992e+00 -5.193588137626647949e-01 -6.425885558128356934e-01 -7.168040275573730469e-01
8.908000000000000000e+03 2.779977416992187500e+01 6.011123180389404297e+00 -3.438394546508789062e+00 -1.874782800674438477e+00 -1.593953251838684082e+00 -2.373452186584472656e+00
8.909000000000000000e+03 2.430105209350585938e+01 3.707533121109008789e+00 -4.172948360443115234e+00 -1.264381170272827148e+00 -1.631198883056640625e+00 -2.274402141571044922e+00
8.910000000000000000e+03 1.976152992248535156e+01 8.037325739860534668e-01 -1.806575298309326172e+00 -2.458961725234985352e+00 -1.279661059379577637e+00 -2.487984418869018555e+00
8.911000000000000000e+03 2.400750732421875000e+01 3.809019565582275391e+00 -4.384985923767089844e+00 -1.469372034072875977e+00 -1.756307482719421387e+00 -2.512987375259399414e+00
8.912000000000000000e+03 2.676595687866210938e+01 6.886943340301513672e+00 1.623342484235763550e-01 -1.828675568103790283e-01 -6.159995216876268387e-03 5.866029486060142517e-02
8.913000000000000000e+03 2.651888465881347656e+01 7.204801559448242188e+00 -3.157049417495727539e+00 -1.954885601997375488e+00 -1.533580541610717773e+00 -2.322214603424072266e+00
8.914000000000000000e+03 1.628826141357421875e+01 -2.017508745193481445e+00 -1.710895895957946777e+00 -6.172121763229370117e-01 -6.984323859214782715e-01 -8.004954457283020020e-01
8.915000000000000000e+03 2.591839790344238281e+01 4.346871852874755859e+00 -3.526871442794799805e+00 -1.163987278938293457e+00 -1.407257676124572754e+00 -1.936011791229248047e+00
8.916000000000000000e+03 1.501998519897460938e+01 -1.876763939857482910e+00 -1.443357825279235840e+00 -2.188045382499694824e-01 -4.986487030982971191e-01 -4.944851398468017578e-01
8.917000000000000000e+03 2.733472442626953125e+01 7.141497611999511719e+00 7.531000971794128418e-01 3.993136584758758545e-01 3.457241356372833252e-01 4.936153590679168701e-01
8.918000000000000000e+03 2.684387207031250000e+01 6.556024074554443359e+00 2.469254493713378906e+00 1.031088232994079590e+00 1.050102829933166504e+00 1.498099207878112793e+00
8.919000000000000000e+03 2.666568374633789062e+01 6.083534240722656250e+00 4.785149097442626953e+00 1.831896901130676270e+00 1.985113739967346191e+00 3.012219667434692383e+00
8.920000000000000000e+03 2.625601196289062500e+01 6.063596248626708984e+00 3.369728088378906250e+00 1.011513590812683105e+00 1.314372539520263672e+00 1.935213327407836914e+00
8.921000000000000000e+03 2.616489219665527344e+01 5.798119544982910156e+00 4.827229022979736328e+00 1.617648124694824219e+00 1.933463096618652344e+00 2.794152259826660156e+00
8.922000000000000000e+03 2.606442070007324219e+01 6.034417629241943359e+00 2.655704975128173828e+00 7.494006752967834473e-01 1.021531701087951660e+00 1.478957176208496094e+00
8.923000000000000000e+03 2.558020401000976562e+01 5.873181343078613281e+00 1.639220476150512695e+00 3.036952316761016846e-01 5.828747153282165527e-01 6.927609443664550781e-01
8.924000000000000000e+03 2.528006172180175781e+01 5.593722820281982422e+00 2.039505481719970703e+00 5.800851583480834961e-01 7.858771681785583496e-01 1.136060595512390137e+00
8.925000000000000000e+03 2.545791816711425781e+01 5.377339839935302734e+00 4.541097164154052734e+00 1.470037698745727539e+00 1.803340554237365723e+00 2.620539426803588867e+00
8.926000000000000000e+03 2.511786651611328125e+01 5.163075447082519531e+00 4.253105640411376953e+00 1.523923873901367188e+00 1.733108878135681152e+00 2.580890655517578125e+00
8.927000000000000000e+03 2.478065109252929688e+01 4.935214519500732422e+00 4.302754878997802734e+00 1.621003389358520508e+00 1.777127504348754883e+00 2.377338886260986328e+00
8.928000000000000000e+03 2.434786415100097656e+01 4.955834388732910156e+00 2.050112009048461914e+00 3.092056214809417725e-01 7.077952623367309570e-01 1.099944353103637695e+00
8.929000000000000000e+03 2.371851730346679688e+01 4.320669174194335938e+00 3.416556596755981445e+00 9.793753027915954590e-01 1.318779587745666504e+00 1.830882549285888672e+00
8.930000000000000000e+03 2.365928649902343750e+01 4.679716110229492188e+00 1.002733349800109863e+00 -2.716915309429168701e-01 2.193125337362289429e-01 6.854307651519775391e-02
8.931000000000000000e+03 2.341914558410644531e+01 4.077101707458496094e+00 3.002972602844238281e+00 8.039109110832214355e-01 1.142065048217773438e+00 1.654188752174377441e+00
8.932000000000000000e+03 2.287387466430664062e+01 3.978004455566406250e+00 1.745917439460754395e+00 2.005548030138015747e-02 5.297918915748596191e-01 5.820540189743041992e-01
8.933000000000000000e+03 2.257127761840820312e+01 3.593299865722656250e+00 2.028853654861450195e+00 4.824016690254211426e-01 7.533766031265258789e-01 9.926552176475524902e-01
8.934000000000000000e+03 2.238205909729003906e+01 3.494225025177001953e+00 1.831461429595947266e+00 3.350701332092285156e-01 6.499595046043395996e-01 8.971399664878845215e-01
8.935000000000000000e+03 2.175230789184570312e+01 3.041884422302246094e+00 9.381052255630493164e-01 3.478770703077316284e-02 2.918678820133209229e-01 4.417089819908142090e-01
8.936000000000000000e+03 2.091606521606445312e+01 2.871060132980346680e+00 7.672164589166641235e-02 -6.301038265228271484e-01 -1.660146564245223999e-01 -5.217025876045227051e-01
8.937000000000000000e+03 2.039735031127929688e+01 2.418879747390747070e+00 -4.646048545837402344e-01 -7.710057497024536133e-01 -3.706831932067871094e-01 -7.626646161079406738e-01
8.938000000000000000e+03 2.056420326232910156e+01 2.295139312744140625e+00 -6.007434725761413574e-01 -3.990658223628997803e-01 -2.999427914619445801e-01 -4.908765852451324463e-01
8.939000000000000000e+03 1.985025787353515625e+01 2.300310134887695312e+00 -5.084152817726135254e-01 -1.040280699729919434e+00 -4.646088182926177979e-01 -9.982414245605468750e-01
8.940000000000000000e+03 1.921669578552246094e+01 1.422919631004333496e+00 -3.316592931747436523e+00 -1.242339015007019043e+00 -1.367679595947265625e+00 -2.231911897659301758e+00
8.941000000000000000e+03 1.834779357910156250e+01 1.595245122909545898e+00 8.228376507759094238e-01 -6.056274175643920898e-01 6.516305357217788696e-02 -1.867104768753051758e-01
8.942000000000000000e+03 1.854553031921386719e+01 1.398307919502258301e+00 -1.402371168136596680e+00 -1.367710232734680176e+00 -8.310244679450988770e-01 -1.521823883056640625e+00
8.943000000000000000e+03 1.820831489562988281e+01 8.324990868568420410e-01 -4.940105438232421875e+00 -1.952453255653381348e+00 -2.067767620086669922e+00 -3.047210693359375000e+00
8.944000000000000000e+03 1.684770965576171875e+01 3.050752580165863037e-01 -3.419210195541381836e+00 -1.296532511711120605e+00 -1.414722800254821777e+00 -2.614993810653686523e+00
8.945000000000000000e+03 1.643051910400390625e+01 4.287737011909484863e-01 -4.305574111640453339e-03 -1.306721419095993042e-01 -4.049331694841384888e-02 -6.071447730064392090e-01
8.946000000000000000e+03 1.508499240875244141e+01 -1.196102350950241089e-01 -4.379220008850097656e+00 6.775233745574951172e-01 -1.110508918762207031e+00 -2.086967378854751587e-01
8.947000000000000000e+03 1.489139747619628906e+01 -4.429558813571929932e-01 -7.554137706756591797e+00 -1.946690827608108521e-01 -2.324641942977905273e+00 6.162959337234497070e-01
8.948000000000000000e+03 1.458994865417480469e+01 1.278747320175170898e-01 -1.925795912742614746e+00 4.988300800323486328e-01 -4.280897378921508789e-01 4.890487194061279297e-01
8.949000000000000000e+03 2.798352813720703125e+01 6.378621101379394531e+00 -3.700928211212158203e+00 -2.062561988830566406e+00 -1.729047060012817383e+00 -2.663086175918579102e+00
8.950000000000000000e+03 2.744732856750488281e+01 5.919847488403320312e+00 -3.528792858123779297e+00 -1.681120634078979492e+00 -1.562973976135253906e+00 -2.357825279235839844e+00
8.951000000000000000e+03 2.681096076965332031e+01 5.881733417510986328e+00 -3.712861299514770508e+00 -1.463484048843383789e+00 -1.552903652191162109e+00 -2.338621377944946289e+00
8.952000000000000000e+03 2.695290946960449219e+01 5.657287120819091797e+00 -3.581943273544311523e+00 -1.478405833244323730e+00 -1.518104672431945801e+00 -2.259309530258178711e+00
8.953000000000000000e+03 2.680890464782714844e+01 5.554503917694091797e+00 -3.614137887954711914e+00 -1.436037778854370117e+00 -1.515052676200866699e+00 -2.247118711471557617e+00
8.954000000000000000e+03 2.595121192932128906e+01 5.348055839538574219e+00 -3.773135423660278320e+00 -1.435379505157470703e+00 -1.562554478645324707e+00 -2.332747697830200195e+00
8.955000000000000000e+03 2.624352073669433594e+01 5.168264389038085938e+00 -3.667814016342163086e+00 -1.360437393188476562e+00 -1.508475422859191895e+00 -2.221978902816772461e+00
8.956000000000000000e+03 2.577732086181640625e+01 5.259509563446044922e+00 -3.813078880310058594e+00 -1.455911993980407715e+00 -1.580697298049926758e+00 -2.342390537261962891e+00
8.957000000000000000e+03 2.587140464782714844e+01 5.063723564147949219e+00 -3.746799468994140625e+00 -1.375222802162170410e+00 -1.536606669425964355e+00 -2.277940511703491211e+00
8.958000000000000000e+03 2.528497123718261719e+01 4.897889137268066406e+00 -3.943132638931274414e+00 -1.469187498092651367e+00 -1.623695969581604004e+00 -2.404641866683959961e+00
8.959000000000000000e+03 2.476001930236816406e+01 4.607118606567382812e+00 -4.119075775146484375e+00 -1.537862896919250488e+00 -1.697081565856933594e+00 -2.504010200500488281e+00
8.960000000000000000e+03 2.340548515319824219e+01 3.757633924484252930e+00 -4.755418777465820312e+00 -1.758133292198181152e+00 -1.954065680503845215e+00 -2.854631900787353516e+00
8.961000000000000000e+03 2.324150848388671875e+01 3.638243675231933594e+00 -4.830250740051269531e+00 -1.737573742866516113e+00 -1.970347285270690918e+00 -2.932344436645507812e+00
8.962000000000000000e+03 2.301863098144531250e+01 3.138655900955200195e+00 -4.746113777160644531e+00 -1.541887521743774414e+00 -1.886400341987609863e+00 -2.679898738861083984e+00
8.963000000000000000e+03 2.266702651977539062e+01 2.957285165786743164e+00 -4.893574237823486328e+00 -1.615455985069274902e+00 -1.952709078788757324e+00 -2.817321062088012695e+00
8.964000000000000000e+03 2.203386688232421875e+01 2.941110372543334961e+00 -5.409099578857421875e+00 -2.036484718322753906e+00 -2.233675241470336914e+00 -3.305022716522216797e+00
8.965000000000000000e+03 2.213482093811035156e+01 2.759301662445068359e+00 -5.125625133514404297e+00 -1.781614065170288086e+00 -2.072171688079833984e+00 -3.085689067840576172e+00
8.966000000000000000e+03 2.154034233093261719e+01 2.606009721755981445e+00 -5.450189590454101562e+00 -2.084863662719726562e+00 -2.260515928268432617e+00 -3.398015737533569336e+00
8.967000000000000000e+03 2.183447265625000000e+01 2.533674716949462891e+00 -5.091866016387939453e+00 -1.827401399612426758e+00 -2.075780153274536133e+00 -3.125140905380249023e+00
8.968000000000000000e+03 2.136129570007324219e+01 2.078829288482666016e+00 -4.587339401245117188e+00 -1.906641483306884766e+00 -1.948194146156311035e+00 -3.078140735626220703e+00
8.969000000000000000e+03 2.154104804992675781e+01 2.237478971481323242e+00 -4.787882804870605469e+00 -1.833107590675354004e+00 -1.986297130584716797e+00 -3.092331647872924805e+00
8.970000000000000000e+03 2.077692985534667969e+01 1.859538793563842773e+00 -4.320587158203125000e+00 -2.116684436798095703e+00 -1.931181430816650391e+00 -3.092633724212646484e+00
8.971000000000000000e+03 2.049374771118164062e+01 1.987400770187377930e+00 -4.876605033874511719e+00 -2.041648626327514648e+00 -2.075476169586181641e+00 -3.101024866104125977e+00
8.972000000000000000e+03 2.048386955261230469e+01 1.801054954528808594e+00 -4.187173843383789062e+00 -2.092930078506469727e+00 -1.884031176567077637e+00 -3.113903522491455078e+00
8.973000000000000000e+03 2.034474945068359375e+01 1.374484896659851074e+00 -3.009183406829833984e+00 -2.215763092041015625e+00 -1.567484021186828613e+00 -3.023655891418457031e+00
8.974000000000000000e+03 1.986848831176757812e+01 1.354785084724426270e+00 -2.653084039688110352e+00 -2.010836362838745117e+00 -1.399176120758056641e+00 -2.610328435897827148e+00
8.975000000000000000e+03 1.977758979797363281e+01 1.160026073455810547e+00 -2.432585954666137695e+00 -2.279366493225097656e+00 -1.413585782051086426e+00 -2.582464933395385742e+00
8.976000000000000000e+03 1.899002265930175781e+01 1.033178091049194336e+00 -1.531365990638732910e+00 -9.526052474975585938e-01 -7.451913952827453613e-01 -1.188307285308837891e+00
8.977000000000000000e+03 1.865701293945312500e+01 8.324456810951232910e-01 -1.091787815093994141e+00 -6.371237635612487793e-01 -5.186734795570373535e-01 -7.921517491340637207e-01
8.978000000000000000e+03 1.796325874328613281e+01 6.934621185064315796e-02 -1.119393825531005859e+00 -6.243953704833984375e-01 -5.231367349624633789e-01 -6.897527575492858887e-01
8.979000000000000000e+03 1.781099510192871094e+01 -4.681610688567161560e-02 -1.151833295822143555e+00 -4.734534323215484619e-01 -4.875860214233398438e-01 -7.294473648071289062e-01
8.980000000000000000e+03 1.731255149841308594e+01 -4.446045309305191040e-02 -7.598598599433898926e-01 -2.738495469093322754e-01 -3.101128339767456055e-01 -3.813424706459045410e-01
8.981000000000000000e+03 1.716968917846679688e+01 -5.165702104568481445e-01 -1.444546103477478027e+00 -3.541296422481536865e-01 -5.396026968955993652e-01 -6.776797175407409668e-01
8.982000000000000000e+03 1.733124160766601562e+01 -3.948403298854827881e-01 -1.321896910667419434e+00 -4.171299338340759277e-01 -5.217080712318420410e-01 -6.573616862297058105e-01
8.983000000000000000e+03 1.700969696044921875e+01 -6.479260325431823730e-01 -1.523885965347290039e+00 -3.545750677585601807e-01 -5.635383129119873047e-01 -6.886951327323913574e-01
8.984000000000000000e+03 1.667558479309082031e+01 -9.449340701103210449e-01 -1.792725563049316406e+00 -3.364032506942749023e-01 -6.387386322021484375e-01 -6.677376031875610352e-01
8.985000000000000000e+03 2.749036979675292969e+01 7.732102394104003906e+00 -2.040175676345825195e+00 -7.605707645416259766e-01 -8.402239084243774414e-01 -1.575913906097412109e+00
8.986000000000000000e+03 2.737743186950683594e+01 7.516111850738525391e+00 -1.279281854629516602e+00 -4.694432914257049561e-01 -5.246175527572631836e-01 -1.031252264976501465e+00
8.987000000000000000e+03 2.775899505615234375e+01 7.781839847564697266e+00 -1.577359676361083984e+00 -1.298284232616424561e-01 -5.121564269065856934e-01 -1.164819955825805664e+00
8.988000000000000000e+03 2.767353057861328125e+01 8.236301422119140625e+00 -3.489550113677978516e+00 -1.580986499786376953e+00 -1.521160960197448730e+00 -2.420358180999755859e+00
8.989000000000000000e+03 2.705670928955078125e+01 7.836090087890625000e+00 -3.939742565155029297e+00 -2.444175481796264648e+00 -1.915175318717956543e+00 -3.132326602935791016e+00
8.990000000000000000e+03 2.657050704956054688e+01 7.504411220550537109e+00 -4.571259021759033203e+00 -2.924603700637817383e+00 -2.248758792877197266e+00 -3.599706888198852539e+00
8.991000000000000000e+03 2.671600341796875000e+01 7.279695510864257812e+00 -2.673667192459106445e+00 -1.594371080398559570e+00 -1.280411481857299805e+00 -1.917642116546630859e+00
8.992000000000000000e+03 2.589096641540527344e+01 7.078425884246826172e+00 -5.426092147827148438e+00 -2.961900949478149414e+00 -2.516397953033447266e+00 -3.988088846206665039e+00
8.993000000000000000e+03 2.600694847106933594e+01 6.826173305511474609e+00 -3.170846223831176758e+00 -1.920836448669433594e+00 -1.527504801750183105e+00 -2.350265502929687500e+00
8.994000000000000000e+03 2.562108039855957031e+01 6.621604919433593750e+00 -3.416161298751831055e+00 -2.002166271209716797e+00 -1.625498294830322266e+00 -2.674575328826904297e+00
8.995000000000000000e+03 2.579959106445312500e+01 6.754337787628173828e+00 -3.609411001205444336e+00 -2.141743659973144531e+00 -1.725346446037292480e+00 -2.615941524505615234e+00
8.996000000000000000e+03 2.861095428466796875e+01 8.252856254577636719e+00 -1.896523237228393555e+00 -3.178199529647827148e-01 -6.643029451370239258e-01 -6.618019938468933105e-01
8.997000000000000000e+03 2.853674888610839844e+01 8.360008239746093750e+00 -2.083289384841918945e+00 -1.048154383897781372e-01 -6.564314365386962891e-01 -7.628422379493713379e-01
8.998000000000000000e+03 2.883415985107421875e+01 8.333746910095214844e+00 -1.465089678764343262e+00 -7.911054491996765137e-01 -6.768585443496704102e-01 -2.138416618108749390e-01
8.999000000000000000e+03 2.870514488220214844e+01 8.375977516174316406e+00 -2.124581336975097656e+00 -6.560900211334228516e-01 -8.342013955116271973e-01 -8.204308748245239258e-01
9.000000000000000000e+03 1.971903610229492188e+01 2.516002416610717773e+00 1.295015066862106323e-01 -7.433754801750183105e-01 -1.841621994972229004e-01 -5.205560326576232910e-01
9.001000000000000000e+03 2.373731422424316406e+01 5.086797237396240234e+00 -1.600537419319152832e+00 -1.217323422431945801e+00 -8.453583121299743652e-01 -1.438090920448303223e+00
9.002000000000000000e+03 2.900718116760253906e+01 8.279201507568359375e+00 -1.376482129096984863e+00 -7.449145913124084473e-01 -6.364189982414245605e-01 -3.037723600864410400e-01
9.003000000000000000e+03 2.995883560180664062e+01 7.631362438201904297e+00 -8.666925430297851562e-01 -1.813199520111083984e+00 -8.039676547050476074e-01 -1.425688266754150391e+00
9.004000000000000000e+03 2.986109924316406250e+01 7.173797130584716797e+00 -1.166638255119323730e+00 -1.711703777313232422e+00 -8.635026216506958008e-01 -1.713204860687255859e+00
9.005000000000000000e+03 2.977012825012207031e+01 7.303269386291503906e+00 -9.209933280944824219e-01 -1.851167678833007812e+00 -8.316482901573181152e-01 -1.799066066741943359e+00
9.006000000000000000e+03 1.753824615478515625e+01 -1.313276886940002441e+00 -2.217019557952880859e+00 -1.162998080253601074e+00 -1.014005303382873535e+00 -1.096899390220642090e+00
9.007000000000000000e+03 1.770430946350097656e+01 -1.205825805664062500e+00 -2.067631483078002930e+00 -1.197360754013061523e+00 -9.794976711273193359e-01 -1.298469781875610352e+00
9.008000000000000000e+03 1.803942489624023438e+01 -9.887551069259643555e-01 -2.176327228546142578e+00 -1.449314355850219727e+00 -1.087692499160766602e+00 -1.416342616081237793e+00
9.009000000000000000e+03 1.769699668884277344e+01 -8.576623797416687012e-01 -1.938024878501892090e+00 -9.576962590217590332e-01 -8.687163591384887695e-01 -1.110992789268493652e+00
9.010000000000000000e+03 1.871887207031250000e+01 -5.354961752891540527e-01 -2.235663890838623047e+00 -2.147483110427856445e+00 -1.314944028854370117e+00 -1.639856219291687012e+00
9.011000000000000000e+03 1.851503944396972656e+01 -2.948162555694580078e-01 -1.874078989028930664e+00 -1.797217130661010742e+00 -1.101388812065124512e+00 -1.450192213058471680e+00
9.012000000000000000e+03 1.856393241882324219e+01 1.237389743328094482e-01 -1.367006301879882812e+00 -1.467694044113159180e+00 -8.504101037979125977e-01 -1.276071310043334961e+00
9.013000000000000000e+03 1.924990653991699219e+01 -5.019795522093772888e-02 -1.476910948753356934e+00 -2.989682674407958984e+00 -1.339978098869323730e+00 -1.955132603645324707e+00
9.014000000000000000e+03 1.943012428283691406e+01 -4.136993363499641418e-02 -2.235495805740356445e+00 -3.387346267700195312e+00 -1.686852574348449707e+00 -2.544062137603759766e+00
9.015000000000000000e+03 1.920506477355957031e+01 2.889018356800079346e-01 -1.725123405456542969e+00 -2.604200839996337891e+00 -1.298797249794006348e+00 -2.102075338363647461e+00
9.016000000000000000e+03 1.935403060913085938e+01 1.091038063168525696e-01 -1.554385781288146973e+00 -2.891846895217895508e+00 -1.333869814872741699e+00 -1.848071217536926270e+00
9.017000000000000000e+03 1.970587158203125000e+01 3.779152035713195801e-01 -1.895583510398864746e+00 -3.093544483184814453e+00 -1.496738433837890625e+00 -2.790847301483154297e+00
9.018000000000000000e+03 2.085043907165527344e+01 1.039960861206054688e+00 -2.699739456176757812e+00 -2.075799942016601562e+00 -1.432661771774291992e+00 -3.388994932174682617e+00
9.019000000000000000e+03 2.049315261840820312e+01 8.613141179084777832e-01 -2.156432390213012695e+00 -2.510931968688964844e+00 -1.400209307670593262e+00 -3.463761806488037109e+00
9.020000000000000000e+03 2.152845191955566406e+01 1.460379362106323242e+00 -3.459818124771118164e+00 -1.442641377449035645e+00 -1.470737814903259277e+00 -2.830347061157226562e+00
9.021000000000000000e+03 2.228789710998535156e+01 2.100796222686767578e+00 -4.252135753631591797e+00 -1.259491562843322754e+00 -1.653488278388977051e+00 -2.536972522735595703e+00
9.022000000000000000e+03 2.268266296386718750e+01 2.183539867401123047e+00 -4.046072483062744141e+00 -9.876682758331298828e-01 -1.510122179985046387e+00 -2.267145872116088867e+00
9.023000000000000000e+03 2.282362365722656250e+01 2.349183797836303711e+00 -4.201388359069824219e+00 -1.097485065460205078e+00 -1.589662075042724609e+00 -2.294896841049194336e+00
9.024000000000000000e+03 2.291903305053710938e+01 2.602031946182250977e+00 -4.372275829315185547e+00 -1.219906330108642578e+00 -1.677654623985290527e+00 -2.396370887756347656e+00
9.025000000000000000e+03 2.312372589111328125e+01 2.517670631408691406e+00 -4.195722579956054688e+00 -1.005470156669616699e+00 -1.560357809066772461e+00 -2.217866182327270508e+00
9.026000000000000000e+03 2.329864883422851562e+01 2.554312467575073242e+00 -4.076504230499267578e+00 -1.004424929618835449e+00 -1.524278759956359863e+00 -2.091536521911621094e+00
9.027000000000000000e+03 2.370875740051269531e+01 2.486496210098266602e+00 -3.759834051132202148e+00 -8.142608404159545898e-01 -1.372228503227233887e+00 -1.857906222343444824e+00
9.028000000000000000e+03 2.360039710998535156e+01 2.670200109481811523e+00 -3.999942779541015625e+00 -9.658493399620056152e-01 -1.489737629890441895e+00 -2.003460168838500977e+00
9.029000000000000000e+03 2.383144950866699219e+01 2.970955133438110352e+00 -4.096463203430175781e+00 -1.034412026405334473e+00 -1.539262533187866211e+00 -2.078325510025024414e+00
9.030000000000000000e+03 2.428691291809082031e+01 3.261617898941040039e+00 -4.008321762084960938e+00 -1.049122333526611328e+00 -1.517233252525329590e+00 -2.031593084335327148e+00
9.031000000000000000e+03 2.491758537292480469e+01 3.217509746551513672e+00 -3.635706663131713867e+00 -8.874861001968383789e-01 -1.356957793235778809e+00 -1.725006461143493652e+00
9.032000000000000000e+03 2.506211090087890625e+01 3.325509548187255859e+00 -3.585818529129028320e+00 -9.013982415199279785e-01 -1.346165060997009277e+00 -1.748475074768066406e+00
9.033000000000000000e+03 2.508978843688964844e+01 3.686359405517578125e+00 -3.724340677261352539e+00 -1.019630670547485352e+00 -1.423191428184509277e+00 -1.916641712188720703e+00
9.034000000000000000e+03 2.592293930053710938e+01 3.904886245727539062e+00 -3.412596702575683594e+00 -1.044196486473083496e+00 -1.337037920951843262e+00 -1.750374555587768555e+00
9.035000000000000000e+03 2.642688369750976562e+01 4.173763751983642578e+00 -3.249018907546997070e+00 -1.084830045700073242e+00 -1.300154685974121094e+00 -1.708797693252563477e+00
9.036000000000000000e+03 2.612514495849609375e+01 4.211234092712402344e+00 -3.424082040786743164e+00 -1.101813673973083496e+00 -1.357768654823303223e+00 -1.830315470695495605e+00
9.037000000000000000e+03 2.628206062316894531e+01 4.349055767059326172e+00 -3.407030344009399414e+00 -1.150059819221496582e+00 -1.367127060890197754e+00 -1.851498365402221680e+00
9.038000000000000000e+03 2.674450492858886719e+01 4.412423610687255859e+00 -3.189565181732177734e+00 -1.180440664291381836e+00 -1.311001777648925781e+00 -1.756922483444213867e+00
9.039000000000000000e+03 2.653885078430175781e+01 4.620157718658447266e+00 -3.347278594970703125e+00 -1.222800254821777344e+00 -1.371023654937744141e+00 -1.894031405448913574e+00
9.040000000000000000e+03 2.699238395690917969e+01 4.901086807250976562e+00 -3.281509160995483398e+00 -1.322687983512878418e+00 -1.381259202957153320e+00 -1.913356065750122070e+00
9.041000000000000000e+03 2.765724372863769531e+01 5.295273303985595703e+00 -3.071237802505493164e+00 -1.602440118789672852e+00 -1.402103304862976074e+00 -1.944196939468383789e+00
9.042000000000000000e+03 2.831085968017578125e+01 5.369943618774414062e+00 -2.708294630050659180e+00 -1.754473090171813965e+00 -1.338830351829528809e+00 -1.682332754135131836e+00
9.043000000000000000e+03 2.837192344665527344e+01 5.715072154998779297e+00 -2.802215337753295898e+00 -1.972079038619995117e+00 -1.432288289070129395e+00 -1.852449536323547363e+00
9.044000000000000000e+03 2.900979804992675781e+01 5.785435676574707031e+00 -2.507695198059082031e+00 -1.775959491729736328e+00 -1.285096406936645508e+00 -1.451634645462036133e+00
9.045000000000000000e+03 2.888737106323242188e+01 5.938385963439941406e+00 -2.579901218414306641e+00 -1.902587056159973145e+00 -1.344746470451354980e+00 -1.553124189376831055e+00
9.046000000000000000e+03 2.932737922668457031e+01 6.294694900512695312e+00 -2.396240711212158203e+00 -1.567663550376892090e+00 -1.189171314239501953e+00 -1.608015418052673340e+00
9.047000000000000000e+03 2.987050247192382812e+01 6.886860370635986328e+00 -1.570777893066406250e+00 -1.527798414230346680e+00 -9.295728802680969238e-01 -1.788893342018127441e+00
9.048000000000000000e+03 2.857546615600585938e+01 5.763775825500488281e+00 -2.658438444137573242e+00 -1.958850741386413574e+00 -1.385186791419982910e+00 -1.714527726173400879e+00
9.049000000000000000e+03 2.832865715026855469e+01 5.965070724487304688e+00 -2.905671119689941406e+00 -2.124887704849243164e+00 -1.509167671203613281e+00 -2.038371801376342773e+00
9.050000000000000000e+03 1.585226917266845703e+01 -1.314679533243179321e-01 -4.804278373718261719e+00 1.437096357345581055e+00 -1.010154604911804199e+00 -1.645705699920654297e+00
9.051000000000000000e+03 2.700904464721679688e+01 6.986386775970458984e+00 2.511782646179199219e-01 1.318531036376953125e-01 1.149094104766845703e-01 1.710973232984542847e-01
9.052000000000000000e+03 1.915440750122070312e+01 1.539692163467407227e+00 -2.206072330474853516e+00 -1.280083298683166504e+00 -1.045846700668334961e+00 -1.842229366302490234e+00
9.053000000000000000e+03 1.895336532592773438e+01 1.434279918670654297e+00 -2.565417051315307617e+00 -1.516769051551818848e+00 -1.224655747413635254e+00 -2.130061388015747070e+00
9.054000000000000000e+03 1.832626342773437500e+01 1.212554574012756348e+00 -2.211922645568847656e+00 -1.490106344223022461e+00 -1.110608696937561035e+00 -1.859525680541992188e+00
9.055000000000000000e+03 1.881803703308105469e+01 1.581102371215820312e+00 -1.095794439315795898e+00 -1.150714397430419922e+00 -6.739526391029357910e-01 -1.357205867767333984e+00
9.056000000000000000e+03 1.720338821411132812e+01 7.016548514366149902e-01 -1.221656560897827148e+00 -6.582677960395812988e-01 -5.639773011207580566e-01 -1.168294429779052734e+00
9.057000000000000000e+03 1.766154289245605469e+01 9.660823345184326172e-01 -9.181497693061828613e-01 -1.123893976211547852e+00 -6.126131415367126465e-01 -1.233397603034973145e+00
9.058000000000000000e+03 2.660479927062988281e+01 6.350921630859375000e+00 2.838703393936157227e+00 8.692871928215026855e-01 1.112397193908691406e+00 1.750021934509277344e+00
9.059000000000000000e+03 2.639602661132812500e+01 6.356693744659423828e+00 1.770389199256896973e+00 3.375874757766723633e-01 6.323930025100708008e-01 1.020608425140380859e+00
9.060000000000000000e+03 2.637787246704101562e+01 6.789946079254150391e+00 -1.218859076499938965e+00 -8.830646872520446777e-01 -6.305771470069885254e-01 -9.573690295219421387e-01
9.061000000000000000e+03 2.639554023742675781e+01 6.124566555023193359e+00 3.749805212020874023e+00 1.130237579345703125e+00 1.464012861251831055e+00 2.217303991317749023e+00
9.062000000000000000e+03 2.626122474670410156e+01 6.240300655364990234e+00 2.151409149169921875e+00 4.774943888187408447e-01 7.886710762977600098e-01 1.161276459693908691e+00
9.063000000000000000e+03 2.605123901367187500e+01 6.284544944763183594e+00 1.177646160125732422e+00 3.276165202260017395e-02 3.631223440170288086e-01 4.546140730381011963e-01
9.064000000000000000e+03 2.451865959167480469e+01 5.238244056701660156e+00 1.292220473289489746e+00 1.833364181220531464e-02 3.931662440299987793e-01 4.776777327060699463e-01
9.065000000000000000e+03 2.402710723876953125e+01 5.146443367004394531e+00 -8.835375308990478516e-01 -1.067474246025085449e+00 -5.853035449981689453e-01 -9.080881476402282715e-01
9.066000000000000000e+03 2.145628166198730469e+01 3.227499723434448242e+00 3.750654757022857666e-01 -3.122979402542114258e-01 1.883026584982872009e-02 -1.842449307441711426e-01
9.067000000000000000e+03 2.426770591735839844e+01 5.176071166992187500e+00 6.224958896636962891e-01 -5.295487642288208008e-01 2.788412570953369141e-02 -1.199536696076393127e-01
9.068000000000000000e+03 2.872770690917968750e+01 5.972564697265625000e+00 -2.643590927124023438e+00 -2.069729804992675781e+00 -1.413996219635009766e+00 -1.685784816741943359e+00
9.069000000000000000e+03 2.875193977355957031e+01 5.821742534637451172e+00 -2.611895084381103516e+00 -1.928716063499450684e+00 -1.362183332443237305e+00 -1.607544183731079102e+00
9.070000000000000000e+03 2.641004180908203125e+01 4.976247310638427734e+00 -3.518580913543701172e+00 -1.333485126495361328e+00 -1.455619812011718750e+00 -2.110894918441772461e+00
9.071000000000000000e+03 2.677645301818847656e+01 4.986546516418457031e+00 -3.372960567474365234e+00 -1.344383955001831055e+00 -1.415203332901000977e+00 -2.016491413116455078e+00
9.072000000000000000e+03 2.664482498168945312e+01 5.213761329650878906e+00 -3.521482944488525391e+00 -1.362948298454284668e+00 -1.465329289436340332e+00 -2.151846170425415039e+00
9.073000000000000000e+03 2.723494148254394531e+01 7.353139877319335938e+00 -9.967855811119079590e-01 -5.073582530021667480e-01 -4.512431621551513672e-01 -8.730081915855407715e-01
9.074000000000000000e+03 2.647268295288085938e+01 6.952697277069091797e+00 -1.937222123146057129e+00 -1.310567259788513184e+00 -9.743368029594421387e-01 -1.450935840606689453e+00
9.075000000000000000e+03 2.488064193725585938e+01 5.748773574829101562e+00 -8.943329453468322754e-01 -7.822438478469848633e-01 -5.029730200767517090e-01 -8.500072956085205078e-01
9.076000000000000000e+03 2.606977462768554688e+01 6.554043769836425781e+00 -1.026317715644836426e+00 -7.484973073005676270e-01 -5.324444770812988281e-01 -7.436163425445556641e-01
9.077000000000000000e+03 1.970203399658203125e+01 9.767117500305175781e-01 -1.829137921333312988e+00 -2.099568843841552734e+00 -1.178611993789672852e+00 -2.559786796569824219e+00
9.078000000000000000e+03 2.451392555236816406e+01 4.150055408477783203e+00 -4.159128665924072266e+00 -1.408474326133728027e+00 -1.670280933380126953e+00 -2.410183429718017578e+00
9.079000000000000000e+03 2.222106933593750000e+01 1.953441381454467773e+00 -3.999461650848388672e+00 -1.173959851264953613e+00 -1.552026391029357910e+00 -2.494351625442504883e+00
9.080000000000000000e+03 2.499477386474609375e+01 4.285282135009765625e+00 -3.975412368774414062e+00 -1.311358571052551270e+00 -1.586031317710876465e+00 -2.266562223434448242e+00
9.081000000000000000e+03 2.772571945190429688e+01 5.587497234344482422e+00 -3.128019332885742188e+00 -1.725769519805908203e+00 -1.456136703491210938e+00 -2.073093175888061523e+00
9.082000000000000000e+03 2.786710739135742188e+01 5.700411319732666016e+00 -3.128634214401245117e+00 -1.776945829391479492e+00 -1.471674084663391113e+00 -2.090188026428222656e+00
9.083000000000000000e+03 2.761308097839355469e+01 6.036466598510742188e+00 -3.539504528045654297e+00 -1.732275009155273438e+00 -1.581533908843994141e+00 -2.402703762054443359e+00
9.084000000000000000e+03 2.683716011047363281e+01 5.168988704681396484e+00 -3.392124176025390625e+00 -1.423360705375671387e+00 -1.444645404815673828e+00 -2.090450763702392578e+00
9.085000000000000000e+03 2.701836776733398438e+01 5.092906475067138672e+00 -3.314629554748535156e+00 -1.396255493164062500e+00 -1.413265466690063477e+00 -2.037890672683715820e+00
9.086000000000000000e+03 2.715846061706542969e+01 4.960176944732666016e+00 -3.190407276153564453e+00 -1.358363389968872070e+00 -1.364631175994873047e+00 -1.896171092987060547e+00
9.087000000000000000e+03 2.239185333251953125e+01 1.953694581985473633e+00 -3.910872936248779297e+00 -1.007753849029541016e+00 -1.475587964057922363e+00 -2.353977918624877930e+00
9.088000000000000000e+03 2.253596496582031250e+01 2.679699420928955078e+00 -4.763688087463378906e+00 -1.544384598731994629e+00 -1.892421722412109375e+00 -2.756047964096069336e+00
9.089000000000000000e+03 2.059241485595703125e+01 1.542418837547302246e+00 -3.402464151382446289e+00 -2.144498825073242188e+00 -1.664088964462280273e+00 -3.121031284332275391e+00
9.090000000000000000e+03 1.705965614318847656e+01 -1.238278031349182129e+00 -2.084523677825927734e+00 -6.081156134605407715e-01 -8.077917695045471191e-01 -8.170488476753234863e-01
9.091000000000000000e+03 1.735778236389160156e+01 -7.449176907539367676e-01 -1.721778154373168945e+00 -5.917006134986877441e-01 -6.940436363220214844e-01 -8.599568009376525879e-01
9.092000000000000000e+03 1.751641082763671875e+01 -6.253772377967834473e-01 -1.763766169548034668e+00 -6.262912154197692871e-01 -7.170172333717346191e-01 -8.939357399940490723e-01
9.093000000000000000e+03 1.767763137817382812e+01 -5.077363848686218262e-01 -1.647024750709533691e+00 -7.304437756538391113e-01 -7.132405638694763184e-01 -9.196215271949768066e-01
9.094000000000000000e+03 1.858691024780273438e+01 -9.391445666551589966e-02 -1.834551334381103516e+00 -1.677699208259582520e+00 -1.053675174713134766e+00 -1.403705120086669922e+00
9.095000000000000000e+03 1.897811508178710938e+01 2.083240002393722534e-01 -1.313153982162475586e+00 -2.125891208648681641e+00 -1.031713604927062988e+00 -1.537317872047424316e+00
9.096000000000000000e+03 1.828685569763183594e+01 2.713023126125335693e-01 -1.135550022125244141e+00 -7.786520123481750488e-01 -5.742605924606323242e-01 -8.381889462471008301e-01
9.097000000000000000e+03 2.410520935058593750e+01 3.153629302978515625e+00 -4.029995441436767578e+00 -1.008962392807006836e+00 -1.511687278747558594e+00 -2.038062095642089844e+00
9.098000000000000000e+03 2.391318130493164062e+01 3.180729627609252930e+00 -4.178363323211669922e+00 -1.118842720985412598e+00 -1.589161753654479980e+00 -2.164918661117553711e+00
9.099000000000000000e+03 2.399816131591796875e+01 3.385308742523193359e+00 -4.266419887542724609e+00 -1.214447855949401855e+00 -1.644260287284851074e+00 -2.281608104705810547e+00
9.100000000000000000e+03 2.488282585144042969e+01 3.632354021072387695e+00 -3.830230474472045898e+00 -1.065821051597595215e+00 -1.468815445899963379e+00 -1.964100360870361328e+00
9.101000000000000000e+03 2.444554328918457031e+01 3.841858625411987305e+00 -4.085085868835449219e+00 -1.282310128211975098e+00 -1.610218763351440430e+00 -2.274088144302368164e+00
9.102000000000000000e+03 2.601859092712402344e+01 4.594632148742675781e+00 -3.593671798706054688e+00 -1.226936221122741699e+00 -1.446182489395141602e+00 -2.030781030654907227e+00
9.103000000000000000e+03 2.623686027526855469e+01 4.541726589202880859e+00 -3.459270954132080078e+00 -1.196670889854431152e+00 -1.396782517433166504e+00 -1.943874716758728027e+00
9.104000000000000000e+03 1.928930854797363281e+01 8.976932168006896973e-01 -1.565440177917480469e+00 -1.610153913497924805e+00 -9.526782631874084473e-01 -1.845550537109375000e+00
9.105000000000000000e+03 1.927956962585449219e+01 6.948968768119812012e-01 -1.989320278167724609e+00 -2.014515399932861328e+00 -1.201150655746459961e+00 -2.141214370727539062e+00
9.106000000000000000e+03 1.991943740844726562e+01 6.985806822776794434e-01 -1.715100884437561035e+00 -3.253331899642944336e+00 -1.490529894828796387e+00 -2.769474506378173828e+00
9.107000000000000000e+03 2.460322952270507812e+01 3.955327272415161133e+00 -4.081192493438720703e+00 -1.291801810264587402e+00 -1.611898303031921387e+00 -2.291438102722167969e+00
9.108000000000000000e+03 2.382778739929199219e+01 3.521178722381591797e+00 -4.365419864654541016e+00 -1.360698580741882324e+00 -1.717835545539855957e+00 -2.418652772903442383e+00
9.109000000000000000e+03 2.198137664794921875e+01 2.655979156494140625e+00 -5.147017002105712891e+00 -1.861291646957397461e+00 -2.102492570877075195e+00 -3.106848478317260742e+00
9.110000000000000000e+03 2.185815811157226562e+01 2.212323427200317383e+00 -4.570778846740722656e+00 -1.598382830619812012e+00 -1.850748419761657715e+00 -2.887535095214843750e+00
9.111000000000000000e+03 2.198051834106445312e+01 2.364504098892211914e+00 -4.751723289489746094e+00 -1.653952956199645996e+00 -1.921702861785888672e+00 -2.896083593368530273e+00
9.112000000000000000e+03 2.148756027221679688e+01 1.866619586944580078e+00 -4.117928504943847656e+00 -1.669457554817199707e+00 -1.736215829849243164e+00 -2.944324254989624023e+00
9.113000000000000000e+03 2.106024551391601562e+01 1.529556989669799805e+00 -3.555471181869506836e+00 -1.854897379875183105e+00 -1.623110532760620117e+00 -3.097483396530151367e+00
9.114000000000000000e+03 2.125181007385253906e+01 1.653330326080322266e+00 -3.789769411087036133e+00 -1.837112903594970703e+00 -1.688064694404602051e+00 -3.044311046600341797e+00
9.115000000000000000e+03 2.094637107849121094e+01 1.918027877807617188e+00 -4.410327434539794922e+00 -2.035631179809570312e+00 -1.933787584304809570e+00 -3.148058652877807617e+00
9.116000000000000000e+03 2.076650810241699219e+01 1.574730277061462402e+00 -3.496804237365722656e+00 -2.134595394134521484e+00 -1.689419865608215332e+00 -3.116504669189453125e+00
9.117000000000000000e+03 2.587970352172851562e+01 4.881956577301025391e+00 -3.739824533462524414e+00 -1.328300595283508301e+00 -1.520437598228454590e+00 -2.207278728485107422e+00
9.118000000000000000e+03 1.765451049804687500e+01 -1.619453579187393188e-01 -1.201527595520019531e+00 -5.067808628082275391e-01 -5.124925374984741211e-01 -6.536986827850341797e-01
9.119000000000000000e+03 1.812890052795410156e+01 -1.340038925409317017e-01 -1.506787419319152832e+00 -9.119514822959899902e-01 -7.256217002868652344e-01 -1.040356516838073730e+00
9.120000000000000000e+03 1.826277923583984375e+01 -2.977999858558177948e-02 -1.434250235557556152e+00 -1.011408567428588867e+00 -7.336976528167724609e-01 -1.024366617202758789e+00
9.121000000000000000e+03 1.880193901062011719e+01 6.758607029914855957e-01 -1.021935343742370605e+00 -1.130195021629333496e+00 -6.456391215324401855e-01 -1.121998786926269531e+00
9.122000000000000000e+03 1.894854354858398438e+01 7.549192905426025391e-01 -1.243171334266662598e+00 -1.306880950927734375e+00 -7.650156617164611816e-01 -1.301646351814270020e+00
9.123000000000000000e+03 2.678519821166992188e+01 7.062376022338867188e+00 -1.277116298675537109e+00 -8.275211453437805176e-01 -6.313912272453308105e-01 -9.405025839805603027e-01
9.124000000000000000e+03 2.690731239318847656e+01 6.818960189819335938e+00 1.006463408470153809e+00 4.776247441768646240e-01 4.452264606952667236e-01 6.338163018226623535e-01
9.125000000000000000e+03 2.660069084167480469e+01 7.038652420043945312e+00 -1.961810350418090820e+00 -1.270689606666564941e+00 -9.697499871253967285e-01 -1.406727194786071777e+00
9.126000000000000000e+03 2.659112930297851562e+01 6.734062194824218750e+00 5.399124026298522949e-01 -1.007199957966804504e-01 1.317577213048934937e-01 2.463394403457641602e-01
9.127000000000000000e+03 2.661147308349609375e+01 6.894548892974853516e+00 -9.006704092025756836e-01 -6.869467496871948242e-01 -4.762851297855377197e-01 -6.726067066192626953e-01
9.128000000000000000e+03 2.073003196716308594e+01 1.245025277137756348e+00 -2.934300899505615234e+00 -2.061112403869628906e+00 -1.498623967170715332e+00 -3.203637123107910156e+00
9.129000000000000000e+03 2.058207511901855469e+01 1.154570817947387695e+00 -2.672541856765747070e+00 -2.310422420501708984e+00 -1.494889259338378906e+00 -3.289857864379882812e+00
9.130000000000000000e+03 2.174007797241210938e+01 2.035988092422485352e+00 -4.380073070526123047e+00 -1.612833380699157715e+00 -1.797871947288513184e+00 -2.856826543807983398e+00
9.131000000000000000e+03 1.986181449890136719e+01 8.778309226036071777e-01 -1.732239961624145508e+00 -2.859012365341186523e+00 -1.377375721931457520e+00 -2.835651397705078125e+00
9.132000000000000000e+03 1.949866867065429688e+01 5.670157074928283691e-01 -1.126949906349182129e+00 -2.872303724288940430e+00 -1.199776053428649902e+00 -2.152410507202148438e+00
9.133000000000000000e+03 1.954581260681152344e+01 2.329013496637344360e-01 -1.350455880165100098e+00 -3.497847318649291992e+00 -1.454490900039672852e+00 -2.432817935943603516e+00
9.134000000000000000e+03 2.056551742553710938e+01 1.350121736526489258e+00 -3.079572677612304688e+00 -2.368422031402587891e+00 -1.634398460388183594e+00 -3.218553543090820312e+00
9.135000000000000000e+03 2.213665390014648438e+01 2.220813751220703125e+00 -4.407650470733642578e+00 -1.410373210906982422e+00 -1.745407104492187500e+00 -2.681716918945312500e+00
9.136000000000000000e+03 2.759283638000488281e+01 5.736433982849121094e+00 -3.358672380447387695e+00 -1.673286199569702148e+00 -1.509587526321411133e+00 -2.201250076293945312e+00
9.137000000000000000e+03 1.647349929809570312e+01 -1.049277424812316895e+00 -2.010990858078002930e+00 -3.377991020679473877e-01 -7.046369910240173340e-01 -5.163363814353942871e-01
9.138000000000000000e+03 2.371811103820800781e+01 3.334536314010620117e+00 -4.383801937103271484e+00 -1.283059000968933105e+00 -1.700058221817016602e+00 -2.378805875778198242e+00
9.139000000000000000e+03 1.918312644958496094e+01 5.033789277076721191e-01 -9.884718060493469238e-01 -2.302679538726806641e+00 -9.873453974723815918e-01 -1.681486368179321289e+00
9.140000000000000000e+03 2.467941284179687500e+01 3.614620447158813477e+00 -3.928372621536254883e+00 -1.061424612998962402e+00 -1.496939182281494141e+00 -2.044134616851806641e+00
9.141000000000000000e+03 1.937634086608886719e+01 4.028036594390869141e-01 -1.728714942932128906e+00 -2.564094305038452148e+00 -1.287842750549316406e+00 -2.172742843627929688e+00
9.142000000000000000e+03 1.885597801208496094e+01 4.195890128612518311e-01 -1.334828853607177734e+00 -1.805288553237915039e+00 -9.420351982116699219e-01 -1.643352866172790527e+00
9.143000000000000000e+03 2.240024375915527344e+01 2.218441963195800781e+00 -4.258906364440917969e+00 -1.219949126243591309e+00 -1.643656611442565918e+00 -2.488940477371215820e+00
9.144000000000000000e+03 2.447861862182617188e+01 3.615789175033569336e+00 -4.099620342254638672e+00 -1.144057750701904297e+00 -1.573103427886962891e+00 -2.150337934494018555e+00
9.145000000000000000e+03 2.235301589965820312e+01 2.481110811233520508e+00 -4.650065422058105469e+00 -1.454383730888366699e+00 -1.831334710121154785e+00 -2.707268714904785156e+00
9.146000000000000000e+03 2.166055107116699219e+01 1.858121275901794434e+00 -4.083522796630859375e+00 -1.556436061859130859e+00 -1.691987633705139160e+00 -2.842878580093383789e+00
9.147000000000000000e+03 2.237258148193359375e+01 2.643537998199462891e+00 -4.803801059722900391e+00 -1.540594458580017090e+00 -1.903318643569946289e+00 -2.811690330505371094e+00
9.148000000000000000e+03 2.353147506713867188e+01 2.949220895767211914e+00 -4.308605670928955078e+00 -1.147953391075134277e+00 -1.636967658996582031e+00 -2.271188974380493164e+00
9.149000000000000000e+03 2.845718574523925781e+01 7.030216693878173828e+00 -6.744502544403076172e+00 -3.255029439926147461e+00 -2.999859571456909180e+00 -4.735898494720458984e+00
9.150000000000000000e+03 2.829931449890136719e+01 6.909000873565673828e+00 -5.275211334228515625e+00 -2.567728757858276367e+00 -2.352882146835327148e+00 -3.624284982681274414e+00
9.151000000000000000e+03 2.814144515991210938e+01 6.787785530090332031e+00 -4.673589706420898438e+00 -2.113268613815307617e+00 -2.036057472229003906e+00 -3.127450227737426758e+00
9.152000000000000000e+03 2.798357582092285156e+01 6.666570186614990234e+00 -4.313324928283691406e+00 -1.924070119857788086e+00 -1.871218562126159668e+00 -2.883940458297729492e+00
9.153000000000000000e+03 2.849719047546386719e+01 6.987525463104248047e+00 -5.356935501098632812e+00 -3.896913051605224609e+00 -2.776154518127441406e+00 -4.612032890319824219e+00
9.154000000000000000e+03 2.836599349975585938e+01 6.837849140167236328e+00 -4.557246685028076172e+00 -3.109444856643676758e+00 -2.300007581710815430e+00 -3.498625516891479492e+00
9.155000000000000000e+03 2.823479461669921875e+01 6.688172817230224609e+00 -4.126454353332519531e+00 -2.544015884399414062e+00 -2.001141071319580078e+00 -3.141510486602783203e+00
9.156000000000000000e+03 2.810359573364257812e+01 6.538496494293212891e+00 -3.884483814239501953e+00 -2.250751972198486328e+00 -1.840570807456970215e+00 -2.838393688201904297e+00
9.157000000000000000e+03 2.854475593566894531e+01 6.953455924987792969e+00 -4.307184219360351562e+00 -4.436457633972167969e+00 -2.623092651367187500e+00 -4.131851196289062500e+00
9.158000000000000000e+03 2.844526672363281250e+01 6.781066894531250000e+00 -3.954841613769531250e+00 -3.357366085052490234e+00 -2.193662405014038086e+00 -3.231578826904296875e+00
9.159000000000000000e+03 2.834577941894531250e+01 6.608678340911865234e+00 -3.616842031478881836e+00 -2.852668046951293945e+00 -1.940852999687194824e+00 -2.885343551635742188e+00
9.160000000000000000e+03 2.824629020690917969e+01 6.436289310455322266e+00 -3.476383209228515625e+00 -2.489285469055175781e+00 -1.789700627326965332e+00 -2.674030065536499023e+00
9.161000000000000000e+03 2.859805107116699219e+01 6.929316997528076172e+00 -3.642900228500366211e+00 -4.600368499755859375e+00 -2.472980499267578125e+00 -3.459479331970214844e+00
9.162000000000000000e+03 2.853409385681152344e+01 6.740835666656494141e+00 -3.470664262771606445e+00 -3.437864065170288086e+00 -2.072558641433715820e+00 -2.860556840896606445e+00
9.163000000000000000e+03 2.847013473510742188e+01 6.552354335784912109e+00 -3.277074813842773438e+00 -2.940397500991821289e+00 -1.865241646766662598e+00 -2.574723243713378906e+00
9.164000000000000000e+03 2.840617561340332031e+01 6.363872528076171875e+00 -3.107501983642578125e+00 -2.593796730041503906e+00 -1.710389614105224609e+00 -2.369819402694702148e+00
9.165000000000000000e+03 2.865503120422363281e+01 6.916035652160644531e+00 -3.282906532287597656e+00 -4.340528011322021484e+00 -2.287030458450317383e+00 -2.798105478286743164e+00
9.166000000000000000e+03 2.862905883789062500e+01 6.718699932098388672e+00 -3.223537445068359375e+00 -3.333701610565185547e+00 -1.967171788215637207e+00 -2.500146865844726562e+00
9.167000000000000000e+03 2.860308647155761719e+01 6.521364212036132812e+00 -2.990912675857543945e+00 -2.851584911346435547e+00 -1.752749323844909668e+00 -2.241946935653686523e+00
9.168000000000000000e+03 2.857711601257324219e+01 6.324028491973876953e+00 -2.928610086441040039e+00 -2.544613361358642578e+00 -1.641967058181762695e+00 -2.093405485153198242e+00
9.169000000000000000e+03 2.871350669860839844e+01 6.914121627807617188e+00 -3.297436952590942383e+00 -3.807043552398681641e+00 -2.131344079971313477e+00 -2.364800691604614258e+00
9.170000000000000000e+03 2.872651863098144531e+01 6.715509891510009766e+00 -3.013698577880859375e+00 -3.036540746688842773e+00 -1.815071821212768555e+00 -2.205004930496215820e+00
9.171000000000000000e+03 2.873953056335449219e+01 6.516898155212402344e+00 -2.905838251113891602e+00 -2.660091400146484375e+00 -1.669778943061828613e+00 -2.008571147918701172e+00
9.172000000000000000e+03 2.875254249572753906e+01 6.318286418914794922e+00 -2.742549419403076172e+00 -2.347917318344116211e+00 -1.527140021324157715e+00 -1.826359987258911133e+00
9.173000000000000000e+03 2.877123260498046875e+01 6.923648357391357422e+00 -3.274670839309692383e+00 -3.098895072937011719e+00 -1.912069678306579590e+00 -2.236953496932983398e+00
9.174000000000000000e+03 2.882272911071777344e+01 6.731388092041015625e+00 -2.991187095642089844e+00 -2.708042383193969727e+00 -1.709768772125244141e+00 -2.073531150817871094e+00
9.175000000000000000e+03 2.887422561645507812e+01 6.539127349853515625e+00 -2.772251844406127930e+00 -2.342598915100097656e+00 -1.534455180168151855e+00 -1.856040477752685547e+00
9.176000000000000000e+03 2.892572212219238281e+01 6.346867084503173828e+00 -2.691089630126953125e+00 -2.151559829711914062e+00 -1.452794790267944336e+00 -1.711014389991760254e+00
9.177000000000000000e+03 2.882599258422851562e+01 6.944250583648681641e+00 -3.292781829833984375e+00 -2.559643268585205078e+00 -1.755727529525756836e+00 -2.443822622299194336e+00
9.178000000000000000e+03 2.891399574279785156e+01 6.765724658966064453e+00 -2.810088157653808594e+00 -2.320322990417480469e+00 -1.539123415946960449e+00 -2.060177803039550781e+00
9.179000000000000000e+03 2.900199890136718750e+01 6.587198734283447266e+00 -2.760929107666015625e+00 -2.085842132568359375e+00 -1.454031348228454590e+00 -1.853652715682983398e+00
9.180000000000000000e+03 2.909000015258789062e+01 6.408672809600830078e+00 -2.563384294509887695e+00 -1.875348448753356934e+00 -1.331619858741760254e+00 -1.693833708763122559e+00
9.181000000000000000e+03 2.887568473815917969e+01 6.975136280059814453e+00 -2.931505680084228516e+00 -2.166854858398437500e+00 -1.529508113861083984e+00 -2.765017747879028320e+00
9.182000000000000000e+03 2.899681282043457031e+01 6.817201137542724609e+00 -2.679804563522338867e+00 -2.093974113464355469e+00 -1.432133555412292480e+00 -2.230344057083129883e+00
9.183000000000000000e+03 2.911794281005859375e+01 6.659265518188476562e+00 -2.526451826095581055e+00 -1.846258401870727539e+00 -1.311812996864318848e+00 -1.897353410720825195e+00
9.184000000000000000e+03 2.923907279968261719e+01 6.501330375671386719e+00 -2.559921026229858398e+00 -1.694352626800537109e+00 -1.276282072067260742e+00 -1.767004251480102539e+00
9.185000000000000000e+03 2.891839790344238281e+01 7.015120029449462891e+00 -2.344244003295898438e+00 -2.187927246093750000e+00 -1.359651327133178711e+00 -3.137476921081542969e+00
9.186000000000000000e+03 2.906800079345703125e+01 6.883840560913085938e+00 -2.361156702041625977e+00 -1.901103854179382324e+00 -1.278678178787231445e+00 -2.372124910354614258e+00
9.187000000000000000e+03 2.921760559082031250e+01 6.752560615539550781e+00 -2.284982442855834961e+00 -1.783791065216064453e+00 -1.220632076263427734e+00 -2.103015899658203125e+00
9.188000000000000000e+03 2.936721229553222656e+01 6.621281147003173828e+00 -2.255621433258056641e+00 -1.586030721664428711e+00 -1.152495622634887695e+00 -1.790570259094238281e+00
9.189000000000000000e+03 2.895249176025390625e+01 7.062665939331054688e+00 -1.592879414558410645e+00 -2.346795320510864258e+00 -1.181902408599853516e+00 -3.340864181518554688e+00
9.190000000000000000e+03 2.912482643127441406e+01 6.963083744049072266e+00 -1.858316898345947266e+00 -1.939697980880737305e+00 -1.139404416084289551e+00 -2.505252838134765625e+00
9.191000000000000000e+03 2.929716110229492188e+01 6.863501071929931641e+00 -2.015503883361816406e+00 -1.728936076164245605e+00 -1.123332023620605469e+00 -2.242982149124145508e+00
9.192000000000000000e+03 2.946949577331542969e+01 6.763918876647949219e+00 -1.836899757385253906e+00 -1.675822973251342773e+00 -1.053816795349121094e+00 -1.996392488479614258e+00
9.193000000000000000e+03 2.897665977478027344e+01 7.115948200225830078e+00 -6.730895042419433594e-01 -2.614048719406127930e+00 -9.861414432525634766e-01 -3.243647336959838867e+00
9.194000000000000000e+03 2.916510581970214844e+01 7.051887512207031250e+00 -1.350996494293212891e+00 -2.081109046936035156e+00 -1.029631733894348145e+00 -2.606468439102172852e+00
9.195000000000000000e+03 2.935355186462402344e+01 6.987826824188232422e+00 -1.527032494544982910e+00 -1.791139841079711914e+00 -9.954516887664794922e-01 -2.235343456268310547e+00
9.196000000000000000e+03 2.954199981689453125e+01 6.923766136169433594e+00 -1.689253807067871094e+00 -1.739262461662292480e+00 -1.028554916381835938e+00 -2.169581413269042969e+00
9.197000000000000000e+03 2.898997116088867188e+01 7.172920703887939453e+00 9.535035490989685059e-02 -2.914052248001098633e+00 -8.456106185913085938e-01 -2.984091997146606445e+00
9.198000000000000000e+03 2.918729400634765625e+01 7.146841526031494141e+00 -7.325104475021362305e-01 -2.201192617416381836e+00 -8.801109194755554199e-01 -2.492722988128662109e+00
9.199000000000000000e+03 2.938461494445800781e+01 7.120762348175048828e+00 -1.052598237991333008e+00 -2.006743431091308594e+00 -9.178025126457214355e-01 -2.218567848205566406e+00
9.200000000000000000e+03 2.958193588256835938e+01 7.094683170318603516e+00 -1.325706243515014648e+00 -1.752060651779174805e+00 -9.233300685882568359e-01 -1.999370574951171875e+00
9.201000000000000000e+03 2.899191665649414062e+01 7.231395721435546875e+00 7.596784234046936035e-01 -2.981927156448364258e+00 -6.666746735572814941e-01 -2.518626928329467773e+00
9.202000000000000000e+03 2.919053649902343750e+01 7.244299411773681641e+00 -1.759928017854690552e-01 -2.413854360580444336e+00 -7.769541740417480469e-01 -2.291334629058837891e+00
9.203000000000000000e+03 2.938915443420410156e+01 7.257203578948974609e+00 -5.713714957237243652e-01 -2.120033979415893555e+00 -8.074216246604919434e-01 -2.024418830871582031e+00
9.204000000000000000e+03 2.958777427673339844e+01 7.270107746124267578e+00 -8.024717569351196289e-01 -1.962721109390258789e+00 -8.295578360557556152e-01 -1.821618795394897461e+00
9.205000000000000000e+03 2.898242187500000000e+01 7.289126873016357422e+00 1.205467700958251953e+00 -3.000731706619262695e+00 -5.385792255401611328e-01 -2.057678699493408203e+00
9.206000000000000000e+03 2.917471122741699219e+01 7.340518474578857422e+00 3.499187529087066650e-01 -2.471374273300170898e+00 -6.364366412162780762e-01 -1.913489460945129395e+00
9.207000000000000000e+03 2.936699867248535156e+01 7.391910076141357422e+00 -1.795499324798583984e-01 -2.253907203674316406e+00 -7.300371527671813965e-01 -1.747443199157714844e+00
9.208000000000000000e+03 2.955928802490234375e+01 7.443301677703857422e+00 -4.388532042503356934e-01 -2.053589105606079102e+00 -7.477326989173889160e-01 -1.627003550529479980e+00
9.209000000000000000e+03 2.896185111999511719e+01 7.343897819519042969e+00 1.552479028701782227e+00 -2.741296052932739258e+00 -3.566451072692871094e-01 -1.580676913261413574e+00
9.210000000000000000e+03 2.914042282104492188e+01 7.431803703308105469e+00 7.255598902702331543e-01 -2.572882652282714844e+00 -5.541968345642089844e-01 -1.493939757347106934e+00
9.211000000000000000e+03 2.931899642944335938e+01 7.519709587097167969e+00 1.478413194417953491e-01 -2.176097154617309570e+00 -6.084767580032348633e-01 -1.328607916831970215e+00
9.212000000000000000e+03 2.949757194519042969e+01 7.607614994049072266e+00 -3.367182314395904541e-01 -2.047853231430053711e+00 -7.153714895248413086e-01 -1.334658861160278320e+00
9.213000000000000000e+03 2.893099212646484375e+01 7.393605232238769531e+00 1.808719038963317871e+00 -2.663825988769531250e+00 -2.565321028232574463e-01 -1.161368608474731445e+00
9.214000000000000000e+03 2.908899307250976562e+01 7.514648914337158203e+00 9.897219538688659668e-01 -2.311943054199218750e+00 -3.966663181781768799e-01 -1.008384943008422852e+00
9.215000000000000000e+03 2.924699401855468750e+01 7.635693073272705078e+00 3.072860836982727051e-01 -2.200382709503173828e+00 -5.679290294647216797e-01 -9.099977016448974609e-01
9.216000000000000000e+03 2.940499496459960938e+01 7.756736755371093750e+00 -2.261318266391754150e-01 -1.786634206771850586e+00 -6.038298010826110840e-01 -8.335655927658081055e-01
9.217000000000000000e+03 2.889103126525878906e+01 7.436339855194091797e+00 2.116991519927978516e+00 -2.275320529937744141e+00 -4.749868810176849365e-02 -8.025392293930053711e-01
9.218000000000000000e+03 2.902239227294921875e+01 7.585873603820800781e+00 1.060932874679565430e+00 -2.192670345306396484e+00 -3.395212292671203613e-01 -4.730205535888671875e-01
9.219000000000000000e+03 2.915375137329101562e+01 7.735406875610351562e+00 3.202921748161315918e-01 -1.794699788093566895e+00 -4.423222839832305908e-01 -5.431846380233764648e-01
9.220000000000000000e+03 2.928511238098144531e+01 7.884940624237060547e+00 -1.083006337285041809e-01 -1.848438262939453125e+00 -5.870216488838195801e-01 -4.476683437824249268e-01
9.221000000000000000e+03 2.884350395202636719e+01 7.470460414886474609e+00 2.280822277069091797e+00 -2.110556364059448242e+00 5.107976123690605164e-02 -3.091318607330322266e-01
9.222000000000000000e+03 2.894317817687988281e+01 7.642741680145263672e+00 1.090118288993835449e+00 -1.672464966773986816e+00 -1.747039854526519775e-01 -1.116137206554412842e-01
9.223000000000000000e+03 2.904285430908203125e+01 7.815021991729736328e+00 1.464610546827316284e-01 -1.554440975189208984e+00 -4.223939776420593262e-01 -9.726779162883758545e-02
9.224000000000000000e+03 2.914253044128417969e+01 7.987303256988525391e+00 -2.640261054039001465e-01 -1.408130168914794922e+00 -5.016468763351440430e-01 -4.193417131900787354e-01
9.225000000000000000e+03 2.879023361206054688e+01 7.494657516479492188e+00 2.544837713241577148e+00 -1.680148959159851074e+00 2.594066262245178223e-01 1.299363523721694946e-01
9.226000000000000000e+03 2.885439682006835938e+01 7.683069229125976562e+00 8.594863414764404297e-01 -1.188125491142272949e+00 -9.859176725149154663e-02 2.920201122760772705e-01
9.227000000000000000e+03 2.891856002807617188e+01 7.871481418609619141e+00 1.250173547305166721e-03 -1.053618788719177246e+00 -3.157105743885040283e-01 4.618023335933685303e-02
9.228000000000000000e+03 2.898272323608398438e+01 8.059893608093261719e+00 -8.065015077590942383e-01 -1.001579284667968750e+00 -5.424242019653320312e-01 -2.087809145450592041e-01
9.229000000000000000e+03 2.873326873779296875e+01 7.508000850677490234e+00 2.586280107498168945e+00 -1.123888611793518066e+00 4.387174844741821289e-01 5.898255109786987305e-01
9.230000000000000000e+03 2.875945472717285156e+01 7.705308437347412109e+00 6.838572621345520020e-01 -6.166055202484130859e-01 2.017552219331264496e-02 5.009414553642272949e-01
9.231000000000000000e+03 2.878564071655273438e+01 7.902615547180175781e+00 -3.350628316402435303e-01 -5.091239213943481445e-01 -2.532560229301452637e-01 1.642069220542907715e-01
9.232000000000000000e+03 2.881182670593261719e+01 8.099923133850097656e+00 -1.166528224945068359e+00 -5.110839605331420898e-01 -5.032836794853210449e-01 -1.470605283975601196e-01
9.233000000000000000e+03 2.867479515075683594e+01 7.509978294372558594e+00 2.377276420593261719e+00 -4.558581113815307617e-01 5.764254927635192871e-01 9.652714729309082031e-01
9.234000000000000000e+03 2.866199874877929688e+01 7.708603858947753906e+00 6.581231355667114258e-01 3.685827367007732391e-03 1.985426843166351318e-01 5.506824254989624023e-01
9.235000000000000000e+03 2.864920234680175781e+01 7.907229900360107422e+00 -7.408832311630249023e-01 -2.116463333368301392e-02 -2.286143600940704346e-01 1.866862624883651733e-01
9.236000000000000000e+03 2.863640785217285156e+01 8.105855941772460938e+00 -1.356545090675354004e+00 -7.873290032148361206e-02 -4.305834174156188965e-01 -1.978208124637603760e-01
9.237000000000000000e+03 2.861705780029296875e+01 7.500514030456542969e+00 2.448164701461791992e+00 4.032492637634277344e-01 8.554242253303527832e-01 1.163358926773071289e+00
9.238000000000000000e+03 2.856577110290527344e+01 7.692830562591552734e+00 3.873432278633117676e-01 5.107870101928710938e-01 2.694390714168548584e-01 4.358697235584259033e-01
9.239000000000000000e+03 2.851448440551757812e+01 7.885146617889404297e+00 -6.175352931022644043e-01 4.362007379531860352e-01 -5.440037325024604797e-02 1.441024541854858398e-01
9.240000000000000000e+03 2.846319770812988281e+01 8.077463150024414062e+00 -1.880692601203918457e+00 1.210411787033081055e-01 -5.278954505920410156e-01 -4.165014326572418213e-01
9.241000000000000000e+03 2.856227684020996094e+01 7.479971885681152344e+00 2.378966808319091797e+00 1.053984045982360840e+00 1.029885292053222656e+00 9.882176518440246582e-01
9.242000000000000000e+03 2.847446632385253906e+01 7.658593177795410156e+00 5.785180926322937012e-01 9.886080622673034668e-01 4.701378643512725830e-01 3.944431841373443604e-01
9.243000000000000000e+03 2.838665962219238281e+01 7.837214469909667969e+00 -6.545138359069824219e-01 6.593167781829833984e-01 1.440888969227671623e-03 -1.192414611577987671e-01
9.244000000000000000e+03 2.829885101318359375e+01 8.015835762023925781e+00 -1.756286501884460449e+00 6.099143028259277344e-01 -3.439116775989532471e-01 -4.633293747901916504e-01
9.245000000000000000e+03 2.851255226135253906e+01 7.449139595031738281e+00 2.516170501708984375e+00 1.579354286193847656e+00 1.228657484054565430e+00 7.119693160057067871e-01
9.246000000000000000e+03 2.839159393310546875e+01 7.607206821441650391e+00 1.056767582893371582e+00 1.201589822769165039e+00 6.775072216987609863e-01 2.865706980228424072e-01
9.247000000000000000e+03 2.827063560485839844e+01 7.765273571014404297e+00 -5.448714494705200195e-01 9.141635298728942871e-01 1.107876226305961609e-01 -2.717428207397460938e-01
9.248000000000000000e+03 2.814967727661132812e+01 7.923340797424316406e+00 -1.315379738807678223e+00 6.051695346832275391e-01 -2.130630761384963989e-01 -4.770597219467163086e-01
9.249000000000000000e+03 2.846979522705078125e+01 7.409202575683593750e+00 3.330341100692749023e+00 1.860040545463562012e+00 1.557114481925964355e+00 5.040848255157470703e-01
9.250000000000000000e+03 2.832033348083496094e+01 7.540644645690917969e+00 1.486346840858459473e+00 1.176484227180480957e+00 7.988492846488952637e-01 1.381391733884811401e-01
9.251000000000000000e+03 2.817087173461914062e+01 7.672087192535400391e+00 1.262654662132263184e-01 1.128047227859497070e+00 3.762938082218170166e-01 -9.436338394880294800e-02
9.252000000000000000e+03 2.802140998840332031e+01 7.803529262542724609e+00 -1.071001887321472168e+00 2.264296263456344604e-01 -2.533716857433319092e-01 -7.452102899551391602e-01
9.253000000000000000e+03 2.843564987182617188e+01 7.361693859100341797e+00 4.142855167388916016e+00 1.487295389175415039e+00 1.689045071601867676e+00 3.272498250007629395e-01
9.254000000000000000e+03 2.826342201232910156e+01 7.461463451385498047e+00 2.397508382797241211e+00 1.381383895874023438e+00 1.133667707443237305e+00 3.704855442047119141e-01
9.255000000000000000e+03 2.809119606018066406e+01 7.561233043670654297e+00 8.264681696891784668e-01 8.382394313812255859e-01 4.994122684001922607e-01 -9.263480082154273987e-03
9.256000000000000000e+03 2.791897010803222656e+01 7.661002635955810547e+00 -4.254924952983856201e-01 5.584626793861389160e-01 3.989104554057121277e-02 -5.680981278419494629e-01
9.257000000000000000e+03 2.841142272949218750e+01 7.308437824249267578e+00 5.399704933166503906e+00 1.405737876892089844e+00 2.041632890701293945e+00 6.449692845344543457e-01
9.258000000000000000e+03 2.822304725646972656e+01 7.372703552246093750e+00 3.210214614868164062e+00 1.091126918792724609e+00 1.290402412414550781e+00 6.682224869728088379e-01
9.259000000000000000e+03 2.803466987609863281e+01 7.436968803405761719e+00 1.853905558586120605e+00 1.012489199638366699e+00 8.599184155464172363e-01 3.807183802127838135e-01
9.260000000000000000e+03 2.784629249572753906e+01 7.501234531402587891e+00 4.413136839866638184e-01 5.799310207366943359e-01 3.063734173774719238e-01 -1.160542368888854980e-01
9.261000000000000000e+03 2.839804840087890625e+01 7.251480102539062500e+00 6.398578166961669922e+00 9.320667982101440430e-01 2.199193477630615234e+00 1.313702940940856934e+00
9.262000000000000000e+03 2.820075607299804688e+01 7.277773380279541016e+00 4.213074207305908203e+00 1.276794910430908203e+00 1.646960735321044922e+00 1.234908938407897949e+00
9.263000000000000000e+03 2.800346374511718750e+01 7.304067134857177734e+00 2.795599222183227539e+00 8.919979929924011230e-01 1.106279134750366211e+00 8.974520564079284668e-01
9.264000000000000000e+03 2.780616950988769531e+01 7.330360889434814453e+00 1.722269296646118164e+00 8.965691924095153809e-01 7.856515645980834961e-01 6.178491711616516113e-01
9.265000000000000000e+03 2.839603996276855469e+01 7.193007469177246094e+00 7.253187656402587891e+00 1.111050844192504883e+00 2.509271383285522461e+00 2.298040151596069336e+00
9.266000000000000000e+03 2.819740867614746094e+01 7.180319309234619141e+00 4.998892784118652344e+00 1.230896472930908203e+00 1.868936777114868164e+00 1.929487705230712891e+00
9.267000000000000000e+03 2.799877548217773438e+01 7.167631149291992188e+00 3.842474222183227539e+00 1.232653737068176270e+00 1.522538423538208008e+00 1.628539323806762695e+00
9.268000000000000000e+03 2.780014228820800781e+01 7.154942989349365234e+00 2.896739482879638672e+00 9.405609369277954102e-01 1.151190161705017090e+00 1.366153478622436523e+00
9.269000000000000000e+03 2.840547180175781250e+01 7.135265827178955078e+00 7.558508396148681641e+00 1.414797663688659668e+00 2.691991806030273438e+00 3.417898654937744141e+00
9.270000000000000000e+03 2.821312904357910156e+01 7.084083080291748047e+00 5.721634864807128906e+00 1.641126513481140137e+00 2.208828449249267578e+00 2.658770322799682617e+00
9.271000000000000000e+03 2.802078437805175781e+01 7.032900810241699219e+00 4.753455638885498047e+00 1.408572196960449219e+00 1.848608374595642090e+00 2.451404571533203125e+00
9.272000000000000000e+03 2.782843971252441406e+01 6.981718063354492188e+00 3.998574018478393555e+00 1.416922688484191895e+00 1.624649047851562500e+00 2.251340627670288086e+00
9.273000000000000000e+03 2.842598533630371094e+01 7.080472469329833984e+00 7.580984115600585938e+00 2.356450796127319336e+00 2.981230497360229492e+00 4.329055786132812500e+00
9.274000000000000000e+03 2.824731636047363281e+01 6.992761135101318359e+00 6.189964771270751953e+00 2.011263132095336914e+00 2.460368394851684570e+00 3.437836408615112305e+00
9.275000000000000000e+03 2.806864738464355469e+01 6.905049324035644531e+00 5.435311317443847656e+00 1.927688002586364746e+00 2.208899736404418945e+00 3.208121538162231445e+00
9.276000000000000000e+03 2.788997840881347656e+01 6.817337989807128906e+00 5.179303169250488281e+00 1.793599605560302734e+00 2.091870784759521484e+00 3.080430507659912109e+00
9.277000000000000000e+03 2.861505317687988281e+01 7.151432037353515625e+00 -1.058594226837158203e+01 -4.840967655181884766e+00 -4.628072738647460938e+00 -7.145280838012695312e+00
9.278000000000000000e+03 2.862838935852050781e+01 7.137201309204101562e+00 -9.342844963073730469e+00 -5.841063976287841797e+00 -4.555172443389892578e+00 -7.262946605682373047e+00
9.279000000000000000e+03 2.864424514770507812e+01 7.125844955444335938e+00 -7.759989738464355469e+00 -6.540457248687744141e+00 -4.290133953094482422e+00 -7.056031227111816406e+00
9.280000000000000000e+03 2.866201019287109375e+01 7.117798805236816406e+00 -6.175867080688476562e+00 -6.846010208129882812e+00 -3.906563282012939453e+00 -6.559384346008300781e+00
9.281000000000000000e+03 2.868100357055664062e+01 7.113371372222900391e+00 -4.821089744567871094e+00 -6.735848426818847656e+00 -3.467081546783447266e+00 -5.947802543640136719e+00
9.282000000000000000e+03 2.870049476623535156e+01 7.112733364105224609e+00 -3.541181564331054688e+00 -6.236574172973632812e+00 -2.933326721191406250e+00 -5.371177196502685547e+00
9.283000000000000000e+03 2.871973609924316406e+01 7.115909099578857422e+00 -2.506321907043457031e+00 -5.609055519104003906e+00 -2.434613227844238281e+00 -4.943924903869628906e+00
9.284000000000000000e+03 2.873798942565917969e+01 7.122776508331298828e+00 -1.352059960365295410e+00 -4.889523983001708984e+00 -1.872475147247314453e+00 -4.624334335327148438e+00
9.285000000000000000e+03 2.875455474853515625e+01 7.133071899414062500e+00 -3.188945949077606201e-01 -4.405106067657470703e+00 -1.417200088500976562e+00 -4.420203685760498047e+00
9.286000000000000000e+03 2.876879119873046875e+01 7.146399497985839844e+00 7.601501941680908203e-01 -3.959223508834838867e+00 -9.597219824790954590e-01 -4.133797168731689453e+00
9.287000000000000000e+03 2.878015708923339844e+01 7.162248134613037109e+00 1.790307402610778809e+00 -3.756484508514404297e+00 -5.898531079292297363e-01 -3.730651140213012695e+00
9.288000000000000000e+03 2.878821182250976562e+01 7.180008888244628906e+00 2.508260011672973633e+00 -3.605667114257812500e+00 -3.292221128940582275e-01 -3.248546838760375977e+00
9.289000000000000000e+03 2.879265022277832031e+01 7.198999881744384766e+00 3.022621154785156250e+00 -3.364441394805908203e+00 -1.025460958480834961e-01 -2.626594066619873047e+00
9.290000000000000000e+03 2.879329872131347656e+01 7.218491554260253906e+00 3.157335042953491211e+00 -3.165147066116333008e+00 -2.343609929084777832e-03 -2.084460973739624023e+00
9.291000000000000000e+03 2.879013252258300781e+01 7.237735271453857422e+00 3.077899694442749023e+00 -2.817022562026977539e+00 7.826314866542816162e-02 -1.623440742492675781e+00
9.292000000000000000e+03 2.878327560424804688e+01 7.255992412567138672e+00 2.855391502380371094e+00 -2.667520999908447266e+00 5.636112391948699951e-02 -1.389458537101745605e+00
9.293000000000000000e+03 2.877298927307128906e+01 7.272561550140380859e+00 2.704417228698730469e+00 -2.375148773193359375e+00 9.878055751323699951e-02 -1.311759829521179199e+00
9.294000000000000000e+03 2.875966835021972656e+01 7.286806106567382812e+00 2.643511056900024414e+00 -2.507868289947509766e+00 4.069282114505767822e-02 -1.275294780731201172e+00
9.295000000000000000e+03 2.874382781982421875e+01 7.298179626464843750e+00 2.942192077636718750e+00 -2.459285259246826172e+00 1.448720693588256836e-01 -1.306140661239624023e+00
9.296000000000000000e+03 2.872607040405273438e+01 7.306245326995849609e+00 3.271162271499633789e+00 -2.583583354949951172e+00 2.062737047672271729e-01 -1.161577701568603516e+00
9.297000000000000000e+03 2.870708084106445312e+01 7.310693264007568359e+00 3.861963748931884766e+00 -2.531902074813842773e+00 3.990185260772705078e-01 -9.046142101287841797e-01
9.298000000000000000e+03 2.868759155273437500e+01 7.311352252960205078e+00 4.691792488098144531e+00 -2.203413009643554688e+00 7.465138435363769531e-01 -6.150578260421752930e-01
9.299000000000000000e+03 2.866834640502929688e+01 7.308197498321533203e+00 5.328146457672119141e+00 -1.816085696220397949e+00 1.053618311882019043e+00 -3.462345600128173828e-01
9.300000000000000000e+03 2.865008544921875000e+01 7.301350116729736328e+00 6.354134082794189453e+00 -1.108991742134094238e+00 1.573542714118957520e+00 -2.885340945795178413e-03
9.301000000000000000e+03 2.863351058959960938e+01 7.291072845458984375e+00 7.660890579223632812e+00 -5.195003747940063477e-01 2.142416954040527344e+00 2.437220662832260132e-01
9.302000000000000000e+03 2.861925697326660156e+01 7.277760505676269531e+00 8.819545745849609375e+00 -1.130035296082496643e-01 2.611962556838989258e+00 5.337203145027160645e-01
9.303000000000000000e+03 2.860787582397460938e+01 7.261924266815185547e+00 1.043274784088134766e+01 5.367669463157653809e-01 3.290854454040527344e+00 1.176953434944152832e+00
9.304000000000000000e+03 2.859980010986328125e+01 7.244172573089599609e+00 1.163584232330322266e+01 6.897938251495361328e-01 3.697690725326538086e+00 2.000784635543823242e+00
9.305000000000000000e+03 2.859534263610839844e+01 7.225186347961425781e+00 1.269236373901367188e+01 1.398543357849121094e+00 4.227272033691406250e+00 3.155297756195068359e+00
9.306000000000000000e+03 2.859467124938964844e+01 7.205695629119873047e+00 1.303747558593750000e+01 1.922899484634399414e+00 4.488112449645996094e+00 4.457376003265380859e+00
9.307000000000000000e+03 2.859781646728515625e+01 7.186448097229003906e+00 1.287974643707275391e+01 2.944944620132446289e+00 4.747407436370849609e+00 5.659940242767333984e+00
9.308000000000000000e+03 2.860465431213378906e+01 7.168183803558349609e+00 1.200785827636718750e+01 3.824563980102539062e+00 4.749726772308349609e+00 6.660161495208740234e+00
9.309000000000000000e+03 7.041379547119140625e+01 3.390655136108398438e+01 2.943679809570312500e+01 5.954655170440673828e+00 1.061743640899658203e+01 1.153562545776367188e+01
9.310000000000000000e+03 7.041751861572265625e+01 3.388744354248046875e+01 2.695499992370605469e+01 1.787430572509765625e+01 1.344879150390625000e+01 2.252624511718750000e+01
9.311000000000000000e+03 7.042488861083984375e+01 3.386942672729492188e+01 2.475004959106445312e+01 2.953947067260742188e+01 1.628685569763183594e+01 2.635742187500000000e+01
9.312000000000000000e+03 7.043562316894531250e+01 3.385318756103515625e+01 2.111265563964843750e+01 4.163208389282226562e+01 1.882342147827148438e+01 2.749033737182617188e+01
9.313000000000000000e+03 7.044932556152343750e+01 3.383935165405273438e+01 1.793166923522949219e+01 5.279323196411132812e+01 2.121747016906738281e+01 2.567738533020019531e+01
9.314000000000000000e+03 7.046544647216796875e+01 3.382844543457031250e+01 1.483399295806884766e+01 6.233199310302734375e+01 2.314979553222656250e+01 2.146832656860351562e+01
9.315000000000000000e+03 7.048339080810546875e+01 3.382088470458984375e+01 1.335287761688232422e+01 6.936349487304687500e+01 2.481491088867187500e+01 1.545250129699707031e+01
9.316000000000000000e+03 7.050245666503906250e+01 3.381696319580078125e+01 1.343864822387695312e+01 7.337058258056640625e+01 2.604276847839355469e+01 8.345503807067871094e+00
9.317000000000000000e+03 7.052192687988281250e+01 3.381682968139648438e+01 1.559942054748535156e+01 7.423443603515625000e+01 2.695015716552734375e+01 1.336764812469482422e+00
9.318000000000000000e+03 7.054104614257812500e+01 3.382049179077148438e+01 1.944764518737792969e+01 7.222116851806640625e+01 2.750064468383789062e+01 -4.770541667938232422e+00
9.319000000000000000e+03 7.055908966064453125e+01 3.382780075073242188e+01 2.456105995178222656e+01 6.818022155761718750e+01 2.782238578796386719e+01 -9.083742141723632812e+00
9.320000000000000000e+03 7.057536315917968750e+01 3.383848571777343750e+01 3.013388824462890625e+01 6.287557220458984375e+01 2.790283775329589844e+01 -1.133341407775878906e+01
9.321000000000000000e+03 7.058924865722656250e+01 3.385213470458984375e+01 3.544085311889648438e+01 5.749672317504882812e+01 2.788127136230468750e+01 -1.141140842437744141e+01
9.322000000000000000e+03 7.060021209716796875e+01 3.386822509765625000e+01 3.991064834594726562e+01 5.267532348632812500e+01 2.777579116821289062e+01 -9.640124320983886719e+00
9.323000000000000000e+03 7.060782623291015625e+01 3.388614273071289062e+01 4.304932022094726562e+01 4.919086837768554688e+01 2.767205619812011719e+01 -6.528600215911865234e+00
9.324000000000000000e+03 7.061180877685546875e+01 3.390519714355468750e+01 4.472811126708984375e+01 4.730916976928710938e+01 2.761118507385253906e+01 -2.530847549438476562e+00
9.325000000000000000e+03 7.061200714111328125e+01 3.392466354370117188e+01 4.479028701782226562e+01 4.720727157592773438e+01 2.759926795959472656e+01 1.667264938354492188e+00
9.326000000000000000e+03 7.060841369628906250e+01 3.394379806518554688e+01 4.328835678100585938e+01 4.896457672119140625e+01 2.767588043212890625e+01 5.675469875335693359e+00
9.327000000000000000e+03 7.060115814208984375e+01 3.396186447143554688e+01 4.032716751098632812e+01 5.227455139160156250e+01 2.778051567077636719e+01 8.833881378173828125e+00
9.328000000000000000e+03 7.059053039550781250e+01 3.397817611694335938e+01 3.608349990844726562e+01 5.701894760131835938e+01 2.793073463439941406e+01 1.069622707366943359e+01
9.329000000000000000e+03 7.057692718505859375e+01 3.399210357666015625e+01 3.096925163269042969e+01 6.230642700195312500e+01 2.798270416259765625e+01 1.078100490570068359e+01
9.330000000000000000e+03 7.056087493896484375e+01 3.400311660766601562e+01 2.563648605346679688e+01 6.771131896972656250e+01 2.800434112548828125e+01 8.703896522521972656e+00
9.331000000000000000e+03 7.054298400878906250e+01 3.401079559326171875e+01 2.062084388732910156e+01 7.192262268066406250e+01 2.776304054260253906e+01 4.580500125885009766e+00
9.332000000000000000e+03 7.052394104003906250e+01 3.401484298706054688e+01 1.690219688415527344e+01 7.425869750976562500e+01 2.734826850891113281e+01 -1.397093296051025391e+00
9.333000000000000000e+03 7.050447845458984375e+01 3.401510620117187500e+01 1.477460956573486328e+01 7.374877929687500000e+01 2.655701637268066406e+01 -8.360744476318359375e+00
9.334000000000000000e+03 7.048532867431640625e+01 3.401157379150390625e+01 1.481241130828857422e+01 7.012957763671875000e+01 2.548259735107421875e+01 -1.553529644012451172e+01
9.335000000000000000e+03 7.046723937988281250e+01 3.400437927246093750e+01 1.649361801147460938e+01 6.341274261474609375e+01 2.397190856933593750e+01 -2.170433807373046875e+01
9.336000000000000000e+03 7.045089721679687500e+01 3.399380493164062500e+01 1.974903297424316406e+01 5.397257232666015625e+01 2.211648178100585938e+01 -2.615485191345214844e+01
9.337000000000000000e+03 7.043692016601562500e+01 3.398025131225585938e+01 2.335809326171875000e+01 4.299834442138671875e+01 1.990693283081054688e+01 -2.810077476501464844e+01
9.338000000000000000e+03 7.042584991455078125e+01 3.396423339843750000e+01 2.740295600891113281e+01 3.063995742797851562e+01 1.741287422180175781e+01 -2.710808753967285156e+01
9.339000000000000000e+03 7.041812133789062500e+01 3.394636917114257812e+01 3.000891494750976562e+01 1.881372642517089844e+01 1.464679241180419922e+01 -2.332496833801269531e+01
9.340000000000000000e+03 7.041400146484375000e+01 3.392733764648437500e+01 3.303678512573242188e+01 6.422155380249023438e+00 1.183768272399902344e+01 -1.230762004852294922e+01
