# el_label, x, y, sXX, sYY, sZZ, sXY
1.000000000000000000e+00 9.702937126159667969e+00 -2.983934059739112854e-02 2.046279907226562500e+00 -2.693398475646972656e+00 -1.941355764865875244e-01 -2.025508403778076172e+00
2.000000000000000000e+00 9.504896163940429688e+00 -4.973223432898521423e-02 3.893013954162597656e+00 1.200368404388427734e+00 1.528014659881591797e+00 1.259250640869140625e+00
3.000000000000000000e+00 9.306854248046875000e+00 -6.962513178586959839e-02 1.567875981330871582e+00 -4.763665795326232910e-01 3.274528086185455322e-01 2.653082907199859619e-01
4.000000000000000000e+00 9.108813285827636719e+00 -8.951802551746368408e-02 7.244371175765991211e-01 3.017176091670989990e-01 3.078464269638061523e-01 4.102548956871032715e-01
5.000000000000000000e+00 9.714455604553222656e+00 -8.718428760766983032e-02 1.656178665161132812e+01 -2.152907609939575195e+00 4.322663307189941406e+00 3.559153795242309570e+00
6.000000000000000000e+00 9.524093627929687500e+00 -1.453071534633636475e-01 7.485457420349121094e+00 7.541287541389465332e-01 2.471875905990600586e+00 2.415514230728149414e+00
7.000000000000000000e+00 9.333730697631835938e+00 -2.034300118684768677e-01 6.456502437591552734e+00 1.143998622894287109e+00 2.280150413513183594e+00 2.887086153030395508e+00
8.000000000000000000e+00 9.143367767333984375e+00 -2.615528702735900879e-01 4.592523097991943359e+00 3.013852536678314209e-01 1.468172550201416016e+00 1.967443943023681641e+00
9.000000000000000000e+00 9.736933708190917969e+00 -1.411830335855484009e-01 2.068755149841308594e+01 3.419493436813354492e+00 7.232113838195800781e+00 1.119127750396728516e+01
1.000000000000000000e+01 9.561555862426757812e+00 -2.353050708770751953e-01 1.288453006744384766e+01 2.362657546997070312e+00 4.574156284332275391e+00 6.600088596343994141e+00
1.100000000000000000e+01 9.386178970336914062e+00 -3.294270932674407959e-01 8.939702033996582031e+00 2.668565273284912109e+00 3.482480049133300781e+00 5.266744613647460938e+00
1.200000000000000000e+01 9.210802078247070312e+00 -4.235491156578063965e-01 7.588959217071533203e+00 2.411386728286743164e+00 3.000103950500488281e+00 4.859897136688232422e+00
1.300000000000000000e+01 9.769508361816406250e+00 -1.897630989551544189e-01 2.128631019592285156e+01 1.102399444580078125e+01 9.693091392517089844e+00 1.673375129699707031e+01
1.400000000000000000e+01 9.615847587585449219e+00 -3.162718117237091064e-01 1.398792171478271484e+01 7.058912754058837891e+00 6.314050197601318359e+00 1.091716384887695312e+01
1.500000000000000000e+01 9.462185859680175781e+00 -4.427805542945861816e-01 1.092010784149169922e+01 5.807165622711181641e+00 5.018181800842285156e+00 8.666482925415039062e+00
1.600000000000000000e+01 9.308525085449218750e+00 -5.692892670631408691e-01 8.734984397888183594e+00 5.136028766632080078e+00 4.161303997039794922e+00 7.315350532531738281e+00
1.700000000000000000e+01 9.810929298400878906e+00 -2.310599088668823242e-01 1.857513427734375000e+01 2.013809394836425781e+01 1.161396789550781250e+01 1.981527328491210938e+01
1.800000000000000000e+01 9.684882164001464844e+00 -3.850998580455780029e-01 1.346457099914550781e+01 1.322083091735839844e+01 8.005620002746582031e+00 1.397867870330810547e+01
1.900000000000000000e+01 9.558835029602050781e+00 -5.391398072242736816e-01 1.046212196350097656e+01 1.062385940551757812e+01 6.325794696807861328e+00 1.116356277465820312e+01
2.000000000000000000e+01 9.432787895202636719e+00 -6.931797266006469727e-01 8.712372779846191406e+00 9.192458152770996094e+00 5.371449470520019531e+00 9.667175292968750000e+00
2.100000000000000000e+01 9.859606742858886719e+00 -2.634885013103485107e-01 1.515201091766357422e+01 2.915593147277832031e+01 1.329238224029541016e+01 2.010187911987304688e+01
2.200000000000000000e+01 9.766011238098144531e+00 -4.391474723815917969e-01 1.131284523010253906e+01 2.007730102539062500e+01 9.417043685913085938e+00 1.503036880493164062e+01
2.300000000000000000e+01 9.672415733337402344e+00 -6.148064732551574707e-01 9.069612503051757812e+00 1.628278923034667969e+01 7.605720520019531250e+00 1.249703693389892578e+01
2.400000000000000000e+01 9.578820228576660156e+00 -7.904654741287231445e-01 7.420600414276123047e+00 1.406412124633789062e+01 6.445416450500488281e+00 1.073437118530273438e+01
2.500000000000000000e+01 9.913672447204589844e+00 -2.858042120933532715e-01 1.180131721496582031e+01 3.705901718139648438e+01 1.465810012817382812e+01 1.776234245300292969e+01
2.600000000000000000e+01 9.856121063232421875e+00 -4.763403236865997314e-01 9.098417282104492188e+00 2.659758758544921875e+01 1.070880126953125000e+01 1.424484252929687500e+01
2.700000000000000000e+01 9.798569679260253906e+00 -6.668764352798461914e-01 7.101283073425292969e+00 2.184955215454101562e+01 8.685250282287597656e+00 1.208454608917236328e+01
2.800000000000000000e+01 9.741018295288085938e+00 -8.574125766754150391e-01 5.839424133300781250e+00 1.919063758850097656e+01 7.509018421173095703e+00 1.068517112731933594e+01
2.900000000000000000e+01 9.971052169799804688e+00 -2.971505522727966309e-01 9.895756721496582031e+00 4.290972137451171875e+01 1.584164333343505859e+01 1.368678092956542969e+01
3.000000000000000000e+01 9.951753616333007812e+00 -4.952509105205535889e-01 7.315830230712890625e+00 3.198339080810546875e+01 1.178976631164550781e+01 1.177770996093750000e+01
3.100000000000000000e+01 9.932455062866210938e+00 -6.933512687683105469e-01 5.566537857055664062e+00 2.674797058105468750e+01 9.694352149963378906e+00 1.031042766571044922e+01
3.200000000000000000e+01 9.913155555725097656e+00 -8.914516568183898926e-01 4.449208259582519531e+00 2.341486167907714844e+01 8.359221458435058594e+00 9.191136360168457031e+00
3.300000000000000000e+01 1.002954196929931641e+01 -2.970920503139495850e-01 9.831430435180664062e+00 4.633613586425781250e+01 1.685026931762695312e+01 8.718152046203613281e+00
3.400000000000000000e+01 1.004923725128173828e+01 -4.951534271240234375e-01 6.624625682830810547e+00 3.571660232543945312e+01 1.270236778259277344e+01 8.366570472717285156e+00
3.500000000000000000e+01 1.006893157958984375e+01 -6.932148337364196777e-01 4.957961559295654297e+00 3.027942657470703125e+01 1.057121658325195312e+01 7.494820594787597656e+00
3.600000000000000000e+01 1.008862686157226562e+01 -8.912761807441711426e-01 3.657485961914062500e+00 2.682766723632812500e+01 9.145545959472656250e+00 6.726950168609619141e+00
3.700000000000000000e+01 1.008689880371093750e+01 -2.856309711933135986e-01 1.128852939605712891e+01 4.728884506225585938e+01 1.757321166992187500e+01 4.037788867950439453e+00
3.800000000000000000e+01 1.014483070373535156e+01 -4.760516285896301270e-01 7.553979396820068359e+00 3.767927551269531250e+01 1.356997585296630859e+01 4.610710620880126953e+00
3.900000000000000000e+01 1.020276355743408203e+01 -6.664722561836242676e-01 5.256486415863037109e+00 3.222917556762695312e+01 1.124569892883300781e+01 4.279505252838134766e+00
4.000000000000000000e+01 1.026069545745849609e+01 -8.568928837776184082e-01 4.122051715850830078e+00 2.884367179870605469e+01 9.889717102050781250e+00 3.997923851013183594e+00
4.100000000000000000e+01 1.014091968536376953e+01 -2.632071673870086670e-01 1.468323612213134766e+01 4.653816604614257812e+01 1.836642074584960938e+01 3.602669537067413330e-01
4.200000000000000000e+01 1.023486614227294922e+01 -4.386786222457885742e-01 9.235159873962402344e+00 3.771169281005859375e+01 1.408405494689941406e+01 1.229372262954711914e+00
4.300000000000000000e+01 1.032881259918212891e+01 -6.141500473022460938e-01 7.149107933044433594e+00 3.283776092529296875e+01 1.199606132507324219e+01 1.416097044944763184e+00
4.400000000000000000e+01 1.042275905609130859e+01 -7.896215319633483887e-01 5.257069110870361328e+00 2.934868049621582031e+01 1.038172531127929688e+01 1.237298130989074707e+00
4.500000000000000000e+01 1.018953227996826172e+01 -2.306813150644302368e-01 1.788681602478027344e+01 4.421913528442382812e+01 1.863178634643554688e+01 -1.991309046745300293e+00
4.600000000000000000e+01 1.031588745117187500e+01 -3.844688534736633301e-01 1.263505840301513672e+01 3.677022933959960938e+01 1.482158565521240234e+01 -1.026487708091735840e+00
4.700000000000000000e+01 1.044224262237548828e+01 -5.382564067840576172e-01 9.224794387817382812e+00 3.184715461730957031e+01 1.232158470153808594e+01 -8.483815789222717285e-01
4.800000000000000000e+01 1.056859779357910156e+01 -6.920439004898071289e-01 7.713824272155761719e+00 2.908190536499023438e+01 1.103871917724609375e+01 -5.946313142776489258e-01
4.900000000000000000e+01 1.023087024688720703e+01 -1.893017292022705078e-01 2.228214073181152344e+01 4.209981155395507812e+01 1.931458663940429688e+01 -2.454715013504028320e+00
5.000000000000000000e+01 1.038478469848632812e+01 -3.155028820037841797e-01 1.530771255493164062e+01 3.439950561523437500e+01 1.491216564178466797e+01 -2.312158584594726562e+00
5.100000000000000000e+01 1.053869819641113281e+01 -4.417040348052978516e-01 1.262991428375244141e+01 3.069488716125488281e+01 1.299744033813476562e+01 -1.637530446052551270e+00
5.200000000000000000e+01 1.069261169433593750e+01 -5.679051876068115234e-01 9.845546722412109375e+00 2.758958244323730469e+01 1.123053836822509766e+01 -1.757036328315734863e+00
5.300000000000000000e+01 1.026334762573242188e+01 -1.406566202640533447e-01 2.471927452087402344e+01 3.898058700561523438e+01 1.910995864868164062e+01 -2.097456216812133789e+00
5.400000000000000000e+01 1.043891334533691406e+01 -2.344277054071426392e-01 1.896203422546386719e+01 3.298563003540039062e+01 1.558430004119873047e+01 -1.641782164573669434e+00
5.500000000000000000e+01 1.061447906494140625e+01 -3.281987905502319336e-01 1.474658298492431641e+01 2.833470535278320312e+01 1.292438697814941406e+01 -1.825396537780761719e+00
5.600000000000000000e+01 1.079004383087158203e+01 -4.219698905944824219e-01 1.286833190917968750e+01 2.668853950500488281e+01 1.186706161499023438e+01 -1.193770885467529297e+00
5.700000000000000000e+01 1.028571796417236328e+01 -8.661302924156188965e-02 2.753821563720703125e+01 3.823881912231445312e+01 1.973311042785644531e+01 2.417756710201501846e-03
5.800000000000000000e+01 1.047619628906250000e+01 -1.443550437688827515e-01 2.055110931396484375e+01 3.027191352844238281e+01 1.524690723419189453e+01 -5.397120118141174316e-01
5.900000000000000000e+01 1.066667461395263672e+01 -2.020970582962036133e-01 1.719151306152343750e+01 2.795208740234375000e+01 1.354308032989501953e+01 -1.562995612621307373e-01
6.000000000000000000e+01 1.085715293884277344e+01 -2.598390877246856689e-01 1.432656383514404297e+01 2.450519752502441406e+01 1.164952850341796875e+01 -6.003442406654357910e-01
6.100000000000000000e+01 1.029712104797363281e+01 -2.924515865743160248e-02 2.782343864440917969e+01 3.597816085815429688e+01 1.914048004150390625e+01 2.175261974334716797e+00
6.200000000000000000e+01 1.049520206451416016e+01 -4.874193295836448669e-02 2.189802551269531250e+01 3.077605247497558594e+01 1.580222320556640625e+01 1.936438322067260742e+00
6.300000000000000000e+01 1.069328308105468750e+01 -6.823870539665222168e-02 1.771085739135742188e+01 2.598631286621093750e+01 1.310915088653564453e+01 1.472882509231567383e+00
6.400000000000000000e+01 1.089136409759521484e+01 -8.773547410964965820e-02 1.537057209014892578e+01 2.527164268493652344e+01 1.219266414642333984e+01 1.420563101768493652e+00
6.500000000000000000e+01 1.029712104797363281e+01 2.924515865743160248e-02 2.775811195373535156e+01 3.746324157714843750e+01 1.956640625000000000e+01 4.804430484771728516e+00
6.600000000000000000e+01 1.049520206451416016e+01 4.874193295836448669e-02 2.093046569824218750e+01 2.964910888671875000e+01 1.517387294769287109e+01 4.307739257812500000e+00
6.700000000000000000e+01 1.069328308105468750e+01 6.823870539665222168e-02 1.747628211975097656e+01 2.762851905822753906e+01 1.353144073486328125e+01 3.601290941238403320e+00
6.800000000000000000e+01 1.089136409759521484e+01 8.773547410964965820e-02 1.483060550689697266e+01 2.415648269653320312e+01 1.169612693786621094e+01 3.219981908798217773e+00
6.900000000000000000e+01 1.028571796417236328e+01 8.661302924156188965e-02 2.518993949890136719e+01 3.746406173706054688e+01 1.879619979858398438e+01 7.349644660949707031e+00
7.000000000000000000e+01 1.047619628906250000e+01 1.443550437688827515e-01 1.927716064453125000e+01 3.208609008789062500e+01 1.540897464752197266e+01 6.080699443817138672e+00
7.100000000000000000e+01 1.066667461395263672e+01 2.020970582962036133e-01 1.551262092590332031e+01 2.755801391601562500e+01 1.292119026184082031e+01 5.487341880798339844e+00
7.200000000000000000e+01 1.085715293884277344e+01 2.598390877246856689e-01 1.346426010131835938e+01 2.639535713195800781e+01 1.195788478851318359e+01 4.590874671936035156e+00
7.300000000000000000e+01 1.026334762573242188e+01 1.406566202640533447e-01 2.225151252746582031e+01 4.039028930664062500e+01 1.879254150390625000e+01 8.653347015380859375e+00
7.400000000000000000e+01 1.043891334533691406e+01 2.344277054071426392e-01 1.567923927307128906e+01 3.326041030883789062e+01 1.468189430236816406e+01 7.360360145568847656e+00
7.500000000000000000e+01 1.061447906494140625e+01 3.281987905502319336e-01 1.309944725036621094e+01 3.002509307861328125e+01 1.293736171722412109e+01 5.987094402313232422e+00
7.600000000000000000e+01 1.079004383087158203e+01 4.219698905944824219e-01 1.105154037475585938e+01 2.701288223266601562e+01 1.141932678222656250e+01 5.652188301086425781e+00
7.700000000000000000e+01 1.023087024688720703e+01 1.893017292022705078e-01 1.726659011840820312e+01 4.263807296752929688e+01 1.797139930725097656e+01 9.145161628723144531e+00
7.800000000000000000e+01 1.038478469848632812e+01 3.155028820037841797e-01 1.226145553588867188e+01 3.588684844970703125e+01 1.444449138641357422e+01 6.810992717742919922e+00
7.900000000000000000e+01 1.053869819641113281e+01 4.417040348052978516e-01 9.553554534912109375e+00 3.137014961242675781e+01 1.227711105346679688e+01 5.864632129669189453e+00
8.000000000000000000e+01 1.069261169433593750e+01 5.679051876068115234e-01 8.457193374633789062e+00 2.886224937438964844e+01 1.119583225250244141e+01 4.902950763702392578e+00
8.100000000000000000e+01 1.018953227996826172e+01 2.306813150644302368e-01 1.265027236938476562e+01 4.556627655029296875e+01 1.746496391296386719e+01 7.616578578948974609e+00
8.200000000000000000e+01 1.031588745117187500e+01 3.844688534736633301e-01 8.065922737121582031e+00 3.740736389160156250e+01 1.364198684692382812e+01 5.177714824676513672e+00
8.300000000000000000e+01 1.044224262237548828e+01 5.382564067840576172e-01 6.632686138153076172e+00 3.285078811645507812e+01 1.184504222869873047e+01 4.092367649078369141e+00
8.400000000000000000e+01 1.056859779357910156e+01 6.920439004898071289e-01 5.496027469635009766e+00 2.979872894287109375e+01 1.058842754364013672e+01 3.623146057128906250e+00
8.500000000000000000e+01 1.014091968536376953e+01 2.632071673870086670e-01 7.655753135681152344e+00 4.734220886230468750e+01 1.649938964843750000e+01 4.481599807739257812e+00
8.600000000000000000e+01 1.023486614227294922e+01 4.386786222457885742e-01 5.056934356689453125e+00 3.819783401489257812e+01 1.297642993927001953e+01 2.113034009933471680e+00
8.700000000000000000e+01 1.032881259918212891e+01 6.141500473022460938e-01 3.782137870788574219e+00 3.304232025146484375e+01 1.104733753204345703e+01 1.496365427970886230e+00
8.800000000000000000e+01 1.042275905609130859e+01 7.896215319633483887e-01 3.461556434631347656e+00 2.985900306701660156e+01 9.996168136596679688e+00 1.134026408195495605e+00
8.900000000000000000e+01 1.008689880371093750e+01 2.856309711933135986e-01 4.255501747131347656e+00 4.768067550659179688e+01 1.558085346221923828e+01 -1.997029334306716919e-01
9.000000000000000000e+01 1.014483070373535156e+01 4.760516285896301270e-01 2.678129911422729492e+00 3.722168350219726562e+01 1.196994400024414062e+01 -1.686156988143920898e+00
9.100000000000000000e+01 1.020276355743408203e+01 6.664722561836242676e-01 2.292530536651611328e+00 3.194211578369140625e+01 1.027039337158203125e+01 -1.812568902969360352e+00
9.200000000000000000e+01 1.026069545745849609e+01 8.568928837776184082e-01 1.976302027702331543e+00 2.859354782104492188e+01 9.170954704284667969e+00 -1.707224249839782715e+00
9.300000000000000000e+01 1.002954196929931641e+01 2.970920503139495850e-01 2.165452003479003906e+00 4.550531005859375000e+01 1.430122852325439453e+01 -5.605207920074462891e+00
9.400000000000000000e+01 1.004923725128173828e+01 4.951534271240234375e-01 2.036249160766601562e+00 3.460165786743164062e+01 1.099137210845947266e+01 -5.661148548126220703e+00
9.500000000000000000e+01 1.006893157958984375e+01 6.932148337364196777e-01 1.560863614082336426e+00 2.915153503417968750e+01 9.213719367980957031e+00 -5.138828277587890625e+00
9.600000000000000000e+01 1.008862686157226562e+01 8.912761807441711426e-01 1.846203565597534180e+00 2.578570938110351562e+01 8.289573669433593750e+00 -4.638969421386718750e+00
9.700000000000000000e+01 9.971052169799804688e+00 2.971505522727966309e-01 2.592723608016967773e+00 4.098524475097656250e+01 1.307339000701904297e+01 -1.078710556030273438e+01
9.800000000000000000e+01 9.951753616333007812e+00 4.952509105205535889e-01 2.160051584243774414e+00 2.998105812072753906e+01 9.642333030700683594e+00 -9.050899505615234375e+00
9.900000000000000000e+01 9.932455062866210938e+00 6.933512687683105469e-01 2.329590797424316406e+00 2.502832794189453125e+01 8.207375526428222656e+00 -7.864144325256347656e+00
1.000000000000000000e+02 9.913155555725097656e+00 8.914516568183898926e-01 2.074068307876586914e+00 2.180727577209472656e+01 7.164403438568115234e+00 -7.071814537048339844e+00
1.010000000000000000e+02 9.913672447204589844e+00 2.858042120933532715e-01 3.984615325927734375e+00 3.385211563110351562e+01 1.135101890563964844e+01 -1.463095188140869141e+01
1.020000000000000000e+02 9.856121063232421875e+00 4.763403236865997314e-01 3.871682405471801758e+00 2.419419860839843750e+01 8.419764518737792969e+00 -1.119696331024169922e+01
1.030000000000000000e+02 9.798569679260253906e+00 6.668764352798461914e-01 3.105406045913696289e+00 1.957062339782714844e+01 6.802808761596679688e+00 -9.492079734802246094e+00
1.040000000000000000e+02 9.741018295288085938e+00 8.574125766754150391e-01 3.374377250671386719e+00 1.719050216674804688e+01 6.169463634490966797e+00 -8.213441848754882812e+00
1.050000000000000000e+02 9.859606742858886719e+00 2.634885013103485107e-01 7.048735141754150391e+00 2.553269767761230469e+01 9.774429321289062500e+00 -1.615128135681152344e+01
1.060000000000000000e+02 9.766011238098144531e+00 4.391474723815917969e-01 5.016985416412353516e+00 1.727330589294433594e+01 6.687087535858154297e+00 -1.178454399108886719e+01
1.070000000000000000e+02 9.672415733337402344e+00 6.148064732551574707e-01 4.716519832611083984e+00 1.397447490692138672e+01 5.607298374176025391e+00 -9.484500885009765625e+00
1.080000000000000000e+02 9.578820228576660156e+00 7.904654741287231445e-01 3.968844413757324219e+00 1.172292327880859375e+01 4.707530021667480469e+00 -8.172142982482910156e+00
1.090000000000000000e+02 9.810929298400878906e+00 2.310599088668823242e-01 8.935378074645996094e+00 1.635829734802246094e+01 7.588102340698242188e+00 -1.520679473876953125e+01
1.100000000000000000e+02 9.684882164001464844e+00 3.850998580455780029e-01 6.317975997924804688e+00 1.076119804382324219e+01 5.123752117156982422e+00 -1.036445522308349609e+01
1.110000000000000000e+02 9.558835029602050781e+00 5.391398072242736816e-01 4.937083721160888672e+00 8.243203163146972656e+00 3.954086065292358398e+00 -8.096588134765625000e+00
1.120000000000000000e+02 9.432787895202636719e+00 6.931797266006469727e-01 4.531106948852539062e+00 7.267082214355468750e+00 3.539456844329833984e+00 -6.807757854461669922e+00
1.130000000000000000e+02 9.769508361816406250e+00 1.897630989551544189e-01 9.839999198913574219e+00 8.283641815185546875e+00 5.437092304229736328e+00 -1.162141227722167969e+01
1.140000000000000000e+02 9.615847587585449219e+00 3.162718117237091064e-01 5.343579292297363281e+00 4.771262168884277344e+00 3.034452438354492188e+00 -7.390180110931396484e+00
1.150000000000000000e+02 9.462185859680175781e+00 4.427805542945861816e-01 4.304031848907470703e+00 4.058624267578125000e+00 2.508796930313110352e+00 -5.511352062225341797e+00
1.160000000000000000e+02 9.308525085449218750e+00 5.692892670631408691e-01 3.317671537399291992e+00 3.583570957183837891e+00 2.070372819900512695e+00 -4.563302993774414062e+00
1.170000000000000000e+02 9.736933708190917969e+00 1.411830335855484009e-01 6.796029090881347656e+00 1.649439215660095215e+00 2.533640384674072266e+00 -6.426429748535156250e+00
1.180000000000000000e+02 9.561555862426757812e+00 2.353050708770751953e-01 2.790760517120361328e+00 8.667498230934143066e-01 1.097253084182739258e+00 -3.355575323104858398e+00
1.190000000000000000e+02 9.386178970336914062e+00 3.294270932674407959e-01 8.856903314590454102e-01 1.361195325851440430e+00 6.740657091140747070e-01 -2.496151447296142578e+00
1.200000000000000000e+02 9.210802078247070312e+00 4.235491156578063965e-01 9.841285347938537598e-01 1.646105647087097168e+00 7.890702486038208008e-01 -2.310906887054443359e+00
1.210000000000000000e+02 9.714455604553222656e+00 8.718428760766983032e-02 3.279809951782226562e-01 -2.607676506042480469e+00 -6.839086413383483887e-01 3.586374595761299133e-02
1.220000000000000000e+02 9.524093627929687500e+00 1.453071534633636475e-01 -4.210643768310546875e+00 -2.861700356006622314e-01 -1.349044203758239746e+00 1.020670533180236816e-01
1.230000000000000000e+02 9.333730697631835938e+00 2.034300118684768677e-01 -2.960962772369384766e+00 7.336507439613342285e-01 -6.681935787200927734e-01 -8.411820530891418457e-01
1.240000000000000000e+02 9.143367767333984375e+00 2.615528702735900879e-01 -3.153279542922973633e+00 -1.123583987355232239e-01 -9.796913862228393555e-01 -1.978044360876083374e-01
1.250000000000000000e+02 9.702937126159667969e+00 2.983934059739112854e-02 -1.655619812011718750e+01 -2.711718320846557617e+00 -5.780375003814697266e+00 3.712018251419067383e+00
1.260000000000000000e+02 9.504896163940429688e+00 4.973223432898521423e-02 -9.173393249511718750e+00 9.614251852035522461e-01 -2.463590383529663086e+00 -5.598771944642066956e-02
1.270000000000000000e+02 9.306854248046875000e+00 6.962513178586959839e-02 -8.768241882324218750e+00 -5.086724162101745605e-01 -2.783074378967285156e+00 5.520659089088439941e-01
1.280000000000000000e+02 9.108813285827636719e+00 8.951802551746368408e-02 -7.965880393981933594e+00 2.556146681308746338e-01 -2.313079833984375000e+00 3.344360888004302979e-01
1.290000000000000000e+02 1.158342361450195312e-01 -9.552106857299804688e-01 -8.603369817137718201e-03 -8.172395825386047363e-02 -2.709819935262203217e-02 -2.585042268037796021e-02
1.300000000000000000e+02 9.452310949563980103e-02 -5.196542143821716309e-01 -8.865815587341785431e-03 -1.362530514597892761e-02 -6.747336126863956451e-03 -1.313846837729215622e-02
1.310000000000000000e+02 8.047272264957427979e-02 -3.348883092403411865e-01 -3.809411427937448025e-04 5.424072500318288803e-03 1.512939343228936195e-03 2.266463590785861015e-03
1.320000000000000000e+02 6.704595088958740234e-01 -1.189597725868225098e+00 -3.305925428867340088e-02 -1.288050413131713867e-01 -4.855928942561149597e-02 -1.659496724605560303e-01
1.330000000000000000e+02 4.989198446273803711e-01 -1.392871141433715820e+00 -2.565748989582061768e-02 -1.629474461078643799e-01 -5.658147856593132019e-02 -1.515046805143356323e-01
1.340000000000000000e+02 6.919136643409729004e-01 -1.388064265251159668e+00 -3.449887409806251526e-02 -2.072287797927856445e-01 -7.251829653978347778e-02 -1.760087609291076660e-01
1.350000000000000000e+02 2.494502544403076172e+00 -1.354987144470214844e+00 -1.440669745206832886e-01 -1.115968823432922363e-02 -4.656799882650375366e-02 -3.254505991935729980e-01
1.360000000000000000e+02 2.919969081878662109e+00 -1.376239299774169922e+00 -1.258019804954528809e-01 1.521642040461301804e-02 -3.317566961050033569e-02 -3.247798681259155273e-01
1.370000000000000000e+02 2.470916032791137695e+00 -1.059127449989318848e+00 -2.599655091762542725e-01 -1.024013664573431015e-02 -8.106169104576110840e-02 -3.040537834167480469e-01
1.380000000000000000e+02 2.876306295394897461e+00 -9.978117346763610840e-01 -3.532144725322723389e-01 5.960276816040277481e-03 -1.041762530803680420e-01 -2.987234592437744141e-01
1.390000000000000000e+02 2.802544832229614258e+00 -6.208453774452209473e-01 -5.245134234428405762e-01 -7.543762214481830597e-03 -1.596171557903289795e-01 -2.295521199703216553e-01
1.400000000000000000e+02 3.299050569534301758e+00 -1.486306041479110718e-01 -1.019739747047424316e+00 1.130646793171763420e-03 -3.055827021598815918e-01 -6.158086284995079041e-02
1.410000000000000000e+02 3.092912435531616211e+00 -1.450943201780319214e-01 -9.346982240676879883e-01 -7.507477421313524246e-04 -2.806347012519836426e-01 -6.225103512406349182e-02
1.420000000000000000e+02 3.699659109115600586e+00 -1.269613206386566162e-01 -1.192176461219787598e+00 -8.111179340630769730e-04 -3.578962981700897217e-01 -5.905376002192497253e-02
1.430000000000000000e+02 3.894185304641723633e+00 -1.247326359152793884e-01 -1.286297917366027832e+00 5.440457724034786224e-03 -3.842572271823883057e-01 -5.407599732279777527e-02
1.440000000000000000e+02 5.521253585815429688e+00 -1.368425250053405762e+00 3.598088324069976807e-01 2.597733139991760254e-01 1.858746409416198730e-01 2.190533280372619629e-01
1.450000000000000000e+02 5.718832492828369141e+00 -1.378246426582336426e+00 5.351372957229614258e-01 2.623049914836883545e-01 2.392326891422271729e-01 3.096189200878143311e-01
1.460000000000000000e+02 5.892667293548583984e+00 -1.387828886508941650e-01 -1.932305216789245605e+00 8.673103526234626770e-03 -5.770896077156066895e-01 -3.702139109373092651e-02
1.470000000000000000e+02 5.484801769256591797e+00 -1.456770151853561401e-01 -1.843185544013977051e+00 5.654808599501848221e-03 -5.512592196464538574e-01 -4.187241569161415100e-02
1.480000000000000000e+02 6.314941406250000000e+00 -1.399257540702819824e+00 1.042042374610900879e+00 4.591391682624816895e-01 4.503544569015502930e-01 6.923729181289672852e-01
1.490000000000000000e+02 6.297612190246582031e+00 -1.303483098745346069e-01 -2.002992391586303711e+00 7.959589362144470215e-03 -5.985098481178283691e-01 -3.084758482873439789e-02
1.500000000000000000e+02 6.114730358123779297e+00 -1.392511487007141113e+00 8.573681116104125977e-01 3.405548930168151855e-01 3.593769073486328125e-01 5.188979506492614746e-01
1.510000000000000000e+02 6.672454357147216797e+00 -1.408431291580200195e+00 1.366733193397521973e+00 6.073487997055053711e-01 5.922245979309082031e-01 9.687868952751159668e-01
1.520000000000000000e+02 7.689256191253662109e+00 -1.350958108901977539e+00 2.853910923004150391e+00 1.434783339500427246e+00 1.286608219146728516e+00 2.290188789367675781e+00
1.530000000000000000e+02 8.410909652709960938e+00 -3.483122587203979492e-01 1.087770104408264160e+00 1.699796915054321289e-01 3.773249387741088867e-01 9.289335608482360840e-01
1.540000000000000000e+02 8.302818298339843750e+00 -1.324055194854736328e+00 4.121629714965820312e+00 2.833503961563110352e+00 2.086539983749389648e+00 3.899658203125000000e+00
1.550000000000000000e+02 9.688844680786132812e+00 -1.044457077980041504e+00 4.932026386260986328e+00 1.734914016723632812e+01 6.684350013732910156e+00 9.543896675109863281e+00
1.560000000000000000e+02 1.025903892517089844e+01 -1.133519649505615234e+00 2.724093914031982422e+00 2.528256225585937500e+01 8.401996612548828125e+00 4.451454162597656250e+00
1.570000000000000000e+02 1.073481464385986328e+01 -1.144141316413879395e+00 3.616081953048706055e+00 2.482692337036132812e+01 8.532901763916015625e+00 1.755014657974243164e-01
1.580000000000000000e+02 1.108393096923828125e+01 -2.791437804698944092e-01 1.253364181518554688e+01 2.402161407470703125e+01 1.096657657623291016e+01 -2.974353544414043427e-02
1.590000000000000000e+02 1.110609245300292969e+01 -8.639926463365554810e-02 1.344583225250244141e+01 2.244311714172363281e+01 1.076668453216552734e+01 1.288919925689697266e+00
1.600000000000000000e+02 1.125073242187500000e+01 3.355023860931396484e-01 1.116415214538574219e+01 2.260527229309082031e+01 1.013082695007324219e+01 3.209878444671630859e+00
1.610000000000000000e+02 1.096120643615722656e+01 5.763402581214904785e-01 9.282114028930664062e+00 2.590246772766113281e+01 1.055537509918212891e+01 4.492072582244873047e+00
1.620000000000000000e+02 1.065928459167480469e+01 8.806247115135192871e-01 4.600346088409423828e+00 2.758572196960449219e+01 9.655820846557617188e+00 2.578421115875244141e+00
1.630000000000000000e+02 9.162257194519042969e+00 1.101857781410217285e+00 4.037486076354980469e+00 6.271347522735595703e+00 3.092650175094604492e+00 -5.231490612030029297e+00
1.640000000000000000e+02 8.909451484680175781e+00 1.364026308059692383e+00 4.054000377655029297e+00 5.311017036437988281e+00 2.809505224227905273e+00 -4.429736614227294922e+00
1.650000000000000000e+02 8.948912620544433594e+00 3.158051371574401855e-01 -2.970817804336547852e+00 2.788054347038269043e-01 -8.076037168502807617e-01 -2.539730668067932129e-01
1.660000000000000000e+02 8.910804748535156250e+00 1.078275069594383240e-01 -7.462049484252929688e+00 -1.996913105249404907e-01 -2.298522233963012695e+00 3.483320474624633789e-01
1.670000000000000000e+02 8.536369323730468750e+00 3.947198987007141113e-01 -3.117998600006103516e+00 2.322089821100234985e-01 -8.657368421554565430e-01 4.621301591396331787e-02
1.680000000000000000e+02 9.712758064270019531e+00 1.387733101844787598e+00 2.988590002059936523e+00 1.543857002258300781e+01 5.528148174285888672e+00 -6.053698062896728516e+00
1.690000000000000000e+02 9.905720710754394531e+00 1.375819563865661621e+00 2.337129831314086914e+00 1.823809051513671875e+01 6.172565937042236328e+00 -5.437640190124511719e+00
1.700000000000000000e+02 8.702444076538085938e+00 1.370556354522705078e+00 3.644204616546630859e+00 3.808980464935302734e+00 2.235955476760864258e+00 -3.694828748703002930e+00
1.710000000000000000e+02 8.508754730224609375e+00 1.347165107727050781e-01 -6.693618297576904297e+00 -9.155310690402984619e-02 -2.035551309585571289e+00 2.877421975135803223e-01
1.720000000000000000e+02 8.101596832275390625e+00 1.356433868408203125e+00 2.351186275482177734e+00 1.464809060096740723e+00 1.144798636436462402e+00 -1.616484045982360840e+00
1.730000000000000000e+02 8.103774070739746094e+00 1.460121721029281616e-01 -6.107905387878417969e+00 -1.147055551409721375e-01 -1.866783261299133301e+00 2.216680496931076050e-01
1.740000000000000000e+02 5.695895671844482422e+00 1.386821031570434570e+00 -3.842675387859344482e-01 6.425213813781738281e-02 -9.600462764501571655e-02 4.584521055221557617e-01
1.750000000000000000e+02 5.114307403564453125e+00 1.096266388893127441e+00 -1.034055113792419434e+00 4.310469375923275948e-04 -3.100872337818145752e-01 5.814155936241149902e-01
1.760000000000000000e+02 5.508736133575439453e+00 1.152617573738098145e+00 -9.155266284942626953e-01 2.668011374771595001e-02 -2.666539549827575684e-01 5.374657511711120605e-01
1.770000000000000000e+02 3.705371618270874023e+00 1.385451078414916992e+00 -5.216826200485229492e-01 -1.181689277291297913e-02 -1.600498557090759277e-01 6.535347104072570801e-01
1.780000000000000000e+02 3.707933187484741211e+00 1.598374396562576294e-01 -1.799020051956176758e+00 3.275232156738638878e-03 -5.387234687805175781e-01 1.285647600889205933e-01
1.790000000000000000e+02 4.129785537719726562e+00 8.771088123321533203e-01 -1.190324544906616211e+00 2.481468953192234039e-03 -3.563529253005981445e-01 5.441877245903015137e-01
1.800000000000000000e+02 3.529339075088500977e+00 6.908538937568664551e-01 -1.168963193893432617e+00 -1.909583620727062225e-02 -3.564177155494689941e-01 4.300200343132019043e-01
1.810000000000000000e+02 3.317279100418090820e+00 1.370108008384704590e+00 -5.003305077552795410e-01 -2.460892684757709503e-02 -1.574818342924118042e-01 6.556859016418457031e-01
1.820000000000000000e+02 3.117893695831298828e+00 1.336868524551391602e+00 -4.986795485019683838e-01 -5.861455947160720825e-02 -1.671882420778274536e-01 6.191193461418151855e-01
1.830000000000000000e+02 3.043033838272094727e+00 8.875674605369567871e-01 -7.948909401893615723e-01 -3.844805434346199036e-02 -2.500016987323760986e-01 5.160042643547058105e-01
1.840000000000000000e+02 2.487853288650512695e+00 1.092489838600158691e+00 -5.068313479423522949e-01 -7.376464456319808960e-02 -1.741787940263748169e-01 5.338116884231567383e-01
1.850000000000000000e+02 2.895749568939208984e+00 1.686940938234329224e-01 -1.176793336868286133e+00 7.687930017709732056e-03 -3.507316112518310547e-01 1.113165766000747681e-01
1.860000000000000000e+02 2.300387144088745117e+00 1.371603012084960938e+00 -3.358245491981506348e-01 -1.143154203891754150e-01 -1.350419968366622925e-01 5.763457417488098145e-01
1.870000000000000000e+02 9.027634263038635254e-01 1.380576014518737793e+00 -9.495266526937484741e-02 -2.450478821992874146e-01 -1.020001620054244995e-01 3.365961611270904541e-01
1.880000000000000000e+02 7.064817547798156738e-01 1.379356741905212402e+00 -5.915899947285652161e-02 -3.182439506053924561e-01 -1.132208853960037231e-01 2.610460817813873291e-01
1.890000000000000000e+02 5.074881911277770996e-01 1.412107199430465698e-01 -9.555700235068798065e-03 -8.081186562776565552e-03 -5.291066132485866547e-03 1.381085719913244247e-02
1.900000000000000000e+02 1.111962795257568359e+00 1.164401471614837646e-01 -1.104067638516426086e-01 -3.437311574816703796e-02 -4.343396425247192383e-02 2.781742066144943237e-02
1.910000000000000000e+02 3.042126297950744629e-01 1.387158036231994629e+00 -3.909513354301452637e-02 -3.165784776210784912e-01 -1.067020818591117859e-01 1.338142752647399902e-01
1.920000000000000000e+02 1.001381948590278625e-01 9.661881327629089355e-01 6.867553107440471649e-03 -7.548166066408157349e-02 -2.058423124253749847e-02 2.531356550753116608e-02
1.930000000000000000e+02 9.696643054485321045e-02 7.573472261428833008e-01 -1.347558759152889252e-02 -3.049589507281780243e-02 -1.319144479930400848e-02 1.734437979757785797e-02
1.940000000000000000e+02 9.930790960788726807e-02 3.400205671787261963e-01 -5.585887935012578964e-03 2.374114934355020523e-03 -9.635318419896066189e-04 1.837522140704095364e-04
1.950000000000000000e+02 9.669021517038345337e-02 5.493029952049255371e-01 1.874245121143758297e-03 -3.035675268620252609e-03 -3.484290791675448418e-04 6.084324792027473450e-03
1.960000000000000000e+02 3.021513521671295166e-01 1.321522593498229980e-01 1.195702468976378441e-03 -5.893244873732328415e-03 -1.409262651577591896e-03 8.624424808658659458e-04
1.970000000000000000e+02 9.223401546478271484e-01 1.477951705455780029e-01 -6.984133273363113403e-02 1.330870669335126877e-02 -1.695978827774524689e-02 2.127394266426563263e-02
1.980000000000000000e+02 1.470306277275085449e+00 1.393156498670578003e-01 -2.963960766792297363e-01 -2.218601666390895844e-02 -9.557462483644485474e-02 5.787713825702667236e-02
1.990000000000000000e+02 1.504559159278869629e+00 1.359539151191711426e+00 -1.892727464437484741e-01 -2.006738334894180298e-01 -1.169839724898338318e-01 4.416086673736572266e-01
2.000000000000000000e+02 1.882001399993896484e+00 1.690664887428283691e-01 -5.161125063896179199e-01 -1.032396685332059860e-02 -1.579309403896331787e-01 8.957463502883911133e-02
2.010000000000000000e+02 1.675266385078430176e+00 1.561140567064285278e-01 -4.014749228954315186e-01 -7.781464606523513794e-03 -1.227769181132316589e-01 7.842703908681869507e-02
2.020000000000000000e+02 2.088147163391113281e+00 1.728044748306274414e-01 -6.279983520507812500e-01 4.777031484991312027e-03 -1.869664043188095093e-01 9.237846732139587402e-02
2.030000000000000000e+02 1.910987615585327148e+00 1.378558754920959473e+00 -2.627834677696228027e-01 -1.600683331489562988e-01 -1.268555521965026855e-01 5.191486477851867676e-01
2.040000000000000000e+02 3.938179492950439453e+00 4.657450318336486816e-01 -1.617809176445007324e+00 -8.785526268184185028e-03 -4.879784286022186279e-01 3.394337296485900879e-01
2.050000000000000000e+02 4.308200359344482422e+00 1.459887772798538208e-01 -2.299235343933105469e+00 6.297391373664140701e-03 -6.878814101219177246e-01 1.198113709688186646e-01
2.060000000000000000e+02 5.096124649047851562e+00 1.248127669095993042e-01 -2.999300718307495117e+00 -9.624964441172778606e-04 -9.000789523124694824e-01 1.092834472656250000e-01
2.070000000000000000e+02 6.690669059753417969e+00 1.378771901130676270e+00 1.922124922275543213e-01 2.350011616945266724e-01 1.281640976667404175e-01 7.253925502300262451e-02
2.080000000000000000e+02 7.113923072814941406e+00 3.806204199790954590e-01 -3.657062053680419922e+00 -1.999083533883094788e-02 -1.103115916252136230e+00 3.698150813579559326e-01
2.090000000000000000e+02 7.700154304504394531e+00 1.426025778055191040e-01 -5.625184059143066406e+00 -5.820399522781372070e-02 -1.705016493797302246e+00 2.268415391445159912e-01
2.100000000000000000e+02 7.701015472412109375e+00 6.891489624977111816e-01 -1.799874663352966309e+00 1.990621350705623627e-02 -5.339905619621276855e-01 2.334126532077789307e-01
2.110000000000000000e+02 9.123010635375976562e+00 7.135878205299377441e-01 3.061512947082519531e+00 3.262956142425537109e+00 1.897340774536132812e+00 -3.877911329269409180e+00
2.120000000000000000e+02 9.280339241027832031e+00 8.688903450965881348e-01 3.962544202804565430e+00 6.165333271026611328e+00 3.038363218307495117e+00 -5.730091571807861328e+00
2.130000000000000000e+02 1.029301166534423828e+01 1.328771829605102539e+00 2.130881071090698242e+00 2.315722465515136719e+01 7.586431503295898438e+00 -2.626539945602416992e+00
2.140000000000000000e+02 1.085127162933349609e+01 -7.153082489967346191e-01 8.509887695312500000e+00 2.585800743103027344e+01 1.031036853790283203e+01 -1.423738837242126465e+00
2.150000000000000000e+02 1.038669395446777344e+01 -1.044695854187011719e+00 3.219642877578735352e+00 2.654658126831054688e+01 8.929867744445800781e+00 2.991126537322998047e+00
2.160000000000000000e+02 1.023865318298339844e+01 -1.373344063758850098e+00 1.927676558494567871e+00 2.273916816711425781e+01 7.400053501129150391e+00 4.762681484222412109e+00
2.170000000000000000e+02 8.705793380737304688e+00 -4.061450958251953125e-01 3.053124189376831055e+00 5.837752223014831543e-01 1.091069817543029785e+00 1.759258389472961426e+00
2.180000000000000000e+02 7.281956672668457031e+00 -1.351641416549682617e+00 2.138886690139770508e+00 8.896740674972534180e-01 9.085682034492492676e-01 1.561504364013671875e+00
2.190000000000000000e+02 6.853759765625000000e+00 -1.359755992889404297e+00 1.510033726692199707e+00 6.431383490562438965e-01 6.459516286849975586e-01 1.074202060699462891e+00
2.200000000000000000e+02 6.702738761901855469e+00 -1.331013590097427368e-01 -2.041257143020629883e+00 1.214439235627651215e-02 -6.087338328361511230e-01 -1.617148704826831818e-02
2.210000000000000000e+02 5.115441322326660156e+00 -1.330337047576904297e+00 1.579631119966506958e-01 1.530933231115341187e-01 9.331693500280380249e-02 4.104760661721229553e-02
2.220000000000000000e+02 2.153861999511718750e+00 -1.689965426921844482e-01 -4.874579310417175293e-01 2.032923325896263123e-02 -1.401386111974716187e-01 -7.193703949451446533e-02
2.230000000000000000e+02 2.294748306274414062e+00 -1.361813902854919434e+00 -1.348732411861419678e-01 -1.848920062184333801e-02 -4.600873216986656189e-02 -3.227387964725494385e-01
2.240000000000000000e+02 1.729924559593200684e+00 -4.902286231517791748e-01 -2.885542809963226318e-01 -2.096536196768283844e-02 -9.285589307546615601e-02 -1.578786969184875488e-01
2.250000000000000000e+02 1.307962417602539062e+00 -1.655665636062622070e-01 -1.900194287300109863e-01 -1.951583428308367729e-03 -5.759130418300628662e-02 -4.788692295551300049e-02
2.260000000000000000e+02 1.026552543044090271e-01 -1.392542600631713867e+00 8.769539184868335724e-03 -1.426028758287429810e-01 -4.014999791979789734e-02 2.110075904056429863e-03
2.270000000000000000e+02 9.305203437805175781e+00 -8.744363784790039062e-01 7.347619056701660156e+00 8.342856407165527344e+00 4.707142829895019531e+00 8.525198936462402344e+00
2.280000000000000000e+02 1.704760074615478516e+00 -1.067720770835876465e+00 -1.685591638088226318e-01 -6.038264557719230652e-02 -6.868254393339157104e-02 -2.755167782306671143e-01
2.290000000000000000e+02 3.718739748001098633e+00 4.421119987964630127e-01 -1.501551389694213867e+00 -1.350608468055725098e-02 -4.545172452926635742e-01 3.188023269176483154e-01
2.300000000000000000e+02 9.469409942626953125e+00 9.639760851860046387e-01 4.233137607574462891e+00 1.060679626464843750e+01 4.451980113983154297e+00 -7.161375045776367188e+00
2.310000000000000000e+02 3.109212875366210938e+00 -1.420225858688354492e+00 -1.249586194753646851e-01 4.137712717056274414e-02 -2.507444657385349274e-02 -3.126729130744934082e-01
2.320000000000000000e+02 3.673345804214477539e+00 -1.356542825698852539e+00 -1.347321420907974243e-01 6.987522542476654053e-02 -1.945707760751247406e-02 -2.424984276294708252e-01
2.330000000000000000e+02 9.901885986328125000e+00 -1.074750423431396484e+00 3.611169099807739258e+00 2.158430671691894531e+01 7.558642864227294922e+00 8.304054260253906250e+00
2.340000000000000000e+02 1.107758998870849609e+01 1.039674431085586548e-01 1.339718151092529297e+01 2.402115249633789062e+01 1.122550010681152344e+01 2.658489942550659180e+00
2.350000000000000000e+02 1.089429092407226562e+01 9.207270741462707520e-01 5.813086032867431641e+00 2.584514617919921875e+01 9.497469902038574219e+00 3.592817783355712891e+00
2.360000000000000000e+02 1.080690765380859375e+01 1.168788671493530273e+00 4.375452518463134766e+00 2.483869934082031250e+01 8.764245986938476562e+00 2.174824953079223633e+00
2.370000000000000000e+02 1.065894412994384766e+01 1.228479743003845215e+00 3.229197502136230469e+00 2.566472434997558594e+01 8.668176651000976562e+00 8.501840829849243164e-01
2.380000000000000000e+02 1.009926033020019531e+01 1.109326839447021484e+00 1.796082615852355957e+00 2.334747886657714844e+01 7.543068885803222656e+00 -4.430763721466064453e+00
2.390000000000000000e+02 9.517053604125976562e+00 1.392658829689025879e+00 3.459586381912231445e+00 1.222250366210937500e+01 4.704627037048339844e+00 -6.476343631744384766e+00
2.400000000000000000e+02 7.899786949157714844e+00 1.355904221534729004e+00 1.868106722831726074e+00 1.103975892066955566e+00 8.916248083114624023e-01 -1.306709051132202148e+00
2.410000000000000000e+02 7.492914676666259766e+00 1.346846580505371094e+00 1.021665215492248535e+00 6.087242960929870605e-01 4.891168475151062012e-01 -6.139410734176635742e-01
2.420000000000000000e+02 6.091519355773925781e+00 1.358504295349121094e+00 -2.732910513877868652e-01 1.205783411860466003e-01 -4.581381380558013916e-02 3.435908257961273193e-01
2.430000000000000000e+02 4.462540626525878906e+00 1.066448926925659180e+00 -1.020584940910339355e+00 -1.184165664017200470e-02 -3.097279965877532959e-01 5.838104486465454102e-01
2.440000000000000000e+02 4.094229698181152344e+00 1.372979164123535156e+00 -5.705640912055969238e-01 -1.625442877411842346e-03 -1.716568619012832642e-01 6.426696181297302246e-01
2.450000000000000000e+02 1.286486506462097168e+00 1.162464618682861328e+00 -1.898172646760940552e-01 -1.792490184307098389e-01 -1.107198894023895264e-01 3.726947903633117676e-01
2.460000000000000000e+02 1.014702394604682922e-01 1.391971230506896973e+00 2.706397883594036102e-02 -1.792623400688171387e-01 -4.565950855612754822e-02 1.454227324575185776e-02
2.470000000000000000e+02 1.003239825367927551e-01 1.273108571767807007e-01 2.185598481446504593e-03 2.131025772541761398e-03 1.294987276196479797e-03 -1.463357126340270042e-03
2.480000000000000000e+02 7.329292297363281250e-01 4.319826960563659668e-01 -7.937621325254440308e-02 -2.829067595303058624e-02 -3.230006620287895203e-02 8.261349797248840332e-02
2.490000000000000000e+02 1.386239290237426758e+00 3.766362667083740234e-01 -2.650102376937866211e-01 -1.234043575823307037e-02 -8.320520073175430298e-02 1.571809500455856323e-01
2.500000000000000000e+02 2.292985677719116211e+00 1.655435413122177124e-01 -7.527233362197875977e-01 -2.265084348618984222e-02 -2.326122522354125977e-01 1.038424670696258545e-01
2.510000000000000000e+02 2.695286035537719727e+00 1.684379279613494873e-01 -1.039811849594116211e+00 -9.290732443332672119e-03 -3.147307634353637695e-01 1.099768653512001038e-01
2.520000000000000000e+02 3.501118183135986328e+00 4.493677020072937012e-01 -1.364610552787780762e+00 -5.414038896560668945e-03 -4.110074043273925781e-01 3.220831751823425293e-01
2.530000000000000000e+02 4.504174232482910156e+00 1.370491534471511841e-01 -2.463884592056274414e+00 -1.993984449654817581e-03 -7.397635579109191895e-01 1.170597597956657410e-01
2.540000000000000000e+02 5.468919277191162109e+00 4.039701819419860840e-01 -2.664256572723388672e+00 -1.624324545264244080e-02 -8.041499257087707520e-01 3.341608345508575439e-01
2.550000000000000000e+02 5.696718215942382812e+00 1.538996994495391846e-01 -3.520620346069335938e+00 -5.646498873829841614e-03 -1.057880043983459473e+00 1.508653759956359863e-01
2.560000000000000000e+02 6.107610225677490234e+00 1.532623320817947388e-01 -3.891258001327514648e+00 -9.158476255834102631e-03 -1.170124888420104980e+00 1.631458550691604614e-01
2.570000000000000000e+02 6.509176254272460938e+00 1.416981220245361328e-01 -4.306367874145507812e+00 6.016078405082225800e-03 -1.290105462074279785e+00 1.659495979547500610e-01
2.580000000000000000e+02 6.906415462493896484e+00 1.331113576889038086e-01 -4.730736732482910156e+00 -3.024367429316043854e-02 -1.428294062614440918e+00 1.748479604721069336e-01
2.590000000000000000e+02 8.711063385009765625e+00 1.229138299822807312e-01 -7.043742179870605469e+00 9.520060569047927856e-02 -2.084562540054321289e+00 2.970759272575378418e-01
2.600000000000000000e+02 1.103953266143798828e+01 2.695617675781250000e-01 1.248945617675781250e+01 2.368057823181152344e+01 1.085101032257080078e+01 4.112986564636230469e+00
2.610000000000000000e+02 1.114456081390380859e+01 7.576981186866760254e-01 7.662116050720214844e+00 2.441797828674316406e+01 9.624028205871582031e+00 4.574986934661865234e+00
2.620000000000000000e+02 1.048062229156494141e+01 1.001647591590881348e+00 2.895344734191894531e+00 2.741266441345214844e+01 9.092402458190917969e+00 5.508127808570861816e-01
2.630000000000000000e+02 8.897590637207031250e+00 -1.108529567718505859e-01 -7.773192133754491806e-03 -1.568957418203353882e-01 -4.940067976713180542e-02 3.242380619049072266e-01
2.640000000000000000e+02 9.020002365112304688e+00 -6.818686127662658691e-01 6.789256572723388672e+00 3.095279455184936523e+00 2.965360641479492188e+00 5.239004611968994141e+00
2.650000000000000000e+02 9.486912727355957031e+00 -9.693363308906555176e-01 6.427028179168701172e+00 1.268229866027832031e+01 5.732798099517822266e+00 9.604736328125000000e+00
2.660000000000000000e+02 1.111808109283447266e+01 -4.630428850650787354e-01 1.101790809631347656e+01 2.317523765563964844e+01 1.025794410705566406e+01 -9.099066257476806641e-01
2.670000000000000000e+02 8.106524467468261719e+00 -1.612324267625808716e-01 -1.356914877891540527e+00 -1.192139014601707458e-01 -4.428386390209197998e-01 1.380740106105804443e-01
2.680000000000000000e+02 6.295588970184326172e+00 -3.674811720848083496e-01 -1.332605004310607910e+00 5.384480580687522888e-03 -3.981661498546600342e-01 -1.017826702445745468e-02
2.690000000000000000e+02 5.241594791412353516e+00 -4.145678877830505371e-01 -1.236202120780944824e+00 1.726125739514827728e-02 -3.656822741031646729e-01 -9.135698527097702026e-02
2.700000000000000000e+02 4.866126537322998047e+00 -3.414294123649597168e-01 -1.334222197532653809e+00 3.790356218814849854e-03 -3.991295397281646729e-01 -1.093249022960662842e-01
2.710000000000000000e+02 2.643744945526123047e+00 -3.284434974193572998e-01 -6.309273242950439453e-01 -7.330103311687707901e-03 -1.914772242307662964e-01 -1.371089518070220947e-01
2.720000000000000000e+02 2.499970436096191406e+00 -9.817486256361007690e-02 -6.938377618789672852e-01 -3.433228237554430962e-03 -2.091812938451766968e-01 -3.357259184122085571e-02
2.730000000000000000e+02 1.716540455818176270e+00 -1.788551807403564453e-01 -3.310063779354095459e-01 -9.397249668836593628e-03 -1.021210849285125732e-01 -6.598874926567077637e-02
2.740000000000000000e+02 9.602549672126770020e-02 -1.283648163080215454e-01 1.187136280350387096e-03 1.344302552752196789e-03 7.594316848553717136e-04 1.286094659008085728e-03
2.750000000000000000e+02 1.071215724945068359e+01 -8.493782281875610352e-01 6.164398193359375000e+00 2.664926910400390625e+01 9.844099998474121094e+00 -7.687227725982666016e-01
2.760000000000000000e+02 8.993978500366210938e+00 -1.087878465652465820e+00 5.950508117675781250e+00 5.989254474639892578e+00 3.581928968429565430e+00 6.651526451110839844e+00
2.770000000000000000e+02 1.125597381591796875e+01 -6.092246174812316895e-01 8.823715209960937500e+00 2.276300430297851562e+01 9.476016044616699219e+00 -1.531827092170715332e+00
2.780000000000000000e+02 9.019884109497070312e+00 5.161942839622497559e-01 4.899028837680816650e-01 7.769512534141540527e-01 3.800562620162963867e-01 -1.687292337417602539e+00
2.790000000000000000e+02 1.082630920410156250e+01 7.334623932838439941e-01 6.956517219543457031e+00 2.713314247131347656e+01 1.022689819335937500e+01 4.559851169586181641e+00
2.800000000000000000e+02 9.552035331726074219e+00 1.194209575653076172e+00 3.675539731979370117e+00 1.246275806427001953e+01 4.841489315032958984e+00 -6.683534622192382812e+00
2.810000000000000000e+02 1.088972091674804688e+01 -1.027581930160522461e+00 5.180810928344726562e+00 2.466603660583496094e+01 8.954053878784179688e+00 -7.800617218017578125e-01
2.820000000000000000e+02 1.125513172149658203e+01 5.939059853553771973e-01 9.075591087341308594e+00 2.372571182250976562e+01 9.840390205383300781e+00 4.178226470947265625e+00
2.830000000000000000e+02 1.131819057464599609e+01 -4.570733904838562012e-01 1.037381744384765625e+01 2.240634155273437500e+01 9.834048271179199219e+00 -7.095633149147033691e-01
2.840000000000000000e+02 1.102915954589843750e+01 -8.932558894157409668e-01 6.505873680114746094e+00 2.415111732482910156e+01 9.197097778320312500e+00 -1.609355330467224121e+00
2.850000000000000000e+02 1.134174919128417969e+01 -2.807932198047637939e-01 1.097084712982177734e+01 2.128075218200683594e+01 9.675479888916015625e+00 -1.467113047838211060e-01
2.860000000000000000e+02 1.139057826995849609e+01 2.890876829624176025e-01 1.058174228668212891e+01 2.310074424743652344e+01 1.010474586486816406e+01 3.056594610214233398e+00
2.870000000000000000e+02 1.119312572479248047e+01 1.874526739120483398e-01 1.190453624725341797e+01 2.343429946899414062e+01 1.060165119171142578e+01 3.629993915557861328e+00
2.880000000000000000e+02 1.041065502166748047e+01 -1.317460656166076660e+00 2.073197603225708008e+00 2.396183586120605469e+01 7.810510158538818359e+00 3.045891761779785156e+00
2.890000000000000000e+02 1.009277725219726562e+01 -1.060697197914123535e+00 3.078577518463134766e+00 2.485094070434570312e+01 8.378855705261230469e+00 6.255177021026611328e+00
2.900000000000000000e+02 9.907473564147949219e+00 1.121070504188537598e+00 2.493680477142333984e+00 1.980854225158691406e+01 6.690666675567626953e+00 -6.081017971038818359e+00
2.910000000000000000e+02 1.048631954193115234e+01 1.271646022796630859e+00 2.852687358856201172e+00 2.444381332397460938e+01 8.188949584960937500e+00 -5.483438372611999512e-01
2.920000000000000000e+02 1.057286930084228516e+01 -1.239858627319335938e+00 2.762293338775634766e+00 2.453767204284667969e+01 8.189990043640136719e+00 1.513574123382568359e+00
2.930000000000000000e+02 8.883888125419616699e-01 -1.356295228004455566e+00 -4.609282314777374268e-02 -1.339072287082672119e-01 -5.400001630187034607e-02 -2.086121588945388794e-01
2.940000000000000000e+02 3.040100336074829102e-01 -1.391423225402832031e+00 -1.263996120542287827e-02 -2.975492775440216064e-01 -9.305676817893981934e-02 -1.074871197342872620e-01
2.950000000000000000e+02 1.093045949935913086e+00 -1.335810899734497070e+00 -5.694508925080299377e-02 -1.519712656736373901e-01 -6.267490983009338379e-02 -2.430620193481445312e-01
2.960000000000000000e+02 1.500203132629394531e+00 -1.350065231323242188e+00 -8.841332793235778809e-02 -1.046380773186683655e-01 -5.791542306542396545e-02 -2.804888188838958740e-01
2.970000000000000000e+02 2.097192764282226562e+00 -1.366299629211425781e+00 -1.287897974252700806e-01 -3.838540613651275635e-02 -5.015255883336067200e-02 -3.288845121860504150e-01
2.980000000000000000e+02 2.692356586456298828e+00 -1.078049063682556152e+00 -2.767941653728485107e-01 -1.259739045053720474e-03 -8.341617882251739502e-02 -3.159874379634857178e-01
2.990000000000000000e+02 3.324770212173461914e+00 -1.174355626106262207e+00 -2.616668045520782471e-01 1.952846162021160126e-02 -7.264149934053421021e-02 -2.851912081241607666e-01
3.000000000000000000e+02 4.124855041503906250e+00 -1.150144219398498535e+00 -2.604345977306365967e-01 5.775115266442298889e-02 -6.080503016710281372e-02 -2.112821638584136963e-01
3.010000000000000000e+02 4.673169612884521484e+00 -1.339155793190002441e+00 8.790975436568260193e-03 1.400703936815261841e-01 4.465841129422187805e-02 -6.198654323816299438e-02
3.020000000000000000e+02 6.360189914703369141e+00 -1.196414113044738770e+00 7.500530481338500977e-01 2.935324609279632568e-01 3.130756616592407227e-01 4.875701963901519775e-01
3.030000000000000000e+02 8.068883895874023438e+00 -1.039474606513977051e+00 3.334689855575561523e+00 1.413324475288391113e+00 1.424404263496398926e+00 2.516269922256469727e+00
3.040000000000000000e+02 8.091531753540039062e+00 -1.341143488883972168e+00 3.621108770370483398e+00 2.245996236801147461e+00 1.760131478309631348e+00 3.249313116073608398e+00
3.050000000000000000e+02 8.518143653869628906e+00 -1.328126549720764160e+00 4.606904983520507812e+00 3.699909210205078125e+00 2.492044210433959961e+00 4.674608707427978516e+00
3.060000000000000000e+02 9.530289649963378906e+00 -1.405190467834472656e+00 3.824470281600952148e+00 1.403438949584960938e+01 5.357657909393310547e+00 7.995886325836181641e+00
3.070000000000000000e+02 9.200761795043945312e+00 -1.108575105667114258e+00 6.054545879364013672e+00 8.389648437500000000e+00 4.333258152008056641e+00 7.826968669891357422e+00
3.080000000000000000e+02 9.713594436645507812e+00 -1.432682633399963379e+00 3.194874286651611328e+00 1.653719711303710938e+01 5.919621944427490234e+00 7.820331096649169922e+00
3.090000000000000000e+02 1.005361557006835938e+01 -1.406605482101440430e+00 2.117459774017333984e+00 2.072466278076171875e+01 6.852636337280273438e+00 5.822542190551757812e+00
3.100000000000000000e+02 8.696110725402832031e+00 1.115810751914978027e+00 2.987285137176513672e+00 2.540885210037231445e+00 1.658451080322265625e+00 -2.806393384933471680e+00
3.110000000000000000e+02 8.318943977355957031e+00 1.107985258102416992e+00 1.777055144309997559e+00 1.208829879760742188e+00 8.957654833793640137e-01 -1.487324833869934082e+00
3.120000000000000000e+02 8.301010131835937500e+00 1.368102073669433594e+00 2.679409265518188477e+00 1.887212157249450684e+00 1.369986414909362793e+00 -2.174946546554565430e+00
3.130000000000000000e+02 7.696302413940429688e+00 1.353312492370605469e+00 1.289046764373779297e+00 7.225251197814941406e-01 6.034715771675109863e-01 -8.105074763298034668e-01
3.140000000000000000e+02 7.086571216583251953e+00 1.363262772560119629e+00 5.188915133476257324e-01 3.453616201877593994e-01 2.592759430408477783e-01 -1.710731983184814453e-01
3.150000000000000000e+02 6.295311927795410156e+00 1.356781244277954102e+00 -1.790336072444915771e-01 1.097497195005416870e-01 -2.078516595065593719e-02 2.596240341663360596e-01
3.160000000000000000e+02 6.853132724761962891e+00 1.123047709465026855e+00 -4.817325174808502197e-01 1.410603821277618408e-01 -1.022016406059265137e-01 1.733060479164123535e-01
3.170000000000000000e+02 5.500124454498291016e+00 1.383009076118469238e+00 -4.249058663845062256e-01 4.399728775024414062e-02 -1.142725721001625061e-01 4.814898967742919922e-01
3.180000000000000000e+02 5.101686954498291016e+00 1.365977764129638672e+00 -5.415867567062377930e-01 6.743890233337879181e-03 -1.604528576135635376e-01 5.315216779708862305e-01
3.190000000000000000e+02 4.679098129272460938e+00 1.089977860450744629e+00 -1.026543378829956055e+00 -5.297989118844270706e-03 -3.095524311065673828e-01 5.781221389770507812e-01
3.200000000000000000e+02 4.692054748535156250e+00 1.359875679016113281e+00 -6.071798205375671387e-01 9.348716121166944504e-04 -1.818734854459762573e-01 5.868733525276184082e-01
3.210000000000000000e+02 4.073109626770019531e+00 1.115261077880859375e+00 -8.687273859977722168e-01 -1.719129644334316254e-02 -2.657756209373474121e-01 5.802314877510070801e-01
3.220000000000000000e+02 4.261375904083251953e+00 1.089777827262878418e+00 -9.723397493362426758e-01 -1.263282820582389832e-02 -2.954917848110198975e-01 5.939822793006896973e-01
3.230000000000000000e+02 3.370482921600341797e+00 1.137103438377380371e+00 -6.900329589843750000e-01 -4.682219028472900391e-02 -2.210565358400344849e-01 5.919952392578125000e-01
3.240000000000000000e+02 3.355420589447021484e+00 8.239315748214721680e-01 -9.903550148010253906e-01 -2.516453340649604797e-02 -3.046558499336242676e-01 4.929697811603546143e-01
3.250000000000000000e+02 2.907274961471557617e+00 1.331713795661926270e+00 -4.446097016334533691e-01 -5.003599077463150024e-02 -1.483937054872512817e-01 6.286031007766723633e-01
3.260000000000000000e+02 2.497857809066772461e+00 1.363923430442810059e+00 -3.608902394771575928e-01 -8.553443849086761475e-02 -1.339274048805236816e-01 6.038736701011657715e-01
3.270000000000000000e+02 1.712112069129943848e+00 1.357282161712646484e+00 -2.309782803058624268e-01 -1.536939740180969238e-01 -1.154016703367233276e-01 5.013781785964965820e-01
3.280000000000000000e+02 5.158184766769409180e-01 1.148278355598449707e+00 -5.305676534771919250e-02 -2.241066098213195801e-01 -8.314901590347290039e-02 1.722160428762435913e-01
3.290000000000000000e+02 5.066074728965759277e-01 1.382435321807861328e+00 -2.294511534273624420e-02 -2.408185303211212158e-01 -7.912909239530563354e-02 1.861304193735122681e-01
3.300000000000000000e+02 1.299041390419006348e+00 -1.344434380531311035e+00 -8.554301410913467407e-02 -9.474597126245498657e-02 -5.408669263124465942e-02 -2.726685106754302979e-01
3.310000000000000000e+02 1.699975848197937012e+00 -1.355569839477539062e+00 -9.479262679815292358e-02 -6.337347626686096191e-02 -4.744983091950416565e-02 -3.089690506458282471e-01
3.320000000000000000e+02 1.902339577674865723e+00 -1.086406946182250977e+00 -1.775402724742889404e-01 -3.775344789028167725e-02 -6.458811461925506592e-02 -2.943578660488128662e-01
3.330000000000000000e+02 3.901492595672607422e+00 -1.116383552551269531e+00 -3.092451393604278564e-01 6.138039380311965942e-02 -7.435942441225051880e-02 -2.359399646520614624e-01
3.340000000000000000e+02 4.295088768005371094e+00 -1.396833062171936035e+00 -3.300134325399994850e-03 1.307231485843658447e-01 3.822690248489379883e-02 -1.242790073156356812e-01
3.350000000000000000e+02 4.898310184478759766e+00 -1.326452493667602539e+00 6.892211735248565674e-02 1.503175497055053711e-01 6.577190011739730835e-02 -9.710819460451602936e-03
3.360000000000000000e+02 5.189235210418701172e+00 -1.027584314346313477e+00 -2.405710071325302124e-01 8.522830903530120850e-02 -4.660280793905258179e-02 -3.907432034611701965e-02
3.370000000000000000e+02 5.320949077606201172e+00 -1.354625225067138672e+00 2.487512677907943726e-01 1.665993779897689819e-01 1.246051937341690063e-01 8.931712806224822998e-02
3.380000000000000000e+02 5.764801025390625000e+00 -1.137822866439819336e+00 1.890646964311599731e-01 1.915433257818222046e-01 1.141824051737785339e-01 1.766265034675598145e-01
3.390000000000000000e+02 7.065707683563232422e+00 -1.340578079223632812e+00 1.772313952445983887e+00 7.396189570426940918e-01 7.535798549652099609e-01 1.276788234710693359e+00
3.400000000000000000e+02 7.867691516876220703e+00 -1.045733809471130371e+00 2.774029254913330078e+00 1.039275646209716797e+00 1.143991470336914062e+00 2.026347398757934570e+00
3.410000000000000000e+02 8.726363182067871094e+00 -1.351821899414062500e+00 5.026477813720703125e+00 5.073903083801269531e+00 3.030114412307739258e+00 5.713298797607421875e+00
3.420000000000000000e+02 9.130440711975097656e+00 -1.369238615036010742e+00 4.927006721496582031e+00 8.777305603027343750e+00 4.111293792724609375e+00 7.344276905059814453e+00
3.430000000000000000e+02 9.318794250488281250e+00 1.382393121719360352e+00 3.925738573074340820e+00 9.430234909057617188e+00 4.006792068481445312e+00 -5.771738529205322266e+00
3.440000000000000000e+02 9.116800308227539062e+00 1.368067383766174316e+00 3.978905916213989258e+00 7.058242797851562500e+00 3.311144590377807617e+00 -5.219079494476318359e+00
3.450000000000000000e+02 7.289333343505859375e+00 1.351579427719116211e+00 7.943833470344543457e-01 4.193713665008544922e-01 3.641264140605926514e-01 -3.080419600009918213e-01
3.460000000000000000e+02 6.666684150695800781e+00 1.139312386512756348e+00 -5.139979124069213867e-01 9.431562572717666626e-02 -1.259046792984008789e-01 2.748475372791290283e-01
3.470000000000000000e+02 5.690845012664794922e+00 1.169502496719360352e+00 -8.427296876907348633e-01 1.954106555785983801e-04 -2.527602910995483398e-01 4.922527670860290527e-01
3.480000000000000000e+02 4.897675514221191406e+00 1.088674783706665039e+00 -1.051455736160278320e+00 -9.111317805945873260e-03 -3.181701004505157471e-01 5.698835849761962891e-01
3.490000000000000000e+02 3.899146795272827148e+00 1.380541920661926270e+00 -5.656859874725341797e-01 -1.101688202470541000e-02 -1.730108559131622314e-01 6.274529099464416504e-01
3.500000000000000000e+02 3.887932062149047852e+00 1.137910962104797363e+00 -7.922273874282836914e-01 -1.368072908371686935e-02 -2.417724281549453735e-01 6.056927442550659180e-01
3.510000000000000000e+02 1.941070795059204102e+00 1.156734108924865723e+00 -3.308323621749877930e-01 -1.015965342521667480e-01 -1.297286599874496460e-01 4.983099102973937988e-01
3.520000000000000000e+02 9.954800605773925781e+00 -1.239313125610351562e+00 2.866935253143310547e+00 2.100233650207519531e+01 7.160781860351562500e+00 7.188900947570800781e+00
3.530000000000000000e+02 5.880936145782470703e+00 -3.953866362571716309e-01 -1.314365506172180176e+00 7.108616642653942108e-03 -3.921770751476287842e-01 -5.815111473202705383e-02
3.540000000000000000e+02 7.868466854095458984e+00 -4.396730363368988037e-01 1.567309349775314331e-01 8.153926581144332886e-02 7.148105651140213013e-02 4.266737103462219238e-01
3.550000000000000000e+02 8.323198318481445312e+00 4.218527972698211670e-01 -3.222353935241699219e+00 -3.717671707272529602e-02 -9.778591990470886230e-01 2.003545165061950684e-01
3.560000000000000000e+02 7.904225349426269531e+00 4.247169494628906250e-01 -3.423296689987182617e+00 -2.351712994277477264e-02 -1.034044146537780762e+00 3.456181585788726807e-01
3.570000000000000000e+02 4.701137542724609375e+00 1.260974556207656860e-01 -2.641136407852172852e+00 3.774320008233189583e-03 -7.912086248397827148e-01 1.131843477487564087e-01
3.580000000000000000e+02 7.303282260894775391e+00 1.354932188987731934e-01 -5.171272277832031250e+00 -3.064211271703243256e-02 -1.560574293136596680e+00 1.638047546148300171e-01
3.590000000000000000e+02 7.303153038024902344e+00 -1.278868615627288818e-01 -1.981082081794738770e+00 -1.137839443981647491e-02 -5.977381467819213867e-01 3.399083763360977173e-02
3.600000000000000000e+02 6.533110141754150391e+00 4.080563485622406006e-01 -3.296016931533813477e+00 6.232806481420993805e-03 -9.869352579116821289e-01 3.546856045722961426e-01
3.610000000000000000e+02 7.104721069335937500e+00 1.325948536396026611e-01 -4.960026264190673828e+00 3.574243932962417603e-02 -1.477285146713256836e+00 1.703661084175109863e-01
3.620000000000000000e+02 8.112528800964355469e+00 4.328442811965942383e-01 -3.325050830841064453e+00 4.401619732379913330e-02 -9.843104481697082520e-01 2.915290594100952148e-01
3.630000000000000000e+02 8.929835319519042969e+00 -3.179746866226196289e-01 3.537942171096801758e+00 5.435009002685546875e-01 1.224432945251464844e+00 1.829297304153442383e+00
3.640000000000000000e+02 8.596513748168945312e+00 -2.476141005754470825e-01 5.064476728439331055e-01 2.850519120693206787e-01 2.374498844146728516e-01 5.056516528129577637e-01
3.650000000000000000e+02 8.319588661193847656e+00 -1.394328922033309937e-01 -1.218989968299865723e+00 -5.509807961061596870e-04 -3.658622801303863525e-01 5.132099241018295288e-02
3.660000000000000000e+02 7.896694183349609375e+00 -1.483428627252578735e-01 -1.566115856170654297e+00 1.030559465289115906e-01 -4.389179646968841553e-01 1.509441137313842773e-01
3.670000000000000000e+02 4.690986156463623047e+00 -1.297260075807571411e-01 -1.593438267707824707e+00 8.989480324089527130e-03 -4.753346443176269531e-01 -4.801887646317481995e-02
3.680000000000000000e+02 2.994648516178131104e-01 3.495013415813446045e-01 -1.039540488272905350e-02 -1.275576744228601456e-02 -6.945351604372262955e-03 7.247281726449728012e-03
3.690000000000000000e+02 2.688107252120971680e+00 -1.198066771030426025e-01 -7.677518129348754883e-01 -5.170618183910846710e-03 -2.318767309188842773e-01 -4.230796918272972107e-02
3.700000000000000000e+02 3.072667360305786133e+00 -4.050358831882476807e-01 -7.309890389442443848e-01 -5.495785269886255264e-03 -2.209454476833343506e-01 -1.612697243690490723e-01
3.710000000000000000e+02 3.301852226257324219e+00 -4.238827824592590332e-01 -7.996106147766113281e-01 4.156941547989845276e-03 -2.386361062526702881e-01 -1.678220629692077637e-01
3.720000000000000000e+02 3.299222469329833984e+00 1.583903282880783081e-01 -1.479619026184082031e+00 1.102250628173351288e-02 -4.405789673328399658e-01 1.213369742035865784e-01
3.730000000000000000e+02 3.911753177642822266e+00 1.607409417629241943e-01 -1.963658690452575684e+00 -6.228853948414325714e-03 -5.909662842750549316e-01 1.276986151933670044e-01
3.740000000000000000e+02 2.494956493377685547e+00 1.634936779737472534e-01 -8.975093364715576172e-01 1.050012651830911636e-02 -2.661027610301971436e-01 1.118809059262275696e-01
3.750000000000000000e+02 3.097318887710571289e+00 1.619818061590194702e-01 -1.320513606071472168e+00 -1.721611805260181427e-02 -4.013189077377319336e-01 1.163316592574119568e-01
3.760000000000000000e+02 3.199888706207275391e+00 6.661611199378967285e-01 -1.034854292869567871e+00 -1.058460585772991180e-02 -3.136316537857055664e-01 4.273883104324340820e-01
3.770000000000000000e+02 3.502358675003051758e+00 -1.408780515193939209e-01 -1.102477669715881348e+00 9.474786929786205292e-04 -3.304590582847595215e-01 -5.956883355975151062e-02
3.780000000000000000e+02 2.450752735137939453e+00 -2.514180839061737061e-01 -5.892379283905029297e-01 -3.854449372738599777e-03 -1.779277026653289795e-01 -1.040894985198974609e-01
3.790000000000000000e+02 1.939509868621826172e+00 -1.946533620357513428e-01 -4.117860198020935059e-01 -3.344720695167779922e-03 -1.245392262935638428e-01 -7.401823997497558594e-02
3.800000000000000000e+02 1.963103652000427246e+00 -5.278034210205078125e-01 -3.482539057731628418e-01 -4.036238882690668106e-03 -1.056870371103286743e-01 -1.795846074819564819e-01
3.810000000000000000e+02 6.975221633911132812e-01 -1.828634589910507202e-01 -4.242428019642829895e-02 -9.798000566661357880e-03 -1.566668413579463959e-02 -2.680644020438194275e-02
3.820000000000000000e+02 2.311627268791198730e-01 -3.789996504783630371e-01 -1.242285873740911484e-02 -2.237899601459503174e-02 -1.044055633246898651e-02 -1.290354784578084946e-02
3.830000000000000000e+02 4.852280616760253906e-01 -1.750710308551788330e-01 -1.755944453179836273e-02 -9.462707675993442535e-03 -8.106646127998828888e-03 -1.590657606720924377e-02
3.840000000000000000e+02 1.108332395553588867e+00 -1.638900786638259888e-01 -1.313835084438323975e-01 -9.138002991676330566e-03 -4.215645417571067810e-02 -4.012877866625785828e-02
3.850000000000000000e+02 5.902637958526611328e+00 1.572605222463607788e-01 -3.702344894409179688e+00 -3.375699743628501892e-03 -1.111716151237487793e+00 1.544186770915985107e-01
3.860000000000000000e+02 6.129099369049072266e+00 4.393589794635772705e-01 -2.972156286239624023e+00 -7.228602189570665359e-03 -8.938154578208923340e-01 3.767013251781463623e-01
3.870000000000000000e+02 4.142144203186035156e+00 4.426609277725219727e-01 -1.743648648262023926e+00 -3.536287695169448853e-03 -5.241554975509643555e-01 3.283948600292205811e-01
3.880000000000000000e+02 6.708186626434326172e+00 1.365282684564590454e-01 -4.515468120574951172e+00 3.347125835716724396e-03 -1.353636264801025391e+00 1.557256132364273071e-01
3.890000000000000000e+02 7.697260856628417969e+00 -1.324286907911300659e-01 -1.753033041954040527e+00 -3.058512695133686066e-03 -5.268274545669555664e-01 7.734154164791107178e-02
3.900000000000000000e+02 7.104060173034667969e+00 -1.367662101984024048e-01 -2.033717155456542969e+00 4.504662752151489258e-02 -5.966011881828308105e-01 5.144096910953521729e-03
3.910000000000000000e+02 5.630605220794677734e+00 -8.765625953674316406e-01 -3.261926472187042236e-01 8.461799472570419312e-02 -7.247240096330642700e-02 2.110851742327213287e-02
3.920000000000000000e+02 5.046647071838378906e+00 -3.743271827697753906e-01 -1.304562568664550781e+00 6.246458273380994797e-03 -3.894948363304138184e-01 -9.941320866346359253e-02
3.930000000000000000e+02 4.523074150085449219e+00 3.954443335533142090e-01 -2.086742639541625977e+00 -3.627731930464506149e-03 -6.271111369132995605e-01 3.110590875148773193e-01
3.940000000000000000e+02 4.711832046508789062e+00 3.474344015121459961e-01 -2.292214870452880859e+00 -1.669601653702557087e-03 -6.881653666496276855e-01 2.888711392879486084e-01
3.950000000000000000e+02 7.698516368865966797e+00 4.180117547512054443e-01 -3.582287788391113281e+00 4.668225720524787903e-02 -1.060681700706481934e+00 3.150539100170135498e-01
3.960000000000000000e+02 6.700313091278076172e+00 -3.808155059814453125e-01 -1.134385943412780762e+00 2.858239039778709412e-02 -3.317410647869110107e-01 3.262868896126747131e-02
3.970000000000000000e+02 6.088542938232421875e+00 -3.830642998218536377e-01 -1.336967706680297852e+00 2.942445874214172363e-02 -3.922629952430725098e-01 -3.453754261136054993e-02
3.980000000000000000e+02 4.089779376983642578e+00 -1.334567815065383911e-01 -1.370432376861572266e+00 -7.801111787557601929e-03 -4.134700298309326172e-01 -5.666783824563026428e-02
3.990000000000000000e+02 1.088611483573913574e-01 -1.175893902778625488e+00 1.307209301739931107e-02 -1.242654100060462952e-01 -3.335799276828765869e-02 -1.984308101236820221e-02
4.000000000000000000e+02 1.197042241692543030e-01 -7.250900864601135254e-01 4.475915338844060898e-04 -4.169561341404914856e-02 -1.237440668046474457e-02 -1.694028638303279877e-02
4.010000000000000000e+02 3.080295920372009277e-01 1.164847373962402344e+00 1.937393099069595337e-02 -1.747166067361831665e-01 -4.660280048847198486e-02 8.473537117242813110e-02
4.020000000000000000e+02 3.398019671440124512e-01 -9.332243800163269043e-01 -1.399064436554908752e-02 -9.518036991357803345e-02 -3.275130316615104675e-02 -6.571391224861145020e-02
4.030000000000000000e+02 1.505174279212951660e+00 -1.053133010864257812e+00 -1.465739160776138306e-01 -5.388817563652992249e-02 -6.013862788677215576e-02 -2.651958763599395752e-01
4.040000000000000000e+02 9.072464108467102051e-01 -1.675877422094345093e-01 -8.145476877689361572e-02 -8.926620939746499062e-04 -2.470422908663749695e-02 -3.398308902978897095e-02
4.050000000000000000e+02 3.997492194175720215e-01 -4.502246081829071045e-01 -2.098558284342288971e-02 -2.184199914336204529e-02 -1.284827385097742081e-02 -2.612966485321521759e-02
4.060000000000000000e+02 6.008073329925537109e+00 -9.523974061012268066e-01 -3.594847768545150757e-02 1.298663914203643799e-01 2.817537449300289154e-02 1.533618420362472534e-01
4.070000000000000000e+02 8.651900291442871094e+00 8.789014220237731934e-01 1.649617910385131836e+00 1.619131326675415039e+00 9.806247353553771973e-01 -1.949031233787536621e+00
4.080000000000000000e+02 1.731535434722900391e+00 7.469242811203002930e-01 -3.786511123180389404e-01 -8.172596246004104614e-02 -1.381131261587142944e-01 3.428415954113006592e-01
4.090000000000000000e+02 3.018066883087158203e-01 9.518908262252807617e-01 -3.464814648032188416e-02 -1.231711283326148987e-01 -4.734577983617782593e-02 7.823421806097030640e-02
4.100000000000000000e+02 6.622801303863525391e+00 9.074098467826843262e-01 -1.431105017662048340e+00 4.220243543386459351e-02 -4.166707694530487061e-01 3.769234716892242432e-01
4.110000000000000000e+02 5.909246444702148438e+00 4.538686871528625488e-01 -2.776121616363525391e+00 -1.605680771172046661e-02 -8.376535177230834961e-01 3.933366239070892334e-01
4.120000000000000000e+02 6.162439823150634766e+00 7.207787036895751953e-01 -2.048797130584716797e+00 -9.209554991684854031e-04 -6.149154305458068848e-01 4.662539064884185791e-01
4.130000000000000000e+02 6.994360446929931641e+00 8.569750189781188965e-01 -1.393700480461120605e+00 6.674496084451675415e-02 -3.980866372585296631e-01 3.316691219806671143e-01
4.140000000000000000e+02 5.450508117675781250e+00 -8.567239046096801758e-01 -4.306702315807342529e-01 7.561020553112030029e-02 -1.065180078148841858e-01 -4.117788001894950867e-02
4.150000000000000000e+02 2.871636390686035156e+00 7.811645865440368652e-01 -8.198097944259643555e-01 -1.651096902787685394e-02 -2.508962154388427734e-01 4.573630392551422119e-01
4.160000000000000000e+02 5.379126071929931641e+00 -1.084372639656066895e+00 -6.866365671157836914e-02 1.154548227787017822e-01 1.403735019266605377e-02 4.000098630785942078e-02
4.170000000000000000e+02 1.398319959640502930e+00 7.668839693069458008e-01 -2.719196975231170654e-01 -8.292162418365478516e-02 -1.064523980021476746e-01 2.907056510448455811e-01
4.180000000000000000e+02 6.539139270782470703e+00 -7.426691055297851562e-01 -1.594752818346023560e-01 1.136625036597251892e-01 -1.374383270740509033e-02 1.990437954664230347e-01
4.190000000000000000e+02 8.926049232482910156e+00 1.086104631423950195e+00 3.491572380065917969e+00 4.010894298553466797e+00 2.250740051269531250e+00 -4.032410144805908203e+00
4.200000000000000000e+02 8.306077003479003906e+00 -5.263161063194274902e-01 2.094488620758056641e+00 3.856215178966522217e-01 7.440330982208251953e-01 1.284348964691162109e+00
4.210000000000000000e+02 7.307789921760559082e-01 8.630416393280029297e-01 -8.891826868057250977e-02 -1.395775079727172852e-01 -6.854873150587081909e-02 1.740817427635192871e-01
4.220000000000000000e+02 1.100474834442138672e+00 1.160607099533081055e+00 -1.483563333749771118e-01 -1.637448370456695557e-01 -9.363035112619400024e-02 3.353040516376495361e-01
4.230000000000000000e+02 7.306941032409667969e+00 3.945715725421905518e-01 -3.704339265823364258e+00 3.670316189527511597e-02 -1.100290775299072266e+00 3.720943629741668701e-01
4.240000000000000000e+02 7.039049625396728516e+00 -1.044562935829162598e+00 1.107078313827514648e+00 3.884439766407012939e-01 4.486566781997680664e-01 8.274599313735961914e-01
4.250000000000000000e+02 1.023482680320739746e-01 1.177505373954772949e+00 -1.192484423518180847e-02 -1.348927021026611328e-01 -4.404526203870773315e-02 3.005640953779220581e-02
4.260000000000000000e+02 2.894755125045776367e+00 4.842920303344726562e-01 -9.926623702049255371e-01 -2.508085407316684723e-02 -3.053229749202728271e-01 3.178993463516235352e-01
4.270000000000000000e+02 2.489332199096679688e+00 -7.762782573699951172e-01 -3.988036513328552246e-01 -3.949698992073535919e-03 -1.208260059356689453e-01 -2.651913464069366455e-01
4.280000000000000000e+02 2.900695800781250000e-01 7.499809861183166504e-01 -7.120100315660238266e-03 -7.181452959775924683e-02 -2.368038892745971680e-02 4.824121668934822083e-02
4.290000000000000000e+02 5.359550952911376953e+00 8.854522109031677246e-01 -1.475256919860839844e+00 -6.297816056758165359e-03 -4.444664120674133301e-01 5.420536994934082031e-01
4.300000000000000000e+02 5.542640686035156250e+00 9.272234439849853516e-01 -1.405156016349792480e+00 -5.112714599817991257e-03 -4.230806231498718262e-01 5.179452896118164062e-01
4.310000000000000000e+02 2.289767265319824219e+00 4.532178044319152832e-01 -6.859456300735473633e-01 -7.578695658594369888e-03 -2.080572992563247681e-01 2.684987783432006836e-01
4.320000000000000000e+02 5.462149143218994141e+00 -6.578353047370910645e-01 -7.870097160339355469e-01 3.766576200723648071e-02 -2.248031795024871826e-01 -5.823995545506477356e-02
4.330000000000000000e+02 2.269171953201293945e+00 -1.086358547210693359e+00 -2.364488542079925537e-01 -2.320166677236557007e-02 -7.789515703916549683e-02 -3.070927262306213379e-01
4.340000000000000000e+02 2.378907203674316406e+00 6.428192853927612305e-01 -6.597361564636230469e-01 -1.840136945247650146e-02 -2.034412473440170288e-01 3.700091242790222168e-01
4.350000000000000000e+02 6.141150951385498047e+00 -8.237398862838745117e-01 -2.194885015487670898e-01 1.157688796520233154e-01 -3.111588582396507263e-02 1.245776191353797913e-01
4.360000000000000000e+02 6.323180675506591797e+00 1.092329025268554688e+00 -9.190140962600708008e-01 6.668307632207870483e-02 -2.556993067264556885e-01 4.184839129447937012e-01
4.370000000000000000e+02 1.305986762046813965e+00 -1.038612484931945801e+00 -1.164497584104537964e-01 -9.228309988975524902e-02 -6.261985749006271362e-02 -2.367309629917144775e-01
4.380000000000000000e+02 8.587377548217773438e+00 -7.035877108573913574e-01 4.262187004089355469e+00 1.301059842109680176e+00 1.668974161148071289e+00 2.857962846755981445e+00
4.390000000000000000e+02 8.888291358947753906e+00 8.244770765304565430e-01 2.480702400207519531e+00 2.222107410430908203e+00 1.410843014717102051e+00 -2.830675601959228516e+00
4.400000000000000000e+02 9.206407070159912109e-01 -9.558174610137939453e-01 -8.019426465034484863e-02 -9.904272854328155518e-02 -5.377109721302986145e-02 -1.853926777839660645e-01
4.410000000000000000e+02 7.071588516235351562e+00 -7.870962619781494141e-01 4.723425209522247314e-01 2.220478206872940063e-01 2.083171010017395020e-01 5.048512220382690430e-01
4.420000000000000000e+02 6.807122230529785156e+00 8.832761049270629883e-01 -1.413599848747253418e+00 2.375866658985614777e-02 -4.169523715972900391e-01 3.781487345695495605e-01
4.430000000000000000e+02 2.893933951854705811e-01 5.528285503387451172e-01 -2.680018916726112366e-02 -4.041817411780357361e-02 -2.016550861299037933e-02 3.122098557651042938e-02
4.440000000000000000e+02 8.357096672058105469e+00 7.064750790596008301e-01 -3.723601996898651123e-01 5.225385427474975586e-01 4.505349695682525635e-02 -5.407862663269042969e-01
4.450000000000000000e+02 8.270479202270507812e+00 -1.023632287979125977e+00 3.882192373275756836e+00 1.739771604537963867e+00 1.686589121818542480e+00 3.028075933456420898e+00
4.460000000000000000e+02 7.560356140136718750e+00 -5.348212122917175293e-01 2.166232168674468994e-01 1.916308552026748657e-01 1.224762201309204102e-01 4.270754158496856689e-01
4.470000000000000000e+02 7.259362220764160156e+00 1.051796913146972656e+00 -4.778459370136260986e-01 1.963168084621429443e-01 -8.445873856544494629e-02 2.985156886279582977e-02
4.480000000000000000e+02 7.634734630584716797e+00 -7.674847245216369629e-01 1.293896675109863281e+00 3.511287271976470947e-01 4.935076236724853516e-01 9.354435801506042480e-01
4.490000000000000000e+02 7.500674247741699219e+00 -1.233047172427177429e-01 -1.886157870292663574e+00 3.435201942920684814e-02 -5.555417537689208984e-01 5.119939520955085754e-02
4.500000000000000000e+02 8.504671096801757812e+00 -5.204694271087646484e-01 2.861261367797851562e+00 8.413543105125427246e-01 1.110784649848937988e+00 1.783484816551208496e+00
4.510000000000000000e+02 8.111049652099609375e+00 1.055274009704589844e+00 1.034474968910217285e+00 8.559734225273132324e-01 5.671344995498657227e-01 -1.015735268592834473e+00
4.520000000000000000e+02 7.257553100585937500e+00 -1.072890400886535645e+00 1.528606653213500977e+00 5.941507220268249512e-01 6.368272304534912109e-01 1.121034264564514160e+00
4.530000000000000000e+02 7.485047340393066406e+00 1.028296947479248047e+00 -2.374286055564880371e-01 2.045592069625854492e-01 -9.860821068286895752e-03 -4.779655858874320984e-02
4.540000000000000000e+02 7.503221988677978516e+00 -3.444402813911437988e-01 -8.951613306999206543e-01 9.272734634578227997e-03 -2.657665908336639404e-01 1.717965602874755859e-01
4.550000000000000000e+02 7.271910309791564941e-01 -4.768870770931243896e-01 -6.598718464374542236e-02 -2.426884509623050690e-02 -2.707680687308311462e-02 -7.643563300371170044e-02
4.560000000000000000e+02 5.073539614677429199e-01 3.733407557010650635e-01 -3.226136416196823120e-02 -3.879874944686889648e-02 -2.131803333759307861e-02 3.319922834634780884e-02
4.570000000000000000e+02 5.345447063446044922e-01 -5.940663814544677734e-01 -4.279150813817977905e-02 -6.396201997995376587e-02 -3.202605992555618286e-02 -6.900445371866226196e-02
4.580000000000000000e+02 8.786366462707519531e+00 -1.085190057754516602e+00 5.406315803527832031e+00 4.342346191406250000e+00 2.924598455429077148e+00 5.452506542205810547e+00
4.590000000000000000e+02 8.593629837036132812e+00 -1.034714937210083008e+00 4.949456691741943359e+00 2.755792140960693359e+00 2.311574697494506836e+00 4.330048084259033203e+00
4.600000000000000000e+02 6.814255237579345703e+00 -9.600764513015747070e-01 6.840776205062866211e-01 2.899728715419769287e-01 2.922151386737823486e-01 5.765359997749328613e-01
4.610000000000000000e+02 6.570720672607421875e+00 6.667274236679077148e-01 -2.304754018783569336e+00 -1.625747978687286377e-02 -6.963034868240356445e-01 4.620336890220642090e-01
4.620000000000000000e+02 1.317675113677978516e+00 -7.443127632141113281e-01 -1.623030304908752441e-01 -3.651742264628410339e-02 -5.964613705873489380e-02 -1.917256563901901245e-01
4.630000000000000000e+02 1.223283410072326660e+00 8.314480781555175781e-01 -1.914988309144973755e-01 -1.160022541880607605e-01 -9.225032478570938110e-02 2.846002280712127686e-01
4.640000000000000000e+02 1.124009132385253906e+00 9.628332853317260742e-01 -1.858791708946228027e-01 -1.555276960134506226e-01 -1.024220660328865051e-01 2.998927235603332520e-01
4.650000000000000000e+02 1.105970025062561035e+00 -1.018557906150817871e+00 -9.850542992353439331e-02 -7.770867645740509033e-02 -5.286423116922378540e-02 -2.064160853624343872e-01
4.660000000000000000e+02 6.378637790679931641e+00 -9.857322573661804199e-01 3.189231753349304199e-01 1.928594559431076050e-01 1.535347849130630493e-01 3.356088995933532715e-01
4.670000000000000000e+02 5.866957187652587891e+00 1.163851737976074219e+00 -7.951421737670898438e-01 1.659768447279930115e-02 -2.335633486509323120e-01 5.002505183219909668e-01
4.680000000000000000e+02 1.514773011207580566e+00 -7.613509893417358398e-01 -1.952237188816070557e-01 -4.755746573209762573e-02 -7.283435016870498657e-02 -2.091568708419799805e-01
4.690000000000000000e+02 1.444802045822143555e+00 9.431028366088867188e-01 -2.512548863887786865e-01 -1.255246400833129883e-01 -1.130338609218597412e-01 3.522338271141052246e-01
4.700000000000000000e+02 5.619352817535400391e+00 7.003617882728576660e-01 -2.008709430694580078e+00 -1.406534947454929352e-02 -6.068323850631713867e-01 4.770655333995819092e-01
4.710000000000000000e+02 5.872273445129394531e+00 -6.479326486587524414e-01 -7.156942486763000488e-01 6.116331368684768677e-02 -1.963592767715454102e-01 -5.070158280432224274e-03
4.720000000000000000e+02 1.927343726158142090e+00 -8.159897327423095703e-01 -2.710058093070983887e-01 -2.803689613938331604e-02 -8.971281349658966064e-02 -2.544262111186981201e-01
4.730000000000000000e+02 1.836697220802307129e+00 4.731300473213195801e-01 -4.616179168224334717e-01 -1.453478913754224777e-02 -1.428458094596862793e-01 2.473534941673278809e-01
4.740000000000000000e+02 4.484950065612792969e+00 -4.092569947242736816e-01 -1.144564509391784668e+00 1.176915504038333893e-02 -3.398386240005493164e-01 -1.282650530338287354e-01
4.750000000000000000e+02 5.682041645050048828e+00 4.423465132713317871e-01 -2.679990768432617188e+00 -2.844366058707237244e-02 -8.125303387641906738e-01 3.616630136966705322e-01
4.760000000000000000e+02 2.226099729537963867e+00 -6.453637480735778809e-01 -3.817022740840911865e-01 -9.871591813862323761e-03 -1.174721568822860718e-01 -2.233674526214599609e-01
4.770000000000000000e+02 2.478810548782348633e+00 4.491901397705078125e-01 -7.912543416023254395e-01 -2.879874221980571747e-02 -2.460159212350845337e-01 2.686501443386077881e-01
4.780000000000000000e+02 5.702065944671630859e+00 9.720186591148376465e-01 -1.347683668136596680e+00 8.383836830034852028e-04 -4.040535688400268555e-01 5.330142974853515625e-01
4.790000000000000000e+02 9.861344695091247559e-01 4.200553297996520996e-01 -1.445387899875640869e-01 -3.973179310560226440e-02 -5.528117716312408447e-02 1.218772083520889282e-01
4.800000000000000000e+02 6.865882396697998047e+00 -6.946779489517211914e-01 -1.022406038828194141e-03 1.186470612883567810e-01 3.528739511966705322e-02 2.988238930702209473e-01
4.810000000000000000e+02 2.091331005096435547e+00 -1.111598134040832520e+00 -1.931656897068023682e-01 -3.291495516896247864e-02 -6.782419234514236450e-02 -2.985479533672332764e-01
4.820000000000000000e+02 7.375257492065429688e+00 -5.870767831802368164e-01 1.800823658704757690e-01 1.329912394285202026e-01 9.392207860946655273e-02 4.109203517436981201e-01
4.830000000000000000e+02 8.118208885192871094e+00 7.375722527503967285e-01 -7.792642116546630859e-01 2.263934612274169922e-01 -1.658612191677093506e-01 -2.296274900436401367e-01
4.840000000000000000e+02 7.182654380798339844e+00 8.083785176277160645e-01 -1.521935343742370605e+00 5.448666401207447052e-03 -4.549459815025329590e-01 3.306887149810791016e-01
4.850000000000000000e+02 8.061659812927246094e+00 -7.544200420379638672e-01 2.368042707443237305e+00 6.023533940315246582e-01 8.911188840866088867e-01 1.570621371269226074e+00
4.860000000000000000e+02 2.288366317749023438e+00 1.105708003044128418e+00 -4.317254424095153809e-01 -7.370354980230331421e-02 -1.516287028789520264e-01 5.267025828361511230e-01
4.870000000000000000e+02 1.893611550331115723e+00 8.765718936920166016e-01 -4.105097651481628418e-01 -5.685960128903388977e-02 -1.402108073234558105e-01 3.879671692848205566e-01
4.880000000000000000e+02 5.572792530059814453e+00 -1.114845037460327148e+00 6.170681491494178772e-02 1.349306702613830566e-01 5.899124220013618469e-02 7.767544686794281006e-02
4.890000000000000000e+02 3.494744300842285156e+00 -7.762568593025207520e-01 -5.789312124252319336e-01 1.099438685923814774e-02 -1.703810393810272217e-01 -2.421150058507919312e-01
4.900000000000000000e+02 4.491045475006103516e+00 -1.396871507167816162e-01 -1.524258494377136230e+00 -1.777472207322716713e-03 -4.578107893466949463e-01 -5.478891730308532715e-02
4.910000000000000000e+02 6.093074798583984375e+00 -6.247726082801818848e-01 -6.928346753120422363e-01 4.112586006522178650e-02 -1.955126374959945679e-01 1.816384494304656982e-02
4.920000000000000000e+02 1.616156101226806641e+00 4.187647104263305664e-01 -3.618588149547576904e-01 -4.924971982836723328e-02 -1.233325600624084473e-01 2.020293325185775757e-01
4.930000000000000000e+02 8.265336036682128906e+00 -7.771984934806823730e-01 3.034093379974365234e+00 9.340675473213195801e-01 1.190448284149169922e+00 2.119162321090698242e+00
4.940000000000000000e+02 3.040254831314086914e+00 -6.597338318824768066e-01 -5.646634101867675781e-01 5.077397217974066734e-04 -1.692466884851455688e-01 -2.331605255603790283e-01
4.950000000000000000e+02 3.182293653488159180e+00 -1.286990880966186523e+00 -1.781172305345535278e-01 2.935247309505939484e-02 -4.462942481040954590e-02 -3.031985163688659668e-01
4.960000000000000000e+02 3.700124979019165039e+00 -8.394787311553955078e-01 -5.544618368148803711e-01 1.596051082015037537e-02 -1.615504026412963867e-01 -2.454508394002914429e-01
4.970000000000000000e+02 3.234292745590209961e+00 -8.975617885589599609e-01 -4.487315416336059570e-01 7.115866988897323608e-03 -1.324847042560577393e-01 -2.655601203441619873e-01
4.980000000000000000e+02 4.274090766906738281e+00 6.616340279579162598e-01 -1.536446928977966309e+00 -2.626987732946872711e-02 -4.688150286674499512e-01 4.411246478557586670e-01
4.990000000000000000e+02 4.685798168182373047e+00 8.589065670967102051e-01 -1.379246830940246582e+00 -4.822040908038616180e-03 -4.152206480503082275e-01 5.576163530349731445e-01
5.000000000000000000e+02 4.787053108215332031e+00 -5.285969376564025879e-01 -1.016985177993774414e+00 6.122252438217401505e-03 -3.032588660717010498e-01 -1.298277080059051514e-01
5.010000000000000000e+02 5.083986759185791016e+00 3.485971391201019287e-01 -2.551997423171997070e+00 5.451454780995845795e-03 -7.639637589454650879e-01 2.842683792114257812e-01
5.020000000000000000e+02 3.631146907806396484e+00 8.523319959640502930e-01 -1.051487803459167480e+00 -2.737847343087196350e-02 -3.236598968505859375e-01 5.251289010047912598e-01
5.030000000000000000e+02 4.899170875549316406e+00 1.217303648591041565e-01 -2.822104692459106445e+00 -9.171624697046354413e-05 -8.466589450836181641e-01 1.109536364674568176e-01
5.040000000000000000e+02 4.058701515197753906e+00 -3.757579624652862549e-01 -1.079969644546508789e+00 2.917702076956629753e-03 -3.231155574321746826e-01 -1.419291198253631592e-01
5.050000000000000000e+02 4.264520168304443359e+00 -4.013584554195404053e-01 -1.096618175506591797e+00 7.681285496801137924e-03 -3.266810774803161621e-01 -1.382319331169128418e-01
5.060000000000000000e+02 3.877544403076171875e+00 -3.376358151435852051e-01 -1.062905907630920410e+00 1.287287683226168156e-03 -3.184855878353118896e-01 -1.368654817342758179e-01
5.070000000000000000e+02 3.712341070175170898e+00 1.157479882240295410e+00 -7.441911697387695312e-01 -2.632578462362289429e-02 -2.311550974845886230e-01 5.978320240974426270e-01
5.080000000000000000e+02 4.289303779602050781e+00 -1.402549445629119873e-01 -1.450143814086914062e+00 5.065220873802900314e-03 -4.335235655307769775e-01 -5.721863731741905212e-02
5.090000000000000000e+02 7.154691219329833984e-01 1.531558632850646973e-01 -3.898086771368980408e-02 -5.394772160798311234e-03 -1.331269182264804840e-02 2.352403104305267334e-02
5.100000000000000000e+02 1.283971667289733887e+00 1.132958233356475830e-01 -2.014628052711486816e-01 2.052094601094722748e-02 -5.428256094455718994e-02 4.620507359504699707e-02
5.110000000000000000e+02 1.194373726844787598e+00 2.879570126533508301e-01 -2.052794247865676880e-01 -2.784740924835205078e-02 -6.993804872035980225e-02 1.101506128907203674e-01
5.120000000000000000e+02 1.338330149650573730e+00 5.902330279350280762e-01 -2.580862641334533691e-01 -5.853392556309700012e-02 -9.498605877161026001e-02 2.144151479005813599e-01
5.130000000000000000e+02 2.866396605968475342e-01 -1.433311402797698975e-01 -1.486642053350806236e-03 -6.492243614047765732e-03 -2.393665723502635956e-03 -3.900745417922735214e-03
5.140000000000000000e+02 9.295687675476074219e-01 -4.499128460884094238e-01 -1.029050499200820923e-01 -3.179412335157394409e-02 -4.040975123643875122e-02 -9.253628551959991455e-02
5.150000000000000000e+02 1.123660087585449219e+00 -4.487942457199096680e-01 -1.424860805273056030e-01 -1.591863110661506653e-02 -4.752141609787940979e-02 -1.116450726985931396e-01
5.160000000000000000e+02 1.509488821029663086e+00 -1.704776585102081299e-01 -2.568250000476837158e-01 -9.071320295333862305e-03 -7.976889610290527344e-02 -5.452325567603111267e-02
5.170000000000000000e+02 1.318691968917846680e+00 -4.570011496543884277e-01 -1.878047734498977661e-01 -2.649653330445289612e-02 -6.429039686918258667e-02 -1.276780962944030762e-01
5.180000000000000000e+02 1.519290566444396973e+00 -4.702608585357666016e-01 -2.376644462347030640e-01 -1.443667616695165634e-02 -7.563033699989318848e-02 -1.472640931606292725e-01
5.190000000000000000e+02 2.330801010131835938e+00 -1.092834845185279846e-01 -5.940478444099426270e-01 7.877359166741371155e-03 -1.758511513471603394e-01 -4.186927527189254761e-02
5.200000000000000000e+02 2.330002546310424805e+00 -4.076521396636962891e-01 -4.956790208816528320e-01 -9.251047740690410137e-04 -1.489812284708023071e-01 -1.624508202075958252e-01
5.210000000000000000e+02 2.854635238647460938e+00 -3.763575851917266846e-01 -6.838604211807250977e-01 -8.348439820110797882e-03 -2.076626569032669067e-01 -1.511945873498916626e-01
5.220000000000000000e+02 2.888637542724609375e+00 -1.353092640638351440e-01 -8.478888273239135742e-01 -9.526033885776996613e-03 -2.572244405746459961e-01 -5.533568561077117920e-02
5.230000000000000000e+02 3.525556325912475586e+00 -4.008805751800537109e-01 -8.896665573120117188e-01 -1.969871111214160919e-03 -2.674909234046936035e-01 -1.585474759340286255e-01
5.240000000000000000e+02 3.712824344635009766e+00 -3.425129950046539307e-01 -1.000482082366943359e+00 5.307227373123168945e-03 -2.985524833202362061e-01 -1.363922208547592163e-01
5.250000000000000000e+02 3.153147101402282715e-01 -1.170158624649047852e+00 1.385275833308696747e-02 -1.490349173545837402e-01 -4.055464640259742737e-02 -6.979943811893463135e-02
5.260000000000000000e+02 1.098998665809631348e+00 1.383973240852355957e+00 -1.382186114788055420e-01 -2.412309199571609497e-01 -1.138348579406738281e-01 3.628035485744476318e-01
5.270000000000000000e+02 9.132696986198425293e-01 1.139184236526489258e+00 -1.147246584296226501e-01 -2.179089188575744629e-01 -9.979007393121719360e-02 2.768341600894927979e-01
5.280000000000000000e+02 1.297700524330139160e+00 1.380959510803222656e+00 -1.612133532762527466e-01 -2.018596231937408447e-01 -1.089218929409980774e-01 4.162792265415191650e-01
5.290000000000000000e+02 2.104677677154541016e+00 1.142934083938598633e+00 -3.769056200981140137e-01 -1.002053841948509216e-01 -1.431332975625991821e-01 5.029768943786621094e-01
5.300000000000000000e+02 2.105922222137451172e+00 1.380057573318481445e+00 -2.994167506694793701e-01 -1.125071793794631958e-01 -1.235771775245666504e-01 5.706343054771423340e-01
5.310000000000000000e+02 2.472120761871337891e+00 8.260114192962646484e-01 -6.285217404365539551e-01 -3.109746798872947693e-02 -1.978857517242431641e-01 4.607489109039306641e-01
5.320000000000000000e+02 2.684350728988647461e+00 1.070449829101562500e+00 -5.522820949554443359e-01 -4.438552632927894592e-02 -1.790002882480621338e-01 5.738168954849243164e-01
5.330000000000000000e+02 5.014388561248779297e-01 -1.180073738098144531e+00 -2.222138829529285431e-02 -1.826379746198654175e-01 -6.145780906081199646e-02 -1.386899352073669434e-01
5.340000000000000000e+02 1.898589730262756348e+00 -1.361667275428771973e+00 -1.154349744319915771e-01 -6.168381497263908386e-02 -5.313563719391822815e-02 -3.097745478153228760e-01
5.350000000000000000e+02 2.706937789916992188e+00 -1.351746082305908203e+00 -1.465821266174316406e-01 2.379855839535593987e-03 -4.326068237423896790e-02 -3.122816681861877441e-01
5.360000000000000000e+02 3.278998136520385742e+00 -1.419653534889221191e+00 -1.303823143243789673e-01 3.463028371334075928e-02 -2.872560918331146240e-02 -2.999345362186431885e-01
5.370000000000000000e+02 3.459973573684692383e+00 -1.375302791595458984e+00 -1.598230898380279541e-01 4.953443259000778198e-02 -3.308659419417381287e-02 -2.811164557933807373e-01
5.380000000000000000e+02 3.894383430480957031e+00 -1.369561672210693359e+00 -9.230060875415802002e-02 8.100008964538574219e-02 -3.390155732631683350e-03 -2.137294262647628784e-01
5.390000000000000000e+02 4.101588249206542969e+00 -1.380870103836059570e+00 -4.828392341732978821e-02 1.058905199170112610e-01 1.728197745978832245e-02 -1.753645986318588257e-01
5.400000000000000000e+02 4.473862648010253906e+00 -1.373406052589416504e+00 -2.629317110404372215e-03 1.266250610351562500e-01 3.719872236251831055e-02 -9.809204936027526855e-02
5.410000000000000000e+02 4.413926601409912109e+00 -9.825900197029113770e-01 -3.948379755020141602e-01 5.496731027960777283e-02 -1.019612029194831848e-01 -1.784106194972991943e-01
5.420000000000000000e+02 4.651007652282714844e+00 -1.034792780876159668e+00 -3.006882667541503906e-01 7.400408387184143066e-02 -6.800525635480880737e-02 -1.427598595619201660e-01
5.430000000000000000e+02 2.698109626770019531e+00 1.353659868240356445e+00 -4.020307660102844238e-01 -8.415612578392028809e-02 -1.458560675382614136e-01 5.943319797515869141e-01
5.440000000000000000e+02 3.203837871551513672e+00 1.046766161918640137e+00 -7.189450263977050781e-01 -1.937245018780231476e-02 -2.214952409267425537e-01 5.829469561576843262e-01
5.450000000000000000e+02 3.536650180816650391e+00 1.156954050064086914e+00 -6.962525844573974609e-01 -2.287198416888713837e-02 -2.157373726367950439e-01 6.155853867530822754e-01
5.460000000000000000e+02 3.511688947677612305e+00 1.383489131927490234e+00 -5.226451158523559570e-01 -3.291400894522666931e-02 -1.666677296161651611e-01 6.342300176620483398e-01
5.470000000000000000e+02 4.290624618530273438e+00 1.364819407463073730e+00 -5.875240564346313477e-01 -1.015401165932416916e-02 -1.793034225702285767e-01 6.098375320434570312e-01
5.480000000000000000e+02 4.488964080810546875e+00 1.358513236045837402e+00 -5.934007167816162109e-01 1.197388954460620880e-02 -1.744280457496643066e-01 6.067756414413452148e-01
5.490000000000000000e+02 4.898042678833007812e+00 1.361506700515747070e+00 -5.849123001098632812e-01 1.619269885122776031e-02 -1.706158667802810669e-01 5.742201209068298340e-01
5.500000000000000000e+02 5.317640781402587891e+00 1.127145648002624512e+00 -9.829921126365661621e-01 2.582229208201169968e-03 -2.941229641437530518e-01 5.411827564239501953e-01
5.510000000000000000e+02 5.302229404449462891e+00 1.374965667724609375e+00 -4.731647372245788574e-01 4.261924326419830322e-02 -1.291636526584625244e-01 5.344831943511962891e-01
5.520000000000000000e+02 6.038267612457275391e+00 1.127481818199157715e+00 -8.616100549697875977e-01 5.843369290232658386e-02 -2.409529089927673340e-01 4.678248465061187744e-01
5.530000000000000000e+02 5.891308784484863281e+00 1.382144212722778320e+00 -3.232249319553375244e-01 8.101176470518112183e-02 -7.266394793987274170e-02 3.540479540824890137e-01
5.540000000000000000e+02 5.990163803100585938e+00 9.407597780227661133e-01 -1.445190191268920898e+00 -1.014128865790553391e-04 -4.335874617099761963e-01 5.009073019027709961e-01
5.550000000000000000e+02 6.492058277130126953e+00 1.148414731025695801e+00 -5.904452204704284668e-01 1.033828780055046082e-01 -1.461187005043029785e-01 3.125875890254974365e-01
5.560000000000000000e+02 6.495021343231201172e+00 1.377065539360046387e+00 2.188529446721076965e-02 1.742582917213439941e-01 5.884307622909545898e-02 2.055956870317459106e-01
5.570000000000000000e+02 6.886942863464355469e+00 1.372913599014282227e+00 3.593851625919342041e-01 2.765820622444152832e-01 1.907901614904403687e-01 -9.060237556695938110e-03
5.580000000000000000e+02 7.049162387847900391e+00 1.097934365272521973e+00 -4.402390420436859131e-01 1.528137773275375366e-01 -8.622758090496063232e-02 1.271419674158096313e-01
5.590000000000000000e+02 7.699464797973632812e+00 1.070272088050842285e+00 2.584812343120574951e-01 4.141392707824707031e-01 2.017861455678939819e-01 -3.628121316432952881e-01
5.600000000000000000e+02 7.895280361175537109e+00 1.076510429382324219e+00 6.420302987098693848e-01 5.140132308006286621e-01 3.468130528926849365e-01 -5.625989437103271484e-01
5.610000000000000000e+02 8.438706398010253906e+00 9.416235089302062988e-01 1.321935653686523438e+00 1.040674090385437012e+00 7.087829709053039551e-01 -1.455464720726013184e+00
5.620000000000000000e+02 8.499334335327148438e+00 1.141542434692382812e+00 2.599953651428222656e+00 2.003784179687500000e+00 1.381121277809143066e+00 -2.304477691650390625e+00
5.630000000000000000e+02 8.500323295593261719e+00 1.375605583190917969e+00 3.055813074111938477e+00 2.662716865539550781e+00 1.715559005737304688e+00 -2.714659214019775391e+00
5.640000000000000000e+02 9.372192382812500000e+00 1.157221794128417969e+00 3.928212881088256836e+00 9.571519851684570312e+00 4.049919605255126953e+00 -6.511622428894042969e+00
5.650000000000000000e+02 1.009897041320800781e+01 1.360965251922607422e+00 2.286938905715942383e+00 2.092906761169433594e+01 6.964801788330078125e+00 -4.132664680480957031e+00
5.660000000000000000e+02 1.029183864593505859e+01 1.070809483528137207e+00 2.224381446838378906e+00 2.568409347534179688e+01 8.372542381286621094e+00 -2.005737066268920898e+00
5.670000000000000000e+02 1.094621753692626953e+01 1.065440058708190918e+00 4.673039913177490234e+00 2.553789138793945312e+01 9.063279151916503906e+00 3.037907600402832031e+00
5.680000000000000000e+02 1.105038261413574219e+01 9.287655949592590332e-01 6.196846485137939453e+00 2.554132080078125000e+01 9.521450042724609375e+00 3.704116821289062500e+00
5.690000000000000000e+02 1.134867191314697266e+01 4.438386559486389160e-01 9.888451576232910156e+00 2.280205917358398438e+01 9.807153701782226562e+00 3.979921817779541016e+00
5.700000000000000000e+02 1.137658119201660156e+01 1.111932620406150818e-01 1.158354663848876953e+01 2.144208335876464844e+01 9.907689094543457031e+00 2.127149343490600586e+00
5.710000000000000000e+02 1.135768222808837891e+01 -8.660465478897094727e-02 1.137039470672607422e+01 2.257330131530761719e+01 1.018310832977294922e+01 1.388489246368408203e+00
5.720000000000000000e+02 1.114956474304199219e+01 -7.495307922363281250e-01 8.084506034851074219e+00 2.326448249816894531e+01 9.404696464538574219e+00 -1.407494306564331055e+00
5.730000000000000000e+02 1.055389499664306641e+01 -9.605528712272644043e-01 4.590659618377685547e+00 2.715588188171386719e+01 9.523962020874023438e+00 9.522023200988769531e-01
5.740000000000000000e+02 9.789915084838867188e+00 -1.310788512229919434e+00 3.203824996948242188e+00 1.831813240051269531e+01 6.456587314605712891e+00 7.926331520080566406e+00
5.750000000000000000e+02 9.878663063049316406e+00 -1.433499455451965332e+00 2.396283626556396484e+00 1.923871040344238281e+01 6.490498065948486328e+00 6.949704170227050781e+00
5.760000000000000000e+02 9.613013267517089844e+00 -1.223307251930236816e+00 4.350354194641113281e+00 1.577530765533447266e+01 6.037698745727539062e+00 8.713922500610351562e+00
5.770000000000000000e+02 9.401084899902343750e+00 -1.164552330970764160e+00 5.547102928161621094e+00 1.175580310821533203e+01 5.190871715545654297e+00 8.776073455810546875e+00
5.780000000000000000e+02 9.330183982849121094e+00 -1.384363412857055664e+00 4.511531352996826172e+00 1.132034969329833984e+01 4.749564170837402344e+00 7.921298027038574219e+00
5.790000000000000000e+02 8.930303573608398438e+00 -1.360448479652404785e+00 5.049625396728515625e+00 6.889321804046630859e+00 3.581684112548828125e+00 6.578976154327392578e+00
5.800000000000000000e+02 8.432847976684570312e+00 -8.934742808341979980e-01 4.004170417785644531e+00 1.715737700462341309e+00 1.715972423553466797e+00 3.059897422790527344e+00
5.810000000000000000e+02 7.889681339263916016e+00 -1.347106099128723145e+00 3.285346508026123047e+00 1.826232075691223145e+00 1.533473610877990723e+00 2.772114038467407227e+00
5.820000000000000000e+02 7.666182994842529297e+00 -1.057257175445556641e+00 2.392278432846069336e+00 8.581883907318115234e-01 9.751400947570800781e-01 1.680728197097778320e+00
5.830000000000000000e+02 7.463826179504394531e+00 -1.071149468421936035e+00 1.923245072364807129e+00 6.475650668144226074e-01 7.712430357933044434e-01 1.311753273010253906e+00
5.840000000000000000e+02 7.487630367279052734e+00 -1.353373289108276367e+00 2.518687963485717773e+00 1.167393207550048828e+00 1.105824351310729980e+00 1.949300408363342285e+00
5.850000000000000000e+02 6.558133602142333984e+00 -1.260167956352233887e+00 1.053916096687316895e+00 4.244053959846496582e-01 4.434964358806610107e-01 7.127466797828674316e-01
5.860000000000000000e+02 6.502818107604980469e+00 -1.416561841964721680e+00 1.186437249183654785e+00 5.303654074668884277e-01 5.150408148765563965e-01 8.176376819610595703e-01
5.870000000000000000e+02 5.915615558624267578e+00 -1.386669874191284180e+00 6.763036251068115234e-01 3.047080636024475098e-01 2.943035066127777100e-01 3.962653577327728271e-01
5.880000000000000000e+02 6.147385597229003906e+00 -1.184150934219360352e+00 4.972352981567382812e-01 2.486007213592529297e-01 2.237508147954940796e-01 3.635347485542297363e-01
5.890000000000000000e+02 5.952733516693115234e+00 -1.164222836494445801e+00 3.436377346515655518e-01 1.914575695991516113e-01 1.605285853147506714e-01 2.665309309959411621e-01
5.900000000000000000e+02 2.070889949798583984e+00 4.941557049751281738e-01 -5.741277337074279785e-01 -3.118805959820747375e-02 -1.815947443246841431e-01 2.755159735679626465e-01
5.910000000000000000e+02 4.889294624328613281e+00 -1.243731975555419922e-01 -1.663396239280700684e+00 -6.839496549218893051e-03 -5.010707378387451172e-01 -4.697211086750030518e-02
5.920000000000000000e+02 5.086661815643310547e+00 -1.319323629140853882e-01 -1.732081890106201172e+00 2.255103085190057755e-03 -5.189480185508728027e-01 -4.966606199741363525e-02
5.930000000000000000e+02 5.283787727355957031e+00 -1.421496123075485229e-01 -1.792972087860107422e+00 5.134415114298462868e-04 -5.377376079559326172e-01 -4.725727438926696777e-02
5.940000000000000000e+02 5.454619407653808594e+00 -4.220358133316040039e-01 -1.228290796279907227e+00 1.792453927919268608e-03 -3.679495155811309814e-01 -9.167968481779098511e-02
5.950000000000000000e+02 5.032251358032226562e+00 -9.147278070449829102e-01 -4.063722789287567139e-01 6.835054606199264526e-02 -1.014065220952033997e-01 -8.674770593643188477e-02
5.960000000000000000e+02 5.672704696655273438e+00 -4.032779037952423096e-01 -1.278219819068908691e+00 1.943472214043140411e-02 -3.776355385780334473e-01 -7.425718009471893311e-02
5.970000000000000000e+02 5.689333438873291016e+00 -1.425580382347106934e-01 -1.889185786247253418e+00 -4.279136192053556442e-03 -5.680394768714904785e-01 -4.134790226817131042e-02
5.980000000000000000e+02 6.094984531402587891e+00 -1.345948725938796997e-01 -1.969594717025756836e+00 -4.606807604432106018e-03 -5.922604799270629883e-01 -3.401906415820121765e-02
5.990000000000000000e+02 6.499288082122802734e+00 -3.624794781208038330e-01 -1.279929518699645996e+00 2.258817479014396667e-02 -3.772024214267730713e-01 1.799133024178445339e-03
6.000000000000000000e+02 6.500439167022705078e+00 -1.290287375450134277e-01 -2.028297424316406250e+00 -1.189888804219663143e-03 -6.088461875915527344e-01 -2.484250813722610474e-02
6.010000000000000000e+02 6.907692909240722656e+00 -4.148274362087249756e-01 -9.125820994377136230e-01 5.286632105708122253e-02 -2.579147517681121826e-01 1.042122542858123779e-01
6.020000000000000000e+02 6.903815746307373047e+00 -1.389468610286712646e-01 -2.044988393783569336e+00 -1.342708710581064224e-02 -6.175246834754943848e-01 -1.595001667737960815e-02
6.030000000000000000e+02 7.121029853820800781e+00 -4.067460894584655762e-01 -8.146444559097290039e-01 3.122743032872676849e-02 -2.350251078605651855e-01 1.163667067885398865e-01
6.040000000000000000e+02 7.673297882080078125e+00 -3.812748491764068604e-01 -3.781324923038482666e-01 1.679868996143341064e-01 -6.304367631673812866e-02 3.552860617637634277e-01
6.050000000000000000e+02 8.090831756591796875e+00 -4.654213786125183105e-01 1.029143691062927246e+00 2.135392427444458008e-01 3.728048801422119141e-01 7.791018486022949219e-01
6.060000000000000000e+02 8.513357162475585938e+00 -9.385216236114501953e-02 -1.100577354431152344e+00 9.793926030397415161e-03 -3.272350132465362549e-01 5.792364105582237244e-02
6.070000000000000000e+02 8.694006919860839844e+00 -9.929644316434860229e-02 -5.593072175979614258e-01 2.036230415105819702e-01 -1.067052558064460754e-01 3.306396007537841797e-01
6.080000000000000000e+02 8.780900955200195312e+00 -5.805974006652832031e-01 4.812315940856933594e+00 1.424376487731933594e+00 1.871007680892944336e+00 2.989999055862426758e+00
6.090000000000000000e+02 9.002408027648925781e+00 -5.003924965858459473e-01 6.017510890960693359e+00 1.612640500068664551e+00 2.289045333862304688e+00 3.805617094039916992e+00
6.100000000000000000e+02 2.677865982055664062e+00 4.797182679176330566e-01 -8.697803616523742676e-01 -4.595056176185607910e-03 -2.623126208782196045e-01 3.026929199695587158e-01
6.110000000000000000e+02 3.502223491668701172e+00 1.595564931631088257e-01 -1.637580275535583496e+00 -1.283994130790233612e-02 -4.951260685920715332e-01 1.205518990755081177e-01
6.120000000000000000e+02 4.110939979553222656e+00 1.544675827026367188e-01 -2.126380920410156250e+00 5.042289849370718002e-03 -6.364015340805053711e-01 1.302956193685531616e-01
6.130000000000000000e+02 4.331385135650634766e+00 4.170958399772644043e-01 -1.930742263793945312e+00 -8.425139822065830231e-04 -5.794754028320312500e-01 3.293173313140869141e-01
6.140000000000000000e+02 4.723761558532714844e+00 6.832276582717895508e-01 -1.678331375122070312e+00 -1.192226726561784744e-02 -5.070760846138000488e-01 4.508513212203979492e-01
6.150000000000000000e+02 5.272310256958007812e+00 3.729754388332366943e-01 -2.628710985183715820e+00 -1.687262579798698425e-02 -7.936751246452331543e-01 3.071320354938507080e-01
6.160000000000000000e+02 5.293497562408447266e+00 1.325630992650985718e-01 -3.166697978973388672e+00 -4.845031071454286575e-03 -9.514629244804382324e-01 1.153381541371345520e-01
6.170000000000000000e+02 5.232282638549804688e+00 6.048842072486877441e-01 -2.094068527221679688e+00 -1.018826756626367569e-02 -6.312770843505859375e-01 4.397710561752319336e-01
6.180000000000000000e+02 8.746415138244628906e+00 3.600572347640991211e-01 -3.031354665756225586e+00 -4.002739489078521729e-02 -9.214146137237548828e-01 -9.284396469593048096e-02
6.190000000000000000e+02 8.305797576904296875e+00 1.427644640207290649e-01 -6.376520156860351562e+00 5.020216479897499084e-02 -1.897895455360412598e+00 2.697897553443908691e-01
6.200000000000000000e+02 7.901810646057128906e+00 1.449706256389617920e-01 -5.875628948211669922e+00 8.318929374217987061e-02 -1.737731814384460449e+00 2.068598568439483643e-01
6.210000000000000000e+02 7.500181674957275391e+00 4.128713011741638184e-01 -3.692344903945922852e+00 -7.962993532419204712e-02 -1.131592392921447754e+00 3.746519386768341064e-01
6.220000000000000000e+02 7.501165390014648438e+00 1.396588683128356934e-01 -5.381918430328369141e+00 -6.379099795594811440e-04 -1.614766955375671387e+00 1.850264668464660645e-01
6.230000000000000000e+02 6.921849727630615234e+00 3.830473423004150391e-01 -3.600710391998291016e+00 -1.126384735107421875e-02 -1.083592295646667480e+00 3.304310739040374756e-01
6.240000000000000000e+02 6.729214191436767578e+00 3.933477997779846191e-01 -3.469146013259887695e+00 -1.695586927235126495e-02 -1.045830607414245605e+00 3.647388815879821777e-01
6.250000000000000000e+02 6.333845615386962891e+00 4.256263971328735352e-01 -3.134782314300537109e+00 -1.088933460414409637e-02 -9.437015056610107422e-01 3.634668290615081787e-01
6.260000000000000000e+02 6.309340953826904297e+00 1.476686298847198486e-01 -4.095610141754150391e+00 -1.464061322622001171e-03 -1.229122281074523926e+00 1.683811396360397339e-01
6.270000000000000000e+02 5.493331432342529297e+00 1.431408077478408813e-01 -3.340502977371215820e+00 -1.959295384585857391e-02 -1.008028745651245117e+00 1.327497065067291260e-01
6.280000000000000000e+02 8.807046890258789062e+00 5.908421874046325684e-01 1.968561410903930664e-01 9.017740488052368164e-01 3.295890688896179199e-01 -1.253944039344787598e+00
6.290000000000000000e+02 9.641102790832519531e+00 1.027891039848327637e+00 3.358806133270263672e+00 1.460223484039306641e+01 5.388312339782714844e+00 -7.481243610382080078e+00
6.300000000000000000e+02 9.723552703857421875e+00 1.164067268371582031e+00 2.940295219421386719e+00 1.619285583496093750e+01 5.739945411682128906e+00 -6.943130016326904297e+00
6.310000000000000000e+02 9.169920921325683594e+00 -7.426183819770812988e-01 7.404511928558349609e+00 5.169253826141357422e+00 3.772129774093627930e+00 6.870105266571044922e+00
6.320000000000000000e+02 9.013514518737792969e+00 -8.671277761459350586e-01 6.532036781311035156e+00 4.994063377380371094e+00 3.457829952239990234e+00 6.289708137512207031e+00
6.330000000000000000e+02 1.013618946075439453e+01 -1.204873919486999512e+00 2.446092605590820312e+00 2.330702781677246094e+01 7.725935935974121094e+00 5.613985061645507812e+00
6.340000000000000000e+02 1.096621036529541016e+01 -5.681729912757873535e-01 1.015109825134277344e+01 2.464642715454101562e+01 1.043925762176513672e+01 -1.779006719589233398e+00
6.350000000000000000e+02 1.110134124755859375e+01 4.364140033721923828e-01 1.063052272796630859e+01 2.463350868225097656e+01 1.057920932769775391e+01 4.649066925048828125e+00
6.360000000000000000e+02 1.073451900482177734e+01 1.042677521705627441e+00 4.125992774963378906e+00 2.645238876342773438e+01 9.173514366149902344e+00 2.350884914398193359e+00
6.370000000000000000e+02 7.196813225746154785e-01 1.133157849311828613e+00 -7.114477455615997314e-02 -1.815984845161437988e-01 -7.582297921180725098e-02 2.218293100595474243e-01
6.380000000000000000e+02 5.095959901809692383e-01 9.234093427658081055e-01 -2.149468660354614258e-02 -1.345678567886352539e-01 -4.681876301765441895e-02 1.164447963237762451e-01
6.390000000000000000e+02 9.473596811294555664e-01 8.759135007858276367e-01 -1.235104203224182129e-01 -1.003156751394271851e-01 -6.714782863855361938e-02 2.200027853250503540e-01
6.400000000000000000e+02 8.585849761962890625e+00 6.451504826545715332e-01 -1.126300469040870667e-01 4.828528463840484619e-01 1.110668405890464783e-01 -8.026115298271179199e-01
6.410000000000000000e+02 3.430184721946716309e-01 -6.891425848007202148e-01 -1.806134358048439026e-02 -5.713187903165817261e-02 -2.255796641111373901e-02 -4.984492808580398560e-02
6.420000000000000000e+02 8.211489915847778320e-01 -1.136243939399719238e+00 -5.534446984529495239e-02 -1.452048420906066895e-01 -6.016479432582855225e-02 -1.834335029125213623e-01
6.430000000000000000e+02 7.618465423583984375e-01 -8.771122694015502930e-01 -4.756850004196166992e-02 -1.028665229678153992e-01 -4.513050615787506104e-02 -1.381443291902542114e-01
6.440000000000000000e+02 1.128251910209655762e+00 -7.265512347221374512e-01 -1.289376467466354370e-01 -5.981797352433204651e-02 -5.662668496370315552e-02 -1.677289009094238281e-01
6.450000000000000000e+02 7.798145771026611328e+00 8.820459842681884766e-01 -4.829540848731994629e-01 2.915785610675811768e-01 -5.741265416145324707e-02 -1.481781005859375000e-01
6.460000000000000000e+02 7.292043209075927734e+00 6.492977738380432129e-01 -2.228237152099609375e+00 3.079649992287158966e-02 -6.592321991920471191e-01 3.561980724334716797e-01
6.470000000000000000e+02 7.491149425506591797e+00 7.071627378463745117e-01 -1.864845991134643555e+00 6.218857690691947937e-02 -5.407972335815429688e-01 2.549560666084289551e-01
6.480000000000000000e+02 7.897399425506591797e+00 6.969326734542846680e-01 -1.456889033317565918e+00 1.656104475259780884e-01 -3.873835802078247070e-01 3.268414642661809921e-03
6.490000000000000000e+02 7.121828079223632812e+00 6.090865731239318848e-01 -2.620533227920532227e+00 -7.047890219837427139e-03 -7.882742881774902344e-01 3.653086125850677490e-01
6.500000000000000000e+02 6.947204589843750000e+00 6.253395080566406250e-01 -2.551183223724365234e+00 -7.355950772762298584e-03 -7.675617933273315430e-01 4.291040599346160889e-01
6.510000000000000000e+02 6.761960983276367188e+00 6.432615518569946289e-01 -2.430770635604858398e+00 1.399462390691041946e-02 -7.250327467918395996e-01 4.301318228244781494e-01
6.520000000000000000e+02 6.371105194091796875e+00 7.061058282852172852e-01 -2.134809255599975586e+00 -4.479145631194114685e-03 -6.417865157127380371e-01 4.560635387897491455e-01
6.530000000000000000e+02 5.778918266296386719e+00 8.067899346351623535e-01 -1.826261162757873535e+00 -2.126438170671463013e-02 -5.542576909065246582e-01 4.784500300884246826e-01
6.540000000000000000e+02 5.950025081634521484e+00 7.224904298782348633e-01 -1.997306227684020996e+00 -2.225408144295215607e-02 -6.058681011199951172e-01 4.503638446331024170e-01
6.550000000000000000e+02 5.419727802276611328e+00 6.486015915870666504e-01 -2.088364124298095703e+00 -2.547044679522514343e-02 -6.341503858566284180e-01 4.577149152755737305e-01
6.560000000000000000e+02 5.058570861816406250e+00 5.610458850860595703e-01 -2.099144220352172852e+00 -1.055963058024644852e-02 -6.329111456871032715e-01 4.115983843803405762e-01
6.570000000000000000e+02 6.443637371063232422e+00 9.457973241806030273e-01 -1.318824529647827148e+00 4.109083209186792374e-03 -3.944146335124969482e-01 4.072549343109130859e-01
6.580000000000000000e+02 8.837642669677734375e+00 -7.290750741958618164e-01 5.663363456726074219e+00 2.283218383789062500e+00 2.383974552154541016e+00 4.143658638000488281e+00
6.590000000000000000e+02 8.703968048095703125e+00 -8.356453180313110352e-01 5.106125831604003906e+00 2.434530735015869141e+00 2.262197017669677734e+00 3.972563743591308594e+00
6.600000000000000000e+02 8.839380264282226562e+00 -8.827289342880249023e-01 6.041099071502685547e+00 3.418581247329711914e+00 2.837903976440429688e+00 5.194488048553466797e+00
6.610000000000000000e+02 7.849783420562744141e+00 -7.420578598976135254e-01 1.775416612625122070e+00 4.778240919113159180e-01 6.759722232818603516e-01 1.179878711700439453e+00
6.620000000000000000e+02 7.432171344757080078e+00 -8.125846982002258301e-01 1.110800862312316895e+00 4.113354086875915527e-01 4.566408693790435791e-01 8.780308365821838379e-01
6.630000000000000000e+02 7.247812271118164062e+00 -8.348821401596069336e-01 9.210203886032104492e-01 3.143863976001739502e-01 3.706220388412475586e-01 6.976010799407958984e-01
6.640000000000000000e+02 6.707566261291503906e+00 -1.137985229492187500e+00 9.859679341316223145e-01 3.719341754913330078e-01 4.073706269264221191e-01 6.854223608970642090e-01
6.650000000000000000e+02 6.152390956878662109e+00 9.818547368049621582e-01 -1.220279455184936523e+00 1.987194409593939781e-04 -3.660241961479187012e-01 4.473369419574737549e-01
6.660000000000000000e+02 5.166089534759521484e+00 8.400604128837585449e-01 -1.555976867675781250e+00 -2.559864521026611328e-02 -4.744726419448852539e-01 5.276771783828735352e-01
6.670000000000000000e+02 4.488036632537841797e+00 7.870783209800720215e-01 -1.432951092720031738e+00 1.314209366682916880e-04 -4.298458993434906006e-01 5.068050026893615723e-01
6.680000000000000000e+02 3.789488315582275391e+00 9.651583433151245117e-01 -9.463483095169067383e-01 -1.372983865439891815e-02 -2.880234420299530029e-01 5.897213220596313477e-01
6.690000000000000000e+02 3.485383033752441406e+00 9.789987802505493164e-01 -8.741215467453002930e-01 -1.267796382308006287e-02 -2.660398483276367188e-01 5.851593613624572754e-01
6.700000000000000000e+02 3.102208375930786133e+00 4.528451859951019287e-01 -1.119879722595214844e+00 -3.275979252066463232e-04 -3.360621929168701172e-01 3.117682635784149170e-01
6.710000000000000000e+02 2.668821096420288086e+00 7.853702306747436523e-01 -7.350560426712036133e-01 -3.797489404678344727e-02 -2.319092750549316406e-01 4.445501267910003662e-01
6.720000000000000000e+02 2.879905700683593750e+00 1.040180444717407227e+00 -6.377356648445129395e-01 -3.964289277791976929e-02 -2.032135725021362305e-01 5.597272515296936035e-01
6.730000000000000000e+02 2.283032178878784180e+00 8.337278962135314941e-01 -5.477764010429382324e-01 -6.242080405354499817e-02 -1.830591559410095215e-01 4.302576184272766113e-01
6.740000000000000000e+02 2.023591279983520508e+00 9.913223981857299805e-01 -4.318215847015380859e-01 -8.761354535818099976e-02 -1.558305323123931885e-01 4.741057455539703369e-01
6.750000000000000000e+02 1.773169398307800293e+00 1.094848155975341797e+00 -3.090357184410095215e-01 -1.364501267671585083e-01 -1.336457580327987671e-01 4.482276439666748047e-01
6.760000000000000000e+02 1.610540509223937988e+00 9.875396490097045898e-01 -2.880128622055053711e-01 -8.837220817804336548e-02 -1.129155158996582031e-01 3.937367498874664307e-01
6.770000000000000000e+02 7.322433948516845703e+00 -3.674551546573638916e-01 -8.812934160232543945e-01 8.273772895336151123e-02 -2.395666986703872681e-01 1.283898651599884033e-01
6.780000000000000000e+02 7.189186573028564453e+00 -6.365131139755249023e-01 1.238109022378921509e-01 1.645754426717758179e-01 8.651590347290039062e-02 4.075046479701995850e-01
6.790000000000000000e+02 6.494585990905761719e+00 -5.667870044708251953e-01 -7.363059520721435547e-01 1.641583256423473358e-02 -2.159670442342758179e-01 6.973432004451751709e-02
6.800000000000000000e+02 6.665716648101806641e+00 -6.086487770080566406e-01 -4.469042420387268066e-01 1.091202348470687866e-01 -1.013352051377296448e-01 1.745840609073638916e-01
6.810000000000000000e+02 5.662438392639160156e+00 -6.451626420021057129e-01 -7.905187606811523438e-01 2.722906135022640228e-02 -2.289869040250778198e-01 -4.015224799513816833e-02
6.820000000000000000e+02 5.153976440429687500e+00 -6.769131422042846680e-01 -7.719272375106811523e-01 3.368996456265449524e-02 -2.214711904525756836e-01 -1.024298816919326782e-01
6.830000000000000000e+02 4.689115524291992188e+00 -3.678166568279266357e-01 -1.234078288078308105e+00 1.547503285109996796e-03 -3.697592318058013916e-01 -1.182778328657150269e-01
6.840000000000000000e+02 4.881676197052001953e+00 -8.163195252418518066e-01 -6.051031947135925293e-01 4.340153932571411133e-02 -1.685104966163635254e-01 -1.315041333436965942e-01
6.850000000000000000e+02 4.461433410644531250e+00 -6.964415907859802246e-01 -7.688836455345153809e-01 2.351537719368934631e-02 -2.236104905605316162e-01 -1.776376664638519287e-01
6.860000000000000000e+02 4.224597930908203125e+00 -6.622968316078186035e-01 -7.732942104339599609e-01 2.433874458074569702e-02 -2.246866375207901001e-01 -1.866057813167572021e-01
6.870000000000000000e+02 3.801926136016845703e+00 -5.143706202507019043e-01 -8.552267551422119141e-01 7.002536440268158913e-04 -2.563579380512237549e-01 -1.838297396898269653e-01
6.880000000000000000e+02 3.630661249160766602e+00 -6.272665858268737793e-01 -7.192605137825012207e-01 8.777312003076076508e-03 -2.131449580192565918e-01 -2.173698842525482178e-01
6.890000000000000000e+02 2.568556547164916992e+00 -5.380747914314270020e-01 -5.045631527900695801e-01 -9.188054129481315613e-03 -1.541253626346588135e-01 -2.026459723711013794e-01
6.900000000000000000e+02 1.276379942893981934e+00 9.805626869201660156e-01 -2.241477072238922119e-01 -1.152560487389564514e-01 -1.018211320042610168e-01 3.281984627246856689e-01
6.910000000000000000e+02 1.473438262939453125e+00 1.130170464515686035e+00 -2.435216456651687622e-01 -1.460414826869964600e-01 -1.168689355254173279e-01 4.166855514049530029e-01
6.920000000000000000e+02 6.174290180206298828e+00 -9.929761886596679688e-01 2.082397788763046265e-01 1.820157170295715332e-01 1.170766502618789673e-01 2.461112141609191895e-01
6.930000000000000000e+02 5.829972267150878906e+00 -8.968052864074707031e-01 -2.095606327056884766e-01 9.078306704759597778e-02 -3.563327342271804810e-02 7.200305908918380737e-02
6.940000000000000000e+02 5.305361270904541016e+00 -7.824894189834594727e-01 -6.108888387680053711e-01 3.970018401741981506e-02 -1.713566035032272339e-01 -7.488334178924560547e-02
6.950000000000000000e+02 4.869118213653564453e+00 -1.037578105926513672e+00 -2.844943404197692871e-01 8.680237084627151489e-02 -5.930759012699127197e-02 -1.040185093879699707e-01
6.960000000000000000e+02 4.970853805541992188e+00 -6.024886965751647949e-01 -9.037010669708251953e-01 2.571965381503105164e-02 -2.633944153785705566e-01 -1.219363212585449219e-01
6.970000000000000000e+02 6.597208976745605469e+00 -9.410620927810668945e-01 3.754812479019165039e-01 1.926102042198181152e-01 1.704274266958236694e-01 3.928651213645935059e-01
6.980000000000000000e+02 1.099483966827392578e+00 6.637505888938903809e-01 -2.014383226633071899e-01 -7.199604064226150513e-02 -8.203031122684478760e-02 2.017743885517120361e-01
6.990000000000000000e+02 4.873821258544921875e+00 8.694833517074584961e-01 -1.409127950668334961e+00 -1.346267014741897583e-02 -4.267771840095520020e-01 5.599777102470397949e-01
7.000000000000000000e+02 4.735702037811279297e+00 5.310602784156799316e-01 -2.028208017349243164e+00 -1.574868708848953247e-02 -6.131870150566101074e-01 3.626038432121276855e-01
7.010000000000000000e+02 4.781222641468048096e-01 7.325435876846313477e-01 -6.265167891979217529e-02 -8.985232561826705933e-02 -4.575119912624359131e-02 1.043294370174407959e-01
7.020000000000000000e+02 6.524793505668640137e-01 6.480366587638854980e-01 -9.896881133317947388e-02 -8.348388969898223877e-02 -5.473580956459045410e-02 1.136594265699386597e-01
7.030000000000000000e+02 5.329104065895080566e-01 -9.645437002182006836e-01 -2.168948389589786530e-02 -1.166692525148391724e-01 -4.150762036442756653e-02 -1.005898192524909973e-01
7.040000000000000000e+02 7.783585786819458008e-01 -7.012048959732055664e-01 -7.452151179313659668e-02 -7.230012118816375732e-02 -4.404648765921592712e-02 -1.149501204490661621e-01
7.050000000000000000e+02 6.917028427124023438e-01 -1.030764341354370117e+00 -6.620181351900100708e-02 -1.060672923922538757e-01 -5.168072879314422607e-02 -1.550838500261306763e-01
7.060000000000000000e+02 6.293925642967224121e-01 -7.808761000633239746e-01 -4.554499313235282898e-02 -6.103599816560745239e-02 -3.197429701685905457e-02 -9.945331513881683350e-02
7.070000000000000000e+02 9.472883939743041992e-01 -7.062159180641174316e-01 -9.774564206600189209e-02 -4.880562052130699158e-02 -4.396538063883781433e-02 -1.417016685009002686e-01
7.080000000000000000e+02 4.776030778884887695e-01 5.666073560714721680e-01 -3.909896314144134521e-02 -4.066595435142517090e-02 -2.392947487533092499e-02 4.139269515872001648e-02
7.090000000000000000e+02 1.538459300994873047e+00 6.425859332084655762e-01 -3.229191899299621582e-01 -3.717340901494026184e-02 -1.080277785658836365e-01 2.686223685741424561e-01
7.100000000000000000e+02 5.843770027160644531e+00 9.733428359031677246e-01 -1.377875208854675293e+00 -2.640182618051767349e-03 -4.141546189785003662e-01 5.090364217758178711e-01
7.110000000000000000e+02 4.688058853149414062e+00 -7.520776391029357910e-01 -7.240964770317077637e-01 3.560462221503257751e-02 -2.065475583076477051e-01 -1.581532508134841919e-01
7.120000000000000000e+02 1.718168497085571289e+00 -7.818244099617004395e-01 -2.351285517215728760e-01 -2.382339164614677429e-02 -7.768557965755462646e-02 -2.336447387933731079e-01
7.130000000000000000e+02 2.141017913818359375e+00 -8.937534093856811523e-01 -2.774730324745178223e-01 -1.380166225135326385e-02 -8.738241344690322876e-02 -2.759355604648590088e-01
7.140000000000000000e+02 3.295278072357177734e+00 4.408143162727355957e-01 -1.264917731285095215e+00 -2.061033621430397034e-02 -3.856584131717681885e-01 3.015522360801696777e-01
7.150000000000000000e+02 3.908945798873901367e+00 7.542336583137512207e-01 -1.288586497306823730e+00 -2.601430378854274750e-02 -3.943802118301391602e-01 4.771024286746978760e-01
7.160000000000000000e+02 4.898604869842529297e+00 3.364383876323699951e-01 -2.455278158187866211e+00 1.690819044597446918e-03 -7.360762357711791992e-01 2.759012579917907715e-01
7.170000000000000000e+02 4.172647476196289062e+00 -9.147674441337585449e-01 -5.060240030288696289e-01 3.904358297586441040e-02 -1.400941163301467896e-01 -2.106303125619888306e-01
7.180000000000000000e+02 4.341487407684326172e+00 -1.208051443099975586e+00 -1.719521731138229370e-01 9.016536176204681396e-02 -2.453604713082313538e-02 -1.650573164224624634e-01
7.190000000000000000e+02 3.930785894393920898e+00 -8.624976873397827148e-01 -5.480930209159851074e-01 3.245589137077331543e-02 -1.546911448240280151e-01 -2.318167686462402344e-01
7.200000000000000000e+02 3.666007995605468750e+00 -1.085257411003112793e+00 -3.480462729930877686e-01 3.478152677416801453e-02 -9.397942572832107544e-02 -2.642420828342437744e-01
7.210000000000000000e+02 3.434339046478271484e+00 -1.001948237419128418e+00 -3.895075917243957520e-01 1.283125765621662140e-02 -1.130028963088989258e-01 -2.749869525432586670e-01
7.220000000000000000e+02 3.152985572814941406e+00 -1.041568875312805176e+00 -3.514647483825683594e-01 1.323268283158540726e-02 -1.014696210622787476e-01 -2.944791018962860107e-01
7.230000000000000000e+02 3.014698266983032227e+00 -1.173652768135070801e+00 -2.525947093963623047e-01 1.376099325716495514e-02 -7.165011763572692871e-02 -3.008607625961303711e-01
7.240000000000000000e+02 3.278838396072387695e+00 -6.853585243225097656e-01 -5.924392938613891602e-01 1.817891607061028481e-03 -1.771864145994186401e-01 -2.402488291263580322e-01
7.250000000000000000e+02 5.003881931304931641e+00 7.624759674072265625e-01 -1.635970711708068848e+00 1.882939366623759270e-03 -4.902263283729553223e-01 5.020912289619445801e-01
7.260000000000000000e+02 4.868101119995117188e+00 7.044153809547424316e-01 -1.728379607200622559e+00 -3.340751305222511292e-02 -5.285361409187316895e-01 4.679028093814849854e-01
7.270000000000000000e+02 2.721965551376342773e+00 -8.490000367164611816e-01 -4.053922295570373535e-01 -2.496042288839817047e-03 -1.223664879798889160e-01 -2.725782990455627441e-01
7.280000000000000000e+02 6.305780887603759766e+00 -5.861872434616088867e-01 -7.409999370574951172e-01 5.596303939819335938e-02 -2.055110782384872437e-01 3.815658763051033020e-02
7.290000000000000000e+02 6.341193199157714844e+00 -7.839299440383911133e-01 -1.951217800378799438e-01 8.768628537654876709e-02 -3.223064914345741272e-02 1.689407229423522949e-01
7.300000000000000000e+02 2.076251029968261719e+00 7.923982143402099609e-01 -4.753285348415374756e-01 -4.907313734292984009e-02 -1.573204994201660156e-01 4.027394652366638184e-01
7.310000000000000000e+02 3.048688173294067383e+00 -8.854083418846130371e-01 -4.248395562171936035e-01 -1.223621773533523083e-03 -1.278189569711685181e-01 -2.760206460952758789e-01
7.320000000000000000e+02 3.992599487304687500e+00 -6.138769388198852539e-01 -7.952123880386352539e-01 9.746577590703964233e-03 -2.356397360563278198e-01 -1.930426508188247681e-01
7.330000000000000000e+02 4.893347263336181641e+00 5.319082140922546387e-01 -2.059950113296508789e+00 1.589432824403047562e-03 -6.175082325935363770e-01 3.864154219627380371e-01
7.340000000000000000e+02 4.594274997711181641e+00 5.978508591651916504e-01 -1.806992411613464355e+00 -1.107126567512750626e-02 -5.454190969467163086e-01 4.019605815410614014e-01
7.350000000000000000e+02 3.709774494171142578e+00 6.789032220840454102e-01 -1.278211832046508789e+00 -9.609952569007873535e-03 -3.863465189933776855e-01 4.350456595420837402e-01
7.360000000000000000e+02 5.093895196914672852e-01 -1.046103858947753906e+01 -5.545821040868759155e-03 1.032980203628540039e+00 3.082303106784820557e-01 1.977234780788421631e-01
7.370000000000000000e+02 6.507234096527099609e+00 -1.592062187194824219e+01 -3.615548312664031982e-01 4.580784320831298828e+00 1.265768766403198242e+00 8.277835845947265625e-01
7.380000000000000000e+02 2.472411155700683594e+01 -3.443295669555664062e+01 1.361328214406967163e-01 2.798236370086669922e+00 8.803107738494873047e-01 -4.306112229824066162e-01
7.390000000000000000e+02 3.260070800781250000e+01 -3.243087005615234375e+01 5.849297642707824707e-01 1.247927784919738770e+00 5.498572587966918945e-01 -7.891129255294799805e-01
7.400000000000000000e+02 3.405575561523437500e+01 -3.972352218627929688e+01 9.644842743873596191e-01 7.915394306182861328e-01 5.268071293830871582e-01 -4.125622212886810303e-01
7.410000000000000000e+02 3.780098342895507812e+01 -4.165354537963867188e+01 1.968531727790832520e+00 2.234739363193511963e-01 6.576017141342163086e-01 -2.924857139587402344e-01
7.420000000000000000e+02 4.391530990600585938e+01 -4.047080993652343750e+01 1.583490729331970215e+00 4.583955287933349609e+00 1.850233793258666992e+00 6.655389070510864258e-01
7.430000000000000000e+02 1.554102778434753418e+00 -1.193371105194091797e+01 -3.209107741713523865e-02 2.076844692230224609e+00 6.134260892868041992e-01 5.333591103553771973e-01
7.440000000000000000e+02 5.911083817481994629e-01 -1.723568916320800781e+01 -3.780766623094677925e-03 3.174632787704467773e+00 9.512556195259094238e-01 1.315732151269912720e-01
7.450000000000000000e+02 6.686975002288818359e+00 -2.195153427124023438e+01 -2.230903059244155884e-01 4.501095294952392578e+00 1.283401489257812500e+00 4.721295833587646484e-01
7.460000000000000000e+02 1.536695480346679688e+01 -2.950632095336914062e+01 -2.195752263069152832e-01 4.234302520751953125e+00 1.204418182373046875e+00 -1.075768396258354187e-01
7.470000000000000000e+02 2.343023300170898438e+01 -3.880537414550781250e+01 1.343215703964233398e-01 2.871119976043701172e+00 9.016324281692504883e-01 -1.539030820131301880e-01
7.480000000000000000e+02 3.044335174560546875e+01 -3.616142272949218750e+01 4.513907134532928467e-01 1.725048065185546875e+00 6.529316306114196777e-01 -5.148885846138000488e-01
7.490000000000000000e+02 1.827213883399963379e+00 -1.862389183044433594e+01 -3.261449187994003296e-02 3.621798753738403320e+00 1.076755285263061523e+00 3.243328630924224854e-01
7.500000000000000000e+02 6.616373658180236816e-01 -2.406186866760253906e+01 -7.483730092644691467e-03 4.234431743621826172e+00 1.268084406852722168e+00 6.893771886825561523e-02
7.510000000000000000e+02 1.788173484802246094e+01 -4.086465454101562500e+01 -4.444085061550140381e-02 3.619491100311279297e+00 1.072515130043029785e+00 -3.954982012510299683e-02
7.520000000000000000e+02 2.278875732421875000e+01 -4.124952697753906250e+01 1.063890382647514343e-01 2.983039140701293945e+00 9.268284440040588379e-01 -4.319318756461143494e-02
7.530000000000000000e+02 2.048213958740234375e+00 -2.675424003601074219e+01 -1.784732006490230560e-02 4.440730571746826172e+00 1.326864957809448242e+00 1.420211791992187500e-01
7.540000000000000000e+02 7.943028211593627930e-01 -3.093045425415039062e+01 -5.598491057753562927e-03 4.711231231689453125e+00 1.411689877510070801e+00 3.534026443958282471e-02
7.550000000000000000e+02 9.279430389404296875e+00 -3.768697738647460938e+01 -9.000275284051895142e-02 4.346427917480468750e+00 1.276927590370178223e+00 5.541677400469779968e-02
7.560000000000000000e+02 1.431327700614929199e+00 -3.549956893920898438e+01 -8.374016731977462769e-03 4.781720161437988281e+00 1.432003855705261230e+00 2.250798791646957397e-02
7.570000000000000000e+02 7.076138257980346680e-01 -3.738226699829101562e+01 -6.928253453224897385e-03 4.853693008422851562e+00 1.454029440879821777e+00 -4.062036518007516861e-03
7.580000000000000000e+02 5.151437282562255859e+00 -3.999707031250000000e+01 -2.185895480215549469e-02 4.601366043090820312e+00 1.373852133750915527e+00 4.388483986258506775e-02
7.590000000000000000e+02 2.526993989944458008e+00 -3.766754913330078125e+01 -2.160225808620452881e-02 4.751499176025390625e+00 1.418969154357910156e+00 1.384393591433763504e-02
7.600000000000000000e+02 4.778611373901367188e+01 -4.109096908569335938e+01 6.358935236930847168e-01 7.809047698974609375e+00 2.533482313156127930e+00 -1.994493901729583740e-01
7.610000000000000000e+02 4.144763946533203125e+01 -3.981428909301757812e+01 2.485474109649658203e+00 1.500271916389465332e+00 1.195723772048950195e+00 9.834762811660766602e-01
7.620000000000000000e+02 4.479147720336914062e+01 -3.769725418090820312e+01 2.047359943389892578e+00 1.103582572937011719e+01 3.924955844879150391e+00 1.879741311073303223e+00
7.630000000000000000e+02 4.486904144287109375e+01 -3.559760284423828125e+01 8.204160332679748535e-01 1.175078105926513672e+01 3.771358966827392578e+00 -4.786653518676757812e-01
7.640000000000000000e+02 4.570848464965820312e+01 -3.649901962280273438e+01 1.912024378776550293e+00 1.062371540069580078e+01 3.760721921920776367e+00 8.317577242851257324e-01
7.650000000000000000e+02 4.793627166748046875e+01 -3.187855529785156250e+01 9.342566132545471191e-01 7.291077613830566406e+00 2.467600345611572266e+00 1.168729811906814575e-01
7.660000000000000000e+02 4.928753662109375000e+01 -1.789284515380859375e+01 -3.942162990570068359e-01 5.179636955261230469e+00 1.435626268386840820e+00 4.402472823858261108e-02
7.670000000000000000e+02 4.536458969116210938e+01 -1.123906898498535156e+01 -3.051577508449554443e-01 3.859781265258789062e+00 1.066387057304382324e+00 -5.875816196203231812e-02
7.680000000000000000e+02 4.912723541259765625e+01 -1.264622092247009277e+00 -3.946181535720825195e-01 4.445153236389160156e+00 1.215160489082336426e+00 3.671905398368835449e-01
7.690000000000000000e+02 4.780833053588867188e+01 6.577339172363281250e+00 -3.995485305786132812e-01 4.073503494262695312e+00 1.102186560630798340e+00 6.257174015045166016e-01
7.700000000000000000e+02 4.689572906494140625e+01 1.487914180755615234e+01 -2.616388797760009766e-01 3.751781940460205078e+00 1.047042965888977051e+00 1.045739531517028809e+00
7.710000000000000000e+02 4.932426071166992188e+01 2.101926994323730469e+01 -8.172444067895412445e-03 4.742473602294921875e+00 1.420290350914001465e+00 1.616156220436096191e+00
7.720000000000000000e+02 4.643543243408203125e+01 2.496079444885253906e+01 1.072854161262512207e+00 2.458049535751342773e+00 1.059271097183227539e+00 1.737426757812500000e+00
7.730000000000000000e+02 5.430411911010742188e+01 3.298411178588867188e+01 1.873439788818359375e+00 1.512224864959716797e+01 5.098706722259521484e+00 3.800230503082275391e+00
7.740000000000000000e+02 5.169649887084960938e+01 3.176451873779296875e+01 3.972494602203369141e+00 7.720687389373779297e+00 3.507954597473144531e+00 5.197822093963623047e+00
7.750000000000000000e+02 7.240721893310546875e+01 -4.118815994262695312e+01 1.612782627344131470e-01 7.014969825744628906e+00 2.152874469757080078e+00 3.611463680863380432e-02
7.760000000000000000e+02 7.874401855468750000e+01 -4.041550827026367188e+01 -3.398719010874629021e-03 6.906236648559570312e+00 2.070851325988769531e+00 3.218949423171579838e-04
7.770000000000000000e+02 7.693452453613281250e+01 -3.771981811523437500e+01 3.748374059796333313e-02 7.032152652740478516e+00 2.120891094207763672e+00 9.003517031669616699e-02
7.780000000000000000e+02 7.783306121826171875e+01 -3.059218025207519531e+01 -1.672763610258698463e-03 7.329207420349121094e+00 2.198260307312011719e+00 1.566146612167358398e-01
7.790000000000000000e+02 7.806399536132812500e+01 -2.375896644592285156e+01 7.040337659418582916e-03 7.830221176147460938e+00 2.351178407669067383e+00 1.640141606330871582e-01
7.800000000000000000e+02 7.806531524658203125e+01 -1.678185272216796875e+01 -9.420962072908878326e-03 8.355721473693847656e+00 2.503890275955200195e+00 1.482878625392913818e-01
7.810000000000000000e+02 7.810578155517578125e+01 -9.804819107055664062e+00 -9.510718286037445068e-03 8.785546302795410156e+00 2.632810592651367188e+00 9.870447963476181030e-02
7.820000000000000000e+02 7.808905029296875000e+01 -2.859831094741821289e+00 -9.421539492905139923e-03 9.034807205200195312e+00 2.707615613937377930e+00 3.669450804591178894e-02
7.830000000000000000e+02 7.810364532470703125e+01 4.095367908477783203e+00 -1.816124469041824341e-02 9.057566642761230469e+00 2.711821556091308594e+00 -4.534147679805755615e-02
7.840000000000000000e+02 7.810298156738281250e+01 1.105434322357177734e+01 -1.535975094884634018e-02 8.775921821594238281e+00 2.628168821334838867e+00 -1.535766273736953735e-01
7.850000000000000000e+02 7.808746337890625000e+01 1.942523002624511719e+01 -1.413795910775661469e-02 7.946816444396972656e+00 2.379803657531738281e+00 -2.951939404010772705e-01
7.860000000000000000e+02 7.561008453369140625e+01 2.474107170104980469e+01 -1.097140554338693619e-02 7.474285602569580078e+00 2.238994121551513672e+00 -6.513460874557495117e-01
7.870000000000000000e+02 7.917890930175781250e+01 3.206227874755859375e+01 -3.436603397130966187e-02 5.823602199554443359e+00 1.736770868301391602e+00 -1.210917606949806213e-01
7.880000000000000000e+02 7.938978576660156250e+01 3.761282730102539062e+01 6.929799914360046387e-02 5.354961395263671875e+00 1.627277851104736328e+00 -6.927567534148693085e-03
7.890000000000000000e+02 7.126945495605468750e+01 3.826980209350585938e+01 4.116240143775939941e-01 7.675676345825195312e+00 2.426190137863159180e+00 -2.750548124313354492e-01
7.900000000000000000e+02 7.303774261474609375e+01 2.345290756225585938e+01 -6.189642101526260376e-02 7.831667423248291016e+00 2.330931186676025391e+00 -8.230937719345092773e-01
7.910000000000000000e+02 7.287827301025390625e+01 1.779838180541992188e+01 -1.750568002462387085e-01 8.108554840087890625e+00 2.380049467086791992e+00 -6.607608199119567871e-01
7.920000000000000000e+02 7.300774383544921875e+01 1.079858303070068359e+01 -1.792249679565429688e-01 8.293850898742675781e+00 2.434387683868408203e+00 -3.533397018909454346e-01
7.930000000000000000e+02 7.249567413330078125e+01 -5.396919727325439453e+00 -1.160035133361816406e-01 8.154908180236816406e+00 2.411671161651611328e+00 2.113674581050872803e-01
7.940000000000000000e+02 7.301472473144531250e+01 -1.099072265625000000e+01 -8.255984634160995483e-02 8.067788124084472656e+00 2.395568609237670898e+00 3.283724784851074219e-01
7.950000000000000000e+02 7.277667236328125000e+01 -1.770610046386718750e+01 -4.199890047311782837e-02 7.793352127075195312e+00 2.325405836105346680e+00 4.357086718082427979e-01
7.960000000000000000e+02 7.272365570068359375e+01 -2.414616966247558594e+01 8.836352266371250153e-03 7.505552768707275391e+00 2.254316568374633789e+00 4.831721186637878418e-01
7.970000000000000000e+02 7.359960937500000000e+01 -3.105611419677734375e+01 7.895780354738235474e-02 7.236196517944335938e+00 2.194546222686767578e+00 3.554496765136718750e-01
7.980000000000000000e+02 6.427930450439453125e+01 -3.742483901977539062e+01 5.695473551750183105e-01 6.832002639770507812e+00 2.220464944839477539e+00 2.882325649261474609e-01
7.990000000000000000e+02 6.768959808349609375e+01 -4.112786483764648438e+01 4.034112989902496338e-01 6.913320064544677734e+00 2.195019245147705078e+00 8.605442196130752563e-02
8.000000000000000000e+02 6.335413360595703125e+01 4.077563095092773438e+01 2.438596189022064209e-01 1.085424613952636719e+01 3.329431772232055664e+00 2.041333168745040894e-01
8.010000000000000000e+02 6.764387512207031250e+01 4.109301376342773438e+01 5.342991948127746582e-01 8.886071205139160156e+00 2.826111078262329102e+00 -7.961646467447280884e-02
8.020000000000000000e+02 6.299641036987304688e+01 3.134499740600585938e+01 9.643297195434570312e-01 9.431574821472167969e+00 3.118771314620971680e+00 -5.665041208267211914e-01
8.030000000000000000e+02 6.676094818115234375e+01 2.755467414855957031e+01 1.873050183057785034e-01 8.514986038208007812e+00 2.610687255859375000e+00 -9.148122072219848633e-01
8.040000000000000000e+02 6.692030334472656250e+01 1.582088851928710938e+01 -4.905490577220916748e-01 8.082020759582519531e+00 2.277441501617431641e+00 -5.273764133453369141e-01
8.050000000000000000e+02 6.677751159667968750e+01 1.004726982116699219e+01 -4.543115496635437012e-01 7.811857223510742188e+00 2.207263708114624023e+00 -2.454756349325180054e-01
8.060000000000000000e+02 6.602737426757812500e+01 4.789778709411621094e+00 -4.187362492084503174e-01 7.544985294342041016e+00 2.137874603271484375e+00 6.866420153528451920e-03
8.070000000000000000e+02 6.746430969238281250e+01 -1.334619426727294922e+01 -1.876131743192672729e-01 7.399004936218261719e+00 2.163417577743530273e+00 5.140377879142761230e-01
8.080000000000000000e+02 6.526043701171875000e+01 -1.580522823333740234e+01 -1.906076669692993164e-01 7.153545379638671875e+00 2.088881254196166992e+00 5.921423435211181641e-01
8.090000000000000000e+02 6.777909088134765625e+01 -2.349765396118164062e+01 3.920066170394420624e-03 7.241811275482177734e+00 2.173719406127929688e+00 6.382970809936523438e-01
8.100000000000000000e+02 6.386765670776367188e+01 -3.293854904174804688e+01 4.210812151432037354e-01 6.884534835815429688e+00 2.191684722900390625e+00 5.088388919830322266e-01
8.110000000000000000e+02 5.778009033203125000e+01 -4.067382431030273438e+01 9.906423687934875488e-01 6.759544372558593750e+00 2.325056076049804688e+00 1.529649943113327026e-01
8.120000000000000000e+02 6.283979797363281250e+01 -4.075097274780273438e+01 6.877399682998657227e-01 6.844038963317871094e+00 2.259533643722534180e+00 8.251341432332992554e-02
8.130000000000000000e+02 5.434317016601562500e+01 3.855567550659179688e+01 -1.020456314086914062e+00 1.546160697937011719e+01 4.332345008850097656e+00 -1.911408185958862305e+00
8.140000000000000000e+02 5.169683456420898438e+01 4.153000640869140625e+01 -1.426685810089111328e+00 3.970747709274291992e+00 7.632185220718383789e-01 -6.041355729103088379e-01
8.150000000000000000e+02 4.921704864501953125e+01 3.812171554565429688e+01 -2.883248329162597656e+00 -2.350853979587554932e-01 -9.355001449584960938e-01 -8.941048979759216309e-01
8.160000000000000000e+02 5.063553619384765625e+01 3.853754425048828125e+01 -3.592905759811401367e+00 -3.985925316810607910e-01 -1.197449445724487305e+00 -9.561591744422912598e-01
8.170000000000000000e+02 4.670483016967773438e+01 3.660795974731445312e+01 -1.468524932861328125e+00 -8.014720082283020020e-01 -6.809991002082824707e-01 -5.389459133148193359e-01
8.180000000000000000e+02 4.435409927368164062e+01 3.517059326171875000e+01 -1.047696113586425781e+00 -6.701285243034362793e-01 -5.153474211692810059e-01 -6.406385898590087891e-01
8.190000000000000000e+02 3.791386413574218750e+01 3.820483016967773438e+01 -5.172325372695922852e-01 -2.712769508361816406e-01 -2.365528494119644165e-01 -2.712407112121582031e-01
8.200000000000000000e+02 3.163014793395996094e+01 3.775564193725585938e+01 -2.650650143623352051e-01 3.915364146232604980e-01 3.794141858816146851e-02 -9.295298159122467041e-02
8.210000000000000000e+02 1.782797241210937500e+01 4.092496871948242188e+01 -1.844046711921691895e-01 3.509796857833862305e+00 9.976176619529724121e-01 2.999923890456557274e-03
8.220000000000000000e+02 2.609419822692871094e+00 3.648002243041992188e+01 -5.780878663063049316e-02 7.292475700378417969e+00 2.170400142669677734e+00 5.085568409413099289e-03
8.230000000000000000e+02 7.093365192413330078e-01 3.305225753784179688e+01 -6.299389526247978210e-03 7.683744907379150391e+00 2.303233623504638672e+00 -2.306286990642547607e-02
8.240000000000000000e+02 1.953688979148864746e+00 2.977909088134765625e+01 -2.627328969538211823e-02 7.203027725219726562e+00 2.153026342391967773e+00 -1.220678314566612244e-01
8.250000000000000000e+02 6.381530761718750000e-01 2.743862724304199219e+01 -1.227554958313703537e-02 7.377289772033691406e+00 2.209504365921020508e+00 -7.332706451416015625e-02
8.260000000000000000e+02 1.900240302085876465e+00 2.563589859008789062e+01 -4.759348183870315552e-02 6.860913753509521484e+00 2.043996095657348633e+00 -2.521712183952331543e-01
8.270000000000000000e+02 6.917664051055908203e+00 1.936833572387695312e+01 -6.779989004135131836e-01 6.045841217041015625e+00 1.610352635383605957e+00 -1.217433810234069824e+00
8.280000000000000000e+02 1.891754341125488281e+01 9.301482200622558594e+00 1.866497635841369629e+00 2.919332027435302734e+00 1.435748934745788574e+00 2.373795270919799805e+00
8.290000000000000000e+02 1.833300399780273438e+01 1.036570644378662109e+01 9.905039668083190918e-01 4.093833446502685547e+00 1.525301218032836914e+00 2.227382898330688477e+00
8.300000000000000000e+02 2.083994483947753906e+01 1.126484680175781250e+01 9.582229852676391602e-01 1.698742270469665527e+00 7.970895767211914062e-01 1.339695811271667480e+00
8.310000000000000000e+02 2.292671203613281250e+01 1.529895782470703125e+01 -1.361078023910522461e-02 1.318217277526855469e+00 3.913819491863250732e-01 5.885167717933654785e-01
8.320000000000000000e+02 1.287559032440185547e+01 2.217674827575683594e+01 -9.382071495056152344e-01 5.474294185638427734e+00 1.360826134681701660e+00 -3.848039209842681885e-01
8.330000000000000000e+02 8.013355255126953125e+00 3.142503929138183594e+01 -2.361265867948532104e-01 5.832076549530029297e+00 1.678785085678100586e+00 -2.693575620651245117e-01
8.340000000000000000e+02 7.729687213897705078e+00 2.533444595336914062e+01 -4.305900931358337402e-01 5.935749053955078125e+00 1.651547670364379883e+00 -5.937914848327636719e-01
8.350000000000000000e+02 7.604617595672607422e+00 2.343835067749023438e+01 -5.235767364501953125e-01 5.975111484527587891e+00 1.635460376739501953e+00 -7.546800374984741211e-01
8.360000000000000000e+02 2.103780984878540039e+00 4.161104583740234375e+01 5.814688280224800110e-02 7.473234176635742188e+00 2.259414196014404297e+00 1.638879626989364624e-02
8.370000000000000000e+02 6.145882606506347656e-01 2.041059684753417969e+01 -1.359724160283803940e-02 6.109822273254394531e+00 1.828867554664611816e+00 -1.935599744319915771e-01
8.380000000000000000e+02 1.759210824966430664e+00 1.590481185913085938e+01 -7.740256935358047485e-02 4.550241470336914062e+00 1.341851592063903809e+00 -8.316887617111206055e-01
8.390000000000000000e+02 1.381588840484619141e+01 9.512903213500976562e+00 -8.653297424316406250e-01 1.047909641265869141e+01 2.884130001068115234e+00 1.295331239700317383e+00
8.400000000000000000e+02 1.411865711212158203e+01 5.256400108337402344e+00 3.610496520996093750e+00 1.743523597717285156e+01 6.313719749450683594e+00 6.676865577697753906e+00
8.410000000000000000e+02 1.795476531982421875e+01 8.319076538085937500e+00 2.397032499313354492e+00 3.949812412261962891e+00 1.904053568840026855e+00 2.998179197311401367e+00
8.420000000000000000e+02 5.619100332260131836e-01 1.479470062255859375e+01 -1.505350787192583084e-02 3.758424282073974609e+00 1.123011231422424316e+00 -3.212994635105133057e-01
8.430000000000000000e+02 1.394377112388610840e+00 9.013913154602050781e+00 7.200600951910018921e-02 8.564675450325012207e-01 2.785420715808868408e-01 -8.248994350433349609e-01
8.440000000000000000e+02 9.824231147766113281e+00 1.813435792922973633e+00 2.844576358795166016e+00 1.547370624542236328e+01 5.495484828948974609e+00 -4.856210708618164062e+00
8.450000000000000000e+02 1.148971843719482422e+01 7.724917531013488770e-01 7.826751708984375000e+00 2.304754638671875000e+01 9.262289047241210938e+00 3.967205286026000977e+00
8.460000000000000000e+02 1.511817932128906250e+01 5.570535659790039062e+00 4.834224700927734375e+00 1.076822662353515625e+01 4.680735588073730469e+00 6.883155822753906250e+00
8.470000000000000000e+02 4.160214066505432129e-01 7.811890602111816406e+00 2.182096429169178009e-02 -7.628724575042724609e-01 -2.223154455423355103e-01 -2.233112752437591553e-01
8.480000000000000000e+02 1.418303370475769043e+00 3.486542701721191406e+00 1.723562180995941162e-01 -5.567939877510070801e-01 -1.153313368558883667e-01 3.801048099994659424e-01
8.490000000000000000e+02 1.089825534820556641e+01 -1.391697287559509277e+00 2.734868049621582031e+00 2.292240524291992188e+01 7.697182178497314453e+00 2.035856945440173149e-03
8.500000000000000000e+02 1.069984245300292969e+01 -1.730432629585266113e+00 1.247299432754516602e+00 2.145585060119628906e+01 6.810944557189941406e+00 1.430314898490905762e+00
8.510000000000000000e+02 9.518734931945800781e+00 -1.628436803817749023e+00 3.155623435974121094e+00 1.375284671783447266e+01 5.072540760040283203e+00 7.401228904724121094e+00
8.520000000000000000e+02 7.006114959716796875e+00 -8.104146003723144531e+00 -2.051218897104263306e-01 5.336503982543945312e+00 1.539414525032043457e+00 1.773066639900207520e+00
8.530000000000000000e+02 1.996463966369628906e+01 -1.113586330413818359e+01 1.150355815887451172e+00 6.753807544708251953e+00 2.371249198913574219e+00 -2.472013473510742188e+00
8.540000000000000000e+02 1.941618347167968750e+01 -9.848408699035644531e+00 1.335479259490966797e+00 7.045045852661132812e+00 2.514157533645629883e+00 -2.531691789627075195e+00
8.550000000000000000e+02 1.901021194458007812e+01 -1.736353111267089844e+01 3.567892313003540039e-02 5.268421173095703125e+00 1.591229915618896484e+00 -1.155381321907043457e+00
8.560000000000000000e+02 2.008967590332031250e+01 -1.961871719360351562e+01 -3.880398580804467201e-03 4.691382884979248047e+00 1.406250715255737305e+00 -1.072512149810791016e+00
8.570000000000000000e+02 5.382791519165039062e+01 4.030755996704101562e+01 -2.961712121963500977e+00 8.210677146911621094e+00 1.574689388275146484e+00 -1.439345955848693848e+00
8.580000000000000000e+02 5.545097351074218750e+01 3.599170303344726562e+01 4.238650798797607422e+00 1.893061065673828125e+01 6.950778484344482422e+00 1.703455090522766113e+00
8.590000000000000000e+02 5.341035461425781250e+01 3.396519088745117188e+01 4.310950279235839844e+00 1.437281608581542969e+01 5.605129718780517578e+00 7.104460716247558594e+00
8.600000000000000000e+02 5.255963134765625000e+01 3.286531829833984375e+01 4.120518684387207031e+00 1.021578121185302734e+01 4.300889968872070312e+00 6.131345748901367188e+00
8.610000000000000000e+02 5.528313827514648438e+01 3.381964492797851562e+01 2.312189579010009766e+00 1.547602748870849609e+01 5.336464881896972656e+00 1.105849623680114746e+00
8.620000000000000000e+02 5.443111801147460938e+01 2.696678352355957031e+01 4.264975339174270630e-02 8.967162132263183594e+00 2.702943563461303711e+00 1.708394169807434082e+00
8.630000000000000000e+02 5.473445510864257812e+01 2.822067832946777344e+01 2.957493960857391357e-01 9.637284278869628906e+00 2.979910135269165039e+00 1.682739257812500000e+00
8.640000000000000000e+02 5.153473663330078125e+01 1.879875755310058594e+01 -4.158057272434234619e-01 5.666583061218261719e+00 1.575233101844787598e+00 1.224756598472595215e+00
8.650000000000000000e+02 5.843351364135742188e+01 1.309336090087890625e+01 -7.553517818450927734e-01 7.021955490112304688e+00 1.879981160163879395e+00 2.668202817440032959e-01
8.660000000000000000e+02 6.002560043334960938e+01 3.269627332687377930e+00 -5.580252408981323242e-01 6.674447059631347656e+00 1.834926605224609375e+00 2.557687163352966309e-01
8.670000000000000000e+02 5.975228118896484375e+01 -7.062296867370605469e-01 -4.918892085552215576e-01 6.514074802398681641e+00 1.806655764579772949e+00 3.177118897438049316e-01
8.680000000000000000e+02 5.825306701660156250e+01 -1.322073459625244141e+01 -3.871211111545562744e-01 6.350383281707763672e+00 1.788978576660156250e+00 4.832366704940795898e-01
8.690000000000000000e+02 5.516576385498046875e+01 -1.713199806213378906e+01 -3.673718869686126709e-01 6.071388721466064453e+00 1.711205005645751953e+00 4.388233125209808350e-01
8.700000000000000000e+02 5.480940628051757812e+01 -2.400362014770507812e+01 -7.823310792446136475e-02 6.437964439392089844e+00 1.907919406890869141e+00 5.638870596885681152e-01
8.710000000000000000e+02 5.675865173339843750e+01 -3.411156082153320312e+01 8.530122637748718262e-01 6.680130004882812500e+00 2.259942770004272461e+00 4.483022987842559814e-01
8.720000000000000000e+02 4.674100112915039062e+01 -3.740519332885742188e+01 2.331504821777343750e+00 6.913292407989501953e+00 2.773439168930053711e+00 -1.809872835874557495e-01
8.730000000000000000e+02 4.848429107666015625e+01 2.679357147216796875e+01 1.408799529075622559e+00 3.652311325073242188e+00 1.518333196640014648e+00 2.416530370712280273e+00
8.740000000000000000e+02 4.562089920043945312e+01 2.593008232116699219e+01 1.278654098510742188e+00 1.763485431671142578e+00 9.126418828964233398e-01 1.472787380218505859e+00
8.750000000000000000e+02 4.144052886962890625e+01 2.022251701354980469e+01 3.097867965698242188e-01 1.061849474906921387e+00 4.114908576011657715e-01 6.491998434066772461e-01
8.760000000000000000e+02 3.957501602172851562e+01 1.824624633789062500e+01 1.429488062858581543e-01 7.554841041564941406e-01 2.695298790931701660e-01 3.911224901676177979e-01
8.770000000000000000e+02 3.397150421142578125e+01 1.395995807647705078e+01 -2.323837578296661377e-01 -1.206726506352424622e-01 -1.059169247746467590e-01 -2.094355672597885132e-01
8.780000000000000000e+02 3.099063682556152344e+01 1.096824073791503906e+01 -4.750016629695892334e-01 -3.454338014125823975e-01 -2.461306303739547729e-01 -3.644116222858428955e-01
8.790000000000000000e+02 2.566846084594726562e+01 6.377620697021484375e+00 -7.927662134170532227e-01 -3.643050789833068848e-01 -3.471213877201080322e-01 -5.683186054229736328e-01
8.800000000000000000e+02 2.118994331359863281e+01 -4.226497113704681396e-01 3.270998716354370117e+00 7.435412406921386719e-01 1.204361915588378906e+00 -2.858417034149169922e-01
8.810000000000000000e+02 2.458143806457519531e+01 8.070662617683410645e-01 5.158309936523437500e-01 -5.805269628763198853e-02 1.373334825038909912e-01 1.616681516170501709e-01
8.820000000000000000e+02 2.250136756896972656e+01 -1.120899915695190430e+00 1.701900362968444824e+00 4.051730930805206299e-01 6.321220397949218750e-01 -8.424291014671325684e-01
8.830000000000000000e+02 2.558661460876464844e+01 -4.069642066955566406e+00 4.551840126514434814e-01 2.526457607746124268e-01 2.123489379882812500e-01 -2.441152483224868774e-01
8.840000000000000000e+02 2.865364265441894531e+01 -5.011924743652343750e+00 3.060238957405090332e-01 1.325744390487670898e-01 1.315795034170150757e-01 -2.040706872940063477e-01
8.850000000000000000e+02 3.247863769531250000e+01 -1.127557086944580078e+01 8.299732953310012817e-02 5.252020955085754395e-01 1.824598312377929688e-01 -1.688093096017837524e-01
8.860000000000000000e+02 3.282806015014648438e+01 -1.425124073028564453e+01 6.735641509294509888e-02 4.198432266712188721e-01 1.461598873138427734e-01 -2.026579678058624268e-01
8.870000000000000000e+02 3.565071487426757812e+01 -1.898863410949707031e+01 2.236051112413406372e-01 1.023520350456237793e+00 3.741376399993896484e-01 -4.942706227302551270e-01
8.880000000000000000e+02 4.052967834472656250e+01 -2.727469253540039062e+01 7.176521420478820801e-01 2.670833349227905273e+00 1.016545653343200684e+00 -1.376847743988037109e+00
8.890000000000000000e+02 4.172739410400390625e+01 -2.655764198303222656e+01 4.146597087383270264e-01 3.467661619186401367e+00 1.164696455001831055e+00 -1.345573663711547852e+00
8.900000000000000000e+02 4.585012817382812500e+01 -3.349033355712890625e+01 1.255023956298828125e+00 8.674716949462890625e+00 2.978922128677368164e+00 -3.899655342102050781e-01
8.910000000000000000e+02 4.727054595947265625e+01 -2.985261154174804688e+01 3.557122945785522461e-01 6.839079380035400391e+00 2.158437490463256836e+00 -1.467473059892654419e-01
8.920000000000000000e+02 2.107008171081542969e+01 3.080846309661865234e+00 -1.630343317985534668e+00 -4.853465259075164795e-01 -6.347069144248962402e-01 -9.288333058357238770e-01
8.930000000000000000e+02 1.799283790588378906e+01 -2.092833071947097778e-01 1.723620653152465820e+00 -7.739284634590148926e-01 2.849076688289642334e-01 -4.110329151153564453e-01
8.940000000000000000e+02 1.615548896789550781e+01 5.071038603782653809e-01 1.492346167564392090e+00 4.635996818542480469e-01 5.867837667465209961e-01 -1.717483997344970703e+00
8.950000000000000000e+02 2.485044670104980469e+01 1.729282760620117188e+01 -2.517181336879730225e-01 7.243211865425109863e-01 1.417809128761291504e-01 2.095962315797805786e-01
8.960000000000000000e+02 2.210882377624511719e+01 2.264369010925292969e+01 -5.453354120254516602e-01 2.395961999893188477e+00 5.551880002021789551e-01 2.770801484584808350e-01
8.970000000000000000e+02 2.149085998535156250e+01 3.087734222412109375e+01 -4.131713509559631348e-01 2.620171308517456055e+00 6.620999574661254883e-01 3.569941967725753784e-02
8.980000000000000000e+02 2.260993003845214844e+01 4.104704284667968750e+01 -1.940119415521621704e-01 2.360144138336181641e+00 6.498396396636962891e-01 -1.034147758036851883e-02
8.990000000000000000e+02 3.012730598449707031e+01 2.513339042663574219e+01 -5.168530344963073730e-01 1.019771620631217957e-01 -1.244627609848976135e-01 -3.002606332302093506e-01
9.000000000000000000e+02 3.528436279296875000e+01 2.623805618286132812e+01 -6.832990050315856934e-01 -8.430022597312927246e-01 -4.578903615474700928e-01 -8.219463825225830078e-01
9.010000000000000000e+02 3.805234146118164062e+01 2.938209342956542969e+01 -8.980280160903930664e-01 -9.093634486198425293e-01 -5.422174334526062012e-01 -8.200379610061645508e-01
9.020000000000000000e+02 2.726329994201660156e+01 3.820442962646484375e+01 -2.461363226175308228e-01 1.297404050827026367e+00 3.153803348541259766e-01 -3.658296912908554077e-02
9.030000000000000000e+02 2.749004745483398438e+01 2.952548408508300781e+01 -3.876450359821319580e-01 1.031085848808288574e+00 1.930322498083114624e-01 -3.747653961181640625e-02
9.040000000000000000e+02 2.936469841003417969e+01 2.859508895874023438e+01 -4.306177496910095215e-01 5.417094230651855469e-01 3.332750126719474792e-02 -1.986737549304962158e-01
9.050000000000000000e+02 3.254649353027343750e+01 2.307683944702148438e+01 -6.244053244590759277e-01 -6.611071228981018066e-01 -3.856537342071533203e-01 -6.188800334930419922e-01
9.060000000000000000e+02 3.163480758666992188e+01 2.205937385559082031e+01 -5.808001160621643066e-01 -5.068001151084899902e-01 -3.262800574302673340e-01 -6.214179396629333496e-01
9.070000000000000000e+02 2.765552330017089844e+01 1.821590995788574219e+01 -4.140883684158325195e-01 -1.513694822788238525e-01 -1.696373522281646729e-01 -3.109877705574035645e-01
9.080000000000000000e+02 3.688334655761718750e+01 3.057886123657226562e+01 -6.608827114105224609e-01 -6.919407248497009277e-01 -4.058470427989959717e-01 -6.647329330444335938e-01
9.090000000000000000e+02 1.942697525024414062e+01 -1.378948450088500977e+00 1.585886359214782715e+00 -1.340117305517196655e-01 4.355624020099639893e-01 4.881731271743774414e-01
9.100000000000000000e+02 1.991286468505859375e+01 1.163023233413696289e+00 -3.749305307865142822e-01 7.029619067907333374e-02 -9.139030426740646362e-02 -5.950863361358642578e-01
9.110000000000000000e+02 3.602361297607421875e+01 -1.717053031921386719e+01 1.039984300732612610e-01 1.240911364555358887e+00 4.034729301929473877e-01 -4.419484436511993408e-01
9.120000000000000000e+02 4.035123062133789062e+01 -2.422753906250000000e+01 3.113840520381927490e-01 2.682711839675903320e+00 8.982287645339965820e-01 -1.017814993858337402e+00
9.130000000000000000e+02 3.755981445312500000e+01 -3.891312026977539062e+01 1.306585669517517090e+00 5.729136466979980469e-01 5.638498067855834961e-01 -5.485063791275024414e-01
9.140000000000000000e+02 3.683839035034179688e+01 -3.769223403930664062e+01 6.960119605064392090e-01 6.040045619010925293e-01 3.900049626827239990e-01 -5.760980248451232910e-01
9.150000000000000000e+02 3.183296585083007812e+01 -3.129662132263183594e+01 5.789048075675964355e-01 1.606379747390747070e+00 6.555853486061096191e-01 -8.728814125061035156e-01
9.160000000000000000e+02 2.847377586364746094e+01 -3.103274917602539062e+01 3.176852464675903320e-01 2.284057378768920898e+00 7.805227637290954590e-01 -7.232524752616882324e-01
9.170000000000000000e+02 2.982578086853027344e+01 -2.761978530883789062e+01 4.186787903308868408e-01 2.104824542999267578e+00 7.570509910583496094e-01 -9.385887384414672852e-01
9.180000000000000000e+02 2.803653717041015625e+01 -2.388027954101562500e+01 5.305269956588745117e-01 2.584997653961181641e+00 9.346573948860168457e-01 -1.153926610946655273e+00
9.190000000000000000e+02 2.609973716735839844e+01 -2.289497947692871094e+01 4.408587813377380371e-01 2.999722003936767578e+00 1.032174229621887207e+00 -1.178119778633117676e+00
9.200000000000000000e+02 2.392381286621093750e+01 -2.598810577392578125e+01 1.323181837797164917e-01 3.350640058517456055e+00 1.044887423515319824e+00 -8.479574322700500488e-01
9.210000000000000000e+02 2.747117614746093750e+01 -2.262891769409179688e+01 5.263490676879882812e-01 2.697640895843505859e+00 9.671970009803771973e-01 -1.219338178634643555e+00
9.220000000000000000e+02 2.368921470642089844e+01 -1.543630886077880859e+01 1.208728551864624023e+00 3.845772504806518555e+00 1.516350269317626953e+00 -2.183396339416503906e+00
9.230000000000000000e+02 2.384600830078125000e+01 -1.813312530517578125e+01 6.121524572372436523e-01 3.691502094268798828e+00 1.291096329689025879e+00 -1.654832720756530762e+00
9.240000000000000000e+02 2.227278518676757812e+01 -1.310258483886718750e+01 1.409977793693542480e+00 5.148486137390136719e+00 1.967539072036743164e+00 -2.693913221359252930e+00
9.250000000000000000e+02 1.946733856201171875e+01 -6.810034275054931641e+00 8.818632364273071289e-01 7.502193927764892578e+00 2.515217065811157227e+00 -2.249779224395751953e+00
9.260000000000000000e+02 1.919753265380859375e+01 -5.425374031066894531e+00 3.896016478538513184e-01 5.918159008026123047e+00 1.892328143119812012e+00 -1.804879903793334961e+00
9.270000000000000000e+02 1.808878517150878906e+01 -1.447199702262878418e+00 2.123879432678222656e+00 1.053607821464538574e+00 9.532461762428283691e-01 -8.489538431167602539e-01
9.280000000000000000e+02 1.961594772338867188e+01 -1.253024488687515259e-01 2.313591241836547852e+00 9.863720089197158813e-02 7.236685156822204590e-01 -5.798286292701959610e-03
9.290000000000000000e+02 3.355673980712890625e+01 -1.066913700103759766e+01 4.332385584712028503e-02 7.973586916923522949e-01 2.522047460079193115e-01 -2.253379076719284058e-01
9.300000000000000000e+02 3.137108230590820312e+01 -1.191541194915771484e+01 1.063727773725986481e-02 2.131013572216033936e-01 6.712159514427185059e-02 -1.063705161213874817e-01
9.310000000000000000e+02 4.078187561035156250e+01 -1.714913940429687500e+01 -8.438155055046081543e-02 2.792925834655761719e+00 8.125633001327514648e-01 -4.804108142852783203e-01
9.320000000000000000e+02 3.890379714965820312e+01 -1.689349174499511719e+01 5.246342625468969345e-03 2.179910182952880859e+00 6.555469632148742676e-01 -4.839616417884826660e-01
9.330000000000000000e+02 3.992617416381835938e+01 -9.886455535888671875e+00 -7.815708220005035400e-02 2.404677867889404297e+00 6.979562044143676758e-01 -2.122742831707000732e-01
9.340000000000000000e+02 4.105004882812500000e+01 -4.013438224792480469e+00 -7.564320415258407593e-02 2.539053678512573242e+00 7.390231490135192871e-01 8.863983303308486938e-02
9.350000000000000000e+02 4.185624694824218750e+01 5.086825370788574219e+00 -1.656061708927154541e-01 2.482435703277587891e+00 6.950488686561584473e-01 4.795889258384704590e-01
9.360000000000000000e+02 3.950844573974609375e+01 1.053245353698730469e+01 -1.222481131553649902e-01 1.604031562805175781e+00 4.445350468158721924e-01 4.701138734817504883e-01
9.370000000000000000e+02 4.054249954223632812e+01 2.117261123657226562e+01 3.067178130149841309e-01 4.987640976905822754e-01 2.416445761919021606e-01 4.420671463012695312e-01
9.380000000000000000e+02 4.031521606445312500e+01 -1.217079925537109375e+01 -1.270913481712341309e-01 2.551143646240234375e+00 7.272157073020935059e-01 -2.795335650444030762e-01
9.390000000000000000e+02 3.365739440917968750e+01 -3.886833906173706055e+00 2.603813409805297852e-01 8.172044157981872559e-01 3.232757449150085449e-01 -9.635183960199356079e-02
9.400000000000000000e+02 2.749393272399902344e+01 6.295455455780029297e+00 -5.406419038772583008e-01 -2.287141531705856323e-01 -2.308068126440048218e-01 -3.428655266761779785e-01
9.410000000000000000e+02 4.798938751220703125e+01 1.168837428092956543e+00 -3.653662502765655518e-01 4.125757217407226562e+00 1.128117203712463379e+00 4.364053905010223389e-01
9.420000000000000000e+02 5.897218704223632812e+01 -1.212579250335693359e+01 -3.770815432071685791e-01 6.437038898468017578e+00 1.817987203598022461e+00 4.778082966804504395e-01
9.430000000000000000e+02 6.745563507080078125e+01 -9.490591049194335938e+00 -2.261527180671691895e-01 7.455862998962402344e+00 2.168913125991821289e+00 4.212768673896789551e-01
9.440000000000000000e+02 7.028265380859375000e+01 -3.460456848144531250e+00 -1.852028518915176392e-01 7.907162189483642578e+00 2.316587924957275391e+00 1.956880241632461548e-01
9.450000000000000000e+02 7.936318969726562500e+01 -5.597391128540039062e+00 -4.499530419707298279e-03 9.177041053771972656e+00 2.751762390136718750e+00 1.813939213752746582e-02
9.460000000000000000e+02 7.936733245849609375e+01 -1.255992603302001953e+01 -2.327827503904700279e-03 8.810235977172851562e+00 2.642372369766235352e+00 4.081542044878005981e-02
9.470000000000000000e+02 7.162106323242187500e+01 -1.076211643218994141e+01 -1.100028827786445618e-01 7.908584117889404297e+00 2.339574337005615234e+00 3.587578237056732178e-01
9.480000000000000000e+02 7.294953918457031250e+01 5.383740901947021484e+00 -1.529422849416732788e-01 8.333719253540039062e+00 2.454233169555664062e+00 -1.325145810842514038e-01
9.490000000000000000e+02 7.936836242675781250e+01 2.758223533630371094e+00 -6.772526539862155914e-03 9.298537254333496094e+00 2.787529468536376953e+00 -1.629862003028392792e-02
9.500000000000000000e+02 6.617029571533203125e+01 -1.831860899925231934e+00 -3.286203145980834961e-01 7.420090675354003906e+00 2.127441167831420898e+00 2.238831520080566406e-01
9.510000000000000000e+02 5.958322525024414062e+01 7.468826770782470703e-01 -5.243684053421020508e-01 6.521544456481933594e+00 1.799152731895446777e+00 3.010785579681396484e-01
9.520000000000000000e+02 4.903303527832031250e+01 6.539123535156250000e+00 -4.418359100818634033e-01 4.408930778503417969e+00 1.190128445625305176e+00 6.184299588203430176e-01
9.530000000000000000e+02 4.066147232055664062e+01 -2.725715875625610352e+00 -4.922488704323768616e-02 2.424249172210693359e+00 7.125072479248046875e-01 1.190832778811454773e-01
9.540000000000000000e+02 3.562632369995117188e+01 -6.754971027374267578e+00 1.368526667356491089e-01 1.284627318382263184e+00 4.264439940452575684e-01 -1.546853482723236084e-01
9.550000000000000000e+02 3.380910110473632812e+01 5.278191089630126953e+00 -7.174143940210342407e-02 6.455429792404174805e-01 1.721404492855072021e-01 1.583434790372848511e-01
9.560000000000000000e+02 2.786794853210449219e+01 8.135462760925292969e+00 -6.141303181648254395e-01 -3.985109329223632812e-01 -3.037923872470855713e-01 -5.247048735618591309e-01
9.570000000000000000e+02 2.678339195251464844e+01 7.235852241516113281e+00 -7.385089993476867676e-01 -4.464732408523559570e-01 -3.554946780204772949e-01 -5.055811405181884766e-01
9.580000000000000000e+02 3.503344345092773438e+01 6.194482803344726562e+00 -8.479058742523193359e-02 8.424310088157653809e-01 2.272921204566955566e-01 2.076954990625381470e-01
9.590000000000000000e+02 3.774203872680664062e+01 1.811244773864746094e+01 6.547004729509353638e-02 2.748030424118041992e-01 1.020819321274757385e-01 1.244209706783294678e-01
9.600000000000000000e+02 2.752992820739746094e+01 -6.074833869934082031e+00 2.168825417757034302e-01 1.264535486698150635e-01 1.030008271336555481e-01 -1.012051403522491455e-01
9.610000000000000000e+02 7.400320529937744141e+00 -1.762043571472167969e+01 -3.682023286819458008e-01 4.745824337005615234e+00 1.313286662101745605e+00 6.656638979911804199e-01
9.620000000000000000e+02 6.002155780792236328e+00 -2.375472068786621094e+01 -1.606993526220321655e-01 4.442109584808349609e+00 1.284423112869262695e+00 3.907371163368225098e-01
9.630000000000000000e+02 2.042949867248535156e+01 -2.409996414184570312e+01 -7.780248671770095825e-02 4.100208282470703125e+00 1.206721782684326172e+00 -7.351827025413513184e-01
9.640000000000000000e+02 2.351945495605468750e+01 -3.166305160522460938e+01 7.206839323043823242e-02 3.077320814132690430e+00 9.448167681694030762e-01 -5.135928392410278320e-01
9.650000000000000000e+02 7.194519042968750000e+01 -3.160619354248046875e+01 1.274527162313461304e-01 7.184456825256347656e+00 2.193572759628295898e+00 4.184617102146148682e-01
9.660000000000000000e+02 7.913588714599609375e+01 -3.346056747436523438e+01 1.616685651242733002e-02 7.132563114166259766e+00 2.144618988037109375e+00 5.022172257304191589e-02
9.670000000000000000e+02 7.155203247070312500e+01 -2.436210250854492188e+01 8.695820346474647522e-03 7.444222927093505859e+00 2.235875606536865234e+00 5.256820917129516602e-01
9.680000000000000000e+02 7.935501861572265625e+01 -2.648578643798828125e+01 -9.810204617679119110e-03 7.662878513336181641e+00 2.295920610427856445e+00 5.708733201026916504e-02
9.690000000000000000e+02 6.574217987060546875e+01 -3.082655525207519531e+01 2.724256515502929688e-01 6.984055519104003906e+00 2.176944255828857422e+00 5.864578485488891602e-01
9.700000000000000000e+02 5.359091949462890625e+01 -3.476153564453125000e+01 1.163321495056152344e+00 6.808487415313720703e+00 2.391542673110961914e+00 3.230736553668975830e-01
9.710000000000000000e+02 4.303311157226562500e+01 -2.583057594299316406e+01 1.502812951803207397e-01 4.250333786010742188e+00 1.320184588432312012e+00 -1.092683076858520508e+00
9.720000000000000000e+02 4.748516464233398438e+01 -2.689753341674804688e+01 7.240857928991317749e-03 6.083070755004882812e+00 1.827093482017517090e+00 -1.775505840778350830e-01
9.730000000000000000e+02 7.156667327880859375e+01 -1.727913093566894531e+01 -6.596484035253524780e-02 7.696239948272705078e+00 2.289082527160644531e+00 4.880112409591674805e-01
9.740000000000000000e+02 7.935601806640625000e+01 -2.232173919677734375e+01 7.164775393903255463e-03 8.029500007629394531e+00 2.410999298095703125e+00 5.715779587626457214e-02
9.750000000000000000e+02 6.348416519165039062e+01 -2.398813438415527344e+01 2.733606845140457153e-02 6.936995506286621094e+00 2.089299440383911133e+00 7.122799754142761230e-01
9.760000000000000000e+02 5.486922073364257812e+01 -2.124320411682128906e+01 -2.335922867059707642e-01 6.293439388275146484e+00 1.817954182624816895e+00 4.962370395660400391e-01
9.770000000000000000e+02 4.789874267578125000e+01 -1.730181121826171875e+01 -3.878329992294311523e-01 4.822842597961425781e+00 1.330502867698669434e+00 -5.952832475304603577e-02
9.780000000000000000e+02 5.440363311767578125e+01 -1.868121528625488281e+01 -3.424707353115081787e-01 6.086518764495849609e+00 1.723214507102966309e+00 4.190946519374847412e-01
9.790000000000000000e+02 4.646272659301757812e+01 -1.037262916564941406e+01 -3.360582888126373291e-01 4.070145130157470703e+00 1.120226025581359863e+00 1.096091419458389282e-02
9.800000000000000000e+02 3.424815368652343750e+01 -1.661669731140136719e+01 1.314541846513748169e-01 6.911831498146057129e-01 2.467911988496780396e-01 -3.281569182872772217e-01
9.810000000000000000e+02 7.299641418457031250e+01 1.217397785186767578e+01 -1.904478967189788818e-01 8.269007682800292969e+00 2.423567771911621094e+00 -4.089433252811431885e-01
9.820000000000000000e+02 7.936874389648437500e+01 8.330050468444824219e+00 -7.507523521780967712e-03 9.125809669494628906e+00 2.735490560531616211e+00 -4.580630362033843994e-02
9.830000000000000000e+02 6.497195434570312500e+01 3.584233283996582031e+00 -4.373537302017211914e-01 7.392563343048095703e+00 2.086562871932983398e+00 7.924319058656692505e-02
9.840000000000000000e+02 5.648675155639648438e+01 5.237802028656005859e+00 -6.055296063423156738e-01 6.140027046203613281e+00 1.660349249839782715e+00 3.801349401473999023e-01
9.850000000000000000e+02 4.721543884277343750e+01 1.315627098083496094e+01 -3.201759159564971924e-01 3.912353992462158203e+00 1.077653408050537109e+00 9.691633582115173340e-01
9.860000000000000000e+02 4.157707214355468750e+01 1.061943626403808594e+01 -1.478052288293838501e-01 2.173903465270996094e+00 6.078294515609741211e-01 6.148236989974975586e-01
9.870000000000000000e+02 3.581817626953125000e+01 1.409265613555908203e+01 -1.395519226789474487e-01 3.030940294265747070e-01 4.906263574957847595e-02 2.661115117371082306e-02
9.880000000000000000e+02 4.060069274902343750e+01 5.791172504425048828e+00 -1.267173737287521362e-01 2.139507293701171875e+00 6.038369536399841309e-01 4.637771844863891602e-01
9.890000000000000000e+02 7.291542816162109375e+01 1.636714553833007812e+01 -1.797425746917724609e-01 8.156564712524414062e+00 2.393046617507934570e+00 -6.085948944091796875e-01
9.900000000000000000e+02 7.936489105224609375e+01 1.669297981262207031e+01 -4.945165943354368210e-03 8.356011390686035156e+00 2.505319833755493164e+00 -9.710248559713363647e-02
9.910000000000000000e+02 6.563056182861328125e+01 1.060936260223388672e+01 -5.232782959938049316e-01 7.733657360076904297e+00 2.163113832473754883e+00 -2.160132825374603271e-01
9.920000000000000000e+02 5.362593460083007812e+01 1.055531883239746094e+01 -6.503256559371948242e-01 5.763868808746337891e+00 1.534062981605529785e+00 6.280355453491210938e-01
9.930000000000000000e+02 4.232891464233398438e+01 1.931058692932128906e+01 2.326137870550155640e-01 1.517844676971435547e+00 5.251375436782836914e-01 8.338050246238708496e-01
9.940000000000000000e+02 7.361668395996093750e+01 2.522655677795410156e+01 -1.316012535244226456e-02 7.679007053375244141e+00 2.299754142761230469e+00 -8.107036948204040527e-01
9.950000000000000000e+02 7.936071777343750000e+01 2.365367507934570312e+01 -8.226490579545497894e-03 7.253300189971923828e+00 2.173522233963012695e+00 -1.286353766918182373e-01
9.960000000000000000e+02 6.663554382324218750e+01 1.709186935424804688e+01 -4.736082851886749268e-01 8.121414184570312500e+00 2.294341802597045898e+00 -5.847092270851135254e-01
9.970000000000000000e+02 5.508707809448242188e+01 1.903553962707519531e+01 -6.827264428138732910e-01 7.018333435058593750e+00 1.900682091712951660e+00 7.853609323501586914e-01
9.980000000000000000e+02 7.355404663085937500e+01 3.348468780517578125e+01 2.292829453945159912e-01 7.252217769622802734e+00 2.244450330734252930e+00 -5.545249581336975098e-01
9.990000000000000000e+02 7.925907135009765625e+01 2.924213027954101562e+01 -2.304649166762828827e-02 6.247555732727050781e+00 1.867352843284606934e+00 -1.385057121515274048e-01
1.000000000000000000e+03 6.099739456176757812e+01 2.456570243835449219e+01 -3.117650151252746582e-01 8.992884635925292969e+00 2.604335784912109375e+00 -3.637863397598266602e-01
1.001000000000000000e+03 6.006410598754882812e+01 3.232560729980468750e+01 1.748123407363891602e+00 1.046326255798339844e+01 3.663415670394897461e+00 -1.838987171649932861e-01
1.002000000000000000e+03 5.452100276947021484e+00 3.996279907226562500e+01 2.775803208351135254e-02 6.600478172302246094e+00 1.988470792770385742e+00 -1.003354042768478394e-01
1.003000000000000000e+03 8.035518646240234375e+00 3.335291671752929688e+01 -1.749844849109649658e-01 5.880662918090820312e+00 1.711703538894653320e+00 -2.042414397001266479e-01
1.004000000000000000e+03 1.314165210723876953e+01 4.082428741455078125e+01 -1.593774706125259399e-01 4.613963127136230469e+00 1.336375713348388672e+00 -1.567002199590206146e-02
1.005000000000000000e+03 1.612357330322265625e+01 3.014206504821777344e+01 -4.761070907115936279e-01 4.124939918518066406e+00 1.094649791717529297e+00 -5.604476109147071838e-02
1.006000000000000000e+03 2.468174362182617188e+01 3.263291549682617188e+01 -3.282752931118011475e-01 1.849134922027587891e+00 4.562578797340393066e-01 2.395942434668540955e-02
1.007000000000000000e+03 4.100733184814453125e+01 3.227519989013671875e+01 -8.655693531036376953e-01 -7.040926218032836914e-01 -4.708985686302185059e-01 -8.225406408309936523e-01
1.008000000000000000e+03 4.304204559326171875e+01 3.645506668090820312e+01 -8.382017612457275391e-01 -6.067879796028137207e-01 -4.334969222545623779e-01 -6.218872666358947754e-01
1.009000000000000000e+03 5.654130935668945312e+01 3.868832397460937500e+01 -1.981660872697830200e-01 1.310785865783691406e+01 3.872907876968383789e+00 3.345438241958618164e+00
1.010000000000000000e+03 1.371867656707763672e+01 2.643786239624023438e+01 -6.583279967308044434e-01 4.842711925506591797e+00 1.255315184593200684e+00 -2.146301865577697754e-01
1.011000000000000000e+03 1.940394973754882812e+01 1.537218284606933594e+01 -3.715923428535461426e-01 3.562187194824218750e+00 9.571784734725952148e-01 1.043108820915222168e+00
1.012000000000000000e+03 1.497067451477050781e+01 1.351537609100341797e+01 -1.076279282569885254e+00 6.895436763763427734e+00 1.745747208595275879e+00 7.512650489807128906e-01
1.013000000000000000e+03 1.268680095672607422e+01 7.608759880065917969e+00 -6.307464241981506348e-01 1.333335590362548828e+01 3.810782670974731445e+00 1.596312820911407471e-01
1.014000000000000000e+03 1.267055869102478027e-01 -1.984648227691650391e+00 -7.969006896018981934e-03 -4.488784372806549072e-01 -1.370542347431182861e-01 -4.438303783535957336e-02
1.015000000000000000e+03 7.173384428024291992e-01 -1.658852577209472656e+00 -6.524738855659961700e-03 -2.032997310161590576e-01 -6.294734030961990356e-02 -1.987320631742477417e-01
1.016000000000000000e+03 2.707554101943969727e+00 -1.632055163383483887e+00 -2.671381458640098572e-02 1.985828578472137451e-02 -2.056658267974853516e-03 -3.210530579090118408e-01
1.017000000000000000e+03 2.061892747879028320e+00 -4.159119415283203125e+01 1.645026542246341705e-02 4.824756622314453125e+00 1.452362060546875000e+00 -4.555852618068456650e-03
1.018000000000000000e+03 1.374348402023315430e+00 -3.999133300781250000e+01 -1.123747788369655609e-02 4.830594539642333984e+00 1.445807099342346191e+00 -1.428719237446784973e-02
1.019000000000000000e+03 5.053766369819641113e-01 -3.618201828002929688e+01 4.691084846854209900e-03 4.859235763549804688e+00 1.459177970886230469e+00 3.908691462129354477e-03
1.020000000000000000e+03 5.026151537895202637e-01 -3.503767013549804688e+01 -9.211810305714607239e-03 4.837603092193603516e+00 1.448517441749572754e+00 1.079678442329168320e-02
1.021000000000000000e+03 6.786779761314392090e-01 -3.375083160400390625e+01 -8.154049864970147610e-04 4.803102970123291016e+00 1.440686345100402832e+00 1.991823501884937286e-02
1.022000000000000000e+03 7.524434328079223633e-01 -2.952752685546875000e+01 -2.113106660544872284e-03 4.645096778869628906e+00 1.392895102500915527e+00 4.218307882547378540e-02
1.023000000000000000e+03 7.112508416175842285e-01 -2.814528083801269531e+01 -1.867169397883117199e-03 4.565290451049804688e+00 1.369026899337768555e+00 4.582088068127632141e-02
1.024000000000000000e+03 6.850326061248779297e-01 -2.677882003784179688e+01 -4.519873764365911484e-03 4.471722602844238281e+00 1.340160846710205078e+00 5.226196721196174622e-02
1.025000000000000000e+03 6.521523594856262207e-01 -2.269730758666992188e+01 -2.498759655281901360e-03 4.083414077758789062e+00 1.224274635314941406e+00 7.916685193777084351e-02
1.026000000000000000e+03 6.408142447471618652e-01 -2.133013153076171875e+01 -8.494833484292030334e-03 3.906265020370483398e+00 1.169331073760986328e+00 9.111610800027847290e-02
1.027000000000000000e+03 1.915368914604187012e+00 -2.134774208068847656e+01 -2.777424082159996033e-02 3.986936092376708984e+00 1.187748551368713379e+00 2.515683472156524658e-01
1.028000000000000000e+03 6.269299387931823730e-01 -1.996451950073242188e+01 -3.506140550598502159e-03 3.698835849761962891e+00 1.108598947525024414e+00 1.039309799671173096e-01
1.029000000000000000e+03 5.704202651977539062e-01 -1.587374687194824219e+01 -9.469132870435714722e-03 2.847564935684204102e+00 8.514287471771240234e-01 1.475421190261840820e-01
1.030000000000000000e+03 5.492045283317565918e-01 -1.451625061035156250e+01 -2.604154171422123909e-03 2.469693899154663086e+00 7.401269078254699707e-01 1.619696617126464844e-01
1.031000000000000000e+03 1.654779195785522461e+00 -1.457375144958496094e+01 -4.305185005068778992e-02 2.813287019729614258e+00 8.310705423355102539e-01 4.529205858707427979e-01
1.032000000000000000e+03 5.301327109336853027e-01 -1.316213798522949219e+01 -9.498797357082366943e-03 2.037836790084838867e+00 6.085013747215270996e-01 1.779382079839706421e-01
1.033000000000000000e+03 5.207718610763549805e-01 -9.108804702758789062e+00 1.372737577185034752e-03 4.955465793609619141e-01 1.490758061408996582e-01 2.019133418798446655e-01
1.034000000000000000e+03 5.759763717651367188e-01 -7.721000671386718750e+00 -5.019435193389654160e-03 -3.123035281896591187e-02 -1.087493635714054108e-02 2.074826359748840332e-01
1.035000000000000000e+03 1.472240209579467773e+00 -6.116947174072265625e+00 1.259157806634902954e-01 2.489549666643142700e-01 1.124612241983413696e-01 3.395789563655853271e-01
1.036000000000000000e+03 4.758649826049804688e+01 -3.883137512207031250e+01 1.250538468360900879e+00 7.717527866363525391e+00 2.690419912338256836e+00 -7.200919985771179199e-01
1.037000000000000000e+03 3.180096817016601562e+01 -3.876825714111328125e+01 7.036365866661071777e-01 1.221955895423889160e+00 5.776777267456054688e-01 -2.401556819677352905e-01
1.038000000000000000e+03 1.293303489685058594e+01 -4.073411560058593750e+01 -9.273993223905563354e-02 4.055265903472900391e+00 1.188757777214050293e+00 -3.346304642036557198e-03
1.039000000000000000e+03 7.882855224609375000e+01 4.003563690185546875e+01 6.140102073550224304e-02 5.483322143554687500e+00 1.663416981697082520e+00 7.620177417993545532e-02
1.040000000000000000e+03 7.929611968994140625e+01 3.879392242431640625e+01 -3.773866593837738037e-02 5.382526397705078125e+00 1.603436350822448730e+00 1.700600236654281616e-02
1.041000000000000000e+03 7.824874114990234375e+01 3.795005798339843750e+01 5.934102833271026611e-02 5.691008567810058594e+00 1.725104928016662598e+00 -3.680314123630523682e-02
1.042000000000000000e+03 7.918292236328125000e+01 3.490021514892578125e+01 -2.595620462670922279e-03 5.518719673156738281e+00 1.654837131500244141e+00 -5.509894341230392456e-02
1.043000000000000000e+03 7.744432067871093750e+01 3.355473327636718750e+01 3.996881842613220215e-02 6.194530963897705078e+00 1.870349884033203125e+00 -2.781172692775726318e-01
1.044000000000000000e+03 7.916148376464843750e+01 3.348086547851562500e+01 5.753475800156593323e-02 5.645433902740478516e+00 1.710890531539916992e+00 -1.047405228018760681e-01
1.045000000000000000e+03 7.921687316894531250e+01 3.064953041076660156e+01 3.784237056970596313e-02 6.022569179534912109e+00 1.818123459815979004e+00 -1.239732652902603149e-01
1.046000000000000000e+03 7.778183746337890625e+01 2.915832710266113281e+01 3.329848870635032654e-02 6.604870319366455078e+00 1.991450667381286621e+00 -3.530949950218200684e-01
1.047000000000000000e+03 7.933168029785156250e+01 2.644124221801757812e+01 -1.462539192289113998e-02 6.743743896484375000e+00 2.018735647201538086e+00 -1.364388465881347656e-01
1.048000000000000000e+03 7.673621368408203125e+01 2.620517158508300781e+01 1.169788883998990059e-03 7.167520046234130859e+00 2.150607109069824219e+00 -5.306982398033142090e-01
1.049000000000000000e+03 7.935153198242187500e+01 2.504562950134277344e+01 8.362329564988613129e-03 7.000535488128662109e+00 2.102669239044189453e+00 -1.276446282863616943e-01
1.050000000000000000e+03 7.936377716064453125e+01 2.087311363220214844e+01 -4.695059731602668762e-03 7.733678340911865234e+00 2.318694829940795898e+00 -1.192669421434402466e-01
1.051000000000000000e+03 7.936383819580078125e+01 1.948087310791015625e+01 -1.831234549172222614e-03 7.955939292907714844e+00 2.386232376098632812e+00 -1.111035868525505066e-01
1.052000000000000000e+03 7.808799743652343750e+01 2.081546401977539062e+01 -9.696866385638713837e-03 7.761880397796630859e+00 2.325655221939086914e+00 -3.058517277240753174e-01
1.053000000000000000e+03 7.936416625976562500e+01 1.808728981018066406e+01 -2.668471075594425201e-03 8.164105415344238281e+00 2.448431253433227539e+00 -1.061783581972122192e-01
1.054000000000000000e+03 7.936678314208984375e+01 1.390431594848632812e+01 -6.610675714910030365e-03 8.686799049377441406e+00 2.604056596755981445e+00 -8.011269569396972656e-02
1.055000000000000000e+03 7.936741638183593750e+01 1.251057529449462891e+01 -7.198752136901021004e-04 8.824250221252441406e+00 2.647059202194213867e+00 -7.183030992746353149e-02
1.056000000000000000e+03 7.936819458007812500e+01 1.111705112457275391e+01 -7.380768656730651855e-03 8.942679405212402344e+00 2.680589437484741211e+00 -6.258682906627655029e-02
1.057000000000000000e+03 7.936885070800781250e+01 6.937163829803466797e+00 4.812344559468328953e-04 9.192042350769042969e+00 2.757757186889648438e+00 -3.783076629042625427e-02
1.058000000000000000e+03 7.936866760253906250e+01 5.544085502624511719e+00 -7.209592964500188828e-03 9.242001533508300781e+00 2.770437479019165039e+00 -3.032969124615192413e-02
1.059000000000000000e+03 7.810501861572265625e+01 5.486505985260009766e+00 -1.210051123052835464e-02 9.028876304626464844e+00 2.705032587051391602e+00 -6.504709273576736450e-02
1.060000000000000000e+03 7.936839294433593750e+01 4.151097774505615234e+00 7.190762553364038467e-04 9.277505874633789062e+00 2.783467531204223633e+00 -2.299223840236663818e-02
1.061000000000000000e+03 7.936798095703125000e+01 -2.802091836929321289e-02 -6.409917958080768585e-03 9.303090095520019531e+00 2.789004087448120117e+00 -3.890608670189976692e-03
1.062000000000000000e+03 7.936613464355468750e+01 -1.420701146125793457e+00 7.509057177230715752e-04 9.287766456604003906e+00 2.786555290222167969e+00 2.429974498227238655e-03
1.063000000000000000e+03 7.936322021484375000e+01 -4.207074642181396484e+00 2.957254473585635424e-04 9.224157333374023438e+00 2.767335891723632812e+00 1.351768523454666138e-02
1.064000000000000000e+03 7.936643218994140625e+01 -8.381103515625000000e+00 -3.602233249694108963e-03 9.056139945983886719e+00 2.715761184692382812e+00 2.752174623310565948e-02
1.065000000000000000e+03 7.936859893798828125e+01 -1.116713047027587891e+01 -2.014734782278537750e-03 8.899845123291015625e+00 2.669349193572998047e+00 3.624054789543151855e-02
1.066000000000000000e+03 7.936096191406250000e+01 -1.535054206848144531e+01 -3.980906680226325989e-03 8.610937118530273438e+00 2.582086801528930664e+00 4.775879904627799988e-02
1.067000000000000000e+03 7.935262298583984375e+01 -1.814270973205566406e+01 -5.079546011984348297e-03 8.388838768005371094e+00 2.515127897262573242e+00 5.393103510141372681e-02
1.068000000000000000e+03 7.935916137695312500e+01 -2.371249961853027344e+01 -8.323211222887039185e-03 7.907569408416748047e+00 2.369773864746093750e+00 5.749150365591049194e-02
1.069000000000000000e+03 7.935950469970703125e+01 -2.510040283203125000e+01 9.331111796200275421e-03 7.784049510955810547e+00 2.338014125823974609e+00 5.736659467220306396e-02
1.070000000000000000e+03 7.931636810302734375e+01 -2.925887489318847656e+01 -1.120779104530811310e-02 7.428184509277343750e+00 2.225092887878417969e+00 5.638638511300086975e-02
1.071000000000000000e+03 7.921084594726562500e+01 -3.205123519897460938e+01 -1.065190043300390244e-02 7.219562530517578125e+00 2.162673234939575195e+00 5.413674935698509216e-02
1.072000000000000000e+03 7.900972747802734375e+01 -3.627287673950195312e+01 1.375379227101802826e-02 7.002000808715820312e+00 2.104726314544677734e+00 4.109913855791091919e-02
1.073000000000000000e+03 7.895082092285156250e+01 -3.767455673217773438e+01 -5.329956300556659698e-03 6.951591491699218750e+00 2.083878517150878906e+00 3.393798694014549255e-02
1.074000000000000000e+03 7.882986450195312500e+01 -3.907369232177734375e+01 3.283746540546417236e-02 6.916983604431152344e+00 2.084946393966674805e+00 1.883513852953910828e-02
1.075000000000000000e+03 7.812281799316406250e+01 -4.178096771240234375e+01 3.242570906877517700e-03 6.905965805053710938e+00 2.072762489318847656e+00 1.066124532371759415e-03
1.076000000000000000e+03 6.607733249664306641e+00 3.769284820556640625e+01 -1.188980862498283386e-01 6.183566570281982422e+00 1.819400548934936523e+00 -1.271112114191055298e-01
1.077000000000000000e+03 2.744396972656250000e+01 4.107838058471679688e+01 -1.992646157741546631e-01 1.255165219306945801e+00 3.167701959609985352e-01 8.161323145031929016e-03
1.078000000000000000e+03 4.858153915405273438e+01 3.970813369750976562e+01 -1.701992154121398926e+00 3.827154636383056641e-01 -3.957830071449279785e-01 1.999597102403640747e-01
1.079000000000000000e+03 8.976227641105651855e-01 2.107961654663085938e+00 -3.215890005230903625e-02 -5.285246968269348145e-01 -1.682050824165344238e-01 3.352743983268737793e-01
1.080000000000000000e+03 4.499622344970703125e+00 1.659348130226135254e+00 -1.950752437114715576e-01 2.400609292089939117e-02 -5.132074654102325439e-02 5.860626101493835449e-01
1.081000000000000000e+03 1.146209120750427246e+00 6.399537086486816406e+00 1.380194574594497681e-01 -4.734247326850891113e-01 -1.006215810775756836e-01 -3.232396245002746582e-01
1.082000000000000000e+03 4.557564556598663330e-01 9.195538520812988281e+00 1.697704941034317017e-02 6.240819394588470459e-02 2.381557412445545197e-02 -2.834233939647674561e-01
1.083000000000000000e+03 5.096222758293151855e-01 1.199114131927490234e+01 -4.038297571241855621e-03 1.987067699432373047e+00 5.949088335037231445e-01 -3.542645871639251709e-01
1.084000000000000000e+03 1.536473989486694336e+00 1.176026725769042969e+01 -1.866720058023929596e-02 2.498724937438964844e+00 7.440173029899597168e-01 -9.904161691665649414e-01
1.085000000000000000e+03 5.813074111938476562e-01 1.619603919982910156e+01 -7.129047531634569168e-03 4.490393638610839844e+00 1.344979405403137207e+00 -2.948818504810333252e-01
1.086000000000000000e+03 1.799206495285034180e+00 1.728998565673828125e+01 -7.873829454183578491e-02 5.065246105194091797e+00 1.495952367782592773e+00 -7.345751523971557617e-01
1.087000000000000000e+03 5.957817435264587402e-01 1.759924888610839844e+01 -1.816785894334316254e-02 5.125076770782470703e+00 1.532072663307189941e+00 -2.597509026527404785e-01
1.088000000000000000e+03 6.200770735740661621e-01 2.181415367126464844e+01 -1.532572507858276367e-02 6.476590156555175781e+00 1.938379406929016113e+00 -1.595537662506103516e-01
1.089000000000000000e+03 6.261703372001647949e-01 2.321840667724609375e+01 -6.111615803092718124e-03 6.781626701354980469e+00 2.032654523849487305e+00 -1.369096636772155762e-01
1.090000000000000000e+03 1.876807928085327148e+00 2.284520530700683594e+01 -5.967803671956062317e-02 6.463749885559082031e+00 1.921221613883972168e+00 -3.738354444503784180e-01
1.091000000000000000e+03 6.323552131652832031e-01 2.462404060363769531e+01 -1.526395697146654129e-02 7.024057388305664062e+00 2.102638006210327148e+00 -1.099123284220695496e-01
1.092000000000000000e+03 6.442416310310363770e-01 2.884137725830078125e+01 -4.630080424249172211e-03 7.495362758636474609e+00 2.247219800949096680e+00 -5.664826929569244385e-02
1.093000000000000000e+03 6.559792160987854004e-01 3.024768447875976562e+01 -6.980967707931995392e-03 7.580670833587646484e+00 2.272106885910034180e+00 -4.342518374323844910e-02
1.094000000000000000e+03 3.222268104553222656e+00 2.932083702087402344e+01 -8.150129765272140503e-02 6.858364105224609375e+00 2.033058881759643555e+00 -2.154663056135177612e-01
1.095000000000000000e+03 6.771806478500366211e-01 3.165244865417480469e+01 -3.112768987193703651e-03 7.643806457519531250e+00 2.292208194732666016e+00 -3.352235630154609680e-02
1.096000000000000000e+03 8.193870782852172852e-01 3.583226776123046875e+01 -1.204068772494792938e-02 7.685336112976074219e+00 2.301988601684570312e+00 8.807807229459285736e-03
1.097000000000000000e+03 9.279426336288452148e-01 3.721320343017578125e+01 -1.785887405276298523e-02 7.632444858551025391e+00 2.284375667572021484e+00 3.595318645238876343e-02
1.098000000000000000e+03 1.126559615135192871e+00 3.858991241455078125e+01 -9.227992035448551178e-03 7.559387683868408203e+00 2.265048027038574219e+00 5.184396728873252869e-02
1.099000000000000000e+03 1.482032656669616699e+00 4.000017547607421875e+01 1.031530438922345638e-03 7.496908664703369141e+00 2.249382019042968750e+00 5.346888303756713867e-02
1.100000000000000000e+03 2.874640703201293945e+00 1.647581100463867188e+00 -2.503218948841094971e-01 -8.839216083288192749e-02 -1.016142144799232483e-01 6.393426656723022461e-01
1.101000000000000000e+03 2.114452600479125977e+00 1.859631657600402832e+00 -1.274180263280868530e-01 -2.074697762727737427e-01 -1.004663407802581787e-01 6.088497042655944824e-01
1.102000000000000000e+03 1.767047286033630371e+00 1.770688891410827637e+00 -1.448566168546676636e-01 -2.340792566537857056e-01 -1.136807650327682495e-01 5.542565584182739258e-01
1.103000000000000000e+03 1.515471816062927246e+00 1.610702276229858398e+00 -1.544834673404693604e-01 -2.375529259443283081e-01 -1.176109164953231812e-01 5.112777352333068848e-01
1.104000000000000000e+03 1.357565164566040039e+00 1.864440441131591797e+00 -8.113131672143936157e-02 -3.427806794643402100e-01 -1.271736025810241699e-01 5.129402279853820801e-01
1.105000000000000000e+03 9.192949533462524414e-01 1.826023697853088379e+00 -4.414476454257965088e-02 -3.343252837657928467e-01 -1.135410144925117493e-01 3.601213395595550537e-01
1.106000000000000000e+03 5.640163421630859375e-01 1.665102958679199219e+00 -6.896126270294189453e-02 -4.013649821281433105e-01 -1.410978734493255615e-01 2.379308193922042847e-01
1.107000000000000000e+03 1.151511859893798828e+01 -7.875125408172607422e-01 7.391900539398193359e+00 2.133121109008789062e+01 8.616933822631835938e+00 -1.617069840431213379e+00
1.108000000000000000e+03 1.139620971679687500e+01 -9.760416746139526367e-01 5.839944839477539062e+00 2.177907562255859375e+01 8.285706520080566406e+00 -1.852127552032470703e+00
1.109000000000000000e+03 1.167477035522460938e+01 -3.724068999290466309e-01 9.056049346923828125e+00 2.092621994018554688e+01 8.994680404663085938e+00 -2.182242423295974731e-01
1.110000000000000000e+03 1.170663356781005859e+01 3.679856359958648682e-01 9.216455459594726562e+00 2.127531242370605469e+01 9.147530555725097656e+00 2.726532459259033203e+00
1.111000000000000000e+03 1.110255718231201172e+01 1.327233791351318359e+00 4.863623142242431641e+00 2.388109588623046875e+01 8.623415946960449219e+00 2.414328813552856445e+00
1.112000000000000000e+03 1.049605083465576172e+01 1.619964480400085449e+00 2.458235263824462891e+00 2.182177162170410156e+01 7.284001827239990234e+00 -1.691556811332702637e+00
1.113000000000000000e+03 4.977678680419921875e+01 2.970084571838378906e+01 2.903588771820068359e+00 4.344033241271972656e+00 2.174286603927612305e+00 3.442702054977416992e+00
1.114000000000000000e+03 4.872098541259765625e+01 2.875382614135742188e+01 2.406432867050170898e+00 3.320219516754150391e+00 1.717995762825012207e+00 2.800099372863769531e+00
1.115000000000000000e+03 4.662322235107421875e+01 2.689148139953613281e+01 1.513438463211059570e+00 1.981863021850585938e+00 1.048590421676635742e+00 1.799309730529785156e+00
1.116000000000000000e+03 4.462675094604492188e+01 2.495515441894531250e+01 1.084833264350891113e+00 1.477319955825805664e+00 7.686460018157958984e-01 1.285501003265380859e+00
1.117000000000000000e+03 4.361042022705078125e+01 2.400036811828613281e+01 9.057816267013549805e-01 1.187514901161193848e+00 6.279889941215515137e-01 9.997125864028930664e-01
1.118000000000000000e+03 4.258519744873046875e+01 2.305763816833496094e+01 6.552470922470092773e-01 8.772427439689636230e-01 4.597469270229339600e-01 8.022475838661193848e-01
1.119000000000000000e+03 3.864026641845703125e+01 1.917232131958007812e+01 1.013294458389282227e-01 3.278693258762359619e-01 1.287596374750137329e-01 2.308576107025146484e-01
1.120000000000000000e+03 3.587870025634765625e+01 1.602305030822753906e+01 -8.526515215635299683e-02 6.314730644226074219e-02 -6.635352503508329391e-03 -4.923872649669647217e-02
1.121000000000000000e+03 3.492885589599609375e+01 1.498950195312500000e+01 -1.855945885181427002e-01 -6.111071258783340454e-02 -7.401159405708312988e-02 -1.022165045142173767e-01
1.122000000000000000e+03 3.299198532104492188e+01 1.294911384582519531e+01 -3.256089091300964355e-01 -2.251814007759094238e-01 -1.652370989322662354e-01 -2.478592246770858765e-01
1.123000000000000000e+03 2.995033264160156250e+01 1.002125167846679688e+01 -4.671832621097564697e-01 -3.254688382148742676e-01 -2.377956360578536987e-01 -4.371144771575927734e-01
1.124000000000000000e+03 2.453773307800292969e+01 5.544158458709716797e+00 -9.618876576423645020e-01 -4.259587824344635010e-01 -4.163539111614227295e-01 -5.623474121093750000e-01
1.125000000000000000e+03 2.339095115661621094e+01 4.738831520080566406e+00 -1.170501828193664551e+00 -3.598320782184600830e-01 -4.591001570224761963e-01 -6.474733948707580566e-01
1.126000000000000000e+03 1.875314331054687500e+01 1.674360632896423340e+00 -1.446832895278930664e+00 -6.387095451354980469e-01 -6.256627440452575684e-01 -1.513792037963867188e+00
1.127000000000000000e+03 1.647394180297851562e+01 8.504181861877441406e+00 1.558542013168334961e+00 6.707305431365966797e+00 2.479754209518432617e+00 3.463550090789794922e+00
1.128000000000000000e+03 1.989132690429687500e+01 1.027424335479736328e+01 1.344106674194335938e+00 2.199309587478637695e+00 1.063024878501892090e+00 1.709851622581481934e+00
1.129000000000000000e+03 2.273759078979492188e+01 1.327240085601806641e+01 4.222491085529327393e-01 9.519337415695190430e-01 4.122548699378967285e-01 6.960617899894714355e-01
1.130000000000000000e+03 2.371396827697753906e+01 1.426694965362548828e+01 2.153712809085845947e-01 6.717857718467712402e-01 2.661471068859100342e-01 3.940815925598144531e-01
1.131000000000000000e+03 2.471149826049804688e+01 1.523962211608886719e+01 -8.526024408638477325e-03 3.429728746414184570e-01 1.003340557217597961e-01 1.897193640470504761e-01
1.132000000000000000e+03 2.581702613830566406e+01 1.828864669799804688e+01 -3.240894079208374023e-01 5.379377603530883789e-01 6.415449827909469604e-02 2.491311728954315186e-02
1.133000000000000000e+03 2.666276931762695312e+01 1.722633743286132812e+01 -3.122929036617279053e-01 -3.414471074938774109e-02 -1.039312779903411865e-01 -1.545888483524322510e-01
1.134000000000000000e+03 2.865452575683593750e+01 1.920369529724121094e+01 -5.225500464439392090e-01 -2.991171181201934814e-01 -2.465001493692398071e-01 -3.894754946231842041e-01
1.135000000000000000e+03 2.964830207824707031e+01 2.018923950195312500e+01 -5.584552884101867676e-01 -3.695984184741973877e-01 -2.784160971641540527e-01 -5.098728537559509277e-01
1.136000000000000000e+03 3.065337371826171875e+01 2.112499427795410156e+01 -6.424987912178039551e-01 -4.974738061428070068e-01 -3.419917821884155273e-01 -5.334952473640441895e-01
1.137000000000000000e+03 3.143425369262695312e+01 2.412608146667480469e+01 -5.397537350654602051e-01 -3.051789700984954834e-01 -2.534798085689544678e-01 -5.252476334571838379e-01
1.138000000000000000e+03 3.344789123535156250e+01 2.413170623779296875e+01 -6.160007119178771973e-01 -7.185127735137939453e-01 -4.003540277481079102e-01 -7.212145924568176270e-01
1.139000000000000000e+03 3.436594390869140625e+01 2.518526840209960938e+01 -7.119934558868408203e-01 -8.373858928680419922e-01 -4.648137986660003662e-01 -7.234368920326232910e-01
1.140000000000000000e+03 3.511013412475585938e+01 2.832789993286132812e+01 -6.426828503608703613e-01 -5.834583640098571777e-01 -3.678423762321472168e-01 -6.851711869239807129e-01
1.141000000000000000e+03 4.003067016601562500e+01 3.129935455322265625e+01 -9.242287874221801758e-01 -8.355215787887573242e-01 -5.279251337051391602e-01 -7.828472852706909180e-01
1.142000000000000000e+03 3.904998016357421875e+01 3.033498954772949219e+01 -8.332154154777526855e-01 -8.109441995620727539e-01 -4.932478964328765869e-01 -8.861479163169860840e-01
1.143000000000000000e+03 4.205903244018554688e+01 3.322895050048828125e+01 -9.645043611526489258e-01 -7.189649939537048340e-01 -5.050408244132995605e-01 -7.425231337547302246e-01
1.144000000000000000e+03 4.319560623168945312e+01 3.415542221069335938e+01 -8.653620481491088867e-01 -6.065286397933959961e-01 -4.415672123432159424e-01 -8.035604953765869141e-01
1.145000000000000000e+03 4.558056640625000000e+01 3.593501663208007812e+01 -8.630958795547485352e-01 -3.603170514106750488e-01 -3.670238554477691650e-01 -8.942658305168151855e-01
1.146000000000000000e+03 4.781853103637695312e+01 3.746860885620117188e+01 -2.433434247970581055e+00 -2.718202471733093262e-01 -8.115763664245605469e-01 -7.134377956390380859e-01
1.147000000000000000e+03 2.460899162292480469e+01 -3.081686973571777344e+00 5.332728028297424316e-01 2.590707242488861084e-01 2.377030700445175171e-01 -4.854575991630554199e-01
1.148000000000000000e+03 2.848408699035644531e+01 -7.118014335632324219e+00 9.895050525665283203e-02 8.122348785400390625e-02 5.405219644308090210e-02 -1.263799667358398438e-01
1.149000000000000000e+03 3.041411972045898438e+01 -7.556860923767089844e+00 1.296003758907318115e-01 2.971802949905395508e-01 1.280342042446136475e-01 -1.611235439777374268e-01
1.150000000000000000e+03 2.931722068786621094e+01 -8.270704269409179688e+00 1.111171618103981018e-01 1.320113092660903931e-01 7.293853908777236938e-02 -5.149101093411445618e-02
1.151000000000000000e+03 3.179377746582031250e+01 -1.007934951782226562e+01 4.160874336957931519e-02 4.298973679542541504e-01 1.414518356323242188e-01 -1.648974418640136719e-01
1.152000000000000000e+03 3.354627609252929688e+01 -1.542976474761962891e+01 1.326392740011215210e-01 5.619346499443054199e-01 2.083721756935119629e-01 -2.464771568775177002e-01
1.153000000000000000e+03 3.494598388671875000e+01 -1.780466270446777344e+01 1.951078325510025024e-01 8.412963151931762695e-01 3.109212219715118408e-01 -3.923960328102111816e-01
1.154000000000000000e+03 3.634858703613281250e+01 -2.017910957336425781e+01 2.855186462402343750e-01 1.228362560272216797e+00 4.541643559932708740e-01 -5.726470351219177246e-01
1.155000000000000000e+03 3.770583724975585938e+01 -2.258035659790039062e+01 3.441690206527709961e-01 1.527044415473937988e+00 5.613639950752258301e-01 -7.438892722129821777e-01
1.156000000000000000e+03 3.912894821166992188e+01 -2.492783737182617188e+01 5.464080572128295898e-01 2.074876546859741211e+00 7.863853573799133301e-01 -1.044526576995849609e+00
1.157000000000000000e+03 4.088554763793945312e+01 -2.230361366271972656e+01 1.046293824911117554e-01 2.936764717102050781e+00 9.124182462692260742e-01 -8.463304638862609863e-01
1.158000000000000000e+03 4.238649368286132812e+01 -2.770334625244140625e+01 4.814004004001617432e-01 4.071601867675781250e+00 1.365900635719299316e+00 -1.464315056800842285e+00
1.159000000000000000e+03 4.196809387207031250e+01 -2.958045196533203125e+01 1.087505221366882324e+00 3.880188226699829102e+00 1.490308046340942383e+00 -1.945323467254638672e+00
1.160000000000000000e+03 4.341205215454101562e+01 -3.191914367675781250e+01 1.309158563613891602e+00 6.333154201507568359e+00 2.292693853378295898e+00 -2.639597654342651367e+00
1.161000000000000000e+03 4.407524871826171875e+01 -3.311582565307617188e+01 1.382554650306701660e+00 9.043889999389648438e+00 3.127933502197265625e+00 -2.696699380874633789e+00
1.162000000000000000e+03 4.453730773925781250e+01 -3.437602615356445312e+01 1.071268200874328613e+00 1.096819019317626953e+01 3.611837387084960938e+00 -1.840993523597717285e+00
1.163000000000000000e+03 3.609168624877929688e+01 -3.659351730346679688e+01 5.501293540000915527e-01 5.899386405944824219e-01 3.420203924179077148e-01 -6.101222038269042969e-01
1.164000000000000000e+03 3.431785202026367188e+01 -3.453179931640625000e+01 4.957302808761596680e-01 7.819944620132446289e-01 3.833174109458923340e-01 -6.042787432670593262e-01
1.165000000000000000e+03 3.343047332763671875e+01 -3.349737167358398438e+01 5.524126887321472168e-01 9.619247317314147949e-01 4.543012380599975586e-01 -6.825627088546752930e-01
1.166000000000000000e+03 3.045873641967773438e+01 -2.886310577392578125e+01 4.332986176013946533e-01 2.009346961975097656e+00 7.327936291694641113e-01 -9.077919125556945801e-01
1.167000000000000000e+03 3.112555122375488281e+01 -3.009420585632324219e+01 4.901612102985382080e-01 1.867821931838989258e+00 7.073949575424194336e-01 -8.967666029930114746e-01
1.168000000000000000e+03 2.558395576477050781e+01 -2.164955711364746094e+01 4.499509632587432861e-01 3.129634380340576172e+00 1.073875546455383301e+00 -1.270696163177490234e+00
1.169000000000000000e+03 2.631176757812500000e+01 -2.015593719482421875e+01 6.134087443351745605e-01 2.945734500885009766e+00 1.067742943763732910e+00 -1.391067028045654297e+00
1.170000000000000000e+03 2.507039833068847656e+01 -1.775383377075195312e+01 7.827214002609252930e-01 3.196206808090209961e+00 1.193678498268127441e+00 -1.653059363365173340e+00
1.171000000000000000e+03 2.296566772460937500e+01 -1.428124809265136719e+01 1.438561797142028809e+00 4.565077781677246094e+00 1.801091909408569336e+00 -2.452701091766357422e+00
1.172000000000000000e+03 2.096265792846679688e+01 -1.069974422454833984e+01 1.590601801872253418e+00 6.500155448913574219e+00 2.427227020263671875e+00 -3.222882270812988281e+00
1.173000000000000000e+03 2.035330772399902344e+01 -9.456861495971679688e+00 1.743730902671813965e+00 7.856816768646240234e+00 2.880164384841918945e+00 -3.253235578536987305e+00
1.174000000000000000e+03 1.904958343505859375e+01 -4.015140533447265625e+00 4.129362106323242188e-01 3.332352161407470703e+00 1.123586535453796387e+00 -1.181373238563537598e+00
1.175000000000000000e+03 1.125646209716796875e+01 -1.167995929718017578e+00 4.704136848449707031e+00 2.219436264038085938e+01 8.069549560546875000e+00 -1.526446938514709473e+00
1.176000000000000000e+03 1.110124301910400391e+01 -1.596884608268737793e+00 2.231090545654296875e+00 2.159373474121093750e+01 7.147447586059570312e+00 -6.301854252815246582e-01
1.177000000000000000e+03 1.161051082611083984e+01 -5.907484889030456543e-01 8.327757835388183594e+00 2.080032157897949219e+01 8.738424301147460938e+00 -1.258759379386901855e+00
1.178000000000000000e+03 1.174227905273437500e+01 1.152885034680366516e-01 9.382882118225097656e+00 2.130695724487304688e+01 9.206952095031738281e+00 1.718411207199096680e+00
1.179000000000000000e+03 9.715394020080566406e+00 -1.619447350502014160e+00 2.583714485168457031e+00 1.607744026184082031e+01 5.598346233367919922e+00 7.199791908264160156e+00
1.180000000000000000e+03 1.091833686828613281e+01 1.494520187377929688e+00 3.820499420166015625e+00 2.401824188232421875e+01 8.351622581481933594e+00 1.462855577468872070e+00
1.181000000000000000e+03 1.011502742767333984e+01 -1.627076387405395508e+00 1.604314327239990234e+00 1.996434020996093750e+01 6.470596313476562500e+00 5.224130153656005859e+00
1.182000000000000000e+03 1.052941226959228516e+01 -1.546789646148681641e+00 1.544281363487243652e+00 2.224584770202636719e+01 7.137038707733154297e+00 2.463394403457641602e+00
1.183000000000000000e+03 1.160262393951416016e+01 5.835676193237304688e-01 8.723668098449707031e+00 2.240074539184570312e+01 9.337324142456054688e+00 3.438423871994018555e+00
1.184000000000000000e+03 1.107882213592529297e+01 -1.290488958358764648e+00 3.661760330200195312e+00 2.260038185119628906e+01 7.878642559051513672e+00 -1.122403264045715332e+00
1.185000000000000000e+03 1.385334587097167969e+01 2.205030202865600586e+00 4.631736278533935547e+00 3.982696914672851562e+01 1.333761119842529297e+01 -3.165288448333740234e+00
1.186000000000000000e+03 1.125109958648681641e+01 1.147784233093261719e+00 5.856536388397216797e+00 2.395844841003417969e+01 8.944495201110839844e+00 3.738953113555908203e+00
1.187000000000000000e+03 3.415502011775970459e-01 -1.723148822784423828e+00 -1.039017550647258759e-02 -2.549693584442138672e-01 -7.960786670446395874e-02 -1.327421367168426514e-01
1.188000000000000000e+03 5.098802447319030762e-01 -1.969974875450134277e+00 -6.438762880861759186e-03 -2.840787768363952637e-01 -8.715526759624481201e-02 -1.368083208799362183e-01
1.189000000000000000e+03 8.515933752059936523e-01 -2.238851070404052734e+00 1.258824951946735382e-02 -3.368420004844665527e-01 -9.727612882852554321e-02 -2.433888912200927734e-01
1.190000000000000000e+03 1.291118860244750977e+00 -4.103228569030761719e+00 1.455156207084655762e-01 -2.127605080604553223e-01 -2.017346583306789398e-02 -4.040348157286643982e-02
1.191000000000000000e+03 1.106576323509216309e+00 -1.628145933151245117e+00 -3.890738263726234436e-02 -1.569261401891708374e-01 -5.875005573034286499e-02 -2.683995366096496582e-01
1.192000000000000000e+03 1.481102824211120605e+00 -1.674329757690429688e+00 -4.417654126882553101e-02 -1.017525568604469299e-01 -4.377872869372367859e-02 -2.981075644493103027e-01
1.193000000000000000e+03 1.893825411796569824e+00 -1.697596788406372070e+00 -3.030350990593433380e-02 -5.589316040277481079e-02 -2.585900202393531799e-02 -3.240932226181030273e-01
1.194000000000000000e+03 2.103266954421997070e+00 -1.698287844657897949e+00 -2.206844463944435120e-02 -4.358597099781036377e-02 -1.969632506370544434e-02 -3.129076063632965088e-01
1.195000000000000000e+03 1.689843416213989258e+00 -1.672521710395812988e+00 -4.446709901094436646e-02 -1.114461570978164673e-01 -4.677397757768630981e-02 -3.002881407737731934e-01
1.196000000000000000e+03 2.669712543487548828e+00 -1.875354766845703125e+00 7.693003118038177490e-02 3.551026061177253723e-02 3.373208642005920410e-02 -3.058656752109527588e-01
1.197000000000000000e+03 5.316178202629089355e-01 -6.311218738555908203e+00 3.974916785955429077e-02 -4.388942122459411621e-01 -1.197435110807418823e-01 1.655602455139160156e-01
1.198000000000000000e+03 3.083721399307250977e+00 -1.699669361114501953e+00 1.949558965861797333e-02 6.008379533886909485e-02 2.387381531298160553e-02 -2.764346301555633545e-01
1.199000000000000000e+03 2.931105375289916992e+00 -1.914125919342041016e+00 1.019439250230789185e-01 6.214267387986183167e-02 4.922597855329513550e-02 -2.959293425083160400e-01
1.200000000000000000e+03 1.559538483619689941e+00 -9.341216087341308594e+00 -6.932329852133989334e-03 1.242514252662658691e+00 3.706745803356170654e-01 5.877533555030822754e-01
1.201000000000000000e+03 3.310365676879882812e+00 -1.771060585975646973e+00 5.445383116602897644e-02 8.464290946722030640e-02 4.172902181744575500e-02 -2.511591315269470215e-01
1.202000000000000000e+03 3.537463665008544922e+00 -1.730256438255310059e+00 9.596617519855499268e-02 1.176714226603507996e-01 6.409128010272979736e-02 -2.228235155344009399e-01
1.203000000000000000e+03 3.742485046386718750e+00 -1.695252776145935059e+00 1.195770651102066040e-01 1.307356655597686768e-01 7.509382069110870361e-02 -1.908171772956848145e-01
1.204000000000000000e+03 3.717575788497924805e+00 -2.020430326461791992e+00 2.643271088600158691e-01 1.940276324748992920e-01 1.375064253807067871e-01 -1.197686940431594849e-01
1.205000000000000000e+03 4.139751911163330078e+00 -1.665491104125976562e+00 1.755274236202239990e-01 1.677898466587066650e-01 1.029951795935630798e-01 -1.027455478906631470e-01
1.206000000000000000e+03 4.536076068878173828e+00 -1.653366208076477051e+00 2.885832786560058594e-01 1.993165314197540283e-01 1.463699340820312500e-01 -1.150313951075077057e-02
1.207000000000000000e+03 4.895501136779785156e+00 -1.871538639068603516e+00 5.956147909164428711e-01 3.283451497554779053e-01 2.771879732608795166e-01 2.085318267345428467e-01
1.208000000000000000e+03 5.136127471923828125e+00 -1.947253942489624023e+00 7.461616396903991699e-01 4.280920028686523438e-01 3.522760868072509766e-01 3.427213430404663086e-01
1.209000000000000000e+03 5.545224666595458984e+00 -1.651122689247131348e+00 7.658286094665527344e-01 3.239731490612030029e-01 3.269405364990234375e-01 3.822824060916900635e-01
1.210000000000000000e+03 5.920835494995117188e+00 -1.864086031913757324e+00 1.219335198402404785e+00 6.649619340896606445e-01 5.652891397476196289e-01 8.001173734664916992e-01
1.211000000000000000e+03 6.096610546112060547e+00 -1.579408288002014160e+00 1.059133291244506836e+00 4.700879752635955811e-01 4.587663710117340088e-01 6.760737299919128418e-01
1.212000000000000000e+03 6.282416343688964844e+00 -1.595435976982116699e+00 1.203214287757873535e+00 5.972517728805541992e-01 5.401397943496704102e-01 8.120585083961486816e-01
1.213000000000000000e+03 6.669559001922607422e+00 -1.629836082458496094e+00 1.633021831512451172e+00 7.720118761062622070e-01 7.215101122856140137e-01 1.170425534248352051e+00
1.214000000000000000e+03 7.478197574615478516e+00 -1.664555430412292480e+00 2.745652675628662109e+00 1.718636631965637207e+00 1.339286804199218750e+00 2.396761655807495117e+00
1.215000000000000000e+03 7.430617809295654297e+00 -1.981166124343872070e+00 2.811813116073608398e+00 2.240242481231689453e+00 1.515616655349731445e+00 2.750903606414794922e+00
1.216000000000000000e+03 8.089844703674316406e+00 -1.684510469436645508e+00 3.706900596618652344e+00 3.217225790023803711e+00 2.077237844467163086e+00 3.873448848724365234e+00
1.217000000000000000e+03 8.712532997131347656e+00 -1.692499756813049316e+00 4.085246086120605469e+00 6.341865062713623047e+00 3.128133296966552734e+00 5.774233341217041016e+00
1.218000000000000000e+03 9.321665763854980469e+00 -1.646679878234863281e+00 3.572430849075317383e+00 1.155256366729736328e+01 4.537498474121093750e+00 7.212302684783935547e+00
1.219000000000000000e+03 9.913545608520507812e+00 -1.623769879341125488e+00 1.946189880371093750e+00 1.849591255187988281e+01 6.132630825042724609e+00 6.230453968048095703e+00
1.220000000000000000e+03 9.710851669311523438e+00 1.640235185623168945e+00 3.113146066665649414e+00 1.479484653472900391e+01 5.372397422790527344e+00 -5.483313560485839844e+00
1.221000000000000000e+03 9.505311012268066406e+00 1.685854911804199219e+00 3.656296014785766602e+00 1.216499614715576172e+01 4.746387958526611328e+00 -5.614307403564453125e+00
1.222000000000000000e+03 9.288291931152343750e+00 1.681883215904235840e+00 3.883651971817016602e+00 9.725897789001464844e+00 4.082865238189697266e+00 -5.548931121826171875e+00
1.223000000000000000e+03 8.880170822143554688e+00 1.643778324127197266e+00 3.924950838088989258e+00 5.786738872528076172e+00 2.913506984710693359e+00 -4.518784523010253906e+00
1.224000000000000000e+03 8.690144538879394531e+00 1.625588655471801758e+00 3.927158117294311523e+00 4.730260848999023438e+00 2.597225666046142578e+00 -4.036226272583007812e+00
1.225000000000000000e+03 8.613565444946289062e+00 1.863413929939270020e+00 3.860207080841064453e+00 4.811545372009277344e+00 2.601525783538818359e+00 -3.982237100601196289e+00
1.226000000000000000e+03 8.301135063171386719e+00 1.659622430801391602e+00 3.267363786697387695e+00 2.880494832992553711e+00 1.844357609748840332e+00 -2.717197656631469727e+00
1.227000000000000000e+03 8.243630409240722656e+00 1.942465424537658691e+00 3.664420843124389648e+00 3.356362104415893555e+00 2.106234788894653320e+00 -3.104689598083496094e+00
1.228000000000000000e+03 7.528490066528320312e+00 1.692281961441040039e+00 2.115548372268676758e+00 1.084137916564941406e+00 9.599058628082275391e-01 -1.110579371452331543e+00
1.229000000000000000e+03 7.311659336090087891e+00 1.690159082412719727e+00 1.774307370185852051e+00 8.978969454765319824e-01 8.016613125801086426e-01 -8.921447992324829102e-01
1.230000000000000000e+03 7.102757930755615234e+00 1.683489799499511719e+00 1.480730533599853516e+00 6.696881651878356934e-01 6.451256275177001953e-01 -5.805776715278625488e-01
1.231000000000000000e+03 6.897139072418212891e+00 1.675326943397521973e+00 1.172690987586975098e+00 5.277305841445922852e-01 5.101264715194702148e-01 -3.886220753192901611e-01
1.232000000000000000e+03 6.295793056488037109e+00 1.651378870010375977e+00 5.715774893760681152e-01 2.762322723865509033e-01 2.543429136276245117e-01 7.169613987207412720e-02
1.233000000000000000e+03 6.280417442321777344e+00 1.948839306831359863e+00 1.120260119438171387e+00 4.310431182384490967e-01 4.653909802436828613e-01 -1.882999241352081299e-01
1.234000000000000000e+03 6.094540119171142578e+00 1.648976802825927734e+00 4.184937179088592529e-01 2.069275230169296265e-01 1.876263767480850220e-01 1.493664681911468506e-01
1.235000000000000000e+03 5.295120239257812500e+00 1.619639039039611816e+00 -9.027423709630966187e-02 6.024459004402160645e-02 -9.008893743157386780e-03 4.327903985977172852e-01
1.236000000000000000e+03 4.908894062042236328e+00 1.955541729927062988e+00 3.046979308128356934e-01 1.237573921680450439e-01 1.285365968942642212e-01 4.422899186611175537e-01
1.237000000000000000e+03 1.279945731163024902e+00 7.680186271667480469e+00 1.331572085618972778e-01 1.356619298458099365e-01 8.064574003219604492e-02 -5.852924585342407227e-01
1.238000000000000000e+03 4.092038154602050781e+00 1.672917723655700684e+00 -2.264631390571594238e-01 6.423262879252433777e-03 -6.601196527481079102e-02 6.203873157501220703e-01
1.239000000000000000e+03 4.500380516052246094e+00 1.974137067794799805e+00 1.941180229187011719e-01 9.668140113353729248e-02 8.723982423543930054e-02 5.258086323738098145e-01
1.240000000000000000e+03 3.068952083587646484e+00 1.669232726097106934e+00 -2.266843169927597046e-01 -5.038855224847793579e-02 -8.312186598777770996e-02 6.666709184646606445e-01
1.241000000000000000e+03 2.677823543548583984e+00 1.642036676406860352e+00 -2.477329522371292114e-01 -8.253001421689987183e-02 -9.907889366149902344e-02 6.526707410812377930e-01
1.242000000000000000e+03 3.188671588897705078e+00 2.676388978958129883e+00 3.536106050014495850e-01 2.520495094358921051e-02 1.136446595191955566e-01 5.137793421745300293e-01
1.243000000000000000e+03 2.465380668640136719e+00 1.659832477569580078e+00 -2.308701723814010620e-01 -1.208539977669715881e-01 -1.055172532796859741e-01 6.229372024536132812e-01
1.244000000000000000e+03 2.073502302169799805e+00 1.628471851348876953e+00 -2.000288367271423340e-01 -1.824672669172286987e-01 -1.147488355636596680e-01 5.730593204498291016e-01
1.245000000000000000e+03 1.882128715515136719e+00 1.613665342330932617e+00 -1.901933997869491577e-01 -1.666506528854370117e-01 -1.070532202720642090e-01 5.633096098899841309e-01
1.246000000000000000e+03 1.704370260238647461e+00 1.593955397605895996e+00 -1.738514304161071777e-01 -2.131885588169097900e-01 -1.161119937896728516e-01 5.083791017532348633e-01
1.247000000000000000e+03 6.456121802330017090e-01 1.984632611274719238e+00 -6.493100523948669434e-02 -4.030117690563201904e-01 -1.403828263282775879e-01 2.711216211318969727e-01
1.248000000000000000e+03 1.446359306573867798e-01 2.242010593414306641e+00 5.784307606518268585e-03 -6.997960805892944336e-01 -2.082035392522811890e-01 1.035029217600822449e-01
1.249000000000000000e+03 3.628761768341064453e-01 1.655744791030883789e+00 -1.672473363578319550e-02 -3.515069186687469482e-01 -1.104694977402687073e-01 1.755161434412002563e-01
1.250000000000000000e+03 8.973297119140625000e+00 -2.069800615310668945e+00 2.997951984405517578e+00 9.115452766418457031e+00 3.634021520614624023e+00 6.082357406616210938e+00
1.251000000000000000e+03 2.360676765441894531e+01 -2.097189188003540039e+00 1.029829025268554688e+00 4.947924911975860596e-01 4.573864340782165527e-01 -5.276098251342773438e-01
1.252000000000000000e+03 2.223248291015625000e+01 3.949969291687011719e+00 -1.379224300384521484e+00 -4.149268269538879395e-01 -5.382453799247741699e-01 -7.420024275779724121e-01
1.253000000000000000e+03 5.458065795898437500e+01 3.724271774291992188e+01 3.539874792098999023e+00 2.386856079101562500e+01 8.222530364990234375e+00 3.183433413505554199e-01
1.254000000000000000e+03 4.442024612426757812e+01 -3.883063125610351562e+01 1.330117583274841309e+00 6.764050960540771484e+00 2.428250551223754883e+00 2.013416767120361328e+00
1.255000000000000000e+03 1.440926265716552734e+01 1.204975962638854980e+00 7.535183429718017578e+00 1.510467529296875000e+01 6.791957855224609375e+00 -9.649268150329589844e+00
1.256000000000000000e+03 1.913822364807128906e+01 -2.652795076370239258e+00 -3.582503497600555420e-01 3.876498639583587646e-01 8.819855749607086182e-03 -8.144105672836303711e-01
1.257000000000000000e+03 1.394643878936767578e+01 3.930195808410644531e+00 6.651761531829833984e+00 2.736245536804199219e+01 1.020426464080810547e+01 8.831656455993652344e+00
1.258000000000000000e+03 3.554614305496215820e+00 -3.865170288085937500e+01 -2.177126705646514893e-02 4.738696575164794922e+00 1.415077567100524902e+00 3.158225491642951965e-02
1.259000000000000000e+03 1.714345574378967285e+00 -1.591112232208251953e+01 -3.667579591274261475e-02 3.121786832809448242e+00 9.255332946777343750e-01 4.068104326725006104e-01
1.260000000000000000e+03 2.110622167587280273e+00 -2.810619163513183594e+01 -1.709240861237049103e-02 4.512762069702148438e+00 1.348701000213623047e+00 1.265047937631607056e-01
1.261000000000000000e+03 1.988846659660339355e+00 -3.657657623291015625e+01 -1.023808028548955917e-02 4.779301166534423828e+00 1.430719017982482910e+00 2.620916999876499176e-02
1.262000000000000000e+03 9.624224305152893066e-01 -3.866595458984375000e+01 2.653521951287984848e-03 4.846304416656494141e+00 1.454687356948852539e+00 -3.486150875687599182e-03
1.263000000000000000e+03 2.029669761657714844e+00 -3.418399047851562500e+01 -1.560382917523384094e-02 4.734478950500488281e+00 1.415662527084350586e+00 4.110827669501304626e-02
1.264000000000000000e+03 7.799020409584045410e-01 -3.234763717651367188e+01 -5.194540135562419891e-03 4.761832237243652344e+00 1.426991343498229980e+00 2.629845216870307922e-02
1.265000000000000000e+03 2.230706453323364258e+00 -2.950269889831542969e+01 -1.490386202931404114e-02 4.570450782775878906e+00 1.366664052009582520e+00 1.107434555888175964e-01
1.266000000000000000e+03 2.355411767959594727e+00 -3.258240127563476562e+01 -2.178940735757350922e-02 4.671117782592773438e+00 1.394798517227172852e+00 7.720899581909179688e-02
1.267000000000000000e+03 3.238481044769287109e+00 -2.270383262634277344e+01 -6.326410919427871704e-02 4.208475589752197266e+00 1.243563532829284668e+00 3.249655067920684814e-01
1.268000000000000000e+03 6.709681153297424316e-01 -2.542090606689453125e+01 -2.072673989459872246e-03 4.362576484680175781e+00 1.308151245117187500e+00 5.885222181677818298e-02
1.269000000000000000e+03 1.951199173927307129e+00 -2.271599578857421875e+01 -3.039810992777347565e-02 4.131663799285888672e+00 1.230379700660705566e+00 2.183889001607894897e-01
1.270000000000000000e+03 2.018710136413574219e+00 -2.542095756530761719e+01 -2.386458218097686768e-02 4.354105472564697266e+00 1.299072384834289551e+00 1.666472554206848145e-01
1.271000000000000000e+03 1.876122832298278809e+00 -1.998419380187988281e+01 -3.540553897619247437e-02 3.818163156509399414e+00 1.134827256202697754e+00 2.868846654891967773e-01
1.272000000000000000e+03 6.099461317062377930e-01 -1.860030937194824219e+01 -8.590115234255790710e-03 3.456404924392700195e+00 1.034344434738159180e+00 1.176252886652946472e-01
1.273000000000000000e+03 2.953095436096191406e+00 -1.726832008361816406e+01 -9.049175679683685303e-02 3.650179147720336914e+00 1.067906141281127930e+00 5.417137742042541504e-01
1.274000000000000000e+03 3.173859119415283203e+00 -2.134004402160644531e+01 -7.666073739528656006e-02 4.101439952850341797e+00 1.207433819770812988e+00 3.717954158782958984e-01
1.275000000000000000e+03 1.599632143974304199e+00 -1.324777984619140625e+01 -3.285725414752960205e-02 2.464233398437500000e+00 7.294127941131591797e-01 4.942486286163330078e-01
1.276000000000000000e+03 5.152369141578674316e-01 -1.181129169464111328e+01 -7.198718230938538909e-05 1.554592013359069824e+00 4.663560092449188232e-01 1.894791275262832642e-01
1.277000000000000000e+03 2.559127807617187500e+00 -1.080399799346923828e+01 -5.281550809741020203e-02 2.307105302810668945e+00 6.762869358062744141e-01 8.561418652534484863e-01
1.278000000000000000e+03 2.321092128753662109e+00 -1.679181933403015137e+00 -1.136854663491249084e-02 -3.275834769010543823e-02 -1.323806867003440857e-02 -3.319300413131713867e-01
1.279000000000000000e+03 4.284615218639373779e-01 -4.980486392974853516e+00 3.380133584141731262e-02 -7.684447765350341797e-01 -2.203930169343948364e-01 5.183833464980125427e-02
1.280000000000000000e+03 1.285594463348388672e+00 -1.635091543197631836e+00 -2.826118282973766327e-02 -1.492093056440353394e-01 -5.324114859104156494e-02 -2.808381617069244385e-01
1.281000000000000000e+03 4.486551582813262939e-01 -3.777114152908325195e+00 3.138353675603866577e-02 -7.291751503944396973e-01 -2.093374878168106079e-01 -5.489282310009002686e-02
1.282000000000000000e+03 5.663795471191406250e+01 3.453736877441406250e+01 3.637816905975341797e+00 1.292000579833984375e+01 4.967346668243408203e+00 6.404638886451721191e-01
1.283000000000000000e+03 5.421683883666992188e+01 3.505368423461914062e+01 3.936609745025634766e+00 2.076767349243164062e+01 7.411284923553466797e+00 5.455134868621826172e+00
1.284000000000000000e+03 1.828752136230468750e+01 -5.635945320129394531e+00 8.941684961318969727e-01 6.031768321990966797e+00 2.077780961990356445e+00 -2.736657142639160156e+00
1.285000000000000000e+03 4.186049270629882812e+01 -4.165976715087890625e+01 1.615129947662353516e+00 3.070629835128784180e+00 1.405727863311767578e+00 4.013782441616058350e-01
1.286000000000000000e+03 4.269203948974609375e+01 -3.074251747131347656e+01 1.147564888000488281e+00 4.824639797210693359e+00 1.791661381721496582e+00 -2.287708520889282227e+00
1.287000000000000000e+03 3.921577453613281250e+01 -3.974203872680664062e+01 1.396289944648742676e+00 4.220618605613708496e-01 5.455055236816406250e-01 -5.849006175994873047e-01
1.288000000000000000e+03 5.186553955078125000e+01 3.908932113647460938e+01 -3.021563291549682617e+00 -7.573063671588897705e-02 -9.291881918907165527e-01 -1.962669491767883301e+00
1.289000000000000000e+03 4.628137588500976562e+01 -3.450009155273437500e+01 1.874773859977722168e+00 8.775890350341796875e+00 3.195199251174926758e+00 1.102114617824554443e-01
1.290000000000000000e+03 3.068661308288574219e+01 -1.071955394744873047e+01 6.190107762813568115e-02 1.768439412117004395e-01 7.162350416183471680e-02 -5.449068173766136169e-02
1.291000000000000000e+03 3.102939033508300781e+01 -5.553568840026855469e+00 2.802098691463470459e-01 4.115628600120544434e-01 2.075318247079849243e-01 -1.602607071399688721e-01
1.292000000000000000e+03 3.840959548950195312e+01 -2.375850486755371094e+01 4.298537969589233398e-01 1.744735121726989746e+00 6.523766517639160156e-01 -8.933618068695068359e-01
1.293000000000000000e+03 3.703265762329101562e+01 -2.137893676757812500e+01 3.012190759181976318e-01 1.406250715255737305e+00 5.122409462928771973e-01 -6.604174375534057617e-01
1.294000000000000000e+03 1.503641510009765625e+01 2.160330712795257568e-01 5.474809646606445312e+00 7.008979320526123047e+00 3.745136499404907227e+00 -5.575263977050781250e+00
1.295000000000000000e+03 1.417361068725585938e+01 9.351558238267898560e-02 3.643021583557128906e+00 1.523615646362304688e+01 5.663753509521484375e+00 -6.110970497131347656e+00
1.296000000000000000e+03 3.100406837463378906e+01 -3.292498016357421875e+01 4.268861413002014160e-01 1.714787840843200684e+00 6.425021886825561523e-01 -6.775623559951782227e-01
1.297000000000000000e+03 2.161135101318359375e+01 -1.190766525268554688e+01 1.524491190910339355e+00 5.691771030426025391e+00 2.164878606796264648e+00 -2.862451553344726562e+00
1.298000000000000000e+03 1.985636901855468750e+01 -8.156586647033691406e+00 1.126418352127075195e+00 8.182611465454101562e+00 2.792708873748779297e+00 -2.907658815383911133e+00
1.299000000000000000e+03 2.648988914489746094e+01 -3.099149465560913086e+00 5.299998521804809570e-01 3.810634836554527283e-02 1.704318672418594360e-01 -2.831407487392425537e-01
1.300000000000000000e+03 2.448920631408691406e+01 -1.139292955398559570e+00 1.039339900016784668e+00 1.705957204103469849e-02 3.169198334217071533e-01 -3.167708516120910645e-01
1.301000000000000000e+03 3.164381217956542969e+01 -3.409192276000976562e+01 4.474647641181945801e-01 1.510242223739624023e+00 5.873121023178100586e-01 -6.651067733764648438e-01
1.302000000000000000e+03 3.428285980224609375e+01 -3.836625289916992188e+01 1.007532358169555664e+00 7.927612662315368652e-01 5.400881171226501465e-01 -7.610287666320800781e-01
1.303000000000000000e+03 3.209321212768554688e+01 -1.308542728424072266e+01 7.989485561847686768e-02 3.104824125766754150e-01 1.171131804585456848e-01 -1.249677762389183044e-01
1.304000000000000000e+03 3.041999626159667969e+01 -3.172231674194335938e+01 4.245516657829284668e-01 1.883567929267883301e+00 6.924358606338500977e-01 -7.225053906440734863e-01
1.305000000000000000e+03 2.655700874328613281e+01 -5.067457675933837891e+00 2.216156274080276489e-01 1.129681766033172607e-01 1.003751382231712341e-01 -2.324995547533035278e-01
1.306000000000000000e+03 2.445780944824218750e+01 -1.927541351318359375e+01 5.356772541999816895e-01 3.459968090057373047e+00 1.198693633079528809e+00 -1.507951378822326660e+00
1.307000000000000000e+03 2.440382575988769531e+01 -1.658286094665527344e+01 9.595870971679687500e-01 3.361801624298095703e+00 1.296416640281677246e+00 -1.848241090774536133e+00
1.308000000000000000e+03 2.921865844726562500e+01 -2.637164115905761719e+01 4.367651641368865967e-01 2.206609725952148438e+00 7.930124402046203613e-01 -9.978501200675964355e-01
1.309000000000000000e+03 2.689715194702148438e+01 -2.138698959350585938e+01 5.958945751190185547e-01 2.839225530624389648e+00 1.030536055564880371e+00 -1.297880172729492188e+00
1.310000000000000000e+03 2.898179626464843750e+01 -2.930192756652832031e+01 3.762406110763549805e-01 2.236447572708129883e+00 7.838064432144165039e-01 -8.604584932327270508e-01
1.311000000000000000e+03 2.185571479797363281e+01 -1.473137855529785156e+01 9.120043516159057617e-01 4.921838760375976562e+00 1.750152945518493652e+00 -2.083444118499755859e+00
1.312000000000000000e+03 2.118434715270996094e+01 -1.356018543243408203e+01 1.046459436416625977e+00 5.450972080230712891e+00 1.949229478836059570e+00 -2.254871606826782227e+00
1.313000000000000000e+03 2.570422935485839844e+01 -1.894590187072753906e+01 7.162045240402221680e-01 3.073378801345825195e+00 1.136874914169311523e+00 -1.501749515533447266e+00
1.314000000000000000e+03 3.962810134887695312e+01 -2.305978775024414062e+01 2.681314945220947266e-01 2.401879787445068359e+00 8.010033965110778809e-01 -8.912700414657592773e-01
1.315000000000000000e+03 3.982780456542968750e+01 -2.610618209838867188e+01 5.931875109672546387e-01 2.333852291107177734e+00 8.781119585037231445e-01 -1.204070806503295898e+00
1.316000000000000000e+03 2.861940002441406250e+01 -2.512716674804687500e+01 4.956000745296478271e-01 2.385487556457519531e+00 8.643262386322021484e-01 -1.081718683242797852e+00
1.317000000000000000e+03 2.765259170532226562e+01 -2.673913764953613281e+01 3.407960534095764160e-01 2.577324151992797852e+00 8.754360675811767578e-01 -9.597007036209106445e-01
1.318000000000000000e+03 4.305067443847656250e+01 -2.883590316772460938e+01 5.233929753303527832e-01 4.706923007965087891e+00 1.569094896316528320e+00 -1.594305515289306641e+00
1.319000000000000000e+03 4.375957107543945312e+01 -2.996506309509277344e+01 6.174985766410827637e-01 5.677198410034179688e+00 1.888409137725830078e+00 -1.677293062210083008e+00
1.320000000000000000e+03 2.752282524108886719e+01 -4.049810886383056641e+00 4.960121810436248779e-01 9.995368123054504395e-02 1.787897497415542603e-01 -1.689846813678741455e-01
1.321000000000000000e+03 4.453440856933593750e+01 -3.109690284729003906e+01 5.249842405319213867e-01 7.015788078308105469e+00 2.262231588363647461e+00 -1.486450791358947754e+00
1.322000000000000000e+03 4.535028839111328125e+01 -3.224994277954101562e+01 8.277005553245544434e-01 7.921098709106445312e+00 2.624639749526977539e+00 -7.341432571411132812e-01
1.323000000000000000e+03 4.123974609375000000e+01 -2.843218803405761719e+01 8.380647301673889160e-01 3.076527357101440430e+00 1.174377560615539551e+00 -1.659420967102050781e+00
1.324000000000000000e+03 2.055300140380859375e+01 -1.236767673492431641e+01 1.041590571403503418e+00 6.021789550781250000e+00 2.119014024734497070e+00 -2.480583906173706055e+00
1.325000000000000000e+03 3.531469345092773438e+01 -1.599302673339843750e+01 1.132181286811828613e-01 1.061954855918884277e+00 3.525518774986267090e-01 -3.612171709537506104e-01
1.326000000000000000e+03 2.549015235900878906e+01 -2.132862091064453125e+00 8.268397450447082520e-01 6.068819016218185425e-02 2.662583887577056885e-01 -2.545463442802429199e-01
1.327000000000000000e+03 2.200545692443847656e+01 -1.746528434753417969e+01 4.138925075531005859e-01 4.488525390625000000e+00 1.470725297927856445e+00 -1.580146312713623047e+00
1.328000000000000000e+03 2.320683097839355469e+01 -1.700834274291992188e+01 6.504954099655151367e-01 4.064411163330078125e+00 1.414471983909606934e+00 -1.828260779380798340e+00
1.329000000000000000e+03 3.673760223388671875e+01 -1.834541702270507812e+01 1.564535051584243774e-01 1.433543562889099121e+00 4.769991040229797363e-01 -4.993935823440551758e-01
1.330000000000000000e+03 3.460589218139648438e+01 -1.481228542327880859e+01 6.061454117298126221e-02 9.019004106521606445e-01 2.887544929981231689e-01 -3.095266222953796387e-01
1.331000000000000000e+03 2.503762626647949219e+01 -2.044182395935058594e+01 5.116841793060302734e-01 3.297110557556152344e+00 1.142638444900512695e+00 -1.383890151977539062e+00
1.332000000000000000e+03 3.523867416381835938e+01 -3.555745315551757812e+01 6.532280445098876953e-01 6.678634285926818848e-01 3.963274359703063965e-01 -5.538132786750793457e-01
1.333000000000000000e+03 3.401211547851562500e+01 -3.724576187133789062e+01 7.631816864013671875e-01 8.316437005996704102e-01 4.784476161003112793e-01 -5.734887123107910156e-01
1.334000000000000000e+03 3.389210891723632812e+01 -1.363174629211425781e+01 8.146817237138748169e-02 7.623878121376037598e-01 2.531568109989166260e-01 -2.429112046957015991e-01
1.335000000000000000e+03 1.852621650695800781e+01 -7.118086338043212891e+00 1.119120001792907715e+00 6.847039222717285156e+00 2.389847755432128906e+00 -2.841269969940185547e+00
1.336000000000000000e+03 3.709091567993164062e+01 -1.650298500061035156e+01 6.950673460960388184e-02 1.605979323387145996e+00 5.026457905769348145e-01 -4.390989840030670166e-01
1.337000000000000000e+03 3.002192497253417969e+01 -9.497074127197265625e+00 3.369735786691308022e-03 1.303198188543319702e-01 4.010686650872230530e-02 -8.215195685625076294e-02
1.338000000000000000e+03 3.111383628845214844e+01 -8.846561431884765625e+00 1.319856494665145874e-01 3.608077466487884521e-01 1.478380262851715088e-01 -1.387853026390075684e-01
1.339000000000000000e+03 2.659529876708984375e+01 -2.416032981872558594e+01 3.995557725429534912e-01 2.837276220321655273e+00 9.710496068000793457e-01 -1.093843817710876465e+00
1.340000000000000000e+03 2.826480674743652344e+01 -2.803665351867675781e+01 3.481987714767456055e-01 2.398427963256835938e+00 8.239880204200744629e-01 -9.132965803146362305e-01
1.341000000000000000e+03 1.604230308532714844e+01 6.408077716827392578e+00 3.817688226699829102e+00 6.964964389801025391e+00 3.234795808792114258e+00 5.020996570587158203e+00
1.342000000000000000e+03 1.383552646636962891e+01 6.704627513885498047e+00 2.170241624116897583e-01 1.363611030578613281e+01 4.155940532684326172e+00 2.350264310836791992e+00
1.343000000000000000e+03 1.699711227416992188e+01 7.344400405883789062e+00 3.012747049331665039e+00 5.097935199737548828e+00 2.433204650878906250e+00 3.944018602371215820e+00
1.344000000000000000e+03 1.555057716369628906e+01 7.696585178375244141e+00 1.626042604446411133e+00 9.091856956481933594e+00 3.215369939804077148e+00 4.377197742462158203e+00
1.345000000000000000e+03 7.925545501708984375e+01 3.630049133300781250e+01 -6.537660956382751465e-03 5.424220561981201172e+00 1.625304818153381348e+00 -6.316654384136199951e-02
1.346000000000000000e+03 7.699310302734375000e+01 -3.633612823486328125e+01 1.462143938988447189e-02 7.058372497558593750e+00 2.121898174285888672e+00 1.052154079079627991e-01
1.347000000000000000e+03 7.906590270996093750e+01 -3.487100219726562500e+01 -8.739141747355461121e-03 7.062288761138916016e+00 2.116064786911010742e+00 4.323403164744377136e-02
1.348000000000000000e+03 7.795597076416015625e+01 -2.922116279602050781e+01 1.575936935842037201e-02 7.419092655181884766e+00 2.230455636978149414e+00 1.564583778381347656e-01
1.349000000000000000e+03 7.934228515625000000e+01 -2.787138557434082031e+01 1.094117760658264160e-02 7.542822360992431641e+00 2.266129016876220703e+00 5.649139359593391418e-02
1.350000000000000000e+03 7.935198211669921875e+01 -2.092948532104492188e+01 -6.464721634984016418e-03 8.151887893676757812e+00 2.443626880645751953e+00 5.703467503190040588e-02
1.351000000000000000e+03 7.806777954101562500e+01 -2.513533401489257812e+01 -6.751751061528921127e-03 7.725761890411376953e+00 2.315702915191650391e+00 1.641824692487716675e-01
1.352000000000000000e+03 7.805840301513671875e+01 -2.649985122680664062e+01 1.132461335510015488e-02 7.619142055511474609e+00 2.289139986038208008e+00 1.612822562456130981e-01
1.353000000000000000e+03 7.764666748046875000e+01 -3.199101829528808594e+01 2.542672120034694672e-02 7.241756439208984375e+00 2.180155038833618164e+00 1.521216332912445068e-01
1.354000000000000000e+03 7.927295684814453125e+01 -3.065071678161621094e+01 1.208484545350074768e-02 7.318394184112548828e+00 2.199143648147583008e+00 5.579118803143501282e-02
1.355000000000000000e+03 7.740840148925781250e+01 -3.342737579345703125e+01 1.332974992692470551e-02 7.167536735534667969e+00 2.154259920120239258e+00 1.450989395380020142e-01
1.356000000000000000e+03 7.217818450927734375e+01 -3.862708282470703125e+01 1.869951635599136353e-01 7.011814117431640625e+00 2.159642696380615234e+00 1.598307341337203979e-01
1.357000000000000000e+03 7.611810302734375000e+01 -4.078288650512695312e+01 5.774362385272979736e-02 6.975659370422363281e+00 2.110020875930786133e+00 6.536390632390975952e-02
1.358000000000000000e+03 7.809586334228515625e+01 1.523812770843505859e+01 -2.019073627889156342e-02 8.428342819213867188e+00 2.522445678710937500e+00 -2.248098403215408325e-01
1.359000000000000000e+03 7.936602020263671875e+01 1.529860973358154297e+01 -1.658762688748538494e-03 8.530801773071289062e+00 2.558742761611938477e+00 -8.971674740314483643e-02
1.360000000000000000e+03 7.936354064941406250e+01 2.226367759704589844e+01 2.733315574005246162e-03 7.498684406280517578e+00 2.250425338745117188e+00 -1.211383938789367676e-01
1.361000000000000000e+03 7.750651550292968750e+01 3.205759048461914062e+01 6.399610638618469238e-02 6.310349941253662109e+00 1.912303805351257324e+00 -3.186149001121520996e-01
1.362000000000000000e+03 7.791281127929687500e+01 2.774683761596679688e+01 -3.231892362236976624e-03 6.773714065551757812e+00 2.031144618988037109e+00 -3.712402284145355225e-01
1.363000000000000000e+03 7.929957580566406250e+01 2.783987236022949219e+01 1.805040985345840454e-02 6.490440845489501953e+00 1.952547311782836914e+00 -1.315246969461441040e-01
1.364000000000000000e+03 7.806692504882812500e+01 2.495922660827636719e+01 -9.046138264238834381e-03 7.163137435913085938e+00 2.146227359771728516e+00 -3.492070734500885010e-01
1.365000000000000000e+03 7.808745574951171875e+01 2.357878112792968750e+01 -8.060584659688174725e-04 7.367825031280517578e+00 2.210105657577514648e+00 -3.297117054462432861e-01
1.366000000000000000e+03 7.808871459960937500e+01 1.803073883056640625e+01 -1.626967824995517731e-02 8.120984077453613281e+00 2.431414365768432617e+00 -2.702569067478179932e-01
1.367000000000000000e+03 7.809185028076171875e+01 1.663439750671386719e+01 -1.618076302111148834e-02 8.282019615173339844e+00 2.479751586914062500e+00 -2.519959211349487305e-01
1.368000000000000000e+03 7.809819030761718750e+01 1.384202194213867188e+01 -1.652791164815425873e-02 8.560143470764160156e+00 2.563084602355957031e+00 -2.030711174011230469e-01
1.369000000000000000e+03 7.682966613769531250e+01 1.237983703613281250e+01 -4.417083412408828735e-02 8.550878524780273438e+00 2.552012205123901367e+00 -2.655578553676605225e-01
1.370000000000000000e+03 7.810427093505859375e+01 9.661377906799316406e+00 -2.113267593085765839e-02 8.860223770141601562e+00 2.651727199554443359e+00 -1.285590231418609619e-01
1.371000000000000000e+03 7.936854553222656250e+01 9.723246574401855469e+00 2.062398743873927742e-05 9.043235778808593750e+00 2.712976932525634766e+00 -5.422829091548919678e-02
1.372000000000000000e+03 7.809766387939453125e+01 -8.412256240844726562e+00 -8.996389806270599365e-03 8.851510047912597656e+00 2.652754068374633789e+00 8.842380344867706299e-02
1.373000000000000000e+03 7.936449432373046875e+01 -6.988538265228271484e+00 -2.184897457482293248e-04 9.121378898620605469e+00 2.736347913742065430e+00 2.323702722787857056e-02
1.374000000000000000e+03 7.808194732666015625e+01 -1.537772560119628906e+01 -4.464827477931976318e-03 8.452486991882324219e+00 2.534406661987304688e+00 1.376731395721435547e-01
1.375000000000000000e+03 7.936469268798828125e+01 -1.395471477508544922e+01 -4.600532702170312405e-05 8.713116645812988281e+00 2.613921165466308594e+00 4.369604960083961487e-02
1.376000000000000000e+03 7.810180664062500000e+01 -7.390561699867248535e-02 -9.459377266466617584e-03 9.076249122619628906e+00 2.720036983489990234e+00 5.668639671057462692e-03
1.377000000000000000e+03 7.936856079101562500e+01 1.364793300628662109e+00 1.012150663882493973e-03 9.307089805603027344e+00 2.792430639266967773e+00 -9.806706570088863373e-03
1.378000000000000000e+03 7.935048675537109375e+01 -1.953667068481445312e+01 4.302036948502063751e-03 8.271046638488769531e+00 2.482604742050170898e+00 5.543365329504013062e-02
1.379000000000000000e+03 7.805229187011718750e+01 -2.237213134765625000e+01 -7.495320402085781097e-03 7.939222812652587891e+00 2.379518270492553711e+00 1.654708087444305420e-01
1.380000000000000000e+03 7.683995056152343750e+01 8.209387779235839844e+00 -4.530587047338485718e-02 8.756585121154785156e+00 2.613383769989013672e+00 -1.552794277667999268e-01
1.381000000000000000e+03 7.801898193359375000e+01 4.160845184326171875e+01 -8.711168169975280762e-02 5.521220684051513672e+00 1.630232810974121094e+00 2.434775047004222870e-02
1.382000000000000000e+03 7.700256347656250000e+01 3.885252380371093750e+01 1.065401509404182434e-01 5.760671138763427734e+00 1.760163426399230957e+00 -8.843899518251419067e-02
1.383000000000000000e+03 7.682826995849609375e+01 1.278978109359741211e+00 -2.969603799283504486e-02 8.872449874877929688e+00 2.652826309204101562e+00 -9.251378476619720459e-03
1.384000000000000000e+03 7.810394287109375000e+01 1.314256072044372559e+00 -1.614836044609546661e-02 9.081089019775390625e+00 2.719482183456420898e+00 -1.011821255087852478e-02
1.385000000000000000e+03 7.682594299316406250e+01 -9.794786572456359863e-02 -3.321397677063941956e-02 8.864648818969726562e+00 2.649430274963378906e+00 1.624690182507038116e-02
1.386000000000000000e+03 7.808297729492187500e+01 -4.251183032989501953e+00 -1.303581427782773972e-02 8.999397277832031250e+00 2.695908308029174805e+00 5.027952790260314941e-02
1.387000000000000000e+03 7.936425781250000000e+01 -2.814635515213012695e+00 -5.572662688791751862e-03 9.260907173156738281e+00 2.776600360870361328e+00 7.698340341448783875e-03
1.388000000000000000e+03 7.808172607421875000e+01 -5.636422157287597656e+00 -8.548834361135959625e-03 8.958255767822265625e+00 2.684911966323852539e+00 6.389307230710983276e-02
1.389000000000000000e+03 7.810847473144531250e+01 -1.119452857971191406e+01 -8.720747195184230804e-03 8.713299751281738281e+00 2.611373662948608398e+00 1.112194657325744629e-01
1.390000000000000000e+03 7.936804962158203125e+01 -9.774199485778808594e+00 -1.129398471675813198e-03 8.982547760009765625e+00 2.694425582885742188e+00 3.260303288698196411e-02
1.391000000000000000e+03 7.810462951660156250e+01 -1.258394622802734375e+01 -5.864586215466260910e-03 8.632191658020019531e+00 2.587898254394531250e+00 1.187282130122184753e-01
1.392000000000000000e+03 7.804785919189453125e+01 -1.818623924255371094e+01 -1.090528676286339760e-03 8.252152442932128906e+00 2.475318431854248047e+00 1.543300151824951172e-01
1.393000000000000000e+03 7.935657501220703125e+01 -1.674674415588378906e+01 1.645882148295640945e-03 8.501875877380371094e+00 2.551056623458862305e+00 5.072968453168869019e-02
1.394000000000000000e+03 7.803768920898437500e+01 -1.958601188659667969e+01 -7.876059971749782562e-03 8.149567604064941406e+00 2.442507505416870117e+00 1.618613004684448242e-01
1.395000000000000000e+03 5.815433120727539062e+01 3.734579467773437500e+01 1.751056671142578125e+00 1.275135517120361328e+01 4.350723743438720703e+00 1.975923895835876465e+00
1.396000000000000000e+03 1.754676055908203125e+01 9.310783147811889648e-01 -1.625416755676269531e+00 -1.083330035209655762e+00 -8.126240372657775879e-01 -7.369913458824157715e-01
1.397000000000000000e+03 1.770755004882812500e+01 1.141608810424804688e+01 2.962076365947723389e-01 4.942863941192626953e+00 1.571721434593200684e+00 2.057074546813964844e+00
1.398000000000000000e+03 2.675885772705078125e+01 2.135777854919433594e+01 -4.785149097442626953e-01 5.687398314476013184e-01 2.706748060882091522e-02 -4.980440437793731689e-02
1.399000000000000000e+03 2.975395965576171875e+01 2.229209327697753906e+01 -4.877988994121551514e-01 -6.383031606674194336e-02 -1.654887646436691284e-01 -3.982543051242828369e-01
1.400000000000000000e+03 3.956074142456054688e+01 2.020178604125976562e+01 2.070062458515167236e-01 4.222420156002044678e-01 1.887744814157485962e-01 2.879465222358703613e-01
1.401000000000000000e+03 4.050913238525390625e+01 1.733249473571777344e+01 8.487764000892639160e-02 1.163864850997924805e+00 3.746227324008941650e-01 5.739270448684692383e-01
1.402000000000000000e+03 4.507504272460937500e+01 4.028670883178710938e+01 -9.615021347999572754e-01 -7.982197999954223633e-01 -5.279166102409362793e-01 -2.115151882171630859e-01
1.403000000000000000e+03 5.077387237548828125e+01 3.069999885559082031e+01 3.401355266571044922e+00 5.619270324707031250e+00 2.706187725067138672e+00 4.275351047515869141e+00
1.404000000000000000e+03 5.269316482543945312e+01 3.084219360351562500e+01 2.094976663589477539e+00 9.374659538269042969e+00 3.440890789031982422e+00 4.040461540222167969e+00
1.405000000000000000e+03 5.065322494506835938e+01 3.987218475341796875e+01 -1.778060436248779297e+00 6.402942538261413574e-01 -3.413298428058624268e-01 -8.562937378883361816e-01
1.406000000000000000e+03 4.790006637573242188e+01 4.151224899291992188e+01 -7.689000964164733887e-01 -6.925841569900512695e-01 -4.384452700614929199e-01 4.431072175502777100e-01
1.407000000000000000e+03 2.569043159484863281e+01 1.622609329223632812e+01 -1.467684358358383179e-01 1.807908117771148682e-01 1.020671520382165909e-02 -2.423629350960254669e-02
1.408000000000000000e+03 2.209098243713378906e+01 1.633468055725097656e+01 -1.974413394927978516e-01 2.017510414123535156e+00 5.460207462310791016e-01 6.528584361076354980e-01
1.409000000000000000e+03 2.178555107116699219e+01 1.226567077636718750e+01 6.936276555061340332e-01 1.361538410186767578e+00 6.165498495101928711e-01 9.541926980018615723e-01
1.410000000000000000e+03 3.383507919311523438e+01 1.203918170928955078e+01 -2.523737847805023193e-01 9.519458562135696411e-02 -4.715375974774360657e-02 -1.190443858504295349e-01
1.411000000000000000e+03 3.118138122558593750e+01 6.278152465820312500e+00 -2.147255390882492065e-01 1.776259541511535645e-01 -1.112987287342548370e-02 -3.700641542673110962e-02
1.412000000000000000e+03 4.156276702880859375e+01 2.211342430114746094e+01 5.058225989341735840e-01 7.165425419807434082e-01 3.667095303535461426e-01 5.773189067840576172e-01
1.413000000000000000e+03 2.193686485290527344e+01 2.044237136840820312e+00 -9.381175041198730469e-01 2.146858125925064087e-01 -2.170295119285583496e-01 -1.352274864912033081e-01
1.414000000000000000e+03 3.200369262695312500e+01 1.194675540924072266e+01 -3.705849051475524902e-01 -2.638546228408813477e-01 -1.903318613767623901e-01 -3.464536368846893311e-01
1.415000000000000000e+03 3.281844711303710938e+01 1.103453254699707031e+01 -3.350674211978912354e-01 -1.629104278981685638e-02 -1.054075360298156738e-01 -1.453718096017837524e-01
1.416000000000000000e+03 2.525047302246093750e+01 4.551868915557861328e+00 -7.217127680778503418e-01 -1.678825318813323975e-01 -2.668786048889160156e-01 -3.078137934207916260e-01
1.417000000000000000e+03 2.869832611083984375e+01 2.144259262084960938e+01 -5.155770778656005859e-01 2.222378738224506378e-02 -1.480059921741485596e-01 -2.457825690507888794e-01
1.418000000000000000e+03 4.241756439208984375e+01 2.118250274658203125e+01 4.026548862457275391e-01 1.225249052047729492e+00 4.883711636066436768e-01 8.271670937538146973e-01
1.419000000000000000e+03 5.442254638671875000e+01 3.118805503845214844e+01 1.054655671119689941e+00 1.215592575073242188e+01 3.963174343109130859e+00 2.610034704208374023e+00
1.420000000000000000e+03 2.891814613342285156e+01 9.071104049682617188e+00 -5.638830661773681641e-01 -4.251119792461395264e-01 -2.966985106468200684e-01 -4.421950876712799072e-01
1.421000000000000000e+03 3.073139762878417969e+01 9.083072662353515625e+00 -4.166581034660339355e-01 -1.627365350723266602e-01 -1.738183945417404175e-01 -2.546747624874114990e-01
1.422000000000000000e+03 2.015198326110839844e+01 1.229993152618408203e+01 5.513311624526977539e-01 2.628268003463745117e+00 9.538797736167907715e-01 1.404754400253295898e+00
1.423000000000000000e+03 3.178250503540039062e+01 1.004796409606933594e+01 -3.344833850860595703e-01 -7.080002129077911377e-02 -1.215850189328193665e-01 -2.272507250308990479e-01
1.424000000000000000e+03 3.618412399291992188e+01 2.731131744384765625e+01 -7.830306887626647949e-01 -9.597019553184509277e-01 -5.228198170661926270e-01 -8.065668344497680664e-01
1.425000000000000000e+03 3.235619735717773438e+01 2.519670104980468750e+01 -6.030539870262145996e-01 -4.075202345848083496e-01 -3.031722605228424072e-01 -5.189127326011657715e-01
1.426000000000000000e+03 3.682217025756835938e+01 1.706019592285156250e+01 -3.998787701129913330e-02 1.403245031833648682e-01 3.010099008679389954e-02 6.674232333898544312e-02
1.427000000000000000e+03 4.049380493164062500e+01 1.924756813049316406e+01 1.984326541423797607e-01 8.588845729827880859e-01 3.171951770782470703e-01 5.409706830978393555e-01
1.428000000000000000e+03 2.303539085388183594e+01 1.735074615478515625e+01 -2.906398773193359375e-01 1.602172613143920898e+00 3.934597969055175781e-01 4.836263358592987061e-01
1.429000000000000000e+03 4.744430541992187500e+01 2.588899040222167969e+01 1.264992594718933105e+00 2.996780157089233398e+00 1.278531789779663086e+00 2.043118953704833984e+00
1.430000000000000000e+03 2.197774887084960938e+01 1.429078674316406250e+01 1.615964174270629883e-01 1.737324953079223633e+00 5.696763992309570312e-01 8.021913766860961914e-01
1.431000000000000000e+03 2.105540084838867188e+01 1.328830528259277344e+01 3.300764858722686768e-01 2.101953506469726562e+00 7.296090126037597656e-01 1.114592909812927246e+00
1.432000000000000000e+03 2.140451622009277344e+01 9.036237597465515137e-01 3.459023535251617432e-01 4.116275012493133545e-01 2.272589504718780518e-01 1.625205427408218384e-01
1.433000000000000000e+03 3.708944702148437500e+01 2.838092422485351562e+01 -8.089874386787414551e-01 -9.235337972640991211e-01 -5.197563767433166504e-01 -8.885854482650756836e-01
1.434000000000000000e+03 3.426061630249023438e+01 2.724506759643554688e+01 -6.715829968452453613e-01 -5.764751434326171875e-01 -3.744174540042877197e-01 -5.954059362411499023e-01
1.435000000000000000e+03 2.967247772216796875e+01 8.137938499450683594e+00 -4.352569580078125000e-01 -1.685636639595031738e-01 -1.811461895704269409e-01 -3.123680949211120605e-01
1.436000000000000000e+03 3.332247924804687500e+01 2.623291206359863281e+01 -5.772838592529296875e-01 -4.727203845977783203e-01 -3.150012493133544922e-01 -5.956981182098388672e-01
1.437000000000000000e+03 2.300878715515136719e+01 2.890154123306274414e+00 -8.914350271224975586e-01 5.742399394512176514e-02 -2.502033114433288574e-01 -1.954425722360610962e-01
1.438000000000000000e+03 2.412283134460449219e+01 3.713335514068603516e+00 -7.832406759262084961e-01 -1.709105670452117920e-01 -2.862453758716583252e-01 -2.193632870912551880e-01
1.439000000000000000e+03 4.821519470214843750e+01 2.488060951232910156e+01 8.730978369712829590e-01 3.773711681365966797e+00 1.394042849540710449e+00 2.104743003845214844e+00
1.440000000000000000e+03 4.765969085693359375e+01 2.782487869262695312e+01 1.974097013473510742e+00 2.546580791473388672e+00 1.356203317642211914e+00 2.189553260803222656e+00
1.441000000000000000e+03 3.930139160156250000e+01 3.607159042358398438e+01 -6.742904186248779297e-01 -5.261643528938293457e-01 -3.601364195346832275e-01 -4.248900711536407471e-01
1.442000000000000000e+03 2.859454345703125000e+01 7.206092357635498047e+00 -5.157430171966552734e-01 -2.493026852607727051e-01 -2.295137047767639160e-01 -2.975703775882720947e-01
1.443000000000000000e+03 2.637641716003417969e+01 5.412098407745361328e+00 -6.376419067382812500e-01 -2.613843083381652832e-01 -2.697078585624694824e-01 -3.096449673175811768e-01
1.444000000000000000e+03 1.985583496093750000e+01 2.373996257781982422e+00 -2.069967985153198242e+00 -6.437218785285949707e-01 -8.141069412231445312e-01 -1.001600384712219238e+00
1.445000000000000000e+03 2.267318725585937500e+01 1.049284100532531738e+00 6.657192111015319824e-01 3.676880598068237305e-01 3.100221753120422363e-01 3.439303338527679443e-01
1.446000000000000000e+03 4.441832733154296875e+01 2.307571601867675781e+01 6.930299997329711914e-01 1.787757992744445801e+00 7.442364096641540527e-01 1.218687295913696289e+00
1.447000000000000000e+03 3.878671264648437500e+01 3.230772399902343750e+01 -6.962353587150573730e-01 -6.728903651237487793e-01 -4.107377231121063232e-01 -7.016030550003051758e-01
1.448000000000000000e+03 5.187810134887695312e+01 2.961808967590332031e+01 1.824581503868103027e+00 7.641014099121093750e+00 2.839678764343261719e+00 3.574694633483886719e+00
1.449000000000000000e+03 1.740472984313964844e+01 9.415339469909667969e+00 1.327015042304992676e+00 5.132761955261230469e+00 1.937933087348937988e+00 2.870162010192871094e+00
1.450000000000000000e+03 3.773296356201171875e+01 1.617687988281250000e+01 -1.075716782361268997e-02 5.338990092277526855e-01 1.569425463676452637e-01 1.948404461145401001e-01
1.451000000000000000e+03 2.678829002380371094e+01 1.929461669921875000e+01 -4.179604351520538330e-01 2.973313629627227783e-01 -3.618872538208961487e-02 -7.319953292608261108e-02
1.452000000000000000e+03 3.593471527099609375e+01 2.949177360534667969e+01 -6.886594295501708984e-01 -6.940329074859619141e-01 -4.148077070713043213e-01 -6.088879108428955078e-01
1.453000000000000000e+03 5.584672164916992188e+01 3.267446136474609375e+01 2.217309951782226562e+00 1.286290740966796875e+01 4.524065494537353516e+00 1.243260622024536133e+00
1.454000000000000000e+03 4.201060485839843750e+01 3.539812850952148438e+01 -8.994373679161071777e-01 -6.017215847969055176e-01 -4.503476917743682861e-01 -6.105023622512817383e-01
1.455000000000000000e+03 2.774165344238281250e+01 2.032842445373535156e+01 -4.238277971744537354e-01 1.694053709506988525e-01 -7.632672786712646484e-02 -2.070136666297912598e-01
1.456000000000000000e+03 4.959382629394531250e+01 2.767465591430664062e+01 1.606734991073608398e+00 4.586366176605224609e+00 1.857930302619934082e+00 2.760723114013671875e+00
1.457000000000000000e+03 5.081360244750976562e+01 2.854715156555175781e+01 1.673326849937438965e+00 6.073766231536865234e+00 2.324127912521362305e+00 3.235397100448608398e+00
1.458000000000000000e+03 4.068906021118164062e+01 3.452176284790039062e+01 -7.292886972427368164e-01 -6.116049885749816895e-01 -4.022681117057800293e-01 -6.541504263877868652e-01
1.459000000000000000e+03 3.955096435546875000e+01 3.343833923339843750e+01 -7.863599658012390137e-01 -7.077645659446716309e-01 -4.482373595237731934e-01 -6.162147521972656250e-01
1.460000000000000000e+03 3.678345108032226562e+01 1.513276195526123047e+01 -1.026276946067810059e-01 3.925528228282928467e-01 8.697754144668579102e-02 1.342863440513610840e-01
1.461000000000000000e+03 3.041079998016357422e+00 3.769886779785156250e+01 -5.121840909123420715e-02 7.220756530761718750e+00 2.150861501693725586e+00 4.074374958872795105e-02
1.462000000000000000e+03 7.539659142494201660e-01 3.444519042968750000e+01 -6.685621570795774460e-03 7.700543403625488281e+00 2.308157444000244141e+00 -9.881785139441490173e-03
1.463000000000000000e+03 6.351581811904907227e-01 2.603387641906738281e+01 -2.758578862994909286e-03 7.221866130828857422e+00 2.165732383728027344e+00 -9.303613007068634033e-02
1.464000000000000000e+03 1.921190023422241211e+00 2.839786529541015625e+01 -3.972883522510528564e-02 7.116355419158935547e+00 2.122987985610961914e+00 -1.627859026193618774e-01
1.465000000000000000e+03 3.175375223159790039e+00 2.798641204833984375e+01 -7.338308542966842651e-02 6.788848876953125000e+00 2.014639854431152344e+00 -2.621593475341796875e-01
1.466000000000000000e+03 3.151324510574340820e+00 2.528683471679687500e+01 -1.000986695289611816e-01 6.574123382568359375e+00 1.942207336425781250e+00 -4.036099314689636230e-01
1.467000000000000000e+03 2.015009641647338867e+00 3.115448951721191406e+01 -2.407298050820827484e-02 7.251713275909423828e+00 2.168292045593261719e+00 -9.630741178989410400e-02
1.468000000000000000e+03 2.226704597473144531e+00 3.386109924316406250e+01 -3.198483586311340332e-02 7.300134181976318359e+00 2.180444955825805664e+00 -5.553761124610900879e-02
1.469000000000000000e+03 2.106315612792968750e+00 3.251737976074218750e+01 -1.904204301536083221e-02 7.284984111785888672e+00 2.179782629013061523e+00 -7.751282304525375366e-02
1.470000000000000000e+03 5.167882919311523438e+00 3.749592590332031250e+01 -1.109028905630111694e-01 6.742451667785644531e+00 1.989464640617370605e+00 -1.400945931673049927e-01
1.471000000000000000e+03 3.881257534027099609e+00 3.884973907470703125e+01 5.664548836648464203e-03 7.138481616973876953e+00 2.143243789672851562e+00 -2.460354007780551910e-02
1.472000000000000000e+03 6.067714691162109375e-01 1.900572586059570312e+01 -1.209040451794862747e-02 5.658924579620361328e+00 1.694050312042236328e+00 -2.251383662223815918e-01
1.473000000000000000e+03 5.366770029067993164e-01 1.339326381683349609e+01 -8.457488729618489742e-04 2.920864105224609375e+00 8.760055303573608398e-01 -3.473177850246429443e-01
1.474000000000000000e+03 3.727357387542724609e-01 6.441236495971679688e+00 4.724619910120964050e-02 -1.355011940002441406e+00 -3.923297226428985596e-01 -1.002555862069129944e-01
1.475000000000000000e+03 3.504722118377685547e-01 5.098606109619140625e+00 9.266121778637170792e-04 -1.564689517021179199e+00 -4.691288471221923828e-01 -7.276257034391164780e-03
1.476000000000000000e+03 3.885114908218383789e+00 1.685345053672790527e+00 -2.308187484741210938e-01 6.855803076177835464e-03 -6.718888133764266968e-02 6.479253172874450684e-01
1.477000000000000000e+03 1.464144110679626465e+00 1.038450336456298828e+01 4.763685539364814758e-02 1.687746405601501465e+00 5.206149816513061523e-01 -9.451828598976135254e-01
1.478000000000000000e+03 4.840465188026428223e-01 1.059064865112304688e+01 1.993534713983535767e-02 1.002082228660583496e+00 3.066052794456481934e-01 -3.389457762241363525e-01
1.479000000000000000e+03 1.622511863708496094e+00 1.313547420501708984e+01 -4.879700765013694763e-02 3.262145519256591797e+00 9.640045762062072754e-01 -9.683725833892822266e-01
1.480000000000000000e+03 1.848559379577636719e+00 2.007639312744140625e+01 -7.217613607645034790e-02 5.887119770050048828e+00 1.744482994079589844e+00 -5.351734161376953125e-01
1.481000000000000000e+03 1.828291058540344238e+00 1.868441581726074219e+01 -7.953727245330810547e-02 5.520019531250000000e+00 1.632144689559936523e+00 -6.364305615425109863e-01
1.482000000000000000e+03 1.891975998878479004e+00 2.423567008972167969e+01 -4.433627799153327942e-02 6.682466983795166016e+00 1.991439223289489746e+00 -3.127658665180206299e-01
1.483000000000000000e+03 1.147096633911132812e+00 1.878844380378723145e+00 -5.933361127972602844e-02 -3.836762607097625732e-01 -1.329029649496078491e-01 4.124596714973449707e-01
1.484000000000000000e+03 1.070829296112060547e+01 1.570826053619384766e+00 3.303865909576416016e+00 2.290645599365234375e+01 7.863096237182617188e+00 2.797181308269500732e-01
1.485000000000000000e+03 9.175323247909545898e-01 -1.649928092956542969e+00 -2.303958870470523834e-02 -2.273115664720535278e-01 -7.510534673929214478e-02 -2.349685579538345337e-01
1.486000000000000000e+03 4.700138568878173828e+00 1.655927896499633789e+00 -1.583054959774017334e-01 4.933312162756919861e-02 -3.269171342253684998e-02 5.680195093154907227e-01
1.487000000000000000e+03 7.442852854728698730e-01 -1.962921023368835449e+00 2.978827571496367455e-03 -3.677136301994323730e-01 -1.094204485416412354e-01 -1.923424452543258667e-01
1.488000000000000000e+03 4.289457201957702637e-01 -2.416921854019165039e+00 -1.156652346253395081e-02 -4.891924858093261719e-01 -1.502277106046676636e-01 -1.112666130065917969e-01
1.489000000000000000e+03 2.239782094955444336e+00 -1.992833495140075684e+00 5.101396515965461731e-02 -5.212024971842765808e-02 -3.318852686788886786e-04 -3.022125959396362305e-01
1.490000000000000000e+03 1.412830710411071777e+00 -2.058708667755126953e+00 1.984163373708724976e-02 -1.643486768007278442e-01 -4.335211217403411865e-02 -2.837660014629364014e-01
1.491000000000000000e+03 3.941436290740966797e+00 -1.677022099494934082e+00 1.342226862907409668e-01 1.471604257822036743e-01 8.441493660211563110e-02 -1.539295911788940430e-01
1.492000000000000000e+03 4.337731361389160156e+00 -1.658667564392089844e+00 2.057215273380279541e-01 1.755579560995101929e-01 1.143838390707969666e-01 -7.853696495294570923e-02
1.493000000000000000e+03 4.732378482818603516e+00 -1.645535230636596680e+00 3.620930910110473633e-01 2.341675758361816406e-01 1.788782030344009399e-01 3.776412457227706909e-02
1.494000000000000000e+03 5.339349269866943359e+00 -1.672233819961547852e+00 6.416146159172058105e-01 3.600701689720153809e-01 3.005054295063018799e-01 3.191844820976257324e-01
1.495000000000000000e+03 6.601461887359619141e+00 -1.884791851043701172e+00 1.872519612312316895e+00 1.041139245033264160e+00 8.740977048873901367e-01 1.439530372619628906e+00
1.496000000000000000e+03 7.071197986602783203e+00 -1.649510622024536133e+00 2.209811925888061523e+00 1.156725049018859863e+00 1.009961128234863281e+00 1.721169948577880859e+00
1.497000000000000000e+03 7.274088382720947266e+00 -1.657327175140380859e+00 2.485081911087036133e+00 1.405210256576538086e+00 1.167087674140930176e+00 2.067658424377441406e+00
1.498000000000000000e+03 7.640704631805419922e+00 -2.004136323928833008e+00 3.003184556961059570e+00 2.737399339675903320e+00 1.722175240516662598e+00 3.159684896469116211e+00
1.499000000000000000e+03 8.063762664794921875e+00 -2.045652627944946289e+00 3.327032327651977539e+00 4.086434364318847656e+00 2.224040031433105469e+00 4.157110214233398438e+00
1.500000000000000000e+03 8.503637313842773438e+00 -1.692423820495605469e+00 4.046096801757812500e+00 5.063277721405029297e+00 2.732812404632568359e+00 5.138856887817382812e+00
1.501000000000000000e+03 8.295802116394042969e+00 -1.689371943473815918e+00 3.921828508377075195e+00 4.074164390563964844e+00 2.398797750473022461e+00 4.494259834289550781e+00
1.502000000000000000e+03 8.919658660888671875e+00 -1.686858415603637695e+00 4.092608451843261719e+00 7.825712203979492188e+00 3.575496196746826172e+00 6.416816234588623047e+00
1.503000000000000000e+03 9.122379302978515625e+00 -1.670052528381347656e+00 3.922439336776733398e+00 9.518523216247558594e+00 4.032289028167724609e+00 6.874547958374023438e+00
1.504000000000000000e+03 1.008169364929199219e+01 1.626743078231811523e+00 2.314612150192260742e+00 1.884811973571777344e+01 6.348819255828857422e+00 -4.173015594482421875e+00
1.505000000000000000e+03 8.504576683044433594e+00 1.645484447479248047e+00 3.656985759735107422e+00 3.678568124771118164e+00 2.200666189193725586e+00 -3.418555736541748047e+00
1.506000000000000000e+03 8.093444824218750000e+00 1.633394241333007812e+00 2.811726093292236328e+00 2.026914119720458984e+00 1.451592087745666504e+00 -2.131554841995239258e+00
1.507000000000000000e+03 7.903920650482177734e+00 1.618540763854980469e+00 2.617605686187744141e+00 1.470093846321105957e+00 1.226309895515441895e+00 -1.732362866401672363e+00
1.508000000000000000e+03 6.694532871246337891e+00 1.666963100433349609e+00 9.250692725181579590e-01 4.258882999420166016e-01 4.052872657775878906e-01 -1.874294728040695190e-01
1.509000000000000000e+03 6.494703292846679688e+00 1.658571362495422363e+00 7.150734663009643555e-01 3.145788609981536865e-01 3.088957071304321289e-01 -8.497338742017745972e-02
1.510000000000000000e+03 6.085114955902099609e+00 1.934560179710388184e+00 9.437122344970703125e-01 3.672131896018981934e-01 3.932776451110839844e-01 -2.218032814562320709e-02
1.511000000000000000e+03 5.673561096191406250e+00 1.667519569396972656e+00 1.734447032213211060e-01 1.295752823352813721e-01 9.090599417686462402e-02 3.090551197528839111e-01
1.512000000000000000e+03 5.475233554840087891e+00 1.641931653022766113e+00 4.726832360029220581e-02 1.379972100257873535e-01 5.557965859770774841e-02 3.848833739757537842e-01
1.513000000000000000e+03 5.124271869659423828e+00 1.917882919311523438e+00 3.461929261684417725e-01 1.427540928125381470e-01 1.466840952634811401e-01 3.802380561828613281e-01
1.514000000000000000e+03 4.900893211364746094e+00 1.650351405143737793e+00 -1.357966214418411255e-01 5.182837694883346558e-02 -2.519047260284423828e-02 5.222851634025573730e-01
1.515000000000000000e+03 3.679672718048095703e+00 1.692010283470153809e+00 -2.534950673580169678e-01 -1.199198234826326370e-02 -7.964611798524856567e-02 6.409205198287963867e-01
1.516000000000000000e+03 3.472550392150878906e+00 1.695505023002624512e+00 -2.440499812364578247e-01 -1.942968554794788361e-02 -7.904390245676040649e-02 6.637811660766601562e-01
1.517000000000000000e+03 3.645517587661743164e+00 2.074223756790161133e+00 1.180580779910087585e-01 3.097530081868171692e-02 4.471001401543617249e-02 6.125003695487976074e-01
1.518000000000000000e+03 3.267158746719360352e+00 1.690499067306518555e+00 -2.473994642496109009e-01 -5.537804961204528809e-02 -9.083325415849685669e-02 6.450859308242797852e-01
1.519000000000000000e+03 1.639132618904113770e+00 2.338853120803833008e+00 7.650811690837144852e-03 -3.440636992454528809e-01 -1.009238660335540771e-01 5.256893634796142578e-01
1.520000000000000000e+03 9.489643096923828125e+00 2.089652776718139648e+00 3.631533861160278320e+00 1.170460224151611328e+01 4.600840568542480469e+00 -5.084960937500000000e+00
1.521000000000000000e+03 1.033065414428710938e+01 -1.612468481063842773e+00 1.312417984008789062e+00 2.144296455383300781e+01 6.826614856719970703e+00 3.739272832870483398e+00
1.522000000000000000e+03 1.216182994842529297e+01 6.874711066484451294e-02 8.174085617065429688e+00 1.980880737304687500e+01 8.394867897033691406e+00 5.418869853019714355e-01
1.523000000000000000e+03 1.137481212615966797e+01 9.586905241012573242e-01 6.767512798309326172e+00 2.374259567260742188e+01 9.153032302856445312e+00 3.731050729751586914e+00
1.524000000000000000e+03 1.175980186462402344e+01 9.948781728744506836e-01 6.876557826995849609e+00 2.283624458312988281e+01 8.913840293884277344e+00 3.521443128585815430e+00
1.525000000000000000e+03 1.182561779022216797e+01 2.131893157958984375e+00 5.785468578338623047e+00 2.235045242309570312e+01 8.440775871276855469e+00 1.935197949409484863e+00
1.526000000000000000e+03 1.246452045440673828e+01 1.651881337165832520e+00 6.192255020141601562e+00 2.382679367065429688e+01 9.005714416503906250e+00 3.072307348251342773e+00
1.527000000000000000e+03 1.028575706481933594e+01 1.654165744781494141e+00 2.366642951965332031e+00 2.062178230285644531e+01 6.896527290344238281e+00 -2.709672927856445312e+00
1.528000000000000000e+03 1.251870155334472656e+01 -2.977614402770996094e-01 6.433748245239257812e+00 1.897730827331542969e+01 7.623316764831542969e+00 -1.254181742668151855e+00
1.529000000000000000e+03 1.637443542480468750e+00 2.065294027328491211e+00 -3.140424191951751709e-02 -2.983244061470031738e-01 -9.891859441995620728e-02 5.581591725349426270e-01
1.530000000000000000e+03 1.191923856735229492e+00 2.201398611068725586e+00 -3.102350048720836639e-02 -4.711257219314575195e-01 -1.506447643041610718e-01 4.770578742027282715e-01
1.531000000000000000e+03 2.759513282775878906e+01 2.244213104248046875e+01 -4.233058094978332520e-01 4.277201294898986816e-01 1.324298093095421791e-03 -1.340505629777908325e-01
1.532000000000000000e+03 3.065883445739746094e+01 2.307094764709472656e+01 -5.528479218482971191e-01 -3.046101033687591553e-01 -2.572374045848846436e-01 -4.583637416362762451e-01
1.533000000000000000e+03 3.424548721313476562e+01 -1.184436607360839844e+01 7.046522945165634155e-02 9.295455813407897949e-01 3.000032603740692139e-01 -2.454965561628341675e-01
1.534000000000000000e+03 4.010470581054687500e+01 -2.114535522460937500e+01 1.129523590207099915e-01 2.612505197525024414e+00 8.176372647285461426e-01 -7.439378499984741211e-01
1.535000000000000000e+03 4.322014236450195312e+01 1.843797492980957031e+01 1.667812168598175049e-01 2.030671358108520508e+00 6.592357158660888672e-01 9.323608279228210449e-01
1.536000000000000000e+03 2.378727340698242188e+01 -2.074491310119628906e+01 3.406973779201507568e-01 3.622162342071533203e+00 1.188857913017272949e+00 -1.321601271629333496e+00
1.537000000000000000e+03 2.965572166442871094e+01 -6.198272705078125000e+00 2.867842018604278564e-01 2.243711352348327637e-01 1.533465981483459473e-01 -1.356812715530395508e-01
1.538000000000000000e+03 3.011713218688964844e+01 -2.520622968673706055e+00 4.333747029304504395e-01 1.961372941732406616e-01 1.888535916805267334e-01 -9.089561551809310913e-02
1.539000000000000000e+03 4.234874725341796875e+01 1.744168281555175781e+01 9.050758928060531616e-02 1.787534475326538086e+00 5.634126067161560059e-01 8.162146806716918945e-01
1.540000000000000000e+03 2.430235099792480469e+01 -2.190177536010742188e+01 3.331116437911987305e-01 3.458348512649536133e+00 1.137438058853149414e+00 -1.224528551101684570e+00
1.541000000000000000e+03 1.467817497253417969e+01 7.081726551055908203e+00 5.758082866668701172e-01 1.267205238342285156e+01 3.974358081817626953e+00 3.943736076354980469e+00
1.542000000000000000e+03 1.508655357360839844e+01 8.918907165527343750e+00 -7.461930811405181885e-02 9.568377494812011719e+00 2.848127603530883789e+00 2.543002843856811523e+00
1.543000000000000000e+03 1.426535987854003906e+01 8.354362487792968750e+00 2.329784212633967400e-03 1.058348274230957031e+01 3.175743818283081055e+00 2.089596271514892578e+00
1.544000000000000000e+03 2.116301345825195312e+01 1.532180309295654297e+01 -1.290084570646286011e-01 2.390662908554077148e+00 6.784963011741638184e-01 8.869274258613586426e-01
1.545000000000000000e+03 2.388924407958984375e+01 1.629911422729492188e+01 -1.160592287778854370e-01 1.037464380264282227e+00 2.764215469360351562e-01 3.603897094726562500e-01
1.546000000000000000e+03 3.288254928588867188e+01 -9.479847908020019531e+00 1.196096763014793396e-01 6.790258884429931641e-01 2.395906597375869751e-01 -1.970141083002090454e-01
1.547000000000000000e+03 3.317881774902343750e+01 -1.245494270324707031e+01 2.927944622933864594e-02 6.305129528045654297e-01 1.979377269744873047e-01 -2.164213210344314575e-01
1.548000000000000000e+03 3.494826889038085938e+01 -1.301517486572265625e+01 2.126035280525684357e-02 1.075035095214843750e+00 3.288886249065399170e-01 -2.927189469337463379e-01
1.549000000000000000e+03 3.199943161010742188e+01 -3.720755004882812500e+01 6.815056204795837402e-01 1.425745010375976562e+00 6.321752071380615234e-01 -5.197488665580749512e-01
1.550000000000000000e+03 4.796569061279296875e+01 2.300169754028320312e+01 4.761330783367156982e-01 3.841220378875732422e+00 1.295206069946289062e+00 1.821059942245483398e+00
1.551000000000000000e+03 4.895032882690429688e+01 2.385326957702636719e+01 5.237514376640319824e-01 4.462111949920654297e+00 1.495759010314941406e+00 2.005216360092163086e+00
1.552000000000000000e+03 2.345770263671875000e+01 -2.331064987182617188e+01 1.837251186370849609e-01 3.583326339721679688e+00 1.130115509033203125e+00 -1.052956819534301758e+00
1.553000000000000000e+03 2.361197090148925781e+01 -2.459064292907714844e+01 1.473870873451232910e-01 3.476238012313842773e+00 1.087087512016296387e+00 -9.516347050666809082e-01
1.554000000000000000e+03 2.253923225402832031e+01 -1.588148975372314453e+01 7.711086273193359375e-01 4.510658740997314453e+00 1.584530234336853027e+00 -1.906334042549133301e+00
1.555000000000000000e+03 2.261796569824218750e+01 -1.855371856689453125e+01 3.644395172595977783e-01 4.151220798492431641e+00 1.354698061943054199e+00 -1.534956097602844238e+00
1.556000000000000000e+03 2.640821075439453125e+01 -1.170158505439758301e+00 7.241766452789306641e-01 -9.656415879726409912e-02 1.882837563753128052e-01 -1.259265542030334473e-01
1.557000000000000000e+03 2.746281051635742188e+01 -2.994526863098144531e+01 2.825245559215545654e-01 2.516008615493774414e+00 8.395599126815795898e-01 -7.759220600128173828e-01
1.558000000000000000e+03 1.925187301635742188e+01 1.132770729064941406e+01 7.586441040039062500e-01 3.226233959197998047e+00 1.195463418960571289e+00 1.861459970474243164e+00
1.559000000000000000e+03 1.683045959472656250e+01 1.049317264556884766e+01 3.340176641941070557e-01 6.133724689483642578e+00 1.940322756767272949e+00 2.338559627532958984e+00
1.560000000000000000e+03 4.363417053222656250e+01 -2.699177742004394531e+01 1.683109998703002930e-01 4.715880870819091797e+00 1.465257525444030762e+00 -1.178777098655700684e+00
1.561000000000000000e+03 4.164823150634765625e+01 -2.347296142578125000e+01 1.249156370759010315e-01 3.345006942749023438e+00 1.040976762771606445e+00 -9.232614040374755859e-01
1.562000000000000000e+03 1.660993576049804688e+01 -5.261350274085998535e-01 3.074219703674316406e+00 1.655195355415344238e+00 1.418824553489685059e+00 -3.043040037155151367e+00
1.563000000000000000e+03 3.222462844848632812e+01 -8.255728721618652344e+00 1.188150197267532349e-01 5.749774575233459473e-01 2.081377357244491577e-01 -1.921138763427734375e-01
1.564000000000000000e+03 3.554214859008789062e+01 1.020678234100341797e+01 -1.680512279272079468e-01 6.527944207191467285e-01 1.454229503870010376e-01 1.443492174148559570e-01
1.565000000000000000e+03 3.671336746215820312e+01 1.319714832305908203e+01 -1.459038257598876953e-01 6.119834184646606445e-01 1.398238688707351685e-01 1.909901946783065796e-01
1.566000000000000000e+03 2.661320686340332031e+01 -2.856324577331542969e+01 2.439803928136825562e-01 2.717310428619384766e+00 8.883872628211975098e-01 -8.207633495330810547e-01
1.567000000000000000e+03 2.710211944580078125e+01 -2.544223785400390625e+01 3.607734143733978271e-01 2.729329586029052734e+00 9.270309209823608398e-01 -1.004657506942749023e+00
1.568000000000000000e+03 4.417700576782226562e+01 -2.811250686645507812e+01 2.426539808511734009e-01 5.313591003417968750e+00 1.666873455047607422e+00 -1.173660516738891602e+00
1.569000000000000000e+03 3.123880577087402344e+01 2.630125617980957031e+01 -4.924001693725585938e-01 -2.428027242422103882e-02 -1.550041288137435913e-01 -4.118638038635253906e-01
1.570000000000000000e+03 1.383259582519531250e+01 9.615880250930786133e-01 3.979262590408325195e+00 2.275001907348632812e+01 8.018784523010253906e+00 -3.295769929885864258e+00
1.571000000000000000e+03 3.637032318115234375e+01 -1.534813785552978516e+01 3.039332106709480286e-02 1.412600398063659668e+00 4.328981041908264160e-01 -3.920750319957733154e-01
1.572000000000000000e+03 4.104958724975585938e+01 -2.539814567565917969e+01 3.917306363582611084e-01 3.072735309600830078e+00 1.039339780807495117e+00 -1.162879467010498047e+00
1.573000000000000000e+03 3.150986289978027344e+01 8.155428886413574219e+00 -2.937082350254058838e-01 8.015005290508270264e-02 -6.406745314598083496e-02 -1.306703537702560425e-01
1.574000000000000000e+03 1.336127281188964844e+01 3.012217998504638672e+00 7.488372325897216797e+00 3.403463363647460938e+01 1.245690155029296875e+01 3.672542095184326172e+00
1.575000000000000000e+03 1.311720657348632812e+01 5.356436252593994141e+00 1.485012888908386230e+00 2.081656837463378906e+01 6.690474510192871094e+00 1.411448597908020020e+00
1.576000000000000000e+03 2.378332901000976562e+01 1.851657152175903320e+00 -5.550858005881309509e-02 -1.841509249061346054e-03 -1.720502600073814392e-02 2.214472889900207520e-01
1.577000000000000000e+03 5.346682071685791016e+00 -3.032680892944335938e+01 -7.296565175056457520e-02 4.504881858825683594e+00 1.329574942588806152e+00 1.783913969993591309e-01
1.578000000000000000e+03 3.650469064712524414e+00 -2.935048294067382812e+01 -3.934427350759506226e-02 4.525585651397705078e+00 1.345872402191162109e+00 1.612309962511062622e-01
1.579000000000000000e+03 2.113667488098144531e+00 -7.017758846282958984e+00 1.247437447309494019e-01 9.124494791030883789e-01 3.111579716205596924e-01 6.185522675514221191e-01
1.580000000000000000e+03 1.533099532127380371e+00 -1.062872791290283203e+01 -9.304970502853393555e-03 1.660597443580627441e+00 4.953877329826354980e-01 5.609408020973205566e-01
1.581000000000000000e+03 1.772944569587707520e+00 -1.726283454895019531e+01 -4.032782092690467834e-02 3.389368772506713867e+00 1.004712343215942383e+00 3.657660484313964844e-01
1.582000000000000000e+03 3.398259162902832031e+00 -2.541043663024902344e+01 -4.991116374731063843e-02 4.372981548309326172e+00 1.296921133995056152e+00 2.449215352535247803e-01
1.583000000000000000e+03 3.462142705917358398e+00 -2.801151275634765625e+01 -4.123942553997039795e-02 4.487726211547851562e+00 1.333945989608764648e+00 1.823436617851257324e-01
1.584000000000000000e+03 3.116562843322753906e+00 -1.998411560058593750e+01 -7.823774218559265137e-02 3.977188587188720703e+00 1.169685244560241699e+00 4.258857667446136475e-01
1.585000000000000000e+03 2.775281429290771484e+00 -1.461331748962402344e+01 -9.699587523937225342e-02 3.202155113220214844e+00 9.315477609634399414e-01 6.752862930297851562e-01
1.586000000000000000e+03 1.690500259399414062e+00 -8.053874015808105469e+00 4.503121972084045410e-02 9.443669319152832031e-01 2.968194484710693359e-01 5.854877829551696777e-01
1.587000000000000000e+03 2.983981370925903320e+00 -7.559335231781005859e+00 1.609054207801818848e-01 1.742148280143737793e+00 5.709161162376403809e-01 9.525899291038513184e-01
1.588000000000000000e+03 2.577551603317260742e+00 -9.613459587097167969e+00 -1.103684958070516586e-02 2.022858142852783203e+00 6.035463809967041016e-01 8.976068496704101562e-01
1.589000000000000000e+03 2.865372657775878906e+00 -1.592747497558593750e+01 -1.024742797017097473e-01 3.440872907638549805e+00 1.001519560813903809e+00 6.101656556129455566e-01
1.590000000000000000e+03 1.987964153289794922e+00 -2.407745170593261719e+01 -2.101993933320045471e-02 4.251669406890869141e+00 1.269194841384887695e+00 1.888953447341918945e-01
1.591000000000000000e+03 2.404188394546508789e+00 -3.099789047241210938e+01 -2.156841754913330078e-02 4.617887496948242188e+00 1.378895759582519531e+00 9.757022559642791748e-02
1.592000000000000000e+03 3.406658172607421875e+00 -2.671330451965332031e+01 -5.047256872057914734e-02 4.432881832122802734e+00 1.314722657203674316e+00 2.175653874874114990e-01
1.593000000000000000e+03 4.126073837280273438e+00 -1.725097846984863281e+01 -1.677255034446716309e-01 3.936984062194824219e+00 1.130777597427368164e+00 6.671812534332275391e-01
1.594000000000000000e+03 3.562979221343994141e+00 -1.094768142700195312e+01 -1.105620712041854858e-01 2.953710317611694336e+00 8.529444336891174316e-01 1.066228151321411133e+00
1.595000000000000000e+03 2.684606790542602539e+00 -1.331963539123535156e+01 -9.615870565176010132e-02 2.931331634521484375e+00 8.505518436431884766e-01 7.420246005058288574e-01
1.596000000000000000e+03 3.482174873352050781e+00 -3.465106582641601562e+01 -3.413391485810279846e-02 4.667387962341308594e+00 1.389976143836975098e+00 7.672189176082611084e-02
1.597000000000000000e+03 3.795780658721923828e+00 -3.304582595825195312e+01 -3.405756503343582153e-02 4.602853298187255859e+00 1.370638728141784668e+00 9.812425076961517334e-02
1.598000000000000000e+03 4.447706604003906250e+01 -2.510676002502441406e+01 -7.403100281953811646e-02 4.767271041870117188e+00 1.407971978187561035e+00 -7.897312641143798828e-01
1.599000000000000000e+03 1.856820297241210938e+01 1.237111568450927734e+01 1.897471398115158081e-01 4.119155883789062500e+00 1.292670965194702148e+00 1.646158814430236816e+00
1.600000000000000000e+03 3.745893478393554688e+01 -1.952352714538574219e+01 1.715655028820037842e-01 1.634143948554992676e+00 5.417128205299377441e-01 -5.887556076049804688e-01
1.601000000000000000e+03 3.782381439208984375e+01 -1.765202713012695312e+01 5.592890456318855286e-02 1.816272974014282227e+00 5.616605281829833984e-01 -5.156658291816711426e-01
1.602000000000000000e+03 1.942654418945312500e+01 -1.284483718872070312e+01 7.055785059928894043e-01 6.199449539184570312e+00 2.071508407592773438e+00 -1.935419678688049316e+00
1.603000000000000000e+03 2.003306007385253906e+01 -1.404570865631103516e+01 6.229944825172424316e-01 5.700582504272460938e+00 1.897073149681091309e+00 -1.884866833686828613e+00
1.604000000000000000e+03 2.822203063964843750e+01 5.355927467346191406e+00 -3.943255245685577393e-01 -1.177491843700408936e-01 -1.536224037408828735e-01 -1.428801864385604858e-01
1.605000000000000000e+03 3.112783241271972656e+01 -2.739838838577270508e+00 4.029895067214965820e-01 4.012626409530639648e-01 2.412756383419036865e-01 -3.161936998367309570e-02
1.606000000000000000e+03 3.890169525146484375e+01 -2.189055252075195312e+01 2.309336215257644653e-01 2.100292205810546875e+00 6.993677616119384766e-01 -8.106411695480346680e-01
1.607000000000000000e+03 3.818312072753906250e+01 -2.070759773254394531e+01 2.262651622295379639e-01 1.837175130844116211e+00 6.190320849418640137e-01 -6.786504387855529785e-01
1.608000000000000000e+03 3.258249664306640625e+01 9.125002861022949219e+00 -2.965739965438842773e-01 1.435850113630294800e-01 -4.589669778943061829e-02 -6.765360385179519653e-02
1.609000000000000000e+03 2.791234779357910156e+01 2.386244392395019531e+01 -4.725937843322753906e-01 5.372526645660400391e-01 1.939766481518745422e-02 -1.522444039583206177e-01
1.610000000000000000e+03 2.589013862609863281e+01 2.033370780944824219e+01 -4.007281064987182617e-01 8.218576908111572266e-01 1.263388693332672119e-01 3.302377462387084961e-02
1.611000000000000000e+03 4.341358184814453125e+01 2.213246154785156250e+01 5.724377036094665527e-01 1.517912387847900391e+00 6.271049976348876953e-01 9.910328984260559082e-01
1.612000000000000000e+03 4.542759323120117188e+01 2.401918411254882812e+01 8.965246677398681641e-01 2.131725549697875977e+00 9.084750413894653320e-01 1.409002184867858887e+00
1.613000000000000000e+03 3.483625030517578125e+01 1.305991458892822266e+01 -2.217871993780136108e-01 1.704458445310592651e-01 -1.540240459144115448e-02 -1.963867619633674622e-02
1.614000000000000000e+03 3.770071792602539062e+01 1.424295139312744141e+01 -7.304245233535766602e-02 7.675236463546752930e-01 2.083443701267242432e-01 2.507117092609405518e-01
1.615000000000000000e+03 3.719541168212890625e+01 3.283595275878906250e+01 -6.057025790214538574e-01 -5.057430267333984375e-01 -3.334336876869201660e-01 -5.196146368980407715e-01
1.616000000000000000e+03 3.395551681518554688e+01 2.920164680480957031e+01 -5.890596508979797363e-01 -3.161694407463073730e-01 -2.715687155723571777e-01 -4.549071788787841797e-01
1.617000000000000000e+03 7.501910400390625000e+01 -3.816328048706054688e+01 7.098741829395294189e-02 7.027512550354003906e+00 2.129549980163574219e+00 1.080805882811546326e-01
1.618000000000000000e+03 7.417669677734375000e+01 -3.279949188232421875e+01 6.902819871902465820e-02 7.196630954742431641e+00 2.179697751998901367e+00 3.029513657093048096e-01
1.619000000000000000e+03 7.716808319091796875e+01 -3.488640213012695312e+01 3.969377279281616211e-02 7.100071430206298828e+00 2.141929626464843750e+00 1.294215619564056396e-01
1.620000000000000000e+03 7.532661437988281250e+01 -2.247866058349609375e+01 -1.107777003198862076e-02 7.754749298095703125e+00 2.323101520538330078e+00 3.505252301692962646e-01
1.621000000000000000e+03 7.802670288085937500e+01 -2.786001205444335938e+01 -4.908495582640171051e-03 7.518740177154541016e+00 2.254149436950683594e+00 1.598814725875854492e-01
1.622000000000000000e+03 7.553323364257812500e+01 1.510207176208496094e+01 -8.703988045454025269e-02 8.287830352783203125e+00 2.460237026214599609e+00 -4.258681535720825195e-01
1.623000000000000000e+03 7.749565887451171875e+01 3.508013916015625000e+01 9.837348759174346924e-02 5.986779212951660156e+00 1.825545787811279297e+00 -2.494327276945114136e-01
1.624000000000000000e+03 7.559896850585937500e+01 3.358986282348632812e+01 1.433044821023941040e-01 6.668693542480468750e+00 2.043599367141723633e+00 -4.335743188858032227e-01
1.625000000000000000e+03 7.670944213867187500e+01 -2.241909980773925781e+01 2.960789017379283905e-03 7.843858242034912109e+00 2.354045629501342773e+00 2.601731717586517334e-01
1.626000000000000000e+03 7.661502838134765625e+01 -2.913073539733886719e+01 8.236041292548179626e-03 7.405347824096679688e+00 2.224075078964233398e+00 2.448505312204360962e-01
1.627000000000000000e+03 7.486101531982421875e+01 -3.640970611572265625e+01 1.003314852714538574e-01 7.064958095550537109e+00 2.149586915969848633e+00 1.706509739160537720e-01
1.628000000000000000e+03 7.671116638183593750e+01 -2.782599639892578125e+01 1.917094364762306213e-02 7.485769271850585938e+00 2.251482009887695312e+00 2.473611980676651001e-01
1.629000000000000000e+03 7.674954223632812500e+01 -2.517508697509765625e+01 1.076817978173494339e-02 7.659529209136962891e+00 2.301089286804199219e+00 2.580100297927856445e-01
1.630000000000000000e+03 7.674523162841796875e+01 -2.651056098937988281e+01 9.852325310930609703e-04 7.574127197265625000e+00 2.272533655166625977e+00 2.540242671966552734e-01
1.631000000000000000e+03 7.571549224853515625e+01 -3.323059082031250000e+01 6.209148839116096497e-02 7.179398536682128906e+00 2.172446966171264648e+00 2.296096682548522949e-01
1.632000000000000000e+03 7.614207458496093750e+01 -3.179506492614746094e+01 2.431071363389492035e-02 7.255501270294189453e+00 2.183943748474121094e+00 2.373853325843811035e-01
1.633000000000000000e+03 7.646442413330078125e+01 -3.909614562988281250e+01 5.037178471684455872e-02 7.009587287902832031e+00 2.117987632751464844e+00 7.634238153696060181e-02
1.634000000000000000e+03 7.809025573730468750e+01 2.219956207275390625e+01 -1.222762092947959900e-02 7.568125247955322266e+00 2.266769170761108398e+00 -3.272140026092529297e-01
1.635000000000000000e+03 7.680364990234375000e+01 2.076029968261718750e+01 -2.969978563487529755e-02 7.803698062896728516e+00 2.332199573516845703e+00 -4.731673598289489746e-01
1.636000000000000000e+03 7.556938934326171875e+01 2.344386672973632812e+01 -2.760631963610649109e-02 7.599695205688476562e+00 2.271626710891723633e+00 -6.291591525077819824e-01
1.637000000000000000e+03 7.681434631347656250e+01 2.213880538940429688e+01 -2.146492712199687958e-02 7.646366596221923828e+00 2.287470579147338867e+00 -4.819200634956359863e-01
1.638000000000000000e+03 7.682497406005859375e+01 1.377515602111816406e+01 -4.922867938876152039e-02 8.456265449523925781e+00 2.522110939025878906e+00 -2.995063960552215576e-01
1.639000000000000000e+03 7.810048675537109375e+01 1.244746303558349609e+01 -2.157320268452167511e-02 8.675374984741210938e+00 2.596140623092651367e+00 -1.760263144969940186e-01
1.640000000000000000e+03 7.556910705566406250e+01 9.533193588256835938e+00 -8.323741704225540161e-02 8.558949470520019531e+00 2.542713642120361328e+00 -2.362905144691467285e-01
1.641000000000000000e+03 7.681924438476562500e+01 1.517267608642578125e+01 -4.433456063270568848e-02 8.349585533142089844e+00 2.491575479507446289e+00 -3.418567776679992676e-01
1.642000000000000000e+03 7.801184082031250000e+01 2.634875488281250000e+01 9.305085055530071259e-03 6.965184211730957031e+00 2.092346668243408203e+00 -3.460571169853210449e-01
1.643000000000000000e+03 7.804097747802734375e+01 -2.098103904724121094e+01 3.647034522145986557e-03 8.042714118957519531e+00 2.413908243179321289e+00 1.625116467475891113e-01
1.644000000000000000e+03 7.668845367431640625e+01 -2.102177238464355469e+01 -9.846196509897708893e-03 7.939608573913574219e+00 2.378928661346435547e+00 2.613374590873718262e-01
1.645000000000000000e+03 7.763628387451171875e+01 3.059383392333984375e+01 1.467141415923833847e-02 6.451246738433837891e+00 1.939775466918945312e+00 -3.630680143833160400e-01
1.646000000000000000e+03 7.632058715820312500e+01 2.896559143066406250e+01 4.017397388815879822e-02 6.932312011718750000e+00 2.091745853424072266e+00 -5.554091334342956543e-01
1.647000000000000000e+03 7.427294921875000000e+01 -1.515567493438720703e+01 -5.062037333846092224e-02 8.048460960388183594e+00 2.399352073669433594e+00 3.496243357658386230e-01
1.648000000000000000e+03 7.669003295898437500e+01 -1.961490631103515625e+01 -3.679608693346381187e-03 8.028428077697753906e+00 2.407424449920654297e+00 2.534044086933135986e-01
1.649000000000000000e+03 7.546233367919921875e+01 -7.048280239105224609e+00 -4.757470265030860901e-02 8.513598442077636719e+00 2.539807081222534180e+00 1.674110144376754761e-01
1.650000000000000000e+03 7.809549713134765625e+01 -1.397863960266113281e+01 -8.998843841254711151e-03 8.547078132629394531e+00 2.561423778533935547e+00 1.299769133329391479e-01
1.651000000000000000e+03 7.552455902099609375e+01 -1.473853945732116699e+00 -5.659452080726623535e-02 8.648496627807617188e+00 2.577570676803588867e+00 5.829854682087898254e-02
1.652000000000000000e+03 7.808786010742187500e+01 -7.022400856018066406e+00 -1.132176443934440613e-02 8.908067703247070312e+00 2.669023752212524414e+00 7.553382217884063721e-02
1.653000000000000000e+03 7.555734252929687500e+01 5.390546321868896484e+00 -6.673435866832733154e-02 8.655575752258300781e+00 2.576652288436889648e+00 -1.138687208294868469e-01
1.654000000000000000e+03 7.604309082031250000e+01 3.713670730590820312e+01 1.703813523054122925e-01 6.272494316101074219e+00 1.932862639427185059e+00 -3.300948739051818848e-01
1.655000000000000000e+03 7.772988891601562500e+01 3.658843994140625000e+01 8.270796388387680054e-02 5.802410602569580078e+00 1.765535473823547363e+00 -7.032112777233123779e-02
1.656000000000000000e+03 7.810572814941406250e+01 6.878003120422363281e+00 -1.985078118741512299e-02 8.985989570617675781e+00 2.689841747283935547e+00 -8.490625768899917603e-02
1.657000000000000000e+03 7.683974456787109375e+01 6.822121620178222656e+00 -3.683946654200553894e-02 8.801563262939453125e+00 2.629417181015014648e+00 -1.242895498871803284e-01
1.658000000000000000e+03 7.809591674804687500e+01 -1.463982701301574707e+00 -1.505832280963659286e-02 9.059925079345703125e+00 2.713459968566894531e+00 2.088166959583759308e-02
1.659000000000000000e+03 7.681758880615234375e+01 -1.482431530952453613e+00 -2.725253626704216003e-02 8.847535133361816406e+00 2.646084785461425781e+00 3.973066061735153198e-02
1.660000000000000000e+03 7.682363891601562500e+01 -8.426404953002929688e+00 -2.480745688080787659e-02 8.658814430236816406e+00 2.590202093124389648e+00 1.411446481943130493e-01
1.661000000000000000e+03 7.680558776855468750e+01 -1.535965824127197266e+01 -1.904012262821197510e-02 8.309376716613769531e+00 2.487101078033447266e+00 2.201042920351028442e-01
1.662000000000000000e+03 7.564884948730468750e+01 3.533215713500976562e+01 1.359975785017013550e-01 6.606709957122802734e+00 2.022812366485595703e+00 -3.445295393466949463e-01
1.663000000000000000e+03 7.575742340087890625e+01 3.195614242553710938e+01 1.038937568664550781e-01 6.790081024169921875e+00 2.068192481994628906e+00 -5.006256699562072754e-01
1.664000000000000000e+03 7.680057525634765625e+01 1.936918067932128906e+01 -3.583174571394920349e-02 7.955954551696777344e+00 2.376036882400512695e+00 -4.382150173187255859e-01
1.665000000000000000e+03 7.550442504882812500e+01 1.791072463989257812e+01 -7.649801671504974365e-02 8.090444564819335938e+00 2.404183864593505859e+00 -5.188155770301818848e-01
1.666000000000000000e+03 7.810516357421875000e+01 8.269315719604492188e+00 -1.367746014147996902e-02 8.930618286132812500e+00 2.675082206726074219e+00 -1.071907877922058105e-01
1.667000000000000000e+03 7.683477783203125000e+01 1.098775005340576172e+01 -4.852927848696708679e-02 8.631752967834472656e+00 2.574967145919799805e+00 -2.251231968402862549e-01
1.668000000000000000e+03 7.679286956787109375e+01 -7.039128780364990234e+00 -2.398844622075557709e-02 8.707335472106933594e+00 2.605004072189331055e+00 1.239650174975395203e-01
1.669000000000000000e+03 7.683116912841796875e+01 -1.396270561218261719e+01 -1.518203318119049072e-02 8.390832901000976562e+00 2.512695312500000000e+00 2.026823163032531738e-01
1.670000000000000000e+03 7.810331726074218750e+01 2.704916238784790039e+00 -1.059404574334621429e-02 9.075759887695312500e+00 2.719549894332885742e+00 -2.755136787891387939e-02
1.671000000000000000e+03 7.683662414550781250e+01 5.433669567108154297e+00 -4.150190949440002441e-02 8.833963394165039062e+00 2.637738466262817383e+00 -9.223186969757080078e-02
1.672000000000000000e+03 7.683143615722656250e+01 4.045678138732910156e+00 -3.356636315584182739e-02 8.857266426086425781e+00 2.647109985351562500e+00 -6.330557167530059814e-02
1.673000000000000000e+03 7.677626037597656250e+01 -5.657788753509521484e+00 -2.598939277231693268e-02 8.748184204101562500e+00 2.616658449172973633e+00 1.049154773354530334e-01
1.674000000000000000e+03 7.680271911621093750e+01 -2.879141569137573242e+00 -3.120433725416660309e-02 8.821195602416992188e+00 2.636997461318969727e+00 6.206965446472167969e-02
1.675000000000000000e+03 7.550291442871093750e+01 -2.866625785827636719e+00 -5.075753480195999146e-02 8.619545936584472656e+00 2.570636510848999023e+00 8.904790133237838745e-02
1.676000000000000000e+03 7.685437774658203125e+01 -1.119657421112060547e+01 -1.737480610609054565e-02 8.537383079528808594e+00 2.556002378463745117e+00 1.729359477758407593e-01
1.677000000000000000e+03 7.684750366210937500e+01 -1.257668685913085938e+01 -1.940809562802314758e-02 8.470061302185058594e+00 2.535196065902709961e+00 1.902232766151428223e-01
1.678000000000000000e+03 7.684733581542968750e+01 -9.815910339355468750e+00 -2.265092171728610992e-02 8.602306365966796875e+00 2.573896408081054688e+00 1.612446308135986328e-01
1.679000000000000000e+03 7.672196197509765625e+01 -1.819480895996093750e+01 -1.537081319838762283e-02 8.124266624450683594e+00 2.432668685913085938e+00 2.476435601711273193e-01
1.680000000000000000e+03 2.974929809570312500e+01 -3.051455116271972656e+01 4.211075305938720703e-01 2.064784049987792969e+00 7.457674741744995117e-01 -8.018702268600463867e-01
1.681000000000000000e+03 2.321832466125488281e+01 -1.964229965209960938e+01 3.701990544795989990e-01 3.862294197082519531e+00 1.269747972488403320e+00 -1.427600741386413574e+00
1.682000000000000000e+03 2.943573379516601562e+01 2.371277046203613281e+01 -4.530276656150817871e-01 1.345510333776473999e-01 -9.554298967123031616e-02 -2.871057689189910889e-01
1.683000000000000000e+03 4.125733184814453125e+01 3.870492172241210938e+01 -7.598370909690856934e-01 -5.639089941978454590e-01 -3.971238434314727783e-01 -2.793719768524169922e-01
1.684000000000000000e+03 4.130191040039062500e+01 3.678265380859375000e+01 -7.384827136993408203e-01 -4.650311768054962158e-01 -3.610541820526123047e-01 -5.031564235687255859e-01
1.685000000000000000e+03 1.819589042663574219e+01 -4.145519733428955078e+00 4.397871792316436768e-01 4.452655792236328125e+00 1.467732906341552734e+00 -2.828504323959350586e+00
1.686000000000000000e+03 1.759464454650878906e+01 -7.572344779968261719e+00 1.025744080543518066e+00 6.903507232666015625e+00 2.378775358200073242e+00 -2.960806369781494141e+00
1.687000000000000000e+03 2.137133216857910156e+01 -1.635270500183105469e+01 4.714891314506530762e-01 4.832534790039062500e+00 1.591207146644592285e+00 -1.678803682327270508e+00
1.688000000000000000e+03 3.866180038452148438e+01 1.721867942810058594e+01 3.450015932321548462e-02 6.204918622970581055e-01 1.964976042509078979e-01 3.098959922790527344e-01
1.689000000000000000e+03 4.141173934936523438e+01 1.832942390441894531e+01 1.773774176836013794e-01 1.355521798133850098e+00 4.598697721958160400e-01 6.767576336860656738e-01
1.690000000000000000e+03 3.570673751831054688e+01 1.215645980834960938e+01 -1.683135628700256348e-01 5.004112720489501953e-01 9.962932020425796509e-02 9.116552025079727173e-02
1.691000000000000000e+03 3.866593933105468750e+01 1.528633403778076172e+01 -4.099177196621894836e-02 8.847461938858032227e-01 2.531263232231140137e-01 3.633807003498077393e-01
1.692000000000000000e+03 5.323446655273437500e+01 2.877097129821777344e+01 7.523303031921386719e-01 8.857018470764160156e+00 2.882804632186889648e+00 2.697993516921997070e+00
1.693000000000000000e+03 4.423444366455078125e+01 2.122207641601562500e+01 4.109824299812316895e-01 2.043803930282592773e+00 7.364358901977539062e-01 1.157799601554870605e+00
1.694000000000000000e+03 1.413479685783386230e+00 2.615045309066772461e+00 5.898430570960044861e-02 -4.014896452426910400e-01 -1.027515977621078491e-01 5.056104660034179688e-01
1.695000000000000000e+03 2.385183334350585938e+00 3.518733215332031250e+01 -4.044375568628311157e-02 7.302726268768310547e+00 2.178684711456298828e+00 -2.579840272665023804e-02
1.696000000000000000e+03 5.983193874359130859e+00 3.464110946655273438e+01 -1.150686293840408325e-01 6.351929664611816406e+00 1.871058344841003418e+00 -1.358958333730697632e-01
1.697000000000000000e+03 3.885274171829223633e+00 3.453341293334960938e+01 -7.820928841829299927e-02 6.919086456298828125e+00 2.052263021469116211e+00 -1.016934588551521301e-01
1.698000000000000000e+03 3.319018602371215820e+00 3.064620971679687500e+01 -5.834296718239784241e-02 6.910863399505615234e+00 2.055756092071533203e+00 -1.637311130762100220e-01
1.699000000000000000e+03 1.906777143478393555e+00 2.702152824401855469e+01 -3.111177869141101837e-02 7.002788066864013672e+00 2.091502904891967773e+00 -2.028701603412628174e-01
1.700000000000000000e+03 3.136962413787841797e+00 2.389850425720214844e+01 -1.267751306295394897e-01 6.428040027618408203e+00 1.890379548072814941e+00 -4.873881638050079346e-01
1.701000000000000000e+03 3.465934514999389648e+00 3.195392990112304688e+01 -5.043232068419456482e-02 6.917197227478027344e+00 2.060029506683349609e+00 -1.327436715364456177e-01
1.702000000000000000e+03 3.650066852569580078e+00 3.324126052856445312e+01 -4.752567037940025330e-02 6.917704105377197266e+00 2.061053514480590820e+00 -1.178898438811302185e-01
1.703000000000000000e+03 6.141093730926513672e+00 3.072270202636718750e+01 -1.797284036874771118e-01 6.260096549987792969e+00 1.824110507965087891e+00 -2.759245932102203369e-01
1.704000000000000000e+03 1.862839818000793457e+00 2.145987319946289062e+01 -6.250233948230743408e-02 6.207079410552978516e+00 1.843373060226440430e+00 -4.556452929973602295e-01
1.705000000000000000e+03 3.024329662322998047e+00 1.701543998718261719e+01 -2.086008787155151367e-01 5.194949626922607422e+00 1.495904564857482910e+00 -1.134354233741760254e+00
1.706000000000000000e+03 2.564326763153076172e+00 1.152265548706054688e+01 -2.706255391240119934e-02 3.079872369766235352e+00 9.158429503440856934e-01 -1.485533237457275391e+00
1.707000000000000000e+03 1.072281241416931152e+00 5.210471630096435547e+00 1.347960680723190308e-01 -7.753432393074035645e-01 -1.921641528606414795e-01 -1.531173475086688995e-02
1.708000000000000000e+03 2.209890842437744141e+00 7.462591171264648438e+00 3.259352147579193115e-01 9.438648223876953125e-01 3.809400200843811035e-01 -9.784805178642272949e-01
1.709000000000000000e+03 1.701839089393615723e+00 1.451859283447265625e+01 -6.644599884748458862e-02 3.942895889282226562e+00 1.162934899330139160e+00 -9.165177345275878906e-01
1.710000000000000000e+03 2.966583251953125000e+00 1.563147354125976562e+01 -1.972365975379943848e-01 4.775499820709228516e+00 1.373478889465332031e+00 -1.289025783538818359e+00
1.711000000000000000e+03 2.445392608642578125e+00 1.018483161926269531e+01 7.021967321634292603e-02 2.376753568649291992e+00 7.340919971466064453e-01 -1.455489397048950195e+00
1.712000000000000000e+03 3.108590602874755859e+00 2.115413284301757812e+01 -1.633548885583877563e-01 6.045461654663085938e+00 1.764631986618041992e+00 -7.028827667236328125e-01
1.713000000000000000e+03 2.730931520462036133e+00 1.285853576660156250e+01 -1.193621754646301270e-01 3.720453739166259766e+00 1.080327510833740234e+00 -1.487017393112182617e+00
1.714000000000000000e+03 2.877440214157104492e+00 1.423359680175781250e+01 -1.671758741140365601e-01 4.293591022491455078e+00 1.237924456596374512e+00 -1.409104585647583008e+00
1.715000000000000000e+03 3.092575550079345703e+00 1.978560638427734375e+01 -1.772201210260391235e-01 5.812537193298339844e+00 1.690595030784606934e+00 -8.374967575073242188e-01
1.716000000000000000e+03 3.120583534240722656e+00 2.252135276794433594e+01 -1.396455019712448120e-01 6.257730007171630859e+00 1.835425376892089844e+00 -5.944335460662841797e-01
1.717000000000000000e+03 3.065010547637939453e+00 1.840228271484375000e+01 -2.004030197858810425e-01 5.516174316406250000e+00 1.594731450080871582e+00 -9.722115397453308105e-01
1.718000000000000000e+03 1.794164466857910156e+01 -8.908950805664062500e+00 1.168403744697570801e+00 6.884809017181396484e+00 2.415963888168334961e+00 -2.523840665817260742e+00
1.719000000000000000e+03 1.893807792663574219e+01 -8.511591911315917969e+00 1.417084693908691406e+00 7.250061035156250000e+00 2.600143671035766602e+00 -2.668348789215087891e+00
1.720000000000000000e+03 3.933432388305664062e+01 -1.997806549072265625e+01 8.625105768442153931e-02 2.309898376464843750e+00 7.188448309898376465e-01 -6.792089939117431641e-01
1.721000000000000000e+03 4.923365402221679688e+01 2.574059867858886719e+01 9.759969711303710938e-01 4.510560989379882812e+00 1.645967364311218262e+00 2.350070476531982422e+00
1.722000000000000000e+03 5.032279968261718750e+01 2.653606224060058594e+01 9.830613732337951660e-01 5.462815284729003906e+00 1.933763027191162109e+00 2.660699129104614258e+00
1.723000000000000000e+03 5.347547531127929688e+01 3.197107505798339844e+01 2.401387691497802734e+00 1.161725521087646484e+01 4.205592632293701172e+00 4.510990619659423828e+00
1.724000000000000000e+03 5.691025924682617188e+01 3.144225502014160156e+01 1.421815633773803711e+00 1.132858753204345703e+01 3.825120925903320312e+00 4.282683730125427246e-01
1.725000000000000000e+03 2.344679641723632812e+01 -9.125237911939620972e-02 1.255402803421020508e+00 -3.183600306510925293e-02 3.670700490474700928e-01 1.316306181252002716e-02
1.726000000000000000e+03 2.494252014160156250e+01 1.935315132141113281e+01 -4.021461606025695801e-01 1.009643554687500000e+00 1.822492182254791260e-01 2.078201621770858765e-01
1.727000000000000000e+03 5.156355285644531250e+01 2.721585273742675781e+01 8.110399842262268066e-01 6.807202816009521484e+00 2.285472869873046875e+00 2.690575599670410156e+00
1.728000000000000000e+03 2.933076667785644531e+01 6.274250507354736328e+00 -3.508148193359375000e-01 -4.953682422637939453e-02 -1.201054975390434265e-01 -1.730000078678131104e-01
1.729000000000000000e+03 3.245184707641601562e+01 -3.522368621826171875e+01 5.453066825866699219e-01 1.283065438270568848e+00 5.485116839408874512e-01 -6.699620485305786133e-01
1.730000000000000000e+03 2.070613479614257812e+01 -1.520672130584716797e+01 5.497866272926330566e-01 5.280801296234130859e+00 1.749176383018493652e+00 -1.746946692466735840e+00
1.731000000000000000e+03 3.468115234375000000e+01 1.112650012969970703e+01 -2.332852333784103394e-01 3.585046529769897461e-01 3.756582364439964294e-02 4.901726171374320984e-02
1.732000000000000000e+03 3.230401992797851562e+01 2.735545921325683594e+01 -5.767082571983337402e-01 -2.125187516212463379e-01 -2.367681115865707397e-01 -4.182428717613220215e-01
1.733000000000000000e+03 1.890607070922851562e+01 -1.157389450073242188e+01 8.590090870857238770e-01 6.524668693542480469e+00 2.215103387832641602e+00 -2.044770717620849609e+00
1.734000000000000000e+03 3.763368988037109375e+01 3.460057830810546875e+01 -5.488125681877136230e-01 -4.765295684337615967e-01 -3.076026439666748047e-01 -4.676957130432128906e-01
1.735000000000000000e+03 4.521705245971679688e+01 2.214988517761230469e+01 5.506916642189025879e-01 2.392110347747802734e+00 8.828405737876892090e-01 1.325542807579040527e+00
1.736000000000000000e+03 4.621130752563476562e+01 2.307184791564941406e+01 6.538131237030029297e-01 2.739420652389526367e+00 1.017970085144042969e+00 1.575231671333312988e+00
1.737000000000000000e+03 4.479314804077148438e+01 -2.918243217468261719e+01 2.196593880653381348e-01 6.107823371887207031e+00 1.898244857788085938e+00 -1.070628881454467773e+00
1.738000000000000000e+03 2.953104591369628906e+01 -3.764693498611450195e+00 4.580208063125610352e-01 2.193892598152160645e-01 2.032230198383331299e-01 -1.173596680164337158e-01
1.739000000000000000e+03 2.839410781860351562e+01 -2.967954158782958984e+00 4.877574443817138672e-01 4.091761633753776550e-02 1.586025208234786987e-01 -1.768755316734313965e-01
1.740000000000000000e+03 2.026947975158691406e+01 1.432260894775390625e+01 -1.979468762874603271e-02 2.906114101409912109e+00 8.658958077430725098e-01 1.093069791793823242e+00
1.741000000000000000e+03 2.599025535583496094e+01 3.569835901260375977e+00 -3.895000517368316650e-01 -1.240156814455986023e-01 -1.540547162294387817e-01 -3.976995870471000671e-02
1.742000000000000000e+03 2.710576248168945312e+01 4.454963207244873047e+00 -4.005277156829833984e-01 -9.665014594793319702e-02 -1.491533517837524414e-01 -1.388373523950576782e-01
1.743000000000000000e+03 2.547010421752929688e+01 -2.009389549493789673e-01 8.125516772270202637e-01 -1.356367915868759155e-01 2.030744701623916626e-01 5.978244170546531677e-02
1.744000000000000000e+03 3.159756851196289062e+01 -6.961861133575439453e+00 2.227331846952438354e-01 4.774218201637268066e-01 2.100464999675750732e-01 -1.771628856658935547e-01
1.745000000000000000e+03 2.488176727294921875e+01 2.700284242630004883e+00 -3.283298909664154053e-01 -2.165657654404640198e-02 -1.049959361553192139e-01 1.784473843872547150e-02
1.746000000000000000e+03 2.925284194946289062e+01 -3.327575302124023438e+01 3.424970209598541260e-01 2.074754476547241211e+00 7.251754403114318848e-01 -6.240551471710205078e-01
1.747000000000000000e+03 3.565707778930664062e+01 -1.418471050262451172e+01 5.995352566242218018e-02 1.235517144203186035e+00 3.886412084102630615e-01 -3.284389078617095947e-01
1.748000000000000000e+03 5.544522094726562500e+01 3.062665176391601562e+01 1.067590355873107910e+00 1.125935459136962891e+01 3.698083400726318359e+00 1.361199975013732910e+00
1.749000000000000000e+03 2.902068519592285156e+01 -3.206216812133789062e+01 3.405500352382659912e-01 2.145980834960937500e+00 7.459592223167419434e-01 -6.824631094932556152e-01
1.750000000000000000e+03 1.707886505126953125e+01 -6.740221023559570312e+00 9.819707870483398438e-01 6.942456245422363281e+00 2.377328157424926758e+00 -3.225269794464111328e+00
1.751000000000000000e+03 4.707157516479492188e+01 -3.332268142700195312e+01 1.466960072517395020e+00 7.334083557128906250e+00 2.640313148498535156e+00 9.789691120386123657e-02
1.752000000000000000e+03 4.557524108886718750e+01 -3.019581985473632812e+01 3.626277744770050049e-01 6.789709091186523438e+00 2.145701169967651367e+00 -7.162476778030395508e-01
1.753000000000000000e+03 4.556524658203125000e+01 3.741842269897460938e+01 -1.457155942916870117e+00 -5.677022337913513184e-01 -6.074574589729309082e-01 -6.003860235214233398e-01
1.754000000000000000e+03 4.671698379516601562e+01 3.880043792724609375e+01 -1.353556513786315918e+00 -6.177691221237182617e-01 -5.913977026939392090e-01 1.889956593513488770e-01
1.755000000000000000e+03 1.298326206207275391e+01 6.503700733184814453e+00 3.419991433620452881e-01 1.560688495635986328e+01 4.784665107727050781e+00 1.427001714706420898e+00
1.756000000000000000e+03 1.841748428344726562e+01 -1.025696849822998047e+01 1.033722639083862305e+00 6.880677223205566406e+00 2.374320030212402344e+00 -2.218876838684082031e+00
1.757000000000000000e+03 3.089702224731445312e+01 -4.079315185546875000e+00 3.747276365756988525e-01 3.185336887836456299e-01 2.079783976078033447e-01 -1.480887383222579956e-01
1.758000000000000000e+03 6.023871231079101562e+01 3.919065093994140625e+01 3.554680943489074707e-01 1.188990020751953125e+01 3.673610448837280273e+00 1.051811218261718750e+00
1.759000000000000000e+03 5.627358627319335938e+01 3.714913558959960938e+01 4.224591732025146484e+00 1.199760437011718750e+01 4.866658687591552734e+00 2.350929737091064453e+00
1.760000000000000000e+03 4.808136367797851562e+01 -3.398924255371093750e+01 1.473043203353881836e+00 7.697873592376708984e+00 2.751275062561035156e+00 -8.366500586271286011e-02
1.761000000000000000e+03 4.865304565429687500e+01 -3.011924934387207031e+01 4.871825575828552246e-01 6.750849723815917969e+00 2.171409606933593750e+00 2.215131521224975586e-01
1.762000000000000000e+03 4.833610916137695312e+01 -3.613546752929687500e+01 1.777407884597778320e+00 7.712676048278808594e+00 2.847025156021118164e+00 -3.921746611595153809e-01
1.763000000000000000e+03 4.714037322998046875e+01 -3.526332855224609375e+01 2.102041959762573242e+00 7.427236080169677734e+00 2.858783483505249023e+00 -9.849473088979721069e-02
1.764000000000000000e+03 1.095608901977539062e+01 -1.889687776565551758e+00 1.139874935150146484e+00 2.057406234741210938e+01 6.514181137084960938e+00 4.865178167819976807e-01
1.765000000000000000e+03 5.871465206146240234e+00 2.436825752258300781e+00 1.525598406791687012e+00 5.840585231781005859e-01 6.328970789909362793e-01 -3.308332562446594238e-01
1.766000000000000000e+03 6.236248970031738281e+00 2.233264923095703125e+00 1.539394378662109375e+00 7.067431807518005371e-01 6.738412976264953613e-01 -4.103739857673645020e-01
1.767000000000000000e+03 6.674326896667480469e+00 1.999633789062500000e+00 1.609051585197448730e+00 6.602897047996520996e-01 6.808024048805236816e-01 -5.518471598625183105e-01
1.768000000000000000e+03 7.219687938690185547e+00 -1.959843993186950684e+00 2.546585083007812500e+00 1.825858831405639648e+00 1.311733245849609375e+00 2.295197010040283203e+00
1.769000000000000000e+03 7.321056365966796875e+00 2.069142818450927734e+00 2.531693458557128906e+00 1.378123998641967773e+00 1.172945261001586914e+00 -1.359178423881530762e+00
1.770000000000000000e+03 6.090061187744140625e+00 -1.890215516090393066e+00 1.395204782485961914e+00 6.973587274551391602e-01 6.277690529823303223e-01 9.336563348770141602e-01
1.771000000000000000e+03 6.135278701782226562e+00 -2.457429409027099609e+00 1.770641922950744629e+00 1.256481289863586426e+00 9.081369638442993164e-01 1.412435054779052734e+00
1.772000000000000000e+03 5.438050746917724609e+00 -2.622790098190307617e+00 1.324644804000854492e+00 9.782437086105346680e-01 6.908665299415588379e-01 9.249581694602966309e-01
1.773000000000000000e+03 5.251365184783935547e+00 -2.240002632141113281e+00 1.104640126228332520e+00 5.725578665733337402e-01 5.031594038009643555e-01 5.680628418922424316e-01
1.774000000000000000e+03 8.448725700378417969e+00 2.114946126937866211e+00 3.947847366333007812e+00 4.798426151275634766e+00 2.623882055282592773e+00 -3.683463335037231445e+00
1.775000000000000000e+03 8.737938880920410156e+00 -2.074538946151733398e+00 3.275030612945556641e+00 7.457953929901123047e+00 3.219895362854003906e+00 5.677739143371582031e+00
1.776000000000000000e+03 4.782336235046386719e+00 -2.105244874954223633e+00 7.521679401397705078e-01 4.168660640716552734e-01 3.507102131843566895e-01 2.647694647312164307e-01
1.777000000000000000e+03 4.647150516510009766e+00 -2.352011919021606445e+00 8.468253612518310547e-01 4.983896911144256592e-01 4.035645127296447754e-01 3.271526992321014404e-01
1.778000000000000000e+03 9.022514343261718750e+00 1.958469033241271973e+00 4.020262241363525391e+00 7.684278011322021484e+00 3.511362075805664062e+00 -4.981369495391845703e+00
1.779000000000000000e+03 4.053179264068603516e+00 -7.149771690368652344e+00 2.982206642627716064e-01 2.393547534942626953e+00 8.075304627418518066e-01 1.263611078262329102e+00
1.780000000000000000e+03 1.019793415069580078e+01 1.945916175842285156e+00 3.038412809371948242e+00 1.842758178710937500e+01 6.439797878265380859e+00 -3.206911563873291016e+00
1.781000000000000000e+03 4.114732742309570312e+00 -1.931226849555969238e+00 3.241075575351715088e-01 2.238000482320785522e-01 1.643722802400588989e-01 -5.333204194903373718e-02
1.782000000000000000e+03 3.316324949264526367e+00 -2.392114162445068359e+00 3.621896207332611084e-01 2.021832168102264404e-01 1.693118512630462646e-01 -1.247074976563453674e-01
1.783000000000000000e+03 5.164445400238037109e+00 2.220442771911621094e+00 7.469646334648132324e-01 2.528516650199890137e-01 2.999449074268341064e-01 2.385933250188827515e-01
1.784000000000000000e+03 4.692783832550048828e+00 2.296950578689575195e+00 6.189100742340087891e-01 2.018792629241943359e-01 2.462368011474609375e-01 3.494072854518890381e-01
1.785000000000000000e+03 4.108039855957031250e+00 2.266886949539184570e+00 3.150801956653594971e-01 7.823484390974044800e-02 1.179945170879364014e-01 4.902551770210266113e-01
1.786000000000000000e+03 9.069320678710937500e+00 2.376739501953125000e+00 3.956903219223022461e+00 8.640337944030761719e+00 3.779172420501708984e+00 -4.859765052795410156e+00
1.787000000000000000e+03 1.201109218597412109e+01 -8.301065564155578613e-01 6.060671329498291016e+00 1.979894256591796875e+01 7.757884502410888672e+00 -1.778073668479919434e+00
1.788000000000000000e+03 1.040563297271728516e+01 -2.133571386337280273e+00 3.157514333724975586e-01 1.870666694641113281e+01 5.706725597381591797e+00 3.088227510452270508e+00
1.789000000000000000e+03 1.078176307678222656e+01 -2.168277263641357422e+00 2.561893165111541748e-01 1.938353919982910156e+01 5.891918659210205078e+00 1.326440215110778809e+00
1.790000000000000000e+03 1.622205352783203125e+01 -3.376199960708618164e+00 1.247527003288269043e+00 6.397915840148925781e+00 2.293632984161376953e+00 -4.233335971832275391e+00
1.791000000000000000e+03 1.237179851531982422e+01 3.242587745189666748e-01 7.368494510650634766e+00 2.028283691406250000e+01 8.295399665832519531e+00 1.386723041534423828e+00
1.792000000000000000e+03 1.299906253814697266e+01 4.307291030883789062e+00 3.692315340042114258e+00 2.151530265808105469e+01 7.562285423278808594e+00 -2.253132462501525879e-01
1.793000000000000000e+03 1.176524758338928223e+00 -1.875502109527587891e+00 -1.192005630582571030e-02 -1.661585122346878052e-01 -5.342357233166694641e-02 -2.659461498260498047e-01
1.794000000000000000e+03 2.811004400253295898e+00 1.912531614303588867e+00 -1.107515916228294373e-01 -5.444459244608879089e-02 -4.955885559320449829e-02 6.554372310638427734e-01
1.795000000000000000e+03 1.062795543670654297e+01 1.960863471031188965e+00 3.269671678543090820e+00 2.057053565979003906e+01 7.152061939239501953e+00 -1.341339349746704102e+00
1.796000000000000000e+03 1.697666645050048828e+00 -2.803573369979858398e+00 1.313280910253524780e-01 -1.370403468608856201e-01 -1.713678007945418358e-03 -2.373017221689224243e-01
1.797000000000000000e+03 9.668855667114257812e-01 -1.956505656242370605e+00 6.242765113711357117e-03 -2.090752422809600830e-01 -6.084974110126495361e-02 -2.811268866062164307e-01
1.798000000000000000e+03 1.875650763511657715e+00 1.996465444564819336e+00 -8.427056670188903809e-02 -2.266696244478225708e-01 -9.328205138444900513e-02 5.784333944320678711e-01
1.799000000000000000e+03 3.187046051025390625e+00 2.080492734909057617e+00 3.114139661192893982e-02 -4.521196335554122925e-02 -4.221170209348201752e-03 6.451416611671447754e-01
1.800000000000000000e+03 2.451964855194091797e+00 1.938378810882568359e+00 -1.109568476676940918e-01 -1.489908844232559204e-01 -7.798431813716888428e-02 6.320801973342895508e-01
1.801000000000000000e+03 2.056226253509521484e+00 -4.260334014892578125e+00 2.888436317443847656e-01 1.967943757772445679e-01 1.456913948059082031e-01 1.072191148996353149e-01
1.802000000000000000e+03 9.986912608146667480e-01 2.893220901489257812e+00 3.081614896655082703e-02 -7.230299711227416992e-01 -2.076641619205474854e-01 3.794427216053009033e-01
1.803000000000000000e+03 2.254031658172607422e+00 2.096913814544677734e+00 -3.054079785943031311e-02 -1.490667611360549927e-01 -5.388226732611656189e-02 6.350716948509216309e-01
1.804000000000000000e+03 1.111690235137939453e+01 9.242403984069824219e+00 -8.580393195152282715e-01 1.066608905792236328e+01 2.942414760589599609e+00 -1.521627783775329590e+00
1.805000000000000000e+03 1.347499179840087891e+01 7.929099559783935547e+00 -2.620970308780670166e-01 1.267209625244140625e+01 3.722999811172485352e+00 1.742932319641113281e+00
1.806000000000000000e+03 1.090435218811035156e+01 2.250494241714477539e+00 4.351347446441650391e+00 2.039521789550781250e+01 7.423969745635986328e+00 -2.225406318902969360e-01
1.807000000000000000e+03 1.251895332336425781e+01 3.327516093850135803e-02 6.548859119415283203e+00 2.046382141113281250e+01 8.103803634643554688e+00 2.001513689756393433e-01
1.808000000000000000e+03 1.335089492797851562e+01 1.720717549324035645e+00 6.616364479064941406e+00 2.522914886474609375e+01 9.553654670715332031e+00 1.030990481376647949e+00
1.809000000000000000e+03 1.282142162322998047e+01 2.279185056686401367e+00 7.379693984985351562e+00 2.509794998168945312e+01 9.743292808532714844e+00 1.352106451988220215e+00
1.810000000000000000e+03 1.201770591735839844e+01 3.718460559844970703e+00 4.414318561553955078e+00 2.028745460510253906e+01 7.410531997680664062e+00 -1.312367796897888184e+00
1.811000000000000000e+03 2.213458538055419922e+00 2.728576183319091797e+00 1.730612665414810181e-01 -2.205129414796829224e-01 -1.423550117760896683e-02 5.664904117584228516e-01
1.812000000000000000e+03 4.411176300048828125e+01 1.940903282165527344e+01 2.138643413782119751e-01 2.252992153167724609e+00 7.400569319725036621e-01 1.091521143913269043e+00
1.813000000000000000e+03 1.957210731506347656e+01 -1.572976875305175781e+01 2.785367667675018311e-01 5.417988777160644531e+00 1.708957672119140625e+00 -1.451549053192138672e+00
1.814000000000000000e+03 2.078184509277343750e+01 -1.796198272705078125e+01 1.934609711170196533e-01 4.765672206878662109e+00 1.487739920616149902e+00 -1.368639111518859863e+00
1.815000000000000000e+03 1.858682060241699219e+01 1.437022686004638672e+01 -3.317719995975494385e-01 4.145595550537109375e+00 1.144147157669067383e+00 1.182868361473083496e+00
1.816000000000000000e+03 1.782003021240234375e+01 1.336918640136718750e+01 -3.057587444782257080e-01 4.787600040435791016e+00 1.344552278518676758e+00 1.438905835151672363e+00
1.817000000000000000e+03 2.197809982299804688e+01 -2.009457588195800781e+01 1.757472157478332520e-01 4.178020954132080078e+00 1.306130528450012207e+00 -1.271198272705078125e+00
1.818000000000000000e+03 3.598376464843750000e+01 -1.239542770385742188e+01 3.760181367397308350e-02 1.370341777801513672e+00 4.223830699920654297e-01 -2.980546951293945312e-01
1.819000000000000000e+03 3.461715316772460938e+01 -1.008789825439453125e+01 8.540247380733489990e-02 1.058301687240600586e+00 3.431112468242645264e-01 -2.362660765647888184e-01
1.820000000000000000e+03 2.890399742126464844e+01 2.639283370971679688e+01 -4.416967630386352539e-01 5.143915414810180664e-01 2.180843241512775421e-02 -2.102087140083312988e-01
1.821000000000000000e+03 3.669198608398437500e+01 -1.354000759124755859e+01 -1.034757029265165329e-02 1.546910643577575684e+00 4.609689414501190186e-01 -3.468388020992279053e-01
1.822000000000000000e+03 3.396973037719726562e+01 -8.919487953186035156e+00 8.997508883476257324e-02 9.224603176116943359e-01 3.037306368350982666e-01 -2.165249139070510864e-01
1.823000000000000000e+03 1.551860141754150391e+01 -8.151637911796569824e-01 2.827764511108398438e+00 5.863543033599853516e+00 2.607392311096191406e+00 -5.082175254821777344e+00
1.824000000000000000e+03 4.326916885375976562e+01 2.027715873718261719e+01 3.366825878620147705e-01 1.789575934410095215e+00 6.378775835037231445e-01 9.679034352302551270e-01
1.825000000000000000e+03 1.735801696777343750e+01 -5.638881683349609375e+00 8.266744613647460938e-01 6.317167758941650391e+00 2.143152713775634766e+00 -3.487265110015869141e+00
1.826000000000000000e+03 1.710723114013671875e+01 -2.966347932815551758e+00 1.469646930694580078e+00 4.674342632293701172e+00 1.843196868896484375e+00 -3.175835132598876953e+00
1.827000000000000000e+03 3.335332870483398438e+01 -7.727773666381835938e+00 1.707820594310760498e-01 7.949143648147583008e-01 2.897089421749114990e-01 -1.946503371000289917e-01
1.828000000000000000e+03 2.258190917968750000e+01 -2.110138130187988281e+01 2.008179724216461182e-01 3.943955421447753906e+00 1.243432044982910156e+00 -1.211158394813537598e+00
1.829000000000000000e+03 4.721434020996093750e+01 2.398520088195800781e+01 7.849644422531127930e-01 3.232489109039306641e+00 1.205236077308654785e+00 1.804329991340637207e+00
1.830000000000000000e+03 5.194373703002929688e+01 2.591812324523925781e+01 3.409112393856048584e-01 6.922733783721923828e+00 2.179093360900878906e+00 2.268870353698730469e+00
1.831000000000000000e+03 3.960036468505859375e+01 1.631782531738281250e+01 4.624495655298233032e-02 1.041320562362670898e+00 3.262696564197540283e-01 4.430001378059387207e-01
1.832000000000000000e+03 4.253067016601562500e+01 1.553989219665527344e+01 -2.385548315942287445e-02 2.065025806427001953e+00 6.123510599136352539e-01 7.989373207092285156e-01
1.833000000000000000e+03 2.121675491333007812e+01 1.737813949584960938e+01 -4.149057269096374512e-01 2.560052156448364258e+00 6.435439586639404297e-01 6.704673767089843750e-01
1.834000000000000000e+03 4.048595046997070312e+01 -1.916891288757324219e+01 -5.443898029625415802e-03 2.732477903366088867e+00 8.181101679801940918e-01 -6.024431586265563965e-01
1.835000000000000000e+03 2.309764099121093750e+01 -2.215172958374023438e+01 1.930498629808425903e-01 3.710725545883178711e+00 1.171132564544677734e+00 -1.132811665534973145e+00
1.836000000000000000e+03 4.538755416870117188e+01 -2.755529022216796875e+01 3.797996044158935547e-02 5.774421215057373047e+00 1.743720293045043945e+00 -7.316142916679382324e-01
1.837000000000000000e+03 2.649116897583007812e+01 7.377232313156127930e-01 4.141887724399566650e-01 -1.010627970099449158e-01 9.393779188394546509e-02 1.093304008245468140e-01
1.838000000000000000e+03 4.301809310913085938e+01 -2.264749145507812500e+01 -6.329222768545150757e-02 3.864356756210327148e+00 1.140319347381591797e+00 -7.645756602287292480e-01
1.839000000000000000e+03 4.236464309692382812e+01 -2.465288543701171875e+01 1.204664781689643860e-01 3.725198030471801758e+00 1.153699398040771484e+00 -1.023669958114624023e+00
1.840000000000000000e+03 2.232171058654785156e+01 -2.337275695800781250e+01 9.956432878971099854e-02 3.782843589782714844e+00 1.164722323417663574e+00 -9.893655776977539062e-01
1.841000000000000000e+03 2.474775695800781250e+01 -2.313353919982910156e+01 2.970674335956573486e-01 3.288624286651611328e+00 1.075707554817199707e+00 -1.114892721176147461e+00
1.842000000000000000e+03 3.042704582214355469e+01 7.207296371459960938e+00 -3.501915633678436279e-01 -1.789635419845581055e-02 -1.104263737797737122e-01 -1.394040882587432861e-01
1.843000000000000000e+03 3.364066314697265625e+01 1.011538791656494141e+01 -2.366077005863189697e-01 2.627894878387451172e-01 7.854537107050418854e-03 -3.326691314578056335e-02
1.844000000000000000e+03 4.379375839233398438e+01 -2.386100769042968750e+01 -6.565926969051361084e-02 4.344782352447509766e+00 1.283736944198608398e+00 -7.791509628295898438e-01
1.845000000000000000e+03 2.398603630065917969e+01 1.836183357238769531e+01 -3.192820250988006592e-01 1.305894136428833008e+00 2.959836125373840332e-01 3.083803951740264893e-01
1.846000000000000000e+03 2.309232521057128906e+01 1.944984626770019531e+01 -4.525999128818511963e-01 1.807106733322143555e+00 4.063520431518554688e-01 3.754461705684661865e-01
1.847000000000000000e+03 3.814870071411132812e+01 -1.578104782104492188e+01 -1.953641697764396667e-02 1.948921918869018555e+00 5.788156390190124512e-01 -4.425360560417175293e-01
1.848000000000000000e+03 4.027588367462158203e+00 -1.592329406738281250e+01 -1.746681630611419678e-01 3.792258501052856445e+00 1.085277080535888672e+00 7.476056218147277832e-01
1.849000000000000000e+03 4.420050144195556641e+00 -2.130371093750000000e+01 -1.257406324148178101e-01 4.236492156982421875e+00 1.233225464820861816e+00 4.567239284515380859e-01
1.850000000000000000e+03 3.328308820724487305e+00 -2.406752777099609375e+01 -6.379089504480361938e-02 4.303128242492675781e+00 1.271801114082336426e+00 2.843071818351745605e-01
1.851000000000000000e+03 4.494746208190917969e+00 -2.263426780700683594e+01 -1.201319321990013123e-01 4.311755180358886719e+00 1.257486939430236816e+00 3.958920538425445557e-01
1.852000000000000000e+03 4.735419273376464844e+00 -2.788038253784179688e+01 -7.637313008308410645e-02 4.476514816284179688e+00 1.320042490959167480e+00 2.231042087078094482e-01
1.853000000000000000e+03 3.039254665374755859e+00 -1.862738037109375000e+01 -8.828031271696090698e-02 3.825507164001464844e+00 1.121168017387390137e+00 4.823463857173919678e-01
1.854000000000000000e+03 4.248292922973632812e+00 -1.860680007934570312e+01 -1.501988321542739868e-01 4.067413330078125000e+00 1.175164461135864258e+00 5.858430862426757812e-01
1.855000000000000000e+03 4.879836559295654297e+00 -2.542853927612304688e+01 -1.020118966698646545e-01 4.419507026672363281e+00 1.295248508453369141e+00 3.054926097393035889e-01
1.856000000000000000e+03 4.679075241088867188e+00 -2.399394035339355469e+01 -1.050209701061248779e-01 4.367161750793457031e+00 1.278642296791076660e+00 3.463276624679565430e-01
1.857000000000000000e+03 4.782889842987060547e+00 -2.674229812622070312e+01 -8.610431849956512451e-02 4.453618049621582031e+00 1.310254096984863281e+00 2.586366832256317139e-01
1.858000000000000000e+03 5.670040607452392578e+00 -2.248525428771972656e+01 -1.618109792470932007e-01 4.398684978485107422e+00 1.271062135696411133e+00 4.288017153739929199e-01
1.859000000000000000e+03 3.962977170944213867e+00 -3.077564811706542969e+01 -4.180579632520675659e-02 4.554839134216308594e+00 1.353909969329833984e+00 1.431900709867477417e-01
1.860000000000000000e+03 5.035132884979248047e+00 -2.908270835876464844e+01 -6.751094013452529907e-02 4.497825622558593750e+00 1.329094409942626953e+00 1.979497224092483521e-01
1.861000000000000000e+03 2.706650733947753906e+00 -8.504566192626953125e+00 7.786072045564651489e-02 1.834724664688110352e+00 5.737755894660949707e-01 9.216764569282531738e-01
1.862000000000000000e+03 2.604448795318603516e+00 -1.204811096191406250e+01 -7.420692592859268188e-02 2.628434658050537109e+00 7.662683129310607910e-01 7.997665405273437500e-01
1.863000000000000000e+03 4.638216018676757812e+00 -3.203943252563476562e+01 -6.418500840663909912e-02 4.556010246276855469e+00 1.347547531127929688e+00 1.308000087738037109e-01
1.864000000000000000e+03 5.126079082489013672e+00 -3.491128540039062500e+01 -5.514674261212348938e-02 4.557573318481445312e+00 1.350727915763854980e+00 9.555260092020034790e-02
1.865000000000000000e+03 3.650328397750854492e+00 -1.213021373748779297e+01 -1.492319107055664062e-01 3.193253993988037109e+00 9.132065773010253906e-01 9.937102198600769043e-01
1.866000000000000000e+03 3.915212392807006836e+00 -1.462966251373291016e+01 -1.839604824781417847e-01 3.626720666885375977e+00 1.032828092575073242e+00 8.346840739250183105e-01
1.867000000000000000e+03 2.555099487304687500e+01 -2.572970008850097656e+01 2.601956725120544434e-01 3.007323741912841797e+00 9.802557826042175293e-01 -9.631760120391845703e-01
1.868000000000000000e+03 2.738014793395996094e+01 -2.094570875167846680e+00 6.664814949035644531e-01 -1.359457150101661682e-03 1.995366066694259644e-01 -1.185190826654434204e-01
1.869000000000000000e+03 4.992749786376953125e+01 2.465854835510253906e+01 5.231216549873352051e-01 5.154888153076171875e+00 1.703402876853942871e+00 2.221936941146850586e+00
1.870000000000000000e+03 2.803710365295410156e+01 2.792988777160644531e+01 -4.281741380691528320e-01 7.967977523803710938e-01 1.105870902538299561e-01 -9.601695090532302856e-02
1.871000000000000000e+03 1.257556438446044922e+00 -5.032044887542724609e+00 1.175398379564285278e-01 -1.749311238527297974e-01 -1.721738651394844055e-02 1.043945774435997009e-01
1.872000000000000000e+03 7.554495239257812500e+01 1.370376491546630859e+01 -8.377742767333984375e-02 8.371393203735351562e+00 2.486284732818603516e+00 -3.830814361572265625e-01
1.873000000000000000e+03 7.552287292480468750e+01 -9.860698878765106201e-02 -5.506961420178413391e-02 8.665100097656250000e+00 2.583009243011474609e+00 2.624353766441345215e-02
1.874000000000000000e+03 7.682814025878906250e+01 2.660341262817382812e+00 -3.691002726554870605e-02 8.868199348449707031e+00 2.649386882781982422e+00 -3.475332632660865784e-02
1.875000000000000000e+03 7.556658172607421875e+01 6.774137020111083984e+00 -7.605454325675964355e-02 8.632645606994628906e+00 2.566977500915527344e+00 -1.514312773942947388e-01
1.876000000000000000e+03 7.421739959716796875e+01 -1.450209379196166992e+00 -8.666065335273742676e-02 8.457113265991210938e+00 2.511135816574096680e+00 7.886748015880584717e-02
1.877000000000000000e+03 7.554967498779296875e+01 -8.437822341918945312e+00 -4.531080275774002075e-02 8.473598480224609375e+00 2.528486251831054688e+00 1.936502754688262939e-01
1.878000000000000000e+03 7.422726440429687500e+01 3.993468046188354492e+00 -1.024034470319747925e-01 8.491245269775390625e+00 2.516652584075927734e+00 -8.256820589303970337e-02
1.879000000000000000e+03 7.551869201660156250e+01 1.261423587799072266e+00 -6.198740005493164062e-02 8.672204971313476562e+00 2.583065271377563477e+00 -4.367398563772439957e-03
1.880000000000000000e+03 7.554204559326171875e+01 4.006849765777587891e+00 -7.020473480224609375e-02 8.668441772460937500e+00 2.579471111297607422e+00 -7.509547472000122070e-02
1.881000000000000000e+03 7.545718383789062500e+01 -4.265243530273437500e+00 -5.134440213441848755e-02 8.582045555114746094e+00 2.559210300445556641e+00 1.152119934558868408e-01
1.882000000000000000e+03 7.678391265869140625e+01 -4.272766113281250000e+00 -2.587764151394367218e-02 8.788926124572753906e+00 2.628914594650268555e+00 8.575084060430526733e-02
1.883000000000000000e+03 7.542120361328125000e+01 -5.660677433013916016e+00 -4.624959081411361694e-02 8.549231529235839844e+00 2.550894498825073242e+00 1.432262063026428223e-01
1.884000000000000000e+03 7.430858612060546875e+01 -8.481624603271484375e+00 -6.292108446359634399e-02 8.302767753601074219e+00 2.471954107284545898e+00 2.313368320465087891e-01
1.885000000000000000e+03 7.553604125976562500e+01 -1.528449440002441406e+01 -2.743082866072654724e-02 8.172054290771484375e+00 2.443387031555175781e+00 2.871939837932586670e-01
1.886000000000000000e+03 7.683823394775390625e+01 9.597638130187988281e+00 -4.097251966595649719e-02 8.700816154479980469e+00 2.597953081130981445e+00 -1.918197721242904663e-01
1.887000000000000000e+03 7.557080841064453125e+01 8.153217315673828125e+00 -7.375716418027877808e-02 8.601350784301757812e+00 2.558278083801269531e+00 -1.954162716865539551e-01
1.888000000000000000e+03 7.560221099853515625e+01 -1.117276000976562500e+01 -3.555594757199287415e-02 8.378448486328125000e+00 2.502867698669433594e+00 2.315371930599212646e-01
1.889000000000000000e+03 7.558692932128906250e+01 -1.252885913848876953e+01 -3.108129091560840607e-02 8.314167976379394531e+00 2.484925985336303711e+00 2.481047660112380981e-01
1.890000000000000000e+03 7.559739685058593750e+01 -9.815693855285644531e+00 -3.631998971104621887e-02 8.428160667419433594e+00 2.517552137374877930e+00 2.093194574117660522e-01
1.891000000000000000e+03 7.391746520996093750e+01 3.165973854064941406e+01 1.868955492973327637e-01 7.218823432922363281e+00 2.221715688705444336e+00 -6.176993846893310547e-01
1.892000000000000000e+03 7.537992858886718750e+01 -1.814532279968261719e+01 -1.902461796998977661e-02 7.998899459838867188e+00 2.393962621688842773e+00 3.245424330234527588e-01
1.893000000000000000e+03 7.556285858154296875e+01 1.091852664947509766e+01 -8.053590357303619385e-02 8.506950378417968750e+00 2.527924537658691406e+00 -2.859982252120971680e-01
1.894000000000000000e+03 7.429294586181640625e+01 9.475268363952636719e+00 -1.220221891999244690e-01 8.431322097778320312e+00 2.492789983749389648e+00 -2.735076844692230225e-01
1.895000000000000000e+03 7.681019592285156250e+01 1.657128715515136719e+01 -4.521130397915840149e-02 8.229378700256347656e+00 2.455250263214111328e+00 -3.736039400100708008e-01
1.896000000000000000e+03 7.551717376708984375e+01 1.650413894653320312e+01 -7.991664856672286987e-02 8.194216728210449219e+00 2.434289932250976562e+00 -4.809482991695404053e-01
1.897000000000000000e+03 7.547631072998046875e+01 -1.670062065124511719e+01 -2.967971377074718475e-02 8.091443061828613281e+00 2.418529033660888672e+00 3.096672892570495605e-01
1.898000000000000000e+03 7.528254699707031250e+01 -1.960553169250488281e+01 -1.798145845532417297e-02 7.912451267242431641e+00 2.368340969085693359e+00 3.424232900142669678e-01
1.899000000000000000e+03 7.676763916015625000e+01 -1.677241706848144531e+01 -1.221162825822830200e-02 8.216513633728027344e+00 2.461290597915649414e+00 2.319757491350173950e-01
1.900000000000000000e+03 7.556584167480468750e+01 -1.389579391479492188e+01 -3.428951650857925415e-02 8.249784469604492188e+00 2.464648485183715820e+00 2.708528637886047363e-01
1.901000000000000000e+03 7.680328369140625000e+01 1.797120666503906250e+01 -3.952498361468315125e-02 8.097638130187988281e+00 2.417433977127075195e+00 -4.142639636993408203e-01
1.902000000000000000e+03 7.419345092773437500e+01 1.785264015197753906e+01 -1.179204061627388000e-01 8.095108985900878906e+00 2.393156528472900391e+00 -6.130440831184387207e-01
1.903000000000000000e+03 7.550524902343750000e+01 2.071660614013671875e+01 -5.668972060084342957e-02 7.858934879302978516e+00 2.340673685073852539e+00 -5.918462276458740234e-01
1.904000000000000000e+03 7.549857330322265625e+01 1.931761550903320312e+01 -6.537257879972457886e-02 7.976845264434814453e+00 2.373441934585571289e+00 -5.677355527877807617e-01
1.905000000000000000e+03 7.529226684570312500e+01 -2.901430130004882812e+01 3.736880049109458923e-02 7.376855373382568359e+00 2.224267244338989258e+00 3.152306377887725830e-01
1.906000000000000000e+03 7.392774200439453125e+01 -2.259136009216308594e+01 -1.731641474179923534e-03 7.647337913513183594e+00 2.293681859970092773e+00 4.246416687965393066e-01
1.907000000000000000e+03 7.682532501220703125e+01 2.350038337707519531e+01 -1.810163632035255432e-02 7.485341072082519531e+00 2.240171670913696289e+00 -5.088209509849548340e-01
1.908000000000000000e+03 7.552913665771484375e+01 2.209658241271972656e+01 -4.126008227467536926e-02 7.729825973510742188e+00 2.306569814682006836e+00 -6.299862265586853027e-01
1.909000000000000000e+03 7.539980316162109375e+01 -2.524154853820800781e+01 2.744418801739811897e-03 7.596523761749267578e+00 2.279780387878417969e+00 3.410749733448028564e-01
1.910000000000000000e+03 7.673609161376953125e+01 -2.380851936340332031e+01 -6.616863887757062912e-03 7.755523204803466797e+00 2.324671983718872070e+00 2.618598937988281250e-01
1.911000000000000000e+03 7.526586151123046875e+01 -2.105388832092285156e+01 -4.356584977358579636e-03 7.828752040863037109e+00 2.347318649291992188e+00 3.449105918407440186e-01
1.912000000000000000e+03 7.401907348632812500e+01 -2.665799140930175781e+01 2.220117859542369843e-02 7.460344791412353516e+00 2.244763851165771484e+00 4.029129743576049805e-01
1.913000000000000000e+03 7.681443786621093750e+01 2.485010910034179688e+01 -2.442371565848588943e-03 7.325892925262451172e+00 2.197035074234008789e+00 -5.059319138526916504e-01
1.914000000000000000e+03 7.428715515136718750e+01 2.347263908386230469e+01 -4.051700234413146973e-02 7.716774463653564453e+00 2.302877187728881836e+00 -7.568464279174804688e-01
1.915000000000000000e+03 7.656448364257812500e+01 2.757098770141601562e+01 1.731039956212043762e-02 7.046574115753173828e+00 2.119165420532226562e+00 -5.241478085517883301e-01
1.916000000000000000e+03 7.528435516357421875e+01 2.728823280334472656e+01 3.227409720420837402e-02 7.268588066101074219e+00 2.190258502960205078e+00 -6.716716885566711426e-01
1.917000000000000000e+03 7.603099822998046875e+01 3.042162704467773438e+01 8.006438612937927246e-02 6.850167274475097656e+00 2.079069614410400391e+00 -5.184547901153564453e-01
1.918000000000000000e+03 7.491085052490234375e+01 2.861868667602539062e+01 4.737154766917228699e-02 7.238958358764648438e+00 2.185899019241333008e+00 -6.655641794204711914e-01
1.919000000000000000e+03 7.477481079101562500e+01 -3.146296691894531250e+01 6.301810592412948608e-02 7.248466014862060547e+00 2.193445205688476562e+00 2.989026010036468506e-01
1.920000000000000000e+03 7.229701232910156250e+01 -3.621619033813476562e+01 1.636248975992202759e-01 7.072133541107177734e+00 2.170727491378784180e+00 2.515183389186859131e-01
1.921000000000000000e+03 7.521216583251953125e+01 -3.476248168945312500e+01 6.764209270477294922e-02 7.121404647827148438e+00 2.156714200973510742e+00 2.101949155330657959e-01
1.922000000000000000e+03 7.353522491455078125e+01 3.555528640747070312e+01 2.748861312866210938e-01 7.111576080322265625e+00 2.215938806533813477e+00 -4.394816756248474121e-01
1.923000000000000000e+03 7.443521881103515625e+01 3.006307220458984375e+01 1.305476427078247070e-01 7.226408481597900391e+00 2.207086801528930664e+00 -6.826856732368469238e-01
1.924000000000000000e+03 7.510330200195312500e+01 -3.021642494201660156e+01 3.415572270750999451e-02 7.317475318908691406e+00 2.205489158630371094e+00 3.122973144054412842e-01
1.925000000000000000e+03 7.267280578613281250e+01 -3.040846633911132812e+01 9.037403762340545654e-02 7.248746395111083984e+00 2.201736211776733398e+00 4.066679775714874268e-01
1.926000000000000000e+03 7.643628692626953125e+01 -3.043996810913085938e+01 3.212138265371322632e-02 7.324934005737304688e+00 2.207116603851318359e+00 2.369781583547592163e-01
1.927000000000000000e+03 7.539430999755859375e+01 -2.779870986938476562e+01 1.767653226852416992e-02 7.448949813842773438e+00 2.239987850189208984e+00 3.273581266403198242e-01
1.928000000000000000e+03 2.513125419616699219e+01 -2.440868759155273438e+01 2.803814113140106201e-01 3.157118320465087891e+00 1.031249880790710449e+00 -1.016333103179931641e+00
1.929000000000000000e+03 4.599454498291015625e+01 2.122914886474609375e+01 3.464475572109222412e-01 2.909519672393798828e+00 9.767901897430419922e-01 1.425089359283447266e+00
1.930000000000000000e+03 3.857327651977539062e+01 -1.880778312683105469e+01 9.711986035108566284e-02 2.044179916381835938e+00 6.423899531364440918e-01 -5.777404904365539551e-01
1.931000000000000000e+03 3.762274169921875000e+01 1.230425930023193359e+01 -1.152457669377326965e-01 9.574279785156250000e-01 2.526546716690063477e-01 2.890075445175170898e-01
1.932000000000000000e+03 3.863586807250976562e+01 1.335256671905517578e+01 -9.721574932336807251e-02 1.104514956474304199e+00 3.021897673606872559e-01 3.947657346725463867e-01
1.933000000000000000e+03 3.962749481201171875e+01 1.439021968841552734e+01 -3.386523574590682983e-02 1.286119461059570312e+00 3.756762742996215820e-01 4.723182320594787598e-01
1.934000000000000000e+03 3.659071350097656250e+01 1.125217819213867188e+01 -1.662201732397079468e-01 7.872480154037475586e-01 1.863083541393280029e-01 2.301923930644989014e-01
1.935000000000000000e+03 1.595014762878417969e+01 9.641561508178710938e+00 3.446610867977142334e-01 7.559689998626708984e+00 2.371305465698242188e+00 2.758201360702514648e+00
1.936000000000000000e+03 1.305796432495117188e+01 9.051004409790039062e+00 -9.451048970222473145e-01 1.099618530273437500e+01 3.015324115753173828e+00 3.317945003509521484e-01
1.937000000000000000e+03 2.605974769592285156e+01 -2.710357093811035156e+01 2.393703311681747437e-01 2.887984991073608398e+00 9.382066130638122559e-01 -8.851425647735595703e-01
1.938000000000000000e+03 4.348262310028076172e+00 2.227503776550292969e+01 -2.593044340610504150e-01 6.128860950469970703e+00 1.760866999626159668e+00 -7.542454600334167480e-01
1.939000000000000000e+03 4.364207744598388672e+00 2.362737464904785156e+01 -2.204814553260803223e-01 6.252817153930664062e+00 1.809700727462768555e+00 -6.334728002548217773e-01
1.940000000000000000e+03 4.405008316040039062e+00 2.633367347717285156e+01 -1.648515909910202026e-01 6.434632778167724609e+00 1.880934357643127441e+00 -4.351803660392761230e-01
1.941000000000000000e+03 4.412759304046630859e+00 2.762558937072753906e+01 -1.558984071016311646e-01 6.511308193206787109e+00 1.906623005867004395e+00 -3.541253805160522461e-01
1.942000000000000000e+03 3.159215450286865234e+00 2.664804077148437500e+01 -9.957674890756607056e-02 6.696669578552246094e+00 1.979127883911132812e+00 -3.272931575775146484e-01
1.943000000000000000e+03 4.585671424865722656e+00 3.013662147521972656e+01 -1.318226903676986694e-01 6.579231739044189453e+00 1.934222698211669922e+00 -2.474120855331420898e-01
1.944000000000000000e+03 4.320536613464355469e+00 1.817769241333007812e+01 -3.545157313346862793e-01 5.652625083923339844e+00 1.589432835578918457e+00 -1.237187862396240234e+00
1.945000000000000000e+03 4.349498271942138672e+00 1.955525016784667969e+01 -3.325441479682922363e-01 5.829136371612548828e+00 1.648977637290954590e+00 -1.053199172019958496e+00
1.946000000000000000e+03 4.352365970611572266e+00 2.092412948608398438e+01 -2.842353582382202148e-01 5.997023582458496094e+00 1.713836431503295898e+00 -8.997932076454162598e-01
1.947000000000000000e+03 4.265701293945312500e+00 1.679851150512695312e+01 -3.798658549785614014e-01 5.413384437561035156e+00 1.510055661201477051e+00 -1.412940382957458496e+00
1.948000000000000000e+03 5.556423187255859375e+00 2.342035102844238281e+01 -3.445250093936920166e-01 6.127298831939697266e+00 1.734832048416137695e+00 -7.281586527824401855e-01
1.949000000000000000e+03 4.400887489318847656e+00 2.499372482299804688e+01 -1.942674219608306885e-01 6.354021072387695312e+00 1.847926020622253418e+00 -5.226016640663146973e-01
1.950000000000000000e+03 5.262809753417968750e+00 3.379765701293945312e+01 -7.384442538022994995e-02 6.536819934844970703e+00 1.938892722129821777e+00 -1.723961681127548218e-01
1.951000000000000000e+03 6.085732460021972656e+00 3.649211883544921875e+01 -1.367402225732803345e-01 6.264036178588867188e+00 1.838188767433166504e+00 -1.362894773483276367e-01
1.952000000000000000e+03 4.021515369415283203e+00 3.578316497802734375e+01 -1.028457060456275940e-01 6.910843372344970703e+00 2.042399168014526367e+00 -7.021843641996383667e-02
1.953000000000000000e+03 3.563951969146728516e+00 1.127195835113525391e+01 -4.342555999755859375e-02 3.631132364273071289e+00 1.076312065124511719e+00 -1.916712045669555664e+00
1.954000000000000000e+03 4.100813865661621094e+00 1.393703079223632812e+01 -3.153510093688964844e-01 4.788342475891113281e+00 1.341897368431091309e+00 -1.819979190826416016e+00
1.955000000000000000e+03 4.189012050628662109e+00 1.539748287200927734e+01 -3.659049868583679199e-01 5.179524421691894531e+00 1.444085836410522461e+00 -1.615285754203796387e+00
1.956000000000000000e+03 4.462831974029541016e+00 2.888665771484375000e+01 -1.171161159873008728e-01 6.560904979705810547e+00 1.933136701583862305e+00 -2.910753786563873291e-01
1.957000000000000000e+03 5.166356563568115234e+00 3.578805541992187500e+01 -9.756725281476974487e-02 6.589944362640380859e+00 1.947713136672973633e+00 -1.645362675189971924e-01
1.958000000000000000e+03 5.032743930816650391e+00 3.258971023559570312e+01 -8.002811670303344727e-02 6.579399108886718750e+00 1.949811220169067383e+00 -1.676705181598663330e-01
1.959000000000000000e+03 5.337062358856201172e+00 1.382248020172119141e+01 -4.810635149478912354e-01 5.439591407775878906e+00 1.487558364868164062e+00 -2.047161102294921875e+00
1.960000000000000000e+03 2.386283159255981445e+00 8.800789833068847656e+00 2.317676842212677002e-01 1.679533600807189941e+00 5.733903646469116211e-01 -1.270914316177368164e+00
1.961000000000000000e+03 3.393208503723144531e+00 1.003622817993164062e+01 1.285798400640487671e-01 3.053285598754882812e+00 9.545596241950988770e-01 -1.820604681968688965e+00
1.962000000000000000e+03 3.685735940933227539e+00 7.671431541442871094e+00 6.375738382339477539e-01 2.261310100555419922e+00 8.696652054786682129e-01 -1.641429781913757324e+00
1.963000000000000000e+03 1.811912059783935547e+00 5.238416194915771484e+00 3.221252858638763428e-01 -1.704057008028030396e-01 4.551587998867034912e-02 -1.385899931192398071e-01
1.964000000000000000e+03 3.088081121444702148e+00 6.975769042968750000e+00 6.391319632530212402e-01 1.439631223678588867e+00 6.236289739608764648e-01 -1.199211716651916504e+00
1.965000000000000000e+03 4.574439239501953125e+01 -2.849612808227539062e+01 1.299092918634414673e-01 6.227708816528320312e+00 1.907285451889038086e+00 -6.667934656143188477e-01
1.966000000000000000e+03 2.404519653320312500e+01 2.046931457519531250e+01 -4.248784482479095459e-01 1.477476000785827637e+00 3.157792389392852783e-01 2.492416054010391235e-01
1.967000000000000000e+03 2.736052131652832031e+01 -1.928850859403610229e-01 5.799219608306884766e-01 -7.928881794214248657e-02 1.501899361610412598e-01 6.687217205762863159e-02
1.968000000000000000e+03 2.460927581787109375e+01 -3.022721672058105469e+01 1.329246759414672852e-01 2.999328374862670898e+00 9.396759271621704102e-01 -6.461951136589050293e-01
1.969000000000000000e+03 2.735828018188476562e+01 -3.323955154418945312e+01 2.427444159984588623e-01 2.429349660873413086e+00 8.016282320022583008e-01 -5.949869751930236816e-01
1.970000000000000000e+03 9.788136482238769531e+00 2.389717817306518555e+00 3.369044542312622070e+00 1.391319370269775391e+01 5.184671401977539062e+00 -4.603125095367431641e+00
1.971000000000000000e+03 3.228780364990234375e+01 7.224354267120361328e+00 -2.332603037357330322e-01 2.638930380344390869e-01 9.189823642373085022e-03 3.914235625416040421e-03
1.972000000000000000e+03 2.827963829040527344e+01 -1.065161943435668945e+00 5.382966399192810059e-01 -1.278485357761383057e-02 1.576535403728485107e-01 -4.010511562228202820e-02
1.973000000000000000e+03 4.697360229492187500e+01 2.211872482299804688e+01 4.346402883529663086e-01 3.350503206253051758e+00 1.135543107986450195e+00 1.594338297843933105e+00
1.974000000000000000e+03 1.819339561462402344e+01 -1.336374664306640625e+01 3.889771699905395508e-01 6.181408405303955078e+00 1.971115589141845703e+00 -1.532265424728393555e+00
1.975000000000000000e+03 2.832543373107910156e+01 7.769720554351806641e-01 3.358379006385803223e-01 -7.299399469047784805e-03 9.856155514717102051e-02 8.605039864778518677e-02
1.976000000000000000e+03 5.093121337890625000e+01 2.537592506408691406e+01 4.639539420604705811e-01 6.076354026794433594e+00 1.962092399597167969e+00 2.292285919189453125e+00
1.977000000000000000e+03 1.622377967834472656e+01 1.152391719818115234e+01 -3.263670504093170166e-01 6.622496604919433594e+00 1.888838887214660645e+00 1.851429462432861328e+00
1.978000000000000000e+03 1.540394306182861328e+01 1.074169635772705078e+01 -5.232246518135070801e-01 7.936231136322021484e+00 2.223901987075805664e+00 1.753565311431884766e+00
1.979000000000000000e+03 3.280786132812500000e+01 -6.500382900238037109e+00 2.056304663419723511e-01 6.931367516517639160e-01 2.696301639080047607e-01 -1.813668459653854370e-01
1.980000000000000000e+03 3.264768600463867188e+01 2.944000434875488281e+01 -4.786383509635925293e-01 -9.583251923322677612e-02 -1.723412573337554932e-01 -3.554375767707824707e-01
1.981000000000000000e+03 2.675002670288085938e+01 2.607743024826049805e+00 -7.591447979211807251e-02 -5.098920688033103943e-02 -3.807110711932182312e-02 5.786431208252906799e-02
1.982000000000000000e+03 4.147871780395507812e+01 1.643134689331054688e+01 6.090580672025680542e-02 1.627586245536804199e+00 5.065476298332214355e-01 6.863147616386413574e-01
1.983000000000000000e+03 3.749709320068359375e+01 1.035153484344482422e+01 -1.301776170730590820e-01 1.101937770843505859e+00 2.915280163288116455e-01 3.093777596950531006e-01
1.984000000000000000e+03 2.215069198608398438e+01 1.840587234497070312e+01 -4.127774536609649658e-01 2.200431823730468750e+00 5.362963080406188965e-01 5.067727565765380859e-01
1.985000000000000000e+03 1.941237640380859375e+01 1.334066963195800781e+01 7.799796015024185181e-02 3.410264968872070312e+00 1.046478867530822754e+00 1.406847000122070312e+00
1.986000000000000000e+03 1.812753868103027344e+01 -2.748001098632812500e+00 6.682160496711730957e-01 3.135100126266479492e+00 1.140994787216186523e+00 -1.638213157653808594e+00
1.987000000000000000e+03 1.687720489501953125e+01 -1.682883620262145996e+00 2.213851451873779297e+00 3.286693572998046875e+00 1.650163531303405762e+00 -3.037605762481689453e+00
1.988000000000000000e+03 4.640126037597656250e+01 -2.931015014648437500e+01 2.579523622989654541e-01 6.510415077209472656e+00 2.030510187149047852e+00 -4.728038609027862549e-01
1.989000000000000000e+03 4.655347442626953125e+01 -3.113201904296875000e+01 6.454849243164062500e-01 7.105039119720458984e+00 2.325157165527343750e+00 -3.305901885032653809e-01
1.990000000000000000e+03 3.338986968994140625e+01 8.189307212829589844e+00 -1.991946995258331299e-01 3.922299742698669434e-01 5.791057646274566650e-02 3.526848554611206055e-02
1.991000000000000000e+03 3.138400650024414062e+01 2.865460395812988281e+01 -4.676901102066040039e-01 1.217673271894454956e-01 -1.037768274545669556e-01 -3.365660607814788818e-01
1.992000000000000000e+03 3.021274757385253906e+01 2.746543121337890625e+01 -4.834140539169311523e-01 2.537434697151184082e-01 -6.890118122100830078e-02 -2.494998872280120850e-01
1.993000000000000000e+03 2.784849357604980469e+01 3.513789415359497070e+00 -1.709872782230377197e-01 -4.202989116311073303e-02 -6.390514969825744629e-02 2.573681622743606567e-02
1.994000000000000000e+03 2.895986366271972656e+01 4.423418998718261719e+00 -2.060228735208511353e-01 2.744862437248229980e-02 -5.357227474451065063e-02 -3.373033180832862854e-02
1.995000000000000000e+03 1.649983024597167969e+01 -5.495104312896728516e+00 5.713134407997131348e-01 7.213065624237060547e+00 2.335313796997070312e+00 -3.757946014404296875e+00
1.996000000000000000e+03 5.848441696166992188e+01 3.284133148193359375e+01 1.975279211997985840e+00 1.115405750274658203e+01 3.938801050186157227e+00 -1.491915434598922729e-01
1.997000000000000000e+03 5.504585266113281250e+01 3.211928176879882812e+01 1.663238048553466797e+00 1.287146854400634766e+01 4.360412120819091797e+00 1.724634528160095215e+00
1.998000000000000000e+03 1.592986106872558594e+01 -9.920004844665527344e+00 2.987581193447113037e-01 7.214571475982666016e+00 2.253998756408691406e+00 -1.975674629211425781e+00
1.999000000000000000e+03 1.676382827758789062e+01 -7.656828880310058594e+00 7.872120141983032227e-01 7.121179103851318359e+00 2.372517347335815430e+00 -2.938004732131958008e+00
2.000000000000000000e+03 2.964332962036132812e+01 -3.464029693603515625e+01 3.718917071819305420e-01 1.958227038383483887e+00 6.990356445312500000e-01 -5.705571770668029785e-01
2.001000000000000000e+03 5.500183486938476562e+01 2.950245285034179688e+01 4.451749324798583984e-01 1.064316368103027344e+01 3.326501607894897461e+00 1.680175065994262695e+00
2.002000000000000000e+03 1.738529396057128906e+01 -1.068421077728271484e+01 7.137229442596435547e-01 6.773448944091796875e+00 2.246151447296142578e+00 -1.961099505424499512e+00
2.003000000000000000e+03 3.241658782958984375e+01 -5.233111381530761719e+00 2.858116626739501953e-01 6.168254613876342773e-01 2.707911431789398193e-01 -1.431950926780700684e-01
2.004000000000000000e+03 4.192153167724609375e+01 4.116332244873046875e+01 -8.385830521583557129e-01 -4.225901067256927490e-01 -3.783519566059112549e-01 -1.507710665464401245e-01
2.005000000000000000e+03 2.789845657348632812e+01 -4.139268112182617188e+01 4.547446370124816895e-01 2.027442455291748047e+00 7.446561455726623535e-01 -1.230640336871147156e-01
2.006000000000000000e+03 3.528917694091796875e+01 -1.124497222900390625e+01 2.044948190450668335e-02 1.207227349281311035e+00 3.683030307292938232e-01 -2.702780365943908691e-01
2.007000000000000000e+03 2.728657531738281250e+01 -3.486914825439453125e+01 2.749980390071868896e-01 2.389780044555664062e+00 7.994334697723388672e-01 -5.190970897674560547e-01
2.008000000000000000e+03 2.807312774658203125e+01 -3.907975769042968750e+01 4.496424198150634766e-01 2.119292974472045898e+00 7.706806063652038574e-01 -3.117881119251251221e-01
2.009000000000000000e+03 4.922512817382812500e+01 -3.450973129272460938e+01 1.478110671043395996e+00 7.212923049926757812e+00 2.607310056686401367e+00 2.590646147727966309e-01
2.010000000000000000e+03 2.444384193420410156e+01 -2.741348457336425781e+01 1.494831293821334839e-01 3.128153324127197266e+00 9.832909703254699707e-01 -7.946769595146179199e-01
2.011000000000000000e+03 5.093780136108398438e+01 -3.240630340576171875e+01 1.008823394775390625e+00 6.893862247467041016e+00 2.370805740356445312e+00 4.032453298568725586e-01
2.012000000000000000e+03 5.298114395141601562e+01 2.734980010986328125e+01 5.426964759826660156e-01 8.100255966186523438e+00 2.592885732650756836e+00 2.363332271575927734e+00
2.013000000000000000e+03 4.701441764831542969e+00 1.970167875289916992e+00 2.408175170421600342e-01 9.999889135360717773e-02 1.022449210286140442e-01 4.657949209213256836e-01
2.014000000000000000e+03 4.383308887481689453e+00 -2.122364997863769531e+00 6.025449037551879883e-01 3.202389478683471680e-01 2.768351435661315918e-01 1.185765638947486877e-01
2.015000000000000000e+03 4.508687496185302734e+00 -2.586896657943725586e+00 8.498304486274719238e-01 5.284820199012756348e-01 4.134937226772308350e-01 3.598130047321319580e-01
2.016000000000000000e+03 5.031486988067626953e+00 -2.367261886596679688e+00 1.048894882202148438e+00 6.259324550628662109e-01 5.024482011795043945e-01 5.313465595245361328e-01
2.017000000000000000e+03 7.885597229003906250e+00 -1.678326368331909180e+00 3.349727392196655273e+00 2.611641168594360352e+00 1.788410544395446777e+00 3.302381038665771484e+00
2.018000000000000000e+03 5.613248825073242188e+00 -3.027107715606689453e+00 1.504465699195861816e+00 1.346108794212341309e+00 8.551723361015319824e-01 1.262490272521972656e+00
2.019000000000000000e+03 8.659475326538085938e+00 2.349282741546630859e+00 4.077572822570800781e+00 6.275243282318115234e+00 3.105844736099243164e+00 -4.222949981689453125e+00
2.020000000000000000e+03 9.233132362365722656e+00 2.062291860580444336e+00 3.938997983932495117e+00 9.662275314331054688e+00 4.080381870269775391e+00 -5.063308715820312500e+00
2.021000000000000000e+03 6.081721305847167969e+00 -2.116079807281494141e+00 1.533799648284912109e+00 8.790140151977539062e-01 7.238441109657287598e-01 1.083424925804138184e+00
2.022000000000000000e+03 7.556887149810791016e+00 2.085741281509399414e+00 2.908533573150634766e+00 1.766546726226806641e+00 1.402524113655090332e+00 -1.838052153587341309e+00
2.023000000000000000e+03 7.098354339599609375e+00 2.045430421829223633e+00 2.200213432312011719e+00 1.113585829734802246e+00 9.941397905349731445e-01 -1.100551724433898926e+00
2.024000000000000000e+03 7.585379600524902344e+00 -2.317836523056030273e+00 2.854462623596191406e+00 3.209203958511352539e+00 1.819100022315979004e+00 3.353145599365234375e+00
2.025000000000000000e+03 7.010745525360107422e+00 -1.940159916877746582e+00 2.346469879150390625e+00 1.479748368263244629e+00 1.147865414619445801e+00 1.987106919288635254e+00
2.026000000000000000e+03 6.424415111541748047e+00 2.301528215408325195e+00 1.817851424217224121e+00 7.639892101287841797e-01 7.745521664619445801e-01 -6.601943373680114746e-01
2.027000000000000000e+03 5.489906311035156250e+00 2.445311784744262695e+00 1.245836377143859863e+00 4.446345269680023193e-01 5.071412920951843262e-01 -7.014705985784530640e-02
2.028000000000000000e+03 4.906574249267578125e+00 3.044746160507202148e+00 1.360070109367370605e+00 5.866353511810302734e-01 5.840116739273071289e-01 -1.984076350927352905e-01
2.029000000000000000e+03 8.260044097900390625e+00 -2.414169788360595703e+00 2.894419193267822266e+00 5.621350765228271484e+00 2.554731130599975586e+00 4.610908031463623047e+00
2.030000000000000000e+03 9.568773269653320312e+00 -1.872707724571228027e+00 2.380579233169555664e+00 1.414776515960693359e+01 4.958503246307373047e+00 6.652515888214111328e+00
2.031000000000000000e+03 9.385795593261718750e+00 -1.922477364540100098e+00 2.714442014694213867e+00 1.230990886688232422e+01 4.507305145263671875e+00 6.675724983215332031e+00
2.032000000000000000e+03 9.193144798278808594e+00 -2.010343313217163086e+00 2.813963890075683594e+00 1.068092536926269531e+01 4.048466682434082031e+00 6.429220676422119141e+00
2.033000000000000000e+03 9.919816970825195312e+00 -1.874973177909851074e+00 1.453564047813415527e+00 1.714489364624023438e+01 5.579536914825439453e+00 5.664081573486328125e+00
2.034000000000000000e+03 3.865937471389770508e+00 2.058861494064331055e+00 1.226358488202095032e-01 1.948378980159759521e-02 4.263589158654212952e-02 5.804402232170104980e-01
2.035000000000000000e+03 9.818519592285156250e+00 -2.039981603622436523e+00 1.418190956115722656e+00 1.599217891693115234e+01 5.223111152648925781e+00 5.670902729034423828e+00
2.036000000000000000e+03 1.157099246978759766e+01 -1.496274471282958984e+00 3.136385202407836914e+00 2.055630493164062500e+01 7.107806682586669922e+00 -1.975230932235717773e+00
2.037000000000000000e+03 1.207830142974853516e+01 -5.274392366409301758e-01 7.026105403900146484e+00 1.943205261230468750e+01 7.937447547912597656e+00 -1.261727094650268555e+00
2.038000000000000000e+03 1.027523136138916016e+01 -2.551098108291625977e+00 -1.088264957070350647e-02 1.654685974121093750e+01 4.960793018341064453e+00 3.291134357452392578e+00
2.039000000000000000e+03 1.570200634002685547e+01 -2.629188299179077148e+00 1.819665908813476562e+00 7.094945907592773438e+00 2.674383401870727539e+00 -4.426753997802734375e+00
2.040000000000000000e+03 1.248281097412109375e+01 -6.411280035972595215e-01 5.772800922393798828e+00 1.909939575195312500e+01 7.461658954620361328e+00 -1.575084447860717773e+00
2.041000000000000000e+03 1.294168949127197266e+01 8.708041906356811523e-02 5.903443813323974609e+00 1.911295700073242188e+01 7.504920005798339844e+00 -9.611287713050842285e-01
2.042000000000000000e+03 9.892341613769531250e+00 -2.301214456558227539e+00 7.907690405845642090e-01 1.554155063629150391e+01 4.899695873260498047e+00 4.882085800170898438e+00
2.043000000000000000e+03 1.288587188720703125e+01 -7.059182524681091309e-01 4.304197311401367188e+00 1.827539825439453125e+01 6.773878574371337891e+00 -2.961298227310180664e+00
2.044000000000000000e+03 1.347394943237304688e+01 1.162400692701339722e-01 4.121486186981201172e+00 2.005115890502929688e+01 7.251793384552001953e+00 -1.971905708312988281e+00
2.045000000000000000e+03 1.291482639312744141e+01 1.280451297760009766e+00 5.806996345520019531e+00 2.324527168273925781e+01 8.715680122375488281e+00 1.108575940132141113e+00
2.046000000000000000e+03 1.214072608947753906e+01 5.906442999839782715e-01 7.586015224456787109e+00 2.144985961914062500e+01 8.710762977600097656e+00 2.040046215057373047e+00
2.047000000000000000e+03 1.589412498474121094e+01 -1.814131259918212891e+00 2.647567272186279297e+00 5.732667446136474609e+00 2.514070272445678711e+00 -4.434288978576660156e+00
2.048000000000000000e+03 1.141399669647216797e+01 -1.800958514213562012e+00 1.967680931091308594e+00 2.021754264831542969e+01 6.655566692352294922e+00 -1.211805224418640137e+00
2.049000000000000000e+03 2.007803916931152344e+00 -5.009055137634277344e+00 2.499942928552627563e-01 3.819255828857421875e-01 1.895759552717208862e-01 2.374193668365478516e-01
2.050000000000000000e+03 3.421489477157592773e+00 2.087364673614501953e+00 6.386020034551620483e-02 -1.745738647878170013e-02 1.392084360122680664e-02 6.137347221374511719e-01
2.051000000000000000e+03 1.826137423515319824e+00 3.074848651885986328e+00 1.526437550783157349e-01 -3.893522024154663086e-01 -7.101253420114517212e-02 4.645224213600158691e-01
2.052000000000000000e+03 4.003841876983642578e+00 -2.169578075408935547e+00 4.817078411579132080e-01 2.866514921188354492e-01 2.305078059434890747e-01 7.504121866077184677e-03
2.053000000000000000e+03 3.810534954071044922e+00 -3.459593534469604492e+00 7.506267428398132324e-01 6.994211077690124512e-01 4.350143671035766602e-01 3.902963995933532715e-01
2.054000000000000000e+03 1.736707687377929688e+00 -2.008949279785156250e+00 2.218411862850189209e-02 -1.107604056596755981e-01 -2.657288685441017151e-02 -3.106622695922851562e-01
2.055000000000000000e+03 1.463968634605407715e+00 -3.382333755493164062e+00 1.208772733807563782e-01 -2.104153037071228027e-01 -2.686141058802604675e-02 -1.537648439407348633e-01
2.056000000000000000e+03 1.976501345634460449e+00 -2.326700448989868164e+00 1.096792221069335938e-01 -5.135818570852279663e-02 1.749631203711032867e-02 -2.802027761936187744e-01
2.057000000000000000e+03 3.499503374099731445e+00 2.402635097503662109e+00 2.999233603477478027e-01 6.608957890421152115e-03 9.195969998836517334e-02 5.420423150062561035e-01
2.058000000000000000e+03 3.737731218338012695e+00 2.595149993896484375e+00 4.946517944335937500e-01 1.032645702362060547e-01 1.793749034404754639e-01 4.664560854434967041e-01
2.059000000000000000e+03 1.000365161895751953e+01 2.070264577865600586e+00 3.329247951507568359e+00 1.656979751586914062e+01 5.969713687896728516e+00 -3.927973747253417969e+00
2.060000000000000000e+03 9.246973991394042969e+00 2.703468561172485352e+00 3.756253719329833984e+00 1.000970077514648438e+01 4.129786491394042969e+00 -4.758918285369873047e+00
2.061000000000000000e+03 3.020225048065185547e+00 2.414050579071044922e+00 1.592076718807220459e-01 -7.507534325122833252e-02 2.523970045149326324e-02 5.973218679428100586e-01
2.062000000000000000e+03 1.245342445373535156e+01 -1.011345267295837402e+00 4.327212810516357422e+00 1.837586784362792969e+01 6.810924053192138672e+00 -2.727730274200439453e+00
2.063000000000000000e+03 1.225107383728027344e+01 5.412135601043701172e+00 2.000574588775634766e+00 1.690124893188476562e+01 5.670547008514404297e+00 -1.161295056343078613e+00
2.064000000000000000e+03 1.128626346588134766e+00 4.175681114196777344e+00 1.364927142858505249e-01 -7.673005461692810059e-01 -1.892423480749130249e-01 2.228120416402816772e-01
2.065000000000000000e+03 1.197430419921875000e+01 1.689219236373901367e+00 6.238074779510498047e+00 2.244767379760742188e+01 8.605724334716796875e+00 3.081983804702758789e+00
2.066000000000000000e+03 1.139618301391601562e+01 1.725917100906372070e+00 4.881128311157226562e+00 2.296046638488769531e+01 8.352478027343750000e+00 2.545229196548461914e+00
2.067000000000000000e+03 1.407798099517822266e+01 -7.145886421203613281e-01 3.536823749542236328e+00 1.323219776153564453e+01 5.030706405639648438e+00 -5.200647830963134766e+00
2.068000000000000000e+03 2.692181348800659180e+00 -6.316780567169189453e+00 3.029588758945465088e-01 1.094918370246887207e+00 4.193631708621978760e-01 7.188414931297302246e-01
2.069000000000000000e+03 2.171199321746826172e+00 -5.719509601593017578e+00 2.854849100112915039e-01 6.626807451248168945e-01 2.844496965408325195e-01 4.710984528064727783e-01
2.070000000000000000e+03 1.268350219726562500e+01 3.442286729812622070e+00 7.471024036407470703e+00 2.216585731506347656e+01 8.891064643859863281e+00 1.190835475921630859e+00
2.071000000000000000e+03 1.649184608459472656e+01 -4.445448875427246094e+00 9.180644750595092773e-01 6.691866397857666016e+00 2.282979249954223633e+00 -3.847723960876464844e+00
2.072000000000000000e+03 1.731758689880371094e+01 -4.286116123199462891e+00 6.324009895324707031e-01 5.779324531555175781e+00 1.923517584800720215e+00 -3.370016336441040039e+00
2.073000000000000000e+03 3.800083398818969727e+00 -7.930817604064941406e+00 1.585389673709869385e-01 2.441634178161621094e+00 7.800519466400146484e-01 1.214616656303405762e+00
2.074000000000000000e+03 3.355846643447875977e+00 -6.782032489776611328e+00 2.818580269813537598e-01 1.724538087844848633e+00 6.019188165664672852e-01 9.796344637870788574e-01
2.075000000000000000e+03 2.917850685119628906e+01 -5.745974928140640259e-02 4.400736987590789795e-01 7.598433643579483032e-02 1.548174023628234863e-01 7.502819597721099854e-02
2.076000000000000000e+03 3.545691728591918945e+00 -9.840931892395019531e+00 -4.588152095675468445e-02 2.734575986862182617e+00 8.066083192825317383e-01 1.118311643600463867e+00
2.077000000000000000e+03 1.952640891075134277e+00 6.271740913391113281e+00 3.765216767787933350e-01 2.045446932315826416e-01 1.743199080228805542e-01 -5.006108880043029785e-01
2.078000000000000000e+03 1.519525909423828125e+01 -2.049650430679321289e+00 2.339169979095458984e+00 7.851505756378173828e+00 3.057202816009521484e+00 -5.522579193115234375e+00
2.079000000000000000e+03 3.362196683883666992e+00 8.770697593688964844e+00 3.684000372886657715e-01 2.434524774551391602e+00 8.408774733543395996e-01 -1.721624851226806641e+00
2.080000000000000000e+03 4.413710784912109375e+01 1.762970733642578125e+01 5.285104364156723022e-02 2.465790033340454102e+00 7.555922865867614746e-01 1.027920246124267578e+00
2.081000000000000000e+03 3.770083236694335938e+01 -1.286848735809326172e+01 -9.576851502060890198e-03 1.837266802787780762e+00 5.483070015907287598e-01 -3.277386426925659180e-01
2.082000000000000000e+03 1.190471649169921875e+01 7.348571777343750000e+00 -3.481499850749969482e-01 1.356095886230468750e+01 3.963842630386352539e+00 -9.017076492309570312e-01
2.083000000000000000e+03 4.162888336181640625e+01 1.449636745452880859e+01 -3.504066169261932373e-02 1.888200879096984863e+00 5.559480786323547363e-01 6.894888877868652344e-01
2.084000000000000000e+03 3.506061935424804688e+01 -8.388283729553222656e+00 1.142952665686607361e-01 1.168013691902160645e+00 3.846926987171173096e-01 -2.088121026754379272e-01
2.085000000000000000e+03 2.205357742309570312e+01 -2.242462348937988281e+01 1.000528037548065186e-01 3.910846471786499023e+00 1.203269720077514648e+00 -1.030239582061767578e+00
2.086000000000000000e+03 2.136978530883789062e+01 -1.904752349853515625e+01 1.789995878934860229e-01 4.473791599273681641e+00 1.395837426185607910e+00 -1.301928520202636719e+00
2.087000000000000000e+03 1.521132278442382812e+01 -5.016727447509765625e+00 2.837982177734375000e-01 8.909491539001464844e+00 2.757987022399902344e+00 -3.967970371246337891e+00
2.088000000000000000e+03 1.629878616333007812e+01 -6.441833019256591797e+00 6.063449978828430176e-01 7.262927055358886719e+00 2.360781669616699219e+00 -3.554710388183593750e+00
2.089000000000000000e+03 1.600683403015136719e+01 -7.291159629821777344e+00 4.841042459011077881e-01 7.654980182647705078e+00 2.441725492477416992e+00 -3.015348911285400391e+00
2.090000000000000000e+03 1.777305722236633301e+00 4.426832199096679688e+00 3.667236268520355225e-01 -3.257581889629364014e-01 1.228963397443294525e-02 1.451231688261032104e-01
2.091000000000000000e+03 1.951746582984924316e+00 3.902345895767211914e+00 2.676612436771392822e-01 -3.287284374237060547e-01 -1.832015626132488251e-02 2.879548370838165283e-01
2.092000000000000000e+03 1.215388774871826172e+01 6.376182079315185547e+00 4.779070913791656494e-01 1.613341331481933594e+01 4.983396053314208984e+00 -1.170945882797241211e+00
2.093000000000000000e+03 4.966886520385742188e+01 2.278665351867675781e+01 1.913926452398300171e-01 4.974620819091796875e+00 1.549803972244262695e+00 1.883537411689758301e+00
2.094000000000000000e+03 2.124513816833496094e+01 1.945176315307617188e+01 -5.594517588615417480e-01 2.642664670944213867e+00 6.249638795852661133e-01 4.930540621280670166e-01
2.095000000000000000e+03 4.507329940795898438e+01 -2.637771987915039062e+01 -3.154204785823822021e-02 5.317623615264892578e+00 1.585824489593505859e+00 -7.433102726936340332e-01
2.096000000000000000e+03 4.605753707885742188e+01 -2.440274810791015625e+01 -1.849858760833740234e-01 5.239218711853027344e+00 1.516269922256469727e+00 -4.553477168083190918e-01
2.097000000000000000e+03 2.230146598815917969e+01 2.403284645080566406e+01 -5.425967574119567871e-01 2.355755090713500977e+00 5.439475178718566895e-01 2.144564241170883179e-01
2.098000000000000000e+03 2.566982269287109375e+01 2.234312438964843750e+01 -4.238068461418151855e-01 1.124922990798950195e+00 2.103348523378372192e-01 4.898568242788314819e-02
2.099000000000000000e+03 4.132127761840820312e+01 -2.031634712219238281e+01 -3.321228176355361938e-02 3.066050052642822266e+00 9.098513722419738770e-01 -6.804224848747253418e-01
2.100000000000000000e+03 3.968339538574218750e+01 -1.801962280273437500e+01 -2.198962867259979248e-02 2.437127351760864258e+00 7.245413064956665039e-01 -5.586166381835937500e-01
2.101000000000000000e+03 2.223976707458496094e+01 -2.436237335205078125e+01 4.692299664020538330e-02 3.740788459777832031e+00 1.136313438415527344e+00 -8.730311393737792969e-01
2.102000000000000000e+03 3.016260528564453125e+01 -7.900924682617187500e-01 3.908586800098419189e-01 2.101797014474868774e-01 1.803115159273147583e-01 2.203170955181121826e-02
2.103000000000000000e+03 4.217872238159179688e+01 -2.146779441833496094e+01 -3.215093165636062622e-02 3.468058586120605469e+00 1.030772328376770020e+00 -7.155768871307373047e-01
2.104000000000000000e+03 4.252263641357421875e+01 -1.939729499816894531e+01 -1.315139234066009521e-01 3.470841407775878906e+00 1.001798272132873535e+00 -5.482638478279113770e-01
2.105000000000000000e+03 4.574313735961914062e+01 1.791330718994140625e+01 4.366386216133832932e-03 3.085847616195678711e+00 9.270641803741455078e-01 1.179278969764709473e+00
2.106000000000000000e+03 4.503599929809570312e+01 2.033658409118652344e+01 2.983023226261138916e-01 2.577447175979614258e+00 8.627248406410217285e-01 1.228709578514099121e+00
2.107000000000000000e+03 4.516094684600830078e+00 -1.102184391021728516e+01 -1.842053085565567017e-01 3.548608303070068359e+00 1.009320855140686035e+00 1.200405597686767578e+00
2.108000000000000000e+03 3.622014284133911133e+00 -8.826105117797851562e+00 5.146967619657516479e-02 2.553843975067138672e+00 7.815940976142883301e-01 1.162896156311035156e+00
2.109000000000000000e+03 5.174656391143798828e+00 -3.328127670288085938e+01 -5.564983561635017395e-02 4.556838035583496094e+00 1.350356459617614746e+00 1.171015426516532898e-01
2.110000000000000000e+03 6.697668075561523438e+00 -3.026549720764160156e+01 -1.015780121088027954e-01 4.483395576477050781e+00 1.314545273780822754e+00 1.806857138872146606e-01
2.111000000000000000e+03 5.822344303131103516e+00 -2.742357063293457031e+01 -1.070251911878585815e-01 4.474769115447998047e+00 1.310323119163513184e+00 2.608042955398559570e-01
2.112000000000000000e+03 5.278342723846435547e+00 -1.721363067626953125e+01 -2.406557053327560425e-01 4.242363929748535156e+00 1.200512528419494629e+00 7.326947450637817383e-01
2.113000000000000000e+03 5.220629215240478516e+00 -1.590744400024414062e+01 -2.705858349800109863e-01 4.167175292968750000e+00 1.168976902961730957e+00 8.297106623649597168e-01
2.114000000000000000e+03 4.370510101318359375e+00 -1.996564292907714844e+01 -1.445997059345245361e-01 4.158395767211914062e+00 1.204138875007629395e+00 5.164460539817810059e-01
2.115000000000000000e+03 6.378012180328369141e+00 -2.522209739685058594e+01 -1.508454382419586182e-01 4.482812404632568359e+00 1.299590110778808594e+00 3.362916707992553711e-01
2.116000000000000000e+03 5.436155319213867188e+00 -1.853310585021972656e+01 -2.333012223243713379e-01 4.315896034240722656e+00 1.224778532981872559e+00 6.432447433471679688e-01
2.117000000000000000e+03 7.018425464630126953e+00 -3.500854873657226562e+01 -8.139770478010177612e-02 4.477344036102294922e+00 1.318783879280090332e+00 1.002254560589790344e-01
2.118000000000000000e+03 6.831246852874755859e+00 -3.289387512207031250e+01 -9.267189353704452515e-02 4.469967365264892578e+00 1.313188672065734863e+00 1.353416740894317627e-01
2.119000000000000000e+03 6.050936698913574219e+00 -3.141971588134765625e+01 -8.073735237121582031e-02 4.495208263397216797e+00 1.324341297149658203e+00 1.594478935003280640e-01
2.120000000000000000e+03 3.780009984970092773e+00 -1.336220836639404297e+01 -1.676243990659713745e-01 3.424077272415161133e+00 9.769358634948730469e-01 9.160082340240478516e-01
2.121000000000000000e+03 4.664166927337646484e+00 -1.214533233642578125e+01 -2.351504415273666382e-01 3.749298334121704102e+00 1.054244399070739746e+00 1.116573452949523926e+00
2.122000000000000000e+03 5.684204101562500000e+00 -2.130164337158203125e+01 -1.926287114620208740e-01 4.399169445037841797e+00 1.261962294578552246e+00 4.921245276927947998e-01
2.123000000000000000e+03 6.397113323211669922e+00 -2.876165390014648438e+01 -1.224039420485496521e-01 4.482048988342285156e+00 1.307893514633178711e+00 2.237526029348373413e-01
2.124000000000000000e+03 3.741272735595703125e+01 -1.466759681701660156e+01 1.660615950822830200e-02 1.740900397300720215e+00 5.272519588470458984e-01 -3.814987242221832275e-01
2.125000000000000000e+03 3.843666839599609375e+01 -1.393456077575683594e+01 -5.951776728034019470e-02 2.043055534362792969e+00 5.950613021850585938e-01 -3.729514479637145996e-01
2.126000000000000000e+03 4.445381164550781250e+01 -2.171692657470703125e+01 -1.867840290069580078e-01 4.347636699676513672e+00 1.248255729675292969e+00 -5.519659519195556641e-01
2.127000000000000000e+03 4.347799301147460938e+01 -2.053501129150390625e+01 -1.748293042182922363e-01 3.872886180877685547e+00 1.109417080879211426e+00 -5.717062950134277344e-01
2.128000000000000000e+03 7.361634826660156250e+01 2.808488845825195312e+01 8.032122254371643066e-02 7.481226921081542969e+00 2.268464565277099609e+00 -7.744304537773132324e-01
2.129000000000000000e+03 5.089352130889892578e+00 -1.460905838012695312e+01 -2.716277539730072021e-01 4.071283340454101562e+00 1.139896631240844727e+00 9.204313755035400391e-01
2.130000000000000000e+03 7.300080871582031250e+01 -3.213763046264648438e+01 9.883232414722442627e-02 7.195398330688476562e+00 2.188269138336181641e+00 3.373143970966339111e-01
2.131000000000000000e+03 3.919621276855468750e+01 -1.497861099243164062e+01 -4.813944175839424133e-02 2.274585485458374023e+00 6.679338216781616211e-01 -4.011186659336090088e-01
2.132000000000000000e+03 7.540562438964843750e+01 -2.654623222351074219e+01 2.054313011467456818e-02 7.518410205841064453e+00 2.261685848236083984e+00 3.357471525669097900e-01
2.133000000000000000e+03 7.394383239746093750e+01 -2.889390945434570312e+01 4.717143997550010681e-02 7.339419364929199219e+00 2.215977191925048828e+00 3.896177411079406738e-01
2.134000000000000000e+03 7.410279083251953125e+01 2.686220741271972656e+01 2.484009228646755219e-02 7.490751743316650391e+00 2.254677534103393555e+00 -7.554061412811279297e-01
2.135000000000000000e+03 7.423101806640625000e+01 2.208823013305664062e+01 -6.958530843257904053e-02 7.823820590972900391e+00 2.326270580291748047e+00 -7.215198278427124023e-01
2.136000000000000000e+03 7.417971038818359375e+01 1.927706146240234375e+01 -1.069030612707138062e-01 8.010534286499023438e+00 2.371089458465576172e+00 -6.533850431442260742e-01
2.137000000000000000e+03 7.402611541748046875e+01 -2.398856735229492188e+01 1.678122644079849124e-04 7.593112468719482422e+00 2.277984142303466797e+00 4.192385673522949219e-01
2.138000000000000000e+03 7.538014984130859375e+01 -2.387880325317382812e+01 7.153903134167194366e-03 7.666903495788574219e+00 2.302217245101928711e+00 3.461629748344421387e-01
2.139000000000000000e+03 7.374624633789062500e+01 -2.110726547241210938e+01 -2.110749110579490662e-02 7.721603870391845703e+00 2.310148954391479492e+00 4.300958514213562012e-01
2.140000000000000000e+03 7.555400085449218750e+01 1.230865192413330078e+01 -8.815777301788330078e-02 8.444058418273925781e+00 2.506770133972167969e+00 -3.293028473854064941e-01
2.141000000000000000e+03 7.424015808105468750e+01 1.502824878692626953e+01 -1.304817348718643188e-01 8.239444732666015625e+00 2.432688951492309570e+00 -4.995291233062744141e-01
2.142000000000000000e+03 7.446848297119140625e+01 2.471370315551757812e+01 -1.305590663105249405e-02 7.605666160583496094e+00 2.277783155441284180e+00 -7.405388355255126953e-01
2.143000000000000000e+03 7.553595733642578125e+01 2.601074409484863281e+01 4.645911976695060730e-03 7.363958835601806641e+00 2.210581302642822266e+00 -6.455061435699462891e-01
2.144000000000000000e+03 7.421093750000000000e+01 -1.655527114868164062e+01 -3.808052092790603638e-02 7.973067283630371094e+00 2.380496025085449219e+00 3.683548569679260254e-01
2.145000000000000000e+03 7.428350067138671875e+01 -1.378904056549072266e+01 -4.730206355452537537e-02 8.106210708618164062e+00 2.417672634124755859e+00 3.246361017227172852e-01
2.146000000000000000e+03 7.426190948486328125e+01 5.368549346923828125e+00 -1.111891120672225952e-01 8.488724708557128906e+00 2.513260602951049805e+00 -1.244546249508857727e-01
2.147000000000000000e+03 7.435982513427734375e+01 -9.805827140808105469e+00 -5.732992291450500488e-02 8.273272514343261719e+00 2.464782714843750000e+00 2.549337446689605713e-01
2.148000000000000000e+03 7.416994476318359375e+01 -8.948747813701629639e-02 -9.452220797538757324e-02 8.472498893737792969e+00 2.513392925262451172e+00 3.971539065241813660e-02
2.149000000000000000e+03 7.552592468261718750e+01 2.628187417984008789e+00 -6.118093803524971008e-02 8.675820350646972656e+00 2.584391832351684570e+00 -3.906619548797607422e-02
2.150000000000000000e+03 7.417787933349609375e+01 2.620912313461303711e+00 -1.049879565834999084e-01 8.485053062438964844e+00 2.514019489288330078e+00 -3.905340656638145447e-02
2.151000000000000000e+03 7.428598022460937500e+01 1.085196590423583984e+01 -1.325101405382156372e-01 8.395437240600585938e+00 2.478878021240234375e+00 -3.227389156818389893e-01
2.152000000000000000e+03 7.420176696777343750e+01 -2.822147130966186523e+00 -7.794213294982910156e-02 8.431790351867675781e+00 2.506154537200927734e+00 1.108801439404487610e-01
2.153000000000000000e+03 7.410981750488281250e+01 -4.207244873046875000e+00 -7.828442752361297607e-02 8.393635749816894531e+00 2.494605541229248047e+00 1.449034810066223145e-01
2.154000000000000000e+03 7.433319091796875000e+01 -1.111371994018554688e+01 -5.588643625378608704e-02 8.222646713256835938e+00 2.450027942657470703e+00 2.775062918663024902e-01
2.155000000000000000e+03 7.404933166503906250e+01 -1.799969291687011719e+01 -3.787963464856147766e-02 7.888560295104980469e+00 2.355204105377197266e+00 3.969578444957733154e-01
2.156000000000000000e+03 7.421582031250000000e+01 1.643535232543945312e+01 -1.310018897056579590e-01 8.171732902526855469e+00 2.412219285964965820e+00 -5.484825968742370605e-01
2.157000000000000000e+03 7.428262329101562500e+01 6.740137577056884766e+00 -1.113166883587837219e-01 8.478409767150878906e+00 2.510127782821655273e+00 -1.732169836759567261e-01
2.158000000000000000e+03 7.409939575195312500e+01 -2.782361602783203125e+01 3.682389110326766968e-02 7.408438205718994141e+00 2.233578681945800781e+00 3.952901363372802734e-01
2.159000000000000000e+03 7.406968688964843750e+01 -7.102937698364257812e+00 -7.729182392358779907e-02 8.312647819519042969e+00 2.470606803894042969e+00 2.119797915220260620e-01
2.160000000000000000e+03 7.425967407226562500e+01 1.362954902648925781e+01 -1.371141672134399414e-01 8.299706459045410156e+00 2.448777914047241211e+00 -4.346624016761779785e-01
2.161000000000000000e+03 7.427436828613281250e+01 1.223750305175781250e+01 -1.300572156906127930e-01 8.351499557495117188e+00 2.466432809829711914e+00 -3.837707936763763428e-01
2.162000000000000000e+03 6.683545684814453125e+01 2.982566452026367188e+01 4.560425877571105957e-01 8.576219558715820312e+00 2.709678411483764648e+00 -8.686662316322326660e-01
2.163000000000000000e+03 7.418846130371093750e+01 2.069405174255371094e+01 -8.610537648200988770e-02 7.916138648986816406e+00 2.349009990692138672e+00 -7.038894295692443848e-01
2.164000000000000000e+03 7.189849090576171875e+01 -3.308446121215820312e+01 1.546238064765930176e-01 7.128278255462646484e+00 2.184870719909667969e+00 3.700966536998748779e-01
2.165000000000000000e+03 1.703543663024902344e+01 1.240845489501953125e+01 -3.090848624706268311e-01 5.670984268188476562e+00 1.608569860458374023e+00 1.601966738700866699e+00
2.166000000000000000e+03 1.459502220153808594e+01 1.007167625427246094e+01 -5.195811986923217773e-01 8.880666732788085938e+00 2.508325576782226562e+00 1.617427825927734375e+00
2.167000000000000000e+03 1.760923004150390625e+01 1.535936164855957031e+01 -7.070452570915222168e-01 4.762177467346191406e+00 1.216539740562438965e+00 9.646711945533752441e-01
2.168000000000000000e+03 3.959673309326171875e+01 1.245895671844482422e+01 -9.312698245048522949e-02 1.472996950149536133e+00 4.139609932899475098e-01 4.797617197036743164e-01
2.169000000000000000e+03 7.200659942626953125e+01 3.100729942321777344e+01 2.726458013057708740e-01 7.663862228393554688e+00 2.380952358245849609e+00 -7.504451870918273926e-01
2.170000000000000000e+03 6.457422733306884766e+00 3.198127174377441406e+01 -1.482391208410263062e-01 6.239685058593750000e+00 1.827433824539184570e+00 -2.238514572381973267e-01
2.171000000000000000e+03 5.768666744232177734e+00 2.963585472106933594e+01 -1.616075634956359863e-01 6.319653034210205078e+00 1.847413659095764160e+00 -2.977412343025207520e-01
2.172000000000000000e+03 5.702663421630859375e+00 2.477515411376953125e+01 -2.929323911666870117e-01 6.171041488647460938e+00 1.763432741165161133e+00 -6.087074875831604004e-01
2.173000000000000000e+03 7.317839813232421875e+01 -3.427389144897460938e+01 1.307200789451599121e-01 7.120608806610107422e+00 2.175398826599121094e+00 2.905697822570800781e-01
2.174000000000000000e+03 5.622289180755615234e+00 1.940928649902343750e+01 -4.938208162784576416e-01 5.935199260711669922e+00 1.632413506507873535e+00 -1.195716619491577148e+00
2.175000000000000000e+03 5.602077484130859375e+00 1.801812553405761719e+01 -5.504119992256164551e-01 5.838510990142822266e+00 1.586429715156555176e+00 -1.381995916366577148e+00
2.176000000000000000e+03 3.866528034210205078e+00 1.253709983825683594e+01 -1.872685700654983521e-01 4.311913013458251953e+00 1.237393379211425781e+00 -1.911626338958740234e+00
2.177000000000000000e+03 5.672063350677490234e+00 2.613287544250488281e+01 -2.720002532005310059e-01 6.221740722656250000e+00 1.784922122955322266e+00 -5.103349089622497559e-01
2.178000000000000000e+03 1.302562618255615234e+01 1.322821712493896484e+01 -1.418788671493530273e+00 7.976880073547363281e+00 1.967427372932434082e+00 -1.138444989919662476e-01
2.179000000000000000e+03 4.803067207336425781e+00 3.136876678466796875e+01 -9.636985510587692261e-02 6.599587440490722656e+00 1.950965285301208496e+00 -1.973467022180557251e-01
2.180000000000000000e+03 6.545127868652343750e+00 3.334923934936523438e+01 -1.066240668296813965e-01 6.227695465087890625e+00 1.836321353912353516e+00 -1.659181714057922363e-01
2.181000000000000000e+03 5.553463459014892578e+00 2.212042236328125000e+01 -3.685150742530822754e-01 6.072215080261230469e+00 1.711110115051269531e+00 -8.572216033935546875e-01
2.182000000000000000e+03 5.407375812530517578e+00 1.523463058471679688e+01 -5.637339949607849121e-01 5.569141864776611328e+00 1.501622319221496582e+00 -1.802031517028808594e+00
2.183000000000000000e+03 5.700511932373046875e+00 2.853090095520019531e+01 -2.028353214263916016e-01 6.292665958404541016e+00 1.826949238777160645e+00 -3.687880933284759521e-01
2.184000000000000000e+03 1.406433677673339844e+01 1.117324542999267578e+01 -1.108708739280700684e+00 8.842827796936035156e+00 2.320235729217529297e+00 8.443021178245544434e-01
2.185000000000000000e+03 2.922226715087890625e+01 -1.854853868484497070e+00 5.373091101646423340e-01 1.234535500407218933e-01 1.982287913560867310e-01 -5.525759980082511902e-02
2.186000000000000000e+03 6.468317031860351562e+00 1.383425712585449219e+01 -7.027060389518737793e-01 6.034574031829833984e+00 1.599560379981994629e+00 -2.129165887832641602e+00
2.187000000000000000e+03 5.236623764038085938e+01 2.178563499450683594e+01 -2.926150858402252197e-01 6.405587196350097656e+00 1.833891630172729492e+00 1.479081034660339355e+00
2.188000000000000000e+03 4.863284587860107422e+00 1.201535701751708984e+01 -2.319253832101821899e-01 4.778693675994873047e+00 1.364030480384826660e+00 -2.241150617599487305e+00
2.189000000000000000e+03 3.855216979980468750e+01 1.141669654846191406e+01 -1.338197141885757446e-01 1.272623896598815918e+00 3.416412472724914551e-01 4.050987660884857178e-01
2.190000000000000000e+03 3.642995071411132812e+01 9.277167320251464844e+00 -1.541348695755004883e-01 9.188675880432128906e-01 2.294198274612426758e-01 2.553421854972839355e-01
2.191000000000000000e+03 3.447727966308593750e+01 9.182875633239746094e+00 -2.086848318576812744e-01 5.012064576148986816e-01 8.775649964809417725e-02 1.015403643250465393e-01
2.192000000000000000e+03 1.559246540069580078e+01 1.251985549926757812e+01 -8.401103615760803223e-01 6.974130153656005859e+00 1.840205907821655273e+00 1.201341629028320312e+00
2.193000000000000000e+03 1.483242034912109375e+01 1.181074810028076172e+01 -8.747170567512512207e-01 7.699269294738769531e+00 2.047365665435791016e+00 1.135448336601257324e+00
2.194000000000000000e+03 2.314936637878417969e+01 2.169599914550781250e+01 -5.347706675529479980e-01 1.952939987182617188e+00 4.254508018493652344e-01 2.721329331398010254e-01
2.195000000000000000e+03 2.498924255371093750e+01 2.134070968627929688e+01 -4.790033400058746338e-01 1.240568518638610840e+00 2.284695655107498169e-01 1.872248351573944092e-01
2.196000000000000000e+03 2.217278480529785156e+01 2.052526664733886719e+01 -5.160141587257385254e-01 2.324041128158569336e+00 5.424080491065979004e-01 3.827740848064422607e-01
2.197000000000000000e+03 3.699110031127929688e+01 -1.176697540283203125e+01 -2.021929062902927399e-02 1.644745349884033203e+00 4.873578250408172607e-01 -3.014780580997467041e-01
2.198000000000000000e+03 3.096244430541992188e+01 -1.629638433456420898e+00 4.246582388877868652e-01 3.024571239948272705e-01 2.181346118450164795e-01 -1.340352371335029602e-02
2.199000000000000000e+03 5.449394226074218750e+01 2.415378952026367188e+01 -3.414146602153778076e-01 7.873888015747070312e+00 2.259742021560668945e+00 1.350343942642211914e+00
2.200000000000000000e+03 3.192786407470703125e+01 5.343452930450439453e+00 -1.284501403570175171e-01 3.321956098079681396e-01 6.112363934516906738e-02 6.483683735132217407e-02
2.201000000000000000e+03 3.631286239624023438e+01 -1.065212535858154297e+01 3.620804101228713989e-02 1.473022818565368652e+00 4.527692496776580811e-01 -2.608031928539276123e-01
2.202000000000000000e+03 3.007192611694335938e+01 5.343472957611083984e+00 -2.320124655961990356e-01 7.434916496276855469e-02 -4.729899019002914429e-02 -2.847752533853054047e-02
2.203000000000000000e+03 3.306064605712890625e+01 6.273818969726562500e+00 -1.300593465566635132e-01 4.728622138500213623e-01 1.028408631682395935e-01 8.879147469997406006e-02
2.204000000000000000e+03 2.859305000305175781e+01 2.592918395996093750e+00 3.849775716662406921e-02 3.833398967981338501e-02 2.304952405393123627e-02 7.405621558427810669e-02
2.205000000000000000e+03 2.969947242736816406e+01 3.488706827163696289e+00 -5.353309214115142822e-02 1.167092993855476379e-01 1.895286329090595245e-02 6.833142042160034180e-02
2.206000000000000000e+03 3.556889343261718750e+01 3.212768554687500000e+01 -5.703462958335876465e-01 -4.445506930351257324e-01 -3.044690787792205811e-01 -4.461080431938171387e-01
2.207000000000000000e+03 3.259485626220703125e+01 3.133922004699707031e+01 -4.641520678997039795e-01 6.396151334047317505e-02 -1.200571656227111816e-01 -2.880743741989135742e-01
2.208000000000000000e+03 3.032227706909179688e+01 2.962613105773925781e+01 -4.626632928848266602e-01 3.419634699821472168e-01 -3.620994463562965393e-02 -2.355871796607971191e-01
2.209000000000000000e+03 1.699340629577636719e+01 1.425036334991455078e+01 -6.850311160087585449e-01 5.402553558349609375e+00 1.415256738662719727e+00 1.061521410942077637e+00
2.210000000000000000e+03 4.769908905029296875e+01 2.116612434387207031e+01 1.961415112018585205e-01 3.827163457870483398e+00 1.206991434097290039e+00 1.578740239143371582e+00
2.211000000000000000e+03 4.868611907958984375e+01 2.200701141357421875e+01 2.133399844169616699e-01 4.397751331329345703e+00 1.383327364921569824e+00 1.722101211547851562e+00
2.212000000000000000e+03 1.881556320190429688e+01 -1.461266040802001953e+01 2.890339493751525879e-01 5.871066093444824219e+00 1.848029971122741699e+00 -1.452297091484069824e+00
2.213000000000000000e+03 1.749077033996582031e+01 -1.657717514038085938e+01 -1.022385433316230774e-01 5.634980678558349609e+00 1.659822583198547363e+00 -9.172612428665161133e-01
2.214000000000000000e+03 5.301880264282226562e+01 2.591707229614257812e+01 5.618366599082946777e-02 7.579540252685546875e+00 2.290717124938964844e+00 1.964052200317382812e+00
2.215000000000000000e+03 2.490098381042480469e+01 -2.883998870849609375e+01 1.455273479223251343e-01 2.997239589691162109e+00 9.428300857543945312e-01 -7.323486804962158203e-01
2.216000000000000000e+03 4.692007541656494141e+00 -3.679440307617187500e+01 -4.394646361470222473e-02 4.622318267822265625e+00 1.373511433601379395e+00 7.840038090944290161e-02
2.217000000000000000e+03 5.156114578247070312e+01 2.425015830993652344e+01 8.357018232345581055e-02 6.354346752166748047e+00 1.931375145912170410e+00 1.931176543235778809e+00
2.218000000000000000e+03 5.674604034423828125e+01 2.678937339782714844e+01 -1.136561110615730286e-01 9.457566261291503906e+00 2.803173065185546875e+00 7.371835112571716309e-01
2.219000000000000000e+03 1.667934799194335938e+01 -1.232073974609375000e+01 2.771281599998474121e-01 6.555950164794921875e+00 2.049923419952392578e+00 -1.443237781524658203e+00
2.220000000000000000e+03 1.779745483398437500e+01 -1.199569129943847656e+01 5.378233194351196289e-01 6.574193000793457031e+00 2.133605003356933594e+00 -1.716275453567504883e+00
2.221000000000000000e+03 5.652688980102539062e+01 3.022733306884765625e+01 6.885647773742675781e-01 1.102024173736572266e+01 3.512641906738281250e+00 8.565016388893127441e-01
2.222000000000000000e+03 5.585578918457031250e+01 3.164453315734863281e+01 1.124682664871215820e+00 1.224828529357910156e+01 4.011890411376953125e+00 1.214118242263793945e+00
2.223000000000000000e+03 5.863460159301757812e+01 3.501477432250976562e+01 2.766657114028930664e+00 1.147366809844970703e+01 4.272097587585449219e+00 8.506368398666381836e-01
2.224000000000000000e+03 5.701305007934570312e+01 3.289124679565429688e+01 1.806532502174377441e+00 1.236005687713623047e+01 4.249976634979248047e+00 5.306631326675415039e-01
2.225000000000000000e+03 3.449005889892578125e+01 -7.235662460327148438e+00 1.407659798860549927e-01 1.037107825279235840e+00 3.533621430397033691e-01 -1.845783591270446777e-01
2.226000000000000000e+03 3.399095916748046875e+01 -6.081932544708251953e+00 2.130776792764663696e-01 9.106273055076599121e-01 3.371115028858184814e-01 -1.483481973409652710e-01
2.227000000000000000e+03 3.328388595581054688e+01 2.822105598449707031e+01 -5.456671714782714844e-01 -2.765534222126007080e-01 -2.466661781072616577e-01 -5.032739043235778809e-01
2.228000000000000000e+03 2.897553443908691406e+01 3.125101089477539062e+01 -3.189864754676818848e-01 8.053961396217346191e-01 1.459228992462158203e-01 -1.093946546316146851e-01
2.229000000000000000e+03 3.420648193359375000e+01 7.223478317260742188e+00 -1.563577800989151001e-01 6.022116541862487793e-01 1.337561607360839844e-01 1.401066184043884277e-01
2.230000000000000000e+03 1.692845153808593750e+01 -9.431172370910644531e+00 7.532492280006408691e-01 6.998467922210693359e+00 2.325515270233154297e+00 -2.373655557632446289e+00
2.231000000000000000e+03 1.636135673522949219e+01 -1.107768535614013672e+01 3.390613794326782227e-01 6.862095355987548828e+00 2.160346984863281250e+00 -1.711776018142700195e+00
2.232000000000000000e+03 2.019892501831054688e+01 -1.685435867309570312e+01 2.366150915622711182e-01 5.105640411376953125e+00 1.602676630020141602e+00 -1.397782683372497559e+00
2.233000000000000000e+03 1.952517318725585938e+01 -1.848369979858398438e+01 1.971561694517731667e-03 5.001318454742431641e+00 1.500987052917480469e+00 -1.094218730926513672e+00
2.234000000000000000e+03 2.758258438110351562e+01 -3.681203079223632812e+01 3.111576437950134277e-01 2.228868484497070312e+00 7.620078325271606445e-01 -4.304536879062652588e-01
2.235000000000000000e+03 2.767255020141601562e+01 -3.190727424621582031e+01 2.792251706123352051e-01 2.408038854598999023e+00 8.061791658401489258e-01 -6.653745770454406738e-01
2.236000000000000000e+03 2.566596412658691406e+01 1.705134510993957520e+00 1.387554258108139038e-01 -9.053230285644531250e-02 1.446693670004606247e-02 1.791097819805145264e-01
2.237000000000000000e+03 5.764427566528320312e+01 2.974775123596191406e+01 6.317737698554992676e-01 1.053107738494873047e+01 3.348855257034301758e+00 2.000189870595932007e-01
2.238000000000000000e+03 3.308013153076171875e+01 -4.149309539794921875e+01 1.006994009017944336e+00 1.055828094482421875e+00 6.188466548919677734e-01 -1.115977987647056580e-01
2.239000000000000000e+03 6.231874465942382812e+01 3.634579467773437500e+01 1.472177743911743164e+00 1.010022163391113281e+01 3.471719980239868164e+00 3.402832746505737305e-01
2.240000000000000000e+03 7.198368072509765625e+01 4.107050704956054688e+01 2.889619171619415283e-01 7.502241611480712891e+00 2.337361097335815430e+00 -5.352660268545150757e-02
2.241000000000000000e+03 2.623127365112304688e+01 -3.108924293518066406e+01 1.921217292547225952e-01 2.690349817276000977e+00 8.647414445877075195e-01 -6.607125401496887207e-01
2.242000000000000000e+03 2.329084777832031250e+01 -2.919579315185546875e+01 5.783953890204429626e-02 3.275780439376831055e+00 1.000085949897766113e+00 -6.330222487449645996e-01
2.243000000000000000e+03 4.919312953948974609e+00 2.281446218490600586e+00 7.006333470344543457e-01 2.169928699731826782e-01 2.752878665924072266e-01 2.658918797969818115e-01
2.244000000000000000e+03 5.137432575225830078e+00 -2.702008485794067383e+00 1.207830071449279785e+00 8.755586147308349609e-01 6.250165700912475586e-01 7.771671414375305176e-01
2.245000000000000000e+03 8.744907379150390625e+00 -2.806247711181640625e+00 1.951240420341491699e+00 8.386590957641601562e+00 3.101349592208862305e+00 4.948562622070312500e+00
2.246000000000000000e+03 9.488183975219726562e+00 -2.143281459808349609e+00 1.946705460548400879e+00 1.281118774414062500e+01 4.427367687225341797e+00 6.113689422607421875e+00
2.247000000000000000e+03 8.460566520690917969e+00 2.601625680923461914e+00 3.957231044769287109e+00 5.773511409759521484e+00 2.919222831726074219e+00 -3.899803161621093750e+00
2.248000000000000000e+03 8.234546661376953125e+00 2.369733810424804688e+00 3.869862556457519531e+00 4.235718727111816406e+00 2.431674480438232422e+00 -3.359037876129150391e+00
2.249000000000000000e+03 8.228386878967285156e+00 -2.750078439712524414e+00 2.431975603103637695e+00 6.041064739227294922e+00 2.541912078857421875e+00 4.466927528381347656e+00
2.250000000000000000e+03 6.614178180694580078e+00 2.663250684738159180e+00 2.452826738357543945e+00 1.259632587432861328e+00 1.113737821578979492e+00 -1.220484614372253418e+00
2.251000000000000000e+03 6.911930561065673828e+00 -2.505072832107543945e+00 2.326315402984619141e+00 2.173965930938720703e+00 1.350084424018859863e+00 2.381597995758056641e+00
2.252000000000000000e+03 7.369954586029052734e+00 -2.920400619506835938e+00 2.334657192230224609e+00 3.677073240280151367e+00 1.803519129753112793e+00 3.209753036499023438e+00
2.253000000000000000e+03 7.800073623657226562e+00 -2.360263586044311523e+00 2.908099174499511719e+00 3.878352642059326172e+00 2.035935401916503906e+00 3.753847837448120117e+00
2.254000000000000000e+03 8.042273521423339844e+00 2.630209684371948242e+00 3.686609506607055664e+00 4.181169033050537109e+00 2.360333681106567383e+00 -3.217170476913452148e+00
2.255000000000000000e+03 7.164661407470703125e+00 -2.237713098526000977e+00 2.528171300888061523e+00 2.195127964019775391e+00 1.416989803314208984e+00 2.521150827407836914e+00
2.256000000000000000e+03 6.642979145050048828e+00 -2.846405267715454102e+00 2.120441913604736328e+00 2.212611198425292969e+00 1.299915909767150879e+00 2.232367992401123047e+00
2.257000000000000000e+03 6.852729797363281250e+00 2.354354858398437500e+00 2.386252641677856445e+00 1.176651954650878906e+00 1.068871378898620605e+00 -1.151647567749023438e+00
2.258000000000000000e+03 3.815797090530395508e+00 6.342404365539550781e+00 1.045025944709777832e+00 1.757611989974975586e+00 8.407914042472839355e-01 -1.364782691001892090e+00
2.259000000000000000e+03 9.012148857116699219e+00 -2.456846952438354492e+00 2.175604104995727539e+00 9.686943054199218750e+00 3.558764219284057617e+00 5.561117172241210938e+00
2.260000000000000000e+03 9.635046958923339844e+00 -2.768640279769897461e+00 6.944240331649780273e-01 1.311417102813720703e+01 4.142578601837158203e+00 4.645380973815917969e+00
2.261000000000000000e+03 1.556210803985595703e+01 -6.210049152374267578e+00 2.425938397645950317e-01 8.168051719665527344e+00 2.523193836212158203e+00 -3.597038984298706055e+00
2.262000000000000000e+03 1.247749042510986328e+01 -1.464146494865417480e+00 3.174180507659912109e+00 1.802151107788085938e+01 6.358707904815673828e+00 -3.084966182708740234e+00
2.263000000000000000e+03 1.043808841705322266e+01 2.666400432586669922e+00 3.912874460220336914e+00 1.703998565673828125e+01 6.285858154296875000e+00 -2.594729423522949219e+00
2.264000000000000000e+03 1.082699775695800781e+01 3.223685264587402344e+00 4.213515758514404297e+00 1.720930099487304688e+01 6.426845073699951172e+00 -2.120505571365356445e+00
2.265000000000000000e+03 1.327970600128173828e+01 7.371656298637390137e-01 5.298236846923828125e+00 2.063671875000000000e+01 7.780486583709716797e+00 -2.162484824657440186e-01
2.266000000000000000e+03 4.010568141937255859e+00 -2.724394321441650391e+00 6.971095800399780273e-01 4.918162822723388672e-01 3.566777706146240234e-01 2.039640396833419800e-01
2.267000000000000000e+03 1.463912677764892578e+01 -2.549408197402954102e+00 1.473577737808227539e+00 1.044656467437744141e+01 3.576042890548706055e+00 -5.177117347717285156e+00
2.268000000000000000e+03 3.064184188842773438e+00 -3.292878866195678711e+00 4.935601949691772461e-01 3.626238107681274414e-01 2.568552196025848389e-01 7.049624621868133545e-02
2.269000000000000000e+03 1.035647106170654297e+01 2.215491771697998047e+00 3.326763868331909180e+00 1.843083763122558594e+01 6.527280807495117188e+00 -2.510545969009399414e+00
2.270000000000000000e+03 4.427807331085205078e+00 2.580823659896850586e+00 7.626725435256958008e-01 2.804388105869293213e-01 3.129334151744842529e-01 2.806847095489501953e-01
2.271000000000000000e+03 2.148062467575073242e+00 -3.568965435028076172e+00 2.951330542564392090e-01 1.115298196673393250e-01 1.219988614320755005e-01 -3.147213533520698547e-02
2.272000000000000000e+03 8.556010246276855469e+00 3.105606555938720703e+00 3.785206079483032227e+00 6.753002166748046875e+00 3.161462545394897461e+00 -4.061796188354492188e+00
2.273000000000000000e+03 9.534930229187011719e+00 2.497227907180786133e+00 3.757553100585937500e+00 1.161919498443603516e+01 4.613024711608886719e+00 -4.646575927734375000e+00
2.274000000000000000e+03 1.290475177764892578e+01 -1.054821133613586426e+00 3.717332601547241211e+00 1.734762191772460938e+01 6.319486141204833984e+00 -3.305017471313476562e+00
2.275000000000000000e+03 2.619724988937377930e+00 3.094260931015014648e+00 3.468282818794250488e-01 -1.104241386055946350e-01 7.092124223709106445e-02 4.538121819496154785e-01
2.276000000000000000e+03 1.344682216644287109e+01 -4.549373984336853027e-01 3.550399065017700195e+00 1.774074172973632812e+01 6.387341976165771484e+00 -4.077779293060302734e+00
2.277000000000000000e+03 2.681997060775756836e+00 2.091992616653442383e+00 -1.125391386449337006e-02 -1.186990961432456970e-01 -3.898590430617332458e-02 6.380584836006164551e-01
2.278000000000000000e+03 4.565932750701904297e+00 -8.195988655090332031e+00 1.096877157688140869e-01 3.112830162048339844e+00 9.667553901672363281e-01 1.408796310424804688e+00
2.279000000000000000e+03 2.740570783615112305e+00 6.006611347198486328e+00 6.411393284797668457e-01 7.471757531166076660e-01 4.164945185184478760e-01 -7.055267691612243652e-01
2.280000000000000000e+03 4.258297920227050781e+00 6.889546394348144531e+00 1.028200626373291016e+00 2.291160583496093750e+00 9.958084225654602051e-01 -1.734531044960021973e+00
2.281000000000000000e+03 4.445222854614257812e+00 -9.987073898315429688e+00 -1.048951372504234314e-01 3.367229700088500977e+00 9.787003993988037109e-01 1.274955630302429199e+00
2.282000000000000000e+03 1.981408596038818359e+00 2.328167676925659180e+00 3.088496997952461243e-02 -2.851952016353607178e-01 -7.629307359457015991e-02 5.855404138565063477e-01
2.283000000000000000e+03 1.573942661285400391e+01 -5.405505657196044922e+00 5.074257254600524902e-01 7.841871261596679688e+00 2.504789113998413086e+00 -3.861966848373413086e+00
2.284000000000000000e+03 1.487233638763427734e+01 -6.318408489227294922e+00 -3.052062913775444031e-02 8.805461883544921875e+00 2.632482290267944336e+00 -3.246442317962646484e+00
2.285000000000000000e+03 1.569683456420898438e+01 -8.079459190368652344e+00 3.044337034225463867e-01 7.627095222473144531e+00 2.379458665847778320e+00 -2.723424673080444336e+00
2.286000000000000000e+03 1.637344932556152344e+01 -8.506490707397460938e+00 6.337507963180541992e-01 7.274767398834228516e+00 2.372555494308471680e+00 -2.588078260421752930e+00
2.287000000000000000e+03 1.472526645660400391e+01 -1.288068532943725586e+00 2.790886640548706055e+00 1.046405220031738281e+01 3.976481676101684570e+00 -5.593789100646972656e+00
2.288000000000000000e+03 1.114736938476562500e+01 2.644226551055908203e+00 5.202153682708740234e+00 1.940336608886718750e+01 7.381656169891357422e+00 -6.007862687110900879e-01
2.289000000000000000e+03 2.606634378433227539e+00 -5.251614093780517578e+00 4.233684837818145752e-01 7.377381920814514160e-01 3.483320176601409912e-01 4.928820431232452393e-01
2.290000000000000000e+03 1.218568134307861328e+01 4.514352798461914062e+00 3.440555095672607422e+00 1.956697273254394531e+01 6.902258396148681641e+00 -4.678021371364593506e-01
2.291000000000000000e+03 4.511817932128906250e+01 1.693829345703125000e+01 -1.168883685022592545e-02 2.934543848037719727e+00 8.768565058708190918e-01 1.087608098983764648e+00
2.292000000000000000e+03 4.334556579589843750e+01 1.659947204589843750e+01 3.448668867349624634e-02 2.285945415496826172e+00 6.961296796798706055e-01 8.967689275741577148e-01
2.293000000000000000e+03 1.549968910217285156e+01 -3.879542827606201172e+00 9.551928639411926270e-01 8.357878684997558594e+00 2.793921470642089844e+00 -4.418566226959228516e+00
2.294000000000000000e+03 5.259619712829589844e+00 7.554281234741210938e+00 9.837363362312316895e-01 3.634727001190185547e+00 1.385538935661315918e+00 -2.409437417984008789e+00
2.295000000000000000e+03 3.254876852035522461e+00 4.892840862274169922e+00 9.370194077491760254e-01 6.313130259513854980e-01 4.704997241497039795e-01 -4.325953125953674316e-01
2.296000000000000000e+03 1.577498340606689453e+01 -4.637222290039062500e+00 6.679356694221496582e-01 7.780795574188232422e+00 2.534619331359863281e+00 -4.284041404724121094e+00
2.297000000000000000e+03 2.544389963150024414e+00 5.085710525512695312e+00 6.348811984062194824e-01 2.705488204956054688e-01 2.716290056705474854e-01 -2.454277724027633667e-01
2.298000000000000000e+03 2.334956407546997070e+00 4.354775428771972656e+00 5.221964716911315918e-01 -4.568739328533411026e-03 1.552883237600326538e-01 5.684774369001388550e-02
2.299000000000000000e+03 4.305691719055175781e+00 9.908361434936523438e+00 1.728247702121734619e-01 3.750013828277587891e+00 1.176851630210876465e+00 -2.209459543228149414e+00
2.300000000000000000e+03 4.532849788665771484e+00 1.096409988403320312e+01 -5.264669656753540039e-02 4.288896083831787109e+00 1.270874857902526855e+00 -2.191927671432495117e+00
2.301000000000000000e+03 3.566983413696289062e+01 -9.525518417358398438e+00 4.780087247490882874e-02 1.312100529670715332e+00 4.079704284667968750e-01 -2.355398237705230713e-01
2.302000000000000000e+03 3.672317504882812500e+01 -8.980193138122558594e+00 5.539451166987419128e-02 1.568133473396301270e+00 4.870584011077880859e-01 -2.169054746627807617e-01
2.303000000000000000e+03 3.942668533325195312e+01 -1.312596035003662109e+01 -6.584851443767547607e-02 2.333666086196899414e+00 6.803452968597412109e-01 -3.265902101993560791e-01
2.304000000000000000e+03 3.866496658325195312e+01 -1.216658306121826172e+01 -7.074598222970962524e-02 2.094044208526611328e+00 6.069895029067993164e-01 -3.138768672943115234e-01
2.305000000000000000e+03 5.792854690551757812e+01 2.780443382263183594e+01 6.760754436254501343e-02 9.935524940490722656e+00 3.000939607620239258e+00 2.135228514671325684e-01
2.306000000000000000e+03 1.984727668762207031e+01 -2.275855064392089844e+01 -1.078413724899291992e-01 4.354688167572021484e+00 1.274054050445556641e+00 -7.649559974670410156e-01
2.307000000000000000e+03 5.217518234252929688e+01 2.312037658691406250e+01 -1.635238528251647949e-01 6.562608242034912109e+00 1.919725418090820312e+00 1.657981395721435547e+00
2.308000000000000000e+03 3.677014160156250000e+01 -6.289822578430175781e+00 9.198191761970520020e-02 1.547051548957824707e+00 4.917100369930267334e-01 -1.279071122407913208e-01
2.309000000000000000e+03 1.687646865844726562e+01 -1.366269207000732422e+01 1.192776933312416077e-01 6.297037601470947266e+00 1.924894571304321289e+00 -1.210881471633911133e+00
2.310000000000000000e+03 4.817951965332031250e+01 -2.557972145080566406e+01 -1.433093696832656860e-01 5.932777404785156250e+00 1.736840486526489258e+00 -4.292807355523109436e-02
2.311000000000000000e+03 3.623296737670898438e+01 7.222799777984619141e+00 -1.144282668828964233e-01 1.012382030487060547e+00 2.693861126899719238e-01 2.679857015609741211e-01
2.312000000000000000e+03 5.254203796386718750e+01 2.489608955383300781e+01 1.241646334528923035e-02 7.091575622558593750e+00 2.131197690963745117e+00 1.835091948509216309e+00
2.313000000000000000e+03 5.323540496826171875e+01 2.367650413513183594e+01 -1.883075982332229614e-01 7.137996196746826172e+00 2.084906578063964844e+00 1.603813886642456055e+00
2.314000000000000000e+03 2.241392898559570312e+01 -2.644263458251953125e+01 2.760527469217777252e-02 3.578169107437133789e+00 1.081732273101806641e+00 -7.519119381904602051e-01
2.315000000000000000e+03 3.616181182861328125e+01 -7.878916263580322266e+00 7.504265010356903076e-02 1.421451330184936523e+00 4.489482045173645020e-01 -1.898478120565414429e-01
2.316000000000000000e+03 1.539005184173583984e+01 -1.140777015686035156e+01 4.345182329416275024e-02 6.931114196777343750e+00 2.092369794845581055e+00 -1.392922282218933105e+00
2.317000000000000000e+03 2.032690811157226562e+01 1.842206382751464844e+01 -5.686777830123901367e-01 3.122090816497802734e+00 7.660238742828369141e-01 5.900341272354125977e-01
2.318000000000000000e+03 1.768718528747558594e+01 1.942960357666015625e+01 -9.138676524162292480e-01 4.362965583801269531e+00 1.034729480743408203e+00 3.906908631324768066e-01
2.319000000000000000e+03 3.081431007385253906e+01 4.403970241546630859e+00 -8.989643305540084839e-02 2.210184037685394287e-01 3.933659195899963379e-02 4.918949678540229797e-02
2.320000000000000000e+03 3.264912796020507812e+01 4.409591197967529297e+00 -2.577121369540691376e-02 4.953968524932861328e-01 1.408876925706863403e-01 1.216765269637107849e-01
2.321000000000000000e+03 4.533914947509765625e+01 -2.301061439514160156e+01 -2.080645412206649780e-01 4.762055397033691406e+00 1.366197228431701660e+00 -5.202927589416503906e-01
2.322000000000000000e+03 4.461440086364746094e+00 -9.043348312377929688e+00 -9.738505817949771881e-03 3.216976642608642578e+00 9.621714353561401367e-01 1.345242381095886230e+00
2.323000000000000000e+03 4.057902526855468750e+01 1.541479301452636719e+01 -1.268613804131746292e-02 1.439528584480285645e+00 4.280527532100677490e-01 5.923333764076232910e-01
2.324000000000000000e+03 7.025294303894042969e+00 -2.675842666625976562e+01 -1.613959968090057373e-01 4.500584125518798828e+00 1.301756501197814941e+00 2.766408026218414307e-01
2.325000000000000000e+03 7.151132965087890625e+01 -2.543693161010742188e+01 3.221860527992248535e-02 7.392050743103027344e+00 2.227280855178833008e+00 5.228453278541564941e-01
2.326000000000000000e+03 6.991579437255859375e+01 -3.314368057250976562e+01 1.988893449306488037e-01 7.090884685516357422e+00 2.186932325363159180e+00 4.229877591133117676e-01
2.327000000000000000e+03 6.380893230438232422e+00 -1.720410919189453125e+01 -3.204445242881774902e-01 4.533200263977050781e+00 1.263826727867126465e+00 7.370661497116088867e-01
2.328000000000000000e+03 2.120184135437011719e+01 2.153624534606933594e+01 -6.314034461975097656e-01 2.690441131591796875e+00 6.177113056182861328e-01 3.516262471675872803e-01
2.329000000000000000e+03 5.710222721099853516e+00 -1.995001220703125000e+01 -2.151683270931243896e-01 4.381002902984619141e+00 1.249750375747680664e+00 5.585730075836181641e-01
2.330000000000000000e+03 7.049829006195068359e+00 -1.961170768737792969e+01 -2.921989858150482178e-01 4.584439277648925781e+00 1.287672042846679688e+00 5.776138305664062500e-01
2.331000000000000000e+03 6.322914600372314453e+00 -1.451217842102050781e+01 -3.828513622283935547e-01 4.569296836853027344e+00 1.255933642387390137e+00 9.289160966873168945e-01
2.332000000000000000e+03 4.871712684631347656e+00 -1.334449958801269531e+01 -2.631422579288482666e-01 3.935857295989990234e+00 1.101814508438110352e+00 1.016228556632995605e+00
2.333000000000000000e+03 5.612385272979736328e+00 -1.206324481964111328e+01 -3.260110616683959961e-01 4.254475116729736328e+00 1.178539276123046875e+00 1.173771858215332031e+00
2.334000000000000000e+03 5.060822296142578125e+01 2.354939270019531250e+01 1.609605699777603149e-01 5.618290424346923828e+00 1.733775258064270020e+00 1.934889793395996094e+00
2.335000000000000000e+03 5.040317916870117188e+01 2.162972068786621094e+01 -8.081895112991333008e-02 5.382421970367431641e+00 1.590480923652648926e+00 1.650603532791137695e+00
2.336000000000000000e+03 1.257703876495361328e+01 1.012585258483886719e+01 -1.164779663085937500e+00 1.027947807312011719e+01 2.734409332275390625e+00 -1.913408935070037842e-02
2.337000000000000000e+03 1.080882263183593750e+01 7.976953029632568359e+00 -3.551362752914428711e-01 1.158016681671142578e+01 3.367509126663208008e+00 -2.155630111694335938e+00
2.338000000000000000e+03 9.516646385192871094e+00 3.035523796081542969e+01 -3.094472885131835938e-01 5.558026790618896484e+00 1.574573874473571777e+00 -2.971294522285461426e-01
2.339000000000000000e+03 1.061348724365234375e+01 3.162160301208496094e+01 -3.357089757919311523e-01 5.295075416564941406e+00 1.487809896469116211e+00 -2.574461698532104492e-01
2.340000000000000000e+03 4.366062164306640625e+01 -1.839710617065429688e+01 -2.333718687295913696e-01 3.763917207717895508e+00 1.059163570404052734e+00 -4.441098868846893311e-01
2.341000000000000000e+03 7.100669860839843750e+01 2.469284820556640625e+01 -2.737857401371002197e-02 7.995331764221191406e+00 2.390386104583740234e+00 -9.307295680046081543e-01
2.342000000000000000e+03 7.305246734619140625e+01 2.625558090209960938e+01 3.776135668158531189e-02 7.673222064971923828e+00 2.313295125961303711e+00 -8.469616174697875977e-01
2.343000000000000000e+03 8.376777648925781250e+00 -3.016429519653320312e+01 -1.483173966407775879e-01 4.453593254089355469e+00 1.291582822799682617e+00 1.699805706739425659e-01
2.344000000000000000e+03 7.823096752166748047e+00 -2.833039283752441406e+01 -1.540749520063400269e-01 4.490347385406494141e+00 1.300881743431091309e+00 2.192300260066986084e-01
2.345000000000000000e+03 7.254517364501953125e+01 -2.284276771545410156e+01 -1.004142872989177704e-02 7.568415641784667969e+00 2.267512321472167969e+00 4.848192334175109863e-01
2.346000000000000000e+03 7.446961212158203125e+01 2.577161979675292969e+01 1.485799439251422882e-02 7.503695011138916016e+00 2.255565881729125977e+00 -7.495398521423339844e-01
2.347000000000000000e+03 7.163147735595703125e+01 1.629880142211914062e+01 -2.468736320734024048e-01 8.148142814636230469e+00 2.370380640029907227e+00 -6.243152022361755371e-01
2.348000000000000000e+03 7.207352638244628906e+00 3.525402069091796875e+01 -9.628015011548995972e-02 6.096837520599365234e+00 1.800167202949523926e+00 -1.329491436481475830e-01
2.349000000000000000e+03 7.403096771240234375e+01 -2.535301208496093750e+01 1.927402429282665253e-02 7.514183044433593750e+00 2.260037183761596680e+00 4.153580367565155029e-01
2.350000000000000000e+03 7.299241638183593750e+01 -1.634611320495605469e+01 -5.966208502650260925e-02 7.859767913818359375e+00 2.340031862258911133e+00 4.245483279228210449e-01
2.351000000000000000e+03 7.173919677734375000e+01 1.076944446563720703e+01 -2.435184568166732788e-01 8.200487136840820312e+00 2.387090682983398438e+00 -3.588180541992187500e-01
2.352000000000000000e+03 7.301110076904296875e+01 9.434200286865234375e+00 -1.789522469043731689e-01 8.313358306884765625e+00 2.440321683883666992e+00 -2.895775437355041504e-01
2.353000000000000000e+03 7.311636352539062500e+01 -9.739673614501953125e+00 -8.427132666110992432e-02 8.124257087707519531e+00 2.411995649337768555e+00 2.950217425823211670e-01
2.354000000000000000e+03 7.429310607910156250e+01 8.106562614440917969e+00 -1.222013980150222778e-01 8.458660125732421875e+00 2.500937700271606445e+00 -2.188448011875152588e-01
2.355000000000000000e+03 7.293836212158203125e+01 -1.455755949020385742e+00 -1.194446086883544922e-01 8.282089233398437500e+00 2.448793411254882812e+00 9.291756153106689453e-02
2.356000000000000000e+03 7.292704772949218750e+01 -2.745597362518310547e+00 -1.099673137068748474e-01 8.269069671630859375e+00 2.447730779647827148e+00 1.305522918701171875e-01
2.357000000000000000e+03 7.277908325195312500e+01 -4.038923263549804688e+00 -1.079808995127677917e-01 8.225360870361328125e+00 2.435214042663574219e+00 1.663398593664169312e-01
2.358000000000000000e+03 7.151992034912109375e+01 4.147677421569824219e+00 -1.994978338479995728e-01 8.166578292846679688e+00 2.390124082565307617e+00 -8.002482354640960693e-02
2.359000000000000000e+03 7.277876281738281250e+01 2.673208951950073242e+00 -1.454516351222991943e-01 8.303400993347167969e+00 2.447384595870971680e+00 -3.526300191879272461e-02
2.360000000000000000e+03 7.161579895019531250e+01 5.452816963195800781e+00 -2.079326510429382324e-01 8.184124946594238281e+00 2.392857551574707031e+00 -1.302918642759323120e-01
2.361000000000000000e+03 7.396704101562500000e+01 -5.652334690093994141e+00 -8.012625575065612793e-02 8.336947441101074219e+00 2.477046251296997070e+00 1.820261627435684204e-01
2.362000000000000000e+03 7.429977416992187500e+01 -1.244123935699462891e+01 -5.421711504459381104e-02 8.169544219970703125e+00 2.434597969055175781e+00 3.071342110633850098e-01
2.363000000000000000e+03 7.379169464111328125e+01 -1.953219795227050781e+01 -2.007053047418594360e-02 7.789261817932128906e+00 2.330757379531860352e+00 4.147750437259674072e-01
2.364000000000000000e+03 7.249336242675781250e+01 2.737966918945312500e+01 7.299359142780303955e-02 7.690507411956787109e+00 2.329050302505493164e+00 -8.478155732154846191e-01
2.365000000000000000e+03 7.274046325683593750e+01 2.453152084350585938e+01 -1.152180787175893784e-02 7.796006202697753906e+00 2.335345268249511719e+00 -8.609530925750732422e-01
2.366000000000000000e+03 7.254677581787109375e+01 -2.690391159057617188e+01 4.869847372174263000e-02 7.370174407958984375e+00 2.225661993026733398e+00 4.713205397129058838e-01
2.367000000000000000e+03 7.285974884033203125e+01 -2.825040817260742188e+01 5.768404528498649597e-02 7.338834285736083984e+00 2.218955516815185547e+00 4.414180517196655273e-01
2.368000000000000000e+03 8.084432601928710938e+00 2.089031410217285156e+01 -7.186961770057678223e-01 6.030824661254882812e+00 1.593638539314270020e+00 -9.800638556480407715e-01
2.369000000000000000e+03 6.893232822418212891e+00 2.434507942199707031e+01 -4.189016222953796387e-01 6.032167434692382812e+00 1.683979749679565430e+00 -6.663091778755187988e-01
2.370000000000000000e+03 5.665715217590332031e+00 2.735407447814941406e+01 -2.093647718429565430e-01 6.264536380767822266e+00 1.816551446914672852e+00 -4.132100641727447510e-01
2.371000000000000000e+03 6.735508441925048828e+00 2.659692955017089844e+01 -3.132235705852508545e-01 6.061938762664794922e+00 1.724614620208740234e+00 -4.997644722461700439e-01
2.372000000000000000e+03 5.917826652526855469e+00 -1.321698379516601562e+01 -3.610608577728271484e-01 4.427812099456787109e+00 1.220025420188903809e+00 1.065376281738281250e+00
2.373000000000000000e+03 3.997618484497070312e+01 -1.604790306091308594e+01 -9.032124280929565430e-02 2.512166976928710938e+00 7.265537381172180176e-01 -4.571841061115264893e-01
2.374000000000000000e+03 6.818421840667724609e+00 1.647019958496093750e+01 -7.825204730033874512e-01 6.072170257568359375e+00 1.586894869804382324e+00 -1.645666122436523438e+00
2.375000000000000000e+03 6.909306526184082031e+00 1.792552566528320312e+01 -7.403907179832458496e-01 6.086479663848876953e+00 1.603826642036437988e+00 -1.423157215118408203e+00
2.376000000000000000e+03 6.842314243316650391e+00 2.076670837402343750e+01 -5.873757600784301758e-01 6.036815643310546875e+00 1.634832024574279785e+00 -1.045249223709106445e+00
2.377000000000000000e+03 5.593893527984619141e+00 2.079062843322753906e+01 -4.454235136508941650e-01 6.003088951110839844e+00 1.667299628257751465e+00 -1.005921006202697754e+00
2.378000000000000000e+03 6.605102062225341797e+00 1.507724857330322266e+01 -7.585487961769104004e-01 6.087906837463378906e+00 1.598807454109191895e+00 -1.870751857757568359e+00
2.379000000000000000e+03 5.525913715362548828e+00 1.663170433044433594e+01 -5.630142092704772949e-01 5.749187946319580078e+00 1.555852055549621582e+00 -1.592646479606628418e+00
2.380000000000000000e+03 4.580939483642578125e+01 1.947608184814453125e+01 1.483800262212753296e-01 3.026695489883422852e+00 9.525226354598999023e-01 1.293935418128967285e+00
2.381000000000000000e+03 4.494194030761718750e+01 1.860348129272460938e+01 1.203833818435668945e-01 2.729402065277099609e+00 8.549356460571289062e-01 1.139788389205932617e+00
2.382000000000000000e+03 3.459637069702148438e+01 -4.481934547424316406e+00 2.288447767496109009e-01 1.030435681343078613e+00 3.777841329574584961e-01 -6.750017404556274414e-02
2.383000000000000000e+03 3.232462310791015625e+01 -3.936537027359008789e+00 3.126170933246612549e-01 6.271565556526184082e-01 2.819320857524871826e-01 -8.227436989545822144e-02
2.384000000000000000e+03 7.417801380157470703e+00 2.994429588317871094e+01 -2.375529259443283081e-01 5.970632076263427734e+00 1.719923734664916992e+00 -3.174980580806732178e-01
2.385000000000000000e+03 6.711924076080322266e+00 2.884585571289062500e+01 -2.459216117858886719e-01 6.095632553100585938e+00 1.754913210868835449e+00 -3.726021349430084229e-01
2.386000000000000000e+03 3.241690063476562500e+01 -2.579150199890136719e+00 3.444173336029052734e-01 5.459164381027221680e-01 2.671001255512237549e-01 -6.748091429471969604e-02
2.387000000000000000e+03 3.451890182495117188e+01 3.059351348876953125e+01 -5.214794874191284180e-01 -3.134559392929077148e-01 -2.504806518554687500e-01 -5.029418468475341797e-01
2.388000000000000000e+03 3.063115501403808594e+01 3.135758399963378906e+01 -3.670348227024078369e-01 3.870383203029632568e-01 6.001056637614965439e-03 -2.078332006931304932e-01
2.389000000000000000e+03 7.177545166015625000e+01 2.856439208984375000e+01 1.495887786149978638e-01 7.738088130950927734e+00 2.366302967071533203e+00 -8.540156483650207520e-01
2.390000000000000000e+03 2.140480232238769531e+01 -2.357413482666015625e+01 -1.598390564322471619e-02 4.022186279296875000e+00 1.201860666275024414e+00 -8.528809547424316406e-01
2.391000000000000000e+03 1.632891654968261719e+01 1.331757831573486328e+01 -7.226954102516174316e-01 6.078912258148193359e+00 1.606865048408508301e+00 1.243245720863342285e+00
2.392000000000000000e+03 2.029349517822265625e+01 1.636792945861816406e+01 -3.842841386795043945e-01 3.088618755340576172e+00 8.113003969192504883e-01 8.179429173469543457e-01
2.393000000000000000e+03 1.425720691680908203e+01 1.285556125640869141e+01 -1.230008840560913086e+00 7.658744335174560547e+00 1.928620696067810059e+00 5.432008504867553711e-01
2.394000000000000000e+03 2.931523895263671875e+01 1.699118018150329590e+00 1.913445591926574707e-01 1.004267558455467224e-01 8.753139525651931763e-02 1.135645285248756409e-01
2.395000000000000000e+03 2.999030685424804688e+01 8.597149252891540527e-01 2.836167216300964355e-01 1.513681262731552124e-01 1.304954588413238525e-01 7.503239065408706665e-02
2.396000000000000000e+03 1.826794433593750000e+01 -1.899812126159667969e+01 -1.437776833772659302e-01 5.099364757537841797e+00 1.486676096916198730e+00 -8.479518294334411621e-01
2.397000000000000000e+03 3.843541336059570312e+01 9.460628509521484375e+00 -1.373420506715774536e-01 1.399470925331115723e+00 3.786386847496032715e-01 4.023495018482208252e-01
2.398000000000000000e+03 6.837269306182861328e+00 1.163023757934570312e+01 -4.757638871669769287e-01 6.159139633178710938e+00 1.705012798309326172e+00 -2.536151170730590820e+00
2.399000000000000000e+03 1.331160736083984375e+01 1.061778450012207031e+01 -1.112055420875549316e+00 9.352722167968750000e+00 2.472199916839599609e+00 3.132199645042419434e-01
2.400000000000000000e+03 1.202579021453857422e+01 1.119135093688964844e+01 -1.350979208946228027e+00 9.204586029052734375e+00 2.356082201004028320e+00 -7.188745141029357910e-01
2.401000000000000000e+03 3.533651733398437500e+01 8.224030494689941406e+00 -1.418593376874923706e-01 7.690411806106567383e-01 1.881545484066009521e-01 1.850547194480895996e-01
2.402000000000000000e+03 3.735484313964843750e+01 8.343252182006835938e+00 -1.185976266860961914e-01 1.215384244918823242e+00 3.290359973907470703e-01 3.178437352180480957e-01
2.403000000000000000e+03 1.843262481689453125e+01 1.644601631164550781e+01 -6.764470338821411133e-01 4.225117683410644531e+00 1.064601182937622070e+00 7.996478676795959473e-01
2.404000000000000000e+03 1.184308719635009766e+01 9.668360710144042969e+00 -1.171937108039855957e+00 1.050530242919921875e+01 2.800009727478027344e+00 -9.187593460083007812e-01
2.405000000000000000e+03 5.605360412597656250e+01 2.808598518371582031e+01 7.155106961727142334e-02 9.884614944458007812e+00 2.986849784851074219e+00 9.937468171119689941e-01
2.406000000000000000e+03 5.424852752685546875e+01 2.568340110778808594e+01 -7.758234441280364990e-02 8.137889862060546875e+00 2.418092250823974609e+00 1.601415038108825684e+00
2.407000000000000000e+03 4.722593688964843750e+01 -2.870259284973144531e+01 1.546390354633331299e-01 6.476063251495361328e+00 1.989210605621337891e+00 -1.564578711986541748e-01
2.408000000000000000e+03 1.784021186828613281e+01 -1.545143222808837891e+01 7.549407333135604858e-02 5.825873374938964844e+00 1.770410180091857910e+00 -1.134861826896667480e+00
2.409000000000000000e+03 2.650109291076660156e+01 2.341090965270996094e+01 -4.603288173675537109e-01 9.347159266471862793e-01 1.423161327838897705e-01 5.371223669499158859e-03
2.410000000000000000e+03 2.437393760681152344e+01 2.258127784729003906e+01 -4.778712987899780273e-01 1.573604464530944824e+00 3.287199735641479492e-01 1.698503047227859497e-01
2.411000000000000000e+03 3.797167587280273438e+01 -1.112960338592529297e+01 -2.677155472338199615e-02 1.904979944229125977e+00 5.634624958038330078e-01 -2.718070447444915771e-01
2.412000000000000000e+03 3.732413482666015625e+01 -1.006538963317871094e+01 -3.507811576128005981e-03 1.724982023239135742e+00 5.164422988891601562e-01 -2.448183447122573853e-01
2.413000000000000000e+03 1.275678443908691406e+01 1.171476840972900391e+01 -1.362470865249633789e+00 9.009947776794433594e+00 2.294243097305297852e+00 -1.064802706241607666e-01
2.414000000000000000e+03 2.281805992126464844e+01 -2.778086662292480469e+01 4.213488474488258362e-02 3.419029474258422852e+00 1.038349270820617676e+00 -6.618809700012207031e-01
2.415000000000000000e+03 3.043110847473144531e+01 2.520154714584350586e+00 9.550375491380691528e-02 2.301054298877716064e-01 9.768275916576385498e-02 1.065123975276947021e-01
2.416000000000000000e+03 1.073695564270019531e+01 1.153915977478027344e+01 -1.287986993789672852e+00 8.732729911804199219e+00 2.233422756195068359e+00 -1.529624223709106445e+00
2.417000000000000000e+03 1.230289459228515625e+01 8.659736633300781250e+00 -7.688637375831604004e-01 1.181584835052490234e+01 3.314095497131347656e+00 -2.159772515296936035e-01
2.418000000000000000e+03 2.733068656921386719e+01 2.559896469116210938e+01 -4.469729661941528320e-01 7.884716987609863281e-01 1.024496182799339294e-01 -7.317658513784408569e-02
2.419000000000000000e+03 3.084435462951660156e+01 2.947542667388916016e-01 3.630423247814178467e-01 3.195717632770538330e-01 2.047842293977737427e-01 8.675118535757064819e-02
2.420000000000000000e+03 2.388215637207031250e+01 2.432407379150390625e+01 -4.845996201038360596e-01 1.811986684799194336e+00 3.982161283493041992e-01 1.559784412384033203e-01
2.421000000000000000e+03 4.674142074584960938e+01 2.030445861816406250e+01 1.884032040834426880e-01 3.394752025604248047e+00 1.074946522712707520e+00 1.423692226409912109e+00
2.422000000000000000e+03 4.651984024047851562e+01 1.860883903503417969e+01 2.686407603323459625e-02 3.444558382034301758e+00 1.041426777839660645e+00 1.276487350463867188e+00
2.423000000000000000e+03 2.233757972717285156e+01 -3.335719680786132812e+01 3.465360030531883240e-02 3.227539539337158203e+00 9.786579608917236328e-01 -3.978240489959716797e-01
2.424000000000000000e+03 4.049334335327148438e+01 9.644754409790039062e+00 -1.479354202747344971e-01 1.927555084228515625e+00 5.338858962059020996e-01 5.393852591514587402e-01
2.425000000000000000e+03 5.815290069580078125e+01 3.111778068542480469e+01 1.166940689086914062e+00 1.096262264251708984e+01 3.638868808746337891e+00 1.885460615158081055e-01
2.426000000000000000e+03 1.668848609924316406e+01 -1.504429244995117188e+01 -4.389335960149765015e-02 6.009088993072509766e+00 1.789558649063110352e+00 -9.907674193382263184e-01
2.427000000000000000e+03 7.222177886962890625e+01 -2.148607254028320312e+01 -1.696137711405754089e-02 7.589546680450439453e+00 2.271775484085083008e+00 4.961881637573242188e-01
2.428000000000000000e+03 4.443544387817382812e+01 1.585838985443115234e+01 -6.640587002038955688e-02 2.759475469589233398e+00 8.079209327697753906e-01 9.879215955734252930e-01
2.429000000000000000e+03 8.405734062194824219e+00 -2.614972686767578125e+01 -2.110994607210159302e-01 4.551281452178955078e+00 1.302054643630981445e+00 2.708647251129150391e-01
2.430000000000000000e+03 8.900052070617675781e+00 -2.425922393798828125e+01 -2.613243162631988525e-01 4.634685993194580078e+00 1.312008500099182129e+00 3.140301108360290527e-01
2.431000000000000000e+03 7.295330047607421875e+01 -1.366805458068847656e+01 -7.346413284540176392e-02 7.972701072692871094e+00 2.369771003723144531e+00 3.794307708740234375e-01
2.432000000000000000e+03 7.317924499511718750e+01 -8.571960449218750000e+00 -8.404684066772460938e-02 8.171392440795898438e+00 2.426203727722167969e+00 2.689515948295593262e-01
2.433000000000000000e+03 7.414290618896484375e+01 1.259702205657958984e+00 -9.354607760906219482e-02 8.480914115905761719e+00 2.516210317611694336e+00 7.234946242533624172e-04
2.434000000000000000e+03 1.439882755279541016e+01 1.457527065277099609e+01 -1.285909652709960938e+00 6.883928775787353516e+00 1.679405689239501953e+00 3.049210011959075928e-01
2.435000000000000000e+03 7.300473785400390625e+01 8.082132339477539062e+00 -1.659030914306640625e-01 8.326648712158203125e+00 2.448223590850830078e+00 -2.374456822872161865e-01
2.436000000000000000e+03 8.844916343688964844e+00 2.571378231048583984e+00 4.002005577087402344e+00 7.831796169281005859e+00 3.550140619277954102e+00 -4.447354316711425781e+00
2.437000000000000000e+03 5.913257598876953125e+00 -2.920865058898925781e+00 1.668942093849182129e+00 1.547934770584106445e+00 9.650630354881286621e-01 1.503334641456604004e+00
2.438000000000000000e+03 6.625376701354980469e+00 3.012790918350219727e+00 2.770049095153808594e+00 1.742672443389892578e+00 1.353816509246826172e+00 -1.511112809181213379e+00
2.439000000000000000e+03 8.482013702392578125e+00 -2.776213169097900391e+00 2.244204044342041016e+00 7.122950077056884766e+00 2.810146093368530273e+00 4.759232521057128906e+00
2.440000000000000000e+03 5.699943065643310547e+00 -3.594768285751342773e+00 1.534398913383483887e+00 1.950019955635070801e+00 1.045325636863708496e+00 1.635826945304870605e+00
2.441000000000000000e+03 7.546461582183837891e+00 2.480793714523315430e+00 3.334401130676269531e+00 2.391874313354492188e+00 1.717882633209228516e+00 -2.251938104629516602e+00
2.442000000000000000e+03 5.318622112274169922e+00 3.353138923645019531e+00 1.863914370536804199e+00 9.420523047447204590e-01 8.417900204658508301e-01 -6.714212298393249512e-01
2.443000000000000000e+03 5.567916393280029297e+00 2.826659440994262695e+00 1.656828284263610840e+00 7.173060178756713867e-01 7.122402787208557129e-01 -4.474912583827972412e-01
2.444000000000000000e+03 9.318609237670898438e+00 -2.837579727172851562e+00 1.109528541564941406e+00 1.121878242492675781e+01 3.698493242263793945e+00 4.917955875396728516e+00
2.445000000000000000e+03 6.956002712249755859e+00 -2.814275503158569336e+00 2.263178586959838867e+00 2.608305692672729492e+00 1.461445331573486328e+00 2.574031591415405273e+00
2.446000000000000000e+03 7.302379131317138672e+00 2.444702625274658203e+00 3.033968448638916016e+00 1.935806512832641602e+00 1.490932464599609375e+00 -1.910095453262329102e+00
2.447000000000000000e+03 7.017629623413085938e+00 2.709970474243164062e+00 2.940659761428833008e+00 1.824935555458068848e+00 1.429678559303283691e+00 -1.769423007965087891e+00
2.448000000000000000e+03 7.976232051849365234e+00 -2.724462270736694336e+00 2.526207685470581055e+00 5.066388130187988281e+00 2.277778625488281250e+00 4.075433731079101562e+00
2.449000000000000000e+03 8.053888320922851562e+00 3.870537281036376953e+00 3.512533903121948242e+00 5.893185138702392578e+00 2.821715593338012695e+00 -3.755959987640380859e+00
2.450000000000000000e+03 4.539129734039306641e+00 3.087831497192382812e+00 1.148330688476562500e+00 4.751372039318084717e-01 4.870403409004211426e-01 3.466486698016524315e-03
2.451000000000000000e+03 1.074101638793945312e+01 -2.696139574050903320e+00 -3.939642906188964844e-01 1.724139976501464844e+01 5.054230690002441406e+00 1.601112246513366699e+00
2.452000000000000000e+03 1.055226898193359375e+01 -2.390758275985717773e+00 3.852446377277374268e-02 1.799310111999511719e+01 5.409487724304199219e+00 2.406184434890747070e+00
2.453000000000000000e+03 1.295243358612060547e+01 -3.419171869754791260e-01 5.151256561279296875e+00 1.921789550781250000e+01 7.310745716094970703e+00 -1.350671648979187012e+00
2.454000000000000000e+03 1.254508209228515625e+01 -3.108308315277099609e+00 -9.410553425550460815e-02 1.503215694427490234e+01 4.481415271759033203e+00 -2.829191207885742188e+00
2.455000000000000000e+03 1.151899147033691406e+01 -2.415422916412353516e+00 3.968863785266876221e-01 1.822314643859863281e+01 5.586009979248046875e+00 -1.067774653434753418e+00
2.456000000000000000e+03 4.637130260467529297e+00 2.655586481094360352e+00 9.056580662727355957e-01 2.806524336338043213e-01 3.558931648731231689e-01 1.745903193950653076e-01
2.457000000000000000e+03 3.784528017044067383e+00 -2.847436904907226562e+00 6.414026021957397461e-01 4.577325284481048584e-01 3.297405540943145752e-01 1.627193540334701538e-01
2.458000000000000000e+03 4.271538734436035156e+00 -2.362008571624755859e+00 6.932810544967651367e-01 3.994334042072296143e-01 3.278143405914306641e-01 1.846660375595092773e-01
2.459000000000000000e+03 2.693379878997802734e+00 -2.859643936157226562e+00 3.135149180889129639e-01 1.621195971965789795e-01 1.426903605461120605e-01 -1.302167475223541260e-01
2.460000000000000000e+03 2.966976642608642578e+00 -4.794122219085693359e+00 4.917612373828887939e-01 8.027648925781250000e-01 3.883578479290008545e-01 4.911770522594451904e-01
2.461000000000000000e+03 1.178125095367431641e+01 -2.106233835220336914e+00 1.170523166656494141e+00 1.862210273742675781e+01 5.937788009643554688e+00 -2.057640075683593750e+00
2.462000000000000000e+03 3.488644838333129883e+00 3.637399673461914062e+00 8.132464289665222168e-01 2.713757455348968506e-01 3.253866434097290039e-01 9.273301064968109131e-02
2.463000000000000000e+03 9.762832641601562500e+00 2.696817398071289062e+00 3.534314155578613281e+00 1.299207496643066406e+01 4.957916736602783203e+00 -4.209524154663085938e+00
2.464000000000000000e+03 1.149462509155273438e+01 5.429839611053466797e+00 1.748912692070007324e+00 1.625454521179199219e+01 5.401037216186523438e+00 -2.158388614654541016e+00
2.465000000000000000e+03 2.286923885345458984e+00 3.509280204772949219e+00 3.464908599853515625e-01 -1.903629451990127563e-01 4.683837667107582092e-02 3.779112994670867920e-01
2.466000000000000000e+03 2.558497905731201172e+00 2.475797891616821289e+00 1.536301672458648682e-01 -1.532829254865646362e-01 1.041730647557415068e-04 6.057419180870056152e-01
2.467000000000000000e+03 5.206097602844238281e+00 2.566462993621826172e+00 1.159645080566406250e+00 4.319675266742706299e-01 4.774837791919708252e-01 -3.834974393248558044e-02
2.468000000000000000e+03 1.005827045440673828e+01 3.086919307708740234e+00 3.663874387741088867e+00 1.451233482360839844e+01 5.452862739562988281e+00 -3.642048358917236328e+00
2.469000000000000000e+03 1.079558086395263672e+01 2.682056188583374023e+00 3.837290763854980469e+00 1.853350639343261719e+01 6.711238861083984375e+00 -2.171701669692993164e+00
2.470000000000000000e+03 2.232311964035034180e+00 -3.004345178604125977e+00 2.610278129577636719e-01 4.493057727813720703e-02 9.178751707077026367e-02 -1.665156483650207520e-01
2.471000000000000000e+03 2.739046812057495117e+00 -3.738147974014282227e+00 4.056054055690765381e-01 3.574155271053314209e-01 2.289062887430191040e-01 8.031395077705383301e-02
2.472000000000000000e+03 4.727799415588378906e+00 -2.858528852462768555e+00 1.008506178855895996e+00 7.698216438293457031e-01 5.334983468055725098e-01 5.787515044212341309e-01
2.473000000000000000e+03 1.324884128570556641e+01 -8.786259889602661133e-01 3.772874355316162109e+00 1.643665122985839844e+01 6.062857627868652344e+00 -3.728002309799194336e+00
2.474000000000000000e+03 1.228703784942626953e+01 2.691761970520019531e+00 7.434016704559326172e+00 2.404509162902832031e+01 9.443733215332031250e+00 2.092944145202636719e+00
2.475000000000000000e+03 3.619436740875244141e+00 3.251596212387084961e+00 8.404031991958618164e-01 2.505297660827636719e-01 3.272798955440521240e-01 2.209699898958206177e-01
2.476000000000000000e+03 3.048896551132202148e+00 3.412158727645874023e+00 6.082116961479187012e-01 1.156646013259887695e-01 2.171628922224044800e-01 2.967800498008728027e-01
2.477000000000000000e+03 3.976055860519409180e+00 3.263188600540161133e+00 9.755008220672607422e-01 3.282198607921600342e-01 3.911162018775939941e-01 1.123850047588348389e-01
2.478000000000000000e+03 5.882133483886718750e+00 -3.267331361770629883e+00 1.633915185928344727e+00 1.840437650680541992e+00 1.042305827140808105e+00 1.650912523269653320e+00
2.479000000000000000e+03 4.234936237335205078e+00 8.883439064025878906e+00 4.781432747840881348e-01 3.349665403366088867e+00 1.148342609405517578e+00 -2.115717172622680664e+00
2.480000000000000000e+03 4.985793590545654297e+00 8.890137672424316406e+00 5.013517141342163086e-01 3.982392787933349609e+00 1.345123291015625000e+00 -2.441313266754150391e+00
2.481000000000000000e+03 1.412030124664306641e+01 -1.899792790412902832e+00 2.145547866821289062e+00 1.245533561706542969e+01 4.380265235900878906e+00 -5.125644683837890625e+00
2.482000000000000000e+03 1.362509059906005859e+01 -1.303934693336486816e+00 2.583799123764038086e+00 1.477452754974365234e+01 5.207498073577880859e+00 -4.598958969116210938e+00
2.483000000000000000e+03 1.246913909912109375e+01 -1.965694427490234375e+00 1.751517057418823242e+00 1.722241020202636719e+01 5.692178249359130859e+00 -3.333435773849487305e+00
2.484000000000000000e+03 3.485553503036499023e+00 -3.771984815597534180e+00 6.856918931007385254e-01 6.931399106979370117e-01 4.136495292186737061e-01 3.822188079357147217e-01
2.485000000000000000e+03 4.798524379730224609e+00 6.320418834686279297e+00 1.400138497352600098e+00 2.561342477798461914e+00 1.188444256782531738e+00 -1.871580600738525391e+00
2.486000000000000000e+03 3.467855215072631836e+00 5.653060913085937500e+00 9.707195758819580078e-01 1.151001811027526855e+00 6.365163922309875488e-01 -8.749093413352966309e-01
2.487000000000000000e+03 1.177620887756347656e+01 -2.717891931533813477e+00 -3.794026747345924377e-02 1.726999855041503906e+01 5.169617176055908203e+00 -1.601779937744140625e+00
2.488000000000000000e+03 3.727454662322998047e+00 -6.082095623016357422e+00 4.939259588718414307e-01 1.745516657829284668e+00 6.718327999114990234e-01 1.024302601814270020e+00
2.489000000000000000e+03 4.742247104644775391e+00 -7.439741611480712891e+00 2.434710264205932617e-01 3.047448873519897461e+00 9.872759580612182617e-01 1.484976649284362793e+00
2.490000000000000000e+03 4.400613784790039062e+00 7.989771842956542969e+00 7.007945179939270020e-01 3.044914245605468750e+00 1.123712658882141113e+00 -2.081026554107666016e+00
2.491000000000000000e+03 5.398698329925537109e+00 -1.100729751586914062e+01 -2.626657783985137939e-01 4.101240158081054688e+00 1.151572227478027344e+00 1.276245832443237305e+00
2.492000000000000000e+03 5.270427703857421875e+00 -1.004468631744384766e+01 -1.905110478401184082e-01 3.947581291198730469e+00 1.127121090888977051e+00 1.371412873268127441e+00
2.493000000000000000e+03 2.755809545516967773e+00 3.931593656539916992e+00 5.777562856674194336e-01 7.035708427429199219e-02 1.944340020418167114e-01 1.353149414062500000e-01
2.494000000000000000e+03 3.329668807983398438e+01 3.477634668350219727e+00 1.526026707142591476e-02 6.292821168899536133e-01 1.933627277612686157e-01 1.537179797887802124e-01
2.495000000000000000e+03 3.720050811767578125e+01 6.155983924865722656e+00 -8.125418424606323242e-02 1.301350593566894531e+00 3.660289049148559570e-01 3.162424862384796143e-01
2.496000000000000000e+03 1.114975547790527344e+01 7.111558437347412109e+00 1.847488284111022949e-01 1.318400859832763672e+01 4.010627269744873047e+00 -2.384713411331176758e+00
2.497000000000000000e+03 1.059883975982666016e+01 4.314829349517822266e+00 3.071093559265136719e+00 1.510327339172363281e+01 5.452310085296630859e+00 -3.285401344299316406e+00
2.498000000000000000e+03 7.403086185455322266e+00 1.379521942138671875e+01 -8.416751027107238770e-01 6.486361026763916016e+00 1.693405747413635254e+00 -2.054192781448364258e+00
2.499000000000000000e+03 1.163850402832031250e+01 1.673355293273925781e+01 -1.321325063705444336e+00 6.742933750152587891e+00 1.626482725143432617e+00 -7.468019723892211914e-01
2.500000000000000000e+03 1.561182308197021484e+01 -8.909768104553222656e+00 3.002224564552307129e-01 7.477624893188476562e+00 2.333354234695434570e+00 -2.293330669403076172e+00
2.501000000000000000e+03 1.528793239593505859e+01 -6.955339431762695312e+00 8.383602648973464966e-02 8.160853385925292969e+00 2.473406791687011719e+00 -3.157143354415893555e+00
2.502000000000000000e+03 4.063002014160156250e+01 1.347976589202880859e+01 -8.340259641408920288e-02 1.672839045524597168e+00 4.768309295177459717e-01 5.936242938041687012e-01
2.503000000000000000e+03 4.967963409423828125e+01 1.916037940979003906e+01 -2.059461474418640137e-01 4.922208309173583984e+00 1.414878726005554199e+00 1.428785920143127441e+00
2.504000000000000000e+03 5.791289806365966797e+00 1.159630966186523438e+01 -2.703309059143066406e-01 5.473413467407226562e+00 1.560924887657165527e+00 -2.481648445129394531e+00
2.505000000000000000e+03 1.155187320709228516e+01 8.308228492736816406e+00 -7.209177017211914062e-01 1.194906902313232422e+01 3.368445396423339844e+00 -1.368255496025085449e+00
2.506000000000000000e+03 1.703763580322265625e+01 -1.948364257812500000e+01 -2.538094222545623779e-01 5.189723014831542969e+00 1.480774044990539551e+00 -6.144169569015502930e-01
2.507000000000000000e+03 1.854365730285644531e+01 -1.629523468017578125e+01 7.759785652160644531e-02 5.548441886901855469e+00 1.687811970710754395e+00 -1.194737315177917480e+00
2.508000000000000000e+03 5.165887832641601562e+00 9.716789245605468750e+00 2.553571164608001709e-01 4.501026153564453125e+00 1.426915049552917480e+00 -2.483153343200683594e+00
2.509000000000000000e+03 3.850728607177734375e+01 -6.944519996643066406e+00 6.300183013081550598e-03 1.988028526306152344e+00 5.982986092567443848e-01 -1.127164587378501892e-01
2.510000000000000000e+03 3.954437637329101562e+01 -1.146150970458984375e+01 -8.412586152553558350e-02 2.298863887786865234e+00 6.644214391708374023e-01 -2.683789134025573730e-01
2.511000000000000000e+03 5.365280914306640625e+01 2.203739738464355469e+01 -4.523109495639801025e-01 7.035987854003906250e+00 1.975103139877319336e+00 1.257235765457153320e+00
2.512000000000000000e+03 5.589892959594726562e+01 2.443445396423339844e+01 -3.917461037635803223e-01 8.563511848449707031e+00 2.451529979705810547e+00 9.191104173660278320e-01
2.513000000000000000e+03 2.071911811828613281e+01 -2.073850822448730469e+01 1.555455196648836136e-02 4.421613693237304688e+00 1.331150412559509277e+00 -1.039402961730957031e+00
2.514000000000000000e+03 2.136131286621093750e+01 -2.742285537719726562e+01 -4.962539300322532654e-02 3.708054780960083008e+00 1.097528815269470215e+00 -6.072381734848022461e-01
2.515000000000000000e+03 1.564943695068359375e+01 -1.368371105194091797e+01 -8.712736517190933228e-02 6.350986480712890625e+00 1.879157781600952148e+00 -9.486238956451416016e-01
2.516000000000000000e+03 7.295090484619140625e+01 1.495614147186279297e+01 -1.916930973529815674e-01 8.200751304626464844e+00 2.402717351913452148e+00 -5.348430275917053223e-01
2.517000000000000000e+03 1.918097114562988281e+01 -2.481572341918945312e+01 -1.612734645605087280e-01 4.233044147491455078e+00 1.221531152725219727e+00 -5.691498517990112305e-01
2.518000000000000000e+03 3.894377517700195312e+01 -1.049525451660156250e+01 -6.354872882366180420e-02 2.147135972976684570e+00 6.250761747360229492e-01 -2.570688426494598389e-01
2.519000000000000000e+03 1.011532783508300781e+01 -2.271530342102050781e+01 -3.288971781730651855e-01 4.773806095123291016e+00 1.333472728729248047e+00 2.935545146465301514e-01
2.520000000000000000e+03 5.580438613891601562e+00 1.261409187316894531e+01 -4.487173855304718018e-01 5.414644718170166016e+00 1.489778161048889160e+00 -2.267340183258056641e+00
2.521000000000000000e+03 5.532480239868164062e+00 1.061649513244628906e+01 -8.437061309814453125e-02 5.080046176910400391e+00 1.498702645301818848e+00 -2.559678077697753906e+00
2.522000000000000000e+03 3.778919219970703125e+01 -8.459842681884765625e+00 1.269246730953454971e-02 1.821553945541381836e+00 5.502738952636718750e-01 -1.819393932819366455e-01
2.523000000000000000e+03 6.530937194824218750e+00 -1.831262588500976562e+01 -2.935907244682312012e-01 4.523609161376953125e+00 1.269005537033081055e+00 6.513018608093261719e-01
2.524000000000000000e+03 5.799094009399414062e+01 2.561149787902832031e+01 -3.124567568302154541e-01 9.182803153991699219e+00 2.661103963851928711e+00 2.819281816482543945e-01
2.525000000000000000e+03 4.780266952514648438e+01 -2.382123947143554688e+01 -2.353338897228240967e-01 5.595519542694091797e+00 1.608055710792541504e+00 -1.345620751380920410e-01
2.526000000000000000e+03 4.699913024902343750e+01 -2.208029365539550781e+01 -2.879484593868255615e-01 5.137952804565429688e+00 1.455001354217529297e+00 -2.460183948278427124e-01
2.527000000000000000e+03 7.290631866455078125e+01 2.212900924682617188e+01 -9.214114397764205933e-02 7.907362937927246094e+00 2.344566583633422852e+00 -8.152153491973876953e-01
2.528000000000000000e+03 7.237528991699218750e+01 -1.912436676025390625e+01 -4.263280332088470459e-02 7.692776679992675781e+00 2.295042991638183594e+00 4.806703925132751465e-01
2.529000000000000000e+03 7.270018005371093750e+01 -2.546906280517578125e+01 2.090432867407798767e-02 7.449227333068847656e+00 2.241039514541625977e+00 4.789564311504364014e-01
2.530000000000000000e+03 5.076915359497070312e+01 2.032131958007812500e+01 -2.332112193107604980e-01 5.504677295684814453e+00 1.581439852714538574e+00 1.507313251495361328e+00
2.531000000000000000e+03 4.836539459228515625e+01 2.026233482360839844e+01 2.580459229648113251e-02 4.257802963256835938e+00 1.285082221031188965e+00 1.512405514717102051e+00
2.532000000000000000e+03 7.273862457275390625e+01 -1.245065480470657349e-01 -1.356875598430633545e-01 8.269809722900390625e+00 2.440236806869506836e+00 5.532188341021537781e-02
2.533000000000000000e+03 7.118192291259765625e+01 -4.910913944244384766e+00 -1.517097651958465576e-01 7.990405559539794922e+00 2.351608753204345703e+00 2.238044440746307373e-01
2.534000000000000000e+03 7.288531494140625000e+01 4.032205581665039062e+00 -1.505609154701232910e-01 8.324013710021972656e+00 2.452035665512084961e+00 -8.060333877801895142e-02
2.535000000000000000e+03 7.264356231689453125e+01 1.271307706832885742e+00 -1.460610032081604004e-01 8.273296356201171875e+00 2.438170671463012695e+00 1.427029538899660110e-02
2.536000000000000000e+03 1.010005378723144531e+01 -2.429736328125000000e+01 -2.907870411872863770e-01 4.671648979187011719e+00 1.314258575439453125e+00 2.642967104911804199e-01
2.537000000000000000e+03 1.501218223571777344e+01 -1.036351776123046875e+01 -2.210083790123462677e-02 7.286671638488769531e+00 2.179371118545532227e+00 -1.614422321319580078e+00
2.538000000000000000e+03 1.560993480682373047e+01 -1.252072048187255859e+01 1.421868568286299706e-03 6.638030529022216797e+00 1.991835713386535645e+00 -1.175834655761718750e+00
2.539000000000000000e+03 4.593619155883789062e+01 -2.060547637939453125e+01 -3.074996769428253174e-01 4.664501190185546875e+00 1.307100534439086914e+00 -3.335737586021423340e-01
2.540000000000000000e+03 8.234023094177246094e+00 -1.876302528381347656e+01 -3.765413761138916016e-01 4.845577239990234375e+00 1.340710639953613281e+00 5.747845172882080078e-01
2.541000000000000000e+03 7.726224422454833984e+00 -2.472733116149902344e+01 -2.192311286926269531e-01 4.565713882446289062e+00 1.303944826126098633e+00 3.418491780757904053e-01
2.542000000000000000e+03 6.483798980712890625e+00 -1.187008094787597656e+01 -4.079411327838897705e-01 4.746695041656494141e+00 1.301626205444335938e+00 1.182154655456542969e+00
2.543000000000000000e+03 6.212749958038330078e+00 -1.090094852447509766e+01 -3.559698462486267090e-01 4.609745025634765625e+00 1.276132583618164062e+00 1.302744746208190918e+00
2.544000000000000000e+03 7.206218719482421875e+01 2.552386283874511719e+01 -1.976106083020567894e-03 7.843109607696533203e+00 2.352339982986450195e+00 -8.899083137512207031e-01
2.545000000000000000e+03 6.645260810852050781e+00 2.325826263427734375e+01 -4.214231371879577637e-01 6.058402061462402344e+00 1.691093683242797852e+00 -7.798556089401245117e-01
2.546000000000000000e+03 7.119681549072265625e+01 -2.327740097045898438e+01 -1.369293197058141232e-03 7.449620723724365234e+00 2.234475374221801758e+00 5.465532541275024414e-01
2.547000000000000000e+03 7.301388549804687500e+01 -1.500931262969970703e+01 -6.668732315301895142e-02 7.919957160949707031e+00 2.355981111526489258e+00 3.980513811111450195e-01
2.548000000000000000e+03 7.186508941650390625e+01 -1.611377906799316406e+01 -6.836512684822082520e-02 7.768572330474853516e+00 2.310062170028686523e+00 4.511446952819824219e-01
2.549000000000000000e+03 7.185092926025390625e+01 -6.659716129302978516e+00 -1.280245333909988403e-01 8.047829627990722656e+00 2.375941514968872070e+00 2.551998496055603027e-01
2.550000000000000000e+03 7.298501586914062500e+01 6.734916210174560547e+00 -1.634978502988815308e-01 8.332982063293457031e+00 2.450845241546630859e+00 -1.811946034431457520e-01
2.551000000000000000e+03 7.013590240478515625e+01 4.329204559326171875e+00 -2.581832706928253174e-01 8.009775161743164062e+00 2.325477600097656250e+00 -7.295977324247360229e-02
2.552000000000000000e+03 7.184423828125000000e+01 -9.499571800231933594e+00 -1.156754493713378906e-01 7.960404872894287109e+00 2.353418827056884766e+00 3.319717049598693848e-01
2.553000000000000000e+03 7.297825622558593750e+01 1.355947589874267578e+01 -1.856801211833953857e-01 8.237010002136230469e+00 2.415399074554443359e+00 -4.789010584354400635e-01
2.554000000000000000e+03 7.171274566650390625e+01 1.349951744079589844e+01 -2.522158026695251465e-01 8.181664466857910156e+00 2.378834724426269531e+00 -4.886217713356018066e-01
2.555000000000000000e+03 7.169862365722656250e+01 -2.616859912872314453e+00 -1.474930047988891602e-01 8.110899925231933594e+00 2.389022111892700195e+00 1.473243832588195801e-01
2.556000000000000000e+03 7.284709930419921875e+01 1.924907493591308594e+01 -1.515511274337768555e-01 8.052589416503906250e+00 2.370311498641967773e+00 -7.326722145080566406e-01
2.557000000000000000e+03 7.029309082031250000e+01 1.766645622253417969e+01 -2.976618409156799316e-01 8.142182350158691406e+00 2.353356361389160156e+00 -6.988282799720764160e-01
2.558000000000000000e+03 9.089468955993652344e+00 1.524062538146972656e+01 -1.157193779945373535e+00 6.911345958709716797e+00 1.726245760917663574e+00 -1.586720585823059082e+00
2.559000000000000000e+03 4.186164093017578125e+01 -1.620101737976074219e+01 -1.777805387973785400e-01 3.101652622222900391e+00 8.771615624427795410e-01 -4.182958304882049561e-01
2.560000000000000000e+03 4.104193496704101562e+01 -1.510102748870849609e+01 -1.284481137990951538e-01 2.824062108993530273e+00 8.086842298507690430e-01 -3.747160732746124268e-01
2.561000000000000000e+03 8.253000259399414062e+00 1.788833618164062500e+01 -9.317261576652526855e-01 6.256466388702392578e+00 1.597422122955322266e+00 -1.331709742546081543e+00
2.562000000000000000e+03 7.295045471191406250e+01 -1.231116199493408203e+01 -7.658794522285461426e-02 8.013123512268066406e+00 2.380960702896118164e+00 3.498981893062591553e-01
2.563000000000000000e+03 3.832577514648437500e+01 -9.492086410522460938e+00 -1.218646671622991562e-02 1.996791720390319824e+00 5.953815579414367676e-01 -2.169397622346878052e-01
2.564000000000000000e+03 4.023273086547851562e+01 -1.406632995605468750e+01 -1.249854043126106262e-01 2.554422140121459961e+00 7.288310527801513672e-01 -3.676801919937133789e-01
2.565000000000000000e+03 7.151652526855468750e+01 -1.213564872741699219e+01 -1.133404076099395752e-01 7.860912799835205078e+00 2.324271678924560547e+00 3.996340632438659668e-01
2.566000000000000000e+03 1.180495738983154297e+01 3.030867958068847656e+01 -3.722805678844451904e-01 5.023480892181396484e+00 1.395359992980957031e+00 -2.297424823045730591e-01
2.567000000000000000e+03 7.173133850097656250e+01 1.212682723999023438e+01 -2.413944602012634277e-01 8.191823959350585938e+00 2.385128974914550781e+00 -4.299078583717346191e-01
2.568000000000000000e+03 7.284362792968750000e+01 2.070472145080566406e+01 -1.265258938074111938e-01 7.986726284027099609e+00 2.358060121536254883e+00 -7.715145349502563477e-01
2.569000000000000000e+03 3.729364013671875000e+01 -7.394645214080810547e+00 6.379126012325286865e-02 1.680572271347045898e+00 5.233090519905090332e-01 -1.570976078510284424e-01
2.570000000000000000e+03 1.940530014038085938e+01 1.742189216613769531e+01 -6.177363991737365723e-01 3.554961442947387695e+00 8.811675310134887695e-01 7.159733772277832031e-01
2.571000000000000000e+03 1.855593109130859375e+01 1.846342277526855469e+01 -7.711799740791320801e-01 4.034000396728515625e+00 9.788460731506347656e-01 5.639879703521728516e-01
2.572000000000000000e+03 1.368422508239746094e+01 1.383384704589843750e+01 -1.297165751457214355e+00 7.296809196472167969e+00 1.799892902374267578e+00 1.124452948570251465e-01
2.573000000000000000e+03 1.565760135650634766e+01 1.411552143096923828e+01 -1.001962900161743164e+00 6.393595695495605469e+00 1.617489814758300781e+00 7.984445095062255859e-01
2.574000000000000000e+03 2.141531181335449219e+01 -2.527631950378417969e+01 -1.909587904810905457e-02 3.828232288360595703e+00 1.142740845680236816e+00 -7.519526481628417969e-01
2.575000000000000000e+03 6.890596771240234375e+01 -3.019406890869140625e+01 1.620543152093887329e-01 7.126189231872558594e+00 2.186473131179809570e+00 5.351908802986145020e-01
2.576000000000000000e+03 7.112879943847656250e+01 -1.849987220764160156e+01 -6.232899799942970276e-02 7.618270874023437500e+00 2.266782522201538086e+00 5.162193179130554199e-01
2.577000000000000000e+03 7.216707611083984375e+01 -8.371604919433593750e+00 -1.129226833581924438e-01 8.026703834533691406e+00 2.374134302139282227e+00 2.951324582099914551e-01
2.578000000000000000e+03 1.351581478118896484e+01 1.223779296875000000e+01 -1.242705225944519043e+00 8.174593925476074219e+00 2.079566717147827148e+00 1.939140558242797852e-01
2.579000000000000000e+03 1.136570549011230469e+01 1.227853679656982422e+01 -1.393939971923828125e+00 8.611218452453613281e+00 2.165183544158935547e+00 -9.797357320785522461e-01
2.580000000000000000e+03 3.941418075561523438e+01 8.584559440612792969e+00 -1.281592547893524170e-01 1.706078529357910156e+00 4.733757972717285156e-01 4.538988471031188965e-01
2.581000000000000000e+03 4.043772888183593750e+01 7.729505538940429688e+00 -1.434790939092636108e-01 2.017707109451293945e+00 5.622683763504028320e-01 5.006261467933654785e-01
2.582000000000000000e+03 3.198978614807128906e+01 1.500570774078369141e+00 2.015691399574279785e-01 4.288666546344757080e-01 1.891307383775711060e-01 1.515271216630935669e-01
2.583000000000000000e+03 7.014922332763671875e+01 -2.840675735473632812e+01 1.006697565317153931e-01 7.229865550994873047e+00 2.199160575866699219e+00 5.330830812454223633e-01
2.584000000000000000e+03 2.031537818908691406e+01 2.048127937316894531e+01 -6.388500928878784180e-01 3.119720935821533203e+00 7.442612051963806152e-01 4.108139872550964355e-01
2.585000000000000000e+03 1.943621063232421875e+01 1.944944763183593750e+01 -7.172135710716247559e-01 3.510536193847656250e+00 8.379967808723449707e-01 4.905732870101928711e-01
2.586000000000000000e+03 7.149510955810546875e+01 2.662715721130371094e+01 7.050760835409164429e-02 7.872879981994628906e+00 2.383016347885131836e+00 -9.260486960411071777e-01
2.587000000000000000e+03 4.057989501953125000e+01 1.155281639099121094e+01 -1.346024721860885620e-01 1.818668961524963379e+00 5.052199363708496094e-01 5.701510310173034668e-01
2.588000000000000000e+03 4.277441787719726562e+01 1.352933311462402344e+01 -1.208510920405387878e-01 2.353564739227294922e+00 6.698140501976013184e-01 7.759466171264648438e-01
2.589000000000000000e+03 3.635167312622070312e+01 1.173740386962890625e+00 9.502813965082168579e-02 1.323119640350341797e+00 4.254443347454071045e-01 2.017142027616500854e-01
2.590000000000000000e+03 4.658075332641601562e+01 -2.578118705749511719e+01 -1.508300900459289551e-01 5.619349002838134766e+00 1.640555739402770996e+00 -4.083831906318664551e-01
2.591000000000000000e+03 7.054165649414062500e+01 2.690964043140411377e-01 -2.044618725776672363e-01 8.005922317504882812e+00 2.340438127517700195e+00 7.040473818778991699e-02
2.592000000000000000e+03 7.874042034149169922e+00 -2.114625358581542969e+01 -2.933476865291595459e-01 4.667632579803466797e+00 1.312285423278808594e+00 4.787412583827972412e-01
2.593000000000000000e+03 8.585276603698730469e+00 -2.276128768920898438e+01 -2.909903824329376221e-01 4.685636043548583984e+00 1.318393707275390625e+00 3.833392858505249023e-01
2.594000000000000000e+03 3.156569671630859375e+01 3.439476251602172852e+00 2.298099733889102936e-02 3.475810289382934570e-01 1.111686080694198608e-01 1.176479458808898926e-01
2.595000000000000000e+03 3.241228485107421875e+01 2.673941612243652344e+00 8.602014929056167603e-02 4.648260474205017090e-01 1.652538627386093140e-01 1.245130375027656555e-01
2.596000000000000000e+03 1.218218517303466797e+01 1.287481594085693359e+01 -1.427664995193481445e+00 8.144298553466796875e+00 2.014990091323852539e+00 -6.534221768379211426e-01
2.597000000000000000e+03 7.167015838623046875e+01 6.773410797119140625e+00 -2.114170342683792114e-01 8.195231437683105469e+00 2.395144224166870117e+00 -1.863802969455718994e-01
2.598000000000000000e+03 7.058190155029296875e+01 -6.007812500000000000e+00 -1.660197377204895020e-01 7.891831874847412109e+00 2.317743539810180664e+00 2.687731087207794189e-01
2.599000000000000000e+03 4.472036743164062500e+01 -1.947296524047851562e+01 -2.514748275279998779e-01 4.196499824523925781e+00 1.183507442474365234e+00 -3.947359621524810791e-01
2.600000000000000000e+03 4.376247406005859375e+01 -1.630460739135742188e+01 -2.637899518013000488e-01 3.662997722625732422e+00 1.019762277603149414e+00 -3.420409858226776123e-01
2.601000000000000000e+03 2.648669624328613281e+01 2.734441184997558594e+01 -4.177948832511901855e-01 1.188170909881591797e+00 2.311128228902816772e-01 -2.985633350908756256e-02
2.602000000000000000e+03 2.481010246276855469e+01 2.680821418762207031e+01 -4.492048025131225586e-01 1.632648348808288574e+00 3.550330698490142822e-01 7.660329341888427734e-02
2.603000000000000000e+03 3.833674240112304688e+01 7.427794456481933594e+00 -1.128777563571929932e-01 1.506940126419067383e+00 4.182187020778656006e-01 3.885522484779357910e-01
2.604000000000000000e+03 8.646313667297363281e+00 2.887674140930175781e+01 -3.435350060462951660e-01 5.728690147399902344e+00 1.615546464920043945e+00 -3.757612407207489014e-01
2.605000000000000000e+03 7.176488494873046875e+01 -1.496656799316406250e+01 -9.076396375894546509e-02 7.791978836059570312e+00 2.310364484786987305e+00 4.452824890613555908e-01
2.606000000000000000e+03 3.046691322326660156e+01 3.487917327880859375e+01 -3.320752084255218506e-01 5.754507780075073242e-01 7.301267981529235840e-02 -1.233791112899780273e-01
2.607000000000000000e+03 6.861064434051513672e+00 -1.292122840881347656e+01 -4.503849446773529053e-01 4.849943637847900391e+00 1.319867610931396484e+00 1.049103498458862305e+00
2.608000000000000000e+03 7.032176971435546875e+01 -2.088860130310058594e+01 -2.953186817467212677e-02 7.462472438812255859e+00 2.229882001876831055e+00 5.637522339820861816e-01
2.609000000000000000e+03 7.157231903076171875e+01 -2.031909942626953125e+01 -3.200658783316612244e-02 7.607078552246093750e+00 2.272521495819091797e+00 5.057765841484069824e-01
2.610000000000000000e+03 2.181975746154785156e+01 -3.028907394409179688e+01 -1.529355812817811966e-02 3.456066131591796875e+00 1.032231807708740234e+00 -5.000143647193908691e-01
2.611000000000000000e+03 3.447319030761718750e+01 4.184666633605957031e+00 2.768681617453694344e-03 8.129574656486511230e-01 2.447178363800048828e-01 1.976210772991180420e-01
2.612000000000000000e+03 3.585903930664062500e+01 5.060873508453369141e+00 -4.524395614862442017e-02 1.066725850105285645e+00 3.064445555210113525e-01 2.523522675037384033e-01
2.613000000000000000e+03 9.743611335754394531e+00 3.379045104980468750e+01 -2.073527425527572632e-01 5.471175193786621094e+00 1.579146742820739746e+00 -1.806663721799850464e-01
2.614000000000000000e+03 2.315168762207031250e+01 2.628675079345703125e+01 -4.901831150054931641e-01 2.139062643051147461e+00 4.946638643741607666e-01 9.616810828447341919e-02
2.615000000000000000e+03 5.886862564086914062e+01 2.902995872497558594e+01 4.931191504001617432e-01 1.018844509124755859e+01 3.204469203948974609e+00 -3.268359974026679993e-02
2.616000000000000000e+03 6.972850036621093750e+01 -2.601043128967285156e+01 5.696777626872062683e-02 7.278813362121582031e+00 2.200734376907348633e+00 5.759900212287902832e-01
2.617000000000000000e+03 7.295631408691406250e+01 2.944880485534667969e+01 1.191555559635162354e-01 7.526283740997314453e+00 2.293631792068481445e+00 -7.676597237586975098e-01
2.618000000000000000e+03 2.016908454895019531e+01 2.258794784545898438e+01 -6.615783572196960449e-01 3.137517213821411133e+00 7.427816390991210938e-01 2.841416597366333008e-01
2.619000000000000000e+03 4.162606048583984375e+01 -1.826998519897460938e+01 -1.243699714541435242e-01 3.102071523666381836e+00 8.933104276657104492e-01 -5.376129746437072754e-01
2.620000000000000000e+03 4.746030044555664062e+01 1.934123992919921875e+01 8.015122264623641968e-03 3.800954341888427734e+00 1.142690777778625488e+00 1.396206736564636230e+00
2.621000000000000000e+03 5.203767395019531250e+01 2.021878623962402344e+01 -4.141138494014739990e-01 6.089404582977294922e+00 1.702587246894836426e+00 1.331555724143981934e+00
2.622000000000000000e+03 1.642416191101074219e+01 1.602419281005859375e+01 -9.548600316047668457e-01 5.377151489257812500e+00 1.326687455177307129e+00 6.191433072090148926e-01
2.623000000000000000e+03 1.658195686340332031e+01 1.733850669860839844e+01 -1.007080554962158203e+00 5.096439361572265625e+00 1.226807594299316406e+00 5.138342976570129395e-01
2.624000000000000000e+03 7.162099456787109375e+01 -2.940861511230468750e+01 9.216324239969253540e-02 7.248992919921875000e+00 2.202346801757812500e+00 4.754759967327117920e-01
2.625000000000000000e+03 4.260265731811523438e+01 9.660606384277343750e+00 -1.901863068342208862e-01 2.525828599929809570e+00 7.006927132606506348e-01 6.572041511535644531e-01
2.626000000000000000e+03 7.679288387298583984e+00 2.766583442687988281e+01 -3.210825920104980469e-01 5.922903060913085938e+00 1.680546164512634277e+00 -4.370461404323577881e-01
2.627000000000000000e+03 8.833374023437500000e+00 2.633066558837890625e+01 -4.682966470718383789e-01 5.730430126190185547e+00 1.578639984130859375e+00 -4.996869862079620361e-01
2.628000000000000000e+03 3.512451171875000000e+01 -5.614236831665039062e+00 1.665178835391998291e-01 1.171291708946228027e+00 4.013428688049316406e-01 -1.250887066125869751e-01
2.629000000000000000e+03 3.389540481567382812e+01 -2.546008348464965820e+00 2.780452966690063477e-01 8.665762543678283691e-01 3.433864712715148926e-01 -4.092874936759471893e-03
2.630000000000000000e+03 9.013986587524414062e+00 -3.220626831054687500e+00 1.037356615066528320e+00 9.670299530029296875e+00 3.212296724319458008e+00 4.459865093231201172e+00
2.631000000000000000e+03 6.137615203857421875e+00 2.679886341094970703e+00 2.009748935699462891e+00 9.436211585998535156e-01 8.860110640525817871e-01 -7.461480498313903809e-01
2.632000000000000000e+03 6.390408039093017578e+00 2.974574327468872070e+00 2.504263877868652344e+00 1.430211663246154785e+00 1.180342674255371094e+00 -1.304977655410766602e+00
2.633000000000000000e+03 4.114901542663574219e+00 5.265543937683105469e+00 1.349179625511169434e+00 1.399476170539855957e+00 8.245967626571655273e-01 -1.064717650413513184e+00
2.634000000000000000e+03 8.271644592285156250e+00 2.885925054550170898e+00 3.940038442611694336e+00 5.200325965881347656e+00 2.742109298706054688e+00 -3.761167526245117188e+00
2.635000000000000000e+03 7.836095333099365234e+00 2.835276603698730469e+00 3.603009700775146484e+00 3.765374898910522461e+00 2.210515260696411133e+00 -2.959158897399902344e+00
2.636000000000000000e+03 7.601713180541992188e+00 3.502866983413696289e+00 3.241302967071533203e+00 4.081750392913818359e+00 2.196915864944458008e+00 -2.949575901031494141e+00
2.637000000000000000e+03 7.072625637054443359e+00 2.393231153488159180e+00 2.676918268203735352e+00 1.556229710578918457e+00 1.269944429397583008e+00 -1.406333327293395996e+00
2.638000000000000000e+03 7.931420326232910156e+00 -3.043549299240112305e+00 2.192831993103027344e+00 5.398823738098144531e+00 2.277496814727783203e+00 4.003788948059082031e+00
2.639000000000000000e+03 6.821415424346923828e+00 2.662378311157226562e+00 2.620462656021118164e+00 1.488515853881835938e+00 1.232693552970886230e+00 -1.360427737236022949e+00
2.640000000000000000e+03 7.182229995727539062e+00 -2.710101127624511719e+00 2.370052099227905273e+00 2.957243919372558594e+00 1.598188757896423340e+00 2.843208789825439453e+00
2.641000000000000000e+03 7.730634212493896484e+00 -2.688220977783203125e+00 2.615305662155151367e+00 4.181652069091796875e+00 2.039087295532226562e+00 3.713325738906860352e+00
2.642000000000000000e+03 6.407718658447265625e+00 -3.281147480010986328e+00 1.838676691055297852e+00 2.410324335098266602e+00 1.274700284004211426e+00 2.146275043487548828e+00
2.643000000000000000e+03 9.364724159240722656e+00 -3.238644838333129883e+00 6.098507046699523926e-01 1.119502258300781250e+01 3.541461944580078125e+00 4.301379203796386719e+00
2.644000000000000000e+03 9.963558197021484375e+00 -2.662686824798583984e+00 2.934088408946990967e-01 1.492095947265625000e+01 4.564310550689697266e+00 4.090117454528808594e+00
2.645000000000000000e+03 1.009076118469238281e+01 -3.050807714462280273e+00 -1.835453361272811890e-01 1.443259906768798828e+01 4.274715900421142578e+00 3.275163650512695312e+00
2.646000000000000000e+03 9.892004013061523438e+00 3.429724693298339844e+00 3.586549282073974609e+00 1.274139213562011719e+01 4.898382186889648438e+00 -4.094224452972412109e+00
2.647000000000000000e+03 8.944216728210449219e+00 2.837504148483276367e+00 3.968273878097534180e+00 8.404767990112304688e+00 3.711912631988525391e+00 -4.384712696075439453e+00
2.648000000000000000e+03 4.914617061614990234e+00 2.642699956893920898e+00 1.038356184959411621e+00 3.894428610801696777e-01 4.283397197723388672e-01 9.037888050079345703e-02
2.649000000000000000e+03 4.935267448425292969e+00 3.472819805145263672e+00 1.647620677947998047e+00 8.496193289756774902e-01 7.491719722747802734e-01 -4.843772947788238525e-01
2.650000000000000000e+03 4.970276832580566406e+00 -6.754881381988525391e+00 4.232526421546936035e-01 3.040702104568481445e+00 1.039186477661132812e+00 1.579849243164062500e+00
2.651000000000000000e+03 1.464962482452392578e+01 -5.468472957611083984e+00 -8.403056114912033081e-02 9.340681076049804688e+00 2.776995182037353516e+00 -3.702727079391479492e+00
2.652000000000000000e+03 1.197456741333007812e+01 -1.767400145530700684e+00 2.269302368164062500e+00 1.883270835876464844e+01 6.330603599548339844e+00 -2.416402816772460938e+00
2.653000000000000000e+03 1.152719402313232422e+01 -3.049768924713134766e+00 -5.304471254348754883e-01 1.648875236511230469e+01 4.787491798400878906e+00 -7.658756375312805176e-01
2.654000000000000000e+03 4.478459358215332031e+00 -3.014347553253173828e+00 9.631123542785644531e-01 7.498673200607299805e-01 5.138939023017883301e-01 5.367109179496765137e-01
2.655000000000000000e+03 3.902528047561645508e+00 -4.274044990539550781e+00 8.402161598205566406e-01 1.099848031997680664e+00 5.820192694664001465e-01 7.323744893074035645e-01
2.656000000000000000e+03 3.992453336715698242e+00 3.682530164718627930e+00 1.086234331130981445e+00 5.520129799842834473e-01 4.914742112159729004e-01 -1.180210709571838379e-01
2.657000000000000000e+03 1.129449748992919922e+01 3.193224906921386719e+00 4.350543022155761719e+00 1.911711311340332031e+01 7.040296554565429688e+00 -1.646930575370788574e+00
2.658000000000000000e+03 4.251423358917236328e+00 4.421820640563964844e+00 1.399831175804138184e+00 1.052791833877563477e+00 7.357869148254394531e-01 -6.793310642242431641e-01
2.659000000000000000e+03 1.201496124267578125e+01 -2.997057199478149414e+00 -1.892488300800323486e-01 1.616651916503906250e+01 4.793180942535400391e+00 -2.106529235839843750e+00
2.660000000000000000e+03 1.305661010742187500e+01 -2.129995822906494141e+00 1.721641421318054199e+00 1.534893321990966797e+01 5.121172428131103516e+00 -3.995414733886718750e+00
2.661000000000000000e+03 1.138875961303710938e+01 6.261559009552001953e+00 1.023129940032958984e+00 1.415118122100830078e+01 4.552293300628662109e+00 -2.178926467895507812e+00
2.662000000000000000e+03 1.040925598144531250e+01 3.167058944702148438e+00 3.650602579116821289e+00 1.556535148620605469e+01 5.764786243438720703e+00 -3.496637582778930664e+00
2.663000000000000000e+03 6.461455345153808594e+00 8.881746292114257812e+00 4.820370078086853027e-01 5.545440673828125000e+00 1.808243393898010254e+00 -2.880089282989501953e+00
2.664000000000000000e+03 5.598230361938476562e+00 8.776055335998535156e+00 5.674445629119873047e-01 4.601581096649169922e+00 1.550707817077636719e+00 -2.652322292327880859e+00
2.665000000000000000e+03 3.129904031753540039e+00 -4.075696945190429688e+00 6.316509246826171875e-01 6.826398372650146484e-01 3.942872285842895508e-01 3.884918391704559326e-01
2.666000000000000000e+03 1.041376972198486328e+01 8.842624664306640625e+00 -5.858143568038940430e-01 1.043794536590576172e+01 2.955639362335205078e+00 -2.303049087524414062e+00
2.667000000000000000e+03 3.865954637527465820e+00 4.218605995178222656e+00 1.177865624427795410e+00 6.857134699821472168e-01 5.590737462043762207e-01 -3.635677397251129150e-01
2.668000000000000000e+03 1.454136943817138672e+01 -3.676568746566772461e+00 5.435499548912048340e-01 1.047680568695068359e+01 3.306106805801391602e+00 -4.633635520935058594e+00
2.669000000000000000e+03 1.509643268585205078e+01 -3.192485809326171875e+00 1.111549735069274902e+00 8.687764167785644531e+00 2.939794063568115234e+00 -4.876745700836181641e+00
2.670000000000000000e+03 1.044758701324462891e+01 6.865720748901367188e+00 7.101730704307556152e-01 1.187799835205078125e+01 3.776451349258422852e+00 -2.965011119842529297e+00
2.671000000000000000e+03 5.272476673126220703e+00 -8.378461837768554688e+00 2.470938488841056824e-02 3.733299255371093750e+00 1.127402544021606445e+00 1.550452232360839844e+00
2.672000000000000000e+03 6.534743309020996094e+00 -7.975245475769042969e+00 -6.767303496599197388e-02 4.850711822509765625e+00 1.434911608695983887e+00 1.784139156341552734e+00
2.673000000000000000e+03 3.299116849899291992e+00 4.186425685882568359e+00 8.594551682472229004e-01 4.012048542499542236e-01 3.781979978084564209e-01 -1.008447185158729553e-01
2.674000000000000000e+03 1.138018226623535156e+01 3.866660118103027344e+00 4.125226020812988281e+00 1.786127471923828125e+01 6.595950603485107422e+00 -1.667679905891418457e+00
2.675000000000000000e+03 1.145619583129882812e+01 4.625766754150390625e+00 2.919276237487792969e+00 1.651985931396484375e+01 5.831740379333496094e+00 -2.644803762435913086e+00
2.676000000000000000e+03 1.226333713531494141e+01 -2.767063856124877930e+00 1.607812196016311646e-02 1.626650047302246094e+01 4.884773731231689453e+00 -2.516707658767700195e+00
2.677000000000000000e+03 4.453671455383300781e+00 5.815503597259521484e+00 1.422035932540893555e+00 1.895010828971862793e+00 9.951140284538269043e-01 -1.478182196617126465e+00
2.678000000000000000e+03 6.014925479888916016e+00 8.460618019104003906e+00 6.723904609680175781e-01 4.952504634857177734e+00 1.687468647956848145e+00 -2.850904703140258789e+00
2.679000000000000000e+03 1.488807868957519531e+01 -4.333503723144531250e+00 4.342174232006072998e-01 9.289429664611816406e+00 2.917093992233276367e+00 -4.326297283172607422e+00
2.680000000000000000e+03 1.492810153961181641e+01 -7.777810096740722656e+00 8.785688318312168121e-03 8.180826187133789062e+00 2.456883430480957031e+00 -2.636248111724853516e+00
2.681000000000000000e+03 5.563464641571044922e+00 8.261104583740234375e+00 7.528778910636901855e-01 4.256856441497802734e+00 1.502920269966125488e+00 -2.604712009429931641e+00
2.682000000000000000e+03 8.972070693969726562e+00 6.729599475860595703e+00 1.305984616279602051e+00 9.053651809692382812e+00 3.107891082763671875e+00 -3.758045434951782227e+00
2.683000000000000000e+03 3.139135599136352539e+00 -5.699308872222900391e+00 5.052878260612487793e-01 1.226338386535644531e+00 5.194878578186035156e-01 7.767184972763061523e-01
2.684000000000000000e+03 4.343556880950927734e+00 -6.441455364227294922e+00 4.647242426872253418e-01 2.335487604141235352e+00 8.400635719299316406e-01 1.306210994720458984e+00
2.685000000000000000e+03 1.416671657562255859e+01 -6.562835216522216797e+00 -4.346014857292175293e-01 9.324078559875488281e+00 2.666843175888061523e+00 -2.894721508026123047e+00
2.686000000000000000e+03 8.922845840454101562e+00 8.358020782470703125e+00 2.386253625154495239e-01 8.880727767944335938e+00 2.735805988311767578e+00 -3.245527029037475586e+00
2.687000000000000000e+03 5.902862071990966797e+00 9.379168510437011719e+00 3.074573874473571777e-01 5.038838863372802734e+00 1.603888869285583496e+00 -2.745517015457153320e+00
2.688000000000000000e+03 5.228204250335693359e+00 -9.169990539550781250e+00 -8.344209939241409302e-02 3.823058843612670898e+00 1.121884942054748535e+00 1.459240078926086426e+00
2.689000000000000000e+03 4.756734371185302734e+00 7.273853778839111328e+00 9.837583899497985840e-01 3.033503055572509766e+00 1.205178380012512207e+00 -2.088303565979003906e+00
2.690000000000000000e+03 5.913864612579345703e+00 -8.491723060607910156e+00 -6.481371074914932251e-02 4.311684131622314453e+00 1.274061203002929688e+00 1.628926992416381836e+00
2.691000000000000000e+03 7.180059814453125000e+01 -1.520459055900573730e+00 -1.489516198635101318e-01 8.148807525634765625e+00 2.399956703186035156e+00 1.160927712917327881e-01
2.692000000000000000e+03 7.009133911132812500e+01 -4.485367774963378906e+00 -1.893700510263442993e-01 7.866068840026855469e+00 2.303009510040283203e+00 2.397583276033401489e-01
2.693000000000000000e+03 7.111319732666015625e+01 1.506299495697021484e+00 -1.949155777692794800e-01 8.087921142578125000e+00 2.367901802062988281e+00 2.136652916669845581e-02
2.694000000000000000e+03 7.136199188232421875e+01 2.843209743499755859e+00 -1.949885338544845581e-01 8.137059211730957031e+00 2.382621049880981445e+00 -2.879801392555236816e-02
2.695000000000000000e+03 9.979850769042968750e+00 -1.926175308227539062e+01 -4.199096262454986572e-01 5.059403419494628906e+00 1.391848206520080566e+00 3.929558098316192627e-01
2.696000000000000000e+03 1.327629947662353516e+01 -1.742486000061035156e+01 -4.343407750129699707e-01 5.630036354064941406e+00 1.558708667755126953e+00 -9.757849574089050293e-02
2.697000000000000000e+03 9.545948028564453125e+00 1.763407135009765625e+01 -1.119944453239440918e+00 6.502075195312500000e+00 1.614639163017272949e+00 -1.183654665946960449e+00
2.698000000000000000e+03 5.425105285644531250e+01 2.043634796142578125e+01 -5.806796550750732422e-01 6.988547325134277344e+00 1.922360301017761230e+00 1.042907238006591797e+00
2.699000000000000000e+03 3.744882583618164062e+01 -4.739339828491210938e+00 8.690384775400161743e-02 1.652062535285949707e+00 5.216898918151855469e-01 -4.249552264809608459e-02
2.700000000000000000e+03 6.958361053466796875e+01 -5.308691024780273438e+00 -1.885845959186553955e-01 7.793085575103759766e+00 2.281350374221801758e+00 2.622897326946258545e-01
2.701000000000000000e+03 7.150543975830078125e+01 -3.760771274566650391e+00 -1.443104296922683716e-01 8.061544418334960938e+00 2.375170230865478516e+00 1.871023625135421753e-01
2.702000000000000000e+03 3.720443725585937500e+01 -9.049761295318603516e-02 9.802630543708801270e-02 1.502164483070373535e+00 4.800572395324707031e-01 1.657162755727767944e-01
2.703000000000000000e+03 3.505549240112304688e+01 3.164875268936157227e+00 5.358630418777465820e-02 9.308686256408691406e-01 2.953364849090576172e-01 2.050977498292922974e-01
2.704000000000000000e+03 3.791164016723632812e+01 -5.854620456695556641e+00 5.871734768152236938e-02 1.793957948684692383e+00 5.558025836944580078e-01 -6.955756992101669312e-02
2.705000000000000000e+03 7.292301177978515625e+00 -1.158024120330810547e+01 -5.009872913360595703e-01 5.217399597167968750e+00 1.414923667907714844e+00 1.144290328025817871e+00
2.706000000000000000e+03 1.877851104736328125e+01 -2.020339584350585938e+01 -1.413100212812423706e-01 4.860568523406982422e+00 1.415777564048767090e+00 -8.248816728591918945e-01
2.707000000000000000e+03 1.775937271118164062e+01 -1.779285430908203125e+01 -1.383983790874481201e-01 5.401466846466064453e+00 1.578920602798461914e+00 -8.523738980293273926e-01
2.708000000000000000e+03 2.022639083862304688e+01 -2.873996543884277344e+01 -8.513701707124710083e-02 3.750358581542968750e+00 1.099566459655761719e+00 -4.660688042640686035e-01
2.709000000000000000e+03 3.572930145263671875e+01 -3.908132076263427734e+00 1.751947253942489624e-01 1.254772663116455078e+00 4.289902150630950928e-01 -4.240683838725090027e-02
2.710000000000000000e+03 9.555592536926269531e+00 -2.541470909118652344e+01 -2.578931748867034912e-01 4.614969730377197266e+00 1.307122945785522461e+00 2.558487355709075928e-01
2.711000000000000000e+03 7.012084197998046875e+01 -1.040710544586181641e+01 -1.539384424686431885e-01 7.736571788787841797e+00 2.274790048599243164e+00 3.993845582008361816e-01
2.712000000000000000e+03 6.997685241699218750e+01 -1.190764236450195312e+01 -1.422455310821533203e-01 7.683207511901855469e+00 2.262288570404052734e+00 4.284059405326843262e-01
2.713000000000000000e+03 7.050200653076171875e+01 -2.374306678771972656e+00 -1.872048974037170410e-01 7.947359561920166016e+00 2.328046321868896484e+00 1.629187464714050293e-01
2.714000000000000000e+03 6.978685760498046875e+01 -1.493168640136718750e+01 -1.189522519707679749e-01 7.598871707916259766e+00 2.243975877761840820e+00 4.960808157920837402e-01
2.715000000000000000e+03 7.049441528320312500e+01 1.210447883605957031e+01 -3.101982772350311279e-01 8.121651649475097656e+00 2.343436002731323242e+00 -4.215134680271148682e-01
2.716000000000000000e+03 7.042296600341796875e+01 -1.675550460815429688e+01 -9.271906316280364990e-02 7.605444908142089844e+00 2.253817796707153320e+00 5.149039626121520996e-01
2.717000000000000000e+03 6.998516082763671875e+01 -1.795366287231445312e+01 -8.060064911842346191e-02 7.534736156463623047e+00 2.236240625381469727e+00 5.460570454597473145e-01
2.718000000000000000e+03 7.173116302490234375e+01 9.423887252807617188e+00 -2.282665669918060303e-01 8.202494621276855469e+00 2.392268419265747070e+00 -3.014917671680450439e-01
2.719000000000000000e+03 6.863602447509765625e+01 -2.738171005249023438e+01 9.575687348842620850e-02 7.183313369750976562e+00 2.183721065521240234e+00 6.010693907737731934e-01
2.720000000000000000e+03 7.012225341796875000e+01 2.718127632141113281e+01 1.118224188685417175e-01 8.094975471496582031e+00 2.462039232254028320e+00 -9.553657174110412598e-01
2.721000000000000000e+03 1.447331619262695312e+01 -1.167922973632812500e+01 -2.231641560792922974e-01 6.973252773284912109e+00 2.025026559829711914e+00 -1.071732997894287109e+00
2.722000000000000000e+03 8.094454765319824219e+00 1.641805648803710938e+01 -9.895163178443908691e-01 6.449657917022705078e+00 1.638042449951171875e+00 -1.585260033607482910e+00
2.723000000000000000e+03 7.556808948516845703e+00 1.468954849243164062e+01 -9.347391724586486816e-01 6.430305957794189453e+00 1.648670077323913574e+00 -1.896589040756225586e+00
2.724000000000000000e+03 4.562683868408203125e+01 1.530821800231933594e+01 -1.485051810741424561e-01 3.235292196273803711e+00 9.260361194610595703e-01 1.029049277305603027e+00
2.725000000000000000e+03 4.371841812133789062e+01 1.466797447204589844e+01 -8.405695110559463501e-02 2.593544244766235352e+00 7.528461813926696777e-01 8.732857108116149902e-01
2.726000000000000000e+03 9.911336898803710938e+00 2.752611732482910156e+01 -4.389704465866088867e-01 5.538297176361083984e+00 1.529798030853271484e+00 -4.165413081645965576e-01
2.727000000000000000e+03 1.624560546875000000e+01 2.375367927551269531e+01 -8.181566596031188965e-01 4.407384395599365234e+00 1.076768279075622559e+00 -1.178554724901914597e-02
2.728000000000000000e+03 1.626658630371093750e+01 -1.640590858459472656e+01 -1.953175216913223267e-01 5.750272274017333984e+00 1.666486382484436035e+00 -7.118434906005859375e-01
2.729000000000000000e+03 6.740090847015380859e+00 2.206707000732421875e+01 -5.101105570793151855e-01 6.036378383636474609e+00 1.657880306243896484e+00 -8.893289566040039062e-01
2.730000000000000000e+03 3.233622741699218750e+01 -1.101588726043701172e+00 3.309554159641265869e-01 5.450749397277832031e-01 2.628090977668762207e-01 4.701256006956100464e-02
2.731000000000000000e+03 1.461653804779052734e+01 -1.264683055877685547e+01 -2.132572382688522339e-01 6.679603576660156250e+00 1.939903974533081055e+00 -8.895512223243713379e-01
2.732000000000000000e+03 4.272336959838867188e+01 -1.730512619018554688e+01 -1.886429190635681152e-01 3.427633047103881836e+00 9.716970324516296387e-01 -4.215963780879974365e-01
2.733000000000000000e+03 3.890208816528320312e+01 -8.008885383605957031e+00 -8.066166192293167114e-03 2.106519937515258789e+00 6.295361518859863281e-01 -1.450634151697158813e-01
2.734000000000000000e+03 7.151036834716796875e+01 -5.008664727210998535e-01 -1.727243214845657349e-01 8.109898567199707031e+00 2.381152391433715820e+00 8.006744831800460815e-02
2.735000000000000000e+03 4.265094375610351562e+01 1.153093147277832031e+01 -1.702705621719360352e-01 2.418811559677124023e+00 6.745623350143432617e-01 7.119143605232238770e-01
2.736000000000000000e+03 4.165592193603515625e+01 1.253596687316894531e+01 -1.104390323162078857e-01 2.069192171096801758e+00 5.876259207725524902e-01 6.535501480102539062e-01
2.737000000000000000e+03 7.151554107666015625e+01 1.922033309936523438e+01 -2.124395966529846191e-01 8.098891258239746094e+00 2.365935564041137695e+00 -7.575710415840148926e-01
2.738000000000000000e+03 4.150664520263671875e+01 8.748126983642578125e+00 -1.663840115070343018e-01 2.258566617965698242e+00 6.276547908782958984e-01 5.739557147026062012e-01
2.739000000000000000e+03 3.841450500488281250e+01 5.264163494110107422e+00 -6.376474350690841675e-02 1.605589628219604492e+00 4.625474810600280762e-01 3.626087307929992676e-01
2.740000000000000000e+03 4.124311447143554688e+01 -1.296573352813720703e+01 -1.478615701198577881e-01 2.832778692245483398e+00 8.054751753807067871e-01 -2.843933999538421631e-01
2.741000000000000000e+03 4.159935379028320312e+01 -1.048167800903320312e+01 -1.523353904485702515e-01 2.848279714584350586e+00 8.087832927703857422e-01 -1.680048555135726929e-01
2.742000000000000000e+03 1.608245086669921875e+01 -2.648882675170898438e+01 -2.663053870201110840e-01 4.412635803222656250e+00 1.243899226188659668e+00 -2.101055085659027100e-01
2.743000000000000000e+03 7.025069427490234375e+01 5.581139564514160156e+00 -2.600162029266357422e-01 8.038398742675781250e+00 2.333514690399169922e+00 -1.262326687574386597e-01
2.744000000000000000e+03 6.620296001434326172e+00 1.272448635101318359e+01 -6.088539361953735352e-01 6.089454174041748047e+00 1.644180178642272949e+00 -2.297029972076416016e+00
2.745000000000000000e+03 7.189942359924316406e+00 1.058888149261474609e+01 -2.867968082427978516e-01 6.518733978271484375e+00 1.869581103324890137e+00 -2.753677368164062500e+00
2.746000000000000000e+03 6.879767608642578125e+01 -2.128993415832519531e+01 -4.365800321102142334e-02 7.371766567230224609e+00 2.198432683944702148e+00 6.052799820899963379e-01
2.747000000000000000e+03 7.907951354980468750e+00 2.222877693176269531e+01 -6.124157905578613281e-01 5.977746486663818359e+00 1.609599113464355469e+00 -8.723691105842590332e-01
2.748000000000000000e+03 7.047782135009765625e+01 1.345302200317382812e+01 -3.035350143909454346e-01 8.126508712768554688e+00 2.346892118453979492e+00 -4.970854222774505615e-01
2.749000000000000000e+03 9.086904525756835938e+00 -2.019589042663574219e+01 -3.713526427745819092e-01 4.878005027770996094e+00 1.351995706558227539e+00 4.408820271492004395e-01
2.750000000000000000e+03 1.821907234191894531e+01 2.241090774536132812e+01 -7.692885994911193848e-01 3.904278993606567383e+00 9.404971003532409668e-01 1.727976202964782715e-01
2.751000000000000000e+03 1.513026523590087891e+01 1.624853324890136719e+01 -1.190335869789123535e+00 6.034160614013671875e+00 1.453147411346435547e+00 2.981536388397216797e-01
2.752000000000000000e+03 4.953597259521484375e+01 -2.312890625000000000e+01 -2.369625121355056763e-01 5.776268482208251953e+00 1.661791801452636719e+00 8.089721202850341797e-02
2.753000000000000000e+03 1.195203113555908203e+01 1.412372398376464844e+01 -1.420094609260559082e+00 7.594410896301269531e+00 1.852294921875000000e+00 -6.997806429862976074e-01
2.754000000000000000e+03 3.626265335083007812e+01 -5.137186050415039062e+00 1.402678936719894409e-01 1.398739099502563477e+00 4.617020785808563232e-01 -8.418482542037963867e-02
2.755000000000000000e+03 4.048612213134765625e+01 -1.102329063415527344e+01 -1.182925179600715637e-01 2.579152584075927734e+00 7.382580041885375977e-01 -2.422562241554260254e-01
2.756000000000000000e+03 5.699079132080078125e+01 2.868098068237304688e+01 3.096021413803100586e-01 1.017855930328369141e+01 3.146448373794555664e+00 5.745515823364257812e-01
2.757000000000000000e+03 5.954275131225585938e+01 3.052586936950683594e+01 9.104254245758056641e-01 1.040544795989990234e+01 3.394762039184570312e+00 -3.201233148574829102e-01
2.758000000000000000e+03 5.550235366821289062e+01 2.600327301025390625e+01 -2.363899648189544678e-01 8.931143760681152344e+00 2.608426094055175781e+00 1.084854841232299805e+00
2.759000000000000000e+03 5.487944030761718750e+01 2.255415725708007812e+01 -4.971724748611450195e-01 7.646834373474121094e+00 2.144898653030395508e+00 1.063619017601013184e+00
2.760000000000000000e+03 4.829385757446289062e+01 1.857197761535644531e+01 -1.076432317495346069e-01 4.232720375061035156e+00 1.237523198127746582e+00 1.355781555175781250e+00
2.761000000000000000e+03 1.612893867492675781e+01 1.487762928009033203e+01 -9.629025459289550781e-01 5.820333003997802734e+00 1.457229137420654297e+00 8.138324022293090820e-01
2.762000000000000000e+03 1.765441513061523438e+01 1.756922149658203125e+01 -8.533515930175781250e-01 4.526283264160156250e+00 1.101879477500915527e+00 6.178706288337707520e-01
2.763000000000000000e+03 3.941447067260742188e+01 6.578853607177734375e+00 -1.193331554532051086e-01 1.801415443420410156e+00 5.046246647834777832e-01 4.253426194190979004e-01
2.764000000000000000e+03 4.209718322753906250e+01 -1.408968925476074219e+01 -1.985487490892410278e-01 3.104274749755859375e+00 8.717178106307983398e-01 -3.148474097251892090e-01
2.765000000000000000e+03 1.207346820831298828e+01 1.528981781005859375e+01 -1.409308195114135742e+00 7.191677093505859375e+00 1.734710693359375000e+00 -6.986251473426818848e-01
2.766000000000000000e+03 7.147451782226562500e+01 2.074354362487792969e+01 -1.703442931175231934e-01 8.067810058593750000e+00 2.369239807128906250e+00 -8.352045416831970215e-01
2.767000000000000000e+03 7.002359008789062500e+01 2.240424346923828125e+01 -1.532338261604309082e-01 8.135245323181152344e+00 2.394603252410888672e+00 -9.131116867065429688e-01
2.768000000000000000e+03 7.075300598144531250e+01 -2.209759330749511719e+01 -2.609632164239883423e-02 7.473412036895751953e+00 2.234194755554199219e+00 5.531169176101684570e-01
2.769000000000000000e+03 7.010560607910156250e+01 2.072337150573730469e+01 -2.332268953323364258e-01 8.143926620483398438e+00 2.373209714889526367e+00 -8.339230418205261230e-01
2.770000000000000000e+03 7.150379180908203125e+01 2.233155441284179688e+01 -1.221868768334388733e-01 8.017760276794433594e+00 2.368671894073486328e+00 -8.682145476341247559e-01
2.771000000000000000e+03 7.049703979492187500e+01 -1.969842147827148438e+01 -5.051840841770172119e-02 7.526178359985351562e+00 2.242697954177856445e+00 5.507482886314392090e-01
2.772000000000000000e+03 3.339631652832031250e+01 2.371862888336181641e+00 1.276993304491043091e-01 7.061438560485839844e-01 2.501529455184936523e-01 1.724493801593780518e-01
2.773000000000000000e+03 3.090101623535156250e+01 1.444328904151916504e+00 1.733936965465545654e-01 3.018604815006256104e-01 1.425762474536895752e-01 1.104720011353492737e-01
2.774000000000000000e+03 7.055052947998046875e+01 -3.108656692504882812e+01 1.488465368747711182e-01 7.157280445098876953e+00 2.191838026046752930e+00 4.701574742794036865e-01
2.775000000000000000e+03 2.560926437377929688e+01 2.495292854309082031e+01 -4.505591094493865967e-01 1.308724761009216309e+00 2.574496865272521973e-01 4.255273193120956421e-02
2.776000000000000000e+03 7.168095397949218750e+01 1.488908195495605469e+01 -2.434758841991424561e-01 8.164909362792968750e+00 2.376430034637451172e+00 -5.655585527420043945e-01
2.777000000000000000e+03 8.900241851806640625e+00 -3.236375427246093750e+01 -1.205152198672294617e-01 4.406303405761718750e+00 1.285736441612243652e+00 1.190435290336608887e-01
2.778000000000000000e+03 6.944795227050781250e+01 -1.915859985351562500e+01 -6.822404265403747559e-02 7.472205638885498047e+00 2.221194505691528320e+00 5.657388567924499512e-01
2.779000000000000000e+03 7.152440643310546875e+01 -1.361215305328369141e+01 -9.759268164634704590e-02 7.806183815002441406e+00 2.312577486038208008e+00 4.265417456626892090e-01
2.780000000000000000e+03 7.003264617919921875e+01 -1.347195529937744141e+01 -1.321843564510345459e-01 7.656518459320068359e+00 2.257300376892089844e+00 4.665268063545227051e-01
2.781000000000000000e+03 4.897394561767578125e+01 1.952583312988281250e+01 -1.167734861373901367e-01 4.545660018920898438e+00 1.328665971755981445e+00 1.458294510841369629e+00
2.782000000000000000e+03 5.057602691650390625e+01 1.904280471801757812e+01 -3.530557751655578613e-01 5.359532833099365234e+00 1.501943111419677734e+00 1.328437924385070801e+00
2.783000000000000000e+03 7.063805389404296875e+01 2.970629119873046875e+01 2.504222095012664795e-01 7.942838191986083984e+00 2.457978248596191406e+00 -8.373232483863830566e-01
2.784000000000000000e+03 7.093084716796875000e+01 2.766692352294921875e+01 1.373600214719772339e-01 7.949423313140869141e+00 2.426034927368164062e+00 -9.205620288848876953e-01
2.785000000000000000e+03 2.031731033325195312e+01 -3.185120391845703125e+01 -5.751230940222740173e-02 3.554364442825317383e+00 1.049055695533752441e+00 -3.465694785118103027e-01
2.786000000000000000e+03 1.582736492156982422e+01 -1.760051727294921875e+01 -2.840186059474945068e-01 5.576315402984619141e+00 1.587689042091369629e+00 -5.522783398628234863e-01
2.787000000000000000e+03 7.403849124908447266e+00 -1.405750274658203125e+01 -4.740635454654693604e-01 5.006755828857421875e+00 1.359807610511779785e+00 8.977890014648437500e-01
2.788000000000000000e+03 8.047744750976562500e+00 -1.122681999206542969e+01 -5.960411429405212402e-01 5.730353355407714844e+00 1.540293693542480469e+00 1.068610072135925293e+00
2.789000000000000000e+03 7.104918670654296875e+01 -2.678231239318847656e+01 5.274584144353866577e-02 7.320071220397949219e+00 2.211845159530639648e+00 5.318834781646728516e-01
2.790000000000000000e+03 7.060578155517578125e+01 -2.493515014648437500e+01 2.536607161164283752e-02 7.354652881622314453e+00 2.214005708694458008e+00 5.643085837364196777e-01
2.791000000000000000e+03 7.051652526855468750e+01 -9.041746139526367188e+00 -1.462798267602920532e-01 7.824470996856689453e+00 2.303457260131835938e+00 3.453179299831390381e-01
2.792000000000000000e+03 7.045929718017578125e+01 9.457761764526367188e+00 -2.947745025157928467e-01 8.098047256469726562e+00 2.340981721878051758e+00 -2.930123507976531982e-01
2.793000000000000000e+03 2.898091697692871094e+01 2.979741477966308594e+01 -4.134768247604370117e-01 7.525572776794433594e-01 1.017241403460502625e-01 -1.256748139858245850e-01
2.794000000000000000e+03 2.709698104858398438e+01 3.314616012573242188e+01 -3.030451238155364990e-01 1.268832564353942871e+00 2.897362112998962402e-01 -6.747829914093017578e-02
2.795000000000000000e+03 8.307428359985351562e+00 -1.494642829895019531e+01 -5.076139569282531738e-01 5.210354804992675781e+00 1.410822272300720215e+00 7.446660399436950684e-01
2.796000000000000000e+03 7.875905990600585938e+00 -1.628945541381835938e+01 -4.377905428409576416e-01 4.959013462066650391e+00 1.356366991996765137e+00 7.139369845390319824e-01
2.797000000000000000e+03 6.078030776977539062e+01 3.440849685668945312e+01 1.862119674682617188e+00 1.051738929748535156e+01 3.713852643966674805e+00 1.637238413095474243e-01
2.798000000000000000e+03 2.583738327026367188e+01 2.913356018066406250e+01 -3.761404156684875488e-01 1.400415539741516113e+00 3.072825372219085693e-01 3.572532208636403084e-03
2.799000000000000000e+03 2.159831619262695312e+01 2.572275924682617188e+01 -5.548884272575378418e-01 2.556621789932250977e+00 6.005200147628784180e-01 1.684411615133285522e-01
2.800000000000000000e+03 3.777692031860351562e+01 3.825109720230102539e+00 -3.793702274560928345e-02 1.514347910881042480e+00 4.429232776165008545e-01 3.104613423347473145e-01
2.801000000000000000e+03 2.947042465209960938e+01 3.279094314575195312e+01 -2.990413010120391846e-01 6.741170883178710938e-01 1.125227361917495728e-01 -1.177303865551948547e-01
2.802000000000000000e+03 6.577529430389404297e+00 -3.737958526611328125e+01 -6.586453318595886230e-02 4.482919216156005859e+00 1.325116395950317383e+00 6.757612526416778564e-02
2.803000000000000000e+03 9.350021362304687500e+00 -3.488024520874023438e+01 -1.159212365746498108e-01 4.338336944580078125e+00 1.266724586486816406e+00 8.229961991310119629e-02
2.804000000000000000e+03 2.098476600646972656e+01 -3.539358520507812500e+01 -8.327254327014088631e-04 3.322373867034912109e+00 9.964623451232910156e-01 -2.449654191732406616e-01
2.805000000000000000e+03 2.016408920288085938e+01 -2.617928695678710938e+01 -1.002830639481544495e-01 3.941400527954101562e+00 1.152335286140441895e+00 -5.708278417587280273e-01
2.806000000000000000e+03 8.631378173828125000e+00 2.404699134826660156e+01 -5.849775671958923340e-01 5.846606254577636719e+00 1.578488588333129883e+00 -6.771324276924133301e-01
2.807000000000000000e+03 1.118943786621093750e+01 2.604732322692871094e+01 -6.066119074821472168e-01 5.349452972412109375e+00 1.422852396965026855e+00 -4.188645780086517334e-01
2.808000000000000000e+03 1.676020050048828125e+01 2.032856750488281250e+01 -9.324400424957275391e-01 4.590819835662841797e+00 1.097513914108276367e+00 1.799624264240264893e-01
2.809000000000000000e+03 5.626731872558593750e+00 6.291573524475097656e+00 1.635463953018188477e+00 3.377149581909179688e+00 1.503784060478210449e+00 -2.355856895446777344e+00
2.810000000000000000e+03 6.309846401214599609e+00 3.242338895797729492e+00 2.548620462417602539e+00 1.691206932067871094e+00 1.271948218345642090e+00 -1.402873992919921875e+00
2.811000000000000000e+03 7.643953323364257812e+00 -3.031926631927490234e+00 2.226604461669921875e+00 4.515415668487548828e+00 2.022606134414672852e+00 3.564093112945556641e+00
2.812000000000000000e+03 7.538479328155517578e+00 2.890056371688842773e+00 3.447505712509155273e+00 3.079823255538940430e+00 1.958198666572570801e+00 -2.681979656219482422e+00
2.813000000000000000e+03 7.242317199707031250e+00 2.824780941009521484e+00 3.205567836761474609e+00 2.441767215728759766e+00 1.694200515747070312e+00 -2.118924856185913086e+00
2.814000000000000000e+03 7.064172744750976562e+00 3.168957233428955078e+00 3.126043558120727539e+00 2.444471836090087891e+00 1.671154618263244629e+00 -2.202656507492065430e+00
2.815000000000000000e+03 6.766730785369873047e+00 -3.263752698898315430e+00 1.941516876220703125e+00 2.954555273056030273e+00 1.468821644783020020e+00 2.539825201034545898e+00
2.816000000000000000e+03 7.397986412048339844e+00 -3.558319330215454102e+00 1.824965357780456543e+00 4.414208412170410156e+00 1.871752142906188965e+00 3.216366767883300781e+00
2.817000000000000000e+03 9.554836273193359375e+00 -4.076974868774414062e+00 -2.263525873422622681e-01 1.097164344787597656e+01 3.223587274551391602e+00 3.085960626602172852e+00
2.818000000000000000e+03 9.842041015625000000e+00 -3.576162099838256836e+00 -2.358203083276748657e-01 1.253975486755371094e+01 3.691180467605590820e+00 3.230534315109252930e+00
2.819000000000000000e+03 1.096419525146484375e+01 -3.052098989486694336e+00 -6.514224410057067871e-01 1.632741355895996094e+01 4.702796936035156250e+00 9.232869148254394531e-01
2.820000000000000000e+03 9.734685897827148438e+00 4.131823539733886719e+00 3.287266254425048828e+00 1.172337627410888672e+01 4.503192901611328125e+00 -3.986145973205566406e+00
2.821000000000000000e+03 8.719999313354492188e+00 3.704889059066772461e+00 3.622318267822265625e+00 8.063934326171875000e+00 3.505875825881958008e+00 -4.258329868316650391e+00
2.822000000000000000e+03 5.020059108734130859e+00 -3.094523668289184570e+00 1.216264724731445312e+00 1.030984520912170410e+00 6.741747856140136719e-01 8.710105419158935547e-01
2.823000000000000000e+03 4.159094333648681641e+00 -2.571479082107543945e+00 7.210769057273864746e-01 4.623127877712249756e-01 3.550169169902801514e-01 2.168823480606079102e-01
2.824000000000000000e+03 5.370317459106445312e+00 -3.330583333969116211e+00 1.399772644042968750e+00 1.426107764244079590e+00 8.477641344070434570e-01 1.217835187911987305e+00
2.825000000000000000e+03 4.220782279968261719e+00 -3.811997652053833008e+00 9.679632782936096191e-01 1.079978585243225098e+00 6.143825650215148926e-01 7.499601840972900391e-01
2.826000000000000000e+03 1.364146804809570312e+01 -2.489055633544921875e+00 1.192079782485961914e+00 1.352384567260742188e+01 4.414777755737304688e+00 -4.559325218200683594e+00
2.827000000000000000e+03 1.023390674591064453e+01 -3.463936567306518555e+00 -5.477884411811828613e-01 1.387536334991455078e+01 3.998272657394409180e+00 2.563324451446533203e+00
2.828000000000000000e+03 1.123973464965820312e+01 -3.454756498336791992e+00 -9.504513144493103027e-01 1.538965988159179688e+01 4.331762313842773438e+00 8.243693411350250244e-02
2.829000000000000000e+03 1.305814552307128906e+01 -1.535147309303283691e+00 2.572988748550415039e+00 1.590130519866943359e+01 5.542288303375244141e+00 -4.056439876556396484e+00
2.830000000000000000e+03 1.204794216156005859e+01 -2.451482772827148438e+00 7.029727697372436523e-01 1.738131523132324219e+01 5.425286293029785156e+00 -2.414969205856323242e+00
2.831000000000000000e+03 5.933775901794433594e+00 3.120208501815795898e+00 2.139318943023681641e+00 1.143427371978759766e+00 9.848238825798034668e-01 -9.356021881103515625e-01
2.832000000000000000e+03 1.079615020751953125e+01 3.817837953567504883e+00 3.561824798583984375e+00 1.573824787139892578e+01 5.790021896362304688e+00 -3.182395219802856445e+00
2.833000000000000000e+03 9.725554466247558594e+00 3.070294141769409180e+00 3.596788167953491211e+00 1.238622379302978516e+01 4.794903278350830078e+00 -4.368741512298583984e+00
2.834000000000000000e+03 1.028152179718017578e+01 3.649349689483642578e+00 3.421998977661132812e+00 1.448263740539550781e+01 5.371390819549560547e+00 -3.496666669845581055e+00
2.835000000000000000e+03 9.337449073791503906e+00 3.194742441177368164e+00 3.690579175949096680e+00 1.050423431396484375e+01 4.258444309234619141e+00 -4.407456874847412109e+00
2.836000000000000000e+03 3.852609634399414062e+00 4.740221977233886719e+00 1.211700320243835449e+00 9.431481361389160156e-01 6.464545726776123047e-01 -6.152126193046569824e-01
2.837000000000000000e+03 4.064536571502685547e+00 -5.400400638580322266e+00 6.919283866882324219e-01 1.696289300918579102e+00 7.164652943611145020e-01 1.058658361434936523e+00
2.838000000000000000e+03 5.220245838165283203e+00 -6.155951023101806641e+00 5.907104015350341797e-01 3.032833576202392578e+00 1.087063193321228027e+00 1.663491964340209961e+00
2.839000000000000000e+03 9.380115509033203125e+00 9.301179885864257812e+00 -3.782621324062347412e-01 9.016877174377441406e+00 2.591584444046020508e+00 -2.727134943008422852e+00
2.840000000000000000e+03 6.401049137115478516e+00 1.006853961944580078e+01 2.205482311546802521e-02 5.737317562103271484e+00 1.727811694145202637e+00 -2.757473468780517578e+00
2.841000000000000000e+03 7.405639171600341797e+00 8.732990264892578125e+00 4.127267301082611084e-01 6.621945858001708984e+00 2.110401868820190430e+00 -3.109724283218383789e+00
2.842000000000000000e+03 1.413325977325439453e+01 -3.059810638427734375e+00 7.814152240753173828e-01 1.159757900238037109e+01 3.713698387145996094e+00 -4.734277248382568359e+00
2.843000000000000000e+03 5.184175014495849609e+00 6.719585895538330078e+00 1.333152651786804199e+00 3.088216543197631836e+00 1.326410770416259766e+00 -2.178009033203125000e+00
2.844000000000000000e+03 5.586575984954833984e+00 7.057254791259765625e+00 1.248097896575927734e+00 3.785349130630493164e+00 1.510034084320068359e+00 -2.493681669235229492e+00
2.845000000000000000e+03 6.186105728149414062e+00 8.008957862854003906e+00 8.800180554389953613e-01 4.907168865203857422e+00 1.736155986785888672e+00 -2.863874197006225586e+00
2.846000000000000000e+03 5.926812171936035156e+00 -9.216647148132324219e+00 -1.833509653806686401e-01 4.381492137908935547e+00 1.259442329406738281e+00 1.526150107383728027e+00
2.847000000000000000e+03 5.395301342010498047e+00 -7.663914203643798828e+00 1.611775010824203491e-01 3.700550794601440430e+00 1.158518433570861816e+00 1.641645073890686035e+00
2.848000000000000000e+03 1.069811820983886719e+01 6.123743057250976562e+00 1.204022407531738281e+00 1.344129657745361328e+01 4.393595695495605469e+00 -3.135587453842163086e+00
2.849000000000000000e+03 1.442985725402832031e+01 -9.598690032958984375e+00 -1.643696427345275879e-01 7.704703807830810547e+00 2.262100219726562500e+00 -1.695883035659790039e+00
2.850000000000000000e+03 1.403365707397460938e+01 -5.724526405334472656e+00 -4.210610091686248779e-01 1.007611370086669922e+01 2.896515846252441406e+00 -3.138493299484252930e+00
2.851000000000000000e+03 1.435075187683105469e+01 -4.737789154052734375e+00 -5.839979276061058044e-02 1.038394927978515625e+01 3.097664833068847656e+00 -3.901499032974243164e+00
2.852000000000000000e+03 1.006476211547851562e+01 7.649236679077148438e+00 2.461151033639907837e-01 1.081986808776855469e+01 3.319794893264770508e+00 -3.072530508041381836e+00
2.853000000000000000e+03 8.025794029235839844e+00 3.178291082382202148e+00 3.661682605743408203e+00 4.901156902313232422e+00 2.568851947784423828e+00 -3.530843734741210938e+00
2.854000000000000000e+03 9.687212944030761719e+00 8.496183395385742188e+00 -1.747463196516036987e-01 9.676274299621582031e+00 2.850458383560180664e+00 -2.870581150054931641e+00
2.855000000000000000e+03 9.947327613830566406e+00 9.662861824035644531e+00 -7.192634344100952148e-01 9.400090217590332031e+00 2.604248046875000000e+00 -2.306619167327880859e+00
2.856000000000000000e+03 6.736064910888671875e+01 4.703553676605224609e+00 -3.772664368152618408e-01 7.699337005615234375e+00 2.196621179580688477e+00 -3.024242818355560303e-02
2.857000000000000000e+03 6.874151611328125000e+01 4.531413555145263672e+00 -3.118960559368133545e-01 7.854007244110107422e+00 2.262633323669433594e+00 -6.007420271635055542e-02
2.858000000000000000e+03 6.911391448974609375e+01 -4.417308807373046875e+00 -2.173371016979217529e-01 7.729378223419189453e+00 2.253612279891967773e+00 2.410074174404144287e-01
2.859000000000000000e+03 6.858710479736328125e+01 -6.048262596130371094e+00 -2.219461947679519653e-01 7.641556739807128906e+00 2.225883245468139648e+00 3.039503693580627441e-01
2.860000000000000000e+03 1.262650108337402344e+01 -1.132212734222412109e+01 -5.895820856094360352e-01 7.166314601898193359e+00 1.973019719123840332e+00 -4.755438268184661865e-01
2.861000000000000000e+03 8.226174354553222656e+00 -1.335977649688720703e+01 -5.592854619026184082e-01 5.434218883514404297e+00 1.462479948997497559e+00 8.433663845062255859e-01
2.862000000000000000e+03 3.436343002319335938e+01 2.164777040481567383e+00 9.319732338190078735e-02 8.155215978622436523e-01 2.726156711578369141e-01 1.762030869722366333e-01
2.863000000000000000e+03 4.500381088256835938e+01 1.289693832397460938e+01 -2.134121209383010864e-01 3.109578609466552734e+00 8.688499331474304199e-01 8.745291829109191895e-01
2.864000000000000000e+03 9.171441078186035156e+00 1.096577739715576172e+01 -8.721109628677368164e-01 8.279186248779296875e+00 2.222122430801391602e+00 -2.299580574035644531e+00
2.865000000000000000e+03 6.843852233886718750e+01 -1.192319679260253906e+01 -1.808984279632568359e-01 7.527801513671875000e+00 2.204070806503295898e+00 4.597105383872985840e-01
2.866000000000000000e+03 6.929634094238281250e+01 1.211054039001464844e+01 -3.600182831287384033e-01 8.050833702087402344e+00 2.307244539260864258e+00 -4.154920279979705811e-01
2.867000000000000000e+03 1.473277664184570312e+01 -8.772500991821289062e+00 -8.582370728254318237e-02 7.842677116394042969e+00 2.327055931091308594e+00 -2.061249256134033203e+00
2.868000000000000000e+03 1.367273807525634766e+01 -9.318654060363769531e+00 -4.496692121028900146e-01 8.014143943786621094e+00 2.269342422485351562e+00 -1.446526408195495605e+00
2.869000000000000000e+03 1.459797573089599609e+01 -1.364969062805175781e+01 -2.615034878253936768e-01 6.455025672912597656e+00 1.858056664466857910e+00 -7.207530736923217773e-01
2.870000000000000000e+03 5.608774948120117188e+01 1.972176933288574219e+01 -6.962962746620178223e-01 7.402664184570312500e+00 2.011910438537597656e+00 6.814261078834533691e-01
2.871000000000000000e+03 1.410352897644042969e+01 -7.520385265350341797e+00 -3.861246705055236816e-01 8.767166137695312500e+00 2.514312267303466797e+00 -2.370137214660644531e+00
2.872000000000000000e+03 1.383647823333740234e+01 -8.470852851867675781e+00 -4.723896384239196777e-01 8.372537612915039062e+00 2.370044469833374023e+00 -1.768450021743774414e+00
2.873000000000000000e+03 3.895192337036132812e+01 -5.447744846343994141e+00 5.679740570485591888e-03 2.021230459213256836e+00 6.080730557441711426e-01 -4.425283148884773254e-02
2.874000000000000000e+03 3.707732772827148438e+01 -3.599278450012207031e+00 1.128309741616249084e-01 1.542644500732421875e+00 4.966426193714141846e-01 1.451686862856149673e-02
2.875000000000000000e+03 1.164995098114013672e+01 -2.492293930053710938e+01 -3.087932765483856201e-01 4.670999050140380859e+00 1.308661699295043945e+00 1.407991051673889160e-01
2.876000000000000000e+03 1.036295509338378906e+01 -2.114383888244628906e+01 -3.761826157569885254e-01 4.914196491241455078e+00 1.361404061317443848e+00 3.154302239418029785e-01
2.877000000000000000e+03 7.020004272460937500e+01 1.916076087951660156e+01 -2.597775459289550781e-01 8.139697074890136719e+00 2.363976001739501953e+00 -7.833266854286193848e-01
2.878000000000000000e+03 6.845088195800781250e+01 -1.868153762817382812e+01 -9.467555582523345947e-02 7.384156703948974609e+00 2.186844348907470703e+00 5.962294340133666992e-01
2.879000000000000000e+03 1.368296909332275391e+01 -1.274085521697998047e+01 -3.842854499816894531e-01 6.686218261718750000e+00 1.890579819679260254e+00 -6.307033300399780273e-01
2.880000000000000000e+03 1.360568141937255859e+01 -1.187891674041748047e+01 -4.084802865982055664e-01 6.941674232482910156e+00 1.959958195686340332e+00 -7.211089730262756348e-01
2.881000000000000000e+03 1.662946891784667969e+01 -1.830580711364746094e+01 -2.434819191694259644e-01 5.408658504486083984e+00 1.549552917480468750e+00 -6.311842203140258789e-01
2.882000000000000000e+03 1.744061470031738281e+01 -2.073105049133300781e+01 -2.477539926767349243e-01 4.935411453247070312e+00 1.406297206878662109e+00 -5.939804315567016602e-01
2.883000000000000000e+03 9.980323791503906250e+00 1.207631778717041016e+01 -1.198008894920349121e+00 8.246644020080566406e+00 2.114590406417846680e+00 -1.759702920913696289e+00
2.884000000000000000e+03 7.632257938385009766e+00 1.285106563568115234e+01 -8.341531753540039062e-01 6.701836585998535156e+00 1.760305047035217285e+00 -2.252087831497192383e+00
2.885000000000000000e+03 3.531476211547851562e+01 2.143690586090087891e+00 9.187985956668853760e-02 1.056284308433532715e+00 3.444492518901824951e-01 2.114062905311584473e-01
2.886000000000000000e+03 4.618835449218750000e+01 1.644295310974121094e+01 -1.264901310205459595e-01 3.419435024261474609e+00 9.878835082054138184e-01 1.124715924263000488e+00
2.887000000000000000e+03 4.732505416870117188e+01 1.608987998962402344e+01 -2.167955040931701660e-01 3.877478361129760742e+00 1.098204851150512695e+00 1.142604470252990723e+00
2.888000000000000000e+03 3.955011749267578125e+01 -6.318699359893798828e+00 -1.765800267457962036e-02 2.209404468536376953e+00 6.575239300727844238e-01 -5.738455057144165039e-02
2.889000000000000000e+03 3.412612152099609375e+01 7.041475176811218262e-01 1.996749043464660645e-01 8.493004441261291504e-01 3.146926164627075195e-01 1.505930274724960327e-01
2.890000000000000000e+03 3.982093048095703125e+01 4.525823116302490234e+00 -9.431012719869613647e-02 1.990947365760803223e+00 5.689911842346191406e-01 3.901699483394622803e-01
2.891000000000000000e+03 4.089068222045898438e+01 -9.154102325439453125e+00 -1.204398050904273987e-01 2.606946945190429688e+00 7.459521293640136719e-01 -1.406366974115371704e-01
2.892000000000000000e+03 7.170735168457031250e+01 8.095487594604492188e+00 -2.254658788442611694e-01 8.201005935668945312e+00 2.392662048339843750e+00 -2.390339076519012451e-01
2.893000000000000000e+03 6.896190643310546875e+01 7.002563476562500000e+00 -3.266607820987701416e-01 7.925653934478759766e+00 2.279697895050048828e+00 -1.653729677200317383e-01
2.894000000000000000e+03 6.928044891357421875e+01 -2.271532440185546875e+01 -1.146738324314355850e-02 7.335546016693115234e+00 2.197223663330078125e+00 6.066797971725463867e-01
2.895000000000000000e+03 3.998342895507812500e+01 -8.188824653625488281e+00 -6.143177673220634460e-02 2.390022516250610352e+00 6.985772252082824707e-01 -1.347146183252334595e-01
2.896000000000000000e+03 3.927908325195312500e+01 -8.952500343322753906e+00 -6.243452802300453186e-02 2.221481084823608398e+00 6.477139592170715332e-01 -1.908287554979324341e-01
2.897000000000000000e+03 6.855017852783203125e+01 2.221950912475585938e+01 -2.288544625043869019e-01 8.261872291564941406e+00 2.409905195236206055e+00 -8.831901550292968750e-01
2.898000000000000000e+03 1.092255592346191406e+01 -1.887446403503417969e+01 -4.570571184158325195e-01 5.226171493530273438e+00 1.430734276771545410e+00 2.992084324359893799e-01
2.899000000000000000e+03 8.229716300964355469e+00 1.526930618286132812e+01 -9.845713376998901367e-01 6.558060646057128906e+00 1.672046780586242676e+00 -1.722188830375671387e+00
2.900000000000000000e+03 8.632006645202636719e+00 1.313884544372558594e+01 -1.091049909591674805e+00 7.250818729400634766e+00 1.847930669784545898e+00 -2.008143186569213867e+00
2.901000000000000000e+03 5.732393264770507812e+01 2.429006195068359375e+01 -4.804491698741912842e-01 8.771778106689453125e+00 2.487398624420166016e+00 5.093401670455932617e-01
2.902000000000000000e+03 1.011606025695800781e+01 1.887084579467773438e+01 -1.077097654342651367e+00 6.225288867950439453e+00 1.544457316398620605e+00 -9.702734947204589844e-01
2.903000000000000000e+03 8.253612518310546875e+00 1.943098831176757812e+01 -8.453496694564819336e-01 6.146379947662353516e+00 1.590309023857116699e+00 -1.152867913246154785e+00
2.904000000000000000e+03 7.105246734619140625e+01 -7.808354854583740234e+00 -1.447324305772781372e-01 7.908272266387939453e+00 2.329061985015869141e+00 3.095752000808715820e-01
2.905000000000000000e+03 6.872850036621093750e+01 -9.811447143554687500e+00 -1.888826340436935425e-01 7.592463493347167969e+00 2.221074104309082031e+00 3.993673026561737061e-01
2.906000000000000000e+03 9.354694366455078125e+00 -2.765172386169433594e+01 -2.069577723741531372e-01 4.508844852447509766e+00 1.290566205978393555e+00 1.993999779224395752e-01
2.907000000000000000e+03 1.084585762023925781e+01 -2.657844924926757812e+01 -2.593948245048522949e-01 4.563096046447753906e+00 1.291110396385192871e+00 1.608825027942657471e-01
2.908000000000000000e+03 7.049222564697265625e+01 1.077418422698974609e+01 -2.950382530689239502e-01 8.110123634338378906e+00 2.344525575637817383e+00 -3.624179661273956299e-01
2.909000000000000000e+03 6.927645111083984375e+01 1.342035388946533203e+01 -3.741419911384582520e-01 8.076100349426269531e+00 2.310587406158447266e+00 -4.729061424732208252e-01
2.910000000000000000e+03 1.368379688262939453e+01 -1.358752918243408203e+01 -3.778661489486694336e-01 6.471347808837890625e+00 1.828044414520263672e+00 -5.124052762985229492e-01
2.911000000000000000e+03 3.297677612304687500e+01 1.073715448379516602e+00 1.880494803190231323e-01 6.126036047935485840e-01 2.401959300041198730e-01 9.659568965435028076e-02
2.912000000000000000e+03 6.886998748779296875e+01 -1.746489143371582031e+01 -1.057600155472755432e-01 7.451031208038330078e+00 2.203581333160400391e+00 5.595641732215881348e-01
2.913000000000000000e+03 1.693042373657226562e+01 1.846327972412109375e+01 -9.576566815376281738e-01 4.792427062988281250e+00 1.150431036949157715e+00 3.576788306236267090e-01
2.914000000000000000e+03 9.271332740783691406e+00 -1.661006927490234375e+01 -4.793464541435241699e-01 5.256055355072021484e+00 1.433012723922729492e+00 5.427055358886718750e-01
2.915000000000000000e+03 9.476881980895996094e+00 -1.529860210418701172e+01 -5.483652353286743164e-01 5.503544807434082031e+00 1.486553788185119629e+00 5.473151206970214844e-01
2.916000000000000000e+03 1.325816249847412109e+01 1.714278030395507812e+01 -1.292346119880676270e+00 6.382890701293945312e+00 1.527163386344909668e+00 -3.143167495727539062e-01
2.917000000000000000e+03 9.257990837097167969e+00 1.630472564697265625e+01 -1.151465415954589844e+00 6.684978485107421875e+00 1.660053968429565430e+00 -1.395016908645629883e+00
2.918000000000000000e+03 9.309927940368652344e+00 2.117329025268554688e+01 -8.284668922424316406e-01 5.981105804443359375e+00 1.545791625976562500e+00 -8.956810832023620605e-01
2.919000000000000000e+03 7.037735748291015625e+01 1.622085952758789062e+01 -2.988549470901489258e-01 8.134990692138671875e+00 2.350840806961059570e+00 -6.384747028350830078e-01
2.920000000000000000e+03 1.294080066680908203e+01 1.534578514099121094e+01 -1.394145727157592773e+00 7.059249877929687500e+00 1.699531316757202148e+00 -3.109360337257385254e-01
2.921000000000000000e+03 1.394304752349853516e+01 1.589379692077636719e+01 -1.298470616340637207e+00 6.525455474853515625e+00 1.568095445632934570e+00 -4.179876670241355896e-02
2.922000000000000000e+03 9.433991432189941406e+00 -1.804723167419433594e+01 -4.470146596431732178e-01 5.115856170654296875e+00 1.400652408599853516e+00 4.873711466789245605e-01
2.923000000000000000e+03 4.925624084472656250e+01 1.815625762939453125e+01 -2.711450457572937012e-01 4.727664470672607422e+00 1.336955785751342773e+00 1.304256439208984375e+00
2.924000000000000000e+03 4.579101181030273438e+01 -1.823267173767089844e+01 -3.245688080787658691e-01 4.375939369201660156e+00 1.215411186218261719e+00 -2.787076532840728760e-01
2.925000000000000000e+03 4.469140243530273438e+01 -1.732852935791015625e+01 -2.837413847446441650e-01 4.019831180572509766e+00 1.120826959609985352e+00 -3.076561987400054932e-01
2.926000000000000000e+03 6.733912658691406250e+01 -2.607365226745605469e+01 7.850216329097747803e-02 7.158546924591064453e+00 2.171114683151245117e+00 6.331859827041625977e-01
2.927000000000000000e+03 4.866805267333984375e+01 -1.960275650024414062e+01 -3.653900325298309326e-01 5.180702686309814453e+00 1.444593787193298340e+00 -4.033026471734046936e-02
2.928000000000000000e+03 4.659816741943359375e+01 -1.683704376220703125e+01 -3.585977554321289062e-01 4.528490066528320312e+00 1.250967621803283691e+00 -1.526577770709991455e-01
2.929000000000000000e+03 1.043199157714843750e+01 1.311915493011474609e+01 -1.341677188873291016e+00 7.821154594421386719e+00 1.943843245506286621e+00 -1.471480369567871094e+00
2.930000000000000000e+03 1.292800617218017578e+01 1.423311519622802734e+01 -1.429967522621154785e+00 7.427245140075683594e+00 1.799183368682861328e+00 -3.199587166309356689e-01
2.931000000000000000e+03 9.899192810058593750e+00 2.482922172546386719e+01 -6.057123541831970215e-01 5.654414653778076172e+00 1.514610648155212402e+00 -5.515265464782714844e-01
2.932000000000000000e+03 7.157337188720703125e+01 1.774157714843750000e+01 -2.253445535898208618e-01 8.123155593872070312e+00 2.369343280792236328e+00 -7.049362659454345703e-01
2.933000000000000000e+03 7.033146667480468750e+01 6.857932090759277344e+00 -2.729935050010681152e-01 8.060011863708496094e+00 2.336105585098266602e+00 -1.783549338579177856e-01
2.934000000000000000e+03 1.331677532196044922e+01 2.937750434875488281e+01 -4.899798333644866943e-01 4.765812397003173828e+00 1.282749772071838379e+00 -1.833510696887969971e-01
2.935000000000000000e+03 1.091222476959228516e+01 2.891146850585937500e+01 -4.543987512588500977e-01 5.243056774139404297e+00 1.436597466468811035e+00 -3.183336257934570312e-01
2.936000000000000000e+03 4.362482833862304688e+01 8.709778785705566406e+00 -2.322721481323242188e-01 2.868825674057006836e+00 7.909660339355468750e-01 6.630077362060546875e-01
2.937000000000000000e+03 4.150569152832031250e+01 6.894644737243652344e+00 -1.690195500850677490e-01 2.332983970642089844e+00 6.491892933845520020e-01 5.254301428794860840e-01
2.938000000000000000e+03 1.294714260101318359e+01 1.941051292419433594e+01 -1.144496798515319824e+00 5.917355537414550781e+00 1.431857585906982422e+00 -4.348481893539428711e-01
2.939000000000000000e+03 6.917213439941406250e+01 2.701497650146484375e+01 7.876887917518615723e-02 8.181894302368164062e+00 2.478199005126953125e+00 -9.262771606445312500e-01
2.940000000000000000e+03 6.729784393310546875e+01 -2.898334503173828125e+01 1.727374792098999023e-01 7.087347984313964844e+00 2.178025722503662109e+00 5.885742902755737305e-01
2.941000000000000000e+03 1.934933280944824219e+01 -2.143339538574218750e+01 -1.244394406676292419e-01 4.572051525115966797e+00 1.334283590316772461e+00 -8.143943548202514648e-01
2.942000000000000000e+03 1.043957519531250000e+01 2.309845352172851562e+01 -7.743277549743652344e-01 5.688528060913085938e+00 1.474260091781616211e+00 -6.147479414939880371e-01
2.943000000000000000e+03 1.231670951843261719e+01 2.764531517028808594e+01 -5.368905663490295410e-01 5.060245037078857422e+00 1.357006311416625977e+00 -2.723257243633270264e-01
2.944000000000000000e+03 4.873795700073242188e+01 -2.140060997009277344e+01 -3.355540037155151367e-01 5.401055335998535156e+00 1.519650459289550781e+00 -3.155090659856796265e-02
2.945000000000000000e+03 5.131598663330078125e+01 -2.026372146606445312e+01 -3.296002447605133057e-01 5.735514640808105469e+00 1.621774315834045410e+00 2.292558699846267700e-01
2.946000000000000000e+03 1.030490875244140625e+01 -2.947242355346679688e+01 -1.883285343647003174e-01 4.442113876342773438e+00 1.276135563850402832e+00 1.358720958232879639e-01
2.947000000000000000e+03 2.709604263305664062e+01 3.544549942016601562e+01 -2.685368359088897705e-01 1.271201848983764648e+00 3.007994890213012695e-01 -2.419184520840644836e-02
2.948000000000000000e+03 7.011112976074218750e+01 2.828274917602539062e+01 2.260484397411346436e-01 8.063925743103027344e+00 2.486992359161376953e+00 -9.107647538185119629e-01
2.949000000000000000e+03 1.844663238525390625e+01 -2.339200019836425781e+01 -2.025714963674545288e-01 4.481401920318603516e+00 1.283649206161499023e+00 -5.746079683303833008e-01
2.950000000000000000e+03 3.756286239624023438e+01 2.414855480194091797e+00 2.941475808620452881e-02 1.531857848167419434e+00 4.683817625045776367e-01 2.664550244808197021e-01
2.951000000000000000e+03 3.634523773193359375e+01 3.748506307601928711e+00 4.530321341007947922e-03 1.225846409797668457e+00 3.691130280494689941e-01 2.660574615001678467e-01
2.952000000000000000e+03 1.561253833770751953e+01 -1.866675376892089844e+01 -3.354203701019287109e-01 5.402876377105712891e+00 1.520236849784851074e+00 -4.098493754863739014e-01
2.953000000000000000e+03 1.720122337341308594e+01 -2.833676147460937500e+01 -2.019713670015335083e-01 4.149758338928222656e+00 1.184336066246032715e+00 -2.576073706150054932e-01
2.954000000000000000e+03 5.417086791992187500e+01 -2.684716224670410156e+01 1.823998093605041504e-01 6.545561313629150391e+00 2.018388271331787109e+00 5.984519720077514648e-01
2.955000000000000000e+03 1.498348522186279297e+01 -1.611146163940429688e+01 -3.110426366329193115e-01 5.891020774841308594e+00 1.673993468284606934e+00 -5.012786388397216797e-01
2.956000000000000000e+03 1.394293880462646484e+01 -1.567732048034667969e+01 -3.791585564613342285e-01 5.992333889007568359e+00 1.683952569961547852e+00 -3.385715782642364502e-01
2.957000000000000000e+03 6.020624160766601562e+01 2.570197868347167969e+01 -2.354864925146102905e-01 9.270344734191894531e+00 2.710457324981689453e+00 -2.679326534271240234e-01
2.958000000000000000e+03 2.111378097534179688e+01 2.355585670471191406e+01 -6.041458845138549805e-01 2.791255712509155273e+00 6.561329960823059082e-01 2.310658395290374756e-01
2.959000000000000000e+03 6.114758682250976562e+01 2.973205757141113281e+01 7.187511324882507324e-01 9.821679115295410156e+00 3.162129163742065430e+00 -5.184629559516906738e-01
2.960000000000000000e+03 1.185985660552978516e+01 3.429320144653320312e+01 -2.687396705150604248e-01 4.962851047515869141e+00 1.408233404159545898e+00 -1.435468494892120361e-01
2.961000000000000000e+03 3.397600555419921875e+01 -9.295945763587951660e-01 2.335125505924224854e-01 8.164795041084289551e-01 3.149976134300231934e-01 6.430303305387496948e-02
2.962000000000000000e+03 3.543832778930664062e+01 -2.535415410995483398e+00 1.966951638460159302e-01 1.132878541946411133e+00 3.988721072673797607e-01 1.897858828306198120e-02
2.963000000000000000e+03 6.919933319091796875e+01 -3.561780548095703125e+01 2.912138402462005615e-01 6.998444557189941406e+00 2.186897516250610352e+00 3.339030742645263672e-01
2.964000000000000000e+03 4.350252151489257812e+01 -1.089564704895019531e+01 -2.349543571472167969e-01 3.378040313720703125e+00 9.429258108139038086e-01 -1.241525486111640930e-01
2.965000000000000000e+03 6.981142425537109375e+01 -8.588591217994689941e-01 -2.277086973190307617e-01 7.878908634185791016e+00 2.295359849929809570e+00 1.226306110620498657e-01
2.966000000000000000e+03 7.082984924316406250e+01 -1.336434483528137207e+00 -1.946718245744705200e-01 7.995111942291259766e+00 2.340131998062133789e+00 1.210993602871894836e-01
2.967000000000000000e+03 6.996289062500000000e+01 3.102423429489135742e+00 -2.497065663337707520e-01 7.971114158630371094e+00 2.316422224044799805e+00 -2.197312936186790466e-02
2.968000000000000000e+03 6.970215606689453125e+01 1.911424636840820312e+00 -2.505597174167633057e-01 7.917797088623046875e+00 2.300171136856079102e+00 2.863687463104724884e-02
2.969000000000000000e+03 8.194364547729492188e+00 -3.064815044403076172e+00 2.079341173171997070e+00 6.272616386413574219e+00 2.505587339401245117e+00 4.260210990905761719e+00
2.970000000000000000e+03 8.664201736450195312e+00 -3.750160932540893555e+00 9.058616757392883301e-01 8.334363937377929688e+00 2.772067546844482422e+00 3.958384990692138672e+00
2.971000000000000000e+03 8.900515556335449219e+00 -3.553040027618408203e+00 8.735405206680297852e-01 9.292961120605468750e+00 3.049950599670410156e+00 4.146585464477539062e+00
2.972000000000000000e+03 7.671831130981445312e+00 -3.377816438674926758e+00 1.950065493583679199e+00 4.930402755737304688e+00 2.064140558242797852e+00 3.551733493804931641e+00
2.973000000000000000e+03 8.446228027343750000e+00 -3.101702451705932617e+00 1.832803726196289062e+00 7.298162937164306641e+00 2.739289999008178711e+00 4.464460372924804688e+00
2.974000000000000000e+03 7.122944355010986328e+00 -3.170552015304565430e+00 2.107398748397827148e+00 3.459314823150634766e+00 1.670014023780822754e+00 2.948642253875732422e+00
2.975000000000000000e+03 1.037218284606933594e+01 -3.920856237411499023e+00 -8.273301720619201660e-01 1.320774459838867188e+01 3.714124202728271484e+00 1.961648583412170410e+00
2.976000000000000000e+03 8.919834136962890625e+00 3.244846820831298828e+00 3.762106657028198242e+00 8.374640464782714844e+00 3.641024112701416016e+00 -4.474389553070068359e+00
2.977000000000000000e+03 5.166721343994140625e+00 -3.725164413452148438e+00 1.295422554016113281e+00 1.573996782302856445e+00 8.608257770538330078e-01 1.255335927009582520e+00
2.978000000000000000e+03 5.015118598937988281e+00 3.877285242080688477e+00 1.783186078071594238e+00 1.102587103843688965e+00 8.657319545745849609e-01 -8.315530419349670410e-01
2.979000000000000000e+03 5.648236274719238281e+00 3.240485191345214844e+00 2.035893678665161133e+00 1.038914322853088379e+00 9.224423766136169434e-01 -7.651087641716003418e-01
2.980000000000000000e+03 1.061569881439208984e+01 -3.300033807754516602e+00 -7.369652986526489258e-01 1.523688983917236328e+01 4.349977493286132812e+00 1.759414434432983398e+00
2.981000000000000000e+03 5.522610187530517578e+00 -3.967701673507690430e+00 1.388102531433105469e+00 2.046877622604370117e+00 1.030493974685668945e+00 1.593547344207763672e+00
2.982000000000000000e+03 6.861138820648193359e+00 3.514682769775390625e+00 3.004051208496093750e+00 2.710774421691894531e+00 1.714447617530822754e+00 -2.163281440734863281e+00
2.983000000000000000e+03 4.556262969970703125e+00 4.804915904998779297e+00 1.658892393112182617e+00 1.389968276023864746e+00 9.146581888198852539e-01 -1.074736952781677246e+00
2.984000000000000000e+03 5.888849258422851562e+00 -4.189426898956298828e+00 1.404658675193786621e+00 2.585155487060546875e+00 1.196944236755371094e+00 1.925621271133422852e+00
2.985000000000000000e+03 4.384242534637451172e+00 -4.761361122131347656e+00 8.994365930557250977e-01 1.631095409393310547e+00 7.591596245765686035e-01 1.090675115585327148e+00
2.986000000000000000e+03 4.804912090301513672e+00 -3.516861200332641602e+00 1.156661152839660645e+00 1.173536300659179688e+00 6.990592479705810547e-01 9.093564748764038086e-01
2.987000000000000000e+03 6.030354976654052734e+00 -3.806712388992309570e+00 1.566207289695739746e+00 2.431400537490844727e+00 1.199282288551330566e+00 1.939110517501831055e+00
2.988000000000000000e+03 1.384522819519042969e+01 -5.030064105987548828e+00 -4.228567481040954590e-01 1.067436599731445312e+01 3.075452804565429688e+00 -3.411983013153076172e+00
2.989000000000000000e+03 1.083430004119873047e+01 -3.770814418792724609e+00 -9.997469186782836914e-01 1.429692935943603516e+01 3.989154815673828125e+00 1.015004277229309082e+00
2.990000000000000000e+03 1.326737213134765625e+01 -3.950272798538208008e+00 -3.352898061275482178e-01 1.259677314758300781e+01 3.678445100784301758e+00 -3.374485492706298828e+00
2.991000000000000000e+03 5.780710697174072266e+00 5.572507858276367188e+00 2.020957231521606445e+00 3.079990148544311523e+00 1.530284166336059570e+00 -2.245663881301879883e+00
2.992000000000000000e+03 9.512323379516601562e+00 3.693177461624145508e+00 3.394859313964843750e+00 1.124996948242187500e+01 4.393448352813720703e+00 -4.337349891662597656e+00
2.993000000000000000e+03 4.493106842041015625e+00 3.600969076156616211e+00 1.356529712677001953e+00 7.028827071189880371e-01 6.178237199783325195e-01 -3.399670720100402832e-01
2.994000000000000000e+03 5.961612701416015625e+00 6.647431373596191406e+00 1.527821302413940430e+00 3.947674274444580078e+00 1.642648696899414062e+00 -2.610300064086914062e+00
2.995000000000000000e+03 5.310283660888671875e+00 5.903934955596923828e+00 1.690781474113464355e+00 2.725492238998413086e+00 1.324882149696350098e+00 -2.031885147094726562e+00
2.996000000000000000e+03 1.014682388305664062e+01 4.106980323791503906e+00 3.278904676437377930e+00 1.317478942871093750e+01 4.936108589172363281e+00 -3.962059736251831055e+00
2.997000000000000000e+03 9.971631050109863281e+00 4.509864807128906250e+00 2.847265481948852539e+00 1.256656265258789062e+01 4.624148368835449219e+00 -3.929554224014282227e+00
2.998000000000000000e+03 1.085379695892333984e+01 4.745587825775146484e+00 2.675083875656127930e+00 1.518401336669921875e+01 5.357729434967041016e+00 -2.848839044570922852e+00
2.999000000000000000e+03 1.284184551239013672e+01 -2.667207717895507812e+00 5.559697747230529785e-01 1.512099838256835938e+01 4.703090667724609375e+00 -3.597386598587036133e+00
3.000000000000000000e+03 6.490215301513671875e+00 -8.544867515563964844e+00 -1.762593537569046021e-01 4.839051723480224609e+00 1.398837804794311523e+00 1.663563609123229980e+00
3.001000000000000000e+03 6.027527809143066406e+00 -1.001829242706298828e+01 -2.729988396167755127e-01 4.492026805877685547e+00 1.265708446502685547e+00 1.416232466697692871e+00
3.002000000000000000e+03 6.974857330322265625e+00 -1.070500469207763672e+01 -4.447730779647827148e-01 5.129007816314697266e+00 1.405270457267761230e+00 1.290497064590454102e+00
3.003000000000000000e+03 6.733278751373291016e+00 -9.906495094299316406e+00 -3.721182942390441895e-01 5.003032207489013672e+00 1.389274239540100098e+00 1.426227450370788574e+00
3.004000000000000000e+03 1.023978614807128906e+01 5.315316677093505859e+00 2.125671148300170898e+00 1.279444789886474609e+01 4.476035594940185547e+00 -3.572036504745483398e+00
3.005000000000000000e+03 5.733920097351074219e+00 7.786663532257080078e+00 9.366421699523925781e-01 4.327359676361083984e+00 1.579200506210327148e+00 -2.669174909591674805e+00
3.006000000000000000e+03 9.821866989135742188e+00 6.568074703216552734e+00 1.118005633354187012e+00 1.112151813507080078e+01 3.671857357025146484e+00 -3.597303152084350586e+00
3.007000000000000000e+03 5.042760848999023438e+00 5.455825805664062500e+00 1.746125698089599609e+00 2.225082159042358398e+00 1.191362380981445312e+00 -1.698862671852111816e+00
3.008000000000000000e+03 4.652657032012939453e+00 -5.808700084686279297e+00 7.018091678619384766e-01 2.339317083358764648e+00 9.123378396034240723e-01 1.392947912216186523e+00
3.009000000000000000e+03 4.606823444366455078e+00 4.072610378265380859e+00 1.567753911018371582e+00 1.019305825233459473e+00 7.761179208755493164e-01 -6.577816009521484375e-01
3.010000000000000000e+03 8.005408287048339844e+00 8.985138893127441406e+00 1.774014085531234741e-01 7.517728805541992188e+00 2.308538913726806641e+00 -3.161223649978637695e+00
3.011000000000000000e+03 1.327461814880371094e+01 -3.040703773498535156e+00 4.113393723964691162e-01 1.379438495635986328e+01 4.261717319488525391e+00 -3.911850929260253906e+00
3.012000000000000000e+03 1.404391384124755859e+01 -4.097740650177001953e+00 2.979475818574428558e-02 1.108156204223632812e+01 3.333407163619995117e+00 -4.081042289733886719e+00
3.013000000000000000e+03 5.825488090515136719e+00 -6.416146755218505859e+00 4.788073897361755371e-01 3.777740955352783203e+00 1.276964545249938965e+00 1.890055179595947266e+00
3.014000000000000000e+03 4.977863311767578125e+00 -5.367142200469970703e+00 8.673356771469116211e-01 2.396182060241699219e+00 9.790552854537963867e-01 1.520737886428833008e+00
3.015000000000000000e+03 6.161002159118652344e+00 -7.247380256652832031e+00 1.768964827060699463e-01 4.340912342071533203e+00 1.355342745780944824e+00 1.861754775047302246e+00
3.016000000000000000e+03 1.130969619750976562e+01 1.064943027496337891e+01 -1.201410770416259766e+00 9.564985275268554688e+00 2.509072303771972656e+00 -1.120442748069763184e+00
3.017000000000000000e+03 8.690441131591796875e+00 9.154419898986816406e+00 -1.897030919790267944e-01 8.298674583435058594e+00 2.432691574096679688e+00 -2.977313518524169922e+00
3.018000000000000000e+03 5.586252689361572266e+00 -7.013687133789062500e+00 2.985863685607910156e-01 3.720067977905273438e+00 1.205596327781677246e+00 1.746338605880737305e+00
3.019000000000000000e+03 5.994092464447021484e+00 -7.836933612823486328e+00 4.693954810500144958e-02 4.295070171356201172e+00 1.302602887153625488e+00 1.737685918807983398e+00
3.020000000000000000e+03 1.007038211822509766e+01 1.109821319580078125e+01 -1.067529439926147461e+00 8.677573204040527344e+00 2.283013105392456055e+00 -1.947353363037109375e+00
3.021000000000000000e+03 7.653388023376464844e+00 9.722432136535644531e+00 -8.595906943082809448e-02 6.969261169433593750e+00 2.064990520477294922e+00 -2.943369626998901367e+00
3.022000000000000000e+03 6.989805698394775391e+00 9.356527328491210938e+00 1.980946660041809082e-01 6.318283557891845703e+00 1.954913496971130371e+00 -3.023034572601318359e+00
3.023000000000000000e+03 1.148294925689697266e+01 -4.364027023315429688e+00 -1.225491166114807129e+00 1.349370098114013672e+01 3.680462837219238281e+00 -3.714228868484497070e-01
3.024000000000000000e+03 7.905333042144775391e+00 1.184491157531738281e+01 -7.429317235946655273e-01 7.073426246643066406e+00 1.899148344993591309e+00 -2.434749603271484375e+00
3.025000000000000000e+03 6.595022201538085938e+00 7.966212749481201172e+00 8.403956294059753418e-01 5.474133968353271484e+00 1.894358992576599121e+00 -2.968896389007568359e+00
3.026000000000000000e+03 1.333180236816406250e+01 -7.340352058410644531e+00 -7.695062160491943359e-01 9.357623100280761719e+00 2.576435089111328125e+00 -1.930848121643066406e+00
3.027000000000000000e+03 8.738426208496093750e+00 1.451228046417236328e+01 -1.130686044692993164e+00 6.908892154693603516e+00 1.733461737632751465e+00 -1.816181659698486328e+00
3.028000000000000000e+03 1.122095584869384766e+01 1.556928920745849609e+01 -1.366407036781311035e+00 7.045048236846923828e+00 1.703592419624328613e+00 -8.943170309066772461e-01
3.029000000000000000e+03 6.853829193115234375e+01 -1.457954883575439453e+01 -1.477259844541549683e-01 7.479338169097900391e+00 2.199483633041381836e+00 5.233965516090393066e-01
3.030000000000000000e+03 6.814566040039062500e+01 1.213185119628906250e+01 -4.354166686534881592e-01 7.988638401031494141e+00 2.265966653823852539e+00 -3.818256556987762451e-01
3.031000000000000000e+03 6.920195007324218750e+01 9.553256034851074219e+00 -3.452691435813903809e-01 7.993263721466064453e+00 2.294398307800292969e+00 -2.843811511993408203e-01
3.032000000000000000e+03 8.135910034179687500e+00 1.401043415069580078e+01 -9.900074005126953125e-01 6.806460380554199219e+00 1.744935870170593262e+00 -1.908299684524536133e+00
3.033000000000000000e+03 1.186969566345214844e+01 -1.521219158172607422e+01 -5.265159010887145996e-01 5.961048603057861328e+00 1.630359888076782227e+00 6.865601986646652222e-02
3.034000000000000000e+03 1.532450389862060547e+01 1.774861335754394531e+01 -1.145616531372070312e+00 5.627671718597412109e+00 1.344616532325744629e+00 1.677901744842529297e-01
3.035000000000000000e+03 1.028892707824707031e+01 1.595426368713378906e+01 -1.285389065742492676e+00 6.969053268432617188e+00 1.705099225044250488e+00 -1.177761435508728027e+00
3.036000000000000000e+03 9.694528579711914062e+00 -1.233225250244140625e+01 -6.932026147842407227e-01 6.231237411499023438e+00 1.661410450935363770e+00 5.832448601722717285e-01
3.037000000000000000e+03 6.782702636718750000e+01 1.737619781494140625e+01 -4.270848035812377930e-01 8.153561592102050781e+00 2.317943096160888672e+00 -6.389198899269104004e-01
3.038000000000000000e+03 6.904372406005859375e+01 1.755274772644042969e+01 -3.476930856704711914e-01 8.146127700805664062e+00 2.339530467987060547e+00 -6.935080289840698242e-01
3.039000000000000000e+03 1.384215927124023438e+01 -1.004299354553222656e+01 -3.715765178203582764e-01 7.577719211578369141e+00 2.161842823028564453e+00 -1.216666102409362793e+00
3.040000000000000000e+03 6.770906829833984375e+01 -1.703235816955566406e+01 -1.313497871160507202e-01 7.358991622924804688e+00 2.168292522430419922e+00 5.854007601737976074e-01
3.041000000000000000e+03 6.842803192138671875e+01 -1.990939521789550781e+01 -6.030181422829627991e-02 7.357608318328857422e+00 2.189192056655883789e+00 6.033974885940551758e-01
3.042000000000000000e+03 1.437159156799316406e+01 -1.465819644927978516e+01 -3.164664804935455322e-01 6.175365924835205078e+00 1.757669806480407715e+00 -5.344285964965820312e-01
3.043000000000000000e+03 1.339854621887207031e+01 -1.437377452850341797e+01 -4.416701793670654297e-01 6.272685050964355469e+00 1.749304533004760742e+00 -3.040482997894287109e-01
3.044000000000000000e+03 6.925607299804687500e+01 -2.035558462142944336e+00 -2.371079921722412109e-01 7.783363819122314453e+00 2.263876676559448242e+00 1.654857844114303589e-01
3.045000000000000000e+03 6.916312408447265625e+01 1.612053871154785156e+01 -3.751324117183685303e-01 8.125782012939453125e+00 2.325195074081420898e+00 -6.093531847000122070e-01
3.046000000000000000e+03 4.071248626708984375e+01 -7.033332347869873047e+00 -8.849618583917617798e-02 2.523417472839355469e+00 7.304763793945312500e-01 -5.677178129553794861e-02
3.047000000000000000e+03 3.833913421630859375e+01 -3.348108291625976562e+00 6.375128775835037231e-02 1.840391516685485840e+00 5.712428092956542969e-01 3.222668915987014771e-02
3.048000000000000000e+03 8.172387123107910156e+00 1.085011196136474609e+01 -6.053939461708068848e-01 7.340184688568115234e+00 2.020437240600585938e+00 -2.576247930526733398e+00
3.049000000000000000e+03 6.927882385253906250e+01 1.082388496398925781e+01 -3.649469017982482910e-01 8.027485847473144531e+00 2.298761844635009766e+00 -3.411656916141510010e-01
3.050000000000000000e+03 1.083423423767089844e+01 -1.992161750793457031e+01 -4.203380644321441650e-01 5.086233615875244141e+00 1.399768710136413574e+00 2.874405384063720703e-01
3.051000000000000000e+03 1.175983333587646484e+01 -2.307644081115722656e+01 -3.594705164432525635e-01 4.832232952117919922e+00 1.341828703880310059e+00 1.515996754169464111e-01
3.052000000000000000e+03 3.863905334472656250e+01 -4.416010856628417969e+00 3.994214162230491638e-02 1.924316763877868652e+00 5.892776846885681152e-01 1.468148920685052872e-02
3.053000000000000000e+03 3.598718643188476562e+01 1.328807175159454346e-01 1.164020895957946777e-01 1.218344092369079590e+00 4.004238247871398926e-01 1.376549154520034790e-01
3.054000000000000000e+03 1.062180233001708984e+01 -1.652395629882812500e+01 -5.120969414710998535e-01 5.537020683288574219e+00 1.507477045059204102e+00 3.312774598598480225e-01
3.055000000000000000e+03 8.859939575195312500e+00 -1.403886985778808594e+01 -5.765747427940368652e-01 5.540180683135986328e+00 1.489081740379333496e+00 7.150232791900634766e-01
3.056000000000000000e+03 4.190845108032226562e+01 -8.104798316955566406e+00 -1.444304436445236206e-01 2.867097616195678711e+00 8.168001174926757812e-01 -7.007709890604019165e-02
3.057000000000000000e+03 6.859190368652343750e+01 3.345391988754272461e+00 -3.139439821243286133e-01 7.812598705291748047e+00 2.249596357345581055e+00 -6.187800783663988113e-03
3.058000000000000000e+03 5.605363464355468750e+01 2.290037727355957031e+01 -5.868129730224609375e-01 8.095284461975097656e+00 2.252541542053222656e+00 7.949924468994140625e-01
3.059000000000000000e+03 5.859380722045898438e+01 2.359235763549804688e+01 -5.147192478179931641e-01 8.778558731079101562e+00 2.479151725769042969e+00 1.537878662347793579e-01
3.060000000000000000e+03 1.281451416015625000e+01 -1.201342582702636719e+01 -5.287860035896301270e-01 6.881615638732910156e+00 1.905848860740661621e+00 -4.553111791610717773e-01
3.061000000000000000e+03 6.623416137695312500e+01 -2.451698875427246094e+01 4.047267138957977295e-02 7.107789039611816406e+00 2.144478559494018555e+00 6.769802570343017578e-01
3.062000000000000000e+03 6.866067504882812500e+01 -2.488944053649902344e+01 3.686949983239173889e-02 7.240378856658935547e+00 2.183174610137939453e+00 6.231750249862670898e-01
3.063000000000000000e+03 1.205110073089599609e+01 -1.881468582153320312e+01 -4.531272351741790771e-01 5.340830802917480469e+00 1.466311097145080566e+00 1.377916038036346436e-01
3.064000000000000000e+03 7.702547550201416016e+00 -1.249305915832519531e+01 -5.342940688133239746e-01 5.327540874481201172e+00 1.437974095344543457e+00 9.849511981010437012e-01
3.065000000000000000e+03 9.471857070922851562e+00 -1.350742244720458984e+01 -6.142268180847167969e-01 5.825806617736816406e+00 1.563473939895629883e+00 6.062252521514892578e-01
3.066000000000000000e+03 4.110099411010742188e+01 2.560020446777343750e+00 -1.040727123618125916e-01 2.347895383834838867e+00 6.731468439102172852e-01 3.631159961223602295e-01
3.067000000000000000e+03 4.258794021606445312e+01 6.112683773040771484e+00 -1.905833780765533447e-01 2.646016836166381836e+00 7.366300821304321289e-01 5.428145527839660645e-01
3.068000000000000000e+03 4.665637969970703125e+01 1.758661079406738281e+01 -6.999368220567703247e-02 3.567052125930786133e+00 1.049117565155029297e+00 1.238221883773803711e+00
3.069000000000000000e+03 4.507640075683593750e+01 1.412065410614013672e+01 -1.752747148275375366e-01 3.093411445617675781e+00 8.754410147666931152e-01 9.308856725692749023e-01
3.070000000000000000e+03 4.376016998291015625e+01 1.239918518066406250e+01 -1.691406667232513428e-01 2.745779991149902344e+00 7.729918360710144043e-01 7.982002496719360352e-01
3.071000000000000000e+03 1.180801391601562500e+01 -1.396404361724853516e+01 -5.725939273834228516e-01 6.243836879730224609e+00 1.701372861862182617e+00 4.066729545593261719e-02
3.072000000000000000e+03 1.409982395172119141e+01 1.847756576538085938e+01 -1.195101380348205566e+00 5.800816059112548828e+00 1.381714463233947754e+00 -1.274613142013549805e-01
3.073000000000000000e+03 6.906370544433593750e+01 -8.416562080383300781e+00 -1.915228515863418579e-01 7.663134574890136719e+00 2.241483449935913086e+00 3.641870915889739990e-01
3.074000000000000000e+03 5.322222137451171875e+01 1.941095733642578125e+01 -5.392243266105651855e-01 6.477700710296630859e+00 1.781542897224426270e+00 1.114410042762756348e+00
3.075000000000000000e+03 5.646278381347656250e+01 2.155040550231933594e+01 -6.188905239105224609e-01 7.857924938201904297e+00 2.171710252761840820e+00 6.679967045783996582e-01
3.076000000000000000e+03 6.319797134399414062e+01 2.730483818054199219e+01 1.664301306009292603e-01 9.141918182373046875e+00 2.792504549026489258e+00 -7.435682415962219238e-01
3.077000000000000000e+03 6.687895202636718750e+01 2.372875213623046875e+01 -1.935698539018630981e-01 8.439309120178222656e+00 2.473721981048583984e+00 -8.875876069068908691e-01
3.078000000000000000e+03 1.852594566345214844e+01 2.043284225463867188e+01 -7.997505068778991699e-01 3.943814039230346680e+00 9.432190656661987305e-01 3.401466906070709229e-01
3.079000000000000000e+03 6.889729309082031250e+01 1.904209709167480469e+01 -3.376055955886840820e-01 8.183585166931152344e+00 2.353793859481811523e+00 -7.518965005874633789e-01
3.080000000000000000e+03 4.397085189819335938e+01 -1.423811817169189453e+01 -2.719957828521728516e-01 3.629096031188964844e+00 1.007130146026611328e+00 -2.465543448925018311e-01
3.081000000000000000e+03 1.459741210937500000e+01 -1.739283752441406250e+01 -3.673841059207916260e-01 5.671051979064941406e+00 1.591100454330444336e+00 -3.317207396030426025e-01
3.082000000000000000e+03 4.252038192749023438e+01 7.858456611633300781e+00 -1.970584988594055176e-01 2.573362588882446289e+00 7.128912210464477539e-01 5.969407558441162109e-01
3.083000000000000000e+03 4.814997863769531250e+01 1.463941574096679688e+01 -3.331104218959808350e-01 4.205882549285888672e+00 1.161831617355346680e+00 1.056599855422973633e+00
3.084000000000000000e+03 3.908981704711914062e+01 3.358072519302368164e+00 -4.158966615796089172e-02 1.868307352066040039e+00 5.480152964591979980e-01 3.490628302097320557e-01
3.085000000000000000e+03 4.774007415771484375e+01 1.736034584045410156e+01 -1.715299189090728760e-01 3.998666524887084961e+00 1.148141026496887207e+00 1.243600726127624512e+00
3.086000000000000000e+03 5.539993286132812500e+01 2.106544876098632812e+01 -6.401359438896179199e-01 7.494915485382080078e+00 2.056433916091918945e+00 8.441315889358520508e-01
3.087000000000000000e+03 6.839030456542968750e+01 2.208554983139038086e+00 -3.003866076469421387e-01 7.767407417297363281e+00 2.240106344223022461e+00 4.298914968967437744e-02
3.088000000000000000e+03 6.456483459472656250e+01 -2.578652000427246094e+01 8.927885442972183228e-02 7.020990371704101562e+00 2.133080720901489258e+00 6.838456988334655762e-01
3.089000000000000000e+03 6.584364318847656250e+01 -2.748903846740722656e+01 1.454573422670364380e-01 7.038537502288818359e+00 2.155198574066162109e+00 6.617893576622009277e-01
3.090000000000000000e+03 4.640562057495117188e+01 1.383601951599121094e+01 -2.496020793914794922e-01 3.645784854888916016e+00 1.018854856491088867e+00 9.752119779586791992e-01
3.091000000000000000e+03 5.105318450927734375e+01 1.772930526733398438e+01 -4.548439979553222656e-01 5.428266048431396484e+00 1.492026686668395996e+00 1.177735686302185059e+00
3.092000000000000000e+03 4.233504867553710938e+01 -1.185718441009521484e+01 -2.053227573633193970e-01 3.081951856613159180e+00 8.629887104034423828e-01 -2.135651856660842896e-01
3.093000000000000000e+03 4.477066040039062500e+01 -1.531101226806640625e+01 -2.920319437980651855e-01 3.929751634597778320e+00 1.091315865516662598e+00 -2.342954576015472412e-01
3.094000000000000000e+03 1.789801406860351562e+01 -2.202484130859375000e+01 -2.355131208896636963e-01 4.724772453308105469e+00 1.346777796745300293e+00 -5.685027241706848145e-01
3.095000000000000000e+03 1.579128742218017578e+01 -1.985065078735351562e+01 -3.356255590915679932e-01 5.210350036621093750e+00 1.462417364120483398e+00 -3.806913495063781738e-01
3.096000000000000000e+03 1.696995925903320312e+01 -2.406596946716308594e+01 -2.709179818630218506e-01 4.571129322052001953e+00 1.290063381195068359e+00 -3.637679219245910645e-01
3.097000000000000000e+03 9.109422683715820312e+00 2.262839889526367188e+01 -7.017472386360168457e-01 5.893867492675781250e+00 1.557636141777038574e+00 -7.560378313064575195e-01
3.098000000000000000e+03 4.128915023803710938e+01 3.906167030334472656e+00 -1.175948381423950195e-01 2.374223947525024414e+00 6.769887208938598633e-01 4.293947517871856689e-01
3.099000000000000000e+03 6.884101867675781250e+01 3.263846969604492188e+01 5.671643018722534180e-01 8.251482009887695312e+00 2.645593881607055664e+00 -6.818927526473999023e-01
3.100000000000000000e+03 6.813989257812500000e+01 2.723719787597656250e+01 1.441255211830139160e-01 8.340415954589843750e+00 2.545362472534179688e+00 -9.580831527709960938e-01
3.101000000000000000e+03 7.047181701660156250e+01 2.600906562805175781e+01 1.454494986683130264e-02 8.059770584106445312e+00 2.422294616699218750e+00 -9.318130612373352051e-01
3.102000000000000000e+03 1.177938652038574219e+01 2.148768234252929688e+01 -9.587094783782958984e-01 5.735858440399169922e+00 1.433144688606262207e+00 -5.544501543045043945e-01
3.103000000000000000e+03 1.219764518737792969e+01 -2.836532020568847656e+01 -2.439813464879989624e-01 4.459722995758056641e+00 1.264722466468811035e+00 7.170271128416061401e-02
3.104000000000000000e+03 1.880288887023925781e+01 -2.721532058715820312e+01 -1.693661808967590332e-01 4.079156398773193359e+00 1.172937035560607910e+00 -4.187139272689819336e-01
3.105000000000000000e+03 6.385224533081054688e+01 3.400525665283203125e+01 1.193955540657043457e+00 9.397976875305175781e+00 3.177579641342163086e+00 -2.782037854194641113e-01
3.106000000000000000e+03 6.155161285400390625e+01 3.155518531799316406e+01 1.188168048858642578e+00 9.932292938232421875e+00 3.336138248443603516e+00 -5.351996421813964844e-01
3.107000000000000000e+03 5.019982528686523438e+01 -2.790447235107421875e+01 1.618728041648864746e-01 6.442036628723144531e+00 1.981172800064086914e+00 2.816329002380371094e-01
3.108000000000000000e+03 5.160084152221679688e+01 -2.582246208190917969e+01 1.261345297098159790e-02 6.350799083709716797e+00 1.909023642539978027e+00 3.954738378524780273e-01
3.109000000000000000e+03 6.299788665771484375e+01 2.939284324645996094e+01 5.774061083793640137e-01 9.310509681701660156e+00 2.966374635696411133e+00 -7.667226195335388184e-01
3.110000000000000000e+03 3.687614822387695312e+01 -2.422641277313232422e+00 1.255296468734741211e-01 1.520715117454528809e+00 4.938734471797943115e-01 5.455770343542098999e-02
3.111000000000000000e+03 1.118683052062988281e+01 -3.170121955871582031e+01 -1.754002869129180908e-01 4.347545623779296875e+00 1.251643657684326172e+00 7.480437308549880981e-02
3.112000000000000000e+03 5.106663513183593750e+01 -2.224724388122558594e+01 -2.805033922195434570e-01 5.860396385192871094e+00 1.673967838287353516e+00 2.355332076549530029e-01
3.113000000000000000e+03 1.180550670623779297e+01 2.308074569702148438e+01 -8.311231732368469238e-01 5.499683856964111328e+00 1.400568127632141113e+00 -4.853013455867767334e-01
3.114000000000000000e+03 6.887026214599609375e+01 3.007449340820312500e+01 3.443580567836761475e-01 8.200066566467285156e+00 2.563327550888061523e+00 -8.341955542564392090e-01
3.115000000000000000e+03 3.348564147949218750e+01 3.367603302001953125e+01 -3.528037369251251221e-01 9.411420673131942749e-03 -1.030176952481269836e-01 -2.887832224369049072e-01
3.116000000000000000e+03 3.860169219970703125e+01 1.055119037628173828e+00 1.929094456136226654e-02 1.793228864669799805e+00 5.437559485435485840e-01 2.544875442981719971e-01
3.117000000000000000e+03 3.867095184326171875e+01 2.279795169830322266e+00 -1.940735429525375366e-02 1.734815239906311035e+00 5.146223902702331543e-01 2.919479906558990479e-01
3.118000000000000000e+03 1.595167827606201172e+01 1.914560317993164062e+01 -1.048295259475708008e+00 5.028000831604003906e+00 1.193911671638488770e+00 1.721900254487991333e-01
3.119000000000000000e+03 9.472261428833007812e+00 1.978056144714355469e+01 -9.437581896781921387e-01 6.147502422332763672e+00 1.561123251914978027e+00 -9.723811149597167969e-01
3.120000000000000000e+03 1.053541946411132812e+01 2.142208671569824219e+01 -9.301822781562805176e-01 5.896277427673339844e+00 1.489828586578369141e+00 -7.046070694923400879e-01
3.121000000000000000e+03 6.923920440673828125e+01 1.475012588500976562e+01 -3.639540672302246094e-01 8.096349716186523438e+00 2.319718599319458008e+00 -5.487517714500427246e-01
3.122000000000000000e+03 7.044246673583984375e+01 1.482240009307861328e+01 -3.145452439785003662e-01 8.134552001953125000e+00 2.346002101898193359e+00 -5.568342208862304688e-01
3.123000000000000000e+03 6.817255401611328125e+01 -1.579384994506835938e+01 -1.353454589843750000e-01 7.430907249450683594e+00 2.188668489456176758e+00 5.474787950515747070e-01
3.124000000000000000e+03 2.408091735839843750e+01 2.877679443359375000e+01 -4.316921830177307129e-01 1.949971795082092285e+00 4.554838836193084717e-01 2.392687089741230011e-02
3.125000000000000000e+03 2.019662857055664062e+01 2.491027069091796875e+01 -6.026583313941955566e-01 3.094780445098876953e+00 7.476366162300109863e-01 1.516212075948715210e-01
3.126000000000000000e+03 3.554608154296875000e+01 -1.077389240264892578e+00 1.851746141910552979e-01 1.177720665931701660e+00 4.088685810565948486e-01 9.879313409328460693e-02
3.127000000000000000e+03 7.925012588500976562e+00 -3.342708826065063477e+00 1.918615937232971191e+00 5.753956317901611328e+00 2.301771640777587891e+00 3.925471305847167969e+00
3.128000000000000000e+03 7.141299724578857422e+00 3.640414714813232422e+00 3.211586713790893555e+00 3.188889980316162109e+00 1.920143008232116699e+00 -2.636982440948486328e+00
3.129000000000000000e+03 6.798520088195800781e+00 -3.678054094314575195e+00 1.773669600486755371e+00 3.400465011596679688e+00 1.552240371704101562e+00 2.638103961944580078e+00
3.130000000000000000e+03 7.898185729980468750e+00 -3.624127388000488281e+00 1.544753193855285645e+00 5.871951103210449219e+00 2.225011348724365234e+00 3.669855833053588867e+00
3.131000000000000000e+03 8.384177207946777344e+00 -3.416287183761596680e+00 1.455058097839355469e+00 7.328762054443359375e+00 2.635146141052246094e+00 4.085224151611328125e+00
3.132000000000000000e+03 4.633367538452148438e+00 -3.972039222717285156e+00 1.088364958763122559e+00 1.363837480545043945e+00 7.356607317924499512e-01 1.011739611625671387e+00
3.133000000000000000e+03 6.273585319519042969e+00 -4.363409042358398438e+00 1.341778039932250977e+00 3.233779430389404297e+00 1.372667193412780762e+00 2.239036321640014648e+00
3.134000000000000000e+03 7.051391601562500000e+00 4.364945888519287109e+00 2.984879970550537109e+00 3.846909999847412109e+00 2.049536943435668945e+00 -2.913976430892944336e+00
3.135000000000000000e+03 9.104623794555664062e+00 -3.799137592315673828e+00 4.318869113922119141e-01 9.803944587707519531e+00 3.070749521255493164e+00 3.792537689208984375e+00
3.136000000000000000e+03 4.828716754913330078e+00 -4.988200664520263672e+00 8.729453682899475098e-01 2.093412399291992188e+00 8.899073004722595215e-01 1.320791125297546387e+00
3.137000000000000000e+03 5.323905467987060547e+00 -4.364294528961181641e+00 1.195219874382019043e+00 2.142250776290893555e+00 1.001241207122802734e+00 1.535940766334533691e+00
3.138000000000000000e+03 9.944143295288085938e+00 -4.012874126434326172e+00 -5.612055659294128418e-01 1.207424449920654297e+01 3.453911542892456055e+00 2.661603212356567383e+00
3.139000000000000000e+03 8.197361946105957031e+00 -3.638657093048095703e+00 1.365036010742187500e+00 6.734673500061035156e+00 2.429912805557250977e+00 3.852383613586425781e+00
3.140000000000000000e+03 9.080513000488281250e+00 4.005796432495117188e+00 3.449644804000854492e+00 9.161763191223144531e+00 3.783422470092773438e+00 -4.220578193664550781e+00
3.141000000000000000e+03 5.771312236785888672e+00 3.679331541061401367e+00 2.299551010131835938e+00 1.535320043563842773e+00 1.150461316108703613e+00 -1.266806364059448242e+00
3.142000000000000000e+03 5.691959381103515625e+00 4.612276554107666016e+00 2.268220901489257812e+00 2.202218055725097656e+00 1.341131687164306641e+00 -1.796484470367431641e+00
3.143000000000000000e+03 9.647553443908691406e+00 4.771351337432861328e+00 2.783661603927612305e+00 1.127426815032958984e+01 4.217378616333007812e+00 -3.937490701675415039e+00
3.144000000000000000e+03 1.007605934143066406e+01 5.941265106201171875e+00 1.670949816703796387e+00 1.159512805938720703e+01 3.979823350906372070e+00 -3.533457040786743164e+00
3.145000000000000000e+03 6.299573898315429688e+00 6.982274532318115234e+00 1.389593839645385742e+00 4.605809211730957031e+00 1.798620939254760742e+00 -2.895862579345703125e+00
3.146000000000000000e+03 6.567323207855224609e+00 -9.187810897827148438e+00 -2.726982831954956055e-01 4.906722545623779297e+00 1.390207290649414062e+00 1.545809268951416016e+00
3.147000000000000000e+03 1.246118545532226562e+01 -4.517663955688476562e+00 -9.791666865348815918e-01 1.279417133331298828e+01 3.544501304626464844e+00 -1.982449889183044434e+00
3.148000000000000000e+03 9.367848396301269531e+00 4.389854431152343750e+00 3.086614370346069336e+00 1.059255027770996094e+01 4.103749275207519531e+00 -4.324155807495117188e+00
3.149000000000000000e+03 4.973692893981933594e+00 4.958563327789306641e+00 1.843901515007019043e+00 1.832131743431091309e+00 1.102810025215148926e+00 -1.404403567314147949e+00
3.150000000000000000e+03 6.243736743927001953e+00 4.215768337249755859e+00 2.602205276489257812e+00 2.435240983963012695e+00 1.511233925819396973e+00 -2.015072107315063477e+00
3.151000000000000000e+03 6.626842021942138672e+00 7.311517238616943359e+00 1.223935842514038086e+00 5.164799690246582031e+00 1.916620731353759766e+00 -3.004257678985595703e+00
3.152000000000000000e+03 5.441608428955078125e+00 -5.635746955871582031e+00 7.644717097282409668e-01 3.008046150207519531e+00 1.131755352020263672e+00 1.740393757820129395e+00
3.153000000000000000e+03 1.036931324005126953e+01 4.749799251556396484e+00 2.674187421798706055e+00 1.294114875793457031e+01 4.684600830078125000e+00 -3.741626739501953125e+00
3.154000000000000000e+03 1.182355308532714844e+01 -3.287466287612915039e+00 -6.654986143112182617e-01 1.568569183349609375e+01 4.506057739257812500e+00 -1.365365862846374512e+00
3.155000000000000000e+03 1.368391323089599609e+01 -3.529615163803100586e+00 1.586018651723861694e-01 1.253456401824951172e+01 3.807949542999267578e+00 -4.143128871917724609e+00
3.156000000000000000e+03 1.251097774505615234e+01 -8.741099357604980469e+00 -7.972601652145385742e-01 8.506630897521972656e+00 2.312811374664306641e+00 -9.496189951896667480e-01
3.157000000000000000e+03 9.438826560974121094e+00 7.206806182861328125e+00 7.623989582061767578e-01 9.851926803588867188e+00 3.184297800064086914e+00 -3.413702726364135742e+00
3.158000000000000000e+03 7.686855792999267578e+00 8.199764251708984375e+00 6.135017871856689453e-01 7.055752754211425781e+00 2.300776243209838867e+00 -3.316266059875488281e+00
3.159000000000000000e+03 7.228051185607910156e+00 7.336432456970214844e+00 1.200445055961608887e+00 6.080818176269531250e+00 2.184378862380981445e+00 -3.243355512619018555e+00
3.160000000000000000e+03 9.256749153137207031e+00 6.236378669738769531e+00 1.659628510475158691e+00 9.557919502258300781e+00 3.365264415740966797e+00 -3.783808708190917969e+00
3.161000000000000000e+03 6.906778335571289062e+00 8.381080627441406250e+00 6.552885770797729492e-01 5.985641956329345703e+00 1.992279171943664551e+00 -3.158941268920898438e+00
3.162000000000000000e+03 6.990574836730957031e+00 -8.535159111022949219e+00 -2.622529864311218262e-01 5.302528858184814453e+00 1.512082815170288086e+00 1.666976332664489746e+00
3.163000000000000000e+03 1.346382808685302734e+01 -6.555706024169921875e+00 -7.390069365501403809e-01 9.891863822937011719e+00 2.745857000350952148e+00 -2.281547546386718750e+00
3.164000000000000000e+03 1.345699691772460938e+01 -5.830568313598632812e+00 -7.091832160949707031e-01 1.047108936309814453e+01 2.928571939468383789e+00 -2.706044673919677734e+00
3.165000000000000000e+03 1.358689975738525391e+01 -4.449801445007324219e+00 -3.780399560928344727e-01 1.181551074981689453e+01 3.431241035461425781e+00 -3.525035142898559570e+00
3.166000000000000000e+03 7.162436962127685547e+00 -9.068598747253417969e+00 -3.764727115631103516e-01 5.409078121185302734e+00 1.509781599044799805e+00 1.546617627143859863e+00
3.167000000000000000e+03 1.303351497650146484e+01 -8.127611160278320312e+00 -7.575721144676208496e-01 8.803622245788574219e+00 2.413815021514892578e+00 -1.431833744049072266e+00
3.168000000000000000e+03 1.199336528778076172e+01 -8.201194763183593750e+00 -9.938170313835144043e-01 8.893235206604003906e+00 2.369825601577758789e+00 -6.791335344314575195e-01
3.169000000000000000e+03 8.280749320983886719e+00 7.751619338989257812e+00 7.456387877464294434e-01 7.892796039581298828e+00 2.591530323028564453e+00 -3.395379781723022461e+00
3.170000000000000000e+03 9.263291358947753906e+00 1.004822254180908203e+01 -7.238018512725830078e-01 8.539638519287109375e+00 2.344751119613647461e+00 -2.544560194015502930e+00
3.171000000000000000e+03 1.311245918273925781e+01 -1.029138183593750000e+01 -5.118811130523681641e-01 7.574835300445556641e+00 2.118886232376098633e+00 -9.158570170402526855e-01
3.172000000000000000e+03 1.308816337585449219e+01 -1.628085136413574219e+01 -4.522750377655029297e-01 5.835021018981933594e+00 1.614823698997497559e+00 -1.100283116102218628e-01
3.173000000000000000e+03 1.448043155670166016e+01 -1.870415306091308594e+01 -3.888007700443267822e-01 5.410322666168212891e+00 1.506456613540649414e+00 -2.364282906055450439e-01
3.174000000000000000e+03 3.951367950439453125e+01 -3.056560754776000977e+00 5.971759092062711716e-03 2.142607688903808594e+00 6.445738673210144043e-01 1.001913323998451233e-01
3.175000000000000000e+03 3.695324325561523438e+01 -1.240289449691772461e+00 1.171574443578720093e-01 1.466007113456726074e+00 4.749493598937988281e-01 9.732076525688171387e-02
3.176000000000000000e+03 4.557353591918945312e+01 -1.627190208435058594e+01 -3.285417258739471436e-01 4.148850917816162109e+00 1.146092772483825684e+00 -2.363855540752410889e-01
3.177000000000000000e+03 4.503638076782226562e+01 -1.330049133300781250e+01 -3.024054467678070068e-01 3.885562896728515625e+00 1.074947237968444824e+00 -1.448897868394851685e-01
3.178000000000000000e+03 1.066228675842285156e+01 -1.530432128906250000e+01 -5.449919700622558594e-01 5.736982345581054688e+00 1.557597160339355469e+00 3.312022089958190918e-01
3.179000000000000000e+03 6.800003814697265625e+01 1.598906135559082031e+01 -4.221603274345397949e-01 8.096575736999511719e+00 2.302324533462524414e+00 -5.838890075683593750e-01
3.180000000000000000e+03 1.120160484313964844e+01 1.844213104248046875e+01 -1.184559583663940430e+00 6.345331192016601562e+00 1.548231482505798340e+00 -7.930408716201782227e-01
3.181000000000000000e+03 1.054289245605468750e+01 2.003061103820800781e+01 -1.000011563301086426e+00 6.067476272583007812e+00 1.520239472389221191e+00 -8.095040321350097656e-01
3.182000000000000000e+03 1.339490890502929688e+01 -1.106898117065429688e+01 -4.643596112728118896e-01 7.246734619140625000e+00 2.034712553024291992e+00 -8.207248449325561523e-01
3.183000000000000000e+03 6.873358917236328125e+01 2.059900856018066406e+01 -2.796641588211059570e-01 8.210889816284179688e+00 2.379367589950561523e+00 -8.361729383468627930e-01
3.184000000000000000e+03 6.760505676269531250e+01 1.884179306030273438e+01 -3.918807208538055420e-01 8.200746536254882812e+00 2.342659711837768555e+00 -7.194190025329589844e-01
3.185000000000000000e+03 6.727673339843750000e+01 3.507251262664794922e+00 -3.591845035552978516e-01 7.653431415557861328e+00 2.188274145126342773e+00 1.582564786076545715e-02
3.186000000000000000e+03 8.433268547058105469e+00 9.957991600036621094e+00 -3.885259032249450684e-01 7.833386898040771484e+00 2.233458280563354492e+00 -2.753802537918090820e+00
3.187000000000000000e+03 6.970596313476562500e+01 -7.106149673461914062e+00 -1.795981973409652710e-01 7.761403083801269531e+00 2.274541378021240234e+00 3.167048096656799316e-01
3.188000000000000000e+03 8.977496147155761719e+00 -1.280320930480957031e+01 -6.221600174903869629e-01 5.847712039947509766e+00 1.567665576934814453e+00 7.315400242805480957e-01
3.189000000000000000e+03 1.065086269378662109e+01 -1.412113857269287109e+01 -6.080123782157897949e-01 5.998885631561279297e+00 1.617261886596679688e+00 3.184123933315277100e-01
3.190000000000000000e+03 1.246173286437988281e+01 1.621088027954101562e+01 -1.367147922515869141e+00 6.750112056732177734e+00 1.614889144897460938e+00 -5.104277729988098145e-01
3.191000000000000000e+03 4.311146545410156250e+01 4.516013145446777344e+00 -1.941169798374176025e-01 2.834793567657470703e+00 7.922030091285705566e-01 5.008057951927185059e-01
3.192000000000000000e+03 3.995584869384765625e+01 -5.341053009033203125e+00 -3.855744004249572754e-02 2.278028964996337891e+00 6.718414425849914551e-01 -7.801579777151346207e-03
3.193000000000000000e+03 6.808111572265625000e+01 1.339012527465820312e+01 -4.166724383831024170e-01 8.018105506896972656e+00 2.280429840087890625e+00 -4.531705379486083984e-01
3.194000000000000000e+03 3.824158859252929688e+01 -1.353263139724731445e+00 6.927979737520217896e-02 1.805920362472534180e+00 5.625600218772888184e-01 1.419340372085571289e-01
3.195000000000000000e+03 1.093013381958007812e+01 1.431634807586669922e+01 -1.392887592315673828e+00 7.567904472351074219e+00 1.852505087852478027e+00 -1.116885781288146973e+00
3.196000000000000000e+03 6.744475555419921875e+01 -1.431585979461669922e+01 -1.726220548152923584e-01 7.386257171630859375e+00 2.164090633392333984e+00 5.334898233413696289e-01
3.197000000000000000e+03 4.850310134887695312e+01 1.580229663848876953e+01 -3.243109583854675293e-01 4.302540302276611328e+00 1.193468809127807617e+00 1.125337123870849609e+00
3.198000000000000000e+03 4.884582138061523438e+01 1.701130104064941406e+01 -2.722256779670715332e-01 4.516795158386230469e+00 1.273370862007141113e+00 1.211379528045654297e+00
3.199000000000000000e+03 1.067153549194335938e+01 1.717617034912109375e+01 -1.256265401840209961e+00 6.589658737182617188e+00 1.600018024444580078e+00 -9.576712846755981445e-01
3.200000000000000000e+03 6.973522186279296875e+01 2.409678268432617188e+01 -8.932176977396011353e-02 8.157253265380859375e+00 2.420379638671875000e+00 -9.351845383644104004e-01
3.201000000000000000e+03 4.366394805908203125e+01 1.049722480773925781e+01 -2.085260152816772461e-01 2.811543703079223633e+00 7.809053063392639160e-01 7.353367209434509277e-01
3.202000000000000000e+03 8.973684310913085938e+00 1.207771968841552734e+01 -1.010267972946166992e+00 7.625397682189941406e+00 1.984538912773132324e+00 -2.096709012985229492e+00
3.203000000000000000e+03 3.852463912963867188e+01 -2.250371128320693970e-01 3.221793845295906067e-02 1.801315665245056152e+00 5.500600934028625488e-01 1.862558126449584961e-01
3.204000000000000000e+03 3.741519165039062500e+01 1.108258485794067383e+00 4.976717010140419006e-02 1.501086354255676270e+00 4.652560651302337646e-01 1.995508968830108643e-01
3.205000000000000000e+03 1.184462642669677734e+01 -1.281962871551513672e+01 -6.305125355720520020e-01 6.575675010681152344e+00 1.783548831939697266e+00 -2.299250662326812744e-02
3.206000000000000000e+03 5.924110794067382812e+01 2.468596076965332031e+01 -3.871608674526214600e-01 9.007502555847167969e+00 2.586102485656738281e+00 2.181881340220570564e-03
3.207000000000000000e+03 4.885860824584960938e+01 1.245428848266601562e+01 -4.270708560943603516e-01 4.381546974182128906e+00 1.186342835426330566e+00 8.983666896820068359e-01
3.208000000000000000e+03 4.827420806884765625e+01 1.357754421234130859e+01 -3.572998642921447754e-01 4.244169235229492188e+00 1.166060805320739746e+00 9.734530448913574219e-01
3.209000000000000000e+03 4.461290359497070312e+01 1.126546287536621094e+01 -2.453384846448898315e-01 3.064713478088378906e+00 8.458124995231628418e-01 7.815310955047607422e-01
3.210000000000000000e+03 5.681653594970703125e+01 1.849787139892578125e+01 -7.589011788368225098e-01 7.390835762023925781e+00 1.989580392837524414e+00 5.053462386131286621e-01
3.211000000000000000e+03 4.253616714477539062e+01 1.162978291511535645e+00 -1.518403589725494385e-01 2.755617856979370117e+00 7.811332941055297852e-01 3.554352819919586182e-01
3.212000000000000000e+03 4.478989410400390625e+01 9.501659393310546875e+00 -2.775745391845703125e-01 3.202797174453735352e+00 8.775668144226074219e-01 7.249598503112792969e-01
3.213000000000000000e+03 1.607116889953613281e+01 -2.116210937500000000e+01 -3.257826864719390869e-01 5.005563259124755859e+00 1.403934121131896973e+00 -3.628575503826141357e-01
3.214000000000000000e+03 1.467115879058837891e+01 -2.145347785949707031e+01 -3.680531680583953857e-01 5.018194675445556641e+00 1.395042419433593750e+00 -1.680815666913986206e-01
3.215000000000000000e+03 7.126996612548828125e+01 3.307494735717773438e+01 3.707641959190368652e-01 7.738851070404052734e+00 2.432884693145751953e+00 -6.157777309417724609e-01
3.216000000000000000e+03 6.657846069335937500e+01 3.227608489990234375e+01 7.183994650840759277e-01 8.650685310363769531e+00 2.810725212097167969e+00 -6.414563655853271484e-01
3.217000000000000000e+03 6.723140716552734375e+01 -1.841431617736816406e+01 -1.162217780947685242e-01 7.301055431365966797e+00 2.155450105667114258e+00 6.074783205986022949e-01
3.218000000000000000e+03 4.990360641479492188e+01 1.679211044311523438e+01 -3.980569243431091309e-01 4.957151889801025391e+00 1.367728471755981445e+00 1.152065396308898926e+00
3.219000000000000000e+03 5.019919204711914062e+01 1.792223167419433594e+01 -3.495338857173919678e-01 5.110383510589599609e+00 1.428254961967468262e+00 1.255761742591857910e+00
3.220000000000000000e+03 4.316674423217773438e+01 -1.308844470977783203e+01 -2.288565635681152344e-01 3.375312566757202148e+00 9.439367651939392090e-01 -2.252740263938903809e-01
3.221000000000000000e+03 4.719139480590820312e+01 -1.145838928222656250e+01 -3.601960539817810059e-01 4.302648544311523438e+00 1.182735800743103027e+00 1.977708376944065094e-02
3.222000000000000000e+03 1.762216377258300781e+01 2.130705070495605469e+01 -8.898162245750427246e-01 4.202484607696533203e+00 9.938005208969116211e-01 2.348617911338806152e-01
3.223000000000000000e+03 1.491188716888427734e+01 1.998670196533203125e+01 -1.071288824081420898e+00 5.296324729919433594e+00 1.267510890960693359e+00 -4.889450967311859131e-02
3.224000000000000000e+03 6.831239318847656250e+01 2.387298011779785156e+01 -1.156800091266632080e-01 8.294826507568359375e+00 2.453744173049926758e+00 -9.466149210929870605e-01
3.225000000000000000e+03 6.736121368408203125e+01 2.039549636840820312e+01 -3.671374917030334473e-01 8.276980400085449219e+00 2.372952938079833984e+00 -7.741088271141052246e-01
3.226000000000000000e+03 6.151766967773437500e+01 2.667988967895507812e+01 5.680950731039047241e-02 9.289951324462890625e+00 2.804028272628784180e+00 -5.508608222007751465e-01
3.227000000000000000e+03 6.809162139892578125e+01 2.554464721679687500e+01 -4.204079596092924476e-05 8.336254119873046875e+00 2.500863552093505859e+00 -9.476658105850219727e-01
3.228000000000000000e+03 4.392121124267578125e+01 -8.649648666381835938e+00 -2.323819547891616821e-01 3.393063306808471680e+00 9.482043981552124023e-01 -2.751935832202434540e-02
3.229000000000000000e+03 4.275491333007812500e+01 -9.543896675109863281e+00 -2.006191611289978027e-01 3.138961553573608398e+00 8.815027475357055664e-01 -1.081319823861122131e-01
3.230000000000000000e+03 6.526544189453125000e+01 -2.273663902282714844e+01 -2.508988231420516968e-02 7.106452941894531250e+00 2.124408960342407227e+00 6.814874410629272461e-01
3.231000000000000000e+03 6.893061828613281250e+01 2.825563430786132812e+01 2.527245879173278809e-01 8.219696998596191406e+00 2.541726350784301758e+00 -9.409103989601135254e-01
3.232000000000000000e+03 3.986610412597656250e+01 1.109215259552001953e+00 -3.631811961531639099e-02 2.088998556137084961e+00 6.158041357994079590e-01 2.892712056636810303e-01
3.233000000000000000e+03 3.977136611938476562e+01 2.415633916854858398e+00 -6.093198433518409729e-02 2.065019130706787109e+00 6.012261509895324707e-01 3.405766487121582031e-01
3.234000000000000000e+03 7.108400726318359375e+01 3.560174560546875000e+01 4.356664121150970459e-01 7.853566169738769531e+00 2.486769914627075195e+00 -4.398228526115417480e-01
3.235000000000000000e+03 1.072071838378906250e+01 -1.774750900268554688e+01 -4.767181277275085449e-01 5.364211559295654297e+00 1.466248035430908203e+00 3.191637098789215088e-01
3.236000000000000000e+03 1.326567649841308594e+01 -1.875344848632812500e+01 -4.279365241527557373e-01 5.399166584014892578e+00 1.491369009017944336e+00 -4.425513371825218201e-02
3.237000000000000000e+03 1.644190597534179688e+01 -2.256165695190429688e+01 -3.000619411468505859e-01 4.782203674316406250e+00 1.344642519950866699e+00 -3.667819201946258545e-01
3.238000000000000000e+03 1.773881912231445312e+01 -2.563928222656250000e+01 -2.226301431655883789e-01 4.321020126342773438e+00 1.229516983032226562e+00 -3.909067213535308838e-01
3.239000000000000000e+03 1.283829307556152344e+01 -1.375183010101318359e+01 -5.028170347213745117e-01 6.399347305297851562e+00 1.768959164619445801e+00 -2.550947964191436768e-01
3.240000000000000000e+03 4.845799255371093750e+01 -2.823512840270996094e+01 1.536237150430679321e-01 6.403404235839843750e+00 1.967108488082885742e+00 5.766165256500244141e-02
3.241000000000000000e+03 4.656540679931640625e+01 -1.553394412994384766e+01 -3.562073111534118652e-01 4.432278156280517578e+00 1.222821235656738281e+00 -1.234273090958595276e-01
3.242000000000000000e+03 6.030182647705078125e+01 2.807471466064453125e+01 2.297483533620834351e-01 9.742228507995605469e+00 2.991593122482299805e+00 -4.059363305568695068e-01
3.243000000000000000e+03 6.539411926269531250e+01 2.356152343750000000e+01 -2.403826713562011719e-01 8.536816596984863281e+00 2.488930225372314453e+00 -8.177487850189208984e-01
3.244000000000000000e+03 5.320212554931640625e+01 -2.505649566650390625e+01 -4.575801268219947815e-02 6.342247486114501953e+00 1.888946771621704102e+00 4.800505638122558594e-01
3.245000000000000000e+03 4.256671524047851562e+01 2.379324436187744141e+00 -1.596871465444564819e-01 2.765994548797607422e+00 7.818922400474548340e-01 4.064737856388092041e-01
3.246000000000000000e+03 1.187811565399169922e+01 -1.641438865661621094e+01 -4.837023019790649414e-01 5.685287475585937500e+00 1.560475468635559082e+00 1.189784929156303406e-01
3.247000000000000000e+03 5.070698165893554688e+01 -1.841698265075683594e+01 -3.966815471649169922e-01 5.476177215576171875e+00 1.523848772048950195e+00 1.420204937458038330e-01
3.248000000000000000e+03 5.356129455566406250e+01 -2.250762176513671875e+01 -2.171912044286727905e-01 6.184181690216064453e+00 1.790097117424011230e+00 4.394855797290802002e-01
3.249000000000000000e+03 4.993633270263671875e+01 -2.591783905029296875e+01 -3.916267678141593933e-02 6.147076606750488281e+00 1.832374215126037598e+00 1.741037517786026001e-01
3.250000000000000000e+03 2.062873077392578125e+01 2.762230491638183594e+01 -5.076736211776733398e-01 2.868862867355346680e+00 7.083567976951599121e-01 8.007654547691345215e-02
3.251000000000000000e+03 3.517177581787109375e+01 3.626147460937500000e+01 -4.579006135463714600e-01 -1.355668753385543823e-01 -1.780402511358261108e-01 -2.299340963363647461e-01
3.252000000000000000e+03 6.591629028320312500e+01 3.484333038330078125e+01 9.855505824089050293e-01 8.949482917785644531e+00 2.980510234832763672e+00 -3.493878245353698730e-01
3.253000000000000000e+03 8.334164619445800781e+00 3.475229024887084961e+00 3.710987806320190430e+00 6.084574222564697266e+00 2.938668489456176758e+00 -3.917368412017822266e+00
3.254000000000000000e+03 9.594654083251953125e+00 -4.493741512298583984e+00 -4.446030259132385254e-01 1.061408996582031250e+01 3.050846099853515625e+00 2.701511621475219727e+00
3.255000000000000000e+03 9.212682723999023438e+00 -4.137797832489013672e+00 4.394486173987388611e-02 9.986190795898437500e+00 3.009040594100952148e+00 3.373351335525512695e+00
3.256000000000000000e+03 6.379812240600585938e+00 3.762852668762207031e+00 2.686151742935180664e+00 2.310543060302734375e+00 1.499008417129516602e+00 -1.823877573013305664e+00
3.257000000000000000e+03 5.050260066986083984e+00 -4.664977550506591797e+00 1.004051685333251953e+00 2.117942810058593750e+00 9.365983009338378906e-01 1.403214097023010254e+00
3.258000000000000000e+03 5.987135410308837891e+00 -5.830698966979980469e+00 6.638108491897583008e-01 3.727246761322021484e+00 1.317317366600036621e+00 2.006633758544921875e+00
3.259000000000000000e+03 6.091795444488525391e+00 3.497595310211181641e+00 2.499451637268066406e+00 1.602473855018615723e+00 1.230577707290649414e+00 -1.365378975868225098e+00
3.260000000000000000e+03 8.436862945556640625e+00 4.772919654846191406e+00 2.926840066909790039e+00 7.279543876647949219e+00 3.061915159225463867e+00 -3.990590333938598633e+00
3.261000000000000000e+03 1.045426559448242188e+01 -4.433981895446777344e+00 -1.011176705360412598e+00 1.243843078613281250e+01 3.428176164627075195e+00 1.553045392036437988e+00
3.262000000000000000e+03 1.163352584838867188e+01 -3.750395774841308594e+00 -9.684343338012695312e-01 1.479003715515136719e+01 4.146481037139892578e+00 -7.219195961952209473e-01
3.263000000000000000e+03 7.278555870056152344e+00 3.371774435043334961e+00 3.292597055435180664e+00 3.188287496566772461e+00 1.944265365600585938e+00 -2.669451475143432617e+00
3.264000000000000000e+03 7.391563415527343750e+00 3.623541116714477539e+00 3.288012981414794922e+00 3.821138858795166016e+00 2.132745504379272461e+00 -2.893658638000488281e+00
3.265000000000000000e+03 8.935404777526855469e+00 -4.457138538360595703e+00 1.603492647409439087e-01 9.018413543701171875e+00 2.753628730773925781e+00 3.272042751312255859e+00
3.266000000000000000e+03 1.000036811828613281e+01 -4.477672100067138672e+00 -7.336297631263732910e-01 1.155666446685791016e+01 3.246910333633422852e+00 2.205581426620483398e+00
3.267000000000000000e+03 4.819308757781982422e+00 4.402645587921142578e+00 1.778053760528564453e+00 1.370201349258422852e+00 9.444765448570251465e-01 -1.022309660911560059e+00
3.268000000000000000e+03 1.095560169219970703e+01 -4.358087062835693359e+00 -1.169164657592773438e+00 1.330494403839111328e+01 3.640733718872070312e+00 6.271060705184936523e-01
3.269000000000000000e+03 6.067821502685546875e+00 5.934223651885986328e+00 1.912049055099487305e+00 3.642679691314697266e+00 1.666418671607971191e+00 -2.551244735717773438e+00
3.270000000000000000e+03 5.544487953186035156e+00 5.203705787658691406e+00 2.076887607574462891e+00 2.496055841445922852e+00 1.371883034706115723e+00 -1.912012815475463867e+00
3.271000000000000000e+03 5.177510261535644531e+00 -5.009166717529296875e+00 1.022956609725952148e+00 2.441161155700683594e+00 1.039235353469848633e+00 1.620802283287048340e+00
3.272000000000000000e+03 8.392666816711425781e+00 4.129440784454345703e+00 3.422440528869628906e+00 6.864797592163085938e+00 3.086171388626098633e+00 -4.018946170806884766e+00
3.273000000000000000e+03 9.721507072448730469e+00 5.209836483001708984e+00 2.391245365142822266e+00 1.108911228179931641e+01 4.044107437133789062e+00 -3.964679241180419922e+00
3.274000000000000000e+03 8.019767761230468750e+00 6.302187442779541016e+00 1.853304862976074219e+00 7.154874324798583984e+00 2.702453613281250000e+00 -3.670469999313354492e+00
3.275000000000000000e+03 6.400469779968261719e+00 -6.714113712310791016e+00 2.925984263420104980e-01 4.492337703704833984e+00 1.435480833053588867e+00 2.015147209167480469e+00
3.276000000000000000e+03 4.722688198089599609e+00 -4.368384361267089844e+00 1.085760354995727539e+00 1.585572361946105957e+00 8.013997673988342285e-01 1.163695812225341797e+00
3.277000000000000000e+03 6.689753532409667969e+00 -7.475733280181884766e+00 2.185143763199448586e-03 4.970068931579589844e+00 1.491676211357116699e+00 1.915203690528869629e+00
3.278000000000000000e+03 8.273988723754882812e+00 6.661313533782958984e+00 1.530588388442993164e+00 7.736644268035888672e+00 2.780169963836669922e+00 -3.741616249084472656e+00
3.279000000000000000e+03 8.572796821594238281e+00 7.070832252502441406e+00 1.186613082885742188e+00 8.423744201660156250e+00 2.883107185363769531e+00 -3.648906230926513672e+00
3.280000000000000000e+03 7.696339607238769531e+00 -1.043337059020996094e+01 -5.436620712280273438e-01 5.628096103668212891e+00 1.525330305099487305e+00 1.243669509887695312e+00
3.281000000000000000e+03 5.980965614318847656e+00 7.357501506805419922e+00 1.164506912231445312e+00 4.382853507995605469e+00 1.664208173751831055e+00 -2.729145288467407227e+00
3.282000000000000000e+03 8.728478431701660156e+00 4.392596721649169922e+00 3.163040161132812500e+00 8.171169281005859375e+00 3.400263071060180664e+00 -4.189239025115966797e+00
3.283000000000000000e+03 9.341051101684570312e+00 5.021595001220703125e+00 2.473434209823608398e+00 1.033963012695312500e+01 3.843919277191162109e+00 -4.208791255950927734e+00
3.284000000000000000e+03 7.709121704101562500e+00 -8.821541786193847656e+00 -4.625072479248046875e-01 5.940802574157714844e+00 1.643488645553588867e+00 1.518127799034118652e+00
3.285000000000000000e+03 8.235630989074707031e+00 8.330022811889648438e+00 4.216313362121582031e-01 7.663317680358886719e+00 2.425484657287597656e+00 -3.277249574661254883e+00
3.286000000000000000e+03 7.825425624847412109e+00 7.761520862579345703e+00 8.398402929306030273e-01 7.047115802764892578e+00 2.366086959838867188e+00 -3.412334918975830078e+00
3.287000000000000000e+03 1.237342548370361328e+01 -7.684563636779785156e+00 -1.008472323417663574e+00 9.322324752807617188e+00 2.494155883789062500e+00 -1.036385774612426758e+00
3.288000000000000000e+03 1.210645771026611328e+01 -9.771879196166992188e+00 -7.939508557319641113e-01 7.909408092498779297e+00 2.134637117385864258e+00 -4.791365861892700195e-01
3.289000000000000000e+03 1.316060447692871094e+01 -4.765342712402343750e+00 -7.261845469474792480e-01 1.187755393981933594e+01 3.345410823822021484e+00 -2.810153722763061523e+00
3.290000000000000000e+03 1.217472553253173828e+01 -3.344324827194213867e+00 -4.435743093490600586e-01 1.513273906707763672e+01 4.406749248504638672e+00 -2.091344833374023438e+00
3.291000000000000000e+03 1.256526660919189453e+01 -3.994539022445678711e+00 -7.083351612091064453e-01 1.368138599395751953e+01 3.891915082931518555e+00 -2.408036947250366211e+00
3.292000000000000000e+03 7.256563663482666016e+00 7.963258266448974609e+00 8.509351015090942383e-01 6.283842086791992188e+00 2.140433311462402344e+00 -3.200614929199218750e+00
3.293000000000000000e+03 1.267097759246826172e+01 -7.089888572692871094e+00 -9.768007993698120117e-01 9.716751098632812500e+00 2.621985197067260742e+00 -1.384979963302612305e+00
3.294000000000000000e+03 1.284925842285156250e+01 -6.454751014709472656e+00 -9.904165267944335938e-01 1.032364082336425781e+01 2.799967288970947266e+00 -1.804022789001464844e+00
3.295000000000000000e+03 3.909961700439453125e+01 -1.967436909675598145e+00 1.795053854584693909e-02 2.006193161010742188e+00 6.072430610656738281e-01 1.198095828294754028e-01
3.296000000000000000e+03 9.175357818603515625e+00 -1.159951591491699219e+01 -6.985412240028381348e-01 6.229712486267089844e+00 1.659351348876953125e+00 7.669950723648071289e-01
3.297000000000000000e+03 6.468723297119140625e+01 1.969681930541992188e+01 -5.314098000526428223e-01 8.287788391113281250e+00 2.326913595199584961e+00 -5.817314982414245605e-01
3.298000000000000000e+03 3.982426452636718750e+01 -4.193879604339599609e+00 -1.787980459630489349e-02 2.250645637512207031e+00 6.698297262191772461e-01 2.377290651202201843e-02
3.299000000000000000e+03 6.723249053955078125e+01 -2.510561466217041016e+00 -2.969730496406555176e-01 7.531485080718994141e+00 2.170353651046752930e+00 2.173572927713394165e-01
3.300000000000000000e+03 6.902918243408203125e+01 -3.271162271499633789e+00 -2.340267449617385864e-01 7.736683368682861328e+00 2.250797033309936523e+00 2.130184024572372437e-01
3.301000000000000000e+03 1.287482166290283203e+01 -9.474115371704101562e+00 -6.661964654922485352e-01 8.028191566467285156e+00 2.208598613739013672e+00 -9.992876648902893066e-01
3.302000000000000000e+03 1.137171173095703125e+01 -9.943179130554199219e+00 -8.446223735809326172e-01 7.666913032531738281e+00 2.046687364578247070e+00 -7.413860410451889038e-02
3.303000000000000000e+03 5.412352371215820312e+01 1.818109512329101562e+01 -6.600822210311889648e-01 6.639813423156738281e+00 1.793919324874877930e+00 8.949341177940368652e-01
3.304000000000000000e+03 5.709719085693359375e+01 2.032962608337402344e+01 -7.305089235305786133e-01 7.775693893432617188e+00 2.113555431365966797e+00 4.968686401844024658e-01
3.305000000000000000e+03 8.745225906372070312e+00 -1.085327243804931641e+01 -6.933696269989013672e-01 6.209877967834472656e+00 1.654952526092529297e+00 9.544668197631835938e-01
3.306000000000000000e+03 4.545963668823242188e+01 1.185964393615722656e+01 -2.669197022914886475e-01 3.305320501327514648e+00 9.115202426910400391e-01 8.163393735885620117e-01
3.307000000000000000e+03 1.172298145294189453e+01 1.991299057006835938e+01 -1.081498146057128906e+00 5.947379589080810547e+00 1.459764361381530762e+00 -6.097227334976196289e-01
3.308000000000000000e+03 1.028880882263183594e+01 -1.311481475830078125e+01 -6.453608274459838867e-01 6.175730705261230469e+00 1.659110903739929199e+00 4.049264192581176758e-01
3.309000000000000000e+03 6.927807617187500000e+01 7.684593796730041504e-01 -2.529010176658630371e-01 7.845066070556640625e+00 2.277649641036987305e+00 7.431188970804214478e-02
3.310000000000000000e+03 6.801025390625000000e+01 -1.476604580879211426e+00 -2.741342782974243164e-01 7.645692348480224609e+00 2.211467504501342773e+00 1.759708970785140991e-01
3.311000000000000000e+03 3.810263061523437500e+01 -2.328198671340942383e+00 7.111178338527679443e-02 1.755997538566589355e+00 5.481327772140502930e-01 7.980458438396453857e-02
3.312000000000000000e+03 4.316390228271484375e+01 -7.129361152648925781e+00 -1.901081949472427368e-01 3.131065130233764648e+00 8.822870850563049316e-01 2.385010709986090660e-03
3.313000000000000000e+03 1.225114345550537109e+01 1.793617630004882812e+01 -1.253955841064453125e+00 6.281193256378173828e+00 1.508171319961547852e+00 -5.698274970054626465e-01
3.314000000000000000e+03 6.688082122802734375e+01 1.465921783447265625e+01 -4.917654395103454590e-01 8.007567405700683594e+00 2.254740476608276367e+00 -4.669049382209777832e-01
3.315000000000000000e+03 4.431665039062500000e+01 4.074812889099121094e+00 -2.477160096168518066e-01 3.166113853454589844e+00 8.755193352699279785e-01 4.988370835781097412e-01
3.316000000000000000e+03 4.274720764160156250e+01 3.504710912704467773e+00 -1.815022677183151245e-01 2.772784948348999023e+00 7.773848176002502441e-01 4.407633841037750244e-01
3.317000000000000000e+03 1.451844120025634766e+01 -2.004419708251953125e+01 -3.841303288936614990e-01 5.210769653320312500e+00 1.447991847991943359e+00 -1.822072267532348633e-01
3.318000000000000000e+03 4.973677062988281250e+01 1.552477359771728516e+01 -4.148519039154052734e-01 4.826396942138671875e+00 1.323463439941406250e+00 1.057610869407653809e+00
3.319000000000000000e+03 6.619860076904296875e+01 1.168134880065917969e+01 -5.176550149917602539e-01 7.826823234558105469e+00 2.192750453948974609e+00 -2.889135777950286865e-01
3.320000000000000000e+03 6.707050323486328125e+01 1.110888671875000000e+01 -4.700016677379608154e-01 7.868091583251953125e+00 2.219427108764648438e+00 -2.894121110439300537e-01
3.321000000000000000e+03 5.585237503051757812e+01 1.776930427551269531e+01 -7.316465973854064941e-01 7.050168991088867188e+00 1.895556688308715820e+00 6.410763263702392578e-01
3.322000000000000000e+03 6.493601226806640625e+01 -1.156295967102050781e+01 -2.699919342994689941e-01 7.131675243377685547e+00 2.058505058288574219e+00 4.984484314918518066e-01
3.323000000000000000e+03 6.703828430175781250e+01 -1.226608276367187500e+01 -2.176247239112854004e-01 7.354700565338134766e+00 2.141122817993164062e+00 4.955963492393493652e-01
3.324000000000000000e+03 6.702173614501953125e+01 -1.533283996582031250e+01 -1.634419858455657959e-01 7.323258399963378906e+00 2.147944927215576172e+00 5.646586418151855469e-01
3.325000000000000000e+03 6.592549896240234375e+01 -1.789981079101562500e+01 -1.460866034030914307e-01 7.199616909027099609e+00 2.116059064865112305e+00 6.257975697517395020e-01
3.326000000000000000e+03 4.137664413452148438e+01 -1.257189989089965820e+00 -9.349625557661056519e-02 2.530328989028930664e+00 7.310498356819152832e-01 2.261400520801544189e-01
3.327000000000000000e+03 6.704923248291015625e+01 -2.184281921386718750e+01 -3.716785833239555359e-02 7.201407432556152344e+00 2.149271726608276367e+00 6.554340124130249023e-01
3.328000000000000000e+03 4.347920989990234375e+01 7.015293598175048828e+00 -2.332343310117721558e-01 2.869335174560546875e+00 7.908302545547485352e-01 5.977183580398559570e-01
3.329000000000000000e+03 6.744238281250000000e+01 -8.111947059631347656e+00 -2.341447472572326660e-01 7.472026348114013672e+00 2.171364545822143555e+00 3.788307309150695801e-01
3.330000000000000000e+03 4.452456283569335938e+01 7.793897151947021484e+00 -2.691333591938018799e-01 3.131195545196533203e+00 8.586186170578002930e-01 6.554086804389953613e-01
3.331000000000000000e+03 6.742841339111328125e+01 5.944487571716308594e+00 -3.780988156795501709e-01 7.745736122131347656e+00 2.210291147232055664e+00 -8.574521541595458984e-02
3.332000000000000000e+03 4.426334762573242188e+01 -1.213946247100830078e+01 -2.824418842792510986e-01 3.608707666397094727e+00 9.978797435760498047e-01 -1.495483964681625366e-01
3.333000000000000000e+03 6.650203704833984375e+01 -1.651320266723632812e+01 -1.573032140731811523e-01 7.273408889770507812e+00 2.134831666946411133e+00 5.859925150871276855e-01
3.334000000000000000e+03 6.931259155273437500e+01 -1.623121833801269531e+01 -1.135901957750320435e-01 7.512181758880615234e+00 2.219577550888061523e+00 5.360882878303527832e-01
3.335000000000000000e+03 3.991176986694335938e+01 -2.079533636569976807e-01 -3.269442915916442871e-02 2.158229112625122070e+00 6.376603841781616211e-01 2.325295656919479370e-01
3.336000000000000000e+03 4.581182861328125000e+01 -1.440834236145019531e+01 -3.389612436294555664e-01 4.133708000183105469e+00 1.138423919677734375e+00 -1.439933627843856812e-01
3.337000000000000000e+03 6.671140289306640625e+01 2.554892921447753906e+01 -8.909761090762913227e-04 8.498865127563476562e+00 2.549392223358154297e+00 -9.506628513336181641e-01
3.338000000000000000e+03 6.711058044433593750e+01 2.202470397949218750e+01 -2.775288522243499756e-01 8.343769073486328125e+00 2.419872045516967773e+00 -8.472667932510375977e-01
3.339000000000000000e+03 4.711170959472656250e+01 -1.909128761291503906e+01 -3.429499268531799316e-01 4.841403961181640625e+00 1.349536180496215820e+00 -1.703891158103942871e-01
3.340000000000000000e+03 5.027308273315429688e+01 -2.099769783020019531e+01 -3.216755092144012451e-01 5.678232192993164062e+00 1.606966972351074219e+00 1.543789654970169067e-01
3.341000000000000000e+03 9.963133811950683594e+00 1.481388378143310547e+01 -1.286551594734191895e+00 7.174910068511962891e+00 1.766507625579833984e+00 -1.398769736289978027e+00
3.342000000000000000e+03 6.842428588867187500e+01 3.537787628173828125e+01 6.740014553070068359e-01 8.371706962585449219e+00 2.713712692260742188e+00 -3.385512828826904297e-01
3.343000000000000000e+03 5.319561386108398438e+01 1.721895790100097656e+01 -6.174563169479370117e-01 6.205267906188964844e+00 1.676343441009521484e+00 9.708545207977294922e-01
3.344000000000000000e+03 5.150686645507812500e+01 1.435408496856689453e+01 -5.480986833572387695e-01 5.368193149566650391e+00 1.446028232574462891e+00 9.241035580635070801e-01
3.345000000000000000e+03 5.170064163208007812e+01 1.724650764465332031e+01 -5.026395320892333984e-01 5.622847080230712891e+00 1.536062240600585938e+00 1.074030995368957520e+00
3.346000000000000000e+03 4.118690109252929688e+01 1.195516467094421387e+00 -9.550645202398300171e-02 2.441484928131103516e+00 7.037935853004455566e-01 3.104856908321380615e-01
3.347000000000000000e+03 1.492777633666992188e+01 -2.298724746704101562e+01 -3.412975072860717773e-01 4.822189807891845703e+00 1.344267725944519043e+00 -1.590593904256820679e-01
3.348000000000000000e+03 1.351661682128906250e+01 -2.513213539123535156e+01 -3.178236782550811768e-01 4.648288249969482422e+00 1.299139380455017090e+00 7.361760362982749939e-04
3.349000000000000000e+03 6.503013610839843750e+01 2.750590515136718750e+01 2.383719235658645630e-01 8.813251495361328125e+00 2.715487003326416016e+00 -9.022462964057922363e-01
3.350000000000000000e+03 1.300980472564697266e+01 -1.527038955688476562e+01 -4.689442515373229980e-01 6.059329986572265625e+00 1.677115797996520996e+00 -1.618656367063522339e-01
3.351000000000000000e+03 4.126177597045898438e+01 -7.605196535587310791e-02 -8.329350501298904419e-02 2.465951681137084961e+00 7.147974371910095215e-01 2.658104598522186279e-01
3.352000000000000000e+03 5.016516876220703125e+01 -1.974755096435546875e+01 -3.775297999382019043e-01 5.561378955841064453e+00 1.555154800415039062e+00 1.172813624143600464e-01
3.353000000000000000e+03 5.007130813598632812e+01 -1.636169242858886719e+01 -4.159469902515411377e-01 5.197289466857910156e+00 1.434402704238891602e+00 1.013018637895584106e-01
3.354000000000000000e+03 5.237562179565429688e+01 -2.126629257202148438e+01 -2.821016311645507812e-01 6.004922866821289062e+00 1.716846346855163574e+00 3.344665765762329102e-01
3.355000000000000000e+03 4.912751770019531250e+01 -3.292771530151367188e+01 1.168628215789794922e+00 6.901257038116455078e+00 2.420965433120727539e+00 3.190891742706298828e-01
3.356000000000000000e+03 1.636224365234375000e+01 2.674794769287109375e+01 -6.538149118423461914e-01 4.196763992309570312e+00 1.062884688377380371e+00 -5.304094403982162476e-02
3.357000000000000000e+03 8.064982414245605469e+00 4.554483890533447266e+00 3.061285972595214844e+00 6.429696083068847656e+00 2.847294569015502930e+00 -3.818434238433837891e+00
3.358000000000000000e+03 6.371519565582275391e+00 -3.967587471008300781e+00 1.591021776199340820e+00 3.039710044860839844e+00 1.389219522476196289e+00 2.309486865997314453e+00
3.359000000000000000e+03 8.683283805847167969e+00 -9.029325485229492188e+00 -6.828005313873291016e-01 6.714260578155517578e+00 1.809437990188598633e+00 1.242552042007446289e+00
3.360000000000000000e+03 6.716025352478027344e+00 -4.071972370147705078e+00 1.524187803268432617e+00 3.698648691177368164e+00 1.566851019859313965e+00 2.606391191482543945e+00
3.361000000000000000e+03 7.123627662658691406e+00 3.993218898773193359e+00 3.170647144317626953e+00 3.685939073562622070e+00 2.056975841522216797e+00 -2.808125019073486328e+00
3.362000000000000000e+03 9.945924758911132812e+00 -8.353127479553222656e+00 -9.151256680488586426e-01 7.933298587799072266e+00 2.105451822280883789e+00 7.825566530227661133e-01
3.363000000000000000e+03 1.192728424072265625e+01 -5.072235107421875000e+00 -1.250778794288635254e+00 1.228221225738525391e+01 3.309430122375488281e+00 -1.003365159034729004e+00
3.364000000000000000e+03 1.198930358886718750e+01 -4.453803062438964844e+00 -1.109183192253112793e+00 1.326053428649902344e+01 3.645405292510986328e+00 -1.290543675422668457e+00
3.365000000000000000e+03 5.826293945312500000e+00 4.172621726989746094e+00 2.334276199340820312e+00 2.051903247833251953e+00 1.315853834152221680e+00 -1.585917949676513672e+00
3.366000000000000000e+03 7.669807434082031250e+00 4.950707912445068359e+00 2.814876794815063477e+00 5.603334903717041016e+00 2.525463581085205078e+00 -3.513007879257202148e+00
3.367000000000000000e+03 1.287800884246826172e+01 -4.347730636596679688e+00 -7.141885161399841309e-01 1.277922058105468750e+01 3.619509696960449219e+00 -2.777790546417236328e+00
3.368000000000000000e+03 6.363953113555908203e+00 6.292877197265625000e+00 1.774552464485168457e+00 4.298720359802246094e+00 1.821981787681579590e+00 -2.820783853530883789e+00
3.369000000000000000e+03 6.186049938201904297e+00 5.258597850799560547e+00 2.312466859817504883e+00 3.307940006256103516e+00 1.686122059822082520e+00 -2.450812339782714844e+00
3.370000000000000000e+03 5.933556556701660156e+00 4.896133422851562500e+00 2.305575370788574219e+00 2.738591909408569336e+00 1.513250231742858887e+00 -2.116481304168701172e+00
3.371000000000000000e+03 5.079855442047119141e+00 4.538288593292236328e+00 1.915616154670715332e+00 1.536132812500000000e+00 1.035524725914001465e+00 -1.215187430381774902e+00
3.372000000000000000e+03 5.442588806152343750e+00 4.167189598083496094e+00 2.056862354278564453e+00 1.550247073173522949e+00 1.082132816314697266e+00 -1.267833352088928223e+00
3.373000000000000000e+03 5.584304809570312500e+00 -5.117525577545166016e+00 9.948187470436096191e-01 2.871716976165771484e+00 1.159960746765136719e+00 1.808427453041076660e+00
3.374000000000000000e+03 7.187094688415527344e+00 -7.713099002838134766e+00 -1.721449345350265503e-01 5.519643783569335938e+00 1.604249715805053711e+00 1.859842419624328613e+00
3.375000000000000000e+03 7.404849052429199219e+00 -9.706303596496582031e+00 -4.671656489372253418e-01 5.541561603546142578e+00 1.522318840026855469e+00 1.398125886917114258e+00
3.376000000000000000e+03 8.384172439575195312e+00 -1.010983657836914062e+01 -6.468573212623596191e-01 6.184013366699218750e+00 1.661146759986877441e+00 1.154310822486877441e+00
3.377000000000000000e+03 1.289251804351806641e+01 -3.516169548034667969e+00 -2.758789360523223877e-01 1.388633632659912109e+01 4.083137035369873047e+00 -3.127006769180297852e+00
3.378000000000000000e+03 1.211867141723632812e+01 -3.856746196746826172e+00 -8.823041319847106934e-01 1.417653369903564453e+01 3.988268852233886719e+00 -1.811038613319396973e+00
3.379000000000000000e+03 9.505504608154296875e+00 5.709169864654541016e+00 1.942213535308837891e+00 1.064937782287597656e+01 3.777477502822875977e+00 -3.971951484680175781e+00
3.380000000000000000e+03 8.593738555908203125e+00 6.404990673065185547e+00 1.618161201477050781e+00 8.388408660888671875e+00 3.001971006393432617e+00 -3.817388772964477539e+00
3.381000000000000000e+03 1.290678215026855469e+01 -5.813783168792724609e+00 -1.004818677902221680e+00 1.102329254150390625e+01 3.005542039871215820e+00 -2.054618120193481445e+00
3.382000000000000000e+03 8.872112274169921875e+00 7.625888347625732422e+00 6.094928383827209473e-01 8.784527778625488281e+00 2.818206310272216797e+00 -3.464761972427368164e+00
3.383000000000000000e+03 9.041149139404296875e+00 4.696468353271484375e+00 2.951984882354736328e+00 9.113286018371582031e+00 3.619581222534179688e+00 -4.118299484252929688e+00
3.384000000000000000e+03 1.238274097442626953e+01 -5.740289688110351562e+00 -1.142053365707397461e+00 1.118716335296630859e+01 3.013533115386962891e+00 -1.499322533607482910e+00
3.385000000000000000e+03 1.029993343353271484e+01 -1.182565879821777344e+01 -7.264105677604675293e-01 6.560756206512451172e+00 1.750303745269775391e+00 4.282921552658081055e-01
3.386000000000000000e+03 1.072875404357910156e+01 -1.127777099609375000e+01 -7.550498843193054199e-01 6.859577178955078125e+00 1.831358194351196289e+00 2.642244100570678711e-01
3.387000000000000000e+03 8.050712585449218750e+00 -9.413767814636230469e+00 -5.709030628204345703e-01 6.071794986724853516e+00 1.650267601013183594e+00 1.348156690597534180e+00
3.388000000000000000e+03 1.232225608825683594e+01 -1.057512092590332031e+01 -6.918480992317199707e-01 7.478569507598876953e+00 2.036016464233398438e+00 -4.788268506526947021e-01
3.389000000000000000e+03 1.185072135925292969e+01 -9.104117393493652344e+00 -8.890789151191711426e-01 8.209833145141601562e+00 2.196226119995117188e+00 -4.216563403606414795e-01
3.390000000000000000e+03 6.548828887939453125e+01 1.663751029968261719e+01 -5.597575902938842773e-01 8.072974205017089844e+00 2.253964900970458984e+00 -4.874117970466613770e-01
3.391000000000000000e+03 1.097858047485351562e+01 -1.244086647033691406e+01 -6.743305921554565430e-01 6.507325172424316406e+00 1.749898433685302734e+00 1.967621445655822754e-01
3.392000000000000000e+03 1.083569335937500000e+01 -1.069003391265869141e+01 -7.933848500251770020e-01 7.132713317871093750e+00 1.901798605918884277e+00 2.125660330057144165e-01
3.393000000000000000e+03 1.211499786376953125e+01 -1.188026046752929688e+01 -6.444481015205383301e-01 6.929889678955078125e+00 1.885632514953613281e+00 -2.058164775371551514e-01
3.394000000000000000e+03 1.152370262145996094e+01 -1.071452236175537109e+01 -7.635226249694824219e-01 7.312761306762695312e+00 1.964771628379821777e+00 -8.749289810657501221e-02
3.395000000000000000e+03 5.780261611938476562e+01 1.917851066589355469e+01 -7.421852350234985352e-01 7.701310157775878906e+00 2.087737321853637695e+00 3.783602416515350342e-01
3.396000000000000000e+03 4.688951110839843750e+01 -1.350240707397460938e+01 -3.596739172935485840e-01 4.341210365295410156e+00 1.194460868835449219e+00 -4.280856624245643616e-02
3.397000000000000000e+03 6.867391967773437500e+01 -3.363117575645446777e-01 -2.602058649063110352e-01 7.754006862640380859e+00 2.248140335083007812e+00 1.257360726594924927e-01
3.398000000000000000e+03 4.391785430908203125e+01 2.188589572906494141e+00 -2.141250520944595337e-01 3.103821039199829102e+00 8.669087886810302734e-01 4.257185161113739014e-01
3.399000000000000000e+03 4.364116287231445312e+01 5.434362888336181641e+00 -2.329888939857482910e-01 2.952882766723632812e+00 8.159681558609008789e-01 5.403488874435424805e-01
3.400000000000000000e+03 4.926893997192382812e+01 1.430320072174072266e+01 -4.246212840080261230e-01 4.626480579376220703e+00 1.260557770729064941e+00 1.011258125305175781e+00
3.401000000000000000e+03 5.103961944580078125e+01 1.563923645019531250e+01 -5.084128379821777344e-01 5.287154674530029297e+00 1.433622598648071289e+00 1.020049929618835449e+00
3.402000000000000000e+03 6.632984161376953125e+01 1.853519630432128906e+01 -4.835632443428039551e-01 8.205018043518066406e+00 2.316436529159545898e+00 -6.326820254325866699e-01
3.403000000000000000e+03 6.462502288818359375e+01 -1.713085365295410156e+01 -1.823761910200119019e-01 7.099749565124511719e+00 2.075212001800537109e+00 6.113954186439514160e-01
3.404000000000000000e+03 6.255057525634765625e+01 -2.228169631958007812e+01 -5.593197047710418701e-02 6.932070732116699219e+00 2.062841653823852539e+00 7.012326121330261230e-01
3.405000000000000000e+03 4.525847625732421875e+01 6.927188396453857422e+00 -2.991429865360260010e-01 3.367023944854736328e+00 9.203642606735229492e-01 6.427729129791259766e-01
3.406000000000000000e+03 1.197828102111816406e+01 -1.758984375000000000e+01 -4.770182371139526367e-01 5.519933223724365234e+00 1.512874484062194824e+00 1.375938057899475098e-01
3.407000000000000000e+03 1.200652694702148438e+01 -2.010809707641601562e+01 -4.259670674800872803e-01 5.141686916351318359e+00 1.414715886116027832e+00 1.571162343025207520e-01
3.408000000000000000e+03 6.682300567626953125e+01 1.335531902313232422e+01 -4.950446188449859619e-01 7.956742286682128906e+00 2.238509416580200195e+00 -3.957570791244506836e-01
3.409000000000000000e+03 6.812197875976562500e+01 1.092393970489501953e+01 -4.115478992462158203e-01 7.940710067749023438e+00 2.258748531341552734e+00 -3.210793137550354004e-01
3.410000000000000000e+03 6.813897705078125000e+01 1.158172369003295898e+00 -2.924232482910156250e-01 7.725980281829833984e+00 2.230067014694213867e+00 8.050563931465148926e-02
3.411000000000000000e+03 6.885258483886718750e+01 5.753527641296386719e+00 -3.241560459136962891e-01 7.889638900756835938e+00 2.269644975662231445e+00 -1.102619543671607971e-01
3.412000000000000000e+03 1.383869934082031250e+01 2.099077606201171875e+01 -1.037128090858459473e+00 5.397610664367675781e+00 1.308144807815551758e+00 -2.416387349367141724e-01
3.413000000000000000e+03 1.586328983306884766e+01 2.130717277526855469e+01 -9.564063549041748047e-01 4.766221046447753906e+00 1.142944335937500000e+00 1.056053489446640015e-02
3.414000000000000000e+03 4.182520675659179688e+01 -2.313630819320678711e+00 -9.844501316547393799e-02 2.685962200164794922e+00 7.762551307678222656e-01 1.909146457910537720e-01
3.415000000000000000e+03 4.463781738281250000e+01 -1.000420761108398438e+01 -2.730429172515869141e-01 3.613971948623657227e+00 1.002278685569763184e+00 -5.709038674831390381e-02
3.416000000000000000e+03 4.408617782592773438e+01 -4.903495788574218750e+00 -2.090045064687728882e-01 3.310584068298339844e+00 9.304738640785217285e-01 1.190798506140708923e-01
3.417000000000000000e+03 6.787417602539062500e+01 -1.065736865997314453e+01 -1.982894241809844971e-01 7.482659816741943359e+00 2.185311079025268555e+00 4.396215975284576416e-01
3.418000000000000000e+03 4.622367858886718750e+01 1.125296688079833984e+01 -3.078103661537170410e-01 3.578986644744873047e+00 9.813529253005981445e-01 8.481221199035644531e-01
3.419000000000000000e+03 4.828215408325195312e+01 1.033399009704589844e+01 -4.318006038665771484e-01 4.230113983154296875e+00 1.139494061470031738e+00 8.004286885261535645e-01
3.420000000000000000e+03 6.756352996826171875e+01 7.212163448333740234e+00 -3.963981866836547852e-01 7.791926860809326172e+00 2.218658685684204102e+00 -1.390936225652694702e-01
3.421000000000000000e+03 7.040177917480468750e+01 8.152045249938964844e+00 -2.758336365222930908e-01 8.079009056091308594e+00 2.340952634811401367e+00 -2.371449470520019531e-01
3.422000000000000000e+03 5.390153121948242188e+01 1.606974411010742188e+01 -6.729438304901123047e-01 6.302888393402099609e+00 1.688983321189880371e+00 8.222772479057312012e-01
3.423000000000000000e+03 4.386333084106445312e+01 1.068594574928283691e+00 -2.113456577062606812e-01 3.127368450164794922e+00 8.748068809509277344e-01 3.747822940349578857e-01
3.424000000000000000e+03 6.663630676269531250e+01 -4.978741168975830078e+00 -2.883206307888031006e-01 7.409048557281494141e+00 2.136218547821044922e+00 3.037021756172180176e-01
3.425000000000000000e+03 1.699080467224121094e+01 2.236698150634765625e+01 -8.525652885437011719e-01 4.305390834808349609e+00 1.035847663879394531e+00 9.534112364053726196e-02
3.426000000000000000e+03 1.896227455139160156e+01 2.374232864379882812e+01 -7.124006748199462891e-01 3.535722017288208008e+00 8.469964265823364258e-01 1.673148572444915771e-01
3.427000000000000000e+03 6.685749053955078125e+01 -2.005222129821777344e+01 -8.430364727973937988e-02 7.240164279937744141e+00 2.146758079528808594e+00 6.451431512832641602e-01
3.428000000000000000e+03 5.088113784790039062e+01 1.678377342224121094e+01 -4.533990025520324707e-01 5.278640747070312500e+00 1.447572588920593262e+00 1.123336791992187500e+00
3.429000000000000000e+03 4.511824417114257812e+01 -7.884991168975830078e+00 -2.751874625682830811e-01 3.639654636383056641e+00 1.009340167045593262e+00 4.240322485566139221e-02
3.430000000000000000e+03 5.489072418212890625e+01 1.695042800903320312e+01 -7.035687565803527832e-01 6.684229373931884766e+00 1.794198155403137207e+00 7.304448485374450684e-01
3.431000000000000000e+03 5.659035873413085938e+01 1.660600471496582031e+01 -7.612426877021789551e-01 7.075003623962402344e+00 1.894128203392028809e+00 4.964251518249511719e-01
3.432000000000000000e+03 4.878882980346679688e+01 -1.566141033172607422e+01 -3.947960138320922852e-01 4.908076286315917969e+00 1.353984117507934570e+00 3.086578100919723511e-02
3.433000000000000000e+03 4.611161804199218750e+01 -1.238962459564208984e+01 -3.449522852897644043e-01 4.080726623535156250e+00 1.120732307434082031e+00 -6.397213041782379150e-02
3.434000000000000000e+03 6.385840225219726562e+01 -1.849888992309570312e+01 -1.621240079402923584e-01 6.989547729492187500e+00 2.048227071762084961e+00 6.543697118759155273e-01
3.435000000000000000e+03 6.518782806396484375e+01 2.548080253601074219e+01 -7.597290724515914917e-02 8.696312904357910156e+00 2.586102008819580078e+00 -8.649054169654846191e-01
3.436000000000000000e+03 6.386895370483398438e+01 2.332056999206542969e+01 -3.530900478363037109e-01 8.633954048156738281e+00 2.484259128570556641e+00 -6.730859875679016113e-01
3.437000000000000000e+03 4.265143585205078125e+01 -5.397902011871337891e+00 -1.491526216268539429e-01 2.955648183822631836e+00 8.419486880302429199e-01 6.526345759630203247e-02
3.438000000000000000e+03 6.491630554199218750e+01 2.961304855346679688e+01 5.160746574401855469e-01 8.889229774475097656e+00 2.821591138839721680e+00 -7.906575798988342285e-01
3.439000000000000000e+03 7.399038696289062500e+01 3.780649185180664062e+01 2.446496486663818359e-01 7.041563510894775391e+00 2.185863971710205078e+00 -2.765492796897888184e-01
3.440000000000000000e+03 6.463942718505859375e+01 3.177769279479980469e+01 8.583055734634399414e-01 9.055322647094726562e+00 2.974088430404663086e+00 -6.773164272308349609e-01
3.441000000000000000e+03 6.218823242187500000e+01 2.498739242553710938e+01 -2.449176758527755737e-01 8.964857101440429688e+00 2.615981817245483398e+00 -5.725888013839721680e-01
3.442000000000000000e+03 6.343012619018554688e+01 1.916127395629882812e+01 -5.845112800598144531e-01 8.222319602966308594e+00 2.291342496871948242e+00 -4.462206065654754639e-01
3.443000000000000000e+03 6.566929626464843750e+01 2.177395629882812500e+01 -3.757063150405883789e-01 8.423879623413085938e+00 2.414451837539672852e+00 -7.507605552673339844e-01
3.444000000000000000e+03 5.971379852294921875e+01 2.276974868774414062e+01 -5.565951466560363770e-01 8.669413566589355469e+00 2.433845520019531250e+00 -5.267899855971336365e-02
3.445000000000000000e+03 1.416174888610839844e+01 -2.730740547180175781e+01 -2.693904340267181396e-01 4.455132961273193359e+00 1.255722641944885254e+00 -4.770756512880325317e-02
3.446000000000000000e+03 1.862796211242675781e+01 -3.014036750793457031e+01 -1.385395675897598267e-01 3.875687360763549805e+00 1.121144413948059082e+00 -2.985788881778717041e-01
3.447000000000000000e+03 5.346871948242187500e+01 -2.006142234802246094e+01 -3.034772872924804688e-01 6.011901378631591797e+00 1.712527275085449219e+00 3.855178058147430420e-01
3.448000000000000000e+03 6.781016540527343750e+01 -3.464302778244018555e+00 -2.694138884544372559e-01 7.589288711547851562e+00 2.195962429046630859e+00 2.374914437532424927e-01
3.449000000000000000e+03 6.714417266845703125e+01 -6.552686691284179688e+00 -2.578939199447631836e-01 7.462306499481201172e+00 2.161323785781860352e+00 3.437634110450744629e-01
3.450000000000000000e+03 1.941200828552246094e+01 2.982823371887207031e+01 -4.775047004222869873e-01 3.143192052841186523e+00 7.997061610221862793e-01 1.117169484496116638e-02
3.451000000000000000e+03 7.006441116333007812e+00 -4.480499744415283203e+00 1.169444680213928223e+00 4.431912422180175781e+00 1.680407166481018066e+00 2.648672819137573242e+00
3.452000000000000000e+03 8.919926643371582031e+00 -4.191954612731933594e+00 2.944464087486267090e-01 9.077877044677734375e+00 2.811697244644165039e+00 3.478009700775146484e+00
3.453000000000000000e+03 8.094824790954589844e+00 -4.245636940002441406e+00 9.447935223579406738e-01 6.689201831817626953e+00 2.290198564529418945e+00 3.418118000030517578e+00
3.454000000000000000e+03 7.739736080169677734e+00 -3.906418561935424805e+00 1.393760561943054199e+00 5.759537696838378906e+00 2.145989418029785156e+00 3.468807458877563477e+00
3.455000000000000000e+03 9.240202903747558594e+00 -4.486295700073242188e+00 -1.413454860448837280e-01 9.803093910217285156e+00 2.898524522781372070e+00 3.022332906723022461e+00
3.456000000000000000e+03 8.830902099609375000e+00 -3.965131521224975586e+00 5.941883325576782227e-01 8.643577575683593750e+00 2.771329879760742188e+00 3.664489030838012695e+00
3.457000000000000000e+03 8.379440307617187500e+00 -3.955046653747558594e+00 9.820528030395507812e-01 7.429871082305908203e+00 2.523577213287353516e+00 3.717799186706542969e+00
3.458000000000000000e+03 6.657421112060546875e+00 6.654001712799072266e+00 1.637574672698974609e+00 4.890728473663330078e+00 1.958490967750549316e+00 -2.996505260467529297e+00
3.459000000000000000e+03 6.164428234100341797e+00 -4.792220115661621094e+00 1.139339089393615723e+00 3.360042095184326172e+00 1.349814414978027344e+00 2.161609649658203125e+00
3.460000000000000000e+03 7.497698783874511719e+00 -4.201444149017333984e+00 1.266733884811401367e+00 5.334687232971191406e+00 1.980426311492919922e+00 3.184589147567749023e+00
3.461000000000000000e+03 6.740993976593017578e+00 3.897461175918579102e+00 2.884339809417724609e+00 2.837986469268798828e+00 1.716697812080383301e+00 -2.338163852691650391e+00
3.462000000000000000e+03 7.496966838836669922e+00 3.926858901977539062e+00 3.344870805740356445e+00 4.361543178558349609e+00 2.311924219131469727e+00 -3.180770158767700195e+00
3.463000000000000000e+03 1.132268905639648438e+01 -6.328811168670654297e+00 -1.242919802665710449e+00 1.050963401794433594e+01 2.780014276504516602e+00 -1.265937089920043945e-01
3.464000000000000000e+03 7.726227760314941406e+00 4.246528625488281250e+00 3.237804889678955078e+00 5.140444278717041016e+00 2.513474702835083008e+00 -3.438849925994873047e+00
3.465000000000000000e+03 5.722891807556152344e+00 -4.618300437927246094e+00 1.187528133392333984e+00 2.722961187362670898e+00 1.173146843910217285e+00 1.879216432571411133e+00
3.466000000000000000e+03 6.907424926757812500e+00 -7.036348819732666016e+00 7.843361794948577881e-02 5.186173439025878906e+00 1.579382061958312988e+00 2.035894393920898438e+00
3.467000000000000000e+03 9.056075096130371094e+00 5.374620914459228516e+00 2.404474735260009766e+00 9.199406623840332031e+00 3.481164216995239258e+00 -3.956171274185180664e+00
3.468000000000000000e+03 6.487560749053955078e+00 4.967120647430419922e+00 2.466020584106445312e+00 3.543034553527832031e+00 1.802716612815856934e+00 -2.574263811111450195e+00
3.469000000000000000e+03 1.244377708435058594e+01 -5.114227771759033203e+00 -1.090268611907958984e+00 1.210693550109863281e+01 3.305000066757202148e+00 -1.766567230224609375e+00
3.470000000000000000e+03 1.210847949981689453e+01 -6.787259578704833984e+00 -1.174137830734252930e+00 1.016965770721435547e+01 2.698655843734741211e+00 -9.104548096656799316e-01
3.471000000000000000e+03 5.396701335906982422e+00 4.860970497131347656e+00 2.070916652679443359e+00 2.194980621337890625e+00 1.279769182205200195e+00 -1.715089797973632812e+00
3.472000000000000000e+03 7.662818431854248047e+00 6.512448787689208984e+00 1.708556532859802246e+00 6.515525817871093750e+00 2.467224597930908203e+00 -3.574741840362548828e+00
3.473000000000000000e+03 8.143029212951660156e+00 7.270908832550048828e+00 1.061966657638549805e+00 7.606021881103515625e+00 2.600396633148193359e+00 -3.586238622665405273e+00
3.474000000000000000e+03 8.758568763732910156e+00 6.047248840332031250e+00 1.896115064620971680e+00 8.784794807434082031e+00 3.204272985458374023e+00 -3.911987066268920898e+00
3.475000000000000000e+03 1.156835556030273438e+01 -8.586078643798828125e+00 -9.582197666168212891e-01 8.536705017089843750e+00 2.273545742034912109e+00 -3.225811123847961426e-01
3.476000000000000000e+03 1.029887104034423828e+01 -1.083597278594970703e+01 -7.861309051513671875e-01 6.893613338470458984e+00 1.832244753837585449e+00 4.549086987972259521e-01
3.477000000000000000e+03 1.177434062957763672e+01 -7.273945331573486328e+00 -1.121029019355773926e+00 9.639145851135253906e+00 2.555435180664062500e+00 -5.560123324394226074e-01
3.478000000000000000e+03 1.232613277435302734e+01 -6.316368103027343750e+00 -1.145999073982238770e+00 1.065342998504638672e+01 2.852229118347167969e+00 -1.265615344047546387e+00
3.479000000000000000e+03 1.187458896636962891e+01 -5.696840763092041016e+00 -1.248614311218261719e+00 1.140328979492187500e+01 3.046402692794799805e+00 -7.869194746017456055e-01
3.480000000000000000e+03 1.147301006317138672e+01 -7.810190677642822266e+00 -1.093533158302307129e+00 9.127458572387695312e+00 2.410177707672119141e+00 -2.524914443492889404e-01
3.481000000000000000e+03 9.782354354858398438e+00 -1.119021034240722656e+01 -7.606787085533142090e-01 6.595594882965087891e+00 1.750474810600280762e+00 6.111239790916442871e-01
3.482000000000000000e+03 1.118826103210449219e+01 -9.287342071533203125e+00 -9.159114360809326172e-01 8.002002716064453125e+00 2.125827312469482422e+00 -1.847418397665023804e-02
3.483000000000000000e+03 5.015539932250976562e+01 1.338951015472412109e+01 -4.869130551815032959e-01 4.903748035430908203e+00 1.325050473213195801e+00 9.202424883842468262e-01
3.484000000000000000e+03 5.222262191772460938e+01 1.632423782348632812e+01 -5.631883740425109863e-01 5.756940364837646484e+00 1.558125615119934082e+00 9.920250773429870605e-01
3.485000000000000000e+03 1.327721595764160156e+01 -2.157994079589843750e+01 -3.906050026416778564e-01 5.009531974792480469e+00 1.385678172111511230e+00 7.898503914475440979e-03
3.486000000000000000e+03 1.387991142272949219e+01 2.362965202331542969e+01 -8.682708740234375000e-01 5.046874046325683594e+00 1.253580927848815918e+00 -2.251193970441818237e-01
3.487000000000000000e+03 6.658170318603515625e+01 -1.378819847106933594e+01 -1.988808661699295044e-01 7.286444664001464844e+00 2.126269102096557617e+00 5.365104079246520996e-01
3.488000000000000000e+03 4.772968292236328125e+01 -1.467267036437988281e+01 -3.899129927158355713e-01 4.590165138244628906e+00 1.260075569152832031e+00 -2.277543209493160248e-02
3.489000000000000000e+03 6.362948989868164062e+01 2.529466056823730469e+01 -1.249861046671867371e-01 8.844906806945800781e+00 2.615976333618164062e+00 -7.502493262290954590e-01
3.490000000000000000e+03 6.508985900878906250e+01 1.811119651794433594e+01 -5.329291820526123047e-01 8.159251213073730469e+00 2.287896633148193359e+00 -5.363312959671020508e-01
3.491000000000000000e+03 6.682109069824218750e+01 -6.938677430152893066e-01 -3.186303079128265381e-01 7.515246391296386719e+00 2.158984899520874023e+00 1.708161979913711548e-01
3.492000000000000000e+03 6.453232574462890625e+01 -2.046109199523925781e+00 -3.757314682006835938e-01 7.178244113922119141e+00 2.040753841400146484e+00 2.548367381095886230e-01
3.493000000000000000e+03 6.756690216064453125e+01 2.770425081253051758e-01 -3.047753274440765381e-01 7.616212844848632812e+00 2.193431138992309570e+00 1.273938864469528198e-01
3.494000000000000000e+03 4.516405868530273438e+01 2.066268444061279297e+00 -2.666334211826324463e-01 3.436885833740234375e+00 9.510757327079772949e-01 4.284208714962005615e-01
3.495000000000000000e+03 4.407760238647460938e+01 3.184203863143920898e+00 -2.190440595149993896e-01 3.128290891647338867e+00 8.727740645408630371e-01 4.764127135276794434e-01
3.496000000000000000e+03 6.022190856933593750e+01 2.385099220275878906e+01 -4.486632645130157471e-01 8.927091598510742188e+00 2.543528556823730469e+00 -1.994828879833221436e-01
3.497000000000000000e+03 5.714543533325195312e+01 2.300110435485839844e+01 -5.522716045379638672e-01 8.377102851867675781e+00 2.347449302673339844e+00 5.449166893959045410e-01
3.498000000000000000e+03 6.707815551757812500e+01 1.210852432250976562e+01 -4.756168127059936523e-01 7.911460876464843750e+00 2.230753183364868164e+00 -3.468836247920989990e-01
3.499000000000000000e+03 6.797068786621093750e+01 9.728447914123535156e+00 -4.084480404853820801e-01 7.897109031677246094e+00 2.246598482131958008e+00 -2.600175440311431885e-01
3.500000000000000000e+03 6.113794326782226562e+01 1.810437393188476562e+01 -6.980609297752380371e-01 7.984969615936279297e+00 2.186072587966918945e+00 -1.322225481271743774e-01
3.501000000000000000e+03 5.849411773681640625e+01 1.806531715393066406e+01 -7.840330004692077637e-01 7.665423870086669922e+00 2.064417123794555664e+00 2.495834976434707642e-01
3.502000000000000000e+03 6.600459289550781250e+01 2.010054206848144531e+01 -4.257708787918090820e-01 8.294404983520507812e+00 2.360590219497680664e+00 -7.008442282676696777e-01
3.503000000000000000e+03 6.805871582031250000e+01 1.467359924316406250e+01 -4.400402903556823730e-01 8.059291839599609375e+00 2.285775423049926758e+00 -5.031154751777648926e-01
3.504000000000000000e+03 4.568261718750000000e+01 1.037936115264892578e+01 -2.867449820041656494e-01 3.439643621444702148e+00 9.458695650100708008e-01 7.782094478607177734e-01
3.505000000000000000e+03 4.572259140014648438e+01 8.466226577758789062e+00 -3.118329346179962158e-01 3.476497888565063477e+00 9.493994712829589844e-01 6.987986564636230469e-01
3.506000000000000000e+03 6.479191589355468750e+01 -1.373900508880615234e+01 -2.402694970369338989e-01 7.117309570312500000e+00 2.063112020492553711e+00 5.505124926567077637e-01
3.507000000000000000e+03 4.017942428588867188e+01 -1.501186132431030273e+00 -2.415751852095127106e-02 2.244851112365722656e+00 6.662080883979797363e-01 1.786569058895111084e-01
3.508000000000000000e+03 4.453096389770507812e+01 -6.458409786224365234e+00 -2.359373867511749268e-01 3.461476802825927734e+00 9.676618576049804688e-01 8.728160709142684937e-02
3.509000000000000000e+03 5.564038467407226562e+01 1.575437927246093750e+01 -7.376234531402587891e-01 6.735615253448486328e+00 1.799397587776184082e+00 6.027474403381347656e-01
3.510000000000000000e+03 6.580353546142578125e+01 -1.283410930633544922e+01 -2.341367453336715698e-01 7.234866142272949219e+00 2.100218772888183594e+00 5.192836523056030273e-01
3.511000000000000000e+03 4.754224014282226562e+01 1.205863857269287109e+01 -3.723578751087188721e-01 4.026595115661621094e+00 1.096271157264709473e+00 8.949799537658691406e-01
3.512000000000000000e+03 5.091496658325195312e+01 1.219577598571777344e+01 -5.407906174659729004e-01 5.095788955688476562e+00 1.366499543190002441e+00 8.364111185073852539e-01
3.513000000000000000e+03 6.599308776855468750e+01 1.530548381805419922e+01 -5.262464880943298340e-01 8.000477790832519531e+00 2.242269515991210938e+00 -4.500163793563842773e-01
3.514000000000000000e+03 4.735586547851562500e+01 1.099220275878906250e+01 -3.652003109455108643e-01 3.947901725769042969e+00 1.074810385704040527e+00 8.431077599525451660e-01
3.515000000000000000e+03 4.956555938720703125e+01 1.119749164581298828e+01 -4.738196134567260742e-01 4.623898506164550781e+00 1.245023727416992188e+00 8.266953825950622559e-01
3.516000000000000000e+03 4.576758956909179688e+01 -9.185002326965332031e+00 -3.052916824817657471e-01 3.862617731094360352e+00 1.067197799682617188e+00 2.830690331757068634e-02
3.517000000000000000e+03 1.140021991729736328e+01 -1.156560516357421875e+01 -7.116944193840026855e-01 6.947082996368408203e+00 1.870616555213928223e+00 4.615573678165674210e-03
3.518000000000000000e+03 1.908772277832031250e+01 2.653250694274902344e+01 -6.038943529129028320e-01 3.337413311004638672e+00 8.200556635856628418e-01 6.968669593334197998e-02
3.519000000000000000e+03 4.248270034790039062e+01 -1.399141669273376465e+00 -1.367753595113754272e-01 2.808723449707031250e+00 8.015844225883483887e-01 2.360314428806304932e-01
3.520000000000000000e+03 6.420652770996093750e+01 2.142133331298828125e+01 -4.373289346694946289e-01 8.438754081726074219e+00 2.400427579879760742e+00 -6.272987127304077148e-01
3.521000000000000000e+03 6.908567047119140625e+01 8.276251792907714844e+00 -3.426037132740020752e-01 7.961911678314208984e+00 2.285792350769042969e+00 -2.206862866878509521e-01
3.522000000000000000e+03 6.119034957885742188e+01 2.344608116149902344e+01 -4.633534848690032959e-01 8.799132347106933594e+00 2.500733613967895508e+00 -3.558200001716613770e-01
3.523000000000000000e+03 1.186170196533203125e+01 -2.150001335144042969e+01 -3.873336911201477051e-01 4.974028110504150391e+00 1.376008391380310059e+00 1.487920284271240234e-01
3.524000000000000000e+03 1.325583553314208984e+01 -2.012767982482910156e+01 -4.138337969779968262e-01 5.191043853759765625e+00 1.433163046836853027e+00 -1.631118357181549072e-02
3.525000000000000000e+03 6.241172027587890625e+01 2.329750633239746094e+01 -3.927183151245117188e-01 8.691490173339843750e+00 2.489631652832031250e+00 -5.338556766510009766e-01
3.526000000000000000e+03 1.534538364410400391e+01 -2.467990684509277344e+01 -3.038731217384338379e-01 4.611708641052246094e+00 1.292350769042968750e+00 -1.850679218769073486e-01
3.527000000000000000e+03 5.209851837158203125e+01 -1.910969161987304688e+01 -3.646315038204193115e-01 5.815604686737060547e+00 1.635291934013366699e+00 2.803239822387695312e-01
3.528000000000000000e+03 4.977937698364257812e+01 -1.422839164733886719e+01 -4.250054061412811279e-01 5.003511905670166016e+00 1.373551964759826660e+00 1.085733100771903992e-01
3.529000000000000000e+03 5.143573760986328125e+01 -1.702707099914550781e+01 -4.112391769886016846e-01 5.529574871063232422e+00 1.535500764846801758e+00 2.030613720417022705e-01
3.530000000000000000e+03 4.383634567260742188e+01 -1.815484613180160522e-01 -1.979323029518127441e-01 3.106802701950073242e+00 8.726611137390136719e-01 3.282951116561889648e-01
3.531000000000000000e+03 1.464848232269287109e+01 -3.316371536254882812e+01 -1.631236523389816284e-01 4.112388134002685547e+00 1.184779405593872070e+00 -4.899194464087486267e-02
3.532000000000000000e+03 6.158924484252929688e+01 -2.077951049804687500e+01 -1.402657777070999146e-01 6.806568622589111328e+00 1.999890804290771484e+00 6.769726276397705078e-01
3.533000000000000000e+03 6.525167846679687500e+01 -1.953768730163574219e+01 -1.113044470548629761e-01 7.130929946899414062e+00 2.105887651443481445e+00 6.455796957015991211e-01
3.534000000000000000e+03 6.749776840209960938e+00 -6.320747852325439453e+00 3.728830516338348389e-01 4.792402744293212891e+00 1.549585819244384766e+00 2.171575069427490234e+00
3.535000000000000000e+03 6.677145957946777344e+00 -4.481449127197265625e+00 1.247768521308898926e+00 3.927330017089843750e+00 1.552529573440551758e+00 2.520825624465942383e+00
3.536000000000000000e+03 7.825834751129150391e+00 -4.547959327697753906e+00 8.826481103897094727e-01 6.164451599121093750e+00 2.114130020141601562e+00 3.147559404373168945e+00
3.537000000000000000e+03 6.062474727630615234e+00 -5.274127960205078125e+00 9.368873238563537598e-01 3.538521051406860352e+00 1.342622518539428711e+00 2.113644123077392578e+00
3.538000000000000000e+03 9.907292366027832031e+00 -5.450168609619140625e+00 -8.764150142669677734e-01 1.025505256652832031e+01 2.813591241836547852e+00 1.729910492897033691e+00
3.539000000000000000e+03 9.564465522766113281e+00 -4.914621829986572266e+00 -5.522115230560302734e-01 1.017427444458007812e+01 2.886618852615356445e+00 2.411698341369628906e+00
3.540000000000000000e+03 6.928644180297851562e+00 7.647325992584228516e+00 9.935925602912902832e-01 5.813637256622314453e+00 2.042169094085693359e+00 -3.215266704559326172e+00
3.541000000000000000e+03 6.797319412231445312e+00 5.964847087860107422e+00 2.060932874679565430e+00 4.703163623809814453e+00 2.029228925704956055e+00 -2.988442659378051758e+00
3.542000000000000000e+03 8.410729408264160156e+00 5.174007415771484375e+00 2.667987585067749023e+00 7.545484542846679688e+00 3.064041614532470703e+00 -3.890417337417602539e+00
3.543000000000000000e+03 7.166996002197265625e+00 -6.654433727264404297e+00 1.039187014102935791e-01 5.461041450500488281e+00 1.669487953186035156e+00 2.154233932495117188e+00
3.544000000000000000e+03 8.163114547729492188e+00 -4.871685981750488281e+00 4.856554269790649414e-01 6.969239711761474609e+00 2.236468553543090820e+00 3.062474250793457031e+00
3.545000000000000000e+03 1.045073604583740234e+01 -4.984170436859130859e+00 -1.083747148513793945e+00 1.164585876464843750e+01 3.168633222579956055e+00 1.272361516952514648e+00
3.546000000000000000e+03 7.428966999053955078e+00 6.148807048797607422e+00 1.999645471572875977e+00 5.854240894317626953e+00 2.356165885925292969e+00 -3.386075973510742188e+00
3.547000000000000000e+03 6.508008956909179688e+00 5.586041927337646484e+00 2.214824199676513672e+00 4.124740600585937500e+00 1.901869416236877441e+00 -2.783291816711425781e+00
3.548000000000000000e+03 6.617472171783447266e+00 -4.912909030914306641e+00 1.051191449165344238e+00 4.096058845520019531e+00 1.544175028800964355e+00 2.435206890106201172e+00
3.549000000000000000e+03 7.377769470214843750e+00 -8.364528656005859375e+00 -3.319947123527526855e-01 5.724631786346435547e+00 1.617791175842285156e+00 1.680663228034973145e+00
3.550000000000000000e+03 1.185104846954345703e+01 -6.314232349395751953e+00 -1.225736379623413086e+00 1.056502246856689453e+01 2.801785945892333984e+00 -7.294216156005859375e-01
3.551000000000000000e+03 8.364273071289062500e+00 6.110707283020019531e+00 1.981545805931091309e+00 7.603010177612304688e+00 2.875366926193237305e+00 -3.890995025634765625e+00
3.552000000000000000e+03 7.669771194458007812e+00 -8.019505500793457031e+00 -3.613311052322387695e-01 6.019797801971435547e+00 1.697539925575256348e+00 1.741808533668518066e+00
3.553000000000000000e+03 9.123747825622558594e+00 -7.924515724182128906e+00 -7.603052854537963867e-01 7.547552108764648438e+00 2.036174058914184570e+00 1.338401556015014648e+00
3.554000000000000000e+03 1.142904281616210938e+01 -5.025419712066650391e+00 -1.276894927024841309e+00 1.229067230224609375e+01 3.304133176803588867e+00 -2.151778787374496460e-01
3.555000000000000000e+03 7.766517639160156250e+00 7.408014297485351562e+00 1.113230943679809570e+00 6.999808788299560547e+00 2.433911800384521484e+00 -3.414729118347167969e+00
3.556000000000000000e+03 9.388557434082031250e+00 -1.050131130218505859e+01 -7.654988169670104980e-01 6.658536911010742188e+00 1.767911434173583984e+00 7.943576574325561523e-01
3.557000000000000000e+03 1.137269878387451172e+01 -5.666777610778808594e+00 -1.301936626434326172e+00 1.134031295776367188e+01 3.011512994766235352e+00 -1.823395192623138428e-01
3.558000000000000000e+03 1.094023609161376953e+01 -7.544611930847167969e+00 -1.098210692405700684e+00 9.148182868957519531e+00 2.414991617202758789e+00 1.609850674867630005e-01
3.559000000000000000e+03 1.118123149871826172e+01 -6.973263263702392578e+00 -1.213287591934204102e+00 9.793972969055175781e+00 2.574205398559570312e+00 -3.774467110633850098e-02
3.560000000000000000e+03 1.093617820739746094e+01 -4.996765613555908203e+00 -1.260686993598937988e+00 1.204874420166015625e+01 3.236417055130004883e+00 4.854254424571990967e-01
3.561000000000000000e+03 1.087186241149902344e+01 -5.610898494720458984e+00 -1.217692852020263672e+00 1.113575458526611328e+01 2.975418567657470703e+00 4.859257042407989502e-01
3.562000000000000000e+03 1.119539737701416016e+01 -8.271962165832519531e+00 -1.016829371452331543e+00 8.637124061584472656e+00 2.286088228225708008e+00 -6.345625966787338257e-02
3.563000000000000000e+03 8.195726394653320312e+00 -8.429988861083984375e+00 -5.430904030799865723e-01 6.496615886688232422e+00 1.786057591438293457e+00 1.514381766319274902e+00
3.564000000000000000e+03 1.108660602569580078e+01 -8.734156608581542969e+00 -9.651246070861816406e-01 8.232766151428222656e+00 2.180292606353759766e+00 3.450510278344154358e-02
3.565000000000000000e+03 4.713350677490234375e+01 8.865155220031738281e+00 -3.675274550914764404e-01 3.848373651504516602e+00 1.044253826141357422e+00 7.278572320938110352e-01
3.566000000000000000e+03 4.698772430419921875e+01 9.988643646240234375e+00 -3.658390641212463379e-01 3.815791368484497070e+00 1.034985780715942383e+00 7.675294280052185059e-01
3.567000000000000000e+03 6.171534347534179688e+01 -1.854628181457519531e+01 -1.966677010059356689e-01 6.808908939361572266e+00 1.983672380447387695e+00 6.436609625816345215e-01
3.568000000000000000e+03 6.067290878295898438e+01 -1.943753051757812500e+01 -1.933319717645645142e-01 6.748738288879394531e+00 1.966621994972229004e+00 6.474463939666748047e-01
3.569000000000000000e+03 6.581802368164062500e+01 -8.275517463684082031e+00 -2.860968708992004395e-01 7.270936012268066406e+00 2.095451831817626953e+00 4.078517258167266846e-01
3.570000000000000000e+03 6.603707885742187500e+01 -9.706486701965332031e+00 -2.506366074085235596e-01 7.296527385711669922e+00 2.113767385482788086e+00 4.372075498104095459e-01
3.571000000000000000e+03 4.534701538085937500e+01 2.934772729873657227e+00 -2.848137617111206055e-01 3.484874486923217773e+00 9.600182175636291504e-01 4.772461652755737305e-01
3.572000000000000000e+03 4.513616561889648438e+01 5.605777740478515625e+00 -2.966623604297637939e-01 3.364023208618164062e+00 9.202082157135009766e-01 5.913594961166381836e-01
3.573000000000000000e+03 6.054737854003906250e+01 1.935232162475585938e+01 -7.265374660491943359e-01 8.120347976684570312e+00 2.218143224716186523e+00 -9.910673648118972778e-02
3.574000000000000000e+03 6.436046600341796875e+01 1.605645751953125000e+01 -6.022194027900695801e-01 7.987022876739501953e+00 2.215440988540649414e+00 -3.822909891605377197e-01
3.575000000000000000e+03 4.632070922851562500e+01 7.415434837341308594e+00 -3.338169157505035400e-01 3.648912668228149414e+00 9.945287108421325684e-01 6.617193222045898438e-01
3.576000000000000000e+03 1.066903209686279297e+01 -1.003860664367675781e+01 -8.363632559776306152e-01 7.362311840057373047e+00 1.957784652709960938e+00 2.893390059471130371e-01
3.577000000000000000e+03 6.553648376464843750e+01 -6.795200347900390625e+00 -2.970888018608093262e-01 7.244499683380126953e+00 2.084223270416259766e+00 3.689894080162048340e-01
3.578000000000000000e+03 6.595127105712890625e+01 2.423988342285156250e+00 -3.956861197948455811e-01 7.465472221374511719e+00 2.120935916900634766e+00 9.014639258384704590e-02
3.579000000000000000e+03 6.578728485107421875e+01 1.193567872047424316e+00 -3.785936236381530762e-01 7.428732395172119141e+00 2.115041494369506836e+00 1.333398520946502686e-01
3.580000000000000000e+03 5.281212997436523438e+01 1.519195175170898438e+01 -6.241348385810852051e-01 5.887950420379638672e+00 1.579144716262817383e+00 8.825024962425231934e-01
3.581000000000000000e+03 6.530820465087890625e+01 9.297074317932128906e+00 -5.196580290794372559e-01 7.647485256195068359e+00 2.138348102569580078e+00 -1.505007445812225342e-01
3.582000000000000000e+03 6.648784637451171875e+01 8.822701454162597656e+00 -4.690689146518707275e-01 7.744404315948486328e+00 2.182600736618041992e+00 -1.719917058944702148e-01
3.583000000000000000e+03 4.236820983886718750e+01 -3.639952659606933594e+00 -1.281306892633438110e-01 2.836662769317626953e+00 8.125596046447753906e-01 1.352306902408599854e-01
3.584000000000000000e+03 6.613343811035156250e+01 7.502927303314208984e+00 -4.545127153396606445e-01 7.649322032928466797e+00 2.158442735671997070e+00 -1.039729416370391846e-01
3.585000000000000000e+03 6.477715301513671875e+01 4.693081378936767578e+00 -4.611992239952087402e-01 7.407153606414794922e+00 2.083786249160766602e+00 4.452323913574218750e-02
3.586000000000000000e+03 5.902107238769531250e+01 2.172852134704589844e+01 -6.620200872421264648e-01 8.430433273315429688e+00 2.330523967742919922e+00 9.564897418022155762e-02
3.587000000000000000e+03 5.808836364746093750e+01 2.095711708068847656e+01 -6.855914592742919922e-01 8.082620620727539062e+00 2.219108819961547852e+00 3.377926945686340332e-01
3.588000000000000000e+03 4.860257339477539062e+01 9.089380264282226562e+00 -4.410476088523864746e-01 4.346692085266113281e+00 1.171693444252014160e+00 7.568342089653015137e-01
3.589000000000000000e+03 5.734198379516601562e+01 1.555510997772216797e+01 -7.684718370437622070e-01 7.098860740661621094e+00 1.899116754531860352e+00 4.050285518169403076e-01
3.590000000000000000e+03 5.753176116943359375e+01 1.736749649047851562e+01 -7.684406638145446777e-01 7.375486850738525391e+00 1.982113838195800781e+00 3.992485404014587402e-01
3.591000000000000000e+03 6.776737976074218750e+01 8.487381935119628906e+00 -3.986123204231262207e-01 7.843755722045898438e+00 2.233542919158935547e+00 -2.041085511445999146e-01
3.592000000000000000e+03 6.201041030883789062e+01 -1.620973968505859375e+01 -2.547391355037689209e-01 6.830782890319824219e+00 1.972813129425048828e+00 5.862827897071838379e-01
3.593000000000000000e+03 6.590209960937500000e+01 -1.467102336883544922e+01 -2.013203948736190796e-01 7.234704971313476562e+00 2.110015392303466797e+00 5.573907494544982910e-01
3.594000000000000000e+03 6.595690917968750000e+01 6.117684841156005859e+00 -4.517118632793426514e-01 7.585479736328125000e+00 2.140130281448364258e+00 -4.318043217062950134e-02
3.595000000000000000e+03 6.499158477783203125e+01 1.455304145812988281e+01 -5.948798060417175293e-01 7.920834064483642578e+00 2.197786331176757812e+00 -3.579850494861602783e-01
3.596000000000000000e+03 5.741373062133789062e+01 2.196261405944824219e+01 -6.697939038276672363e-01 8.190389633178710938e+00 2.256178617477416992e+00 4.720717966556549072e-01
3.597000000000000000e+03 1.505503273010253906e+01 2.515844917297363281e+01 -7.293062210083007812e-01 4.646852970123291016e+00 1.175264000892639160e+00 -1.434775292873382568e-01
3.598000000000000000e+03 1.256690120697021484e+01 2.476205635070800781e+01 -7.306494712829589844e-01 5.248952865600585938e+00 1.355491042137145996e+00 -3.592954576015472412e-01
3.599000000000000000e+03 1.494356346130371094e+01 2.242735671997070312e+01 -9.146871566772460938e-01 4.953863620758056641e+00 1.211752891540527344e+00 -1.151441633701324463e-01
3.600000000000000000e+03 4.545101165771484375e+01 -4.470705509185791016e+00 -2.618951499462127686e-01 3.620188474655151367e+00 1.007488012313842773e+00 1.905837059020996094e-01
3.601000000000000000e+03 4.378560256958007812e+01 -3.248070716857910156e+00 -1.890478879213333130e-01 3.161777734756469727e+00 8.918189406394958496e-01 1.894914954900741577e-01
3.602000000000000000e+03 5.054163742065429688e+01 1.010058212280273438e+01 -5.244280099868774414e-01 4.867852687835693359e+00 1.303027391433715820e+00 7.467450499534606934e-01
3.603000000000000000e+03 5.369161987304687500e+01 -1.251930522918701172e+01 -4.416761696338653564e-01 5.640352249145507812e+00 1.559602856636047363e+00 3.215852677822113037e-01
3.604000000000000000e+03 4.688657760620117188e+01 -8.428202629089355469e+00 -3.387598395347595215e-01 4.079855442047119141e+00 1.122328639030456543e+00 9.026666730642318726e-02
3.605000000000000000e+03 4.632040405273437500e+01 -7.211416244506835938e+00 -3.090319633483886719e-01 3.916726350784301758e+00 1.082308292388916016e+00 1.162919625639915466e-01
3.606000000000000000e+03 6.442462158203125000e+01 1.244250011444091797e+01 -6.017140150070190430e-01 7.745889663696289062e+00 2.143252611160278320e+00 -2.310364842414855957e-01
3.607000000000000000e+03 6.441916656494140625e+01 1.104414844512939453e+01 -5.742641091346740723e-01 7.643695354461669922e+00 2.120829343795776367e+00 -1.681886613368988037e-01
3.608000000000000000e+03 6.198849105834960938e+01 2.189684295654296875e+01 -5.157108306884765625e-01 8.538373947143554688e+00 2.406799077987670898e+00 -4.157834947109222412e-01
3.609000000000000000e+03 5.949923324584960938e+01 1.872702789306640625e+01 -7.415047287940979004e-01 7.912345886230468750e+00 2.151252508163452148e+00 9.309303015470504761e-02
3.610000000000000000e+03 6.646464538574218750e+01 -1.104630374908447266e+01 -2.322960793972015381e-01 7.332384586334228516e+00 2.130026578903198242e+00 4.685254991054534912e-01
3.611000000000000000e+03 5.932746887207031250e+01 -1.373761463165283203e+01 -3.582472205162048340e-01 6.501840114593505859e+00 1.843077898025512695e+00 5.037195086479187012e-01
3.612000000000000000e+03 5.362115097045898438e+01 -1.631985855102539062e+01 -4.061138629913330078e-01 5.836919307708740234e+00 1.629241585731506348e+00 3.374879658222198486e-01
3.613000000000000000e+03 6.335306930541992188e+01 -1.631380462646484375e+01 -2.240917682647705078e-01 6.954083442687988281e+00 2.018997430801391602e+00 6.178264021873474121e-01
3.614000000000000000e+03 6.262047195434570312e+01 -1.748266410827636719e+01 -2.093619257211685181e-01 6.907898902893066406e+00 2.009561061859130859e+00 6.265764832496643066e-01
3.615000000000000000e+03 6.086577606201171875e+01 2.230434226989746094e+01 -5.284910798072814941e-01 8.614158630371093750e+00 2.425700187683105469e+00 -2.638206183910369873e-01
3.616000000000000000e+03 6.285460662841796875e+01 -1.974217414855957031e+01 -1.509941220283508301e-01 6.947897911071777344e+00 2.039071083068847656e+00 6.617462038993835449e-01
3.617000000000000000e+03 6.714633941650390625e+01 2.347087144851684570e+00 -3.583801090717315674e-01 7.611495018005371094e+00 2.175934553146362305e+00 6.030670925974845886e-02
3.618000000000000000e+03 6.605235290527343750e+01 3.584420680999755859e+00 -4.060355722904205322e-01 7.513206005096435547e+00 2.132151126861572266e+00 4.558124765753746033e-02
3.619000000000000000e+03 4.373799896240234375e+01 -1.623240470886230469e+00 -1.832374930381774902e-01 3.126834630966186523e+00 8.830791115760803223e-01 2.586410343647003174e-01
3.620000000000000000e+03 4.255313873291015625e+01 -9.621678292751312256e-02 -1.443706005811691284e-01 2.827646493911743164e+00 8.049827814102172852e-01 2.913387417793273926e-01
3.621000000000000000e+03 5.606719207763671875e+01 -1.974618339538574219e+01 -2.662312388420104980e-01 6.300222873687744141e+00 1.810197591781616211e+00 5.296931862831115723e-01
3.622000000000000000e+03 6.080820846557617188e+01 -2.317518043518066406e+01 -2.976549044251441956e-02 6.772712707519531250e+00 2.022884130477905273e+00 6.955395936965942383e-01
3.623000000000000000e+03 7.365137100219726562e+00 4.597105979919433594e+00 2.948593854904174805e+00 4.749948024749755859e+00 2.309562683105468750e+00 -3.277921199798583984e+00
3.624000000000000000e+03 7.291915416717529297e+00 5.346610546112060547e+00 2.492226839065551758e+00 5.195827484130859375e+00 2.306416273117065430e+00 -3.277909994125366211e+00
3.625000000000000000e+03 6.272584915161132812e+00 4.666771888732910156e+00 2.525239467620849609e+00 2.899439096450805664e+00 1.627403616905212402e+00 -2.226515293121337891e+00
3.626000000000000000e+03 6.653762340545654297e+00 4.282810211181640625e+00 2.899614572525024414e+00 3.224526882171630859e+00 1.837242364883422852e+00 -2.417235374450683594e+00
3.627000000000000000e+03 6.987935066223144531e+00 4.739947795867919922e+00 2.855610132217407227e+00 4.236950397491455078e+00 2.127768039703369141e+00 -2.890374183654785156e+00
3.628000000000000000e+03 6.612449169158935547e+00 4.655414581298828125e+00 2.671003818511962891e+00 3.373970031738281250e+00 1.813492178916931152e+00 -2.620306730270385742e+00
3.629000000000000000e+03 7.419179439544677734e+00 -6.303699493408203125e+00 1.731940209865570068e-01 5.793052673339843750e+00 1.789874076843261719e+00 2.331230878829956055e+00
3.630000000000000000e+03 7.395466804504394531e+00 -7.316047191619873047e+00 -1.483284384012222290e-01 5.761549949645996094e+00 1.683966398239135742e+00 1.956299543380737305e+00
3.631000000000000000e+03 7.602931022644042969e+00 -4.887317180633544922e+00 7.494469285011291504e-01 5.845781803131103516e+00 1.978568553924560547e+00 2.901643037796020508e+00
3.632000000000000000e+03 7.895064353942871094e+00 -7.602083683013916016e+00 -3.508443236351013184e-01 6.288757324218750000e+00 1.781373858451843262e+00 1.815493822097778320e+00
3.633000000000000000e+03 6.524330615997314453e+00 -5.358520984649658203e+00 8.260794878005981445e-01 4.167117118835449219e+00 1.497959017753601074e+00 2.289367198944091797e+00
3.634000000000000000e+03 7.299955368041992188e+00 6.740701675415039062e+00 1.614567518234252930e+00 5.961944580078125000e+00 2.272953748703002930e+00 -3.317927122116088867e+00
3.635000000000000000e+03 8.647608757019042969e+00 5.607550621032714844e+00 2.226112127304077148e+00 8.243613243103027344e+00 3.140917539596557617e+00 -4.061734676361083984e+00
3.636000000000000000e+03 7.611038684844970703e+00 -6.918925762176513672e+00 -1.026124581694602966e-01 6.037436962127685547e+00 1.780447363853454590e+00 2.075847625732421875e+00
3.637000000000000000e+03 9.844703674316406250e+00 -7.190485477447509766e+00 -9.191981554031372070e-01 8.596967697143554688e+00 2.303330898284912109e+00 1.100404858589172363e+00
3.638000000000000000e+03 1.060349082946777344e+01 -6.793336391448974609e+00 -1.127743124961853027e+00 9.617568016052246094e+00 2.546947479248046875e+00 5.717011094093322754e-01
3.639000000000000000e+03 1.070869445800781250e+01 -8.085676193237304688e+00 -1.039939284324645996e+00 8.633531570434570312e+00 2.278077840805053711e+00 3.219493031501770020e-01
3.640000000000000000e+03 9.049592018127441406e+00 -9.771256446838378906e+00 -7.529386281967163086e-01 6.714630126953125000e+00 1.788507461547851562e+00 9.946090579032897949e-01
3.641000000000000000e+03 8.470670700073242188e+00 -7.888911724090576172e+00 -5.742376446723937988e-01 6.872746467590332031e+00 1.889552712440490723e+00 1.575451970100402832e+00
3.642000000000000000e+03 1.001303863525390625e+01 -1.021055412292480469e+01 -8.138164281845092773e-01 7.020781040191650391e+00 1.862089395523071289e+00 5.694689154624938965e-01
3.643000000000000000e+03 5.040376281738281250e+01 6.617938041687011719e+00 -5.015299320220947266e-01 4.780815124511718750e+00 1.283785462379455566e+00 6.271912455558776855e-01
3.644000000000000000e+03 5.687068176269531250e+01 -1.794651031494140625e+01 -3.108414709568023682e-01 6.344580173492431641e+00 1.810121536254882812e+00 5.169919729232788086e-01
3.645000000000000000e+03 6.038568496704101562e+01 -1.805838012695312500e+01 -2.353816181421279907e-01 6.710542678833007812e+00 1.942548394203186035e+00 6.145807504653930664e-01
3.646000000000000000e+03 4.552682876586914062e+01 3.785398006439208984e+00 -2.870569825172424316e-01 3.509464979171752930e+00 9.667223691940307617e-01 5.281077027320861816e-01
3.647000000000000000e+03 6.038407135009765625e+01 1.497070598602294922e+01 -7.403462529182434082e-01 7.527019500732421875e+00 2.036001920700073242e+00 5.369777977466583252e-02
3.648000000000000000e+03 6.551707458496093750e+01 -8.336322754621505737e-02 -3.615225255489349365e-01 7.376810550689697266e+00 2.104586362838745117e+00 1.774769425392150879e-01
3.649000000000000000e+03 6.705262756347656250e+01 1.194522500038146973e+00 -3.329865932464599609e-01 7.573459148406982422e+00 2.172141790390014648e+00 1.089958176016807556e-01
3.650000000000000000e+03 6.438562011718750000e+01 -3.845216512680053711e+00 -3.608132600784301758e-01 7.145944118499755859e+00 2.035539388656616211e+00 3.053375780582427979e-01
3.651000000000000000e+03 6.443569183349609375e+01 -1.003165912628173828e+01 -2.948379516601562500e-01 7.091255187988281250e+00 2.038925170898437500e+00 4.652864933013916016e-01
3.652000000000000000e+03 6.382636260986328125e+01 1.390487384796142578e+01 -6.212548017501831055e-01 7.778383255004882812e+00 2.147138595581054688e+00 -2.456634491682052612e-01
3.653000000000000000e+03 6.558670043945312500e+01 1.296703624725341797e+01 -5.427887439727783203e-01 7.848252773284912109e+00 2.191639184951782227e+00 -3.146805763244628906e-01
3.654000000000000000e+03 6.224158096313476562e+01 1.859118843078613281e+01 -6.811143159866333008e-01 8.144768714904785156e+00 2.239096403121948242e+00 -2.885170280933380127e-01
3.655000000000000000e+03 5.463861083984375000e+01 1.484201049804687500e+01 -7.056173086166381836e-01 6.369254589080810547e+00 1.699091196060180664e+00 6.867092251777648926e-01
3.656000000000000000e+03 6.010915374755859375e+01 1.759677886962890625e+01 -7.659320235252380371e-01 7.816179275512695312e+00 2.115074157714843750e+00 2.148907445371150970e-02
3.657000000000000000e+03 5.881874847412109375e+01 1.986484336853027344e+01 -7.561410069465637207e-01 8.023999214172363281e+00 2.180357456207275391e+00 1.861448585987091064e-01
3.658000000000000000e+03 6.405071258544921875e+01 2.549564242362976074e-01 -4.207006394863128662e-01 7.166769027709960938e+00 2.023820400238037109e+00 1.988338232040405273e-01
3.659000000000000000e+03 5.646221160888671875e+01 1.464574527740478516e+01 -7.510531544685363770e-01 6.816401958465576172e+00 1.819604635238647461e+00 4.784668385982513428e-01
3.660000000000000000e+03 4.583092117309570312e+01 -5.885029792785644531e+00 -2.772699594497680664e-01 3.753136157989501953e+00 1.042759895324707031e+00 1.366932988166809082e-01
3.661000000000000000e+03 4.898728942871093750e+01 -1.148517704010009766e+01 -4.035888612270355225e-01 4.719160556793212891e+00 1.294671535491943359e+00 1.153709813952445984e-01
3.662000000000000000e+03 5.062111663818359375e+01 -1.286815261840820312e+01 -4.162693023681640625e-01 5.107521057128906250e+00 1.407375574111938477e+00 1.685434430837631226e-01
3.663000000000000000e+03 5.224200439453125000e+01 1.311158752441406250e+01 -5.994669198989868164e-01 5.542716026306152344e+00 1.482974767684936523e+00 8.006206154823303223e-01
3.664000000000000000e+03 5.170421218872070312e+01 1.104463958740234375e+01 -5.803184509277343750e-01 5.263590335845947266e+00 1.404981613159179688e+00 7.380993962287902832e-01
3.665000000000000000e+03 4.519770431518554688e+01 1.032973885536193848e+00 -2.583825886249542236e-01 3.417262792587280273e+00 9.476640224456787109e-01 3.983035981655120850e-01
3.666000000000000000e+03 6.317803573608398438e+01 1.542918491363525391e+01 -6.730058193206787109e-01 7.862275123596191406e+00 2.156780719757080078e+00 -2.597250640392303467e-01
3.667000000000000000e+03 6.388250732421875000e+01 1.758955001831054688e+01 -6.228271722793579102e-01 8.093250274658203125e+00 2.241127014160156250e+00 -4.155542850494384766e-01
3.668000000000000000e+03 5.220551681518554688e+01 -1.558069515228271484e+01 -4.245670139789581299e-01 5.533240795135498047e+00 1.532602071762084961e+00 2.525013983249664307e-01
3.669000000000000000e+03 5.287770462036132812e+01 -1.777868461608886719e+01 -3.875371515750885010e-01 5.785567760467529297e+00 1.619409203529357910e+00 3.116735816001892090e-01
3.670000000000000000e+03 6.018435668945312500e+01 -2.161518859863281250e+01 -1.157124042510986328e-01 6.736593246459960938e+00 1.986264228820800781e+00 6.741193532943725586e-01
3.671000000000000000e+03 6.395185852050781250e+01 -1.494091224670410156e+01 -2.380271703004837036e-01 7.043767929077148438e+00 2.041722297668457031e+00 5.744765400886535645e-01
3.672000000000000000e+03 5.868967819213867188e+01 -1.823751258850097656e+01 -2.695741653442382812e-01 6.534251213073730469e+00 1.879403114318847656e+00 5.926443934440612793e-01
3.673000000000000000e+03 6.147404479980468750e+01 -2.512757682800292969e+01 7.210001349449157715e-02 6.863379478454589844e+00 2.080643892288208008e+00 7.106645703315734863e-01
3.674000000000000000e+03 6.173312759399414062e+01 -1.481156444549560547e+01 -2.903091907501220703e-01 6.807180404663085938e+00 1.955061435699462891e+00 5.685763359069824219e-01
3.675000000000000000e+03 1.336368370056152344e+01 -2.319823646545410156e+01 -3.566204607486724854e-01 4.836853027343750000e+00 1.344069719314575195e+00 3.429564647376537323e-03
3.676000000000000000e+03 5.629075622558593750e+01 -2.270454025268554688e+01 -1.317378729581832886e-01 6.425124645233154297e+00 1.888015985488891602e+00 5.969606637954711914e-01
3.677000000000000000e+03 7.458021640777587891e+00 -5.921617507934570312e+00 3.132772445678710938e-01 5.812457561492919922e+00 1.837720513343811035e+00 2.456117391586303711e+00
3.678000000000000000e+03 7.230947017669677734e+00 5.765426635742187500e+00 2.147136688232421875e+00 5.249445438385009766e+00 2.218974590301513672e+00 -3.324924945831298828e+00
3.679000000000000000e+03 6.865424156188964844e+00 5.172038078308105469e+00 2.489549160003662109e+00 4.227628707885742188e+00 2.015153408050537109e+00 -2.979581356048583984e+00
3.680000000000000000e+03 7.052116394042968750e+00 -5.052630901336669922e+00 8.652771115303039551e-01 4.846457481384277344e+00 1.713520407676696777e+00 2.602685928344726562e+00
3.681000000000000000e+03 8.069791793823242188e+00 -7.168575286865234375e+00 -3.370403945446014404e-01 6.619937419891357422e+00 1.884868979454040527e+00 1.899624466896057129e+00
3.682000000000000000e+03 9.307724952697753906e+00 -5.761186122894287109e+00 -5.977706313133239746e-01 9.013409614562988281e+00 2.524691581726074219e+00 2.073416233062744141e+00
3.683000000000000000e+03 7.601149082183837891e+00 5.594863891601562500e+00 2.396531343460083008e+00 5.942279338836669922e+00 2.501643180847167969e+00 -3.492697238922119141e+00
3.684000000000000000e+03 1.037946891784667969e+01 -5.537985324859619141e+00 -1.114042043685913086e+00 1.073182678222656250e+01 2.885335206985473633e+00 1.118203282356262207e+00
3.685000000000000000e+03 9.586782455444335938e+00 -6.429396152496337891e+00 -8.200876116752624512e-01 8.936304092407226562e+00 2.434864997863769531e+00 1.533522605895996094e+00
3.686000000000000000e+03 7.807175636291503906e+00 5.943181991577148438e+00 2.089631080627441406e+00 6.526461601257324219e+00 2.584827661514282227e+00 -3.699639320373535156e+00
3.687000000000000000e+03 8.534280776977539062e+00 -7.362287521362304688e+00 -5.283582210540771484e-01 7.167058467864990234e+00 1.991610050201416016e+00 1.709529280662536621e+00
3.688000000000000000e+03 1.076692771911621094e+01 -6.213430881500244141e+00 -1.208485722541809082e+00 1.028596210479736328e+01 2.723242998123168945e+00 4.969868063926696777e-01
3.689000000000000000e+03 9.121685028076171875e+00 -6.197211265563964844e+00 -5.981174707412719727e-01 8.420280456542968750e+00 2.346648931503295898e+00 1.952717781066894531e+00
3.690000000000000000e+03 9.372063636779785156e+00 -8.688881874084472656e+00 -8.151168823242187500e-01 7.358720302581787109e+00 1.963081002235412598e+00 1.016861081123352051e+00
3.691000000000000000e+03 9.737231254577636719e+00 -9.471017837524414062e+00 -8.293200135231018066e-01 7.227698802947998047e+00 1.919513702392578125e+00 7.421615719795227051e-01
3.692000000000000000e+03 4.657207870483398438e+01 -2.761334419250488281e+00 -2.997862696647644043e-01 3.852958440780639648e+00 1.065951704978942871e+00 2.773739099502563477e-01
3.693000000000000000e+03 4.585247421264648438e+01 6.156998157501220703e+00 -3.152317702770233154e-01 3.522999286651611328e+00 9.623302817344665527e-01 6.158372759819030762e-01
3.694000000000000000e+03 4.985237884521484375e+01 9.016893386840820312e+00 -4.929179847240447998e-01 4.667227745056152344e+00 1.252292871475219727e+00 7.271960973739624023e-01
3.695000000000000000e+03 6.338627624511718750e+01 1.178097152709960938e+01 -6.310530304908752441e-01 7.583956718444824219e+00 2.085871219635009766e+00 -1.271540373563766479e-01
3.696000000000000000e+03 6.416712951660156250e+01 9.711847305297851562e+00 -5.712057948112487793e-01 7.535743236541748047e+00 2.089361190795898438e+00 -1.013246402144432068e-01
3.697000000000000000e+03 6.493560028076171875e+01 8.079481124877929688e+00 -5.140835046768188477e-01 7.542140007019042969e+00 2.108417034149169922e+00 -7.538483291864395142e-02
3.698000000000000000e+03 4.463488006591796875e+01 4.892328739166259766e+00 -2.575380206108093262e-01 3.241840600967407227e+00 8.952907323837280273e-01 5.467637777328491211e-01
3.699000000000000000e+03 5.148262023925781250e+01 9.144291877746582031e+00 -5.516833662986755371e-01 5.130673408508300781e+00 1.373697042465209961e+00 6.612092256546020508e-01
3.700000000000000000e+03 6.259962081909179688e+01 1.674540787935256958e-01 -4.506709873676300049e-01 6.980713844299316406e+00 1.959012866020202637e+00 2.410412877798080444e-01
3.701000000000000000e+03 6.513784027099609375e+01 -1.223341345787048340e+00 -3.685492873191833496e-01 7.293400287628173828e+00 2.077455282211303711e+00 2.175297737121582031e-01
3.702000000000000000e+03 6.485403442382812500e+01 2.625524044036865234e+00 -4.297595322132110596e-01 7.346879482269287109e+00 2.075135946273803711e+00 1.106624752283096313e-01
3.703000000000000000e+03 5.976490783691406250e+01 1.596964645385742188e+01 -7.694629430770874023e-01 7.581770896911621094e+00 2.043692350387573242e+00 8.211126923561096191e-02
3.704000000000000000e+03 5.823015213012695312e+01 1.632649993896484375e+01 -7.798183560371398926e-01 7.374988555908203125e+00 1.978551030158996582e+00 2.780850827693939209e-01
3.705000000000000000e+03 6.544043731689453125e+01 -2.962021589279174805e+00 -3.399983942508697510e-01 7.296061515808105469e+00 2.086818933486938477e+00 2.682230770587921143e-01
3.706000000000000000e+03 6.510117340087890625e+01 -5.262161731719970703e+00 -3.243955969810485840e-01 7.219939708709716797e+00 2.068663358688354492e+00 3.306367993354797363e-01
3.707000000000000000e+03 5.986949539184570312e+01 2.059908294677734375e+01 -6.716628074645996094e-01 8.266020774841308594e+00 2.278307437896728516e+00 -1.772692985832691193e-02
3.708000000000000000e+03 5.351407623291015625e+01 1.395915889739990234e+01 -6.650257110595703125e-01 5.983547210693359375e+00 1.595556378364562988e+00 7.663753032684326172e-01
3.709000000000000000e+03 5.552789306640625000e+01 1.355713272094726562e+01 -7.316587567329406738e-01 6.469865798950195312e+00 1.721462130546569824e+00 5.638332962989807129e-01
3.710000000000000000e+03 5.027415084838867188e+01 -6.841621875762939453e+00 -4.155600666999816895e-01 4.818479061126708984e+00 1.320875644683837891e+00 2.532604634761810303e-01
3.711000000000000000e+03 4.650698852539062500e+01 -1.429635524749755859e+00 -3.049621284008026123e-01 3.825664281845092773e+00 1.056210637092590332e+00 3.215946555137634277e-01
3.712000000000000000e+03 5.914570617675781250e+01 1.699659347534179688e+01 -7.751560211181640625e-01 7.613821029663085938e+00 2.051599502563476562e+00 1.726157516241073608e-01
3.713000000000000000e+03 5.891270065307617188e+01 1.537453842163085938e+01 -7.654342055320739746e-01 7.366211414337158203e+00 1.980233192443847656e+00 2.105794697999954224e-01
3.714000000000000000e+03 6.278381729125976562e+01 -9.931416511535644531e+00 -3.305310308933258057e-01 6.905332088470458984e+00 1.972440361976623535e+00 4.600203633308410645e-01
3.715000000000000000e+03 6.270036315917968750e+01 -1.391605758666992188e+01 -2.907109856605529785e-01 6.872831344604492188e+00 1.974636077880859375e+00 5.559439063072204590e-01
3.716000000000000000e+03 4.793980789184570312e+01 -1.248638153076171875e+01 -3.876045346260070801e-01 4.500391960144042969e+00 1.233836293220520020e+00 2.729731984436511993e-02
3.717000000000000000e+03 4.942599487304687500e+01 -8.319124221801757812e+00 -4.087148606777191162e-01 4.675654888153076172e+00 1.280081987380981445e+00 1.927780807018280029e-01
3.718000000000000000e+03 4.798604965209960938e+01 -7.758235454559326172e+00 -3.648151159286499023e-01 4.323316574096679688e+00 1.187550425529479980e+00 1.539242863655090332e-01
3.719000000000000000e+03 4.517234420776367188e+01 -1.909702271223068237e-01 -2.531386017799377441e-01 3.460771083831787109e+00 9.622897505760192871e-01 3.481706976890563965e-01
3.720000000000000000e+03 5.905776977539062500e+01 -1.495584869384765625e+01 -3.409855961799621582e-01 6.486254692077636719e+00 1.843580722808837891e+00 5.355422496795654297e-01
3.721000000000000000e+03 6.357075500488281250e+01 -1.254038429260253906e+01 -2.876795530319213867e-01 7.000358104705810547e+00 2.013803482055664062e+00 5.201290249824523926e-01
3.722000000000000000e+03 5.296472930908203125e+01 -1.407429122924804688e+01 -4.313587248325347900e-01 5.606648445129394531e+00 1.552586913108825684e+00 2.873951196670532227e-01
3.723000000000000000e+03 5.092314910888671875e+01 -1.490556144714355469e+01 -4.220976531505584717e-01 5.283855915069580078e+00 1.458527445793151855e+00 1.717503666877746582e-01
3.724000000000000000e+03 5.578411102294921875e+01 -1.550817584991455078e+01 -3.872536718845367432e-01 6.110765457153320312e+00 1.717053532600402832e+00 4.304077327251434326e-01
3.725000000000000000e+03 4.119681930541992188e+01 -5.545848846435546875e+00 -8.808083832263946533e-02 2.622662782669067383e+00 7.603745460510253906e-01 1.778689213097095490e-02
3.726000000000000000e+03 5.303419113159179688e+01 8.850956916809082031e+00 -6.072884798049926758e-01 5.548370361328125000e+00 1.482324600219726562e+00 6.083306074142456055e-01
3.727000000000000000e+03 5.434304428100585938e+01 1.259841346740722656e+01 -6.905311346054077148e-01 6.102958679199218750e+00 1.623728275299072266e+00 6.304596066474914551e-01
3.728000000000000000e+03 6.404429626464843750e+01 7.425944328308105469e+00 -5.306797027587890625e-01 7.420356273651123047e+00 2.066902875900268555e+00 -2.400757744908332825e-02
3.729000000000000000e+03 4.552516937255859375e+01 4.558151245117187500e+00 -3.000196516513824463e-01 3.496799230575561523e+00 9.590338468551635742e-01 5.513209700584411621e-01
3.730000000000000000e+03 4.628279495239257812e+01 2.316798210144042969e+00 -3.146184086799621582e-01 3.711710453033447266e+00 1.019127607345581055e+00 4.702279567718505859e-01
3.731000000000000000e+03 6.267459487915039062e+01 1.703738021850585938e+01 -6.665799021720886230e-01 7.971933841705322266e+00 2.191606283187866211e+00 -2.701967656612396240e-01
3.732000000000000000e+03 6.039682769775390625e+01 -1.503832244873046875e+01 -3.128845095634460449e-01 6.652919292449951172e+00 1.902010440826416016e+00 5.492140650749206543e-01
3.733000000000000000e+03 5.884862899780273438e+01 -1.645849227905273438e+01 -3.242983818054199219e-01 6.500049114227294922e+00 1.852725148200988770e+00 5.466386675834655762e-01
3.734000000000000000e+03 5.772455596923828125e+01 -1.456225299835205078e+01 -3.735271394252777100e-01 6.323843955993652344e+00 1.785095095634460449e+00 4.838230609893798828e-01
3.735000000000000000e+03 5.910250854492187500e+01 -2.281429481506347656e+01 -6.184983626008033752e-02 6.672792434692382812e+00 1.983282804489135742e+00 6.893456578254699707e-01
3.736000000000000000e+03 5.763276672363281250e+01 -2.121042060852050781e+01 -1.795156449079513550e-01 6.543179035186767578e+00 1.909098982810974121e+00 6.062191128730773926e-01
3.737000000000000000e+03 5.212525558471679688e+01 -2.356230354309082031e+01 -1.762979328632354736e-01 6.148396968841552734e+00 1.791629672050476074e+00 3.560178279876708984e-01
3.738000000000000000e+03 2.543741989135742188e+01 3.093835830688476562e+01 -3.820020854473114014e-01 1.528628468513488770e+00 3.439879119396209717e-01 6.101133301854133606e-03
3.739000000000000000e+03 2.360111427307128906e+01 3.496568679809570312e+01 -2.873620986938476562e-01 2.127194166183471680e+00 5.519496202468872070e-01 -1.341743953526020050e-02
3.740000000000000000e+03 6.828057098388671875e+01 -3.835249710083007812e+01 3.533806204795837402e-01 6.969504833221435547e+00 2.196865558624267578e+00 2.016506940126419067e-01
3.741000000000000000e+03 8.290493011474609375e+00 -4.082979965209960938e+01 -5.953000858426094055e-02 4.404183387756347656e+00 1.303396105766296387e+00 2.052324824035167694e-02
3.742000000000000000e+03 5.058414077758789062e+01 -3.010894775390625000e+01 5.710212588310241699e-01 6.672969341278076172e+00 2.173197031021118164e+00 3.962427675724029541e-01
3.743000000000000000e+03 6.267770385742187500e+01 1.316402149200439453e+01 -6.718353033065795898e-01 7.620930194854736328e+00 2.084728479385375977e+00 -1.327318102121353149e-01
3.744000000000000000e+03 8.854826927185058594e+00 -5.541419029235839844e+00 -2.690383195877075195e-01 8.302544593811035156e+00 2.410051822662353516e+00 2.467751741409301758e+00
3.745000000000000000e+03 9.054812431335449219e+00 -5.179153442382812500e+00 -2.762207984924316406e-01 8.925669670104980469e+00 2.594834804534912109e+00 2.628684997558593750e+00
3.746000000000000000e+03 8.403613090515136719e+00 -4.619382381439208984e+00 4.821007549762725830e-01 7.563932895660400391e+00 2.413810253143310547e+00 3.240241765975952148e+00
3.747000000000000000e+03 7.829837799072265625e+00 -6.511002540588378906e+00 -8.157646656036376953e-02 6.399241447448730469e+00 1.895299434661865234e+00 2.199193954467773438e+00
3.748000000000000000e+03 7.442790508270263672e+00 -5.267635822296142578e+00 6.019628047943115234e-01 5.675891399383544922e+00 1.883356213569641113e+00 2.701643705368041992e+00
3.749000000000000000e+03 7.246622085571289062e+00 -5.579981803894042969e+00 5.236012935638427734e-01 5.455803871154785156e+00 1.793821573257446289e+00 2.543326377868652344e+00
3.750000000000000000e+03 1.007364654541015625e+01 -6.625100135803222656e+00 -1.028906822204589844e+00 9.305024147033691406e+00 2.482835054397583008e+00 1.069698095321655273e+00
3.751000000000000000e+03 9.770833969116210938e+00 -5.937057018280029297e+00 -8.851432204246520996e-01 9.549502372741699219e+00 2.599307775497436523e+00 1.593489170074462891e+00
3.752000000000000000e+03 9.343590736389160156e+00 -6.941678047180175781e+00 -7.899016141891479492e-01 8.251193046569824219e+00 2.238387346267700195e+00 1.496466875076293945e+00
3.753000000000000000e+03 1.025353240966796875e+01 -6.083937644958496094e+00 -1.057201743125915527e+00 1.001478862762451172e+01 2.687276124954223633e+00 1.092854022979736328e+00
3.754000000000000000e+03 1.049112796783447266e+01 -8.662626266479492188e+00 -9.550454616546630859e-01 8.052328109741210938e+00 2.129184961318969727e+00 4.323111176490783691e-01
3.755000000000000000e+03 5.953931045532226562e+01 1.263043785095214844e+01 -7.378597259521484375e-01 7.191141605377197266e+00 1.935984492301940918e+00 1.563845723867416382e-01
3.756000000000000000e+03 6.232723236083984375e+01 1.083733749389648438e+01 -6.522688865661621094e-01 7.402231216430664062e+00 2.024988651275634766e+00 -3.278221189975738525e-02
3.757000000000000000e+03 6.098973083496093750e+01 2.116913414001464844e+01 -6.452980637550354004e-01 8.439364433288574219e+00 2.338219881057739258e+00 -2.225344330072402954e-01
3.758000000000000000e+03 6.395229721069335938e+01 8.579425811767578125e+00 -5.666437745094299316e-01 7.438390731811523438e+00 2.061524152755737305e+00 -4.909537732601165771e-02
3.759000000000000000e+03 6.285273361206054688e+01 2.074450111389160156e+01 -5.626531243324279785e-01 8.413033485412597656e+00 2.355113983154296875e+00 -4.666973054409027100e-01
3.760000000000000000e+03 6.165816879272460938e+01 1.996378517150878906e+01 -6.387507915496826172e-01 8.262926101684570312e+00 2.287252664566040039e+00 -2.624935209751129150e-01
3.761000000000000000e+03 4.877706909179687500e+01 7.796995639801025391e+00 -4.480817019939422607e-01 4.369194984436035156e+00 1.176333904266357422e+00 6.762869954109191895e-01
3.762000000000000000e+03 4.579069519042968750e+01 5.116406440734863281e+00 -3.089107275009155273e-01 3.534082889556884766e+00 9.675515890121459961e-01 5.813969373703002930e-01
3.763000000000000000e+03 5.244697189331054688e+01 9.925957679748535156e+00 -6.056129932403564453e-01 5.424964904785156250e+00 1.445805549621582031e+00 6.606510281562805176e-01
3.764000000000000000e+03 4.657761383056640625e+01 1.167395114898681641e+00 -3.207782506942749023e-01 3.808584690093994141e+00 1.046341896057128906e+00 4.254912436008453369e-01
3.765000000000000000e+03 6.435839080810546875e+01 1.571308732032775879e+00 -4.308829903602600098e-01 7.236321449279785156e+00 2.041631698608398438e+00 1.598614454269409180e-01
3.766000000000000000e+03 6.355127334594726562e+01 -2.605034351348876953e+00 -3.940800726413726807e-01 7.060786247253417969e+00 2.000011920928955078e+00 2.871686518192291260e-01
3.767000000000000000e+03 6.431863403320312500e+01 -8.480457305908203125e+00 -3.176824450492858887e-01 7.083883285522460938e+00 2.029860258102416992e+00 4.203718006610870361e-01
3.768000000000000000e+03 6.296820068359375000e+01 -1.309118509292602539e+00 -4.196507632732391357e-01 6.999050140380859375e+00 1.973819851875305176e+00 2.597548663616180420e-01
3.769000000000000000e+03 6.409661865234375000e+01 -1.039950966835021973e+00 -3.945315182209014893e-01 7.144815444946289062e+00 2.025085210800170898e+00 2.419485002756118774e-01
3.770000000000000000e+03 5.812108230590820312e+01 1.465485668182373047e+01 -7.647945284843444824e-01 7.137993812561035156e+00 1.911959886550903320e+00 2.958111464977264404e-01
3.771000000000000000e+03 5.954120254516601562e+01 1.451007652282714844e+01 -7.624362707138061523e-01 7.375839233398437500e+00 1.984020829200744629e+00 1.291042864322662354e-01
3.772000000000000000e+03 6.326467895507812500e+01 5.657351970672607422e+00 -5.334314107894897461e-01 7.242080211639404297e+00 2.012594699859619141e+00 6.807031482458114624e-02
3.773000000000000000e+03 5.936048507690429688e+01 -2.641954421997070312e+01 1.649910807609558105e-01 6.704641342163085938e+00 2.060889720916748047e+00 7.085781693458557129e-01
3.774000000000000000e+03 6.126173019409179688e+01 1.566616916656494141e+01 -7.254968881607055664e-01 7.711664199829101562e+00 2.095850229263305664e+00 -8.371828496456146240e-02
3.775000000000000000e+03 6.452249908447265625e+01 6.026883602142333984e+00 -4.958546757698059082e-01 7.416217327117919922e+00 2.076108694076538086e+00 1.004723552614450455e-02
3.776000000000000000e+03 5.438628387451171875e+01 -1.087136268615722656e+01 -4.387747943401336670e-01 5.710104942321777344e+00 1.581399083137512207e+00 3.338932693004608154e-01
3.777000000000000000e+03 5.010616683959960938e+01 -1.112677478790283203e+01 -4.177768528461456299e-01 4.915622711181640625e+00 1.349353790283203125e+00 1.564089357852935791e-01
3.778000000000000000e+03 4.923056411743164062e+01 -9.430036544799804688e+00 -4.037402272224426270e-01 4.671564579010009766e+00 1.280347228050231934e+00 1.550663858652114868e-01
3.779000000000000000e+03 6.046543884277343750e+01 -1.651312828063964844e+01 -2.862618565559387207e-01 6.685330390930175781e+00 1.919720530509948730e+00 5.988144874572753906e-01
3.780000000000000000e+03 6.201871490478515625e+01 1.461125659942626953e+01 -6.990713477134704590e-01 7.671621322631835938e+00 2.091764926910400391e+00 -1.176602840423583984e-01
3.781000000000000000e+03 6.149373245239257812e+01 -1.352991104125976562e+01 -3.252270817756652832e-01 6.754908561706542969e+00 1.928904414176940918e+00 5.302537083625793457e-01
3.782000000000000000e+03 4.695021057128906250e+01 5.705584049224853516e+00 -3.619549572467803955e-01 3.832106590270996094e+00 1.041045427322387695e+00 5.869737267494201660e-01
3.783000000000000000e+03 5.172831726074218750e+01 -1.344651126861572266e+01 -4.357795715332031250e-01 5.328214645385742188e+00 1.467730402946472168e+00 2.318198531866073608e-01
3.784000000000000000e+03 5.729523086547851562e+01 -1.612460708618164062e+01 -3.551061153411865234e-01 6.311732769012451172e+00 1.786988019943237305e+00 5.120033621788024902e-01
3.785000000000000000e+03 5.298681259155273438e+01 1.185734653472900391e+01 -6.347606182098388672e-01 5.669075965881347656e+00 1.510294556617736816e+00 7.065768837928771973e-01
3.786000000000000000e+03 5.606515502929687500e+01 -2.577909851074218750e+01 9.636297821998596191e-02 6.528158187866210938e+00 1.987356305122375488e+00 6.399708390235900879e-01
3.787000000000000000e+03 2.011054992675781250e+01 3.399807357788085938e+01 -3.172960579395294189e-01 2.986091375350952148e+00 8.006386160850524902e-01 1.537749078124761581e-02
3.788000000000000000e+03 5.914066314697265625e+01 -2.007623672485351562e+01 -1.970497369766235352e-01 6.609072685241699219e+00 1.923606872558593750e+00 6.335214972496032715e-01
3.789000000000000000e+03 5.637734985351562500e+01 -1.395393753051757812e+01 -4.074817597866058350e-01 6.118813991546630859e+00 1.713399767875671387e+00 4.454217553138732910e-01
3.790000000000000000e+03 8.474057197570800781e+00 -6.375829696655273438e+00 -3.455579578876495361e-01 7.374412059783935547e+00 2.108656167984008789e+00 2.148550271987915039e+00
3.791000000000000000e+03 8.259237289428710938e+00 -6.762231826782226562e+00 -3.202282190322875977e-01 7.008779525756835938e+00 2.006565332412719727e+00 2.035321474075317383e+00
3.792000000000000000e+03 8.475065231323242188e+00 -5.228057384490966797e+00 7.975780963897705078e-02 7.716293334960937500e+00 2.338815212249755859e+00 2.818775415420532227e+00
3.793000000000000000e+03 8.070334434509277344e+00 -6.155473232269287109e+00 -6.294181942939758301e-02 6.796251773834228516e+00 2.019993066787719727e+00 2.364015579223632812e+00
3.794000000000000000e+03 8.669925689697265625e+00 -6.987243175506591797e+00 -5.484819412231445312e-01 7.490130901336669922e+00 2.082494735717773438e+00 1.832162499427795410e+00
3.795000000000000000e+03 9.724417686462402344e+00 -7.796236991882324219e+00 -8.976980447769165039e-01 8.080079078674316406e+00 2.154714345932006836e+00 1.012663960456848145e+00
3.796000000000000000e+03 5.495809555053710938e+01 1.105582714080810547e+01 -6.868636608123779297e-01 6.133143424987792969e+00 1.633883833885192871e+00 5.493159890174865723e-01
3.797000000000000000e+03 6.136388778686523438e+01 3.374413728713989258e+00 -5.366095304489135742e-01 6.875987529754638672e+00 1.901813507080078125e+00 2.097936123609542847e-01
3.798000000000000000e+03 6.408945465087890625e+01 3.253574371337890625e+00 -4.572193622589111328e-01 7.270129680633544922e+00 2.043873071670532227e+00 1.127515584230422974e-01
3.799000000000000000e+03 6.155074691772460938e+01 1.677789878845214844e+01 -7.302576303482055664e-01 7.862888813018798828e+00 2.139789342880249023e+00 -1.395300775766372681e-01
3.800000000000000000e+03 4.990726089477539062e+01 7.881647109985351562e+00 -4.966259300708770752e-01 4.649885177612304688e+00 1.245977759361267090e+00 6.864023804664611816e-01
3.801000000000000000e+03 5.226381683349609375e+01 8.217756271362304688e+00 -5.717619657516479492e-01 5.320742130279541016e+00 1.424694061279296875e+00 6.026621460914611816e-01
3.802000000000000000e+03 5.739871215820312500e+01 1.374781513214111328e+01 -7.682998776435852051e-01 6.903313636779785156e+00 1.840504169464111328e+00 3.839539885520935059e-01
3.803000000000000000e+03 6.199574661254882812e+01 1.759505271911621094e+00 -4.928182065486907959e-01 6.925805091857910156e+00 1.929895997047424316e+00 2.169439047574996948e-01
3.804000000000000000e+03 6.313047790527343750e+01 9.393096923828125000e+00 -5.948709249496459961e-01 7.424353122711181641e+00 2.048844575881958008e+00 -3.589735925197601318e-02
3.805000000000000000e+03 6.170997238159179688e+01 -1.734340190887451172e+00 -4.459649324417114258e-01 6.822048187255859375e+00 1.912824988365173340e+00 3.003074228763580322e-01
3.806000000000000000e+03 4.837817382812500000e+01 2.336971282958984375e+00 -3.839671909809112549e-01 4.194376468658447266e+00 1.143122792243957520e+00 4.825895130634307861e-01
3.807000000000000000e+03 6.408982849121093750e+01 -7.047482490539550781e+00 -3.367313146591186523e-01 7.071590423583984375e+00 2.020457744598388672e+00 3.912675380706787109e-01
3.808000000000000000e+03 6.240107727050781250e+01 -6.048235416412353516e+00 -3.833489716053009033e-01 6.866922378540039062e+00 1.945072054862976074e+00 3.763710260391235352e-01
3.809000000000000000e+03 6.174500656127929688e+01 -8.350444793701171875e+00 -3.707907497882843018e-01 6.765660762786865234e+00 1.918461084365844727e+00 4.208805859088897705e-01
3.810000000000000000e+03 6.074575424194335938e+01 1.118928074836730957e+00 -5.108533501625061035e-01 6.721611499786376953e+00 1.863227486610412598e+00 2.638602852821350098e-01
3.811000000000000000e+03 6.061561584472656250e+01 1.651990318298339844e+01 -7.549749612808227539e-01 7.737631797790527344e+00 2.094797134399414062e+00 -5.462432745844125748e-04
3.812000000000000000e+03 5.407568359375000000e+01 9.228146553039550781e+00 -6.379421949386596680e-01 5.792925357818603516e+00 1.546494841575622559e+00 5.687624216079711914e-01
3.813000000000000000e+03 5.501487731933593750e+01 6.973463058471679688e+00 -6.268564462661743164e-01 5.900090217590332031e+00 1.581970095634460449e+00 4.630147516727447510e-01
3.814000000000000000e+03 4.736146545410156250e+01 3.080959796905517578e+00 -3.573028147220611572e-01 3.970565080642700195e+00 1.083978652954101562e+00 4.879826307296752930e-01
3.815000000000000000e+03 5.082766723632812500e+01 2.125749588012695312e+00 -4.639910161495208740e-01 4.815761089324951172e+00 1.305531024932861328e+00 4.542306363582611084e-01
3.816000000000000000e+03 5.984844207763671875e+01 -1.120688343048095703e+01 -3.788731396198272705e-01 6.523066997528076172e+00 1.843258142471313477e+00 4.722744226455688477e-01
3.817000000000000000e+03 6.098056793212890625e+01 -1.226513767242431641e+01 -3.440768718719482422e-01 6.691840648651123047e+00 1.904329180717468262e+00 5.086457133293151855e-01
3.818000000000000000e+03 4.676974105834960938e+01 -4.088778495788574219e+00 -3.085726797580718994e-01 3.940918684005737305e+00 1.089703798294067383e+00 2.267836183309555054e-01
3.819000000000000000e+03 6.213029479980468750e+01 -1.130950736999511719e+01 -3.354766368865966797e-01 6.811767101287841797e+00 1.942887067794799805e+00 4.930166006088256836e-01
3.820000000000000000e+03 5.154644775390625000e+01 7.251448154449462891e+00 -5.466041564941406250e-01 5.076694965362548828e+00 1.359027266502380371e+00 6.117840409278869629e-01
3.821000000000000000e+03 5.074464035034179688e+01 8.324352264404296875e+00 -5.281575322151184082e-01 4.897480010986328125e+00 1.310796737670898438e+00 6.849056482315063477e-01
3.822000000000000000e+03 5.177098083496093750e+01 -1.003680324554443359e+01 -4.391104876995086670e-01 5.197939395904541016e+00 1.427648663520812988e+00 2.423578798770904541e-01
3.823000000000000000e+03 6.282432556152343750e+01 7.098506927490234375e+00 -5.635126829147338867e-01 7.256153106689453125e+00 2.007791996002197266e+00 4.667083173990249634e-02
3.824000000000000000e+03 7.815203666687011719e+00 -5.430439472198486328e+00 3.706791400909423828e-01 6.291676521301269531e+00 1.998706698417663574e+00 2.688107490539550781e+00
3.825000000000000000e+03 7.835829257965087891e+00 -5.829762935638427734e+00 2.134134322404861450e-01 6.362730026245117188e+00 1.972842931747436523e+00 2.539574384689331055e+00
3.826000000000000000e+03 8.174516677856445312e+00 -5.422327041625976562e+00 1.377895623445510864e-01 7.136093139648437500e+00 2.182164669036865234e+00 2.705712556838989258e+00
3.827000000000000000e+03 8.906390190124511719e+00 -6.623984336853027344e+00 -5.560961365699768066e-01 7.887119770050048828e+00 2.199307203292846680e+00 1.930321574211120605e+00
3.828000000000000000e+03 8.660370826721191406e+00 -5.956414699554443359e+00 -2.785725295543670654e-01 7.818584442138671875e+00 2.262003660202026367e+00 2.347738027572631836e+00
3.829000000000000000e+03 6.254938125610351562e+01 3.851492881774902344e+00 -5.218766927719116211e-01 7.067190647125244141e+00 1.963594198226928711e+00 1.484560519456863403e-01
3.830000000000000000e+03 5.323048019409179688e+01 7.722235202789306641e+00 -6.011188030242919922e-01 5.551351547241210938e+00 1.485069870948791504e+00 5.658754706382751465e-01
3.831000000000000000e+03 4.653587341308593750e+01 -1.201486214995384216e-01 -3.079696595668792725e-01 3.798727989196777344e+00 1.047227501869201660e+00 3.729152381420135498e-01
3.832000000000000000e+03 4.784210205078125000e+01 5.557205200195312500e+00 -3.995497822761535645e-01 4.080628871917724609e+00 1.104323744773864746e+00 5.888723731040954590e-01
3.833000000000000000e+03 5.433822631835937500e+01 7.916054725646972656e+00 -6.276844739913940430e-01 5.772209167480468750e+00 1.543357491493225098e+00 5.070463418960571289e-01
3.834000000000000000e+03 6.172914886474609375e+01 6.600797176361083984e+00 -5.951207876205444336e-01 7.081926345825195312e+00 1.946041703224182129e+00 1.237912923097610474e-01
3.835000000000000000e+03 6.027072525024414062e+01 9.471021652221679688e+00 -6.773627996444702148e-01 7.033085823059082031e+00 1.906716942787170410e+00 1.469076573848724365e-01
3.836000000000000000e+03 6.148928451538085938e+01 1.235213470458984375e+01 -6.974477767944335938e-01 7.410515308380126953e+00 2.013920307159423828e+00 4.865042865276336670e-03
3.837000000000000000e+03 5.525160217285156250e+01 9.500976562500000000e+00 -6.723806858062744141e-01 6.097079277038574219e+00 1.627409577369689941e+00 4.816683530807495117e-01
3.838000000000000000e+03 6.363952636718750000e+01 4.353355407714843750e+00 -4.942244589328765869e-01 7.245610713958740234e+00 2.025415897369384766e+00 9.734030067920684814e-02
3.839000000000000000e+03 6.122687911987304688e+01 -2.968305647373199463e-01 -4.735490679740905762e-01 6.774002552032470703e+00 1.890136122703552246e+00 2.754090726375579834e-01
3.840000000000000000e+03 6.236225128173828125e+01 -3.097009181976318359e+00 -4.159375131130218506e-01 6.881614685058593750e+00 1.939703106880187988e+00 3.159847259521484375e-01
3.841000000000000000e+03 6.307252883911132812e+01 -4.383305549621582031e+00 -3.815038800239562988e-01 6.967154026031494141e+00 1.975695013999938965e+00 3.369288444519042969e-01
3.842000000000000000e+03 6.293049621582031250e+01 -8.524875640869140625e+00 -3.472226858139038086e-01 6.920077323913574219e+00 1.971856355667114258e+00 4.321967959403991699e-01
3.843000000000000000e+03 6.279803085327148438e+01 -7.250324726104736328e+00 -3.638354539871215820e-01 6.898169517517089844e+00 1.960300207138061523e+00 3.997882008552551270e-01
3.844000000000000000e+03 4.905378723144531250e+01 5.231266975402832031e+00 -4.362069368362426758e-01 4.390214443206787109e+00 1.186202287673950195e+00 5.820574164390563965e-01
3.845000000000000000e+03 4.930345535278320312e+01 3.188588142395019531e+00 -4.274505674839019775e-01 4.453273773193359375e+00 1.207746863365173340e+00 5.122215151786804199e-01
3.846000000000000000e+03 4.664345932006835938e+01 3.966816902160644531e+00 -3.299565017223358154e-01 3.773273229598999023e+00 1.032995104789733887e+00 5.226747989654541016e-01
3.847000000000000000e+03 6.069501113891601562e+01 -1.029500198364257812e+01 -3.807475864887237549e-01 6.624724388122558594e+00 1.873193025588989258e+00 4.674238562583923340e-01
3.848000000000000000e+03 6.211590957641601562e+01 8.557007789611816406e+00 -6.125177741050720215e-01 7.245697498321533203e+00 1.989953994750976562e+00 4.397334903478622437e-02
3.849000000000000000e+03 5.046781539916992188e+01 -9.671253204345703125e+00 -4.311182796955108643e-01 4.927670478820800781e+00 1.348965644836425781e+00 2.092605829238891602e-01
3.850000000000000000e+03 5.243177413940429688e+01 -1.195769119262695312e+01 -4.355274438858032227e-01 5.422211170196533203e+00 1.496005177497863770e+00 2.701074481010437012e-01
3.851000000000000000e+03 5.501630020141601562e+01 -1.322904777526855469e+01 -4.239237904548645020e-01 5.898857593536376953e+00 1.642480254173278809e+00 3.744460940361022949e-01
3.852000000000000000e+03 5.432569122314453125e+01 -1.478064823150634766e+01 -4.182548522949218750e-01 5.840016841888427734e+00 1.626528501510620117e+00 3.651721477508544922e-01
3.853000000000000000e+03 6.134568405151367188e+01 -9.319911956787109375e+00 -3.764593601226806641e-01 6.689553737640380859e+00 1.893928289413452148e+00 4.495464563369750977e-01
3.854000000000000000e+03 5.649778366088867188e+01 9.593295097351074219e+00 -6.880999803543090820e-01 6.347788333892822266e+00 1.697906613349914551e+00 4.213352203369140625e-01
3.855000000000000000e+03 6.213243865966796875e+01 5.246067047119140625e+00 -5.549952983856201172e-01 7.066036701202392578e+00 1.953312397003173828e+00 1.355857104063034058e-01
3.856000000000000000e+03 6.802222442626953125e+01 -4.735019683837890625e+00 -2.471026778221130371e-01 7.599985599517822266e+00 2.205864906311035156e+00 2.752533853054046631e-01
3.857000000000000000e+03 6.660509490966796875e+01 -3.573750972747802734e+00 -3.126631379127502441e-01 7.416461467742919922e+00 2.131139516830444336e+00 2.709902822971343994e-01
3.858000000000000000e+03 6.032100677490234375e+01 7.354903221130371094e+00 -6.403383612632751465e-01 6.900753021240234375e+00 1.878124475479125977e+00 1.861416995525360107e-01
3.859000000000000000e+03 5.281650161743164062e+01 6.413065910339355469e+00 -5.714179873466491699e-01 5.381761074066162109e+00 1.443102836608886719e+00 5.444076657295227051e-01
3.860000000000000000e+03 4.869394302368164062e+01 -6.129735469818115234e+00 -3.767297565937042236e-01 4.446533679962158203e+00 1.220941185951232910e+00 2.199336290359497070e-01
3.861000000000000000e+03 5.054114913940429688e+01 -4.284473419189453125e+00 -4.215849339962005615e-01 4.795768737792968750e+00 1.312255144119262695e+00 3.034606277942657471e-01
3.862000000000000000e+03 5.421988296508789062e+01 -8.108009338378906250e+00 -4.580677449703216553e-01 5.607071399688720703e+00 1.544701099395751953e+00 3.421787619590759277e-01
3.863000000000000000e+03 5.977547454833984375e+01 1.963492155075073242e+00 -5.226187705993652344e-01 6.602987289428710938e+00 1.824110627174377441e+00 2.769750058650970459e-01
3.864000000000000000e+03 6.367658615112304688e+01 -5.684424877166748047e+00 -3.589587509632110596e-01 7.017199993133544922e+00 1.997472286224365234e+00 3.607686161994934082e-01
3.865000000000000000e+03 5.531157302856445312e+01 -9.383889198303222656e+00 -4.539853334426879883e-01 5.794764041900634766e+00 1.602233648300170898e+00 3.680915534496307373e-01
3.866000000000000000e+03 5.574452209472656250e+01 -1.173277950286865234e+01 -4.291435778141021729e-01 5.951097488403320312e+00 1.656586289405822754e+00 3.984969854354858398e-01
3.867000000000000000e+03 5.800394058227539062e+01 1.207834529876708984e+01 -7.410644292831420898e-01 6.861037254333496094e+00 1.835991859436035156e+00 3.034551143646240234e-01
3.868000000000000000e+03 5.891473007202148438e+01 1.393675422668457031e+01 -7.682011127471923828e-01 7.186248302459716797e+00 1.925414204597473145e+00 2.217351496219635010e-01
3.869000000000000000e+03 4.513990020751953125e+01 -1.554523110389709473e+00 -2.479897737503051758e-01 3.473179578781127930e+00 9.675568938255310059e-01 2.891453206539154053e-01
3.870000000000000000e+03 5.300701522827148438e+01 -1.041165637969970703e+01 -4.411213099956512451e-01 5.460433959960937500e+00 1.505793809890747070e+00 3.033255636692047119e-01
3.871000000000000000e+03 6.027281188964843750e+01 8.380715370178222656e+00 -6.447526216506958008e-01 6.969469070434570312e+00 1.897414922714233398e+00 1.611253172159194946e-01
3.872000000000000000e+03 6.117988204956054688e+01 7.815197944641113281e+00 -6.269950866699218750e-01 7.061533451080322266e+00 1.930361509323120117e+00 1.288033574819564819e-01
3.873000000000000000e+03 5.203935623168945312e+01 -7.638417720794677734e+00 -4.417426586151123047e-01 5.183282852172851562e+00 1.422462105751037598e+00 2.845268249511718750e-01
3.874000000000000000e+03 5.947966384887695312e+01 -9.382542610168457031e+00 -4.143582284450531006e-01 6.442705631256103516e+00 1.808504223823547363e+00 4.416339695453643799e-01
3.875000000000000000e+03 5.988451004028320312e+01 4.687421798706054688e+00 -5.813791751861572266e-01 6.701868534088134766e+00 1.836146831512451172e+00 2.461080849170684814e-01
3.876000000000000000e+03 5.816857147216796875e+01 7.014059543609619141e+00 -6.514424085617065430e-01 6.525111675262451172e+00 1.762100696563720703e+00 3.036327362060546875e-01
3.877000000000000000e+03 5.904074859619140625e+01 9.537085533142089844e+00 -6.839656233787536621e-01 6.845874786376953125e+00 1.848572731018066406e+00 2.329711467027664185e-01
3.878000000000000000e+03 5.125282287597656250e+01 -1.148530960083007812e+01 -4.350489079952239990e-01 5.135309696197509766e+00 1.410078287124633789e+00 2.297824919223785400e-01
3.879000000000000000e+03 4.922888565063476562e+01 -1.355654448270797729e-01 -4.010126590728759766e-01 4.444380760192871094e+00 1.213010549545288086e+00 4.045618474483489990e-01
3.880000000000000000e+03 4.937578582763671875e+01 1.001030802726745605e+00 -4.191822707653045654e-01 4.502908229827880859e+00 1.225117802619934082e+00 4.405423104763031006e-01
3.881000000000000000e+03 5.984203720092773438e+01 1.356364059448242188e+01 -7.469006776809692383e-01 7.306953430175781250e+00 1.968015909194946289e+00 1.214462742209434509e-01
3.882000000000000000e+03 6.125749206542968750e+01 -6.441864013671875000e+00 -3.999256193637847900e-01 6.695679664611816406e+00 1.888726234436035156e+00 3.892537057399749756e-01
3.883000000000000000e+03 6.089191055297851562e+01 -7.832137584686279297e+00 -3.943649232387542725e-01 6.621420860290527344e+00 1.868116855621337891e+00 4.193159341812133789e-01
3.884000000000000000e+03 5.548012161254882812e+01 5.322595596313476562e+00 -6.008985042572021484e-01 5.930770397186279297e+00 1.598961591720581055e+00 4.212779402732849121e-01
3.885000000000000000e+03 5.918162155151367188e+01 1.174129486083984375e+01 -7.306233644485473633e-01 7.022704124450683594e+00 1.887624263763427734e+00 2.071329057216644287e-01
3.886000000000000000e+03 6.030532073974609375e+01 1.179022216796875000e+01 -7.252991199493408203e-01 7.215231418609619141e+00 1.946979641914367676e+00 1.004209890961647034e-01
3.887000000000000000e+03 6.092066574096679688e+01 1.380911445617675781e+01 -7.417058944702148438e-01 7.456498622894287109e+00 2.014437675476074219e+00 1.307206135243177414e-02
3.888000000000000000e+03 4.952236557006835938e+01 2.116067886352539062e+00 -4.279697239398956299e-01 4.533961296081542969e+00 1.231797456741333008e+00 4.702813625335693359e-01
3.889000000000000000e+03 6.169994354248046875e+01 -7.418397426605224609e+00 -3.878545761108398438e-01 6.768848419189453125e+00 1.914298176765441895e+00 4.060096740722656250e-01
3.890000000000000000e+03 6.182130432128906250e+01 -4.856832027435302734e+00 -4.026348590850830078e-01 6.782653808593750000e+00 1.914005637168884277e+00 3.593370616436004639e-01
3.891000000000000000e+03 5.639108276367187500e+01 1.113936328887939453e+01 -7.211357355117797852e-01 6.453454017639160156e+00 1.719695448875427246e+00 4.457952976226806641e-01
3.892000000000000000e+03 5.599970245361328125e+01 6.233274459838867188e+00 -6.256125569343566895e-01 6.065363883972167969e+00 1.631925344467163086e+00 4.075777530670166016e-01
3.893000000000000000e+03 5.907696151733398438e+01 1.069014167785644531e+01 -7.146464586257934570e-01 6.932831287384033203e+00 1.865455389022827148e+00 2.154366523027420044e-01
3.894000000000000000e+03 5.350491714477539062e+01 -4.584489822387695312e+00 -4.624132215976715088e-01 5.391211032867431641e+00 1.478639364242553711e+00 3.482334911823272705e-01
3.895000000000000000e+03 6.027949142456054688e+01 -2.238966226577758789e+00 -4.645093679428100586e-01 6.572196483612060547e+00 1.832306146621704102e+00 3.259472250938415527e-01
3.896000000000000000e+03 5.868864440917968750e+01 3.533903598785400391e+00 -5.768529176712036133e-01 6.448265075683593750e+00 1.761423707008361816e+00 3.015514612197875977e-01
3.897000000000000000e+03 5.991857147216796875e+01 -1.289959907531738281e+01 -3.707069456577301025e-01 6.549105167388916016e+00 1.853519439697265625e+00 5.039444565773010254e-01
3.898000000000000000e+03 4.521268081665039062e+01 -3.004199981689453125e+00 -2.504372894763946533e-01 3.543262958526611328e+00 9.878476858139038086e-01 2.323652356863021851e-01
3.899000000000000000e+03 5.428851318359375000e+01 5.850509643554687500e+00 -5.906115174293518066e-01 5.697865009307861328e+00 1.532176017761230469e+00 4.654588103294372559e-01
3.900000000000000000e+03 4.911440277099609375e+01 -2.379868984222412109e+00 -3.845365643501281738e-01 4.446575641632080078e+00 1.218611836433410645e+00 3.368752896785736084e-01
3.901000000000000000e+03 5.041402816772460938e+01 -1.321671724319458008e+00 -4.259119927883148193e-01 4.725999832153320312e+00 1.290026307106018066e+00 3.746580481529235840e-01
3.902000000000000000e+03 5.781599426269531250e+01 -1.131847667694091797e+01 -4.093835353851318359e-01 6.244916915893554688e+00 1.750659942626953125e+00 4.409056305885314941e-01
3.903000000000000000e+03 5.658345413208007812e+01 -1.041269969940185547e+01 -4.298935234546661377e-01 6.061946392059326172e+00 1.689615845680236816e+00 4.009510278701782227e-01
3.904000000000000000e+03 5.063257980346679688e+01 -8.147406578063964844e+00 -4.111649692058563232e-01 4.912676334381103516e+00 1.350453376770019531e+00 2.330667674541473389e-01
3.905000000000000000e+03 5.703991317749023438e+01 -1.253870201110839844e+01 -4.052715897560119629e-01 6.181290149688720703e+00 1.732805490493774414e+00 4.355101287364959717e-01
3.906000000000000000e+03 4.803337097167968750e+01 -3.758645296096801758e+00 -3.510675430297851562e-01 4.225886344909667969e+00 1.162445664405822754e+00 2.762463986873626709e-01
3.907000000000000000e+03 4.787204742431640625e+01 -2.542973756790161133e+00 -3.493462800979614258e-01 4.172095298767089844e+00 1.146824717521667480e+00 3.060147464275360107e-01
3.908000000000000000e+03 5.865999984741210938e+01 -1.028802680969238281e+01 -4.086415171623229980e-01 6.357923507690429688e+00 1.784784674644470215e+00 4.420944452285766602e-01
3.909000000000000000e+03 5.543770980834960938e+01 8.098381996154785156e+00 -6.471247673034667969e-01 6.059015274047851562e+00 1.623567104339599609e+00 4.559408724308013916e-01
3.910000000000000000e+03 5.910663986206054688e+01 8.362945556640625000e+00 -6.758318543434143066e-01 6.774572372436523438e+00 1.829622149467468262e+00 2.439738065004348755e-01
3.911000000000000000e+03 5.219092559814453125e+01 -2.757690811157226562e+01 1.890107989311218262e-01 6.465344905853271484e+00 1.996306777000427246e+00 4.744510054588317871e-01
3.912000000000000000e+03 5.821812820434570312e+01 8.922824859619140625e-01 -5.291854143142700195e-01 6.319869041442871094e+00 1.737205028533935547e+00 3.332325220108032227e-01
3.913000000000000000e+03 5.531647491455078125e+01 2.822510480880737305e+00 -5.632206201553344727e-01 5.815411090850830078e+00 1.575657129287719727e+00 4.037368297576904297e-01
3.914000000000000000e+03 5.227298736572265625e+01 1.983381748199462891e+00 -4.990229308605194092e-01 5.136260032653808594e+00 1.391171097755432129e+00 4.522009193897247314e-01
3.915000000000000000e+03 5.670547866821289062e+01 1.259707832336425781e+01 -7.336170673370361328e-01 6.629708290100097656e+00 1.768827319145202637e+00 4.315828979015350342e-01
3.916000000000000000e+03 5.075258636474609375e+01 8.768728971481323242e-01 -4.472651183605194092e-01 4.794166564941406250e+00 1.304070353507995605e+00 4.269382059574127197e-01
3.917000000000000000e+03 6.067007446289062500e+01 -5.382217407226562500e+00 -4.179596900939941406e-01 6.632686138153076172e+00 1.864418029785156250e+00 3.718883395195007324e-01
3.918000000000000000e+03 6.110210800170898438e+01 -3.612587213516235352e+00 -4.317270815372467041e-01 6.698775768280029297e+00 1.880114555358886719e+00 3.436132669448852539e-01
3.919000000000000000e+03 5.064298629760742188e+01 5.082769870758056641e+00 -4.879799783229827881e-01 4.809521675109863281e+00 1.296462535858154297e+00 5.651070475578308105e-01
3.920000000000000000e+03 5.071040344238281250e+01 3.516617298126220703e+00 -4.768389761447906494e-01 4.794432640075683594e+00 1.295278072357177734e+00 5.074131488800048828e-01
3.921000000000000000e+03 5.777478790283203125e+01 9.583563804626464844e+00 -7.049755454063415527e-01 6.609897613525390625e+00 1.771476626396179199e+00 3.308450877666473389e-01
3.922000000000000000e+03 5.850934982299804688e+01 5.790455818176269531e+00 -6.220088601112365723e-01 6.526878833770751953e+00 1.771460890769958496e+00 2.927328944206237793e-01
3.923000000000000000e+03 5.665304946899414062e+01 8.121466636657714844e+00 -6.619862318038940430e-01 6.286355495452880859e+00 1.687310814857482910e+00 3.948288261890411377e-01
3.924000000000000000e+03 4.848815917968750000e+01 -8.751284599304199219e+00 -3.824335038661956787e-01 4.447639942169189453e+00 1.219561815261840820e+00 1.341527551412582397e-01
3.925000000000000000e+03 5.146059799194335938e+01 -6.345524311065673828e+00 -4.355812072753906250e-01 5.017982482910156250e+00 1.374720335006713867e+00 2.916756272315979004e-01
3.926000000000000000e+03 5.092524337768554688e+01 -5.272336959838867188e+00 -4.209900200366973877e-01 4.901787757873535156e+00 1.344239234924316406e+00 3.042213916778564453e-01
3.927000000000000000e+03 5.750855255126953125e+01 -9.322370529174804688e+00 -4.416427910327911377e-01 6.154272079467773438e+00 1.713788866996765137e+00 4.117659330368041992e-01
3.928000000000000000e+03 4.831649398803710938e+01 -4.960414409637451172e+00 -3.594440221786499023e-01 4.322078704833984375e+00 1.188790440559387207e+00 2.366970330476760864e-01
3.929000000000000000e+03 5.536215591430664062e+01 4.138897895812988281e+00 -5.790506601333618164e-01 5.861035823822021484e+00 1.584595561027526855e+00 4.126277565956115723e-01
3.930000000000000000e+03 5.238144683837890625e+01 4.921431541442871094e+00 -5.395347476005554199e-01 5.228324890136718750e+00 1.406637072563171387e+00 5.182133316993713379e-01
3.931000000000000000e+03 5.395501708984375000e+01 4.495441436767578125e+00 -5.719959139823913574e-01 5.581979274749755859e+00 1.502995014190673828e+00 4.649932086467742920e-01
3.932000000000000000e+03 4.709451675415039062e+01 -5.386747837066650391e+00 -3.248960375785827637e-01 4.046665668487548828e+00 1.116530895233154297e+00 2.003823071718215942e-01
3.933000000000000000e+03 4.947340011596679688e+01 -4.597774982452392578e+00 -3.935752213001251221e-01 4.576849937438964844e+00 1.254982352256774902e+00 2.846226096153259277e-01
3.934000000000000000e+03 5.059194564819335938e+01 -2.653591930866241455e-01 -4.464299976825714111e-01 4.778457164764404297e+00 1.299608111381530762e+00 4.031416177749633789e-01
3.935000000000000000e+03 5.218565750122070312e+01 6.592687964439392090e-01 -4.809840619564056396e-01 5.117920398712158203e+00 1.391080975532531738e+00 4.138091802597045898e-01
3.936000000000000000e+03 5.700709152221679688e+01 6.759481906890869141e+00 -6.414104104042053223e-01 6.275203704833984375e+00 1.690137982368469238e+00 3.696005940437316895e-01
3.937000000000000000e+03 5.843012619018554688e+01 -8.417329788208007812e+00 -4.326311647891998291e-01 6.293480873107910156e+00 1.758254885673522949e+00 4.123504757881164551e-01
3.938000000000000000e+03 5.258181762695312500e+01 -5.607219219207763672e+00 -4.536196887493133545e-01 5.240722179412841797e+00 1.436130762100219727e+00 3.159733712673187256e-01
3.939000000000000000e+03 5.897127532958984375e+01 -3.078800439834594727e+00 -4.768086373805999756e-01 6.370118618011474609e+00 1.767992973327636719e+00 3.522970974445343018e-01
3.940000000000000000e+03 5.813929367065429688e+01 -6.450107097625732422e-01 -5.074583292007446289e-01 6.273412704467773438e+00 1.729786276817321777e+00 3.399390578269958496e-01
3.941000000000000000e+03 5.134104537963867188e+01 -3.197782516479492188e+00 -4.400543272495269775e-01 4.938358306884765625e+00 1.349491119384765625e+00 3.355791568756103516e-01
3.942000000000000000e+03 5.785106658935546875e+01 4.310416221618652344e+00 -5.874313712120056152e-01 6.340781211853027344e+00 1.726004958152770996e+00 3.227569460868835449e-01
3.943000000000000000e+03 5.657735443115234375e+01 -2.144554257392883301e-01 -5.218088626861572266e-01 5.994805812835693359e+00 1.641899108886718750e+00 3.679578900337219238e-01
3.944000000000000000e+03 5.835720062255859375e+01 2.322838544845581055e+00 -5.548443198204040527e-01 6.377316951751708984e+00 1.746741771697998047e+00 3.156424462795257568e-01
3.945000000000000000e+03 4.910532379150390625e+01 -7.243684768676757812e+00 -3.789787888526916504e-01 4.562459468841552734e+00 1.255044221878051758e+00 1.940050423145294189e-01
3.946000000000000000e+03 4.984302902221679688e+01 -5.701195240020751953e+00 -4.020375609397888184e-01 4.681841850280761719e+00 1.283941388130187988e+00 2.594513297080993652e-01
3.947000000000000000e+03 5.750613403320312500e+01 -7.332933902740478516e+00 -4.455187618732452393e-01 6.126780986785888672e+00 1.704378604888916016e+00 3.933286368846893311e-01
3.948000000000000000e+03 5.643829345703125000e+01 -8.243633270263671875e+00 -4.514165520668029785e-01 5.991199016571044922e+00 1.661934733390808105e+00 3.839333057403564453e-01
3.949000000000000000e+03 6.024309539794921875e+01 -6.973182201385498047e+00 -4.198301732540130615e-01 6.556243419647216797e+00 1.840923905372619629e+00 4.029601514339447021e-01
3.950000000000000000e+03 5.800873947143554688e+01 -4.239529132843017578e+00 -4.711557030677795410e-01 6.183681011199951172e+00 1.713757634162902832e+00 3.697764873504638672e-01
3.951000000000000000e+03 5.790520095825195312e+01 8.277050018310546875e+00 -6.647089719772338867e-01 6.548849582672119141e+00 1.765242218971252441e+00 3.176988363265991211e-01
3.952000000000000000e+03 5.746535873413085938e+01 5.527491569519042969e+00 -6.127159595489501953e-01 6.303434371948242188e+00 1.707215428352355957e+00 3.339425921440124512e-01
3.953000000000000000e+03 5.765642547607421875e+01 -2.137617826461791992e+00 -4.904890954494476318e-01 6.164142131805419922e+00 1.702095866203308105e+00 3.573761284351348877e-01
3.954000000000000000e+03 5.511110687255859375e+01 1.063888221979141235e-01 -5.232713222503662109e-01 5.711643695831298828e+00 1.556511640548706055e+00 3.846040368080139160e-01
3.955000000000000000e+03 5.382848739624023438e+01 3.117145061492919922e+00 -5.462750792503356934e-01 5.503334999084472656e+00 1.487118005752563477e+00 4.498381912708282471e-01
3.956000000000000000e+03 5.230219650268554688e+01 3.398565530776977539e+00 -5.230267047882080078e-01 5.170819759368896484e+00 1.394337892532348633e+00 4.834135174751281738e-01
3.957000000000000000e+03 5.200801086425781250e+01 -5.538933277130126953e-01 -4.643144309520721436e-01 5.054238319396972656e+00 1.376977086067199707e+00 3.940526843070983887e-01
3.958000000000000000e+03 5.993228912353515625e+01 -4.251834392547607422e+00 -4.380049705505371094e-01 6.517598152160644531e+00 1.823877930641174316e+00 3.623053133487701416e-01
3.959000000000000000e+03 5.337525558471679688e+01 -6.747807025909423828e+00 -4.553302526473999023e-01 5.396326541900634766e+00 1.482298970222473145e+00 3.269826471805572510e-01
3.960000000000000000e+03 5.788731384277343750e+01 -5.458933830261230469e+00 -4.538891613483428955e-01 6.161515712738037109e+00 1.712288022041320801e+00 3.824879527091979980e-01
3.961000000000000000e+03 4.751256561279296875e+01 -6.623484611511230469e+00 -3.353162705898284912e-01 4.170911788940429688e+00 1.150678634643554688e+00 1.626454144716262817e-01
3.962000000000000000e+03 5.893863296508789062e+01 -4.984292507171630859e+00 -4.464257359504699707e-01 6.378351211547851562e+00 1.779577612876892090e+00 3.820629417896270752e-01
3.963000000000000000e+03 5.187632751464843750e+01 -4.760759830474853516e+00 -4.353219568729400635e-01 5.081371307373046875e+00 1.393814921379089355e+00 3.283655643463134766e-01
3.964000000000000000e+03 4.922622299194335938e+01 -3.488748311996459961e+00 -3.889184296131134033e-01 4.499030590057373047e+00 1.233033657073974609e+00 3.010552823543548584e-01
3.965000000000000000e+03 5.441400527954101562e+01 -3.425218343734741211e+00 -4.758810997009277344e-01 5.580066680908203125e+00 1.531255722045898438e+00 3.637709617614746094e-01
3.966000000000000000e+03 5.375410461425781250e+01 1.736272811889648438e+00 -5.278412699699401855e-01 5.462143421173095703e+00 1.480290532112121582e+00 4.276028871536254883e-01
3.967000000000000000e+03 5.683965301513671875e+01 2.607743263244628906e+00 -5.626204609870910645e-01 6.116830825805664062e+00 1.666263103485107422e+00 3.570806682109832764e-01
3.968000000000000000e+03 5.568529891967773438e+01 -4.693550109863281250e+00 -4.717165231704711914e-01 5.821422100067138672e+00 1.604911684989929199e+00 3.638540208339691162e-01
3.969000000000000000e+03 5.033411026000976562e+01 -3.295771598815917969e+00 -4.169083833694458008e-01 4.737159252166748047e+00 1.296075224876403809e+00 3.350125849246978760e-01
3.970000000000000000e+03 5.171603393554687500e+01 -1.600845813751220703e+00 -4.601316452026367188e-01 5.020418167114257812e+00 1.368085980415344238e+00 3.804433345794677734e-01
3.971000000000000000e+03 5.224936294555664062e+01 -3.006226301193237305e+00 -4.557241201400756836e-01 5.167634963989257812e+00 1.413573265075683594e+00 3.537615239620208740e-01
3.972000000000000000e+03 5.365473175048828125e+01 3.699587583541870117e-01 -5.032194256782531738e-01 5.424444675445556641e+00 1.476367473602294922e+00 4.129181206226348877e-01
3.973000000000000000e+03 5.523921966552734375e+01 1.463229894638061523e+00 -5.355910658836364746e-01 5.761740684509277344e+00 1.567844986915588379e+00 3.993904590606689453e-01
3.974000000000000000e+03 5.547891235351562500e+01 -7.016580581665039062e+00 -4.599147737026214600e-01 5.792717933654785156e+00 1.599840879440307617e+00 3.667269051074981689e-01
3.975000000000000000e+03 5.549261474609375000e+01 -2.465219259262084961e+00 -4.876428842544555664e-01 5.756844520568847656e+00 1.580760478973388672e+00 3.723421096801757812e-01
3.976000000000000000e+03 5.673773956298828125e+01 1.178546309471130371e+00 -5.381963253021240234e-01 6.060075759887695312e+00 1.656563878059387207e+00 3.546172976493835449e-01
3.977000000000000000e+03 5.305944061279296875e+01 -2.294398784637451172e+00 -4.688986837863922119e-01 5.301211833953857422e+00 1.449693918228149414e+00 3.663475513458251953e-01
3.978000000000000000e+03 5.496678543090820312e+01 -1.249688386917114258e+00 -5.010270476341247559e-01 5.664150238037109375e+00 1.548936963081359863e+00 3.792289197444915771e-01
3.979000000000000000e+03 5.626488876342773438e+01 -1.486983299255371094e+00 -5.026661157608032227e-01 5.944664001464843750e+00 1.632599353790283203e+00 3.674724996089935303e-01
3.980000000000000000e+03 5.454724884033203125e+01 -5.744520187377929688e+00 -4.692419767379760742e-01 5.632067680358886719e+00 1.548847675323486328e+00 3.552764952182769775e-01
3.981000000000000000e+03 5.667850875854492188e+01 -6.030996322631835938e+00 -4.633192121982574463e-01 6.003462791442871094e+00 1.662043094635009766e+00 3.747920393943786621e-01
3.982000000000000000e+03 5.244840621948242188e+01 -3.961694955825805664e+00 -4.533996582031250000e-01 5.201257228851318359e+00 1.424357175827026367e+00 3.393599987030029297e-01
3.983000000000000000e+03 5.674687194824218750e+01 -3.495514154434204102e+00 -4.831051230430603027e-01 6.000414848327636719e+00 1.655192852020263672e+00 3.660319149494171143e-01
3.984000000000000000e+03 5.854984283447265625e+01 -6.625329494476318359e+00 -4.484912455081939697e-01 6.291513919830322266e+00 1.752906918525695801e+00 3.990427553653717041e-01
3.985000000000000000e+03 2.409297370910644531e+01 -3.650329208374023438e+01 1.678009182214736938e-01 2.857541322708129883e+00 9.076026678085327148e-01 -3.142626285552978516e-01
3.986000000000000000e+03 5.932623672485351562e+01 -7.647408008575439453e+00 -4.267563223838806152e-01 6.401551723480224609e+00 1.792438507080078125e+00 4.166904091835021973e-01
3.987000000000000000e+03 5.778249740600585938e+01 1.088366603851318359e+01 -7.174298167228698730e-01 6.725189208984375000e+00 1.802327752113342285e+00 3.234008252620697021e-01
3.988000000000000000e+03 1.070083808898925781e+01 3.721178054809570312e+01 -1.444163769483566284e-01 5.285059928894042969e+00 1.542193055152893066e+00 -9.772983193397521973e-02
3.989000000000000000e+03 2.231216812133789062e+01 2.835967063903808594e+01 -4.704532623291015625e-01 2.371077060699462891e+00 5.701871514320373535e-01 1.052788197994232178e-01
3.990000000000000000e+03 5.098213958740234375e+01 -3.475612258911132812e+01 1.369796991348266602e+00 6.832466602325439453e+00 2.460679054260253906e+00 2.351398169994354248e-01
3.991000000000000000e+03 3.735286712646484375e+01 4.098223495483398438e+01 -4.583583772182464600e-01 -2.621981203556060791e-01 -2.161669582128524780e-01 -3.583518788218498230e-02
3.992000000000000000e+03 6.799354553222656250e+01 3.822735595703125000e+01 5.386188030242919922e-01 8.790010452270507812e+00 2.798588752746582031e+00 -1.557457000017166138e-01
3.993000000000000000e+03 6.764472961425781250e+01 -3.222406768798828125e+01 2.609829604625701904e-01 7.021918296813964844e+00 2.184870243072509766e+00 4.918232262134552002e-01
3.994000000000000000e+03 6.619141387939453125e+01 -3.457816314697265625e+01 3.805367648601531982e-01 6.949476718902587891e+00 2.199003934860229492e+00 4.442425966262817383e-01
3.995000000000000000e+03 1.777952957153320312e+01 2.835521888732910156e+01 -5.418279170989990234e-01 3.740423202514648438e+00 9.595786333084106445e-01 -3.471167013049125671e-02
3.996000000000000000e+03 1.489440155029296875e+01 2.820168304443359375e+01 -5.463237166404724121e-01 4.491783618927001953e+00 1.183637976646423340e+00 -1.312670558691024780e-01
3.997000000000000000e+03 1.475490951538085938e+01 3.403110122680664062e+01 -3.348615467548370361e-01 4.278178691864013672e+00 1.182995200157165527e+00 -7.377324253320693970e-02
3.998000000000000000e+03 4.965616989135742188e+01 -1.230701446533203125e+01 -4.206872582435607910e-01 4.881222248077392578e+00 1.338160514831542969e+00 1.233503744006156921e-01
3.999000000000000000e+03 4.878281021118164062e+01 -1.344008064270019531e+01 -3.983516991138458252e-01 4.795411109924316406e+00 1.319117903709411621e+00 7.176098972558975220e-02
4.000000000000000000e+03 3.239647674560546875e+01 4.090168762207031250e+01 -3.093735277652740479e-01 3.476818501949310303e-01 1.149249356240034103e-02 -6.868690997362136841e-02
4.001000000000000000e+03 1.857454299926757812e+01 -3.367842102050781250e+01 -9.879288822412490845e-02 3.695664644241333008e+00 1.079061508178710938e+00 -1.996294409036636353e-01
4.002000000000000000e+03 2.293212699890136719e+01 3.804486083984375000e+01 -2.223304063081741333e-01 2.266009807586669922e+00 6.131038069725036621e-01 1.412739977240562439e-02
4.003000000000000000e+03 1.628852844238281250e+01 -3.582630157470703125e+01 -1.027978584170341492e-01 3.862826108932495117e+00 1.128008484840393066e+00 -8.750742673873901367e-02
4.004000000000000000e+03 6.270856857299804688e+01 -2.718831634521484375e+01 1.876789778470993042e-01 6.872956752777099609e+00 2.118190765380859375e+00 7.056646347045898438e-01
4.005000000000000000e+03 4.350628852844238281e+00 3.676480102539062500e+01 -1.271107196807861328e-01 6.936781406402587891e+00 2.042901277542114258e+00 -9.515217691659927368e-02
4.006000000000000000e+03 8.456302642822265625e+00 3.630514144897460938e+01 -1.269948631525039673e-01 5.741787910461425781e+00 1.684437870979309082e+00 -1.186640337109565735e-01
4.007000000000000000e+03 5.785322570800781250e+01 -2.440243721008300781e+01 5.185154732316732407e-03 6.652911186218261719e+00 1.997428894042968750e+00 6.756744384765625000e-01
4.008000000000000000e+03 5.717425918579101562e+01 4.098188018798828125e+01 -2.263534784317016602e+00 1.414384269714355469e+01 3.564092397689819336e+00 1.018755435943603516e+00
4.009000000000000000e+03 6.068087387084960938e+01 -2.868104934692382812e+01 3.018035292625427246e-01 6.832991123199462891e+00 2.140438318252563477e+00 6.762840747833251953e-01
4.010000000000000000e+03 1.680158042907714844e+01 -3.165129089355468750e+01 -1.576771736145019531e-01 3.978846549987792969e+00 1.146350741386413574e+00 -1.609215289354324341e-01
4.011000000000000000e+03 1.336289978027343750e+01 -3.068452262878417969e+01 -2.046411186456680298e-01 4.291795730590820312e+00 1.226146459579467773e+00 -1.030086167156696320e-02
4.012000000000000000e+03 1.217508697509765625e+01 3.197693061828613281e+01 -3.562750816345214844e-01 4.883760452270507812e+00 1.358245611190795898e+00 -1.915845423936843872e-01
4.013000000000000000e+03 1.412709712982177734e+01 3.143174743652343750e+01 -3.691550493240356445e-01 4.492351055145263672e+00 1.236958742141723633e+00 -1.097792088985443115e-01
4.014000000000000000e+03 5.280430221557617188e+01 -2.968374824523925781e+01 5.250138044357299805e-01 6.644402980804443359e+00 2.150825023651123047e+00 5.625751018524169922e-01
4.015000000000000000e+03 5.507171630859375000e+01 -2.893967247009277344e+01 3.993070423603057861e-01 6.576210498809814453e+00 2.092655181884765625e+00 6.168940663337707520e-01
4.016000000000000000e+03 6.412938690185546875e+01 -2.911039924621582031e+01 2.499624192714691162e-01 6.951923847198486328e+00 2.160565853118896484e+00 6.348381042480468750e-01
4.017000000000000000e+03 5.266137695312500000e+01 -4.090613555908203125e+01 1.084536433219909668e+00 7.263494491577148438e+00 2.504409313201904297e+00 -7.438527047634124756e-02
4.018000000000000000e+03 5.003936386108398438e+01 -3.720737457275390625e+01 1.448624253273010254e+00 7.348386764526367188e+00 2.639103174209594727e+00 -3.938048705458641052e-02
4.019000000000000000e+03 1.925537681579589844e+01 -3.786699295043945312e+01 -4.068391025066375732e-02 3.528962135314941406e+00 1.046483516693115234e+00 -1.183547526597976685e-01
4.020000000000000000e+03 6.134977340698242188e+01 -3.539883804321289062e+01 6.663125753402709961e-01 6.791334152221679688e+00 2.237293958663940430e+00 4.409345686435699463e-01
4.021000000000000000e+03 5.761645889282226562e+01 -3.720777511596679688e+01 9.092453718185424805e-01 6.834372997283935547e+00 2.323085546493530273e+00 2.705714702606201172e-01
4.022000000000000000e+03 5.321355438232421875e+01 -3.774864959716796875e+01 1.183056712150573730e+00 6.879876136779785156e+00 2.418879985809326172e+00 3.544492274522781372e-02
4.023000000000000000e+03 1.863795852661132812e+01 3.753037261962890625e+01 -2.385085523128509521e-01 3.340890645980834961e+00 9.307146072387695312e-01 -1.662997342646121979e-02
4.024000000000000000e+03 1.441223812103271484e+01 3.732477569580078125e+01 -1.891999393701553345e-01 4.325414180755615234e+00 1.240864276885986328e+00 -5.207302048802375793e-02
4.025000000000000000e+03 8.655559539794921875e+00 4.065044021606445312e+01 -7.484500110149383545e-02 5.766321659088134766e+00 1.707442998886108398e+00 -3.591405972838401794e-02
4.026000000000000000e+03 1.293243503570556641e+01 -3.735063934326171875e+01 -1.092144772410392761e-01 4.083601951599121094e+00 1.192316293716430664e+00 -1.911287108669057488e-04
4.027000000000000000e+03 1.756788063049316406e+01 3.234220504760742188e+01 -3.488967120647430420e-01 3.676265239715576172e+00 9.982105493545532227e-01 -4.731103777885437012e-02
4.028000000000000000e+03 5.842987060546875000e+01 -3.016671371459960938e+01 4.772799313068389893e-01 6.681431770324707031e+00 2.147613525390625000e+00 6.454397439956665039e-01
4.029000000000000000e+03 6.212974166870117188e+01 -3.089927482604980469e+01 4.071821868419647217e-01 6.825614929199218750e+00 2.169839143753051758e+00 6.298702359199523926e-01
4.030000000000000000e+03 5.333695602416992188e+01 -3.207470321655273438e+01 8.289748430252075195e-01 6.637468338012695312e+00 2.239933013916015625e+00 5.088101029396057129e-01
4.031000000000000000e+03 5.726942443847656250e+01 -2.783383560180664062e+01 2.850407958030700684e-01 6.690393447875976562e+00 2.092630386352539062e+00 6.820268034934997559e-01
4.032000000000000000e+03 1.206324100494384766e+01 -3.432221603393554688e+01 -1.389749944210052490e-01 4.227055549621582031e+00 1.226424098014831543e+00 1.631960086524486542e-02
4.033000000000000000e+03 6.484158325195312500e+01 3.761147308349609375e+01 8.705202937126159668e-01 9.612408638000488281e+00 3.144878625869750977e+00 2.590874731540679932e-01
4.034000000000000000e+03 5.971448898315429688e+01 -3.270511627197265625e+01 6.032915115356445312e-01 6.800217628479003906e+00 2.221052646636962891e+00 5.466311573982238770e-01
4.035000000000000000e+03 5.592648315429687500e+01 -3.136070632934570312e+01 6.727213859558105469e-01 6.707516670227050781e+00 2.214071512222290039e+00 5.977934002876281738e-01
4.036000000000000000e+03 2.037394195795059204e-01 1.698120594024658203e+00 -6.816758215427398682e-02 -4.133202135562896729e-01 -1.444463431835174561e-01 5.311552435159683228e-02
4.037000000000000000e+03 7.531356215476989746e-01 -2.984661579132080078e+00 2.697031572461128235e-02 -4.842719435691833496e-01 -1.371904909610748291e-01 -1.272069066762924194e-01
4.038000000000000000e+03 5.228364467620849609e-01 -1.662343740463256836e+00 -1.058112457394599915e-02 -2.768326699733734131e-01 -8.622413873672485352e-02 -1.422339677810668945e-01
4.039000000000000000e+03 2.522328615188598633e+00 -1.660898208618164062e+00 -1.370308082550764084e-02 8.605599403381347656e-03 -1.529244589619338512e-03 -3.338963091373443604e-01
4.040000000000000000e+03 2.895136594772338867e+00 -1.640194416046142578e+00 -3.409933298826217651e-02 1.887646876275539398e-02 -4.566858988255262375e-03 -2.912728786468505859e-01
4.041000000000000000e+03 4.505432605743408203e+00 -1.900919795036315918e+00 4.508772194385528564e-01 2.613339424133300781e-01 2.136633545160293579e-01 5.903951078653335571e-02
4.042000000000000000e+03 4.918725490570068359e+00 -1.629197716712951660e+00 4.502946734428405762e-01 2.295858412981033325e-01 2.039641588926315308e-01 1.147612705826759338e-01
4.043000000000000000e+03 5.121544837951660156e+00 -1.650442481040954590e+00 5.133137106895446777e-01 2.715340852737426758e-01 2.354543358087539673e-01 1.807901710271835327e-01
4.044000000000000000e+03 5.727047920227050781e+00 -1.597580194473266602e+00 8.084921836853027344e-01 3.655420541763305664e-01 3.522102832794189453e-01 4.141623973846435547e-01
4.045000000000000000e+03 5.909885883331298828e+00 -1.577999114990234375e+00 9.047328829765319824e-01 4.079599678516387939e-01 3.938078582286834717e-01 5.433968901634216309e-01
4.046000000000000000e+03 6.081363201141357422e+00 -1.733764171600341797e+00 1.152391672134399414e+00 5.583352446556091309e-01 5.132181048393249512e-01 7.648763060569763184e-01
4.047000000000000000e+03 6.223972320556640625e+00 -1.787188887596130371e+00 1.379458308219909668e+00 6.930713057518005371e-01 6.217588782310485840e-01 9.369557499885559082e-01
4.048000000000000000e+03 6.471724033355712891e+00 -1.615503191947937012e+00 1.401583194732666016e+00 6.752148270606994629e-01 6.230394244194030762e-01 9.896137714385986328e-01
4.049000000000000000e+03 6.394496440887451172e+00 -1.851240754127502441e+00 1.581210732460021973e+00 8.572602868080139160e-01 7.315412759780883789e-01 1.124971151351928711e+00
4.050000000000000000e+03 6.805552959442138672e+00 -1.916787266731262207e+00 2.093536615371704102e+00 1.224842667579650879e+00 9.955137372016906738e-01 1.698739171028137207e+00
4.051000000000000000e+03 6.870076656341552734e+00 -1.640748977661132812e+00 1.961068034172058105e+00 9.467114806175231934e-01 8.723338842391967773e-01 1.450822591781616211e+00
4.052000000000000000e+03 7.682167530059814453e+00 -1.671436548233032227e+00 3.083654403686523438e+00 2.123480558395385742e+00 1.562140464782714844e+00 2.859833240509033203e+00
4.053000000000000000e+03 7.850326061248779297e+00 -2.026514053344726562e+00 3.235151767730712891e+00 3.317572593688964844e+00 1.965817332267761230e+00 3.663834095001220703e+00
4.054000000000000000e+03 8.282911300659179688e+00 -2.060076475143432617e+00 3.406148672103881836e+00 4.977111339569091797e+00 2.514977931976318359e+00 4.661221504211425781e+00
4.055000000000000000e+03 8.507784843444824219e+00 -2.070048093795776367e+00 3.391630887985229492e+00 6.119502544403076172e+00 2.853339910507202148e+00 5.171012878417968750e+00
4.056000000000000000e+03 9.744194030761718750e+00 -1.844280004501342773e+00 1.912567734718322754e+00 1.590233230590820312e+01 5.344470024108886719e+00 6.424393653869628906e+00
4.057000000000000000e+03 1.012739944458007812e+01 -1.909506916999816895e+00 1.015853285789489746e+00 1.863012695312500000e+01 5.893794059753417969e+00 4.732041358947753906e+00
4.058000000000000000e+03 1.071648979187011719e+01 -1.479541540145874023e+00 2.073204755783081055e+00 2.293277740478515625e+01 7.501794815063476562e+00 8.837772011756896973e-01
4.059000000000000000e+03 1.170214176177978516e+01 -1.243207454681396484e+00 4.438981533050537109e+00 2.041273498535156250e+01 7.455514907836914062e+00 -2.129640102386474609e+00
4.060000000000000000e+03 1.186269283294677734e+01 -1.052720069885253906e+00 5.152020931243896484e+00 1.997023582458496094e+01 7.536676883697509766e+00 -2.179866790771484375e+00
4.061000000000000000e+03 1.171412181854248047e+01 -1.391254365444183350e-01 9.444852828979492188e+00 2.024483489990234375e+01 8.906906127929687500e+00 4.172200858592987061e-01
4.062000000000000000e+03 1.212396430969238281e+01 -2.298914939165115356e-01 7.783710956573486328e+00 2.030443954467773438e+01 8.426445007324218750e+00 9.461279958486557007e-02
4.063000000000000000e+03 1.163831901550292969e+01 1.184924244880676270e+00 6.668094158172607422e+00 2.287700080871582031e+01 8.863528251647949219e+00 3.745873451232910156e+00
4.064000000000000000e+03 1.116714096069335938e+01 1.965551137924194336e+00 4.066245079040527344e+00 2.184563255310058594e+01 7.773563385009765625e+00 9.049839973449707031e-01
4.065000000000000000e+03 9.893354415893554688e+00 1.609940052032470703e+00 2.778250932693481445e+00 1.741318702697753906e+01 6.057431697845458984e+00 -4.920833110809326172e+00
4.066000000000000000e+03 9.081860542297363281e+00 1.660146832466125488e+00 4.014503002166748047e+00 7.716760635375976562e+00 3.519379138946533203e+00 -4.958974838256835938e+00
4.067000000000000000e+03 8.824073791503906250e+00 1.924352765083312988e+00 3.967333555221557617e+00 6.317306518554687500e+00 3.085391998291015625e+00 -4.448088645935058594e+00
4.068000000000000000e+03 7.821864128112792969e+00 2.132591485977172852e+00 3.338523149490356445e+00 2.460635662078857422e+00 1.739747643470764160e+00 -2.278480291366577148e+00
4.069000000000000000e+03 7.726935863494873047e+00 1.651031613349914551e+00 2.419055223464965820e+00 1.373553395271301270e+00 1.137782573699951172e+00 -1.477427363395690918e+00
4.070000000000000000e+03 7.858653545379638672e+00 1.838784098625183105e+00 2.811323404312133789e+00 1.848379015922546387e+00 1.397910714149475098e+00 -1.967191696166992188e+00
4.071000000000000000e+03 6.882508754730224609e+00 2.021518945693969727e+00 1.895223498344421387e+00 8.804797530174255371e-01 8.327109813690185547e-01 -7.577331066131591797e-01
4.072000000000000000e+03 5.880366325378417969e+00 1.948100090026855469e+00 8.086446523666381836e-01 2.938413619995117188e-01 3.307458162307739258e-01 2.549199201166629791e-02
4.073000000000000000e+03 5.888590335845947266e+00 1.654159903526306152e+00 2.747724354267120361e-01 1.897262781858444214e-01 1.393496245145797729e-01 2.721554040908813477e-01
4.074000000000000000e+03 5.102091789245605469e+00 1.639127135276794434e+00 -1.191900819540023804e-01 6.825809180736541748e-02 -1.527959853410720825e-02 4.999470710754394531e-01
4.075000000000000000e+03 4.298565864562988281e+00 1.979701876640319824e+00 1.374548822641372681e-01 5.224685370922088623e-02 5.691051855683326721e-02 5.459986329078674316e-01
4.076000000000000000e+03 4.297543525695800781e+00 1.663965582847595215e+00 -2.053688615560531616e-01 3.132144734263420105e-02 -5.221422389149665833e-02 6.179891824722290039e-01
4.077000000000000000e+03 2.978970527648925781e+00 1.990521311759948730e+00 -6.487674266099929810e-02 -8.895488828420639038e-02 -4.614948853850364685e-02 6.243497133255004883e-01
4.078000000000000000e+03 2.264897823333740234e+00 1.643538117408752441e+00 -2.112373858690261841e-01 -1.177803277969360352e-01 -9.870531409978866577e-02 6.227018833160400391e-01
4.079000000000000000e+03 1.316201090812683105e+00 1.619785428047180176e+00 -1.186675801873207092e-01 -2.722506821155548096e-01 -1.172754764556884766e-01 4.379167258739471436e-01
4.080000000000000000e+03 1.117807984352111816e+00 1.622221946716308594e+00 -9.569709748029708862e-02 -2.795483469963073730e-01 -1.125736385583877563e-01 4.006190299987792969e-01
4.081000000000000000e+03 7.493511438369750977e-01 1.637399196624755859e+00 -7.686126977205276489e-02 -3.661880791187286377e-01 -1.329147964715957642e-01 3.270856440067291260e-01
4.082000000000000000e+03 9.236884713172912598e-01 1.612527012825012207e+00 -1.093875765800476074e-01 -2.968011796474456787e-01 -1.218566298484802246e-01 3.461886644363403320e-01
4.083000000000000000e+03 4.246039390563964844e-01 1.939925909042358398e+00 -1.234509050846099854e-01 -5.911512374877929688e-01 -2.143806517124176025e-01 1.826888769865036011e-01
4.084000000000000000e+03 3.876401185989379883e-01 3.807641506195068359e+00 6.132291629910469055e-02 -1.245597243309020996e+00 -3.552823066711425781e-01 1.387483179569244385e-01
4.085000000000000000e+03 4.598273336887359619e-01 2.337922811508178711e+00 5.638194456696510315e-02 -5.679364800453186035e-01 -1.534663587808609009e-01 2.846543490886688232e-01
4.086000000000000000e+03 7.519647979736328125e+01 4.019226074218750000e+01 1.012929454445838928e-01 6.494716167449951172e+00 1.978802680969238281e+00 -2.285716533660888672e-01
4.087000000000000000e+03 4.380612564086914062e+01 3.817288208007812500e+01 -1.123212933540344238e+00 -3.739118278026580811e-01 -4.491374194622039795e-01 -3.667437434196472168e-01
4.088000000000000000e+03 9.759410858154296875e+00 2.073906660079956055e+00 3.596774101257324219e+00 1.431437778472900391e+01 5.373345851898193359e+00 -4.533974647521972656e+00
4.089000000000000000e+03 1.123484706878662109e+01 -2.129295825958251953e+00 6.790119409561157227e-01 1.936051750183105469e+01 6.011858940124511719e+00 -4.655008912086486816e-01
4.090000000000000000e+03 2.926321268081665039e+00 -2.351412296295166016e+00 2.491827458143234253e-01 1.352605372667312622e-01 1.153329908847808838e-01 -1.918646246194839478e-01
4.091000000000000000e+03 7.672077417373657227e-01 2.343825340270996094e+00 1.134798023849725723e-02 -5.320827960968017578e-01 -1.562204360961914062e-01 3.198745846748352051e-01
4.092000000000000000e+03 1.057172966003417969e+01 -1.962144613265991211e+00 7.008263468742370605e-01 2.009055519104003906e+01 6.237414360046386719e+00 2.353968143463134766e+00
4.093000000000000000e+03 1.193028569221496582e+00 -2.516173839569091797e+00 7.477068156003952026e-02 -2.113603204488754272e-01 -4.097689315676689148e-02 -2.504321634769439697e-01
4.094000000000000000e+03 1.006464576721191406e+01 2.344412803649902344e+00 3.569499254226684570e+00 1.558836174011230469e+01 5.747358322143554688e+00 -3.684656143188476562e+00
4.095000000000000000e+03 8.874210357666015625e+00 2.163335561752319336e+00 4.055665016174316406e+00 7.161092758178710938e+00 3.365027427673339844e+00 -4.623283386230468750e+00
4.096000000000000000e+03 4.089303016662597656e+00 2.000780582427978516e+00 1.333938241004943848e-01 4.927364736795425415e-02 5.480023846030235291e-02 5.865362286567687988e-01
4.097000000000000000e+03 4.296629428863525391e+00 2.264905214309692383e+00 4.171012043952941895e-01 1.373188942670822144e-01 1.663260310888290405e-01 4.677488505840301514e-01
4.098000000000000000e+03 4.489711761474609375e+00 2.281714916229248047e+00 5.067462921142578125e-01 1.506286561489105225e-01 1.972124874591827393e-01 3.880535960197448730e-01
4.099000000000000000e+03 2.647364854812622070e+00 1.896413564682006836e+00 -1.310696750879287720e-01 -1.132119148969650269e-01 -7.328447699546813965e-02 6.396959424018859863e-01
4.100000000000000000e+03 1.430396556854248047e+00 2.121186494827270508e+00 -3.870881348848342896e-02 -3.223202526569366455e-01 -1.083087176084518433e-01 5.060728788375854492e-01
4.101000000000000000e+03 1.565330862998962402e+00 1.831244111061096191e+00 -1.173130646347999573e-01 -2.460085749626159668e-01 -1.089964956045150757e-01 5.266095399856567383e-01
4.102000000000000000e+03 5.341887950897216797e+00 1.837826609611511230e+00 3.174156844615936279e-01 1.240520551800727844e-01 1.324403136968612671e-01 3.733949065208435059e-01
4.103000000000000000e+03 5.716890811920166016e+00 2.294392585754394531e+00 1.231320619583129883e+00 4.825572967529296875e-01 5.141633749008178711e-01 -1.238890811800956726e-01
4.104000000000000000e+03 8.751746177673339844e+00 -2.446993112564086914e+00 2.528319120407104492e+00 8.130753517150878906e+00 3.197721719741821289e+00 5.348463535308837891e+00
4.105000000000000000e+03 9.338309288024902344e+00 -2.264382123947143555e+00 1.932921528816223145e+00 1.174223899841308594e+01 4.102548122406005859e+00 5.944492816925048828e+00
4.106000000000000000e+03 1.035699748992919922e+01 -1.886827945709228516e+00 9.107518792152404785e-01 1.980321121215820312e+01 6.214188575744628906e+00 3.401823520660400391e+00
4.107000000000000000e+03 1.016477012634277344e+01 -2.221482038497924805e+00 5.067809820175170898e-01 1.730233955383300781e+01 5.342736244201660156e+00 4.027377128601074219e+00
4.108000000000000000e+03 1.002226734161376953e+01 1.859444975852966309e+00 2.809669017791748047e+00 1.754417419433593750e+01 6.106153011322021484e+00 -3.975314378738403320e+00
4.109000000000000000e+03 5.661665439605712891e+00 1.994983315467834473e+00 7.178716063499450684e-01 2.769213020801544189e-01 2.984378635883331299e-01 1.623195111751556396e-01
4.110000000000000000e+03 5.418879985809326172e+00 2.102914571762084961e+00 7.169532179832458496e-01 2.656401693820953369e-01 2.947780191898345947e-01 1.777963191270828247e-01
4.111000000000000000e+03 6.639168739318847656e+00 2.329997777938842773e+00 2.101619958877563477e+00 9.983904361724853516e-01 9.300031065940856934e-01 -8.558737039566040039e-01
4.112000000000000000e+03 4.619013369083404541e-01 2.892360925674438477e+00 -5.144536867737770081e-02 -8.262329697608947754e-01 -2.633034884929656982e-01 1.842864900827407837e-01
4.113000000000000000e+03 8.501767158508300781e+00 -2.431857347488403320e+00 2.770323991775512695e+00 6.760856151580810547e+00 2.859354019165039062e+00 5.022274971008300781e+00
4.114000000000000000e+03 8.025333404541015625e+00 -2.391542196273803711e+00 2.957338094711303711e+00 4.639137744903564453e+00 2.278942823410034180e+00 4.182094573974609375e+00
4.115000000000000000e+03 6.949573516845703125e+00 -2.220138788223266602e+00 2.311254739761352539e+00 1.784377574920654297e+00 1.228689670562744141e+00 2.132283687591552734e+00
4.116000000000000000e+03 6.532905578613281250e+00 -2.129208087921142578e+00 1.978113412857055664e+00 1.280496478080749512e+00 9.775829911231994629e-01 1.609716415405273438e+00
4.117000000000000000e+03 5.799378395080566406e+00 -1.763203501701354980e+00 9.906665086746215820e-01 5.256277322769165039e-01 4.548882842063903809e-01 5.842188596725463867e-01
4.118000000000000000e+03 5.679018020629882812e+00 -1.868261933326721191e+00 9.689264297485351562e-01 5.005103349685668945e-01 4.408310353755950928e-01 5.729434490203857422e-01
4.119000000000000000e+03 5.656225681304931641e+00 -2.106625556945800781e+00 1.226748585700988770e+00 6.858292818069458008e-01 5.737733244895935059e-01 7.501506805419921875e-01
4.120000000000000000e+03 3.662694454193115234e+00 -2.402598857879638672e+00 4.831620752811431885e-01 2.777412533760070801e-01 2.282709926366806030e-01 -3.235074877738952637e-02
4.121000000000000000e+03 3.464349031448364258e+00 -3.001453399658203125e+00 5.586732625961303711e-01 3.973062336444854736e-01 2.867938578128814697e-01 1.161348894238471985e-01
4.122000000000000000e+03 2.352075338363647461e+00 -2.575384140014648438e+00 1.666787564754486084e-01 -1.017938647419214249e-02 4.694981127977371216e-02 -2.539393305778503418e-01
4.123000000000000000e+03 6.474148273468017578e+00 1.976032257080078125e+00 1.363843083381652832e+00 5.566220283508300781e-01 5.761395096778869629e-01 -3.162689208984375000e-01
4.124000000000000000e+03 7.804722785949707031e+00 2.496215343475341797e+00 3.551778078079223633e+00 3.001364946365356445e+00 1.965942859649658203e+00 -2.714537143707275391e+00
4.125000000000000000e+03 8.074440956115722656e+00 2.119798898696899414e+00 3.706678628921508789e+00 3.285749197006225586e+00 2.097728252410888672e+00 -2.888319015502929688e+00
4.126000000000000000e+03 8.057936668395996094e+00 1.878922581672668457e+00 3.140895843505859375e+00 2.500483512878417969e+00 1.692413806915283203e+00 -2.392975091934204102e+00
4.127000000000000000e+03 1.203402328491210938e+01 -1.385058879852294922e+00 3.595116615295410156e+00 1.910072708129882812e+01 6.808753013610839844e+00 -2.744393348693847656e+00
4.128000000000000000e+03 1.252575874328613281e+01 9.065082073211669922e-01 6.288443088531494141e+00 2.163177299499511719e+01 8.376064300537109375e+00 2.322721958160400391e+00
4.129000000000000000e+03 1.194462966918945312e+01 8.263787627220153809e-01 7.323122501373291016e+00 2.216720771789550781e+01 8.847099304199218750e+00 3.224158763885498047e+00
4.130000000000000000e+03 1.279075717926025391e+01 5.292362570762634277e-01 6.030115127563476562e+00 2.128448295593261719e+01 8.194379806518554688e+00 5.245898365974426270e-01
4.131000000000000000e+03 1.192394161224365234e+01 1.271337985992431641e+00 6.494782447814941406e+00 2.326952934265136719e+01 8.929293632507324219e+00 3.521134376525878906e+00
4.132000000000000000e+03 1.154871463775634766e+01 1.450906038284301758e+00 5.565162658691406250e+00 2.332497215270996094e+01 8.667039871215820312e+00 2.831346750259399414e+00
4.133000000000000000e+03 1.149233055114746094e+01 2.442239999771118164e+00 5.886110782623291016e+00 2.139954566955566406e+01 8.185696601867675781e+00 1.052012085914611816e+00
4.134000000000000000e+03 5.377479076385498047e+00 -2.014894485473632812e+00 1.014158725738525391e+00 5.283991694450378418e-01 4.627673625946044922e-01 5.205047726631164551e-01
4.135000000000000000e+03 5.773622035980224609e+00 -2.502659559249877930e+00 1.524476766586303711e+00 1.058720469474792480e+00 7.749592065811157227e-01 1.107656359672546387e+00
4.136000000000000000e+03 3.221731185913085938e+00 -3.629955673217773438e+01 -2.813084423542022705e-02 4.711608886718750000e+00 1.405043363571166992e+00 3.888273239135742188e-02
4.137000000000000000e+03 2.548447847366333008e+00 -2.190877199172973633e+00 1.273324787616729736e-01 2.379226870834827423e-02 4.533742368221282959e-02 -2.720510065555572510e-01
4.138000000000000000e+03 3.941858768463134766e+00 -2.455152034759521484e+00 5.971035957336425781e-01 3.657945990562438965e-01 2.888694703578948975e-01 7.597719132900238037e-02
4.139000000000000000e+03 1.101176738739013672e+01 -2.430255889892578125e+00 5.209987610578536987e-02 1.841475486755371094e+01 5.540056228637695312e+00 6.159803271293640137e-01
4.140000000000000000e+03 1.126060867309570312e+01 -2.738866090774536133e+00 -3.101485073566436768e-01 1.735390281677246094e+01 5.113126277923583984e+00 -1.371353864669799805e-01
4.141000000000000000e+03 4.883551120758056641e+00 -2.577523708343505859e+00 1.019965410232543945e+00 7.029381394386291504e-01 5.168710947036743164e-01 5.503084659576416016e-01
4.142000000000000000e+03 2.813340902328491211e+00 2.258385419845581055e+00 8.353801071643829346e-02 -5.319059267640113831e-02 9.104225784540176392e-03 6.423925757408142090e-01
4.143000000000000000e+03 2.458714723587036133e+00 2.192795991897583008e+00 1.251969952136278152e-02 -1.460910439491271973e-01 -4.007140547037124634e-02 6.316247582435607910e-01
4.144000000000000000e+03 5.894598960876464844e+00 2.203688621520996094e+00 1.211884021759033203e+00 4.157554805278778076e-01 4.882918596267700195e-01 -1.106671988964080811e-01
4.145000000000000000e+03 5.253191947937011719e+00 2.947854995727539062e+00 1.526925206184387207e+00 6.691682934761047363e-01 6.588280797004699707e-01 -2.999868690967559814e-01
4.146000000000000000e+03 3.923614978790283203e+00 2.348334550857543945e+00 3.466341495513916016e-01 5.967993289232254028e-02 1.218942254781723022e-01 5.101798176765441895e-01
4.147000000000000000e+03 4.077861309051513672e+00 2.475641489028930664e+00 5.352255105972290039e-01 1.399917304515838623e-01 2.025651633739471436e-01 4.216336905956268311e-01
4.148000000000000000e+03 5.381231307983398438e+01 3.005662536621093750e+01 1.133062005043029785e+00 1.023757362365722656e+01 3.411190748214721680e+00 2.847886085510253906e+00
4.149000000000000000e+03 9.649889945983886719e+00 -2.290748119354248047e+00 1.193931221961975098e+00 1.385561180114746094e+01 4.514863014221191406e+00 5.383050918579101562e+00
4.150000000000000000e+03 9.510682106018066406e+00 -2.463334798812866211e+00 1.283678174018859863e+00 1.299208068847656250e+01 4.282727718353271484e+00 5.360093593597412109e+00
4.151000000000000000e+03 3.794974899291992188e+01 3.141549491882324219e+01 -7.367334365844726562e-01 -7.079279422760009766e-01 -4.333984255790710449e-01 -6.431798338890075684e-01
4.152000000000000000e+03 1.178639221191406250e+01 3.019678831100463867e+00 6.359717369079589844e+00 1.995495033264160156e+01 7.894400119781494141e+00 -1.303965449333190918e-01
4.153000000000000000e+03 6.271926403045654297e+00 -2.881602525711059570e+00 1.868671655654907227e+00 1.838044643402099609e+00 1.112014889717102051e+00 1.817872762680053711e+00
4.154000000000000000e+03 9.639106750488281250e+00 -2.083741188049316406e+00 1.722858786582946777e+00 1.442007160186767578e+01 4.842878818511962891e+00 5.856047630310058594e+00
4.155000000000000000e+03 9.272425651550292969e+00 -2.492001771926879883e+00 1.762789487838745117e+00 1.128767395019531250e+01 3.915139198303222656e+00 5.521386146545410156e+00
4.156000000000000000e+03 9.022759437561035156e+00 -2.834673643112182617e+00 1.537903070449829102e+00 9.849953651428222656e+00 3.416357040405273438e+00 4.974717140197753906e+00
4.157000000000000000e+03 6.233982467651367188e+01 3.296168899536132812e+01 1.360398054122924805e+00 9.654753684997558594e+00 3.304545640945434570e+00 -3.766710460186004639e-01
4.158000000000000000e+03 3.340833663940429688e+01 -3.624815750122070312e+01 5.431975126266479492e-01 1.075938463211059570e+00 4.857408106327056885e-01 -5.812590122222900391e-01
4.159000000000000000e+03 4.060019493103027344e+00 -3.175241231918334961e+00 7.914975881576538086e-01 6.980916857719421387e-01 4.468767940998077393e-01 3.995062708854675293e-01
4.160000000000000000e+03 6.645257472991943359e+00 -2.485601902008056641e+00 2.091024398803710938e+00 1.777280330657958984e+00 1.160491466522216797e+00 1.979386448860168457e+00
4.161000000000000000e+03 5.851579189300537109e+00 -2.028858661651611328e+00 1.342965364456176758e+00 7.713700532913208008e-01 6.343006491661071777e-01 8.809901475906372070e-01
4.162000000000000000e+03 5.930893898010253906e+00 -1.726207971572875977e+00 1.072388768196105957e+00 5.251472592353820801e-01 4.792608022689819336e-01 6.673882603645324707e-01
4.163000000000000000e+03 1.222617530822753906e+01 1.164881229400634766e+00 6.420336723327636719e+00 2.228082275390625000e+01 8.610347747802734375e+00 2.733208656311035156e+00
4.164000000000000000e+03 1.009373950958251953e+01 2.700337171554565430e+00 3.378245830535888672e+00 1.509705924987792969e+01 5.542591571807861328e+00 -3.881815195083618164e+00
4.165000000000000000e+03 8.688847541809082031e+00 2.787880897521972656e+00 4.042916297912597656e+00 6.936950206756591797e+00 3.293960094451904297e+00 -4.326593399047851562e+00
4.166000000000000000e+03 2.841380357742309570e+00 2.717515707015991211e+00 3.440187871456146240e-01 -3.753450885415077209e-02 9.194528311491012573e-02 5.604577660560607910e-01
4.167000000000000000e+03 6.070717334747314453e+00 2.188234329223632812e+00 1.268221735954284668e+00 4.608884155750274658e-01 5.187330245971679688e-01 -2.167372107505798340e-01
4.168000000000000000e+03 4.259868144989013672e+00 2.509665012359619141e+00 5.903840661048889160e-01 1.505183726549148560e-01 2.222707420587539673e-01 3.716984391212463379e-01
4.169000000000000000e+03 3.343914747238159180e+00 3.037689208984375000e+00 5.882307291030883789e-01 6.736104935407638550e-02 1.966775357723236084e-01 3.871085941791534424e-01
4.170000000000000000e+03 4.002130031585693359e+00 2.700932025909423828e+00 6.990571022033691406e-01 1.584993153810501099e-01 2.572669386863708496e-01 3.630922138690948486e-01
4.171000000000000000e+03 4.220757484436035156e+00 3.036132812500000000e+00 9.383669495582580566e-01 3.224129080772399902e-01 3.782339692115783691e-01 1.268244832754135132e-01
4.172000000000000000e+03 4.350238323211669922e+00 -2.763605594635009766e+00 8.487195372581481934e-01 5.745258927345275879e-01 4.269736409187316895e-01 3.607119619846343994e-01
4.173000000000000000e+03 7.375927925109863281e+00 -2.270295858383178711e+00 2.680428981781005859e+00 2.684030771255493164e+00 1.609337925910949707e+00 2.892293930053710938e+00
4.174000000000000000e+03 1.042923927307128906e+01 -2.902813434600830078e+00 -3.704930841922760010e-01 1.586660194396972656e+01 4.648832798004150391e+00 2.536983013153076172e+00
4.175000000000000000e+03 7.127428054809570312e+00 -2.489472389221191406e+00 2.452083826065063477e+00 2.450634717941284180e+00 1.470815539360046387e+00 2.604094743728637695e+00
4.176000000000000000e+03 6.733755588531494141e+00 -2.190828561782836914e+00 2.195553064346313477e+00 1.447691798210144043e+00 1.092973470687866211e+00 1.862345099449157715e+00
4.177000000000000000e+03 6.389002323150634766e+00 2.646236896514892578e+00 2.237882852554321289e+00 1.136472582817077637e+00 1.012306571006774902e+00 -9.035276174545288086e-01
4.178000000000000000e+03 6.867755889892578125e+00 2.942625284194946289e+00 2.904687881469726562e+00 1.965776562690734863e+00 1.461139321327209473e+00 -1.795147180557250977e+00
4.179000000000000000e+03 5.860437870025634766e+00 2.743653535842895508e+00 1.821622371673583984e+00 7.982658147811889648e-01 7.859664559364318848e-01 -5.206303596496582031e-01
4.180000000000000000e+03 6.333723545074462891e+00 -2.098749637603759766e+00 1.715605378150939941e+00 1.078899502754211426e+00 8.383514285087585449e-01 1.314054369926452637e+00
4.181000000000000000e+03 6.409690380096435547e+00 -2.343475580215454102e+00 1.949724435806274414e+00 1.374150037765502930e+00 9.971623420715332031e-01 1.622145533561706543e+00
4.182000000000000000e+03 8.710546493530273438e+00 -3.150446176528930664e+00 1.497253060340881348e+00 8.345446586608886719e+00 2.952809810638427734e+00 4.547296524047851562e+00
4.183000000000000000e+03 6.094303131103515625e+00 2.405701398849487305e+00 1.701497554779052734e+00 6.893064975738525391e-01 7.172412276268005371e-01 -4.409222304821014404e-01
4.184000000000000000e+03 1.240760612487792969e+01 -2.424191236495971680e+00 9.301705956459045410e-01 1.666009902954101562e+01 5.277081012725830078e+00 -2.911475181579589844e+00
4.185000000000000000e+03 2.689016580581665039e+00 -4.267974376678466797e+00 4.511508643627166748e-01 5.316659212112426758e-01 2.948450446128845215e-01 2.675043940544128418e-01
4.186000000000000000e+03 3.439429044723510742e+00 -4.564074039459228516e+00 6.852374672889709473e-01 9.939138293266296387e-01 5.037453770637512207e-01 6.189008951187133789e-01
4.187000000000000000e+03 4.213529586791992188e+00 -2.936507225036621094e+00 8.345590233802795410e-01 6.395829916000366211e-01 4.422425925731658936e-01 3.857463002204895020e-01
4.188000000000000000e+03 2.752742385864257812e+01 1.672853589057922363e+00 1.897391229867935181e-01 -4.421151801943778992e-02 4.365827888250350952e-02 1.355866193771362305e-01
4.189000000000000000e+03 3.467335462570190430e+00 -5.113070011138916016e+00 6.393081545829772949e-01 1.194700241088867188e+00 5.502025485038757324e-01 7.814120054244995117e-01
4.190000000000000000e+03 3.657654047012329102e+00 2.934225797653198242e+00 6.046346426010131836e-01 1.517611593008041382e-01 2.269187420606613159e-01 3.466807305812835693e-01
4.191000000000000000e+03 4.422978401184082031e+00 -3.370038509368896484e+00 1.006368756294250488e+00 8.999491333961486816e-01 5.718953609466552734e-01 6.685605645179748535e-01
4.192000000000000000e+03 4.253816604614257812e+00 2.730455160140991211e+00 8.482357263565063477e-01 2.444675862789154053e-01 3.278110027313232422e-01 2.941691875457763672e-01
4.193000000000000000e+03 6.170368671417236328e+00 -3.463674545288085938e+00 1.717915534973144531e+00 2.283413410186767578e+00 1.200398683547973633e+00 1.969885349273681641e+00
4.194000000000000000e+03 6.454370021820068359e+00 -3.615900278091430664e+00 1.746719121932983398e+00 2.838903427124023438e+00 1.375686764717102051e+00 2.316871166229248047e+00
4.195000000000000000e+03 6.176185131072998047e+00 3.003571033477783203e+00 2.308391809463500977e+00 1.274866580963134766e+00 1.074977517127990723e+00 -1.021040916442871094e+00
4.196000000000000000e+03 4.987545967102050781e+00 -4.095387935638427734e+00 1.211934924125671387e+00 1.646863460540771484e+00 8.576394915580749512e-01 1.238826274871826172e+00
4.197000000000000000e+03 8.164391517639160156e+00 -3.356612443923950195e+00 1.798433542251586914e+00 6.270839214324951172e+00 2.420781850814819336e+00 4.064914703369140625e+00
4.198000000000000000e+03 8.631118774414062500e+00 -3.475906610488891602e+00 1.229781270027160645e+00 8.216282844543457031e+00 2.833819389343261719e+00 4.234919548034667969e+00
4.199000000000000000e+03 9.450837135314941406e+00 -3.662276268005371094e+00 1.344404667615890503e-01 1.107783412933349609e+01 3.363682270050048828e+00 3.669742822647094727e+00
4.200000000000000000e+03 9.733687400817871094e+00 -3.161928415298461914e+00 1.366005539894104004e-01 1.288326072692871094e+01 3.905958175659179688e+00 3.866844892501831055e+00
4.201000000000000000e+03 7.311141014099121094e+00 -2.524781703948974609e+00 2.552277803421020508e+00 2.994496822357177734e+00 1.664032340049743652e+00 2.973273992538452148e+00
4.202000000000000000e+03 2.722281265258789062e+01 3.125458526611328125e+01 -3.446255028247833252e-01 1.169833064079284668e+00 2.475622743368148804e-01 -4.041079804301261902e-02
4.203000000000000000e+03 5.909648132324218750e+01 2.679636573791503906e+01 -4.561615362763404846e-02 9.536305427551269531e+00 2.847206830978393555e+00 -1.608196087181568146e-02
4.204000000000000000e+03 3.950056314468383789e+00 2.973715782165527344e+00 7.232794165611267090e-01 2.172197550535202026e-01 2.821497619152069092e-01 2.651210129261016846e-01
4.205000000000000000e+03 6.563159465789794922e+00 3.381879806518554688e+00 2.803041934967041016e+00 1.991574048995971680e+00 1.438384771347045898e+00 -1.799677014350891113e+00
4.206000000000000000e+03 5.400685310363769531e+00 3.764384269714355469e+00 2.053672552108764648e+00 1.303200244903564453e+00 1.007061839103698730e+00 -9.719525575637817383e-01
4.207000000000000000e+03 5.102612495422363281e+00 4.217779636383056641e+00 1.884432673454284668e+00 1.377146840095520020e+00 9.784738421440124512e-01 -1.055813550949096680e+00
4.208000000000000000e+03 7.504662036895751953e+00 -2.618070840835571289e+00 2.599500417709350586e+00 3.575871706008911133e+00 1.852611660957336426e+00 3.363027095794677734e+00
4.209000000000000000e+03 5.030160427093505859e+00 8.165155410766601562e+00 7.589025497436523438e-01 3.766179561614990234e+00 1.357524633407592773e+00 -2.398661613464355469e+00
4.210000000000000000e+03 9.988183021545410156e+00 -4.961520671844482422e+00 -8.423082232475280762e-01 1.087815856933593750e+01 3.010755062103271484e+00 1.911012053489685059e+00
4.211000000000000000e+03 1.083582782745361328e+01 5.410301685333251953e+00 2.080269575119018555e+00 1.389205360412597656e+01 4.791697025299072266e+00 -3.201646566390991211e+00
4.212000000000000000e+03 7.169150829315185547e+00 -3.862247467041015625e+00 1.636223912239074707e+00 4.255375385284423828e+00 1.767479777336120605e+00 2.989696502685546875e+00
4.213000000000000000e+03 7.026842594146728516e+00 -4.175117969512939453e+00 1.408219218254089355e+00 4.271943569183349609e+00 1.704048752784729004e+00 2.756043434143066406e+00
4.214000000000000000e+03 2.363436126708984375e+01 3.097612571716308594e+01 -3.481494188308715820e-01 2.074382305145263672e+00 5.178698897361755371e-01 4.079383332282304764e-03
4.215000000000000000e+03 4.649814605712890625e+01 -2.775971603393554688e+01 3.778198361396789551e-02 6.083204746246337891e+00 1.836295962333679199e+00 -3.776195645332336426e-01
4.216000000000000000e+03 5.610125350952148438e+01 2.917236709594726562e+01 5.305700302124023438e-01 1.037395000457763672e+01 3.271355867385864258e+00 9.785816073417663574e-01
4.217000000000000000e+03 4.291924285888671875e+01 -1.521629810333251953e+01 -2.148242145776748657e-01 3.394910335540771484e+00 9.540258646011352539e-01 -3.178885579109191895e-01
4.218000000000000000e+03 1.056768226623535156e+01 1.016372680664062500e+01 -1.059382557868957520e+00 9.538092613220214844e+00 2.543612957000732422e+00 -1.871629118919372559e+00
4.219000000000000000e+03 3.206423950195312500e+01 2.720776498317718506e-01 2.732665538787841797e-01 4.496981799602508545e-01 2.168894112110137939e-01 8.117055892944335938e-02
4.220000000000000000e+03 1.766774368286132812e+01 2.514586257934570312e+01 -6.954066157341003418e-01 3.919410943984985352e+00 9.672012925148010254e-01 2.745279297232627869e-02
4.221000000000000000e+03 2.540879249572753906e+01 -3.265546798706054688e+01 1.684427112340927124e-01 2.786067724227905273e+00 8.863531351089477539e-01 -5.569232702255249023e-01
4.222000000000000000e+03 7.378481292724609375e+01 -2.998767852783203125e+01 6.970833241939544678e-02 7.286840915679931641e+00 2.206964731216430664e+00 3.740200698375701904e-01
4.223000000000000000e+03 3.361097335815429688e+01 -4.981513023376464844e+00 2.443465441465377808e-01 8.350097537040710449e-01 3.238068819046020508e-01 -1.344372332096099854e-01
4.224000000000000000e+03 7.252689361572265625e+00 -4.393549919128417969e+00 1.213619232177734375e+00 4.953508853912353516e+00 1.850138425827026367e+00 2.955967903137207031e+00
4.225000000000000000e+03 6.520471096038818359e+00 -5.854910373687744141e+00 5.754346847534179688e-01 4.396545886993408203e+00 1.491594076156616211e+00 2.202370882034301758e+00
4.226000000000000000e+03 6.942197799682617188e+00 -5.747482299804687500e+00 5.257697701454162598e-01 4.995577335357666016e+00 1.656404137611389160e+00 2.363158941268920898e+00
4.227000000000000000e+03 7.115523815155029297e+00 -6.073985099792480469e+00 3.796416521072387695e-01 5.209744930267333984e+00 1.676815986633300781e+00 2.328459501266479492e+00
4.228000000000000000e+03 7.543194770812988281e+00 3.246958017349243164e+00 3.494489431381225586e+00 3.687656879425048828e+00 2.154644012451171875e+00 -2.848176717758178711e+00
4.229000000000000000e+03 8.755568504333496094e+00 5.004618644714355469e+00 2.674714088439941406e+00 8.485665321350097656e+00 3.348113775253295898e+00 -4.238346576690673828e+00
4.230000000000000000e+03 7.772417545318603516e+00 3.677674055099487305e+00 3.588080406188964844e+00 4.575419425964355469e+00 2.449049949645996094e+00 -3.361463546752929688e+00
4.231000000000000000e+03 7.785151481628417969e+00 3.381056547164916992e+00 3.504240751266479492e+00 4.383769989013671875e+00 2.366403102874755859e+00 -3.146538019180297852e+00
4.232000000000000000e+03 5.395248889923095703e+00 4.534108161926269531e+00 2.068538427352905273e+00 1.857008695602416992e+00 1.177664160728454590e+00 -1.452143669128417969e+00
4.233000000000000000e+03 1.293385982513427734e+01 -5.210578918457031250e+00 -8.892607688903808594e-01 1.159916400909423828e+01 3.212970972061157227e+00 -2.409176349639892578e+00
4.234000000000000000e+03 1.337949180603027344e+01 -5.218695640563964844e+00 -6.992041468620300293e-01 1.120134067535400391e+01 3.150640964508056641e+00 -2.882158041000366211e+00
4.235000000000000000e+03 9.187312126159667969e+00 -4.833707809448242188e+00 -2.571598887443542480e-01 9.381846427917480469e+00 2.737406015396118164e+00 2.778922080993652344e+00
4.236000000000000000e+03 9.463359832763671875e+00 -5.336502552032470703e+00 -6.019551157951354980e-01 9.556552886962890625e+00 2.686379432678222656e+00 2.204041242599487305e+00
4.237000000000000000e+03 7.230764865875244141e+00 -4.705290794372558594e+00 1.050179719924926758e+00 4.989385128021240234e+00 1.811869382858276367e+00 2.843209028244018555e+00
4.238000000000000000e+03 8.650357246398925781e+00 -4.171462059020996094e+00 5.687980651855468750e-01 8.093096733093261719e+00 2.598568439483642578e+00 3.442904710769653320e+00
4.239000000000000000e+03 5.132913208007812500e+01 2.241158485412597656e+01 -1.244000047445297241e-01 5.906110763549804688e+00 1.734513282775878906e+00 1.663152337074279785e+00
4.240000000000000000e+03 5.066453552246093750e+01 -2.450964736938476562e+01 -1.846205294132232666e-01 6.048111438751220703e+00 1.759047269821166992e+00 2.220682352781295776e-01
4.241000000000000000e+03 7.981711864471435547e+00 5.331554889678955078e+00 2.524253606796264648e+00 6.639468669891357422e+00 2.749116659164428711e+00 -3.799797296524047852e+00
4.242000000000000000e+03 8.199632644653320312e+00 5.746315479278564453e+00 2.215746402740478516e+00 7.312996387481689453e+00 2.858622789382934570e+00 -3.724757671356201172e+00
4.243000000000000000e+03 7.496362686157226562e+00 7.617894172668457031e+00 9.439073801040649414e-01 6.650929927825927734e+00 2.278451204299926758e+00 -3.404301166534423828e+00
4.244000000000000000e+03 6.928045749664306641e+00 -5.412668704986572266e+00 7.029912471771240234e-01 4.835459232330322266e+00 1.661535143852233887e+00 2.461664676666259766e+00
4.245000000000000000e+03 7.942353248596191406e+00 -5.124277591705322266e+00 4.927554726600646973e-01 6.600255489349365234e+00 2.127903461456298828e+00 2.911675930023193359e+00
4.246000000000000000e+03 6.990707397460937500e+01 -2.394757270812988281e+01 1.118186488747596741e-02 7.354051589965820312e+00 2.209569931030273438e+00 5.808059573173522949e-01
4.247000000000000000e+03 7.285569000244140625e+01 -7.499889850616455078e+00 -1.001550704240798950e-01 8.147614479064941406e+00 2.414237737655639648e+00 2.539172172546386719e-01
4.248000000000000000e+03 7.188648223876953125e+01 2.369791984558105469e+01 -7.245602458715438843e-02 7.960949420928955078e+00 2.366548061370849609e+00 -8.985908031463623047e-01
4.249000000000000000e+03 5.809426116943359375e+01 2.259635162353515625e+01 -6.078563332557678223e-01 8.502105712890625000e+00 2.368274927139282227e+00 3.214862048625946045e-01
4.250000000000000000e+03 3.534326171875000000e+01 9.319279789924621582e-01 1.458105891942977905e-01 1.065339446067810059e+00 3.633450269699096680e-01 1.566490083932876587e-01
4.251000000000000000e+03 6.340779781341552734e+00 7.626869678497314453e+00 1.065658211708068848e+00 4.969666957855224609e+00 1.810597538948059082e+00 -2.966931343078613281e+00
4.252000000000000000e+03 1.933450889587402344e+01 2.149955177307128906e+01 -7.388366460800170898e-01 3.463691949844360352e+00 8.174566030502319336e-01 3.037966489791870117e-01
4.253000000000000000e+03 6.412671661376953125e+01 -2.108287620544433594e+01 -8.757730573415756226e-02 7.011310100555419922e+00 2.077119827270507812e+00 6.899669766426086426e-01
4.254000000000000000e+03 3.640392684936523438e+01 2.382887601852416992e+00 5.389530584216117859e-02 1.283325672149658203e+00 4.011662900447845459e-01 2.186728864908218384e-01
4.255000000000000000e+03 7.911540508270263672e+00 6.874957084655761719e+00 1.482298612594604492e+00 7.141781806945800781e+00 2.587224245071411133e+00 -3.573018074035644531e+00
4.256000000000000000e+03 8.661728858947753906e+00 -4.466460227966308594e+00 3.951351940631866455e-01 8.184921264648437500e+00 2.574016809463500977e+00 3.307654857635498047e+00
4.257000000000000000e+03 8.870723724365234375e+00 -4.703883647918701172e+00 4.728842154145240784e-02 8.701925277709960938e+00 2.624763965606689453e+00 3.058117628097534180e+00
4.258000000000000000e+03 7.552615642547607422e+00 7.082858562469482422e+00 1.300150990486145020e+00 6.577412128448486328e+00 2.363268852233886719e+00 -3.485364675521850586e+00
4.259000000000000000e+03 1.526667881011962891e+01 1.499166584014892578e+01 -1.124617934226989746e+00 6.277804374694824219e+00 1.545956015586853027e+00 4.866810441017150879e-01
4.260000000000000000e+03 8.699638366699218750e+00 -4.947292327880859375e+00 4.496691375970840454e-02 8.253771781921386719e+00 2.489621639251708984e+00 2.893625259399414062e+00
4.261000000000000000e+03 8.476401329040527344e+00 -1.203651523590087891e+01 -6.275455355644226074e-01 5.796002388000488281e+00 1.550537109375000000e+00 8.946964740753173828e-01
4.262000000000000000e+03 2.147838020324707031e+01 -2.162663650512695312e+01 5.394171550869941711e-02 4.139666557312011719e+00 1.258082509040832520e+00 -1.034841537475585938e+00
4.263000000000000000e+03 2.106236076354980469e+01 -2.251743698120117188e+01 -8.146862499415874481e-03 4.155790328979492188e+00 1.244293093681335449e+00 -9.294447898864746094e-01
4.264000000000000000e+03 7.040770530700683594e+00 6.373323917388916016e+00 1.803624749183654785e+00 5.381238460540771484e+00 2.155458927154541016e+00 -3.231641769409179688e+00
4.265000000000000000e+03 6.949458599090576172e+00 7.007379055023193359e+00 1.390897750854492188e+00 5.564914703369140625e+00 2.086743593215942383e+00 -3.219300985336303711e+00
4.266000000000000000e+03 1.419469738006591797e+01 -1.079025936126708984e+01 -2.845339775085449219e-01 7.304141521453857422e+00 2.105882167816162109e+00 -1.178195595741271973e+00
4.267000000000000000e+03 9.460330963134765625e+00 1.380635738372802734e+01 -1.191172122955322266e+00 7.395962715148925781e+00 1.861437201499938965e+00 -1.667837977409362793e+00
4.268000000000000000e+03 6.933678436279296875e+01 2.564509010314941406e+01 2.852587215602397919e-02 8.173940658569335938e+00 2.460740089416503906e+00 -9.629524946212768555e-01
4.269000000000000000e+03 7.266784191131591797e+00 -2.329192733764648438e+01 -2.217043340206146240e-01 4.554019451141357422e+00 1.299694538116455078e+00 4.148486852645874023e-01
4.270000000000000000e+03 8.227750778198242188e+00 -5.809250354766845703e+00 1.580175245180726051e-03 7.173817634582519531e+00 2.152619361877441406e+00 2.551094770431518555e+00
4.271000000000000000e+03 7.088683319091796875e+01 -1.557402896881103516e+01 -9.250104427337646484e-02 7.679074287414550781e+00 2.275971889495849609e+00 4.846334457397460938e-01
4.272000000000000000e+03 1.544212722778320312e+01 -1.487805271148681641e+01 -1.956242024898529053e-01 6.156601905822753906e+00 1.788293242454528809e+00 -7.301537990570068359e-01
4.273000000000000000e+03 4.974075317382812500e+01 2.007866859436035156e+01 -1.386319994926452637e-01 4.939250469207763672e+00 1.440185546875000000e+00 1.501652836799621582e+00
4.274000000000000000e+03 4.621096420288085938e+01 1.294312000274658203e+01 -2.792118787765502930e-01 3.572916984558105469e+00 9.881115555763244629e-01 9.158359766006469727e-01
4.275000000000000000e+03 5.242344665527343750e+01 1.819257164001464844e+01 -5.349575877189636230e-01 5.960076808929443359e+00 1.627535820007324219e+00 1.116747379302978516e+00
4.276000000000000000e+03 4.753731155395507812e+01 -9.529430389404296875e+00 -3.633903264999389648e-01 4.286699771881103516e+00 1.176992774009704590e+00 9.427409619092941284e-02
4.277000000000000000e+03 4.832577896118164062e+01 -1.049692821502685547e+01 -3.888497948646545410e-01 4.508943080902099609e+00 1.236027956008911133e+00 9.711079299449920654e-02
4.278000000000000000e+03 4.638095855712890625e+01 1.206404113769531250e+01 -3.012728691101074219e-01 3.572285652160644531e+00 9.813038110733032227e-01 8.966996669769287109e-01
4.279000000000000000e+03 8.985652923583984375e+00 -7.321288108825683594e+00 -6.832259297370910645e-01 7.680419921875000000e+00 2.099158287048339844e+00 1.577842593193054199e+00
4.280000000000000000e+03 9.652173042297363281e+00 -1.428552913665771484e+01 -5.905780196189880371e-01 5.700399398803710938e+00 1.532946467399597168e+00 5.570663213729858398e-01
4.281000000000000000e+03 1.040128421783447266e+01 -7.348496913909912109e+00 -1.084082365036010742e+00 8.999070167541503906e+00 2.374496221542358398e+00 5.916279554367065430e-01
4.282000000000000000e+03 1.022291469573974609e+01 -7.883203506469726562e+00 -1.001259446144104004e+00 8.528991699218750000e+00 2.258319616317749023e+00 6.390165090560913086e-01
4.283000000000000000e+03 4.435511779785156250e+01 6.252270221710205078e+00 -2.584163546562194824e-01 3.121956348419189453e+00 8.590620160102844238e-01 5.938237309455871582e-01
4.284000000000000000e+03 6.033917617797851562e+01 -1.382923316955566406e+01 -3.328395187854766846e-01 6.624366760253906250e+00 1.887458205223083496e+00 5.367909669876098633e-01
4.285000000000000000e+03 1.047337055206298828e+01 -9.334571838378906250e+00 -8.982051610946655273e-01 7.646126747131347656e+00 2.024376630783081055e+00 4.134409129619598389e-01
4.286000000000000000e+03 1.277841186523437500e+01 -1.283606910705566406e+01 -5.124841332435607910e-01 6.624405384063720703e+00 1.833576440811157227e+00 -3.291598856449127197e-01
4.287000000000000000e+03 4.752352142333984375e+01 7.687471866607666016e+00 -3.807256519794464111e-01 3.997147083282470703e+00 1.084926366806030273e+00 6.798475384712219238e-01
4.288000000000000000e+03 4.674836730957031250e+01 6.483956813812255859e+00 -3.524596691131591797e-01 3.779691457748413086e+00 1.028169512748718262e+00 6.314991116523742676e-01
4.289000000000000000e+03 4.783144760131835938e+01 -1.316338300704956055e+00 -3.477540612220764160e-01 4.126463890075683594e+00 1.133612871170043945e+00 3.491918146610260010e-01
4.290000000000000000e+03 6.864151000976562500e+01 -1.330122470855712891e+01 -1.624179631471633911e-01 7.512690067291259766e+00 2.205081701278686523e+00 4.924252331256866455e-01
4.291000000000000000e+03 5.959590148925781250e+01 -5.992789268493652344e+00 -4.332682192325592041e-01 6.450518131256103516e+00 1.805174946784973145e+00 3.902890086174011230e-01
4.292000000000000000e+03 4.629544067382812500e+01 5.537735939025878906e+00 -3.346857726573944092e-01 3.650403261184692383e+00 9.947152137756347656e-01 6.036283969879150391e-01
4.293000000000000000e+03 4.624042510986328125e+01 4.643225669860839844e+00 -3.288253843784332275e-01 3.677212953567504883e+00 1.004516243934631348e+00 5.670503377914428711e-01
4.294000000000000000e+03 4.788422775268554688e+01 -8.653692901134490967e-02 -3.609820008277893066e-01 4.131862163543701172e+00 1.131263971328735352e+00 3.906374871730804443e-01
4.295000000000000000e+03 6.022416687011718750e+01 -8.557987213134765625e+00 -4.071131944656372070e-01 6.550702571868896484e+00 1.843076825141906738e+00 4.315980076789855957e-01
4.296000000000000000e+03 4.745701217651367188e+01 4.661529064178466797e+00 -3.772766888141632080e-01 3.994580030441284180e+00 1.085191011428833008e+00 5.452693700790405273e-01
4.297000000000000000e+03 5.029757690429687500e+01 -2.313887834548950195e+00 -4.165102839469909668e-01 4.719937801361083984e+00 1.291028261184692383e+00 3.497667312622070312e-01
4.298000000000000000e+03 4.676464080810546875e+01 5.095089435577392578e+00 -3.452844023704528809e-01 3.780610799789428711e+00 1.030597925186157227e+00 5.676597356796264648e-01
4.299000000000000000e+03 4.844028854370117188e+01 4.059480190277099609e+00 -4.021402299404144287e-01 4.273908615112304688e+00 1.161530494689941406e+00 5.452575683593750000e-01
4.300000000000000000e+03 5.279497528076171875e+01 -8.985998153686523438e+00 -4.462999105453491211e-01 5.348310470581054688e+00 1.470603108406066895e+00 2.919054925441741943e-01
4.301000000000000000e+03 6.032333755493164062e+01 1.059363746643066406e+01 -6.815414428710937500e-01 7.144883155822753906e+00 1.939002394676208496e+00 1.218482032418251038e-01
4.302000000000000000e+03 6.321065521240234375e+01 2.482617378234863281e+00 -4.737049937248229980e-01 7.123579025268554688e+00 1.994962215423583984e+00 1.692907810211181641e-01
4.303000000000000000e+03 5.959524536132812500e+01 5.980341434478759766e+00 -6.221492886543273926e-01 6.721086025238037109e+00 1.829681038856506348e+00 2.430785745382308960e-01
4.304000000000000000e+03 5.928976440429687500e+01 7.190526485443115234e+00 -6.383385062217712402e-01 6.734803199768066406e+00 1.828939318656921387e+00 2.414276003837585449e-01
4.305000000000000000e+03 6.130058288574218750e+01 9.917108535766601562e+00 -6.663438081741333008e-01 7.213783264160156250e+00 1.964231848716735840e+00 6.753300130367279053e-02
4.306000000000000000e+03 5.150086593627929688e+01 -4.009715080261230469e+00 -4.403441548347473145e-01 4.969147682189941406e+00 1.358641028404235840e+00 3.382762372493743896e-01
4.307000000000000000e+03 5.139128875732421875e+01 -2.436098098754882812e+00 -4.297059476375579834e-01 4.961048603057861328e+00 1.359402775764465332e+00 3.559984862804412842e-01
4.308000000000000000e+03 5.351488876342773438e+01 -1.028866410255432129e+00 -4.910968542098999023e-01 5.407243728637695312e+00 1.474843978881835938e+00 3.852836489677429199e-01
4.309000000000000000e+03 6.101776123046875000e+01 4.888677597045898438e+00 -5.786723494529724121e-01 6.884602546691894531e+00 1.891779065132141113e+00 1.950287222862243652e-01
4.310000000000000000e+03 6.067186355590820312e+01 6.216428279876708984e+00 -6.016920208930969238e-01 6.887434482574462891e+00 1.885722756385803223e+00 1.899927854537963867e-01
4.311000000000000000e+03 5.673256301879882812e+01 4.007735252380371094e+00 -5.918921232223510742e-01 6.146074295043945312e+00 1.666254639625549316e+00 3.632130920886993408e-01
4.312000000000000000e+03 5.879590606689453125e+01 4.617530822753906250e+00 -5.849466323852539062e-01 6.530773162841796875e+00 1.783747911453247070e+00 2.854154407978057861e-01
4.313000000000000000e+03 9.900979042053222656e+00 -9.946446865797042847e-03 4.645318603515625000e+01 6.492617130279541016e+00 1.588374042510986328e+01 1.335814285278320312e+01
4.314000000000000000e+03 9.904818534851074219e+00 -2.906142920255661011e-02 4.317240142822265625e+01 1.905499839782714844e+01 1.866821861267089844e+01 2.572781562805175781e+01
4.315000000000000000e+03 9.912311553955078125e+00 -4.706101492047309875e-02 3.963169860839843750e+01 3.152828407287597656e+01 2.134799385070800781e+01 3.061500740051269531e+01
4.316000000000000000e+03 9.923169136047363281e+00 -6.325436383485794067e-02 3.418417358398437500e+01 4.429937744140625000e+01 2.354506492614746094e+01 3.239938735961914062e+01
4.317000000000000000e+03 9.936976432800292969e+00 -7.701997458934783936e-02 2.908928298950195312e+01 5.578914642333984375e+01 2.546352767944335938e+01 3.082648658752441406e+01
4.318000000000000000e+03 9.953202247619628906e+00 -8.782950043678283691e-02 2.431533622741699219e+01 6.540219879150390625e+01 2.691526031494140625e+01 2.653382492065429688e+01
4.319000000000000000e+03 9.971223831176757812e+00 -9.526807069778442383e-02 2.125337600708007812e+01 7.214392852783203125e+01 2.801919174194335938e+01 2.032825088500976562e+01
4.320000000000000000e+03 9.990350723266601562e+00 -9.905018657445907593e-02 2.005875396728515625e+01 7.565078735351562500e+01 2.871286201477050781e+01 1.308895397186279297e+01
4.321000000000000000e+03 1.000984764099121094e+01 -9.903068840503692627e-02 2.095666503906250000e+01 7.590872955322265625e+01 2.905961799621582031e+01 6.077651023864746094e+00
4.322000000000000000e+03 1.002896595001220703e+01 -9.521032124757766724e-02 2.397508239746093750e+01 7.354561614990234375e+01 2.925620841979980469e+01 6.298577040433883667e-02
4.323000000000000000e+03 1.004697322845458984e+01 -8.773572742938995361e-02 2.765278434753417969e+01 6.910101318359375000e+01 2.902613830566406250e+01 -4.178879737854003906e+00
4.324000000000000000e+03 1.006317710876464844e+01 -7.689376920461654663e-02 3.281072616577148438e+01 6.408902740478515625e+01 2.906992530822753906e+01 -6.244187831878662109e+00
4.325000000000000000e+03 1.007695674896240234e+01 -6.310057640075683594e-02 3.661369705200195312e+01 5.838591384887695312e+01 2.849988365173339844e+01 -6.625279903411865234e+00
4.326000000000000000e+03 1.008778285980224609e+01 -4.688554257154464722e-02 4.120694732666015625e+01 5.455226516723632812e+01 2.872776222229003906e+01 -4.721661567687988281e+00
4.327000000000000000e+03 1.009523963928222656e+01 -2.887100912630558014e-02 4.327677536010742188e+01 5.014839935302734375e+01 2.802755355834960938e+01 -2.153689622879028320e+00
4.328000000000000000e+03 1.009904003143310547e+01 -9.748386219143867493e-03 4.542968750000000000e+01 4.972075653076171875e+01 2.854513359069824219e+01 1.846894502639770508e+00
4.329000000000000000e+03 1.009904003143310547e+01 9.748386219143867493e-03 4.484243011474609375e+01 4.833233261108398438e+01 2.795242881774902344e+01 6.031497478485107422e+00
4.330000000000000000e+03 1.009523963928222656e+01 2.887100912630558014e-02 4.378758239746093750e+01 5.130288314819335938e+01 2.852713966369628906e+01 9.905991554260253906e+00
4.331000000000000000e+03 1.008778285980224609e+01 4.688554257154464722e-02 3.993318557739257812e+01 5.397892761230468750e+01 2.817363357543945312e+01 1.351903820037841797e+01
4.332000000000000000e+03 1.007695674896240234e+01 6.310057640075683594e-02 3.563121795654296875e+01 5.925231552124023438e+01 2.846506118774414062e+01 1.531176567077636719e+01
4.333000000000000000e+03 1.006317710876464844e+01 7.689376920461654663e-02 2.930287170410156250e+01 6.452549743652343750e+01 2.814850997924804688e+01 1.555757427215576172e+01
4.334000000000000000e+03 1.004697322845458984e+01 8.773572742938995361e-02 2.319079971313476562e+01 6.991548156738281250e+01 2.793188476562500000e+01 1.339416027069091797e+01
4.335000000000000000e+03 1.002896595001220703e+01 9.521032124757766724e-02 1.688590431213378906e+01 7.383759307861328125e+01 2.721705055236816406e+01 9.083812713623046875e+00
4.336000000000000000e+03 1.000984764099121094e+01 9.903068840503692627e-02 1.211429786682128906e+01 7.570426177978515625e+01 2.634556770324707031e+01 2.930486440658569336e+00
4.337000000000000000e+03 9.990350723266601562e+00 9.905018657445907593e-02 8.439644813537597656e+00 7.437753295898437500e+01 2.484515380859375000e+01 -4.180987834930419922e+00
4.338000000000000000e+03 9.971223831176757812e+00 9.526807069778442383e-02 7.320341587066650391e+00 7.014788818359375000e+01 2.324046897888183594e+01 -1.129856109619140625e+01
4.339000000000000000e+03 9.953202247619628906e+00 8.782950043678283691e-02 6.998007297515869141e+00 6.254351425170898438e+01 2.086245536804199219e+01 -1.753832244873046875e+01
4.340000000000000000e+03 9.936976432800292969e+00 7.701997458934783936e-02 8.607603073120117188e+00 5.302460861206054688e+01 1.848966407775878906e+01 -2.186056900024414062e+01
4.341000000000000000e+03 9.923169136047363281e+00 6.325436383485794067e-02 9.988193511962890625e+00 4.161621093750000000e+01 1.548132133483886719e+01 -2.416228103637695312e+01
4.342000000000000000e+03 9.912311553955078125e+00 4.706101492047309875e-02 1.221131324768066406e+01 2.979181861877441406e+01 1.260093975067138672e+01 -2.369343948364257812e+01
4.343000000000000000e+03 9.904818534851074219e+00 2.906142920255661011e-02 1.319126605987548828e+01 1.793666458129882812e+01 9.338378906250000000e+00 -2.084400177001953125e+01
4.344000000000000000e+03 9.900979042053222656e+00 9.946446865797042847e-03 1.540284156799316406e+01 6.214025020599365234e+00 6.485060214996337891e+00 -1.071770095825195312e+01
