# el_label, x, y, sXX, sYY, sZZ, sXY
1.000000000000000000e+00 7.621578979492187500e+01 3.397781753540039062e+01 -1.034746170043945312e+01 -2.957689046859741211e+00 -3.991545200347900391e+00 -3.268242597579956055e+00
2.000000000000000000e+00 7.601834869384765625e+01 3.395260238647460938e+01 -6.109025478363037109e+00 1.083266377449035645e+00 -1.507727742195129395e+00 4.830502569675445557e-01
3.000000000000000000e+00 7.582090759277343750e+01 3.392739105224609375e+01 -7.344089031219482422e+00 -4.529916346073150635e-01 -2.339124202728271484e+00 -3.484772443771362305e-01
4.000000000000000000e+00 7.562347412109375000e+01 3.390217590332031250e+01 -7.599935054779052734e+00 2.115060389041900635e-01 -2.216528654098510742e+00 -1.710485368967056274e-01
5.000000000000000000e+00 7.622881317138671875e+01 3.392088317871093750e+01 5.868093967437744141e+00 -2.474371910095214844e+00 1.018116593360900879e+00 2.346393823623657227e+00
6.000000000000000000e+00 7.604006195068359375e+01 3.385771560668945312e+01 -1.747222423553466797e+00 5.133878588676452637e-01 -3.701503574848175049e-01 1.301683545112609863e+00
7.000000000000000000e+00 7.585131072998046875e+01 3.379454803466796875e+01 -1.967862725257873535e+00 1.017134547233581543e+00 -2.852184474468231201e-01 2.052436113357543945e+00
8.000000000000000000e+00 7.566255950927734375e+01 3.373137664794921875e+01 -3.233960151672363281e+00 2.973257601261138916e-01 -8.809903264045715332e-01 1.222792148590087891e+00
9.000000000000000000e+00 7.625267791748046875e+01 3.386758041381835938e+01 1.094054985046386719e+01 3.522262096405029297e+00 4.338843345642089844e+00 9.933366775512695312e+00
1.000000000000000000e+01 7.607984161376953125e+01 3.376887130737304688e+01 4.361551284790039062e+00 2.126367330551147461e+00 1.946375608444213867e+00 5.687170982360839844e+00
1.100000000000000000e+01 7.590699768066406250e+01 3.367016601562500000e+01 1.055727362632751465e+00 2.597608566284179688e+00 1.096000790596008301e+00 4.274847984313964844e+00
1.200000000000000000e+01 7.573415374755859375e+01 3.357145690917968750e+01 1.747368425130844116e-01 2.276613950729370117e+00 7.354052066802978516e-01 4.044467926025390625e+00
1.300000000000000000e+01 7.628646850585937500e+01 3.381993865966796875e+01 1.225912570953369141e+01 1.152787685394287109e+01 7.136100769042968750e+00 1.555149841308593750e+01
1.400000000000000000e+01 7.613614654541015625e+01 3.368947219848632812e+01 5.890913963317871094e+00 7.107559680938720703e+00 3.899542093276977539e+00 1.005688285827636719e+01
1.500000000000000000e+01 7.598583221435546875e+01 3.355900192260742188e+01 3.454801797866821289e+00 5.948407649993896484e+00 2.820962905883789062e+00 7.804977893829345703e+00
1.600000000000000000e+01 7.583551025390625000e+01 3.342853546142578125e+01 1.685338139533996582e+00 5.145812034606933594e+00 2.049345016479492188e+00 6.416316509246826172e+00
1.700000000000000000e+01 7.632888031005859375e+01 3.377978515625000000e+01 9.958691596984863281e+00 2.101740074157714844e+01 9.292827606201171875e+00 1.874110031127929688e+01
1.800000000000000000e+01 7.620683288574218750e+01 3.362255096435546875e+01 5.717567443847656250e+00 1.381155300140380859e+01 5.858736038208007812e+00 1.305315589904785156e+01
1.900000000000000000e+01 7.608479309082031250e+01 3.346531677246093750e+01 3.222104787826538086e+00 1.088420391082763672e+01 4.231892585754394531e+00 1.037386512756347656e+01
2.000000000000000000e+01 7.596275329589843750e+01 3.330807876586914062e+01 2.090316534042358398e+00 9.656297683715820312e+00 3.523984193801879883e+00 8.823879241943359375e+00
2.100000000000000000e+01 7.637829589843750000e+01 3.374865722656250000e+01 6.922004699707031250e+00 3.072723960876464844e+01 1.129477310180664062e+01 1.896546173095703125e+01
2.200000000000000000e+01 7.628919982910156250e+01 3.357067108154296875e+01 3.658266067504882812e+00 2.107345581054687500e+01 7.419517040252685547e+00 1.403039741516113281e+01
2.300000000000000000e+01 7.620010375976562500e+01 3.339268493652343750e+01 2.140661954879760742e+00 1.694828033447265625e+01 5.726682662963867188e+00 1.153499889373779297e+01
2.400000000000000000e+01 7.611100769042968750e+01 3.321469879150390625e+01 8.840366005897521973e-01 1.446444034576416016e+01 4.604543209075927734e+00 9.845813751220703125e+00
2.500000000000000000e+01 7.643283081054687500e+01 3.372774887084960938e+01 3.665768861770629883e+00 3.934540557861328125e+01 1.290335178375244141e+01 1.638446426391601562e+01
2.600000000000000000e+01 7.638008880615234375e+01 3.353582382202148438e+01 1.672441482543945312e+00 2.802929115295410156e+01 8.910519599914550781e+00 1.299949264526367188e+01
2.700000000000000000e+01 7.632734680175781250e+01 3.334389495849609375e+01 2.567472159862518311e-01 2.285327148437500000e+01 6.933005809783935547e+00 1.090044498443603516e+01
2.800000000000000000e+01 7.627460479736328125e+01 3.315196990966796875e+01 -6.301331520080566406e-01 1.983014297485351562e+01 5.760003089904785156e+00 9.469416618347167969e+00
2.900000000000000000e+01 7.649038696289062500e+01 3.371785354614257812e+01 1.859107375144958496e+00 4.586557769775390625e+01 1.431740570068359375e+01 1.184663391113281250e+01
3.000000000000000000e+01 7.647602081298828125e+01 3.351933288574218750e+01 1.607898920774459839e-01 3.377520751953125000e+01 1.018079853057861328e+01 1.013278102874755859e+01
3.100000000000000000e+01 7.646165466308593750e+01 3.332081222534179688e+01 -1.220906376838684082e+00 2.798540687561035156e+01 8.029350280761718750e+00 8.822425842285156250e+00
3.200000000000000000e+01 7.644728851318359375e+01 3.312229156494140625e+01 -1.871438145637512207e+00 2.448578834533691406e+01 6.784305095672607422e+00 7.761490345001220703e+00
3.300000000000000000e+01 7.654877471923828125e+01 3.371935653686523438e+01 2.127287626266479492e+00 4.976004791259765625e+01 1.556620025634765625e+01 6.212749481201171875e+00
3.400000000000000000e+01 7.657332611083984375e+01 3.352183532714843750e+01 -2.948813736438751221e-01 3.778656387329101562e+01 1.124750518798828125e+01 6.225912094116210938e+00
3.500000000000000000e+01 7.659788513183593750e+01 3.332431793212890625e+01 -1.556366682052612305e+00 3.167796134948730469e+01 9.036478042602539062e+00 5.610614776611328125e+00
3.600000000000000000e+01 7.662244415283203125e+01 3.312679672241210938e+01 -2.513854265213012695e+00 2.774514007568359375e+01 7.569385528564453125e+00 5.032159805297851562e+00
3.700000000000000000e+01 7.660575103759765625e+01 3.373219680786132812e+01 4.289874076843261719e+00 5.092694854736328125e+01 1.656504631042480469e+01 7.097191810607910156e-01
3.800000000000000000e+01 7.666828918457031250e+01 3.354323577880859375e+01 9.019798636436462402e-01 3.981189727783203125e+01 1.221416282653808594e+01 1.973673224449157715e+00
3.900000000000000000e+01 7.673082733154296875e+01 3.335427474975585938e+01 -8.343744277954101562e-01 3.367851638793945312e+01 9.853242874145507812e+00 1.937833666801452637e+00
4.000000000000000000e+01 7.679336547851562500e+01 3.316531372070312500e+01 -1.832453608512878418e+00 2.961772346496582031e+01 8.335580825805664062e+00 1.770390391349792480e+00
4.100000000000000000e+01 7.665913391113281250e+01 3.375588226318359375e+01 8.242732048034667969e+00 4.992595672607421875e+01 1.745060729980468750e+01 -3.704770326614379883e+00
4.200000000000000000e+01 7.675727081298828125e+01 3.358271408081054688e+01 3.385914325714111328e+00 3.987618637084960938e+01 1.297863006591796875e+01 -1.872516512870788574e+00
4.300000000000000000e+01 7.685540008544921875e+01 3.340954208374023438e+01 1.221312403678894043e+00 3.404170608520507812e+01 1.057890605926513672e+01 -1.432826638221740723e+00
4.400000000000000000e+01 7.695352935791015625e+01 3.323637390136718750e+01 -1.630816310644149780e-01 3.022798347473144531e+01 9.019471168518066406e+00 -1.343701481819152832e+00
4.500000000000000000e+01 7.670688629150390625e+01 3.378950881958007812e+01 1.296446037292480469e+01 4.739741134643554688e+01 1.810856056213378906e+01 -6.472643375396728516e+00
4.600000000000000000e+01 7.683686065673828125e+01 3.363875579833984375e+01 7.051652431488037109e+00 3.848587036132812500e+01 1.366125679016113281e+01 -4.624585628509521484e+00
4.700000000000000000e+01 7.696682739257812500e+01 3.348800277709960938e+01 4.111875534057617188e+00 3.300422668457031250e+01 1.113483047485351562e+01 -3.953420639038085938e+00
4.800000000000000000e+01 7.709678649902343750e+01 3.333724975585937500e+01 2.408706665039062500e+00 2.952204895019531250e+01 9.579226493835449219e+00 -3.519615411758422852e+00
4.900000000000000000e+01 7.674718475341796875e+01 3.383178710937500000e+01 1.792741394042968750e+01 4.438663482666015625e+01 1.869421386718750000e+01 -7.326955318450927734e+00
5.000000000000000000e+01 7.690401458740234375e+01 3.370922088623046875e+01 1.101234817504882812e+01 3.609791564941406250e+01 1.413307952880859375e+01 -5.973150253295898438e+00
5.100000000000000000e+01 7.706084442138671875e+01 3.358665466308593750e+01 7.626267910003662109e+00 3.118800354003906250e+01 1.164428138732910156e+01 -5.125440597534179688e+00
5.200000000000000000e+01 7.721766662597656250e+01 3.346409225463867188e+01 5.345871448516845703e+00 2.767469024658203125e+01 9.906168937683105469e+00 -4.625632762908935547e+00
5.300000000000000000e+01 7.677847290039062500e+01 3.388110351562500000e+01 2.211632728576660156e+01 4.142842102050781250e+01 1.906342506408691406e+01 -6.560261249542236328e+00
5.400000000000000000e+01 7.695616149902343750e+01 3.379141235351562500e+01 1.485280418395996094e+01 3.363878631591796875e+01 1.454747676849365234e+01 -5.689645290374755859e+00
5.500000000000000000e+01 7.713385009765625000e+01 3.370172500610351562e+01 1.087769031524658203e+01 2.895344161987304688e+01 1.194933986663818359e+01 -4.964210510253906250e+00
5.600000000000000000e+01 7.731153869628906250e+01 3.361203384399414062e+01 8.379912376403808594e+00 2.580333518981933594e+01 1.025497436523437500e+01 -4.557644844055175781e+00
5.700000000000000000e+01 7.679956817626953125e+01 3.393556594848632812e+01 2.516929244995117188e+01 3.927378082275390625e+01 1.933292198181152344e+01 -4.507028102874755859e+00
5.800000000000000000e+01 7.699131774902343750e+01 3.388218688964843750e+01 1.773755455017089844e+01 3.159309577941894531e+01 1.479919528961181641e+01 -4.064028739929199219e+00
5.900000000000000000e+01 7.718306732177734375e+01 3.382880401611328125e+01 1.349282455444335938e+01 2.711490440368652344e+01 1.218231868743896484e+01 -3.596454381942749023e+00
6.000000000000000000e+01 7.737481689453125000e+01 3.377542495727539062e+01 1.055708312988281250e+01 2.427722167968750000e+01 1.045029163360595703e+01 -3.286580324172973633e+00
6.100000000000000000e+01 7.680965423583984375e+01 3.399309539794921875e+01 2.667491912841796875e+01 3.826229095458984375e+01 1.948116302490234375e+01 -1.749059200286865234e+00
6.200000000000000000e+01 7.700812530517578125e+01 3.397806549072265625e+01 1.933761787414550781e+01 3.041370964050292969e+01 1.492539787292480469e+01 -1.528476119041442871e+00
6.300000000000000000e+01 7.720659637451171875e+01 3.396303558349609375e+01 1.480405139923095703e+01 2.625697517395019531e+01 1.231830787658691406e+01 -1.402933359146118164e+00
6.400000000000000000e+01 7.740506744384765625e+01 3.394800567626953125e+01 1.179365539550781250e+01 2.321967315673828125e+01 1.050399875640869141e+01 -1.188752532005310059e+00
6.500000000000000000e+01 7.680834197998046875e+01 3.405148315429687500e+01 2.658765602111816406e+01 3.839973449707031250e+01 1.949621772766113281e+01 1.327120184898376465e+00
6.600000000000000000e+01 7.700594329833984375e+01 3.407538223266601562e+01 1.922398185729980469e+01 3.055449295043945312e+01 1.493354225158691406e+01 1.155446767807006836e+00
6.700000000000000000e+01 7.720354461669921875e+01 3.409927749633789062e+01 1.481672000885009766e+01 2.629827117919921875e+01 1.233449745178222656e+01 1.163462162017822266e+00
6.800000000000000000e+01 7.740114593505859375e+01 3.412317657470703125e+01 1.178895664215087891e+01 2.336781311035156250e+01 1.054703044891357422e+01 9.975208640098571777e-01
6.900000000000000000e+01 7.679569244384765625e+01 3.410850143432617188e+01 2.487571334838867188e+01 3.956733322143554688e+01 1.933291435241699219e+01 3.869499921798706055e+00
7.000000000000000000e+01 7.698486328125000000e+01 3.417041015625000000e+01 1.758521842956542969e+01 3.199591636657714844e+01 1.487434101104736328e+01 3.632267951965332031e+00
7.100000000000000000e+01 7.717403411865234375e+01 3.423231887817382812e+01 1.335916042327880859e+01 2.731642723083496094e+01 1.220267581939697266e+01 3.148300647735595703e+00
7.200000000000000000e+01 7.736319732666015625e+01 3.429423141479492188e+01 1.059625911712646484e+01 2.448195457458496094e+01 1.052346420288085938e+01 3.005245447158813477e+00
7.300000000000000000e+01 7.677218627929687500e+01 3.416196823120117188e+01 2.178796005249023438e+01 4.224850463867187500e+01 1.921093940734863281e+01 5.700001239776611328e+00
7.400000000000000000e+01 7.694568634033203125e+01 3.425951766967773438e+01 1.459663105010986328e+01 3.383453750610351562e+01 1.452935028076171875e+01 4.962782382965087891e+00
7.500000000000000000e+01 7.711917877197265625e+01 3.435707092285156250e+01 1.082764148712158203e+01 2.951818847656250000e+01 1.210374927520751953e+01 4.360126018524169922e+00
7.600000000000000000e+01 7.729267120361328125e+01 3.445462417602539062e+01 8.377500534057617188e+00 2.590748214721679688e+01 1.028549480438232422e+01 3.975102424621582031e+00
7.700000000000000000e+01 7.673871612548828125e+01 3.420983123779296875e+01 1.746934509277343750e+01 4.462769699096679688e+01 1.862911224365234375e+01 6.225701808929443359e+00
7.800000000000000000e+01 7.688990020751953125e+01 3.433929443359375000e+01 1.099096298217773438e+01 3.688066864013671875e+01 1.436148929595947266e+01 4.837034702301025391e+00
7.900000000000000000e+01 7.704108428955078125e+01 3.446875762939453125e+01 7.567428588867187500e+00 3.116035079956054688e+01 1.161833381652832031e+01 4.336067199707031250e+00
8.000000000000000000e+01 7.719226837158203125e+01 3.459822082519531250e+01 5.548285484313964844e+00 2.829059410095214844e+01 1.015166378021240234e+01 3.766702413558959961e+00
8.100000000000000000e+01 7.669657135009765625e+01 3.425026702880859375e+01 1.311023998260498047e+01 4.816453552246093750e+01 1.838243293762207031e+01 4.753465652465820312e+00
8.200000000000000000e+01 7.681966400146484375e+01 3.440668487548828125e+01 6.888959884643554688e+00 3.849389648437500000e+01 1.361485671997070312e+01 3.505057096481323242e+00
8.300000000000000000e+01 7.694274902343750000e+01 3.456310272216796875e+01 4.565577507019042969e+00 3.352340698242187500e+01 1.142669486999511719e+01 2.567602157592773438e+00
8.400000000000000000e+01 7.706583404541015625e+01 3.471952056884765625e+01 2.545359134674072266e+00 2.922706222534179688e+01 9.531726837158203125e+00 2.707366943359375000e+00
8.500000000000000000e+01 7.664736175537109375e+01 3.428172302246093750e+01 8.154584884643554688e+00 4.986894607543945312e+01 1.740705871582031250e+01 1.956566691398620605e+00
8.600000000000000000e+01 7.673764801025390625e+01 3.445910644531250000e+01 4.145224571228027344e+00 4.007753753662109375e+01 1.326682853698730469e+01 2.152242511510848999e-01
8.700000000000000000e+01 7.682792663574218750e+01 3.463649749755859375e+01 1.405874490737915039e+00 3.391148376464843750e+01 1.059520721435546875e+01 2.831499278545379639e-01
8.800000000000000000e+01 7.691820526123046875e+01 3.481388854980468750e+01 8.084141016006469727e-01 3.036719512939453125e+01 9.352683067321777344e+00 -1.156547516584396362e-01
8.900000000000000000e+01 7.659297180175781250e+01 3.430299377441406250e+01 5.320296287536621094e+00 5.077705764770507812e+01 1.682920646667480469e+01 -2.819807529449462891e+00
9.000000000000000000e+01 7.664698791503906250e+01 3.449456405639648438e+01 1.498342037200927734e+00 3.934352874755859375e+01 1.225256156921386719e+01 -3.501667976379394531e+00
9.100000000000000000e+01 7.670101165771484375e+01 3.468613433837890625e+01 3.101462125778198242e-01 3.346818161010742188e+01 1.013349819183349609e+01 -3.339239835739135742e+00
9.200000000000000000e+01 7.675503540039062500e+01 3.487770462036132812e+01 -1.134526610374450684e+00 2.943917846679687500e+01 8.491395950317382812e+00 -2.914018154144287109e+00
9.300000000000000000e+01 7.653547668457031250e+01 3.431327056884765625e+01 3.252936601638793945e+00 4.887391281127929688e+01 1.563805389404296875e+01 -8.253363609313964844e+00
9.400000000000000000e+01 7.655117034912109375e+01 3.451169204711914062e+01 1.218838572502136230e+00 3.710179519653320312e+01 1.149619007110595703e+01 -7.770737171173095703e+00
9.500000000000000000e+01 7.656686401367187500e+01 3.471011352539062500e+01 -4.228983223438262939e-01 3.095652770996093750e+01 9.160089492797851562e+00 -6.774987220764160156e+00
9.600000000000000000e+01 7.658255004882812500e+01 3.490853500366210938e+01 -1.132458925247192383e+00 2.727084732055664062e+01 7.841516494750976562e+00 -6.114325046539306641e+00
9.700000000000000000e+01 7.647708129882812500e+01 3.431215667724609375e+01 3.857683420181274414e+00 4.459042358398437500e+01 1.453443145751953125e+01 -1.371864128112792969e+01
9.800000000000000000e+01 7.645384216308593750e+01 3.450983810424804688e+01 1.810061216354370117e+00 3.260417938232421875e+01 1.032427215576171875e+01 -1.136848735809326172e+01
9.900000000000000000e+01 7.643061065673828125e+01 3.470751571655273438e+01 5.170439481735229492e-01 2.703461456298828125e+01 8.265498161315917969e+00 -9.850722312927246094e+00
1.000000000000000000e+02 7.640737152099609375e+01 3.490519714355468750e+01 -4.201681017875671387e-01 2.355228233337402344e+01 6.939634323120117188e+00 -8.502643585205078125e+00
1.010000000000000000e+02 7.642002105712890625e+01 3.429969787597656250e+01 5.991610527038574219e+00 3.763053894042968750e+01 1.308664417266845703e+01 -1.783147048950195312e+01
1.020000000000000000e+02 7.635874938964843750e+01 3.448907089233398438e+01 3.781066656112670898e+00 2.661114692687988281e+01 9.117664337158203125e+00 -1.392490386962890625e+01
1.030000000000000000e+02 7.629747009277343750e+01 3.467844390869140625e+01 2.073287010192871094e+00 2.167445755004882812e+01 7.124323368072509766e+00 -1.148935699462890625e+01
1.040000000000000000e+02 7.623619079589843750e+01 3.486781692504882812e+01 1.119552373886108398e+00 1.874812889099121094e+01 5.960304260253906250e+00 -1.009890460968017578e+01
1.050000000000000000e+02 7.636648559570312500e+01 3.427636718750000000e+01 9.480873107910156250e+00 2.872574234008789062e+01 1.146198463439941406e+01 -1.991126823425292969e+01
1.060000000000000000e+02 7.626950836181640625e+01 3.445018768310546875e+01 5.921773433685302734e+00 1.965126037597656250e+01 7.671910285949707031e+00 -1.445895671844482422e+01
1.070000000000000000e+02 7.617253875732421875e+01 3.462400817871093750e+01 4.084419250488281250e+00 1.560712528228759766e+01 5.907463550567626953e+00 -1.186887168884277344e+01
1.080000000000000000e+02 7.607556152343750000e+01 3.479782867431640625e+01 2.583395481109619141e+00 1.346034812927246094e+01 4.813123226165771484e+00 -9.940929412841796875e+00
1.090000000000000000e+02 7.631850433349609375e+01 3.424306106567382812e+01 1.267160415649414062e+01 1.926898765563964844e+01 9.582178115844726562e+00 -1.899407196044921875e+01
1.100000000000000000e+02 7.618954467773437500e+01 3.439467620849609375e+01 7.794054985046386719e+00 1.230032253265380859e+01 6.028313159942626953e+00 -1.320452690124511719e+01
1.110000000000000000e+02 7.606059265136718750e+01 3.454629135131835938e+01 5.219326496124267578e+00 9.907783508300781250e+00 4.538133144378662109e+00 -1.025644302368164062e+01
1.120000000000000000e+02 7.593163299560546875e+01 3.469790649414062500e+01 3.761137008666992188e+00 8.407053947448730469e+00 3.650457143783569336e+00 -8.824035644531250000e+00
1.130000000000000000e+02 7.627793121337890625e+01 3.420104980468750000e+01 1.454665088653564453e+01 9.759906768798828125e+00 7.291967391967773438e+00 -1.538974285125732422e+01
1.140000000000000000e+02 7.612192535400390625e+01 3.432466125488281250e+01 7.818248271942138672e+00 6.270666122436523438e+00 4.226674556732177734e+00 -9.798638343811035156e+00
1.150000000000000000e+02 7.596591949462890625e+01 3.444826889038085938e+01 5.188593387603759766e+00 4.869719028472900391e+00 3.017493724822998047e+00 -7.679095745086669922e+00
1.160000000000000000e+02 7.580991363525390625e+01 3.457187652587890625e+01 3.370195150375366211e+00 4.719986915588378906e+00 2.427054643630981445e+00 -6.216467380523681641e+00
1.170000000000000000e+02 7.624631500244140625e+01 3.415194702148437500e+01 1.280223846435546875e+01 2.714582204818725586e+00 4.655046463012695312e+00 -9.433497428894042969e+00
1.180000000000000000e+02 7.606922149658203125e+01 3.424281692504882812e+01 5.831339836120605469e+00 1.347379803657531738e+00 2.153615951538085938e+00 -5.404852867126464844e+00
1.190000000000000000e+02 7.589213562011718750e+01 3.433369064331054688e+01 2.527914285659790039e+00 2.318626642227172852e+00 1.453962326049804688e+00 -4.167517662048339844e+00
1.200000000000000000e+02 7.571505737304687500e+01 3.442456054687500000e+01 1.707810878753662109e+00 1.777580857276916504e+00 1.045617461204528809e+00 -3.882840156555175781e+00
1.210000000000000000e+02 7.622486114501953125e+01 3.409762573242187500e+01 6.965471267700195312e+00 -2.879925727844238281e+00 1.225663661956787109e+00 -1.816321492195129395e+00
1.220000000000000000e+02 7.603347015380859375e+01 3.415228271484375000e+01 -6.351181268692016602e-01 5.214028358459472656e-01 -3.411458805203437805e-02 -1.362393260002136230e+00
1.230000000000000000e+02 7.584207916259765625e+01 3.420693969726562500e+01 -6.880564093589782715e-01 6.779794692993164062e-01 -3.023094031959772110e-03 -2.089742660522460938e+00
1.240000000000000000e+02 7.565069580078125000e+01 3.426159667968750000e+01 -1.904157400131225586e+00 3.123002648353576660e-01 -4.775571525096893311e-01 -1.258740663528442383e+00
1.250000000000000000e+02 7.621438598632812500e+01 3.404016494750976562e+01 -9.751110076904296875e+00 -2.528670549392700195e+00 -3.683934211730957031e+00 2.890872716903686523e+00
1.260000000000000000e+02 7.601602172851562500e+01 3.405651855468750000e+01 -5.016366481781005859e+00 9.147646427154541016e-01 -1.230480551719665527e+00 -8.117731809616088867e-01
1.270000000000000000e+02 7.581765747070312500e+01 3.407286834716796875e+01 -6.264337062835693359e+00 -3.522161245346069336e-01 -1.984966039657592773e+00 1.563343778252601624e-02
1.280000000000000000e+02 7.561928558349609375e+01 3.408922195434570312e+01 -6.413143634796142578e+00 1.696920990943908691e-01 -1.873035430908203125e+00 -1.623378843069076538e-01
1.290000000000000000e+02 5.662155914306640625e+01 3.460263824462890625e+01 -1.156779885292053223e+00 2.047644555568695068e-02 -3.408910334110260010e-01 7.959295064210891724e-03
1.300000000000000000e+02 5.648379135131835938e+01 3.387492752075195312e+01 -1.285784721374511719e+00 8.547952026128768921e-02 -3.600915372371673584e-01 -2.529696524143218994e-01
1.310000000000000000e+02 5.571845626831054688e+01 3.398872375488281250e+01 -1.026311755180358887e+00 9.654711931943893433e-02 -2.789293825626373291e-01 -2.808323800563812256e-01
1.320000000000000000e+02 5.801555252075195312e+01 3.365230941772460938e+01 -1.810504198074340820e+00 7.155389338731765747e-02 -5.216851234436035156e-01 -2.080276608467102051e-01
1.330000000000000000e+02 5.812237167358398438e+01 3.438455963134765625e+01 -1.810451149940490723e+00 3.723504953086376190e-03 -5.420182943344116211e-01 8.441171050071716309e-02
1.340000000000000000e+02 5.737181472778320312e+01 3.449321365356445312e+01 -1.473848819732666016e+00 1.339695695787668228e-02 -4.381355643272399902e-01 4.913184046745300293e-02
1.350000000000000000e+02 5.724952316284179688e+01 3.376323318481445312e+01 -1.550788521766662598e+00 8.641635626554489136e-02 -4.393116533756256104e-01 -2.316939234733581543e-01
1.360000000000000000e+02 5.587170028686523438e+01 3.471416091918945312e+01 -8.495945334434509277e-01 2.031230740249156952e-02 -2.487846761941909790e-01 -3.024247661232948303e-02
1.370000000000000000e+02 6.036611557006835938e+01 3.409850692749023438e+01 -2.760745763778686523e+00 -4.896862432360649109e-03 -8.296928405761718750e-01 1.656007468700408936e-01
1.380000000000000000e+02 6.028128051757812500e+01 3.336336135864257812e+01 -2.616417407989501953e+00 4.230391979217529297e-02 -7.722340226173400879e-01 -1.577591001987457275e-01
1.390000000000000000e+02 5.877515792846679688e+01 3.354987716674804688e+01 -2.073722362518310547e+00 5.990256369113922119e-02 -6.041459441184997559e-01 -1.814577281475067139e-01
1.400000000000000000e+02 6.103430938720703125e+01 3.327088928222656250e+01 -2.860778570175170898e+00 1.841990649700164795e-02 -8.527075648307800293e-01 -1.576830297708511353e-01
1.410000000000000000e+02 6.111344909667968750e+01 3.400674057006835938e+01 -3.132349014282226562e+00 -2.551492489874362946e-02 -9.473592042922973633e-01 1.739900112152099609e-01
1.420000000000000000e+02 5.961875534057617188e+01 3.419079971313476562e+01 -2.437118291854858398e+00 -1.933059422299265862e-03 -7.317153811454772949e-01 1.362399309873580933e-01
1.430000000000000000e+02 5.887139129638671875e+01 3.428361511230468750e+01 -2.133468389511108398e+00 -2.490798477083444595e-03 -6.407877206802368164e-01 1.105352044105529785e-01
1.440000000000000000e+02 5.952822113037109375e+01 3.345635986328125000e+01 -2.343265056610107422e+00 5.594922229647636414e-02 -6.861947774887084961e-01 -1.578730344772338867e-01
1.450000000000000000e+02 6.330451965332031250e+01 3.306448745727539062e+01 -3.646130561828613281e+00 4.539361223578453064e-03 -1.092477321624755859e+00 -1.603896468877792358e-01
1.460000000000000000e+02 6.254696655273437500e+01 3.312799835205078125e+01 -3.389639616012573242e+00 1.308566611260175705e-02 -1.012966156005859375e+00 -1.346557736396789551e-01
1.470000000000000000e+02 6.178956222534179688e+01 3.319244766235351562e+01 -3.115344047546386719e+00 1.288630533963441849e-03 -9.342166185379028320e-01 -1.405724585056304932e-01
1.480000000000000000e+02 6.406219482421875000e+01 3.300191879272460938e+01 -3.869712352752685547e+00 -1.725505478680133820e-02 -1.166090250015258789e+00 -1.774250119924545288e-01
1.490000000000000000e+02 6.336417388916015625e+01 3.380208206176757812e+01 -4.037402629852294922e+00 -6.568323820829391479e-03 -1.213191270828247070e+00 1.630245298147201538e-01
1.500000000000000000e+02 6.261327362060546875e+01 3.386503601074218750e+01 -3.728266716003417969e+00 -9.516482241451740265e-03 -1.121334910392761230e+00 1.534624844789505005e-01
1.510000000000000000e+02 6.411519622802734375e+01 3.374007415771484375e+01 -4.406094074249267578e+00 -3.028465248644351959e-02 -1.330913662910461426e+00 1.495560854673385620e-01
1.520000000000000000e+02 6.186252593994140625e+01 3.392892837524414062e+01 -3.459625482559204102e+00 -2.284987084567546844e-02 -1.044742584228515625e+00 1.593997031450271606e-01
1.530000000000000000e+02 6.486697387695312500e+01 3.368957138061523438e+01 -4.725437641143798828e+00 -2.441527694463729858e-02 -1.424955844879150391e+00 1.119352132081985474e-01
1.540000000000000000e+02 6.633953857421875000e+01 3.287319183349609375e+01 -4.598322391510009766e+00 -3.045910224318504333e-02 -1.388634443283081055e+00 -2.418033182621002197e-01
1.550000000000000000e+02 6.482070159912109375e+01 3.295096588134765625e+01 -4.107088088989257812e+00 -3.332382813096046448e-02 -1.242123603820800781e+00 -1.763964891433715820e-01
1.560000000000000000e+02 6.637224578857421875e+01 3.361248397827148438e+01 -5.301197052001953125e+00 -4.176529590040445328e-03 -1.591612100601196289e+00 7.938795536756515503e-02
1.570000000000000000e+02 6.709891510009765625e+01 3.283536529541015625e+01 -4.766858577728271484e+00 -6.257541477680206299e-02 -1.448830246925354004e+00 -2.735471427440643311e-01
1.580000000000000000e+02 6.712483215332031250e+01 3.357500457763671875e+01 -5.702447891235351562e+00 -4.448182135820388794e-02 -1.724078893661499023e+00 3.444631397724151611e-02
1.590000000000000000e+02 6.561961364746093750e+01 3.365067672729492188e+01 -4.984931945800781250e+00 -1.086680777370929718e-02 -1.498739600181579590e+00 8.659016340970993042e-02
1.600000000000000000e+02 6.558012390136718750e+01 3.291172790527343750e+01 -4.365090370178222656e+00 -1.414708141237497330e-02 -1.313771247863769531e+00 -1.900721043348312378e-01
1.610000000000000000e+02 6.861648559570312500e+01 3.280366134643554688e+01 -5.152880668640136719e+00 -3.828265890479087830e-02 -1.557349085807800293e+00 -2.869703769683837891e-01
1.620000000000000000e+02 6.785792541503906250e+01 3.281225585937500000e+01 -4.952537536621093750e+00 -7.824397832155227661e-02 -1.509234428405761719e+00 -2.721399366855621338e-01
1.630000000000000000e+02 7.013391113281250000e+01 3.278910827636718750e+01 -5.344828128814697266e+00 -4.291993379592895508e-02 -1.616324305534362793e+00 -3.308870196342468262e-01
1.640000000000000000e+02 6.938344573974609375e+01 3.353590011596679688e+01 -6.498486518859863281e+00 2.243122784420847893e-03 -1.948873043060302734e+00 -1.137052103877067566e-01
1.650000000000000000e+02 6.787760162353515625e+01 3.355209732055664062e+01 -6.014218807220458984e+00 -3.522754460573196411e-02 -1.814833879470825195e+00 -4.465389624238014221e-02
1.660000000000000000e+02 7.013650512695312500e+01 3.352912139892578125e+01 -6.830519676208496094e+00 -4.261357709765434265e-02 -2.061939954757690430e+00 -1.554028987884521484e-01
1.670000000000000000e+02 6.863047027587890625e+01 3.354356002807617188e+01 -6.223026275634765625e+00 -1.714922674000263214e-02 -1.872052669525146484e+00 -9.764913469552993774e-02
1.680000000000000000e+02 6.937515258789062500e+01 3.279594802856445312e+01 -5.281828403472900391e+00 -3.553308546543121338e-02 -1.595208525657653809e+00 -3.324398696422576904e-01
1.690000000000000000e+02 7.087440490722656250e+01 3.353315353393554688e+01 -7.106782913208007812e+00 -1.497473008930683136e-02 -2.136527299880981445e+00 -2.110614478588104248e-01
1.700000000000000000e+02 7.160675811767578125e+01 3.353734588623046875e+01 -7.330434799194335938e+00 -3.650156408548355103e-02 -2.210080862045288086e+00 -2.567206621170043945e-01
1.710000000000000000e+02 7.338658142089843750e+01 3.281220245361328125e+01 -4.384506225585937500e+00 1.556555330753326416e-01 -1.268655300140380859e+00 4.237562417984008789e-01
1.720000000000000000e+02 7.083835601806640625e+01 3.279272079467773438e+01 -5.397686958312988281e+00 -5.687863379716873169e-02 -1.636369705200195312e+00 -3.111844360828399658e-01
1.730000000000000000e+02 7.149811553955078125e+01 3.279612350463867188e+01 -5.298646926879882812e+00 -4.770341329276561737e-03 -1.591025233268737793e+00 -2.678829133510589600e-01
1.740000000000000000e+02 7.238622283935546875e+01 3.306055831909179688e+01 -5.783571243286132812e+00 1.617578789591789246e-02 -1.730218648910522461e+00 -1.776118427515029907e-01
1.750000000000000000e+02 7.340996551513671875e+01 3.336192321777343750e+01 -6.381379604339599609e+00 1.280489712953567505e-01 -1.875999212265014648e+00 -2.391317337751388550e-01
1.760000000000000000e+02 7.329413604736328125e+01 3.257842254638671875e+01 -3.661083221435546875e+00 4.027011990547180176e-01 -9.775146245956420898e-01 5.552181005477905273e-01
1.770000000000000000e+02 7.344010925292968750e+01 3.299953842163085938e+01 -4.985970497131347656e+00 1.610588431358337402e-01 -1.447473526000976562e+00 1.760532706975936890e-01
1.780000000000000000e+02 7.322244262695312500e+01 3.326321411132812500e+01 -6.161094188690185547e+00 1.592967063188552856e-01 -1.800539255142211914e+00 -1.359392255544662476e-01
1.790000000000000000e+02 7.322512817382812500e+01 3.379212570190429688e+01 -8.451282501220703125e+00 7.902113348245620728e-02 -2.511678218841552734e+00 -3.232064843177795410e-01
1.800000000000000000e+02 7.208077239990234375e+01 3.270937728881835938e+01 -4.919787883758544922e+00 2.941662631928920746e-02 -1.467111349105834961e+00 -1.497830003499984741e-01
1.810000000000000000e+02 7.335116577148437500e+01 3.355983352661132812e+01 -7.267634391784667969e+00 1.912679523229598999e-01 -2.122909784317016602e+00 -3.187628388404846191e-01
1.820000000000000000e+02 7.279718780517578125e+01 3.315304183959960938e+01 -6.142425060272216797e+00 -3.802503272891044617e-02 -1.854135036468505859e+00 -7.317953556776046753e-02
1.830000000000000000e+02 7.344499206542968750e+01 3.317506790161132812e+01 -5.629696846008300781e+00 1.329970508813858032e-01 -1.649009943008422852e+00 -8.520715683698654175e-02
1.840000000000000000e+02 7.310575866699218750e+01 3.340597915649414062e+01 -6.852036476135253906e+00 1.716577261686325073e-01 -2.004113674163818359e+00 -2.208475172519683838e-01
1.850000000000000000e+02 7.257090759277343750e+01 3.265188598632812500e+01 -4.313338279724121094e+00 2.265617102384567261e-01 -1.226032972335815430e+00 3.243328258395195007e-02
1.860000000000000000e+02 7.294407653808593750e+01 3.278470230102539062e+01 -4.466775417327880859e+00 2.031666040420532227e-01 -1.279082655906677246e+00 1.678847521543502808e-01
1.870000000000000000e+02 7.315903472900390625e+01 3.296448898315429688e+01 -5.186902523040771484e+00 1.010277047753334045e-01 -1.525762319564819336e+00 2.161860466003417969e-01
1.880000000000000000e+02 7.232447814941406250e+01 3.358622360229492188e+01 -7.625367641448974609e+00 -2.707330882549285889e-02 -2.295732259750366211e+00 -3.088324964046478271e-01
1.890000000000000000e+02 7.284705352783203125e+01 3.355030822753906250e+01 -7.638778209686279297e+00 -7.907960563898086548e-02 -2.315357208251953125e+00 -3.540659844875335693e-01
1.900000000000000000e+02 7.330381011962890625e+01 3.309941482543945312e+01 -5.524405956268310547e+00 1.111219897866249084e-01 -1.623985290527343750e+00 1.194161269813776016e-02
1.910000000000000000e+02 7.305236816406250000e+01 3.318701171875000000e+01 -6.114578247070312500e+00 1.091419681906700134e-01 -1.801630854606628418e+00 -1.413252949714660645e-02
1.920000000000000000e+02 7.786524963378906250e+01 3.414603042602539062e+01 7.528751850128173828e+00 1.906966400146484375e+01 7.979525089263916016e+00 7.064934968948364258e-01
1.930000000000000000e+02 7.657730102539062500e+01 3.537947463989257812e+01 -2.141038417816162109e+00 2.166088485717773438e+01 5.855953693389892578e+00 -5.135436534881591797e+00
1.940000000000000000e+02 7.677074432373046875e+01 3.510713577270507812e+01 -1.683843493461608887e+00 2.622119140625000000e+01 7.361204147338867188e+00 -3.093507289886474609e+00
1.950000000000000000e+02 7.708811187744140625e+01 3.293628692626953125e+01 -1.403982520103454590e+00 2.591249847412109375e+01 7.352554798126220703e+00 -9.426282048225402832e-01
1.960000000000000000e+02 7.462680053710937500e+01 3.381788635253906250e+01 -8.592260360717773438e+00 3.502288088202476501e-02 -2.567171096801757812e+00 -3.223034143447875977e-01
1.970000000000000000e+02 7.363761138916015625e+01 3.255916213989257812e+01 -3.240928888320922852e+00 8.549131155014038086e-01 -7.158047556877136230e-01 1.041905760765075684e+00
1.980000000000000000e+02 7.463229370117187500e+01 3.258088302612304688e+01 -1.773357033729553223e+00 2.353912115097045898e+00 1.741665452718734741e-01 2.688607454299926758e+00
1.990000000000000000e+02 7.472840881347656250e+01 3.303421401977539062e+01 -2.640915632247924805e+00 1.179885506629943848e+00 -4.383090436458587646e-01 1.864097714424133301e+00
2.000000000000000000e+02 7.604435729980468750e+01 3.265238571166992188e+01 -1.321408390998840332e+00 1.363849544525146484e+01 3.695126056671142578e+00 7.230886459350585938e+00
2.010000000000000000e+02 7.541703796386718750e+01 3.345840072631835938e+01 -1.748884201049804688e+00 1.552432298660278320e+00 -5.893558636307716370e-02 2.624566555023193359e+00
2.020000000000000000e+02 7.531494140625000000e+01 3.364696502685546875e+01 -4.529625415802001953e+00 2.681200206279754639e-01 -1.278451561927795410e+00 8.048756718635559082e-01
2.030000000000000000e+02 7.502864074707031250e+01 3.384962081909179688e+01 -8.265668869018554688e+00 -7.557647675275802612e-02 -2.502373695373535156e+00 -1.984287351369857788e-01
2.040000000000000000e+02 7.638888549804687500e+01 3.512503433227539062e+01 -9.424021244049072266e-01 2.123289299011230469e+01 6.087147235870361328e+00 -7.529951572418212891e+00
2.050000000000000000e+02 7.709442901611328125e+01 3.528516387939453125e+01 -1.680604934692382812e+00 2.438558387756347656e+01 6.811493873596191406e+00 2.541867792606353760e-01
2.060000000000000000e+02 7.753386688232421875e+01 3.478321075439453125e+01 3.681383371353149414e+00 2.335870552062988281e+01 8.112027168273925781e+00 3.617906808853149414e+00
2.070000000000000000e+02 7.787301635742187500e+01 3.395067214965820312e+01 7.378732204437255859e+00 1.893458557128906250e+01 7.893995761871337891e+00 -7.098251581192016602e-01
2.080000000000000000e+02 7.666358184814453125e+01 3.293886184692382812e+01 -2.842267274856567383e+00 2.550871849060058594e+01 6.799935340881347656e+00 4.322711944580078125e+00
2.090000000000000000e+02 7.359166717529296875e+01 3.534107208251953125e+01 -1.327675223350524902e+00 8.818756341934204102e-01 -1.337398737668991089e-01 -4.964799284934997559e-01
2.100000000000000000e+02 7.379469299316406250e+01 3.533804702758789062e+01 -1.180231094360351562e+00 7.747441530227661133e-01 -1.216460987925529480e-01 -6.882901191711425781e-01
2.110000000000000000e+02 7.440231323242187500e+01 3.532294464111328125e+01 -3.142382502555847168e-01 1.648277759552001953e+00 4.002118408679962158e-01 -1.885822892189025879e+00
2.120000000000000000e+02 7.480541992187500000e+01 3.412600326538085938e+01 -6.752266407012939453e+00 7.501940429210662842e-02 -2.003174066543579102e+00 -6.646638363599777222e-02
2.130000000000000000e+02 7.480088043212890625e+01 3.533421325683593750e+01 5.330448150634765625e-01 2.457623958587646484e+00 8.972005844116210938e-01 -3.055688858032226562e+00
2.140000000000000000e+02 7.598873901367187500e+01 3.536008453369140625e+01 1.721546351909637451e-01 1.332170104980468750e+01 4.048156738281250000e+00 -7.018146514892578125e+00
2.150000000000000000e+02 7.360820770263671875e+01 3.407493591308593750e+01 -6.644789218902587891e+00 -1.815092265605926514e-01 -2.047889471054077148e+00 -1.181903928518295288e-01
2.160000000000000000e+02 7.400952911376953125e+01 3.508988952636718750e+01 -1.678858041763305664e+00 5.871282815933227539e-01 -3.275189399719238281e-01 -7.035637497901916504e-01
2.170000000000000000e+02 7.360335540771484375e+01 3.490573883056640625e+01 -2.676578760147094727e+00 2.111623734235763550e-01 -7.396249175071716309e-01 -6.788887083530426025e-02
2.180000000000000000e+02 7.500730895996093750e+01 3.413088989257812500e+01 -6.700450420379638672e+00 -4.095224663615226746e-03 -2.011363744735717773e+00 -1.171612367033958435e-01
2.190000000000000000e+02 7.551480865478515625e+01 3.452957534790039062e+01 6.907780766487121582e-01 1.527340292930603027e+00 6.654354929924011230e-01 -3.099413871765136719e+00
2.200000000000000000e+02 7.541773223876953125e+01 3.410750579833984375e+01 -6.554475784301757812e+00 -4.578131809830665588e-02 -1.980077147483825684e+00 -5.797173827886581421e-02
2.210000000000000000e+02 7.757466888427734375e+01 3.433840942382812500e+01 8.674532890319824219e+00 2.193180465698242188e+01 9.181900978088378906e+00 2.555476188659667969e+00
2.220000000000000000e+02 7.736102294921875000e+01 3.471842193603515625e+01 4.239196300506591797e+00 2.516731834411621094e+01 8.821954727172851562e+00 3.732917547225952148e+00
2.230000000000000000e+02 7.695268249511718750e+01 3.514461135864257812e+01 -1.289518594741821289e+00 2.608113670349121094e+01 7.437485694885253906e+00 -1.121721863746643066e+00
2.240000000000000000e+02 7.706355285644531250e+01 3.499312591552734375e+01 -7.033722996711730957e-01 2.701676940917968750e+01 7.894019126892089844e+00 5.134071111679077148e-01
2.250000000000000000e+02 7.619488525390625000e+01 3.509756088256835938e+01 3.282633721828460693e-01 1.734140586853027344e+01 5.300900459289550781e+00 -8.512829780578613281e+00
2.260000000000000000e+02 7.544730377197265625e+01 3.432339096069335938e+01 -2.314938306808471680e+00 3.647183179855346680e-01 -5.850660204887390137e-01 -1.278217077255249023e+00
2.270000000000000000e+02 7.543014526367187500e+01 3.388210678100585938e+01 -7.864634037017822266e+00 -1.033367216587066650e-01 -2.390391349792480469e+00 -2.540652453899383545e-01
2.280000000000000000e+02 7.567262268066406250e+01 3.333047485351562500e+01 7.928825020790100098e-01 4.185122966766357422e+00 1.493401646614074707e+00 5.683294773101806641e+00
2.290000000000000000e+02 7.624556732177734375e+01 3.292221832275390625e+01 -1.156206250190734863e+00 1.800151634216308594e+01 5.053592681884765625e+00 8.169056892395019531e+00
2.300000000000000000e+02 7.701654052734375000e+01 3.282289505004882812e+01 -2.485900402069091797e+00 2.482069396972656250e+01 6.700438022613525391e+00 3.323443233966827393e-01
2.310000000000000000e+02 7.382909393310546875e+01 3.299963378906250000e+01 -4.415382862091064453e+00 3.781614303588867188e-01 -1.211166381835937500e+00 4.831870794296264648e-01
2.320000000000000000e+02 7.361897277832031250e+01 3.339808273315429688e+01 -6.413860797882080078e+00 2.410982968285679817e-03 -1.923434972763061523e+00 -2.482745498418807983e-01
2.330000000000000000e+02 7.361869049072265625e+01 3.360828018188476562e+01 -7.524874210357666016e+00 -1.918235272169113159e-01 -2.315009355545043945e+00 -2.296922653913497925e-01
2.340000000000000000e+02 7.381964874267578125e+01 3.359903335571289062e+01 -7.536567211151123047e+00 -3.141777589917182922e-02 -2.270395517349243164e+00 -1.748990118503570557e-01
2.350000000000000000e+02 7.361565399169921875e+01 3.382291793823242188e+01 -8.869827270507812500e+00 -1.855992227792739868e-01 -2.716628074645996094e+00 -1.853203028440475464e-01
2.360000000000000000e+02 7.760252380371093750e+01 3.375914764404296875e+01 8.583997726440429688e+00 2.164750099182128906e+01 9.069449424743652344e+00 -2.667490482330322266e+00
2.370000000000000000e+02 7.561849975585937500e+01 3.472000503540039062e+01 2.299325704574584961e+00 3.759632349014282227e+00 1.817687511444091797e+00 -5.463032245635986328e+00
2.380000000000000000e+02 7.601230621337890625e+01 3.505040359497070312e+01 1.598548650741577148e+00 1.307126998901367188e+01 4.400945663452148438e+00 -8.664955139160156250e+00
2.390000000000000000e+02 7.739596557617187500e+01 3.505987548828125000e+01 2.889993786811828613e-01 2.368531799316406250e+01 7.192295074462890625e+00 2.140275478363037109e+00
2.400000000000000000e+02 7.658431243896484375e+01 3.512782669067382812e+01 -1.806250691413879395e+00 2.438322067260742188e+01 6.773090839385986328e+00 -5.438703536987304688e+00
2.410000000000000000e+02 7.618176269531250000e+01 3.537059402465820312e+01 -7.084650397300720215e-01 1.648695755004882812e+01 4.733547687530517578e+00 -7.025865077972412109e+00
2.420000000000000000e+02 7.767555236816406250e+01 3.483369064331054688e+01 4.232522010803222656e+00 2.165133476257324219e+01 7.765156745910644531e+00 3.332672834396362305e+00
2.430000000000000000e+02 7.521208190917968750e+01 3.412404251098632812e+01 -6.616308689117431641e+00 -1.418731547892093658e-02 -1.989148736000061035e+00 -1.024426817893981934e-01
2.440000000000000000e+02 7.559822082519531250e+01 3.535704421997070312e+01 1.499714612960815430e+00 7.677678585052490234e+00 2.753217935562133789e+00 -6.224041461944580078e+00
2.450000000000000000e+02 7.676522827148437500e+01 3.536531066894531250e+01 -2.432369947433471680e+00 2.285811424255371094e+01 6.127723217010498047e+00 -3.273236751556396484e+00
2.460000000000000000e+02 7.645401763916015625e+01 3.290373229980468750e+01 -2.398984193801879883e+00 2.221780586242675781e+01 5.945646286010742188e+00 6.551211357116699219e+00
2.470000000000000000e+02 7.605548095703125000e+01 3.296284484863281250e+01 -7.624776661396026611e-02 1.380226039886474609e+01 4.117803573608398438e+00 8.621480941772460938e+00
2.480000000000000000e+02 7.466719055175781250e+01 3.278217315673828125e+01 -1.826918125152587891e+00 1.836612820625305176e+00 2.908395137637853622e-03 2.459345579147338867e+00
2.490000000000000000e+02 7.561045074462890625e+01 3.288998794555664062e+01 5.664363503456115723e-02 6.673381805419921875e+00 2.019007682800292969e+00 6.227081298828125000e+00
2.500000000000000000e+02 7.737777709960937500e+01 3.331848526000976562e+01 3.644746303558349609e+00 2.528117752075195312e+01 8.677777290344238281e+00 -4.386546611785888672e+00
2.510000000000000000e+02 7.705243682861328125e+01 3.307651901245117188e+01 -8.040841221809387207e-01 2.748461151123046875e+01 8.004158020019531250e+00 -1.320483565330505371e+00
2.520000000000000000e+02 7.723452758789062500e+01 3.317649459838867188e+01 1.189648747444152832e+00 2.650413703918457031e+01 8.308135986328125000e+00 -3.331119298934936523e+00
2.530000000000000000e+02 7.666394805908203125e+01 3.263318252563476562e+01 -3.211695909500122070e+00 2.232342147827148438e+01 5.733517646789550781e+00 3.938650369644165039e+00
2.540000000000000000e+02 7.764044952392578125e+01 3.357733154296875000e+01 6.566416263580322266e+00 2.179095077514648438e+01 8.507209777832031250e+00 -3.638872146606445312e+00
2.550000000000000000e+02 7.784032440185546875e+01 3.358774566650390625e+01 6.121887207031250000e+00 1.940686035156250000e+01 7.658624649047851562e+00 -2.846159219741821289e+00
2.560000000000000000e+02 7.723959350585937500e+01 3.518107604980468750e+01 -6.903757452964782715e-01 2.500389671325683594e+01 7.294056415557861328e+00 1.177187323570251465e+00
2.570000000000000000e+02 7.783231353759765625e+01 3.434603118896484375e+01 6.752586364746093750e+00 1.938266754150390625e+01 7.840576171875000000e+00 2.293670177459716797e+00
2.580000000000000000e+02 7.778132629394531250e+01 3.343446350097656250e+01 4.550693035125732422e+00 2.081414985656738281e+01 7.609452724456787109e+00 -3.732084035873413086e+00
2.590000000000000000e+02 7.786024475097656250e+01 3.376306533813476562e+01 6.616115093231201172e+00 1.891048622131347656e+01 7.657980442047119141e+00 -2.162780284881591797e+00
2.600000000000000000e+02 7.762149810791015625e+01 3.394531631469726562e+01 9.597404479980468750e+00 2.100086402893066406e+01 9.179480552673339844e+00 -1.034752964973449707e+00
2.610000000000000000e+02 7.699589538574218750e+01 3.265480041503906250e+01 -2.959318399429321289e+00 2.317262077331542969e+01 6.063991069793701172e+00 8.638241887092590332e-01
2.620000000000000000e+02 7.727661895751953125e+01 3.286160278320312500e+01 -1.215263485908508301e+00 2.427641487121582031e+01 6.918345451354980469e+00 -2.055811882019042969e+00
2.630000000000000000e+02 7.755358123779296875e+01 3.494981002807617188e+01 3.251174211502075195e+00 2.322761535644531250e+01 7.943636894226074219e+00 3.006986141204833984e+00
2.640000000000000000e+02 7.722295379638671875e+01 3.487734222412109375e+01 2.100955009460449219e+00 2.679061508178710938e+01 8.667470932006835938e+00 2.284446477890014648e+00
2.650000000000000000e+02 7.776425933837890625e+01 3.468420791625976562e+01 4.297478675842285156e+00 2.054535102844238281e+01 7.452848911285400391e+00 2.997992753982543945e+00
2.660000000000000000e+02 7.748233795166015625e+01 3.453200531005859375e+01 6.810296535491943359e+00 2.355018424987792969e+01 9.108144760131835938e+00 3.619160652160644531e+00
2.670000000000000000e+02 7.694055938720703125e+01 3.534487152099609375e+01 -2.484511613845825195e+00 2.393935966491699219e+01 6.436454296112060547e+00 -1.880436301231384277e+00
2.680000000000000000e+02 7.749060058593750000e+01 3.346916961669921875e+01 5.907850265502929688e+00 2.366560745239257812e+01 8.872036933898925781e+00 -4.246039390563964844e+00
2.690000000000000000e+02 7.755928039550781250e+01 3.314416885375976562e+01 2.153125286102294922e+00 2.307081222534179688e+01 7.567181110382080078e+00 -4.089478492736816406e+00
2.700000000000000000e+02 7.684169769287109375e+01 3.261683654785156250e+01 -3.291854381561279297e+00 2.310516548156738281e+01 5.943993091583251953e+00 2.367777109146118164e+00
2.710000000000000000e+02 7.638034820556640625e+01 3.537952804565429688e+01 -1.662490248680114746e+00 1.966236495971679688e+01 5.399961948394775391e+00 -6.290545463562011719e+00
2.720000000000000000e+02 7.539926910400390625e+01 3.535245895385742188e+01 1.314818859100341797e+00 5.930194377899169922e+00 2.173504114151000977e+00 -5.453228473663330078e+00
2.730000000000000000e+02 7.443542480468750000e+01 3.501981353759765625e+01 -1.160098671913146973e+00 9.129634499549865723e-01 -7.414057105779647827e-02 -1.357387185096740723e+00
2.740000000000000000e+02 7.360083007812500000e+01 3.428376388549804688e+01 -5.502088069915771484e+00 -3.410321846604347229e-02 -1.660857439041137695e+00 9.075903147459030151e-02
2.750000000000000000e+02 7.503933715820312500e+01 3.503343963623046875e+01 6.128419637680053711e-01 2.340208053588867188e+00 8.859149813652038574e-01 -3.156618833541870117e+00
2.760000000000000000e+02 7.360208892822265625e+01 3.448785400390625000e+01 -4.436622142791748047e+00 1.156908124685287476e-01 -1.296279430389404297e+00 1.550163179636001587e-01
2.770000000000000000e+02 7.413851928710937500e+01 3.440343093872070312e+01 -4.702345371246337891e+00 5.185469985008239746e-02 -1.395147204399108887e+00 -7.969270646572113037e-02
2.780000000000000000e+02 7.524291992187500000e+01 3.506239700317382812e+01 1.096912741661071777e+00 3.139220476150512695e+00 1.270839929580688477e+00 -4.115476131439208984e+00
2.790000000000000000e+02 7.579544067382812500e+01 3.535782241821289062e+01 1.036324262619018555e+00 1.054925918579101562e+01 3.475674867630004883e+00 -6.977285861968994141e+00
2.800000000000000000e+02 7.439711761474609375e+01 3.412527847290039062e+01 -6.752139091491699219e+00 2.215101197361946106e-02 -2.018996477127075195e+00 -8.758720755577087402e-02
2.810000000000000000e+02 7.437260437011718750e+01 3.442041778564453125e+01 -4.530842781066894531e+00 6.982551515102386475e-02 -1.338305234909057617e+00 -8.461487293243408203e-02
2.820000000000000000e+02 7.384052276611328125e+01 3.279026031494140625e+01 -3.651739120483398438e+00 6.237583160400390625e-01 -9.083942770957946777e-01 8.838515877723693848e-01
2.830000000000000000e+02 7.445801544189453125e+01 3.283623504638671875e+01 -2.418907642364501953e+00 1.169488430023193359e+00 -3.748257756233215332e-01 1.803305864334106445e+00
2.840000000000000000e+02 7.422615051269531250e+01 3.380753326416015625e+01 -8.611636161804199219e+00 -1.986691914498806000e-02 -2.589450836181640625e+00 -3.361543118953704834e-01
2.850000000000000000e+02 7.381812286376953125e+01 3.382172775268554688e+01 -8.700392723083496094e+00 3.413663059473037720e-02 -2.599876880645751953e+00 -3.111107647418975830e-01
2.860000000000000000e+02 7.645658874511718750e+01 3.264910125732421875e+01 -2.739846706390380859e+00 2.013718032836914062e+01 5.219200134277343750e+00 5.673217296600341797e+00
2.870000000000000000e+02 7.676555633544921875e+01 3.280256271362304688e+01 -3.084548234939575195e+00 2.440679740905761719e+01 6.396675109863281250e+00 3.164046287536621094e+00
2.880000000000000000e+02 7.584149169921875000e+01 3.294820404052734375e+01 2.310207635164260864e-01 9.968668937683105469e+00 3.059906959533691406e+00 7.677719116210937500e+00
2.890000000000000000e+02 7.584328460693359375e+01 3.264742660522460938e+01 -6.073372960090637207e-01 1.127796649932861328e+01 3.201188564300537109e+00 7.197563648223876953e+00
2.900000000000000000e+02 7.624381256103515625e+01 3.264885330200195312e+01 -2.144264936447143555e+00 1.703739929199218750e+01 4.467940330505371094e+00 6.890450000762939453e+00
2.910000000000000000e+02 7.480811309814453125e+01 3.260687255859375000e+01 -1.413465619087219238e+00 2.832550048828125000e+00 4.257253408432006836e-01 3.237556934356689453e+00
2.920000000000000000e+02 7.522079467773437500e+01 3.262216567993164062e+01 -5.319042205810546875e-01 4.655592441558837891e+00 1.237106561660766602e+00 4.811630725860595703e+00
2.930000000000000000e+02 7.563517761230468750e+01 3.263334274291992188e+01 -2.214112877845764160e-01 8.600830078125000000e+00 2.513825416564941406e+00 6.534912109375000000e+00
2.940000000000000000e+02 7.423152160644531250e+01 3.351956939697265625e+01 -6.423329353332519531e+00 8.580566942691802979e-02 -1.901257038116455078e+00 3.720153868198394775e-02
2.950000000000000000e+02 7.424549102783203125e+01 3.258663940429687500e+01 -2.126168251037597656e+00 1.316646575927734375e+00 -2.428565025329589844e-01 1.882836818695068359e+00
2.960000000000000000e+02 7.404411315917968750e+01 3.257858657836914062e+01 -2.572749376296997070e+00 1.084414005279541016e+00 -4.465005993843078613e-01 1.587903738021850586e+00
2.970000000000000000e+02 7.384091186523437500e+01 3.256882095336914062e+01 -2.958956480026245117e+00 8.063406348228454590e-01 -6.457847952842712402e-01 1.174127340316772461e+00
2.980000000000000000e+02 7.542822265625000000e+01 3.262289428710937500e+01 -3.341889679431915283e-01 6.124573230743408203e+00 1.737115263938903809e+00 5.475553035736083984e+00
2.990000000000000000e+02 7.360601043701171875e+01 3.469270324707031250e+01 -3.520329475402832031e+00 1.117967367172241211e-01 -1.022559881210327148e+00 -4.288229625672101974e-03
3.000000000000000000e+02 7.399764251708984375e+01 3.409572982788085938e+01 -6.708171844482421875e+00 -6.060935556888580322e-02 -2.030634403228759766e+00 -4.033049568533897400e-02
3.010000000000000000e+02 7.419409942626953125e+01 3.411712646484375000e+01 -6.752340316772460938e+00 4.434901475906372070e-02 -2.012397289276123047e+00 -4.543849453330039978e-02
3.020000000000000000e+02 7.362834167480468750e+01 3.298307037353515625e+01 -4.705461502075195312e+00 2.906476855278015137e-01 -1.324444174766540527e+00 2.906574308872222900e-01
3.030000000000000000e+02 7.543750000000000000e+01 3.508162689208984375e+01 1.766693830490112305e+00 4.956927299499511719e+00 2.017086267471313477e+00 -5.282115936279296875e+00
3.040000000000000000e+02 7.548493194580078125e+01 3.368502426147460938e+01 -3.985374450683593750e+00 5.467417240142822266e-01 -1.031589865684509277e+00 1.106594800949096680e+00
3.050000000000000000e+02 7.523525238037109375e+01 3.386157226562500000e+01 -8.055768013000488281e+00 3.156165406107902527e-02 -2.407261848449707031e+00 -2.400486916303634644e-01
3.060000000000000000e+02 7.420020294189453125e+01 3.532750320434570312e+01 -7.197743058204650879e-01 1.174210667610168457e+00 1.363309174776077271e-01 -1.403005242347717285e+00
3.070000000000000000e+02 7.399698638916015625e+01 3.533399963378906250e+01 -9.763814806938171387e-01 1.011894226074218750e+00 1.065382733941078186e-02 -1.018555045127868652e+00
3.080000000000000000e+02 7.464055633544921875e+01 3.503853225708007812e+01 -6.853836178779602051e-01 1.199649214744567871e+00 1.542796641588211060e-01 -1.759531736373901367e+00
3.090000000000000000e+02 7.575653839111328125e+01 3.486138916015625000e+01 2.634091854095458984e+00 7.281850337982177734e+00 2.974782705307006836e+00 -7.189487457275390625e+00
3.100000000000000000e+02 7.460148620605468750e+01 3.532827758789062500e+01 1.203060671687126160e-01 1.838883042335510254e+00 5.877567529678344727e-01 -2.451143026351928711e+00
3.110000000000000000e+02 7.440719604492187500e+01 3.471751403808593750e+01 -2.409419059753417969e+00 3.794724345207214355e-01 -6.089839339256286621e-01 -6.861806511878967285e-01
3.120000000000000000e+02 7.499516296386718750e+01 3.442432022094726562e+01 -3.162334203720092773e+00 2.080628871917724609e-01 -8.862814307212829590e-01 -6.765487194061279297e-01
3.130000000000000000e+02 7.402228546142578125e+01 3.381671524047851562e+01 -8.648217201232910156e+00 -5.035826563835144043e-02 -2.609572649002075195e+00 -3.004960417747497559e-01
3.140000000000000000e+02 7.444281768798828125e+01 3.258949661254882812e+01 -1.833749175071716309e+00 1.870149016380310059e+00 1.091992761939764023e-02 2.295451641082763672e+00
3.150000000000000000e+02 7.359857940673828125e+01 3.512283706665039062e+01 -1.967921614646911621e+00 5.050759315490722656e-01 -4.388537108898162842e-01 -2.625096142292022705e-01
3.160000000000000000e+02 7.382769012451171875e+01 3.465342330932617188e+01 -3.643579721450805664e+00 1.254934817552566528e-01 -1.055425882339477539e+00 -2.808046340942382812e-02
3.170000000000000000e+02 7.363465881347656250e+01 3.277325439453125000e+01 -3.915963649749755859e+00 5.807498097419738770e-01 -1.000564217567443848e+00 6.354863643646240234e-01
3.180000000000000000e+02 7.477833557128906250e+01 3.482125473022460938e+01 -1.218853950500488281e+00 9.133426547050476074e-01 -9.165339916944503784e-02 -1.581036567687988281e+00
3.190000000000000000e+02 7.421612548828125000e+01 3.505903244018554688e+01 -1.406131982803344727e+00 7.326212525367736816e-01 -2.020532041788101196e-01 -9.957837462425231934e-01
3.200000000000000000e+02 7.394496917724609375e+01 3.432498168945312500e+01 -5.262801170349121094e+00 7.434074580669403076e-02 -1.556538105010986328e+00 9.041327983140945435e-03
3.210000000000000000e+02 7.478324127197265625e+01 3.440183258056640625e+01 -3.838827371597290039e+00 1.785140186548233032e-01 -1.098093986511230469e+00 -5.158357620239257812e-01
3.220000000000000000e+02 7.465152740478515625e+01 3.461444473266601562e+01 -2.452560663223266602e+00 3.165573477745056152e-01 -6.408010125160217285e-01 -7.423599958419799805e-01
3.230000000000000000e+02 7.467776489257812500e+01 3.352228927612304688e+01 -5.547381877899169922e+00 2.280720025300979614e-01 -1.595793008804321289e+00 2.790171802043914795e-01
3.240000000000000000e+02 7.578355407714843750e+01 3.317535018920898438e+01 1.032874941825866699e+00 7.451258659362792969e+00 2.545240163803100586e+00 7.378183364868164062e+00
3.250000000000000000e+02 7.540080261230468750e+01 3.286659240722656250e+01 -1.244809478521347046e-01 5.025006771087646484e+00 1.470157742500305176e+00 5.199638366699218750e+00
3.260000000000000000e+02 7.519368743896484375e+01 3.287320327758789062e+01 -6.317341923713684082e-01 3.446475982666015625e+00 8.444225192070007324e-01 4.123569965362548828e+00
3.270000000000000000e+02 7.527816009521484375e+01 3.464817428588867188e+01 5.938728898763656616e-02 1.335160136222839355e+00 4.183641970157623291e-01 -2.637864112854003906e+00
3.280000000000000000e+02 7.557009887695312500e+01 3.350081253051757812e+01 -9.567863345146179199e-01 1.670435428619384766e+00 2.140947133302688599e-01 3.163299798965454102e+00
3.290000000000000000e+02 7.518312072753906250e+01 3.356978607177734375e+01 -4.481092453002929688e+00 3.561635613441467285e-01 -1.237478613853454590e+00 8.877028226852416992e-01
3.300000000000000000e+02 7.506691741943359375e+01 3.328215408325195312e+01 -2.699497222900390625e+00 1.283270120620727539e+00 -4.248681068420410156e-01 1.991765975952148438e+00
3.310000000000000000e+02 7.522624206542968750e+01 3.438455200195312500e+01 -2.716698408126831055e+00 2.914604544639587402e-01 -7.275713682174682617e-01 -9.637105464935302734e-01
3.320000000000000000e+02 7.424209594726562500e+01 3.309772109985351562e+01 -4.219727993011474609e+00 3.837516903877258301e-01 -1.150792956352233887e+00 7.258830070495605469e-01
3.330000000000000000e+02 7.481492614746093750e+01 3.327699279785156250e+01 -3.499210834503173828e+00 6.787993311882019043e-01 -8.461233973503112793e-01 1.347981929779052734e+00
3.340000000000000000e+02 7.399311828613281250e+01 3.338041305541992188e+01 -6.118051052093505859e+00 3.853701800107955933e-02 -1.823854207992553711e+00 -1.975281909108161926e-02
3.350000000000000000e+02 7.404906463623046875e+01 3.281232833862304688e+01 -3.328655481338500977e+00 6.267558336257934570e-01 -8.105698823928833008e-01 9.816537499427795410e-01
3.360000000000000000e+02 7.381302642822265625e+01 3.319802474975585938e+01 -5.258881092071533203e+00 1.647986471652984619e-01 -1.528224706649780273e+00 1.077201887965202332e-01
3.370000000000000000e+02 7.362179565429687500e+01 3.319054794311523438e+01 -5.484457015991210938e+00 1.033451333642005920e-01 -1.614333629608154297e+00 -2.199425734579563141e-02
3.380000000000000000e+02 7.399497222900390625e+01 3.321810150146484375e+01 -4.987415790557861328e+00 1.864740997552871704e-01 -1.440282583236694336e+00 3.147596716880798340e-01
3.390000000000000000e+02 7.425543975830078125e+01 3.283444976806640625e+01 -2.900971174240112305e+00 9.062615633010864258e-01 -5.984128713607788086e-01 1.361093521118164062e+00
3.400000000000000000e+02 7.500403594970703125e+01 3.263288879394531250e+01 -9.607847929000854492e-01 3.467419624328613281e+00 7.519904971122741699e-01 3.882863759994506836e+00
3.410000000000000000e+02 7.380572509765625000e+01 3.510718536376953125e+01 -1.818916678428649902e+00 6.166839003562927246e-01 -3.606698215007781982e-01 -5.485568046569824219e-01
3.420000000000000000e+02 7.418824005126953125e+01 3.480582809448242188e+01 -2.505662202835083008e+00 3.407169580459594727e-01 -6.494835615158081055e-01 -5.514566898345947266e-01
3.430000000000000000e+02 7.381275939941406250e+01 3.488019943237304688e+01 -2.527325391769409180e+00 3.185769021511077881e-01 -6.626245379447937012e-01 -2.874636650085449219e-01
3.440000000000000000e+02 7.500107574462890625e+01 3.533562469482421875e+01 9.441510438919067383e-01 3.299956321716308594e+00 1.273232221603393555e+00 -3.699851751327514648e+00
3.450000000000000000e+02 7.482849884033203125e+01 3.505892562866210938e+01 1.311820149421691895e-01 1.624078512191772461e+00 5.265781879425048828e-01 -2.444869518280029297e+00
3.460000000000000000e+02 7.519960021972656250e+01 3.534410095214843750e+01 1.255361557006835938e+00 4.346612930297851562e+00 1.680592417716979980e+00 -4.390001296997070312e+00
3.470000000000000000e+02 7.563059234619140625e+01 3.508398818969726562e+01 1.873275876045227051e+00 6.613676548004150391e+00 2.546085596084594727e+00 -6.345351219177246094e+00
3.480000000000000000e+02 7.763727569580078125e+01 3.461074829101562500e+01 5.785191535949707031e+00 2.191169548034667969e+01 8.309065818786621094e+00 3.592834711074829102e+00
3.490000000000000000e+02 7.780862426757812500e+01 3.452779388427734375e+01 6.592856884002685547e+00 1.956366157531738281e+01 7.846955299377441406e+00 2.829561471939086914e+00
3.500000000000000000e+02 7.380377197265625000e+01 3.445678329467773438e+01 -4.513785839080810547e+00 -1.582236588001251221e-02 -1.358882546424865723e+00 3.475771844387054443e-02
3.510000000000000000e+02 7.380379486083984375e+01 3.407938003540039062e+01 -6.645447731018066406e+00 7.805335521697998047e-02 -1.970218300819396973e+00 -3.951466828584671021e-02
3.520000000000000000e+02 7.378202819824218750e+01 3.427969741821289062e+01 -5.688455581665039062e+00 -6.600177288055419922e-02 -1.726337313652038574e+00 2.509580692276358604e-03
3.530000000000000000e+02 7.402307128906250000e+01 3.357645797729492188e+01 -7.173207283020019531e+00 -6.871272809803485870e-03 -2.154023647308349609e+00 -1.807374954223632812e-01
3.540000000000000000e+02 7.445924377441406250e+01 3.347556304931640625e+01 -5.748747825622558594e+00 1.323351114988327026e-01 -1.684923768043518066e+00 2.184887081384658813e-01
3.550000000000000000e+02 7.442803192138671875e+01 3.380408477783203125e+01 -8.607419967651367188e+00 -1.917277649044990540e-02 -2.587977886199951172e+00 -3.451382815837860107e-01
3.560000000000000000e+02 7.486181640625000000e+01 3.360446166992187500e+01 -5.807589054107666016e+00 2.679886110126972198e-02 -1.734237074851989746e+00 1.794188320636749268e-01
3.570000000000000000e+02 7.482365417480468750e+01 3.384019088745117188e+01 -8.491662979125976562e+00 7.500642538070678711e-02 -2.524996995925903320e+00 -2.287221252918243408e-01
3.580000000000000000e+02 7.503828430175781250e+01 3.364245223999023438e+01 -5.598194122314453125e+00 1.255765408277511597e-01 -1.641785383224487305e+00 2.594548165798187256e-01
3.590000000000000000e+02 7.537531280517578125e+01 3.307032775878906250e+01 -3.533825576305389404e-01 3.561763525009155273e+00 9.625142812728881836e-01 4.513162612915039062e+00
3.600000000000000000e+02 7.550011444091796875e+01 3.327858734130859375e+01 -1.996464282274246216e-01 3.193460941314697266e+00 8.981443643569946289e-01 4.316661357879638672e+00
3.610000000000000000e+02 7.556583404541015625e+01 3.309907150268554688e+01 4.073624610900878906e-01 5.165232181549072266e+00 1.671778321266174316e+00 5.686614990234375000e+00
3.620000000000000000e+02 7.497354125976562500e+01 3.291672897338867188e+01 -1.411409497261047363e+00 2.333816051483154297e+00 2.767219245433807373e-01 3.087765693664550781e+00
3.630000000000000000e+02 7.761373901367187500e+01 3.414012145996093750e+01 9.517436027526855469e+00 2.104110145568847656e+01 9.167561531066894531e+00 9.074816703796386719e-01
3.640000000000000000e+02 7.767779541015625000e+01 3.329164123535156250e+01 3.324419021606445312e+00 2.166755867004394531e+01 7.497592926025390625e+00 -4.228671550750732422e+00
3.650000000000000000e+02 7.741553497314453125e+01 3.300188827514648438e+01 4.995600283145904541e-01 2.416026878356933594e+01 7.397948265075683594e+00 -3.255237817764282227e+00
3.660000000000000000e+02 7.685700225830078125e+01 3.301045608520507812e+01 -2.410985946655273438e+00 2.746841239929199219e+01 7.517228126525878906e+00 1.473390340805053711e+00
3.670000000000000000e+02 7.714283752441406250e+01 3.274073028564453125e+01 -2.404472827911376953e+00 2.362222862243652344e+01 6.365326404571533203e+00 -4.859085679054260254e-01
3.680000000000000000e+02 7.460227966308593750e+01 3.412269210815429688e+01 -6.748685836791992188e+00 -6.433982402086257935e-02 -2.043907642364501953e+00 -5.350676551461219788e-02
3.690000000000000000e+02 7.458883666992187500e+01 3.438637161254882812e+01 -4.547882080078125000e+00 9.159439057111740112e-02 -1.336886286735534668e+00 -2.494566887617111206e-01
3.700000000000000000e+02 7.538707733154296875e+01 3.486458587646484375e+01 1.407421112060546875e+00 3.363373279571533203e+00 1.431238293647766113e+00 -4.298984050750732422e+00
3.710000000000000000e+02 7.582239532470703125e+01 3.506389999389648438e+01 1.978606939315795898e+00 9.679493904113769531e+00 3.497430324554443359e+00 -7.659130573272705078e+00
3.720000000000000000e+02 7.692031097412109375e+01 3.290139007568359375e+01 -2.406940460205078125e+00 2.653734970092773438e+01 7.239122867584228516e+00 1.132297277450561523e+00
3.730000000000000000e+02 7.690289306640625000e+01 3.272781753540039062e+01 -3.052713155746459961e+00 2.403170776367187500e+01 6.293698310852050781e+00 1.635473847389221191e+00
3.740000000000000000e+02 7.400634002685546875e+01 3.486682891845703125e+01 -2.387624979019165039e+00 4.283142685890197754e-01 -5.877931714057922363e-01 -4.959917068481445312e-01
3.750000000000000000e+02 7.381074523925781250e+01 3.339344024658203125e+01 -6.260388374328613281e+00 -3.457807004451751709e-02 -1.888489842414855957e+00 -1.165836006402969360e-01
3.760000000000000000e+02 7.447276306152343750e+01 3.312997055053710938e+01 -3.761233568191528320e+00 6.168311834335327148e-01 -9.433206915855407715e-01 1.036913394927978516e+00
3.770000000000000000e+02 7.519192504882812500e+01 3.307733535766601562e+01 -1.051202535629272461e+00 2.573826789855957031e+00 4.567873179912567139e-01 3.477209806442260742e+00
3.780000000000000000e+02 7.527834320068359375e+01 3.341146087646484375e+01 -2.350713253021240234e+00 1.094792962074279785e+00 -3.767760694026947021e-01 2.140092372894287109e+00
3.790000000000000000e+02 7.507489776611328125e+01 3.348992538452148438e+01 -4.005882740020751953e+00 6.109734773635864258e-01 -1.018472790718078613e+00 1.118054866790771484e+00
3.800000000000000000e+02 7.515735626220703125e+01 3.336215972900390625e+01 -2.769382715225219727e+00 1.010318875312805176e+00 -5.277191400527954102e-01 1.875717043876647949e+00
3.810000000000000000e+02 7.534017944335937500e+01 3.324691772460937500e+01 -9.670634865760803223e-01 2.428759813308715820e+00 4.385088980197906494e-01 3.531731843948364258e+00
3.820000000000000000e+02 7.519634246826171875e+01 3.323398208618164062e+01 -1.659612655639648438e+00 1.703403234481811523e+00 1.313716359436511993e-02 2.849656105041503906e+00
3.830000000000000000e+02 7.500739288330078125e+01 3.313782882690429688e+01 -2.070064067840576172e+00 1.582203269004821777e+00 -1.463582068681716919e-01 2.415707588195800781e+00
3.840000000000000000e+02 7.415284729003906250e+01 3.330278778076171875e+01 -5.323031902313232422e+00 2.289007306098937988e-01 -1.528239369392395020e+00 2.513790726661682129e-01
3.850000000000000000e+02 7.403350067138671875e+01 3.303262710571289062e+01 -4.299136638641357422e+00 4.917450845241546631e-01 -1.142217516899108887e+00 6.490487456321716309e-01
3.860000000000000000e+02 7.405123901367187500e+01 3.465725326538085938e+01 -3.365792989730834961e+00 1.693933010101318359e-01 -9.589199423789978027e-01 -1.644901186227798462e-01
3.870000000000000000e+02 7.502371215820312500e+01 3.472816848754882812e+01 -7.300153970718383789e-01 1.107585787773132324e+00 1.132710948586463928e-01 -2.024169206619262695e+00
3.880000000000000000e+02 7.494754791259765625e+01 3.341272354125976562e+01 -3.848224163055419922e+00 5.424643158912658691e-01 -9.917279481887817383e-01 1.132488727569580078e+00
3.890000000000000000e+02 7.277362060546875000e+01 3.428409957885742188e+01 -5.428552627563476562e+00 -1.144892200827598572e-01 -1.662912607192993164e+00 1.921613365411758423e-01
3.900000000000000000e+02 7.335860443115234375e+01 3.492975997924804688e+01 -2.592630147933959961e+00 3.040218353271484375e-01 -6.865824460983276367e-01 -3.267124667763710022e-02
3.910000000000000000e+02 7.280136871337890625e+01 3.479224777221679688e+01 -3.461051225662231445e+00 7.560622878372669220e-03 -1.036047220230102539e+00 2.048053741455078125e-01
3.920000000000000000e+02 7.148853302001953125e+01 3.503006744384765625e+01 -2.860027313232421875e+00 9.046059101819992065e-02 -8.308700323104858398e-01 4.800446331501007080e-01
3.930000000000000000e+02 7.263304901123046875e+01 3.520436096191406250e+01 -2.232229471206665039e+00 3.063985705375671387e-01 -5.777493119239807129e-01 2.672584056854248047e-01
3.940000000000000000e+02 7.334315490722656250e+01 3.513013076782226562e+01 -2.188920497894287109e+00 2.736658453941345215e-01 -5.745763778686523438e-01 -6.023187190294265747e-02
3.950000000000000000e+02 7.304177093505859375e+01 3.518038177490234375e+01 -2.118679761886596680e+00 3.360644876956939697e-01 -5.347846150398254395e-01 -1.030816808342933655e-01
3.960000000000000000e+02 7.083396911621093750e+01 3.503997039794921875e+01 -2.767611265182495117e+00 -3.759635612368583679e-02 -8.415622711181640625e-01 5.502110719680786133e-01
3.970000000000000000e+02 7.160488128662109375e+01 3.429128646850585938e+01 -4.607632637023925781e+00 -5.174773558974266052e-02 -1.397814154624938965e+00 2.308657914400100708e-01
3.980000000000000000e+02 7.241918182373046875e+01 3.461288070678710938e+01 -3.966167926788330078e+00 7.352576404809951782e-02 -1.167792677879333496e+00 2.635447680950164795e-01
3.990000000000000000e+02 7.087292480468750000e+01 3.430035018920898438e+01 -4.030130863189697266e+00 6.452149897813796997e-02 -1.189682722091674805e+00 2.309251874685287476e-01
4.000000000000000000e+02 7.332630157470703125e+01 3.453028869628906250e+01 -4.299008369445800781e+00 1.691944301128387451e-01 -1.238944172859191895e+00 1.637089401483535767e-01
4.010000000000000000e+02 7.320842742919921875e+01 3.409383773803710938e+01 -6.144484519958496094e+00 1.150873303413391113e-01 -1.808819174766540527e+00 1.078508347272872925e-01
4.020000000000000000e+02 7.333807373046875000e+01 3.473602294921875000e+01 -3.535840749740600586e+00 2.505076527595520020e-01 -9.855999350547790527e-01 8.630155771970748901e-02
4.030000000000000000e+02 7.326631927490234375e+01 3.533758544921875000e+01 -1.596816182136535645e+00 3.351818621158599854e-01 -3.784902989864349365e-01 -2.388273030519485474e-01
4.040000000000000000e+02 7.331459808349609375e+01 3.432057571411132812e+01 -5.309771537780761719e+00 1.840017139911651611e-01 -1.537731051445007324e+00 1.788368374109268188e-01
4.050000000000000000e+02 7.230951690673828125e+01 3.422483444213867188e+01 -5.177867412567138672e+00 7.237052917480468750e-02 -1.531649112701416016e+00 1.996403336524963379e-01
4.060000000000000000e+02 7.209871673583984375e+01 3.510160827636718750e+01 -2.708308696746826172e+00 6.013270840048789978e-02 -7.944527864456176758e-01 4.034503698348999023e-01
4.070000000000000000e+02 7.302694702148437500e+01 3.448497772216796875e+01 -4.615313053131103516e+00 1.284026354551315308e-01 -1.346073150634765625e+00 1.498934924602508545e-01
4.080000000000000000e+02 7.310825347900390625e+01 3.489592361450195312e+01 -3.047144889831542969e+00 2.751540541648864746e-01 -8.315972685813903809e-01 6.800852715969085693e-02
4.090000000000000000e+02 6.864418792724609375e+01 3.432744216918945312e+01 -2.696434259414672852e+00 -4.814904555678367615e-02 -8.233749866485595703e-01 2.507196962833404541e-01
4.100000000000000000e+02 6.865816497802734375e+01 3.506734085083007812e+01 -1.952723741531372070e+00 3.807001188397407532e-02 -5.743961334228515625e-01 5.986377000808715820e-01
4.110000000000000000e+02 6.789818572998046875e+01 3.433293151855468750e+01 -2.247436523437500000e+00 3.656346723437309265e-02 -6.632618904113769531e-01 2.461404651403427124e-01
4.120000000000000000e+02 6.939115142822265625e+01 3.431977081298828125e+01 -3.130749702453613281e+00 4.769434779882431030e-02 -9.249166250228881836e-01 2.468719631433486938e-01
4.130000000000000000e+02 7.014167022705078125e+01 3.505007171630859375e+01 -2.547148466110229492e+00 6.336436420679092407e-02 -7.451352477073669434e-01 5.758570432662963867e-01
4.140000000000000000e+02 7.013907623291015625e+01 3.431005859375000000e+01 -3.552095651626586914e+00 -5.144483223557472229e-02 -1.081062197685241699e+00 2.441618889570236206e-01
4.150000000000000000e+02 6.791786193847656250e+01 3.507276916503906250e+01 -1.678784251213073730e+00 -4.230742901563644409e-02 -5.163275003433227539e-01 6.141077280044555664e-01
4.160000000000000000e+02 6.939944458007812500e+01 3.505972290039062500e+01 -2.244418382644653320e+00 -4.743524268269538879e-02 -6.875560879707336426e-01 6.036118865013122559e-01
4.170000000000000000e+02 6.570060729980468750e+01 3.516909790039062500e+01 -9.796282052993774414e-01 -8.859588950872421265e-02 -3.204672336578369141e-01 3.842245340347290039e-01
4.180000000000000000e+02 6.640644073486328125e+01 3.439306259155273438e+01 -1.553724884986877441e+00 -2.090280875563621521e-02 -4.723882973194122314e-01 2.199459224939346313e-01
4.190000000000000000e+02 6.491574096679687500e+01 3.446823501586914062e+01 -1.013398528099060059e+00 -4.495357349514961243e-02 -3.175056278705596924e-01 1.623562276363372803e-01
4.200000000000000000e+02 6.715198516845703125e+01 3.435549545288085938e+01 -1.858606934547424316e+00 -3.991964086890220642e-02 -5.695579648017883301e-01 2.564754188060760498e-01
4.210000000000000000e+02 6.717790222167968750e+01 3.509513473510742188e+01 -1.418981075286865234e+00 -6.765053421258926392e-02 -4.459894597530364990e-01 5.095251798629760742e-01
4.220000000000000000e+02 6.496202087402343750e+01 3.520683670043945312e+01 -8.316484689712524414e-01 -5.282974243164062500e-02 -2.653434574604034424e-01 3.668079674243927002e-01
4.230000000000000000e+02 6.643914794921875000e+01 3.513235473632812500e+01 -1.166678190231323242e+00 -8.154447376728057861e-02 -3.744668066501617432e-01 4.841596186161041260e-01
4.240000000000000000e+02 6.566111755371093750e+01 3.443015289306640625e+01 -1.268396019935607910e+00 -1.490705460309982300e-02 -3.849909007549285889e-01 2.062172442674636841e-01
4.250000000000000000e+02 6.268238067626953125e+01 3.464594268798828125e+01 -5.059896111488342285e-01 8.532106876373291016e-03 -1.492372602224349976e-01 1.109887063503265381e-01
4.260000000000000000e+02 6.274868774414062500e+01 3.538298034667968750e+01 -3.901282548904418945e-01 -7.710786163806915283e-02 -1.401708424091339111e-01 2.360625863075256348e-01
4.270000000000000000e+02 6.193933486938476562e+01 3.470622634887695312e+01 -3.718292415142059326e-01 -3.706431388854980469e-02 -1.226680651307106018e-01 9.543514996767044067e-02
4.280000000000000000e+02 6.342625427246093750e+01 3.458350372314453125e+01 -6.493580937385559082e-01 -5.459307506680488586e-02 -2.111853510141372681e-01 1.317034810781478882e-01
4.290000000000000000e+02 6.422395324707031250e+01 3.525720977783203125e+01 -6.593803167343139648e-01 -7.826586067676544189e-02 -2.212938517332077026e-01 3.001458942890167236e-01
4.300000000000000000e+02 6.417095184326171875e+01 3.451905822753906250e+01 -8.146532773971557617e-01 1.256617438048124313e-02 -2.406261414289474487e-01 1.550889760255813599e-01
4.310000000000000000e+02 6.201229858398437500e+01 3.544270706176757812e+01 -3.105614781379699707e-01 -3.915399685502052307e-02 -1.049146354198455811e-01 1.791300475597381592e-01
4.320000000000000000e+02 6.348590850830078125e+01 3.532109832763671875e+01 -5.255724787712097168e-01 -4.368971660733222961e-02 -1.707786619663238525e-01 2.661208808422088623e-01
4.330000000000000000e+02 5.980386352539062500e+01 3.570315170288085938e+01 -8.333810418844223022e-02 -4.044749215245246887e-02 -3.713567927479743958e-02 1.004178747534751892e-01
4.340000000000000000e+02 5.971332931518554688e+01 3.496871185302734375e+01 -1.238348409533500671e-01 -1.674375496804714203e-02 -4.217357933521270752e-02 4.356916248798370361e-02
4.350000000000000000e+02 5.897272491455078125e+01 3.505795669555664062e+01 -7.282275706529617310e-02 -5.651290528476238251e-03 -2.354221418499946594e-02 3.198330476880073547e-02
4.360000000000000000e+02 6.045466995239257812e+01 3.487708282470703125e+01 -1.901651173830032349e-01 -1.749532669782638550e-02 -6.229813396930694580e-02 6.461077928543090820e-02
4.370000000000000000e+02 6.127589035034179688e+01 3.551908111572265625e+01 -2.162762880325317383e-01 -5.511441454291343689e-02 -8.141721040010452271e-02 1.721403300762176514e-01
4.380000000000000000e+02 6.119675064086914062e+01 3.478322982788085938e+01 -2.708546519279479980e-01 -5.785007029771804810e-03 -8.299189805984497070e-02 7.215601950883865356e-02
4.390000000000000000e+02 5.906895828247070312e+01 3.579169464111328125e+01 -3.675801679491996765e-02 -3.636875376105308533e-02 -2.193802967667579651e-02 6.994878500699996948e-02
4.400000000000000000e+02 6.053950500488281250e+01 3.561222839355468750e+01 -1.367301791906356812e-01 -4.778712615370750427e-02 -5.535519123077392578e-02 1.185226067900657654e-01
4.410000000000000000e+02 5.676622772216796875e+01 3.537297821044921875e+01 -4.351831041276454926e-03 -9.597023949027061462e-03 -4.184656310826539993e-03 1.783397863619029522e-03
4.420000000000000000e+02 5.690399551391601562e+01 3.610068511962890625e+01 2.157796919345855713e-02 -1.067390944808721542e-02 3.271217690780758858e-03 1.140117272734642029e-02
4.430000000000000000e+02 5.603319931030273438e+01 3.547965621948242188e+01 -2.443954814225435257e-03 5.283547099679708481e-03 8.518777322024106979e-04 9.503889014013111591e-04
4.440000000000000000e+02 5.750018692016601562e+01 3.526519775390625000e+01 -1.373166032135486603e-02 -1.176238176412880421e-03 -4.472369328141212463e-03 1.227746531367301941e-02
4.450000000000000000e+02 5.834177017211914062e+01 3.588873672485351562e+01 -3.431943943724036217e-03 -2.820829674601554871e-02 -9.492072276771068573e-03 4.475715756416320801e-02
4.460000000000000000e+02 5.823495101928710938e+01 3.515648651123046875e+01 -3.765182197093963623e-02 -1.242672465741634369e-02 -1.502356398850679398e-02 1.941490359604358673e-02
4.470000000000000000e+02 5.618644332885742188e+01 3.620509338378906250e+01 2.751147560775279999e-02 -1.329751592129468918e-02 4.264187999069690704e-03 -4.834789782762527466e-03
4.480000000000000000e+02 5.762247848510742188e+01 3.599517822265625000e+01 8.779746480286121368e-03 -2.381595969200134277e-02 -4.510864149779081345e-03 2.063102275133132935e-02
4.490000000000000000e+02 5.384532546997070312e+01 3.667871856689453125e+01 -8.020166307687759399e-03 -1.100066956132650375e-02 -5.706250667572021484e-03 -2.811759244650602341e-03
4.500000000000000000e+02 5.390139770507812500e+01 3.633741760253906250e+01 1.132545154541730881e-02 -1.122978236526250839e-02 2.870072967198211700e-05 3.430764656513929367e-03
4.510000000000000000e+02 5.457950592041015625e+01 3.674075698852539062e+01 1.874431967735290527e-02 1.078659761697053909e-02 8.859274908900260925e-03 -1.302388217300176620e-02
4.520000000000000000e+02 5.383747482299804688e+01 3.704690551757812500e+01 2.160054864361882210e-03 -1.326775085180997849e-02 -3.332308726385235786e-03 2.867641625925898552e-03
4.530000000000000000e+02 5.522666168212890625e+01 3.569715881347656250e+01 -5.736208055168390274e-03 -3.643769538030028343e-03 -2.813993254676461220e-03 -7.777978898957371712e-04
4.540000000000000000e+02 5.406111526489257812e+01 3.588264846801757812e+01 -5.945007782429456711e-03 -3.275452880188822746e-03 -2.766138175502419472e-03 4.516733810305595398e-03
4.550000000000000000e+02 5.539877319335937500e+01 3.641811752319335938e+01 3.196030482649803162e-02 7.355788722634315491e-03 1.179482787847518921e-02 -1.394859142601490021e-02
4.560000000000000000e+02 5.409225845336914062e+01 3.654366683959960938e+01 5.237149074673652649e-03 -6.991695147007703781e-03 -5.263639031909406185e-04 -1.738118939101696014e-03
4.570000000000000000e+02 5.450753784179687500e+01 3.614347457885742188e+01 3.854523180052638054e-03 9.075453504920005798e-03 3.878992982208728790e-03 2.393111586570739746e-03
4.580000000000000000e+02 5.406600952148437500e+01 3.695836257934570312e+01 5.736274179071187973e-04 1.560811512172222137e-02 4.854522645473480225e-03 -1.305350754410028458e-02
4.590000000000000000e+02 5.344662094116210938e+01 3.479689788818359375e+01 -9.377808123826980591e-02 -6.575794517993927002e-02 -4.786080867052078247e-02 -8.399689942598342896e-02
4.600000000000000000e+02 5.366340637207031250e+01 3.510863113403320312e+01 -5.782910808920860291e-02 -1.797218993306159973e-02 -2.274039015173912048e-02 -6.229399517178535461e-02
4.610000000000000000e+02 5.494368743896484375e+01 3.414394760131835938e+01 -7.720026373863220215e-01 4.895549267530441284e-02 -2.169141322374343872e-01 -2.842131555080413818e-01
4.620000000000000000e+02 5.424127578735351562e+01 3.501722717285156250e+01 -1.965129524469375610e-01 -7.472702767699956894e-03 -6.119569763541221619e-02 -7.611314952373504639e-02
4.630000000000000000e+02 5.503524398803710938e+01 3.488909530639648438e+01 -4.524897038936614990e-01 2.075072750449180603e-02 -1.295216828584671021e-01 -5.299898982048034668e-02
4.640000000000000000e+02 5.318430709838867188e+01 3.449492645263671875e+01 -1.765761524438858032e-01 -1.169334277510643005e-01 -8.805287629365921021e-02 -1.397978514432907104e-01
4.650000000000000000e+02 5.394946670532226562e+01 3.541463851928710938e+01 -5.904597789049148560e-02 -2.134070673491805792e-04 -1.777781546115875244e-02 -3.620642935857176781e-03
4.660000000000000000e+02 5.366458129882812500e+01 3.433396148681640625e+01 -3.466335833072662354e-01 -6.593095511198043823e-02 -1.237693652510643005e-01 -2.296933680772781372e-01
4.670000000000000000e+02 5.396925354003906250e+01 3.460595321655273438e+01 -3.405851125717163086e-01 -1.848187530413269997e-03 -1.027299910783767700e-01 -1.384555697441101074e-01
4.680000000000000000e+02 5.424771118164062500e+01 3.423815917968750000e+01 -5.579345226287841797e-01 8.707306347787380219e-03 -1.647681742906570435e-01 -2.595750391483306885e-01
4.690000000000000000e+02 5.297127914428710938e+01 3.413722229003906250e+01 -2.362456768751144409e-01 -2.211342155933380127e-01 -1.372139602899551392e-01 -2.482556253671646118e-01
4.700000000000000000e+02 5.425092697143554688e+01 3.307418823242187500e+01 -9.519189596176147461e-01 7.583470083773136139e-03 -2.833006381988525391e-01 -5.314102172851562500e-01
4.710000000000000000e+02 5.925991439819335938e+01 3.218276596069335938e+01 -2.096125364303588867e+00 1.229875460267066956e-01 -5.919413566589355469e-01 -5.607910752296447754e-01
4.720000000000000000e+02 5.276987838745117188e+01 3.375085067749023438e+01 -3.487186431884765625e-01 -3.121021986007690430e-01 -1.982462555170059204e-01 -3.140834569931030273e-01
4.730000000000000000e+02 4.947002792358398438e+01 3.017658996582031250e+01 -1.250536322593688965e+00 -1.143765926361083984e+00 -7.182906866073608398e-01 -1.194158434867858887e+00
4.740000000000000000e+02 4.743221664428710938e+01 2.826785850524902344e+01 -1.448731899261474609e+00 -1.181922197341918945e+00 -7.891961932182312012e-01 -1.310276865959167480e+00
4.750000000000000000e+02 5.945289230346679688e+01 2.173668670654296875e+01 -1.576437801122665405e-01 5.281441807746887207e-01 1.111501231789588928e-01 -4.573252797126770020e-01
4.760000000000000000e+02 6.587342071533203125e+01 1.027446269989013672e+01 4.830448925495147705e-01 2.896189928054809570e+00 1.013770461082458496e+00 7.384262681007385254e-01
4.770000000000000000e+02 7.173297119140625000e+01 5.135560035705566406e+00 2.002054899930953979e-01 4.590503215789794922e+00 1.437212705612182617e+00 6.475701332092285156e-01
4.780000000000000000e+02 7.792089080810546875e+01 -2.833592891693115234e+00 8.153905160725116730e-03 5.473519325256347656e+00 1.644501924514770508e+00 1.288650631904602051e-01
4.790000000000000000e+02 7.933338928222656250e+01 2.788029193878173828e+00 1.924431649968028069e-03 6.161533355712890625e+00 1.849037408828735352e+00 5.565990135073661804e-02
4.800000000000000000e+02 7.804611968994140625e+01 4.202787399291992188e+00 1.355733722448348999e-02 6.051267147064208984e+00 1.819447278976440430e+00 1.952921301126480103e-01
4.810000000000000000e+02 7.939936828613281250e+01 8.359371185302734375e+00 2.974963746964931488e-03 6.848502635955810547e+00 2.055443286895751953e+00 7.597431540489196777e-02
4.820000000000000000e+02 7.402168273925781250e+01 1.886244010925292969e+01 4.451212286949157715e-01 6.062818050384521484e+00 1.952381730079650879e+00 1.390055894851684570e+00
4.830000000000000000e+02 6.447594451904296875e+01 2.835268592834472656e+01 -1.216004729270935059e+00 1.828122586011886597e-01 -3.099577426910400391e-01 -6.622527837753295898e-01
4.840000000000000000e+02 5.941041183471679688e+01 3.278997039794921875e+01 -2.224468469619750977e+00 9.276773035526275635e-02 -6.395102143287658691e-01 -3.946428000926971436e-01
4.850000000000000000e+02 5.748864364624023438e+01 2.912744712829589844e+01 -1.461500167846679688e+00 1.963170915842056274e-01 -3.795549273490905762e-01 -9.550431370735168457e-01
4.860000000000000000e+02 5.837223815917968750e+01 2.749156951904296875e+01 -1.198833584785461426e+00 2.140044420957565308e-01 -2.954487204551696777e-01 -9.562299847602844238e-01
4.870000000000000000e+02 3.279764556884765625e+01 -1.419994544982910156e+01 -2.897096611559391022e-02 -3.234851062297821045e-01 -1.057368218898773193e-01 1.488306224346160889e-01
4.880000000000000000e+02 3.319993209838867188e+01 -1.047472476959228516e+01 3.818940818309783936e-01 -3.063977062702178955e-01 2.264890447258949280e-02 -1.228166446089744568e-01
4.890000000000000000e+02 4.002796173095703125e+01 -1.001537799835205078e+01 4.740433394908905029e-01 -3.401592671871185303e-01 4.016522690653800964e-02 1.133987563662230968e-03
4.900000000000000000e+02 4.684794235229492188e+01 -1.351494884490966797e+01 3.351209461688995361e-01 3.308617174625396729e-01 1.997947990894317627e-01 7.502236962318420410e-02
4.910000000000000000e+02 6.000205230712890625e+01 -1.511264705657958984e+01 1.927186846733093262e-01 2.216656684875488281e+00 7.228126525878906250e-01 2.547363638877868652e-01
4.920000000000000000e+02 6.716853332519531250e+01 -1.162522697448730469e+01 1.314365267753601074e-01 3.354224920272827148e+00 1.045698404312133789e+00 3.180181682109832764e-01
4.930000000000000000e+02 7.267182922363281250e+01 -1.173528194427490234e+01 5.152592808008193970e-02 4.265368461608886719e+00 1.295068264007568359e+00 2.316374331712722778e-01
4.940000000000000000e+02 7.932660675048828125e+01 -1.259288024902343750e+01 1.130239572376012802e-03 5.206373214721679688e+00 1.562250971794128418e+00 1.896055601537227631e-02
4.950000000000000000e+02 7.795025634765625000e+01 -9.893740653991699219e+00 4.999464843422174454e-03 5.120916366577148438e+00 1.537774682044982910e+00 7.981341332197189331e-02
4.960000000000000000e+02 7.930261230468750000e+01 -5.605916500091552734e+00 1.800998346880078316e-03 5.523883819580078125e+00 1.657705545425415039e+00 3.251565247774124146e-02
4.970000000000000000e+02 7.192617797851562500e+01 -2.887061119079589844e+00 1.137067824602127075e-01 4.386578083038330078e+00 1.350085377693176270e+00 4.105098843574523926e-01
4.980000000000000000e+02 6.732437896728515625e+01 -2.525398492813110352e+00 2.230032235383987427e-01 3.449888706207275391e+00 1.101867556571960449e+00 4.978990256786346436e-01
4.990000000000000000e+02 5.971331024169921875e+01 -1.517016649246215820e+00 3.660917878150939941e-01 1.966462731361389160e+00 6.997663378715515137e-01 4.346984624862670898e-01
5.000000000000000000e+02 4.711367797851562500e+01 -4.736718654632568359e+00 4.164745509624481201e-01 2.215699255466461182e-01 1.914133429527282715e-01 1.404647827148437500e-01
5.010000000000000000e+02 4.168095016479492188e+01 -5.645973682403564453e+00 4.711158573627471924e-01 -2.941896319389343262e-01 5.307786911725997925e-02 6.242112070322036743e-02
5.020000000000000000e+02 3.503254318237304688e+01 -7.399588108062744141e+00 6.078811883926391602e-01 -5.136775374412536621e-01 2.826109901070594788e-02 -9.268748015165328979e-02
5.030000000000000000e+02 2.745583152770996094e+01 -6.278195858001708984e+00 7.364390492439270020e-01 6.707711219787597656e-01 4.221630692481994629e-01 -8.022577166557312012e-01
5.040000000000000000e+02 2.561323547363281250e+01 -4.105665683746337891e+00 1.249129772186279297e+00 9.971672892570495605e-01 6.738891601562500000e-01 -1.232942819595336914e+00
5.050000000000000000e+02 2.844153594970703125e+01 -5.716934204101562500e+00 9.631775021553039551e-01 3.166144192218780518e-01 3.839375674724578857e-01 -6.136142611503601074e-01
5.060000000000000000e+02 3.226629638671875000e+01 -1.119045162200927734e+01 1.957587003707885742e-01 -2.071574330329895020e-01 -3.419622080400586128e-03 -9.982676059007644653e-02
5.070000000000000000e+02 3.129986572265625000e+01 -1.189530086517333984e+01 8.434104174375534058e-02 -8.837150037288665771e-02 -1.209136680699884892e-03 -3.025267971679568291e-03
5.080000000000000000e+02 3.240850067138671875e+01 1.287679100036621094e+01 -1.290754914283752441e+00 -1.388806343078613281e+00 -8.038683533668518066e-01 -1.365247011184692383e+00
5.090000000000000000e+02 3.182135009765625000e+01 1.232663631439208984e+01 -1.357824802398681641e+00 -1.509163260459899902e+00 -8.600963950157165527e-01 -1.430399894714355469e+00
5.100000000000000000e+02 3.211161041259765625e+01 1.260289573669433594e+01 -1.304116010665893555e+00 -1.450706362724304199e+00 -8.264467120170593262e-01 -1.376023411750793457e+00
5.110000000000000000e+02 3.125296020507812500e+01 1.171674346923828125e+01 -1.564652323722839355e+00 -1.483359456062316895e+00 -9.144035577774047852e-01 -1.484671473503112793e+00
5.120000000000000000e+02 3.066312026977539062e+01 1.125330638885498047e+01 -1.599338531494140625e+00 -1.254234671592712402e+00 -8.560719490051269531e-01 -1.445215702056884766e+00
5.130000000000000000e+02 3.069052314758300781e+01 7.408210277557373047e+00 -1.126947045326232910e+00 -1.270783424377441406e+00 -7.193191647529602051e-01 -1.222979187965393066e+00
5.140000000000000000e+02 2.956513404846191406e+01 5.746473312377929688e+00 -2.000957727432250977e+00 -1.081836342811584473e+00 -9.248381853103637695e-01 -1.090031743049621582e+00
5.150000000000000000e+02 3.050766754150390625e+01 6.239406108856201172e+00 -1.580481052398681641e+00 -9.830352067947387695e-01 -7.690548300743103027e-01 -1.184695243835449219e+00
5.160000000000000000e+02 2.325999641418457031e+01 1.390576004981994629e+00 -2.451166868209838867e+00 -2.265307009220123291e-01 -8.033092617988586426e-01 -1.272305250167846680e+00
5.170000000000000000e+02 2.245825767517089844e+01 1.417961239814758301e+00 -2.769828081130981445e+00 -6.356320381164550781e-01 -1.021638035774230957e+00 -1.784938335418701172e+00
5.180000000000000000e+02 2.262361907958984375e+01 1.218041777610778809e+00 -2.430224180221557617e+00 -3.585080504417419434e-01 -8.366196155548095703e-01 -1.626526832580566406e+00
5.190000000000000000e+02 2.212388229370117188e+01 1.205127596855163574e+00 -2.641887664794921875e+00 -5.272623896598815918e-01 -9.507450461387634277e-01 -1.908770561218261719e+00
5.200000000000000000e+02 1.956975364685058594e+01 -4.057256579399108887e-01 -2.440972089767456055e+00 -3.720845460891723633e+00 -1.848545312881469727e+00 -1.996926546096801758e+00
5.210000000000000000e+02 1.589400959014892578e+01 -2.487509727478027344e+00 -1.349038720130920410e+00 -5.044374465942382812e-01 -5.560428500175476074e-01 -6.642924547195434570e-01
5.220000000000000000e+02 1.170906448364257812e+01 -2.210295200347900391e+00 -4.769391715526580811e-01 -5.047589656896889210e-04 -1.432331800460815430e-01 -1.689863801002502441e-01
5.230000000000000000e+02 1.097273921966552734e+01 -2.101636171340942383e+00 -3.810342848300933838e-01 -1.536570582538843155e-02 -1.189199984073638916e-01 -1.283040642738342285e-01
5.240000000000000000e+02 9.857776641845703125e+00 -6.609753131866455078e+00 -2.931233942508697510e-01 -2.417892217636108398e-01 -1.604737788438796997e-01 -4.344054460525512695e-01
5.250000000000000000e+02 6.915444374084472656e+00 -1.944391250610351562e+01 6.683356314897537231e-02 -6.591020822525024414e-01 -1.776805669069290161e-01 -3.072624802589416504e-01
5.260000000000000000e+02 7.078859806060791016e+00 -2.679449844360351562e+01 6.002775207161903381e-02 -8.023165464401245117e-01 -2.226866483688354492e-01 -2.060067355632781982e-01
5.270000000000000000e+02 7.575878143310546875e+00 -4.099897384643554688e+01 4.749947041273117065e-02 -9.123183488845825195e-01 -2.594456672668457031e-01 -2.110309898853302002e-02
5.280000000000000000e+02 1.207510471343994141e+01 -3.732289505004882812e+01 1.259386837482452393e-01 -5.992981791496276855e-01 -1.420078575611114502e-01 -8.630631119012832642e-02
5.290000000000000000e+02 2.009950447082519531e+01 -3.894179916381835938e+01 2.883626818656921387e-01 -1.032239198684692383e-01 5.554163083434104919e-02 -7.626817375421524048e-02
5.300000000000000000e+02 1.673560333251953125e+01 -4.050260162353515625e+01 2.156848013401031494e-01 -2.958199679851531982e-01 -2.404055185616016388e-02 -3.988917171955108643e-02
5.310000000000000000e+02 1.379798507690429688e+01 -2.888804817199707031e+01 1.483438760042190552e-01 -4.491929709911346436e-01 -9.025473147630691528e-02 -2.266747206449508667e-01
5.320000000000000000e+02 1.702412033081054688e+01 -2.470320320129394531e+01 1.910026073455810547e-01 -2.557765245437622070e-01 -1.943217404186725616e-02 -2.831458151340484619e-01
5.330000000000000000e+02 1.881637954711914062e+01 -1.747889900207519531e+01 2.078318446874618530e-01 -2.157317698001861572e-01 -2.369974507018923759e-03 -2.706840336322784424e-01
5.340000000000000000e+02 2.227827835083007812e+01 -1.324129486083984375e+01 1.416270434856414795e-01 1.872411668300628662e-01 9.866046160459518433e-02 -1.406237930059432983e-01
5.350000000000000000e+02 1.971572303771972656e+01 -8.217508316040039062e+00 5.912692844867706299e-02 -7.417334914207458496e-01 -2.047819644212722778e-01 1.027470231056213379e-01
5.360000000000000000e+02 1.776816558837890625e+01 -1.113146495819091797e+01 1.789032369852066040e-01 -6.589476466178894043e-01 -1.440133303403854370e-01 -3.202721476554870605e-01
5.370000000000000000e+02 1.939426231384277344e+01 -6.824653148651123047e+00 -1.144436895847320557e-01 -1.293940663337707520e+00 -4.225153028964996338e-01 2.507343888282775879e-02
5.380000000000000000e+02 1.901575660705566406e+01 -4.037179946899414062e+00 -4.472589194774627686e-01 -3.634654521942138672e+00 -1.224573969841003418e+00 -5.080603361129760742e-01
5.390000000000000000e+02 1.908511924743652344e+01 -8.698310256004333496e-01 -2.293394804000854492e+00 -2.481406450271606445e+00 -1.432440280914306641e+00 -1.635351777076721191e+00
5.400000000000000000e+02 1.917765808105468750e+01 -7.078241705894470215e-01 -2.113173723220825195e+00 -3.407781124114990234e+00 -1.656286478042602539e+00 -1.636340737342834473e+00
5.410000000000000000e+02 1.023873901367187500e+01 -1.996115803718566895e+00 -3.072529733180999756e-01 7.256767712533473969e-03 -8.999885618686676025e-02 -1.090553328394889832e-01
5.420000000000000000e+02 3.774839639663696289e+00 -1.977045893669128418e+00 -2.810840308666229248e-02 -1.202924735844135284e-02 -1.204129494726657867e-02 -1.289191748946905136e-02
5.430000000000000000e+02 1.651945114135742188e+00 -1.067024803161621094e+01 -6.698492448776960373e-03 -2.871510088443756104e-01 -8.815485239028930664e-02 -1.072250306606292725e-01
5.440000000000000000e+02 1.801200985908508301e+00 -1.754472541809082031e+01 5.345155019313097000e-03 -7.165042161941528320e-01 -2.133477181196212769e-01 -1.167835220694541931e-01
5.450000000000000000e+02 6.363162994384765625e-01 -2.471782112121582031e+01 2.925850916653871536e-03 -1.154114127159118652e+00 -3.453564941883087158e-01 -2.630981244146823883e-02
5.460000000000000000e+02 7.862297892570495605e-01 -3.173980522155761719e+01 -7.209648028947412968e-04 -1.371833205223083496e+00 -4.117662310600280762e-01 -1.528500299900770187e-02
5.470000000000000000e+02 4.025183200836181641e+00 -3.892651367187500000e+01 4.117433354258537292e-02 -1.207077264785766602e+00 -3.497708737850189209e-01 -3.403356671333312988e-02
5.480000000000000000e+02 1.234525203704833984e+00 -3.747558975219726562e+01 7.982429116964340210e-03 -1.439613223075866699e+00 -4.294892549514770508e-01 -4.324177745729684830e-03
5.490000000000000000e+02 2.469770050048828125e+01 -3.783443450927734375e+01 3.962533771991729736e-01 1.399530470371246338e-01 1.608619242906570435e-01 -1.472745090723037720e-01
5.500000000000000000e+02 2.217821502685546875e+01 -3.639907836914062500e+01 3.326193392276763916e-01 3.335683047771453857e-02 1.097928509116172791e-01 -1.573973894119262695e-01
5.510000000000000000e+02 2.653953742980957031e+01 -3.318062210083007812e+01 3.576503098011016846e-01 3.403519690036773682e-01 2.094006836414337158e-01 -2.834022939205169678e-01
5.520000000000000000e+02 2.637227058410644531e+01 -2.034269332885742188e+01 1.541960388422012329e-01 5.006294250488281250e-01 1.964476257562637329e-01 -2.666169106960296631e-01
5.530000000000000000e+02 2.634038543701171875e+01 -2.347383689880371094e+01 1.719992756843566895e-01 4.714811444282531738e-01 1.930441260337829590e-01 -3.083115518093109131e-01
5.540000000000000000e+02 2.372846984863281250e+01 -1.558141136169433594e+01 1.701470613479614258e-01 3.139822781085968018e-01 1.452388018369674683e-01 -2.088565528392791748e-01
5.550000000000000000e+02 2.400620841979980469e+01 -1.860370826721191406e+01 1.443036049604415894e-01 2.837009429931640625e-01 1.284013688564300537e-01 -2.571482956409454346e-01
5.560000000000000000e+02 3.054457664489746094e+01 -3.613576889038085938e+01 4.931627213954925537e-01 4.770713150501251221e-01 2.910702228546142578e-01 -3.549630343914031982e-01
5.570000000000000000e+02 3.735657882690429688e+01 -3.763668060302734375e+01 7.605679035186767578e-01 5.352543592453002930e-01 3.887466788291931152e-01 -6.008153557777404785e-01
5.580000000000000000e+02 3.283789443969726562e+01 -3.244446945190429688e+01 5.009763836860656738e-01 7.294036149978637695e-01 3.691140115261077881e-01 -5.502695441246032715e-01
5.590000000000000000e+02 3.207400512695312500e+01 -3.135064506530761719e+01 3.963191509246826172e-01 8.240293264389038086e-01 3.661045432090759277e-01 -5.570323467254638672e-01
5.600000000000000000e+02 3.175009536743164062e+01 -3.290620422363281250e+01 4.143290817737579346e-01 6.708621382713317871e-01 3.255573511123657227e-01 -4.585382342338562012e-01
5.610000000000000000e+02 2.999504661560058594e+01 -2.779733848571777344e+01 2.122122347354888916e-01 7.260028719902038574e-01 2.814645469188690186e-01 -3.778164088726043701e-01
5.620000000000000000e+02 2.814426612854003906e+01 -2.406364822387695312e+01 1.681470721960067749e-01 6.254982948303222656e-01 2.380936145782470703e-01 -3.310520946979522705e-01
5.630000000000000000e+02 4.357743453979492188e+01 -3.965639495849609375e+01 1.772232055664062500e+00 6.759529709815979004e-01 7.344555258750915527e-01 4.363248646259307861e-01
5.640000000000000000e+02 4.491892242431640625e+01 -3.916678237915039062e+01 1.174444675445556641e+00 4.718522131443023682e-01 4.938890635967254639e-01 4.158915281295776367e-01
5.650000000000000000e+02 4.452003860473632812e+01 -3.762188720703125000e+01 6.168518066406250000e-01 7.454360127449035645e-01 4.086863696575164795e-01 6.180658340454101562e-01
5.660000000000000000e+02 5.430245208740234375e+01 -3.673344802856445312e+01 3.523637652397155762e-01 1.383574962615966797e+00 5.207816362380981445e-01 2.979546487331390381e-01
5.670000000000000000e+02 5.447457885742187500e+01 -3.354335784912109375e+01 1.386114358901977539e-01 1.515837311744689941e+00 4.963346123695373535e-01 2.999637126922607422e-01
5.680000000000000000e+02 5.401325225830078125e+01 -2.239414596557617188e+01 6.749229133129119873e-02 1.421310186386108398e+00 4.466407597064971924e-01 1.672173142433166504e-01
5.690000000000000000e+02 5.461386871337890625e+01 -2.078314971923828125e+01 1.097973436117172241e-01 1.496019005775451660e+00 4.817449152469635010e-01 1.695981025695800781e-01
5.700000000000000000e+02 5.360956573486328125e+01 -1.869394111633300781e+01 1.613257229328155518e-01 1.315319061279296875e+00 4.429934322834014893e-01 1.536747217178344727e-01
5.710000000000000000e+02 4.836249923706054688e+01 -2.022893714904785156e+01 1.092997193336486816e-01 5.868661999702453613e-01 2.088497728109359741e-01 9.157593548297882080e-02
5.720000000000000000e+02 5.035224533081054688e+01 -1.931378173828125000e+01 1.466899514198303223e-01 8.745424151420593262e-01 3.063696920871734619e-01 1.087365895509719849e-01
5.730000000000000000e+02 4.615737152099609375e+01 -2.461283683776855469e+01 -4.890589416027069092e-02 2.592315971851348877e-01 6.309770792722702026e-02 1.340779066085815430e-01
5.740000000000000000e+02 4.721903991699218750e+01 -3.007110977172851562e+01 -1.491310298442840576e-01 4.092686772346496582e-01 7.804129272699356079e-02 1.903048008680343628e-01
5.750000000000000000e+02 4.660025405883789062e+01 -3.238710021972656250e+01 -1.812928169965744019e-01 2.705613076686859131e-01 2.678054198622703552e-02 2.380586713552474976e-01
5.760000000000000000e+02 5.608823394775390625e+01 -2.774244308471679688e+01 2.374516054987907410e-02 1.753259897232055664e+00 5.331014990806579590e-01 2.338018417358398438e-01
5.770000000000000000e+02 5.808196640014648438e+01 -4.029466247558593750e+01 3.478592932224273682e-01 1.879171729087829590e+00 6.681092977523803711e-01 8.241464197635650635e-02
5.780000000000000000e+02 6.302776336669921875e+01 -4.048616409301757812e+01 2.032077908515930176e-01 2.547201871871948242e+00 8.251228928565979004e-01 4.691431298851966858e-02
5.790000000000000000e+02 6.712078094482421875e+01 -2.848217010498046875e+01 5.180663615465164185e-02 3.262824535369873047e+00 9.943893551826477051e-01 1.667412817478179932e-01
5.800000000000000000e+02 6.583330535888671875e+01 -2.423623085021972656e+01 5.667789280414581299e-02 3.092958450317382812e+00 9.448909163475036621e-01 2.016976624727249146e-01
5.810000000000000000e+02 6.249378204345703125e+01 -2.068333053588867188e+01 9.409805387258529663e-02 2.637877941131591797e+00 8.195928335189819336e-01 2.274181097745895386e-01
5.820000000000000000e+02 6.479116821289062500e+01 -1.829927825927734375e+01 1.026355996727943420e-01 2.964937448501586914e+00 9.202718734741210938e-01 2.464518100023269653e-01
5.830000000000000000e+02 5.830384063720703125e+01 -3.620302581787109375e+01 2.463052272796630859e-01 1.947079062461853027e+00 6.580153107643127441e-01 2.124967128038406372e-01
5.840000000000000000e+02 6.778797149658203125e+01 -4.101342010498046875e+01 1.056900769472122192e-01 3.256225109100341797e+00 1.008574485778808594e+00 1.104833185672760010e-02
5.850000000000000000e+02 7.284806823730468750e+01 -2.972106742858886719e+01 1.978766173124313354e-02 3.980922698974609375e+00 1.200213074684143066e+00 1.089932769536972046e-01
5.860000000000000000e+02 7.089130401611328125e+01 -2.297998237609863281e+01 2.383003570139408112e-02 3.814657688140869141e+00 1.151546359062194824e+00 1.587357819080352783e-01
5.870000000000000000e+02 7.161457061767578125e+01 -1.726436233520507812e+01 4.177166894078254700e-02 3.993920803070068359e+00 1.210707664489746094e+00 1.914630532264709473e-01
5.880000000000000000e+02 7.273118591308593750e+01 -1.861801338195800781e+01 2.705697715282440186e-02 4.129373073577880859e+00 1.246929049491882324e+00 1.614367365837097168e-01
5.890000000000000000e+02 7.874257659912109375e+01 -4.041120147705078125e+01 -1.067176647484302521e-02 4.560406208038330078e+00 1.364920377731323242e+00 5.780180543661117554e-02
5.900000000000000000e+02 7.698583984375000000e+01 -3.771290588378906250e+01 -1.153875375166535378e-03 4.408485412597656250e+00 1.322199463844299316e+00 4.892560094594955444e-02
5.910000000000000000e+02 7.916257476806640625e+01 -3.347954559326171875e+01 6.767449667677283287e-04 4.705567359924316406e+00 1.411873221397399902e+00 1.343330647796392441e-02
5.920000000000000000e+02 7.781792449951171875e+01 -3.072448730468750000e+01 1.311312546022236347e-03 4.581398963928222656e+00 1.374813079833984375e+00 3.452050313353538513e-02
5.930000000000000000e+02 7.930876922607421875e+01 -2.653950119018554688e+01 1.235996140167117119e-03 4.831752777099609375e+00 1.449896693229675293e+00 1.099796313792467117e-02
5.940000000000000000e+02 7.794612884521484375e+01 -2.388591194152832031e+01 1.683688024058938026e-03 4.718375205993652344e+00 1.416017770767211914e+00 4.177908226847648621e-02
5.950000000000000000e+02 7.799319458007812500e+01 -1.689680671691894531e+01 2.218405948951840401e-03 4.891958236694335938e+00 1.468253016471862793e+00 5.237241089344024658e-02
5.960000000000000000e+02 7.931841278076171875e+01 -2.236194038391113281e+01 3.577162278816103935e-04 4.923058986663818359e+00 1.477024912834167480e+00 1.267511025071144104e-02
5.970000000000000000e+02 7.826608276367187500e+01 1.112331390380859375e+01 2.162724360823631287e-02 6.996061325073242188e+00 2.105306625366210938e+00 2.964384257793426514e-01
5.980000000000000000e+02 7.944827270507812500e+01 1.667687797546386719e+01 8.346438407897949219e-03 8.682619094848632812e+00 2.607289552688598633e+00 1.478675603866577148e-01
5.990000000000000000e+02 7.384806823730468750e+01 2.338586997985839844e+01 5.535472035408020020e-01 5.907760143280029297e+00 1.938392162322998047e+00 1.853300929069519043e+00
6.000000000000000000e+02 6.395731353759765625e+01 3.232546234130859375e+01 -3.411939144134521484e+00 -7.580715231597423553e-03 -1.025856018066406250e+00 -3.899934291839599609e-01
6.010000000000000000e+02 6.319601440429687500e+01 3.238652420043945312e+01 -3.229481458663940430e+00 1.032537873834371567e-02 -9.657468199729919434e-01 -3.804078698158264160e-01
6.020000000000000000e+02 6.016322708129882812e+01 3.269114303588867188e+01 -2.427074432373046875e+00 7.297760993242263794e-02 -7.062290906906127930e-01 -3.876773715019226074e-01
6.030000000000000000e+02 7.834973144531250000e+01 1.795327186584472656e+01 4.736854135990142822e-02 8.578938484191894531e+00 2.587892055511474609e+00 5.334490537643432617e-01
6.040000000000000000e+02 7.942378234863281250e+01 2.357781982421875000e+01 7.393444888293743134e-03 1.183836555480957031e+01 3.553727626800537109e+00 2.930776178836822510e-01
6.050000000000000000e+02 6.927299499511718750e+01 3.214498901367187500e+01 -4.240000724792480469e+00 -3.968397527933120728e-02 -1.283905386924743652e+00 -3.786479532718658447e-01
6.060000000000000000e+02 6.835181427001953125e+01 3.156019592285156250e+01 -3.446983575820922852e+00 -3.174244612455368042e-02 -1.043617844581604004e+00 -4.323892891407012939e-01
6.070000000000000000e+02 6.624485015869140625e+01 3.219981002807617188e+01 -3.897114753723144531e+00 -4.672035202383995056e-02 -1.183150529861450195e+00 -4.179660677909851074e-01
6.080000000000000000e+02 7.827906036376953125e+01 2.333451843261718750e+01 5.877894163131713867e-02 1.063350868225097656e+01 3.207686424255371094e+00 9.301892518997192383e-01
6.090000000000000000e+02 7.190706634521484375e+01 3.215718841552734375e+01 -3.766402721405029297e+00 1.956181228160858154e-01 -1.071235418319702148e+00 1.221588701009750366e-01
6.100000000000000000e+02 7.833797454833984375e+01 3.435461807250976562e+01 4.104149818420410156e+00 1.642525291442871094e+01 6.158820629119873047e+00 1.510894417762756348e+00
6.110000000000000000e+02 7.648056030273437500e+01 3.598191833496093750e+01 -2.135507583618164062e+00 1.726972579956054688e+01 4.540265560150146484e+00 -3.910901784896850586e+00
6.120000000000000000e+02 7.149309539794921875e+01 3.581529617309570312e+01 -1.230549812316894531e+00 2.097449898719787598e-01 -3.062414526939392090e-01 4.080592989921569824e-01
6.130000000000000000e+02 7.352710723876953125e+01 3.590434265136718750e+01 -2.479605227708816528e-01 1.347837805747985840e+00 3.299631774425506592e-01 -9.980255365371704102e-01
6.140000000000000000e+02 6.859833526611328125e+01 3.584608840942382812e+01 -1.167182564735412598e+00 3.011135384440422058e-02 -3.411213457584381104e-01 8.672583103179931641e-01
6.150000000000000000e+02 6.532476806640625000e+01 3.712020492553710938e+01 -1.150552779436111450e-01 -2.462991327047348022e-01 -1.084063202142715454e-01 6.640897989273071289e-01
6.160000000000000000e+02 6.287740707397460938e+01 3.745939636230468750e+01 5.042858049273490906e-02 -2.332195341587066650e-01 -5.483728647232055664e-02 3.606683015823364258e-01
6.170000000000000000e+02 6.363406372070312500e+01 3.734901428222656250e+01 7.248508743941783905e-03 -2.734845280647277832e-01 -7.987080514430999756e-02 4.484184682369232178e-01
6.180000000000000000e+02 5.657622909545898438e+01 3.870985794067382812e+01 2.190869003534317017e-01 -9.007985889911651611e-02 3.870211169123649597e-02 2.669560257345438004e-03
6.190000000000000000e+02 5.981319046020507812e+01 3.635008621215820312e+01 -1.035527326166629791e-02 -7.058980315923690796e-02 -2.428352274000644684e-02 1.267125159502029419e-01
6.200000000000000000e+02 5.709962463378906250e+01 3.690548324584960938e+01 7.577511668205261230e-02 -4.742692410945892334e-02 8.504458703100681305e-03 1.563195325434207916e-02
6.210000000000000000e+02 5.384112930297851562e+01 3.740792465209960938e+01 1.081419363617897034e-02 3.382338955998420715e-02 1.339127495884895325e-02 -2.348535694181919098e-02
6.220000000000000000e+02 5.464802169799804688e+01 3.728949356079101562e+01 5.914770439267158508e-02 2.488588914275169373e-02 2.521007694303989410e-02 -4.712828248739242554e-02
6.230000000000000000e+02 5.402527618408203125e+01 3.765689849853515625e+01 3.828896209597587585e-02 4.034888744354248047e-02 2.359135448932647705e-02 -4.917483404278755188e-02
6.240000000000000000e+02 4.536779785156250000e+01 3.493515014648437500e+01 1.285712271928787231e-01 6.968173384666442871e-02 5.947588756680488586e-02 9.295467287302017212e-02
6.250000000000000000e+02 4.562268829345703125e+01 3.515632629394531250e+01 1.281248182058334351e-01 6.684242933988571167e-02 5.849017575383186340e-02 9.313719719648361206e-02
6.260000000000000000e+02 3.919667816162109375e+01 3.533235549926757812e+01 1.120436564087867737e-01 8.596872538328170776e-02 5.940371379256248474e-02 7.378381490707397461e-02
6.270000000000000000e+02 3.695179748535156250e+01 2.741767883300781250e+01 9.853303432464599609e-02 1.308237463235855103e-01 6.880703568458557129e-02 1.112932041287422180e-01
6.280000000000000000e+02 3.167702102661132812e+01 2.141234779357910156e+01 1.162668392062187195e-01 1.070516854524612427e-01 6.699555367231369019e-02 1.126736178994178772e-01
6.290000000000000000e+02 3.540980911254882812e+01 2.558268165588378906e+01 9.556092321872711182e-02 1.219834983348846436e-01 6.526332348585128784e-02 1.075599789619445801e-01
6.300000000000000000e+02 2.759792900085449219e+01 3.779363250732421875e+01 3.570155054330825806e-02 1.021238490939140320e-01 4.134761914610862732e-02 2.732058055698871613e-02
6.310000000000000000e+02 3.080637168884277344e+01 2.058358764648437500e+01 1.298972368240356445e-01 1.275999695062637329e-01 7.724916189908981323e-02 1.276859641075134277e-01
6.320000000000000000e+02 2.622859382629394531e+01 1.614728927612304688e+01 1.583276093006134033e-01 1.750177592039108276e-01 1.000036150217056274e-01 1.655272543430328369e-01
6.330000000000000000e+02 1.776806831359863281e+01 1.311326026916503906e+01 1.061675697565078735e-01 2.436828613281250000e-01 1.049551293253898621e-01 1.560924351215362549e-01
6.340000000000000000e+02 6.362293720245361328e+00 1.782331466674804688e+01 2.568140393123030663e-03 -8.405241370201110840e-02 -2.444528229534626007e-02 -2.524616010487079620e-02
6.350000000000000000e+02 1.735462307929992676e+00 1.917217636108398438e+01 -9.066414349945262074e-05 -2.475563287734985352e-01 -7.429409772157669067e-02 -1.601259410381317139e-02
6.360000000000000000e+02 5.628227591514587402e-01 1.353756618499755859e+01 7.749680662527680397e-04 -3.394312560558319092e-01 -1.015968844294548035e-01 -2.619714476168155670e-03
6.370000000000000000e+02 1.654296994209289551e+00 9.373533248901367188e+00 1.258949097245931625e-02 -2.616096138954162598e-01 -7.470603287220001221e-02 3.006375394761562347e-02
6.380000000000000000e+02 5.506408810615539551e-01 6.444222450256347656e+00 5.157758132554590702e-04 -2.173681706190109253e-01 -6.505572050809860229e-02 2.451312169432640076e-02
6.390000000000000000e+02 1.236421108245849609e+00 3.497939586639404297e+00 -9.657066315412521362e-03 -8.402834832668304443e-02 -2.810562402009963989e-02 5.428711324930191040e-02
6.400000000000000000e+02 1.752516937255859375e+01 4.089739227294921875e+01 -4.907103255391120911e-03 4.489064961671829224e-02 1.199506316334009171e-02 2.635400509461760521e-03
6.410000000000000000e+02 2.238283538818359375e+01 4.079923629760742188e+01 1.052502542734146118e-02 8.252060413360595703e-02 2.791368961334228516e-02 6.928432267159223557e-03
6.420000000000000000e+02 2.614825057983398438e+01 2.936609649658203125e+01 3.590246289968490601e-02 1.253229528665542603e-01 4.836762696504592896e-02 7.076248526573181152e-02
6.430000000000000000e+02 2.758068084716796875e+01 2.254327774047851562e+01 8.048476278781890869e-02 1.469785869121551514e-01 6.823900341987609863e-02 1.146887987852096558e-01
6.440000000000000000e+02 2.618195533752441406e+01 2.152124214172363281e+01 8.236061781644821167e-02 1.539110690355300903e-01 7.088150829076766968e-02 1.171703636646270752e-01
6.450000000000000000e+02 1.759271812438964844e+01 3.759339141845703125e+01 -3.924346528947353363e-03 4.811629652976989746e-02 1.325758546590805054e-02 9.116122499108314514e-03
6.460000000000000000e+02 1.753421020507812500e+01 2.945267105102539062e+01 -2.495906781405210495e-03 7.968389987945556641e-02 2.315639704465866089e-02 2.680003270506858826e-02
6.470000000000000000e+02 1.326788711547851562e+01 2.301419448852539062e+01 -4.568122327327728271e-03 6.784649193286895752e-02 1.898350939154624939e-02 1.412340439856052399e-02
6.480000000000000000e+02 1.279262256622314453e+01 2.461230659484863281e+01 -7.176943123340606689e-03 4.703007638454437256e-02 1.195594016462564468e-02 7.442185655236244202e-03
6.490000000000000000e+02 1.274927139282226562e+01 4.075149154663085938e+01 -8.835691958665847778e-03 -1.130433566868305206e-02 -6.042008288204669952e-03 7.204079156508669257e-05
6.500000000000000000e+02 1.061115646362304688e+01 3.612619400024414062e+01 -9.166369214653968811e-03 -3.590545058250427246e-02 -1.352154556661844254e-02 -2.441748511046171188e-03
6.510000000000000000e+02 7.185657978057861328e+00 3.155550003051757812e+01 -6.932739168405532837e-03 -8.378859609365463257e-02 -2.721640095114707947e-02 -1.323537062853574753e-02
6.520000000000000000e+02 6.644584178924560547e+00 2.450103187561035156e+01 -7.055307738482952118e-03 -8.786701411008834839e-02 -2.847669646143913269e-02 -2.140993438661098480e-02
6.530000000000000000e+02 1.955706596374511719e+00 4.163304138183593750e+01 -6.855465006083250046e-03 -1.645497381687164307e-01 -5.142156407237052917e-02 -1.939612557180225849e-03
6.540000000000000000e+02 5.433757305145263672e+00 3.782415771484375000e+01 -2.124290680512785912e-03 -1.117259189486503601e-01 -3.415506333112716675e-02 -1.195179414935410023e-03
6.550000000000000000e+02 1.868128895759582520e+00 3.607308197021484375e+01 2.443720819428563118e-03 -1.713366806507110596e-01 -5.066788941621780396e-02 -4.772027488797903061e-03
6.560000000000000000e+02 2.064576625823974609e+00 2.898407363891601562e+01 -1.177551108412444592e-03 -1.851625889539718628e-01 -5.590204149484634399e-02 -9.225602261722087860e-03
6.570000000000000000e+02 1.750476121902465820e+00 2.056763648986816406e+01 -8.721401100046932697e-04 -2.373599708080291748e-01 -7.146963477134704590e-02 -1.542105898261070251e-02
6.580000000000000000e+02 5.486299514770507812e+00 1.868099689483642578e+00 -1.837308108806610107e-01 -4.902186989784240723e-02 -6.982580572366714478e-02 1.731733977794647217e-01
6.590000000000000000e+02 7.743822097778320312e+00 2.484810829162597656e+00 -1.755384504795074463e-01 -1.749162524938583374e-01 -1.051364094018936157e-01 3.392051458358764648e-01
6.600000000000000000e+02 6.092844963073730469e+00 1.084607696533203125e+01 7.248981297016143799e-02 -1.032450199127197266e-01 -9.226562455296516418e-03 7.487457245588302612e-03
6.610000000000000000e+02 7.560945034027099609e+00 1.781655693054199219e+01 4.156997893005609512e-03 -4.100685194134712219e-02 -1.105495635420084000e-02 -2.231097035109996796e-02
6.620000000000000000e+02 1.373922824859619141e+01 2.140326976776123047e+00 7.956487536430358887e-01 3.958895206451416016e+00 1.426363229751586914e+00 -1.121356964111328125e+00
6.630000000000000000e+02 1.411649036407470703e+01 1.347526907920837402e+00 3.460448503494262695e+00 3.600208044052124023e+00 2.118196964263916016e+00 -2.618437767028808594e+00
6.640000000000000000e+02 1.541032695770263672e+01 8.580541014671325684e-01 8.575654983520507812e+00 2.256282418966293335e-01 2.640384912490844727e+00 -8.760697841644287109e-01
6.650000000000000000e+02 1.382665348052978516e+01 1.717602849006652832e+00 2.036537647247314453e+00 3.891047239303588867e+00 1.778275489807128906e+00 -1.900265336036682129e+00
6.660000000000000000e+02 1.058005905151367188e+01 1.681568026542663574e+00 -2.473816424608230591e-01 -4.849330484867095947e-01 -2.196944206953048706e-01 6.253759264945983887e-01
6.670000000000000000e+02 1.133469295501708984e+01 1.562915563583374023e+00 -8.199338614940643311e-02 -5.431106090545654297e-01 -1.875312030315399170e-01 6.341986656188964844e-01
6.680000000000000000e+02 1.411641693115234375e+01 3.763372182846069336e+00 5.158429145812988281e-01 1.654490470886230469e+00 6.511000394821166992e-01 7.387740612030029297e-01
6.690000000000000000e+02 1.634340667724609375e+01 6.112182140350341797e+00 3.492883145809173584e-01 4.069689512252807617e-01 2.268771827220916748e-01 3.713935315608978271e-01
6.700000000000000000e+02 2.140251922607421875e+01 1.127214241027832031e+01 2.118690758943557739e-01 2.254544347524642944e-01 1.311970502138137817e-01 2.184678763151168823e-01
6.710000000000000000e+02 2.474957466125488281e+01 1.471761798858642578e+01 1.764332056045532227e-01 1.626790463924407959e-01 1.017336770892143250e-01 1.721776872873306274e-01
6.720000000000000000e+02 4.942090225219726562e+01 3.766333007812500000e+01 2.527543008327484131e-01 3.425424918532371521e-02 8.610256761312484741e-02 9.882539510726928711e-02
6.730000000000000000e+02 4.865521621704101562e+01 3.798877716064453125e+01 2.500692009925842285e-01 5.659091100096702576e-02 9.199803322553634644e-02 1.016865298151969910e-01
6.740000000000000000e+02 5.208316802978515625e+01 3.865849304199218750e+01 5.540925264358520508e-01 9.323967993259429932e-02 1.941996663808822632e-01 1.531542390584945679e-01
6.750000000000000000e+02 5.248359680175781250e+01 3.878826141357421875e+01 7.933643460273742676e-01 8.194320648908615112e-02 2.625922560691833496e-01 3.200208023190498352e-02
6.760000000000000000e+02 5.289091873168945312e+01 3.891613769531250000e+01 6.986096501350402832e-01 1.310713142156600952e-01 2.489042878150939941e-01 -6.249531731009483337e-02
6.770000000000000000e+02 5.328142929077148438e+01 3.915393829345703125e+01 4.689160883426666260e-01 1.120599433779716492e-01 1.742928177118301392e-01 -2.168025448918342590e-02
6.780000000000000000e+02 5.303826141357421875e+01 3.948855209350585938e+01 4.257812500000000000e-01 1.430117487907409668e-01 1.706379055976867676e-01 7.571970578283071518e-03
6.790000000000000000e+02 5.361116409301757812e+01 3.820800781250000000e+01 1.646301448345184326e-01 1.870791614055633545e-01 1.055127978324890137e-01 -1.612186878919601440e-01
6.800000000000000000e+02 5.129383468627929688e+01 3.822640228271484375e+01 3.021986782550811768e-01 6.067465990781784058e-02 1.088619977235794067e-01 1.341434568166732788e-01
6.810000000000000000e+02 7.668780517578125000e+01 3.561627578735351562e+01 -2.694430589675903320e+00 2.067225074768066406e+01 5.393345832824707031e+00 -3.599246740341186523e+00
6.820000000000000000e+02 7.773721313476562500e+01 3.524549865722656250e+01 -1.910568773746490479e-01 2.027290916442871094e+01 6.024555683135986328e+00 2.427736282348632812e+00
6.830000000000000000e+02 7.829398345947265625e+01 3.337639617919921875e+01 3.304388523101806641e+00 1.631664276123046875e+01 5.886309623718261719e+00 -2.778561830520629883e+00
6.840000000000000000e+02 7.765955352783203125e+01 3.277038955688476562e+01 -4.150208234786987305e-01 2.125238800048828125e+01 6.251210212707519531e+00 -3.338270664215087891e+00
6.850000000000000000e+02 7.714816284179687500e+01 3.246053695678710938e+01 -2.892367362976074219e+00 2.216737174987792969e+01 5.782501220703125000e+00 1.071435958147048950e-01
6.860000000000000000e+02 3.602831649780273438e+01 -1.698952865600585938e+01 -1.721223630011081696e-02 -5.109967589378356934e-01 -1.584626883268356323e-01 1.989949643611907959e-01
6.870000000000000000e+02 4.001032257080078125e+01 -2.422832107543945312e+01 -1.715613603591918945e-01 -5.551951527595520020e-01 -2.180269509553909302e-01 3.379986584186553955e-01
6.880000000000000000e+02 4.041279602050781250e+01 -2.726503753662109375e+01 -2.743566334247589111e-01 -7.032431960105895996e-01 -2.932799458503723145e-01 4.253629744052886963e-01
6.890000000000000000e+02 3.960199737548828125e+01 -1.805224609375000000e+01 7.629816234111785889e-02 -3.613874912261962891e-01 -8.552679419517517090e-02 1.306284517049789429e-01
6.900000000000000000e+02 4.114810562133789062e+01 -1.554578495025634766e+01 2.271115332841873169e-01 -2.224869132041931152e-01 1.387383439578115940e-03 4.510011151432991028e-02
6.910000000000000000e+02 3.564490890502929688e+01 -1.893415832519531250e+01 -1.653691381216049194e-01 -6.259813904762268066e-01 -2.374051660299301147e-01 3.400226831436157227e-01
6.920000000000000000e+02 3.424368286132812500e+01 -1.655170440673828125e+01 -1.049765720963478088e-01 -5.021651983261108398e-01 -1.821425259113311768e-01 2.568544745445251465e-01
6.930000000000000000e+02 4.297011184692382812e+01 -2.688575553894042969e+01 -1.570230722427368164e-01 -3.024246394634246826e-01 -1.378343105316162109e-01 2.718291282653808594e-01
6.940000000000000000e+02 4.134123992919921875e+01 -2.653615951538085938e+01 -1.948204785585403442e-01 -5.218791961669921875e-01 -2.150099128484725952e-01 3.597908020019531250e-01
6.950000000000000000e+02 4.513360595703125000e+01 -3.465785980224609375e+01 -1.264621764421463013e-01 -7.239703088998794556e-02 -5.965775996446609497e-02 3.069956302642822266e-01
6.960000000000000000e+02 3.831056213378906250e+01 -4.150451660156250000e+01 1.475134968757629395e+00 5.088995695114135742e-01 5.952103734016418457e-01 -4.869110509753227234e-02
6.970000000000000000e+02 3.578221511840820312e+01 -4.016380310058593750e+01 1.188798546791076660e+00 3.735831379890441895e-01 4.687145054340362549e-01 -2.911191880702972412e-01
6.980000000000000000e+02 6.526284027099609375e+01 2.829634094238281250e+01 -1.115208148956298828e+00 2.250367999076843262e-01 -2.670513987541198730e-01 -5.571014285087585449e-01
6.990000000000000000e+02 6.771739959716796875e+01 2.816556739807128906e+01 -7.115593552589416504e-01 5.163360238075256348e-01 -5.856700986623764038e-02 -7.761397212743759155e-02
7.000000000000000000e+02 4.620785140991210938e+01 2.661326217651367188e+01 -1.326191902160644531e+00 -1.205014824867248535e+00 -7.593620419502258301e-01 -1.301739454269409180e+00
7.010000000000000000e+02 4.777546310424804688e+01 1.480405521392822266e+01 -4.013643562793731689e-01 -3.586583435535430908e-01 -2.280068099498748779e-01 -5.569914579391479492e-01
7.020000000000000000e+02 4.833980178833007812e+01 -1.175754070281982422e-01 3.099043369293212891e-01 2.743588089942932129e-01 1.752789318561553955e-01 1.395485699176788330e-01
7.030000000000000000e+02 4.609836959838867188e+01 1.275490760803222656e+00 2.116628289222717285e-01 1.279768999665975571e-03 6.388278305530548096e-02 5.806356295943260193e-02
7.040000000000000000e+02 6.011253356933593750e+01 1.064697742462158203e+00 3.821994960308074951e-01 1.987772107124328613e+00 7.109915018081665039e-01 4.650450646877288818e-01
7.050000000000000000e+02 5.865285491943359375e+01 1.700481414794921875e+00 3.880206346511840820e-01 1.701053261756896973e+00 6.267221570014953613e-01 4.197615385055541992e-01
7.060000000000000000e+02 6.009128189086914062e+01 1.247774219512939453e+01 3.900035619735717773e-01 1.396376967430114746e+00 5.359141826629638672e-01 2.878385782241821289e-01
7.070000000000000000e+02 5.799005889892578125e+01 2.091578292846679688e+01 -1.961989253759384155e-01 4.447548091411590576e-01 7.456676661968231201e-02 -4.765179455280303955e-01
7.080000000000000000e+02 4.843862915039062500e+01 2.231128883361816406e+01 -9.542857408523559570e-01 -6.586729288101196289e-01 -4.838875830173492432e-01 -9.295094609260559082e-01
7.090000000000000000e+02 4.016013336181640625e+01 2.146955299377441406e+01 -1.281980752944946289e+00 -1.072617888450622559e+00 -7.063795924186706543e-01 -1.193134546279907227e+00
7.100000000000000000e+02 4.597011947631835938e+01 2.691886329650878906e+01 -1.330832958221435547e+00 -1.242441892623901367e+00 -7.719824314117431641e-01 -1.300011754035949707e+00
7.110000000000000000e+02 4.568579101562500000e+01 2.664154815673828125e+01 -1.311666011810302734e+00 -1.284382224082946777e+00 -7.788144350051879883e-01 -1.313686847686767578e+00
7.120000000000000000e+02 3.358109664916992188e+01 1.351337432861328125e+01 -1.313411235809326172e+00 -1.459912896156311035e+00 -8.319972753524780273e-01 -1.344574689865112305e+00
7.130000000000000000e+02 3.324642562866210938e+01 1.377417755126953125e+01 -1.419385671615600586e+00 -1.492020487785339355e+00 -8.734218478202819824e-01 -1.431919693946838379e+00
7.140000000000000000e+02 3.356900405883789062e+01 6.099337577819824219e+00 -1.046576499938964844e+00 -8.046023845672607422e-01 -5.553537011146545410e-01 -6.902711391448974609e-01
7.150000000000000000e+02 3.277831649780273438e+01 5.570531845092773438e+00 -1.145462870597839355e+00 -7.853844761848449707e-01 -5.792542099952697754e-01 -6.921447515487670898e-01
7.160000000000000000e+02 4.186332702636718750e+01 -1.239233374595642090e+00 2.510160207748413086e-01 -3.193556070327758789e-01 -2.050186879932880402e-02 5.585024878382682800e-02
7.170000000000000000e+02 4.118861770629882812e+01 5.337029695510864258e-01 1.181473359465599060e-01 -3.808256387710571289e-01 -7.880348712205886841e-02 6.679724436253309250e-03
7.180000000000000000e+02 3.940076446533203125e+01 1.249109268188476562e+01 -8.265237212181091309e-01 -9.287481307983398438e-01 -5.265815258026123047e-01 -8.431989550590515137e-01
7.190000000000000000e+02 3.966065979003906250e+01 1.973574447631835938e+01 -1.070750474929809570e+00 -1.205805778503417969e+00 -6.829668879508972168e-01 -1.231027483940124512e+00
7.200000000000000000e+02 4.022717285156250000e+01 1.976205635070800781e+01 -1.072022318840026855e+00 -1.178813338279724121e+00 -6.752507090568542480e-01 -1.234553694725036621e+00
7.210000000000000000e+02 6.581382751464843750e+01 1.931716918945312500e+01 6.159310340881347656e-01 1.940458178520202637e+00 7.669167518615722656e-01 5.561962127685546875e-01
7.220000000000000000e+02 6.788919067382812500e+01 1.676500511169433594e+01 6.564049124717712402e-01 3.007395744323730469e+00 1.099140167236328125e+00 9.201180338859558105e-01
7.230000000000000000e+02 7.300000000000000000e+01 1.995726013183593750e+01 5.832781195640563965e-01 5.375694274902343750e+00 1.787691712379455566e+00 1.498633503913879395e+00
7.240000000000000000e+02 3.912076568603515625e+01 1.193522548675537109e+01 -8.212029933929443359e-01 -9.211348295211791992e-01 -5.227013230323791504e-01 -8.231784701347351074e-01
7.250000000000000000e+02 3.877888107299804688e+01 2.004895019531250000e+01 -9.890012145042419434e-01 -1.299124360084533691e+00 -6.864376664161682129e-01 -1.157873988151550293e+00
7.260000000000000000e+02 5.974505233764648438e+01 1.024756145477294922e+01 4.015885889530181885e-01 1.495818138122558594e+00 5.692220330238342285e-01 3.517523407936096191e-01
7.270000000000000000e+02 4.879669952392578125e+01 1.528724765777587891e+01 -3.740458786487579346e-01 -2.828208208084106445e-01 -1.970600038766860962e-01 -5.351691246032714844e-01
7.280000000000000000e+02 7.370041656494140625e+01 1.131488037109375000e+01 2.286901026964187622e-01 5.471208095550537109e+00 1.709969520568847656e+00 8.367941975593566895e-01
7.290000000000000000e+02 7.258856964111328125e+01 1.142580032348632812e+01 2.938108146190643311e-01 5.067394733428955078e+00 1.608361601829528809e+00 8.985215425491333008e-01
7.300000000000000000e+02 6.689625549316406250e+01 1.002738571166992188e+01 4.623347222805023193e-01 3.194411993026733398e+00 1.097023963928222656e+00 7.835271358489990234e-01
7.310000000000000000e+02 6.427462768554687500e+01 -1.255074024200439453e+00 3.076918125152587891e-01 2.847882986068725586e+00 9.466723799705505371e-01 5.220835208892822266e-01
7.320000000000000000e+02 7.224560546875000000e+01 2.025420188903808594e+00 1.422816216945648193e-01 4.605809688568115234e+00 1.424427390098571777e+00 5.278000831604003906e-01
7.330000000000000000e+02 6.576419067382812500e+01 2.674846172332763672e+00 3.339608311653137207e-01 3.113243341445922852e+00 1.034161210060119629e+00 6.187684535980224609e-01
7.340000000000000000e+02 1.243138408660888672e+01 -1.026714611053466797e+01 -4.064547643065452576e-02 -5.502039790153503418e-01 -1.772548407316207886e-01 -5.784032940864562988e-01
7.350000000000000000e+02 1.945630073547363281e+01 -1.862656974792480469e+01 2.077646106481552124e-01 -1.155027374625205994e-01 2.767856419086456299e-02 -2.589953243732452393e-01
7.360000000000000000e+02 6.561779022216796875e+00 -1.681060409545898438e+01 4.910324886441230774e-02 -5.941028594970703125e-01 -1.634998768568038940e-01 -3.333482742309570312e-01
7.370000000000000000e+02 5.454801917076110840e-01 -1.068559074401855469e+01 -3.031056141480803490e-03 -2.551286816596984863e-01 -7.744792848825454712e-02 -3.640162572264671326e-02
7.380000000000000000e+02 1.600251579284667969e+01 -2.331898307800292969e+01 1.979802399873733521e-01 -3.027768433094024658e-01 -3.143898025155067444e-02 -2.966796755790710449e-01
7.390000000000000000e+02 7.366152763366699219e+00 -2.376097679138183594e+01 6.780172139406204224e-02 -7.407391071319580078e-01 -2.018812149763107300e-01 -2.532912194728851318e-01
7.400000000000000000e+02 5.986199975013732910e-01 -1.768992233276367188e+01 1.230819732882082462e-03 -7.644693851470947266e-01 -2.289715707302093506e-01 -4.021940007805824280e-02
7.410000000000000000e+02 1.838910865783691406e+01 -3.578934860229492188e+01 2.146001756191253662e-01 -2.164889872074127197e-01 -5.666432552970945835e-04 -1.430186033248901367e-01
7.420000000000000000e+02 2.427534675598144531e+01 -2.612997055053710938e+01 2.240040451288223267e-01 2.890432178974151611e-01 1.539141833782196045e-01 -2.943284213542938232e-01
7.430000000000000000e+02 6.346415877342224121e-01 -2.331417465209960938e+01 3.375513770151883364e-04 -1.090625762939453125e+00 -3.270864784717559814e-01 -3.052700310945510864e-02
7.440000000000000000e+02 2.555424308776855469e+01 -3.084759140014648438e+01 3.077809810638427734e-01 3.095755875110626221e-01 1.852069646120071411e-01 -2.987836003303527832e-01
7.450000000000000000e+02 7.170763611793518066e-01 -3.033131790161132812e+01 2.164720557630062103e-03 -1.341411471366882324e+00 -4.017740488052368164e-01 -1.589035801589488983e-02
7.460000000000000000e+02 7.398619842529296875e+01 -3.029933357238769531e+01 1.864806562662124634e-02 4.110662937164306641e+00 1.238793373107910156e+00 8.579286187887191772e-02
7.470000000000000000e+02 6.533114624023437500e+01 -3.188132095336914062e+01 7.635883986949920654e-02 2.989022493362426758e+00 9.196143746376037598e-01 1.631601005792617798e-01
7.480000000000000000e+02 7.235400390625000000e+01 -2.443416595458984375e+01 1.842061430215835571e-02 3.993615627288818359e+00 1.203610897064208984e+00 1.355635821819305420e-01
7.490000000000000000e+02 6.638699340820312500e+01 -2.240779876708984375e+01 5.154307931661605835e-02 3.177651405334472656e+00 9.687583446502685547e-01 2.078486382961273193e-01
7.500000000000000000e+02 5.644099426269531250e+01 -1.951403236389160156e+01 1.393435448408126831e-01 1.742510318756103516e+00 5.645561814308166504e-01 1.882912665605545044e-01
7.510000000000000000e+02 4.501826095581054688e+01 -3.314899063110351562e+01 -1.549152880907058716e-01 -1.973266303539276123e-01 -1.056725829839706421e-01 3.369975686073303223e-01
7.520000000000000000e+02 7.275921630859375000e+01 -4.170096397399902344e+00 8.581149578094482422e-02 4.502629756927490234e+00 1.376532435417175293e+00 3.530677556991577148e-01
7.530000000000000000e+02 7.142305755615234375e+01 -1.047261142730712891e+01 7.146634161472320557e-02 4.084925174713134766e+00 1.246917486190795898e+00 2.839149236679077148e-01
7.540000000000000000e+02 6.630098724365234375e+01 -1.444800972938537598e+00 2.601674795150756836e-01 3.251606225967407227e+00 1.053532123565673828e+00 5.333642363548278809e-01
7.550000000000000000e+02 6.755098724365234375e+01 -1.272516441345214844e+01 1.170498207211494446e-01 3.427508354187011719e+00 1.063367486000061035e+00 2.988939881324768066e-01
7.560000000000000000e+02 6.072707366943359375e+01 -3.576131343841552734e+00 3.373603820800781250e-01 2.203722953796386719e+00 7.623250484466552734e-01 4.319092631340026855e-01
7.570000000000000000e+02 5.361813735961914062e+01 -1.225146293640136719e+01 3.148359954357147217e-01 1.212097048759460449e+00 4.580799341201782227e-01 2.032405734062194824e-01
7.580000000000000000e+02 4.835363006591796875e+01 -4.101795196533203125e+00 4.036635160446166992e-01 3.516250252723693848e-01 2.265865653753280640e-01 1.684122830629348755e-01
7.590000000000000000e+02 4.655668640136718750e+01 -1.200816345214843750e+01 3.826338946819305420e-01 2.810786068439483643e-01 1.991137564182281494e-01 8.117687702178955078e-02
7.600000000000000000e+02 3.580560684204101562e+01 -6.798476696014404297e+00 5.689873099327087402e-01 -5.439272522926330566e-01 7.518020924180746078e-03 -4.641854017972946167e-02
7.610000000000000000e+02 1.677991867065429688e+01 3.120829010009765625e+01 -4.290337674319744110e-03 6.289076805114746094e-02 1.758012920618057251e-02 2.010859549045562744e-02
7.620000000000000000e+02 2.444711494445800781e+01 2.896197319030761719e+01 2.744297496974468231e-02 1.227451637387275696e-01 4.505643993616104126e-02 6.577769666910171509e-02
7.630000000000000000e+02 3.304327774047851562e+01 3.028325271606445312e+01 7.091868668794631958e-02 1.183228567242622375e-01 5.677246302366256714e-02 8.322956413030624390e-02
7.640000000000000000e+02 3.138505363464355469e+01 2.113974952697753906e+01 1.257271021604537964e-01 1.150566115975379944e-01 7.223511487245559692e-02 1.193996295332908630e-01
7.650000000000000000e+02 2.244410037994384766e+00 3.189022254943847656e+01 -1.424035290256142616e-03 -1.729695349931716919e-01 -5.231807380914688110e-02 -6.429864559322595596e-03
7.660000000000000000e+02 1.718130493164062500e+01 6.971566677093505859e+00 2.709469497203826904e-01 2.992671728134155273e-01 1.710642278194427490e-01 2.847745120525360107e-01
7.670000000000000000e+02 1.958736038208007812e+01 1.439596939086914062e+01 1.147132739424705505e-01 2.187905162572860718e-01 1.000511422753334045e-01 1.560907214879989624e-01
7.680000000000000000e+02 5.900958061218261719e+00 9.541044235229492188e+00 9.119676798582077026e-02 -1.267284154891967773e-01 -1.065949443727731705e-02 3.204322606325149536e-02
7.690000000000000000e+02 1.690562629699707031e+01 6.681662559509277344e+00 2.918510437011718750e-01 3.067515194416046143e-01 1.795807629823684692e-01 3.084664046764373779e-01
7.700000000000000000e+02 9.835521697998046875e+00 1.772899389266967773e+00 -3.415865898132324219e-01 -3.693232536315917969e-01 -2.132729589939117432e-01 5.307047367095947266e-01
7.710000000000000000e+02 5.199965286254882812e+01 3.276017379760742188e+01 -6.106035113334655762e-01 -6.765387654304504395e-01 -3.861426711082458496e-01 -6.474063396453857422e-01
7.720000000000000000e+02 5.421090316772460938e+01 3.368126296997070312e+01 -7.655044794082641602e-01 1.644107513129711151e-02 -2.247190177440643311e-01 -3.953483402729034424e-01
7.730000000000000000e+02 5.146048736572265625e+01 3.215179061889648438e+01 -8.310182690620422363e-01 -8.770229220390319824e-01 -5.124123692512512207e-01 -8.447914123535156250e-01
7.740000000000000000e+02 5.118296432495117188e+01 3.185910224914550781e+01 -9.281622767448425293e-01 -9.386022090911865234e-01 -5.600293278694152832e-01 -9.216215014457702637e-01
7.750000000000000000e+02 5.173263549804687500e+01 3.245196151733398438e+01 -7.240749001502990723e-01 -7.945327162742614746e-01 -4.555822908878326416e-01 -7.495238780975341797e-01
7.760000000000000000e+02 5.090140151977539062e+01 3.157257080078125000e+01 -1.007676601409912109e+00 -9.802778959274291992e-01 -5.963863134384155273e-01 -9.871434569358825684e-01
7.770000000000000000e+02 5.061704254150390625e+01 3.129014968872070312e+01 -1.075037002563476562e+00 -1.016987085342407227e+00 -6.276072263717651367e-01 -1.038234472274780273e+00
7.780000000000000000e+02 4.918394851684570312e+01 2.989917373657226562e+01 -1.296614527702331543e+00 -1.176771044731140137e+00 -7.420156598091125488e-01 -1.232570886611938477e+00
7.790000000000000000e+02 4.860809326171875000e+01 2.934725570678710938e+01 -1.394841313362121582e+00 -1.213559150695800781e+00 -7.825201153755187988e-01 -1.293397903442382812e+00
7.800000000000000000e+02 4.831667709350585938e+01 2.907441139221191406e+01 -1.430639863014221191e+00 -1.211908102035522461e+00 -7.927644252777099609e-01 -1.308377146720886230e+00
7.810000000000000000e+02 4.802304458618164062e+01 2.880385208129882812e+01 -1.449527859687805176e+00 -1.200914978981018066e+00 -7.951328754425048828e-01 -1.315030932426452637e+00
7.820000000000000000e+02 4.684170150756835938e+01 2.773312377929687500e+01 -1.410305023193359375e+00 -1.180529236793518066e+00 -7.772502899169921875e-01 -1.298449277877807617e+00
7.830000000000000000e+02 4.654858398437500000e+01 2.746412849426269531e+01 -1.383726954460144043e+00 -1.191865801811218262e+00 -7.726778388023376465e-01 -1.294153451919555664e+00
7.840000000000000000e+02 4.592463302612304688e+01 2.633958816528320312e+01 -1.328349471092224121e+00 -1.234744071960449219e+00 -7.689280509948730469e-01 -1.317305326461791992e+00
7.850000000000000000e+02 4.625786590576171875e+01 2.719291877746582031e+01 -1.355729579925537109e+00 -1.211249947547912598e+00 -7.700938582420349121e-01 -1.294750213623046875e+00
7.860000000000000000e+02 4.540534210205078125e+01 2.636069679260253906e+01 -1.308504819869995117e+00 -1.342350006103515625e+00 -7.952564954757690430e-01 -1.338410258293151855e+00
7.870000000000000000e+02 4.512816619873046875e+01 2.607651519775390625e+01 -1.334406375885009766e+00 -1.411995649337768555e+00 -8.239206075668334961e-01 -1.378541946411132812e+00
7.880000000000000000e+02 4.311326217651367188e+01 2.414009094238281250e+01 -1.568240761756896973e+00 -1.291396975517272949e+00 -8.578913211822509766e-01 -1.422118067741394043e+00
7.890000000000000000e+02 4.252043533325195312e+01 2.360721206665039062e+01 -1.491099953651428223e+00 -1.256265282630920410e+00 -8.242095708847045898e-01 -1.376173257827758789e+00
7.900000000000000000e+02 4.193541336059570312e+01 2.306811523437500000e+01 -1.463062167167663574e+00 -1.286467552185058594e+00 -8.248589038848876953e-01 -1.373479247093200684e+00
7.910000000000000000e+02 4.164431381225585938e+01 2.279638862609863281e+01 -1.485119462013244629e+00 -1.297302603721618652e+00 -8.347265720367431641e-01 -1.381644248962402344e+00
7.920000000000000000e+02 4.135138320922851562e+01 2.252593612670898438e+01 -1.513543128967285156e+00 -1.280130267143249512e+00 -8.381020426750183105e-01 -1.377526640892028809e+00
7.930000000000000000e+02 4.075571823120117188e+01 2.199560546875000000e+01 -1.465495944023132324e+00 -1.154199957847595215e+00 -7.859087586402893066e-01 -1.297749400138854980e+00
7.940000000000000000e+02 3.986984252929687500e+01 2.119995689392089844e+01 -1.191774964332580566e+00 -1.079508900642395020e+00 -6.813850998878479004e-01 -1.160798907279968262e+00
7.950000000000000000e+02 3.958647918701171875e+01 2.092285346984863281e+01 -1.117253780364990234e+00 -1.111022830009460449e+00 -6.684830188751220703e-01 -1.142433285713195801e+00
7.960000000000000000e+02 3.931008148193359375e+01 2.063790321350097656e+01 -1.056536078453063965e+00 -1.158503055572509766e+00 -6.645117402076721191e-01 -1.135991811752319336e+00
7.970000000000000000e+02 3.934747314453125000e+01 2.004005622863769531e+01 -1.052946329116821289e+00 -1.218023896217346191e+00 -6.812910437583923340e-01 -1.204914331436157227e+00
7.980000000000000000e+02 3.852117538452148438e+01 1.974725914001464844e+01 -9.867358207702636719e-01 -1.383073925971984863e+00 -7.109429240226745605e-01 -1.185145020484924316e+00
7.990000000000000000e+02 3.826605606079101562e+01 1.944208335876464844e+01 -1.001843929290771484e+00 -1.465219736099243164e+00 -7.401190996170043945e-01 -1.222310543060302734e+00
8.000000000000000000e+02 3.904105377197265625e+01 2.034612274169921875e+01 -1.012884974479675293e+00 -1.222212195396423340e+00 -6.705291867256164551e-01 -1.140629887580871582e+00
8.010000000000000000e+02 3.882505035400390625e+01 1.945127487182617188e+01 -1.050383210182189941e+00 -1.315910696983337402e+00 -7.098881602287292480e-01 -1.222852110862731934e+00
8.020000000000000000e+02 3.750277328491210938e+01 1.852089881896972656e+01 -1.140826463699340820e+00 -1.641368031501770020e+00 -8.346583843231201172e-01 -1.355598688125610352e+00
8.030000000000000000e+02 3.724435424804687500e+01 1.821661186218261719e+01 -1.197932958602905273e+00 -1.648333311080932617e+00 -8.538798689842224121e-01 -1.389911532402038574e+00
8.040000000000000000e+02 3.671708297729492188e+01 1.761753654479980469e+01 -1.262398004531860352e+00 -1.594472646713256836e+00 -8.570612072944641113e-01 -1.409429430961608887e+00
8.050000000000000000e+02 3.644975280761718750e+01 1.732167434692382812e+01 -1.271745800971984863e+00 -1.564771413803100586e+00 -8.509551882743835449e-01 -1.403562426567077637e+00
8.060000000000000000e+02 3.698224639892578125e+01 1.791559410095214844e+01 -1.240604877471923828e+00 -1.627680420875549316e+00 -8.604856133460998535e-01 -1.406189203262329102e+00
8.070000000000000000e+02 3.537272644042968750e+01 1.614783477783203125e+01 -1.270381569862365723e+00 -1.501708388328552246e+00 -8.316269516944885254e-01 -1.378602147102355957e+00
8.080000000000000000e+02 3.510293197631835938e+01 1.585558509826660156e+01 -1.258503437042236328e+00 -1.490143537521362305e+00 -8.245940804481506348e-01 -1.372634768486022949e+00
8.090000000000000000e+02 3.483394241333007812e+01 1.556321620941162109e+01 -1.246843099594116211e+00 -1.489332199096679688e+00 -8.208525776863098145e-01 -1.364894390106201172e+00
8.100000000000000000e+02 3.430174255371093750e+01 1.497516155242919922e+01 -1.242100596427917480e+00 -1.531931519508361816e+00 -8.322096467018127441e-01 -1.380142331123352051e+00
8.110000000000000000e+02 3.403916549682617188e+01 1.467779350280761719e+01 -1.274898052215576172e+00 -1.566604971885681152e+00 -8.524509072303771973e-01 -1.410752058029174805e+00
8.120000000000000000e+02 3.377717208862304688e+01 1.437813377380371094e+01 -1.339786171913146973e+00 -1.584902405738830566e+00 -8.774065971374511719e-01 -1.437355160713195801e+00
8.130000000000000000e+02 3.351348114013671875e+01 1.407664775848388672e+01 -1.395869255065917969e+00 -1.556480169296264648e+00 -8.857048749923706055e-01 -1.453026890754699707e+00
8.140000000000000000e+02 3.297542572021484375e+01 1.346980762481689453e+01 -1.386871337890625000e+00 -1.417783856391906738e+00 -8.413965702056884766e-01 -1.400982737541198730e+00
8.150000000000000000e+02 3.095762252807617188e+01 1.109885883331298828e+01 -1.506589531898498535e+00 -1.363985300064086914e+00 -8.611724376678466797e-01 -1.394564390182495117e+00
8.160000000000000000e+02 3.046466064453125000e+01 8.846605300903320312e+00 -1.362193822860717773e+00 -1.172257781028747559e+00 -7.603355050086975098e-01 -1.075499892234802246e+00
8.170000000000000000e+02 2.980652809143066406e+01 1.039298248291015625e+01 -1.552347421646118164e+00 -1.226704955101013184e+00 -8.337157368659973145e-01 -1.353338003158569336e+00
8.180000000000000000e+02 3.046366691589355469e+01 9.661156654357910156e+00 -1.475299000740051270e+00 -1.183089733123779297e+00 -7.975166440010070801e-01 -1.219877600669860840e+00
8.190000000000000000e+02 2.949258232116699219e+01 1.011273097991943359e+01 -1.584507822990417480e+00 -1.229402780532836914e+00 -8.441731929779052734e-01 -1.418687224388122559e+00
8.200000000000000000e+02 2.916650772094726562e+01 9.851861953735351562e+00 -1.635799765586853027e+00 -1.342736721038818359e+00 -8.935609459877014160e-01 -1.507563352584838867e+00
8.210000000000000000e+02 3.006532287597656250e+01 9.287919998168945312e+00 -1.517157316207885742e+00 -1.134855985641479492e+00 -7.956039905548095703e-01 -1.162799835205078125e+00
8.220000000000000000e+02 2.833793640136718750e+01 9.148619651794433594e+00 -2.456827878952026367e+00 -1.879292488098144531e+00 -1.300836086273193359e+00 -2.109193801879882812e+00
8.230000000000000000e+02 2.859630203247070312e+01 9.416404724121093750e+00 -2.088438749313354492e+00 -1.715998053550720215e+00 -1.141330957412719727e+00 -1.894958734512329102e+00
8.240000000000000000e+02 2.838096618652343750e+01 8.761321067810058594e+00 -2.994575738906860352e+00 -1.166319251060485840e+00 -1.248268485069274902e+00 -1.720001220703125000e+00
8.250000000000000000e+02 2.800809669494628906e+01 8.828354835510253906e+00 -3.418373823165893555e+00 -2.037193775177001953e+00 -1.636670231819152832e+00 -2.511271715164184570e+00
8.260000000000000000e+02 2.771314430236816406e+01 8.554718017578125000e+00 -3.857140064239501953e+00 -2.159460067749023438e+00 -1.804980039596557617e+00 -3.071135759353637695e+00
8.270000000000000000e+02 2.727041435241699219e+01 8.159408569335937500e+00 -4.107445240020751953e+00 -2.537506341934204102e+00 -1.993485569953918457e+00 -3.229078292846679688e+00
8.280000000000000000e+02 2.679916191101074219e+01 7.842544555664062500e+00 -4.500871658325195312e+00 -2.797536849975585938e+00 -2.189522504806518555e+00 -4.103048801422119141e+00
8.290000000000000000e+02 2.632375717163085938e+01 7.528436660766601562e+00 -5.998914718627929688e+00 -3.268461227416992188e+00 -2.780212879180908203e+00 -4.357506275177001953e+00
8.300000000000000000e+02 2.598110771179199219e+01 7.298938274383544922e+00 -6.603800773620605469e+00 -3.435078382492065430e+00 -3.011663675308227539e+00 -4.489320755004882812e+00
8.310000000000000000e+02 2.616645622253417969e+01 7.425003528594970703e+00 -5.823294639587402344e+00 -3.844804525375366211e+00 -2.900429725646972656e+00 -4.657141208648681641e+00
8.320000000000000000e+02 2.648079872131347656e+01 7.650261878967285156e+00 -5.498722553253173828e+00 -3.659370899200439453e+00 -2.747427940368652344e+00 -4.556284427642822266e+00
8.330000000000000000e+02 2.664261054992675781e+01 7.755420207977294922e+00 -5.644111633300781250e+00 -3.635882616043090820e+00 -2.783998250961303711e+00 -4.116363525390625000e+00
8.340000000000000000e+02 2.673066902160644531e+01 7.884767055511474609e+00 -5.154962062835693359e+00 -3.560314416885375977e+00 -2.614583015441894531e+00 -4.462425708770751953e+00
8.350000000000000000e+02 2.691510009765625000e+01 7.947913169860839844e+00 -5.215014934539794922e+00 -3.268630504608154297e+00 -2.545093536376953125e+00 -3.755581855773925781e+00
8.360000000000000000e+02 2.707943534851074219e+01 8.053480148315429688e+00 -4.595950126647949219e+00 -2.951142072677612305e+00 -2.264127492904663086e+00 -3.735957384109497070e+00
8.370000000000000000e+02 2.733045387268066406e+01 8.364109039306640625e+00 -4.554980754852294922e+00 -3.077931404113769531e+00 -2.289873600006103516e+00 -3.691930532455444336e+00
8.380000000000000000e+02 2.755171966552734375e+01 8.395728111267089844e+00 -4.318919181823730469e+00 -2.312575101852416992e+00 -1.989448308944702148e+00 -3.047841072082519531e+00
8.390000000000000000e+02 2.888558006286621094e+01 5.049883365631103516e+00 -2.092363357543945312e+00 -1.154861807823181152e+00 -9.741675257682800293e-01 -1.071573495864868164e+00
8.400000000000000000e+02 2.643036270141601562e+01 3.827137947082519531e+00 -2.675568580627441406e+00 -8.087518215179443359e-01 -1.045296072959899902e+00 -1.315407752990722656e+00
8.410000000000000000e+02 2.693421554565429688e+01 4.189362525939941406e+00 -2.565779685974121094e+00 -9.301189184188842773e-01 -1.048769593238830566e+00 -1.325081944465637207e+00
8.420000000000000000e+02 2.571881294250488281e+01 3.416348457336425781e+00 -2.826544761657714844e+00 -6.920100450515747070e-01 -1.055566430091857910e+00 -1.315603137016296387e+00
8.430000000000000000e+02 2.484316825866699219e+01 2.910896062850952148e+00 -3.005543947219848633e+00 -6.438131332397460938e-01 -1.094807147979736328e+00 -1.348478674888610840e+00
8.440000000000000000e+02 2.302389526367187500e+01 1.690781116485595703e+00 -2.802008628845214844e+00 -4.418514370918273926e-01 -9.731580018997192383e-01 -1.585551619529724121e+00
8.450000000000000000e+02 2.195009613037109375e+01 1.096219301223754883e+00 -2.474709987640380859e+00 -4.729033112525939941e-01 -8.842840194702148438e-01 -2.192583799362182617e+00
8.460000000000000000e+02 2.244926261901855469e+01 1.058543324470520020e+00 -2.412949800491333008e+00 -3.812168836593627930e-01 -8.382499814033508301e-01 -1.692665100097656250e+00
8.470000000000000000e+02 2.208793830871582031e+01 8.396409153938293457e-01 -2.175161838531494141e+00 -1.794223338365554810e-01 -7.063752412796020508e-01 -1.853256106376647949e+00
8.480000000000000000e+02 2.093910789489746094e+01 3.439807593822479248e-01 -1.716749429702758789e+00 -1.233806371688842773e+00 -8.851667642593383789e-01 -3.563141584396362305e+00
8.490000000000000000e+02 2.034699058532714844e+01 6.126343086361885071e-02 -9.277729988098144531e-01 -2.785136461257934570e+00 -1.113872885704040527e+00 -3.567518949508666992e+00
8.500000000000000000e+02 2.105373191833496094e+01 -8.405799418687820435e-02 -1.302979469299316406e+00 -6.977803260087966919e-02 -4.118272364139556885e-01 -3.097927093505859375e+00
8.510000000000000000e+02 2.001510429382324219e+01 -1.903014332056045532e-01 -1.192813038825988770e+00 -4.041932106018066406e+00 -1.570423483848571777e+00 -2.431756496429443359e+00
8.520000000000000000e+02 1.880091667175292969e+01 -1.148510098457336426e+00 -1.955902457237243652e+00 -2.429065227508544922e+00 -1.315490245819091797e+00 -1.871860146522521973e+00
8.530000000000000000e+02 1.889509391784667969e+01 -7.520024776458740234e-01 -2.164368867874145508e+00 -2.917840957641601562e+00 -1.524662852287292480e+00 -1.736489892005920410e+00
8.540000000000000000e+02 1.841281127929687500e+01 -1.117896199226379395e+00 -1.837165594100952148e+00 -1.715830087661743164e+00 -1.065898656845092773e+00 -1.445901632308959961e+00
8.550000000000000000e+02 1.823334312438964844e+01 -1.228712677955627441e+00 -1.976148843765258789e+00 -1.696953296661376953e+00 -1.101930618286132812e+00 -1.429871320724487305e+00
8.560000000000000000e+02 1.735370445251464844e+01 -1.765907287597656250e+00 -1.719250082969665527e+00 -8.951182365417480469e-01 -7.843105196952819824e-01 -1.003508925437927246e+00
8.570000000000000000e+02 1.750544929504394531e+01 -1.657041907310485840e+00 -1.729914307594299316e+00 -1.048309087753295898e+00 -8.334670066833496094e-01 -1.038871645927429199e+00
8.580000000000000000e+02 1.681116676330566406e+01 -2.117235183715820312e+00 -1.593543887138366699e+00 -6.982421278953552246e-01 -6.875358223915100098e-01 -8.978691101074218750e-01
8.590000000000000000e+02 1.643442726135253906e+01 -2.369670391082763672e+00 -1.507087230682373047e+00 -7.646962404251098633e-01 -6.815350055694580078e-01 -7.914365530014038086e-01
8.600000000000000000e+02 1.751987648010253906e+01 -2.265707015991210938e+00 -1.611613154411315918e+00 -1.175952792167663574e+00 -8.362697958946228027e-01 -1.113690137863159180e+00
8.610000000000000000e+02 1.245187950134277344e+01 -2.315639972686767578e+00 -5.826917886734008789e-01 -4.542578384280204773e-02 -1.884352862834930420e-01 -2.021458745002746582e-01
8.620000000000000000e+02 1.326062965393066406e+01 -2.392754316329956055e+00 -7.186570763587951660e-01 -3.450393676757812500e-02 -2.259483039379119873e-01 -2.607491612434387207e-01
8.630000000000000000e+02 1.413396930694580078e+01 -2.441658735275268555e+00 -9.292348027229309082e-01 -1.326515972614288330e-01 -3.185659348964691162e-01 -3.696554005146026611e-01
8.640000000000000000e+02 1.100485610961914062e+01 -2.911772251129150391e+00 -4.469106495380401611e-01 -1.575701497495174408e-02 -1.388003081083297729e-01 -2.197812050580978394e-01
8.650000000000000000e+02 9.472871780395507812e+00 -1.933825850486755371e+00 -2.377752810716629028e-01 -1.177534833550453186e-02 -7.486518472433090210e-02 -8.825629204511642456e-02
8.660000000000000000e+02 8.668806076049804688e+00 -1.918980121612548828e+00 -1.905030310153961182e-01 -1.348841818980872631e-03 -5.755556002259254456e-02 -7.988923043012619019e-02
8.670000000000000000e+02 7.856936931610107422e+00 -1.915646672248840332e+00 -1.443372666835784912e-01 -1.603952609002590179e-02 -4.811303690075874329e-02 -6.689129024744033813e-02
8.680000000000000000e+02 7.041916847229003906e+00 -1.919357538223266602e+00 -1.129630208015441895e-01 -8.524464443325996399e-03 -3.644624724984169006e-02 -5.806349217891693115e-02
8.690000000000000000e+02 5.408419609069824219e+00 -1.939228534698486328e+00 -6.077419221401214600e-02 -1.184616237878799438e-02 -2.178610675036907196e-02 -3.486327081918716431e-02
8.700000000000000000e+02 2.954025983810424805e+00 -2.013089895248413086e+00 -1.695591025054454803e-02 -1.291587017476558685e-02 -8.961534127593040466e-03 -4.655454773455858231e-03
8.710000000000000000e+02 3.134842395782470703e+00 -2.998554706573486328e+00 -3.618881851434707642e-02 -2.388202957808971405e-02 -1.802125386893749237e-02 -2.126068621873855591e-02
8.720000000000000000e+02 2.124085664749145508e+00 -2.071028947830200195e+00 -8.198337629437446594e-03 -8.515955880284309387e-03 -5.014288239181041718e-03 3.200253238901495934e-03
8.730000000000000000e+02 1.286242008209228516e+00 -2.148451089859008789e+00 -2.007440663874149323e-03 2.084023784846067429e-03 2.297494756930973381e-05 8.097344078123569489e-03
8.740000000000000000e+02 4.333131611347198486e-01 -2.198561906814575195e+00 -3.248947905376553535e-04 1.553407683968544006e-02 4.562754649668931961e-03 3.312085289508104324e-03
8.750000000000000000e+02 1.923524856567382812e+00 -4.176294326782226562e+01 -4.281662777066230774e-02 -1.388502001762390137e+00 -4.293955862522125244e-01 1.212971471250057220e-02
8.760000000000000000e+02 1.373547792434692383e+00 -4.035449218750000000e+01 9.812060743570327759e-03 -1.411252975463867188e+00 -4.204322695732116699e-01 3.168959170579910278e-02
8.770000000000000000e+02 1.353055477142333984e+00 -3.895031356811523438e+01 2.491188049316406250e-02 -1.433861136436462402e+00 -4.226847589015960693e-01 1.408085972070693970e-02
8.780000000000000000e+02 9.822494387626647949e-01 -3.456769561767578125e+01 -3.354297718033194542e-03 -1.413811922073364258e+00 -4.251498878002166748e-01 -1.252457499504089355e-02
8.790000000000000000e+02 8.758539557456970215e-01 -3.314949035644531250e+01 3.884099191054701805e-03 -1.394603013992309570e+00 -4.172156453132629395e-01 -1.154729630798101425e-02
8.800000000000000000e+02 6.710988283157348633e-01 -2.892251777648925781e+01 -3.227757115382701159e-04 -1.305841445922851562e+00 -3.918492794036865234e-01 -1.848888769745826721e-02
8.810000000000000000e+02 6.479905843734741211e-01 -2.751918983459472656e+01 3.431545337662100792e-03 -1.262529492378234863e+00 -3.777293860912322998e-01 -2.082177624106407166e-02
8.820000000000000000e+02 6.390644907951354980e-01 -2.611878395080566406e+01 -7.504721288569271564e-04 -1.212097167968750000e+00 -3.638542890548706055e-01 -2.479033172130584717e-02
8.830000000000000000e+02 6.303799152374267578e-01 -2.190828514099121094e+01 1.693449332378804684e-03 -1.019148826599121094e+00 -3.052366077899932861e-01 -3.234849125146865845e-02
8.840000000000000000e+02 6.218996644020080566e-01 -2.050174522399902344e+01 1.163042499683797359e-03 -9.419121146202087402e-01 -2.822247147560119629e-01 -3.579763323068618774e-02
8.850000000000000000e+02 1.873352169990539551e+00 -2.032604598999023438e+01 7.116749417036771774e-03 -8.679742217063903809e-01 -2.582572400569915771e-01 -1.045354455709457397e-01
8.860000000000000000e+02 5.870924592018127441e-01 -1.628585624694824219e+01 -1.095896222977899015e-04 -6.657692790031433105e-01 -1.997636556625366211e-01 -4.143382236361503601e-02
8.870000000000000000e+02 5.760102868080139160e-01 -1.488373470306396484e+01 9.302178514190018177e-04 -5.632964372634887695e-01 -1.687098592519760132e-01 -4.247289523482322693e-02
8.880000000000000000e+02 5.661975741386413574e-01 -1.348244285583496094e+01 -1.487656612880527973e-03 -4.577544033527374268e-01 -1.377726197242736816e-01 -4.168264567852020264e-02
8.890000000000000000e+02 1.707106590270996094e+00 -1.340689945220947266e+01 -1.110514509491622448e-03 -4.592499434947967529e-01 -1.381081342697143555e-01 -1.223505362868309021e-01
8.900000000000000000e+02 5.327606797218322754e-01 -9.292689323425292969e+00 -8.664728375151753426e-04 -1.665048748254776001e-01 -5.021140351891517639e-02 -3.146431595087051392e-02
8.910000000000000000e+02 5.199648141860961914e-01 -7.904478073120117188e+00 -3.787402296438813210e-03 -9.047172218561172485e-02 -2.827773801982402802e-02 -2.479145675897598267e-02
8.920000000000000000e+02 3.936928749084472656e+00 -2.915067434310913086e+00 -4.960699751973152161e-02 -3.062527440488338470e-02 -2.406968176364898682e-02 -3.344931825995445251e-02
8.930000000000000000e+02 4.110777854919433594e+00 -3.834879398345947266e+00 -6.835222244262695312e-02 -4.754344001412391663e-02 -3.476869687438011169e-02 -6.115753203630447388e-02
8.940000000000000000e+02 6.864201354980468750e+01 -3.807945632934570312e+01 9.269272536039352417e-02 3.345903158187866211e+00 1.031578779220581055e+00 4.612067341804504395e-02
8.950000000000000000e+02 4.739896392822265625e+01 -3.860314559936523438e+01 8.641374111175537109e-01 4.401073753833770752e-01 3.912734389305114746e-01 5.326990485191345215e-01
8.960000000000000000e+02 1.222687530517578125e+01 -4.075056457519531250e+01 1.189607977867126465e-01 -5.937408208847045898e-01 -1.424340009689331055e-01 -2.735280618071556091e-02
8.970000000000000000e+02 7.806176757812500000e+01 4.170389938354492188e+01 1.101494789123535156e+00 1.345161437988281250e+01 4.365932941436767578e+00 -3.104720711708068848e-01
8.980000000000000000e+02 7.886330413818359375e+01 4.025247192382812500e+01 -6.495987176895141602e-01 1.398102283477783203e+01 3.999427318572998047e+00 -7.917898893356323242e-01
8.990000000000000000e+02 7.813611602783203125e+01 3.374541091918945312e+01 5.629954338073730469e+00 1.693301773071289062e+01 6.768891811370849609e+00 -2.006490230560302734e+00
9.000000000000000000e+02 7.748203277587890625e+01 2.721367073059082031e+01 -1.579068154096603394e-01 1.145367145538330078e+01 3.388729333877563477e+00 1.458785772323608398e+00
9.010000000000000000e+02 7.930448913574218750e+01 2.642134094238281250e+01 2.912100590765476227e-02 1.377822494506835938e+01 4.142203807830810547e+00 4.347567260265350342e-01
9.020000000000000000e+02 7.800345611572265625e+01 2.605712699890136719e+01 9.541420266032218933e-03 1.162679862976074219e+01 3.490902185440063477e+00 1.248345732688903809e+00
9.030000000000000000e+02 7.938856506347656250e+01 2.496781349182128906e+01 3.838078305125236511e-02 1.274973487854003906e+01 3.836434841156005859e+00 3.572637140750885010e-01
9.040000000000000000e+02 7.944808959960937500e+01 2.082131767272949219e+01 9.091335348784923553e-03 1.032011318206787109e+01 3.098761320114135742e+00 2.248050719499588013e-01
9.050000000000000000e+02 7.945143890380859375e+01 1.944166374206542969e+01 1.219558157026767731e-02 9.695924758911132812e+00 2.912436008453369141e+00 1.962565183639526367e-01
9.060000000000000000e+02 7.723555755615234375e+01 2.048953437805175781e+01 1.508328318595886230e-01 8.630667686462402344e+00 2.634450197219848633e+00 1.064310073852539062e+00
9.070000000000000000e+02 7.945101928710937500e+01 1.806004333496093750e+01 7.500882260501384735e-03 9.153092384338378906e+00 2.748178005218505859e+00 1.691594123840332031e-01
9.080000000000000000e+02 7.943763732910156250e+01 1.390808200836181641e+01 6.071815732866525650e-03 7.914238929748535156e+00 2.376093149185180664e+00 1.149133965373039246e-01
9.090000000000000000e+02 7.943103027343750000e+01 1.252262973785400391e+01 3.780849743634462357e-03 7.598532199859619141e+00 2.280694007873535156e+00 1.019817665219306946e-01
9.100000000000000000e+02 7.942259216308593750e+01 1.113608646392822266e+01 4.117214586585760117e-03 7.319347381591796875e+00 2.197039365768432617e+00 9.177866578102111816e-02
9.110000000000000000e+02 7.938402557373046875e+01 6.968530178070068359e+00 2.183424308896064758e-03 6.649354457855224609e+00 1.995461463928222656e+00 6.970895826816558838e-02
9.120000000000000000e+02 7.936688232421875000e+01 5.576066017150878906e+00 1.917572924867272377e-03 6.470067977905273438e+00 1.941595673561096191e+00 6.481210887432098389e-02
9.130000000000000000e+02 7.810053253173828125e+01 5.597410678863525391e+00 1.422693952918052673e-02 6.206368446350097656e+00 1.866178512573242188e+00 2.093830257654190063e-01
9.140000000000000000e+02 7.934926605224609375e+01 4.182323455810546875e+00 2.117753028869628906e-03 6.308004856109619141e+00 1.893036723136901855e+00 6.017488241195678711e-02
9.150000000000000000e+02 7.931346893310546875e+01 -2.625316614285111427e-03 2.897465834394097328e-03 5.908124446868896484e+00 1.773306608200073242e+00 4.648610576987266541e-02
9.160000000000000000e+02 7.930807495117187500e+01 -1.401384234428405762e+00 6.017553387209773064e-04 5.798898696899414062e+00 1.739850163459777832e+00 4.278764128684997559e-02
9.170000000000000000e+02 7.930297088623046875e+01 -4.206156730651855469e+00 8.566258475184440613e-04 5.607402324676513672e+00 1.682477712631225586e+00 3.522573411464691162e-02
9.180000000000000000e+02 7.930921173095703125e+01 -8.401207923889160156e+00 5.653889384120702744e-04 5.379473209381103516e+00 1.614011526107788086e+00 2.551600523293018341e-02
9.190000000000000000e+02 7.932169342041015625e+01 -1.119666481018066406e+01 3.897239221259951591e-04 5.259310245513916016e+00 1.577909946441650391e+00 2.051679231226444244e-02
9.200000000000000000e+02 7.933046722412109375e+01 -1.538464641571044922e+01 5.940577248111367226e-04 5.112468719482421875e+00 1.533918857574462891e+00 1.572882570326328278e-02
9.210000000000000000e+02 7.932751464843750000e+01 -1.817727661132812500e+01 3.606093232519924641e-04 5.030893802642822266e+00 1.509376287460327148e+00 1.422173064202070236e-02
9.220000000000000000e+02 7.931517028808593750e+01 -2.375630187988281250e+01 3.105245705228298903e-04 4.891027450561523438e+00 1.467401385307312012e+00 1.197499316185712814e-02
9.230000000000000000e+02 7.931172180175781250e+01 -2.514955139160156250e+01 -2.602707536425441504e-04 4.860560417175292969e+00 1.458089947700500488e+00 1.184633001685142517e-02
9.240000000000000000e+02 7.929566955566406250e+01 -2.930167770385742188e+01 -5.939709953963756561e-04 4.778970718383789062e+00 1.433513045310974121e+00 1.148615870624780655e-02
9.250000000000000000e+02 7.922454071044921875e+01 -3.207918167114257812e+01 -2.890111645683646202e-03 4.729772090911865234e+00 1.418064594268798828e+00 1.136518828570842743e-02
9.260000000000000000e+02 7.902839660644531250e+01 -3.627347946166992188e+01 -4.742381279356777668e-04 4.653751373291015625e+00 1.395983099937438965e+00 1.862608827650547028e-02
9.270000000000000000e+02 7.896099090576171875e+01 -3.767087554931640625e+01 1.221839245408773422e-02 4.631518840789794922e+00 1.393121123313903809e+00 1.098296046257019043e-02
9.280000000000000000e+02 7.883282470703125000e+01 -3.906741333007812500e+01 -4.171354323625564575e-02 4.606843471527099609e+00 1.369539022445678711e+00 2.740125730633735657e-02
9.290000000000000000e+02 7.812168121337890625e+01 -4.178000259399414062e+01 7.255775481462478638e-02 4.516670703887939453e+00 1.376768589019775391e+00 2.027095109224319458e-02
9.300000000000000000e+02 7.437651157379150391e+00 3.539057922363281250e+01 -6.239537615329027176e-03 -8.095078915357589722e-02 -2.615709789097309113e-02 -8.670884184539318085e-03
9.310000000000000000e+02 3.748429715633392334e-01 2.196500539779663086e+00 -2.276611747220158577e-03 -2.309417165815830231e-02 -7.611235138028860092e-03 9.498911909759044647e-03
9.320000000000000000e+02 2.745130300521850586e+00 3.095633268356323242e+00 -3.530613705515861511e-02 -7.875957340002059937e-02 -3.421971201896667480e-02 1.046920642256736755e-01
9.330000000000000000e+02 4.907570362091064453e+00 2.658969402313232422e+00 -1.020124852657318115e-01 -7.544407993555068970e-02 -5.323696881532669067e-02 1.793499439954757690e-01
9.340000000000000000e+02 1.656800270080566406e+00 6.417082309722900391e+00 8.958334103226661682e-03 -1.917556077241897583e-01 -5.483918264508247375e-02 6.915064156055450439e-02
9.350000000000000000e+02 5.548835396766662598e-01 9.307370185852050781e+00 2.876288024708628654e-03 -3.132471442222595215e-01 -9.311125427484512329e-02 1.129400730133056641e-02
9.360000000000000000e+02 5.588791966438293457e-01 1.212860298156738281e+01 1.591023057699203491e-03 -3.419291675090789795e-01 -1.021014451980590820e-01 3.521637408994138241e-04
9.370000000000000000e+02 1.679508566856384277e+00 1.217724418640136719e+01 6.766499485820531845e-03 -2.818891108036041260e-01 -8.253678679466247559e-02 1.941022463142871857e-03
9.380000000000000000e+02 5.696875452995300293e-01 1.635643196105957031e+01 -2.290455995535012335e-05 -3.180222809314727783e-01 -9.541355073451995850e-02 -5.589771084487438202e-03
9.390000000000000000e+02 5.890674591064453125e-01 2.198887825012207031e+01 -3.815622476395219564e-04 -2.614463865756988525e-01 -7.854838669300079346e-02 -5.455395672470331192e-03
9.400000000000000000e+02 5.982663035392761230e-01 2.339680480957031250e+01 -1.828320637287106365e-05 -2.490083724260330200e-01 -7.470799237489700317e-02 -5.022289697080850601e-03
9.410000000000000000e+02 1.796101450920104980e+00 2.335727119445800781e+01 -1.153711695224046707e-03 -2.179878056049346924e-01 -6.574245542287826538e-02 -1.370033621788024902e-02
9.420000000000000000e+02 6.117265820503234863e-01 2.480551338195800781e+01 -2.395846677245572209e-04 -2.377249747514724731e-01 -7.138936966657638550e-02 -4.680828657001256943e-03
9.430000000000000000e+02 6.881222128868103027e-01 2.904784393310546875e+01 -3.634369059000164270e-04 -2.110097855329513550e-01 -6.341196596622467041e-02 -3.523790976032614708e-03
9.440000000000000000e+02 7.194810509681701660e-01 3.046886634826660156e+01 -2.409767039353027940e-04 -2.046121358871459961e-01 -6.145593523979187012e-02 -2.891834592446684837e-03
9.450000000000000000e+02 2.169941663742065430e+00 3.042264175415039062e+01 -1.464349334128201008e-03 -1.780539155006408691e-01 -5.385547876358032227e-02 -8.333980105817317963e-03
9.460000000000000000e+02 7.389217019081115723e-01 3.189461708068847656e+01 -1.125570270232856274e-04 -1.993726640939712524e-01 -5.984556674957275391e-02 -2.581631997600197792e-03
9.470000000000000000e+02 6.269561648368835449e-01 3.609095764160156250e+01 1.226590247824788094e-04 -1.873951852321624756e-01 -5.618175864219665527e-02 -1.991152763366699219e-03
9.480000000000000000e+02 8.239765763282775879e-01 3.876026916503906250e+01 -9.451715159229934216e-04 -1.751121282577514648e-01 -5.281718820333480835e-02 -2.809829078614711761e-03
9.490000000000000000e+02 1.172565221786499023e+00 4.009514999389648438e+01 3.519410733133554459e-03 -1.677007675170898438e-01 -4.925440624356269836e-02 -5.964687094092369080e-03
9.500000000000000000e+02 9.101578712463378906e+00 1.809296846389770508e+00 -3.663161695003509521e-01 -2.839948534965515137e-01 -1.950933039188385010e-01 4.913296699523925781e-01
9.510000000000000000e+02 8.369275093078613281e+00 1.820601940155029297e+00 -3.753094375133514404e-01 -1.687572300434112549e-01 -1.632199883460998535e-01 3.961935937404632568e-01
9.520000000000000000e+02 7.644431114196777344e+00 1.828573226928710938e+00 -3.312985599040985107e-01 -1.195516586303710938e-01 -1.352550685405731201e-01 3.137021660804748535e-01
9.530000000000000000e+02 6.924757003784179688e+00 1.838812232017517090e+00 -2.815653085708618164e-01 -8.152099698781967163e-02 -1.089258939027786255e-01 2.537563741207122803e-01
9.540000000000000000e+02 4.765043258666992188e+00 1.891813993453979492e+00 -1.423593461513519287e-01 -4.436566308140754700e-02 -5.601750314235687256e-02 1.438926011323928833e-01
9.550000000000000000e+02 4.041322231292724609e+00 1.928077101707458496e+00 -1.066448614001274109e-01 -3.794534131884574890e-02 -4.337706044316291809e-02 1.182607561349868774e-01
9.560000000000000000e+02 3.314536571502685547e+00 1.979423880577087402e+00 -7.559431344270706177e-02 -3.986683115363121033e-02 -3.463834151625633240e-02 9.506887197494506836e-02
9.570000000000000000e+02 1.853728771209716797e+00 2.108860015869140625e+00 -2.946770563721656799e-02 -4.090879857540130615e-02 -2.111295051872730255e-02 5.056161060929298401e-02
9.580000000000000000e+02 1.119089007377624512e+00 2.163403749465942383e+00 -1.269567664712667465e-02 -3.754808753728866577e-02 -1.507312897592782974e-02 2.916308864951133728e-02
9.590000000000000000e+02 1.389063930511474609e+01 3.395078897476196289e+00 4.657262265682220459e-01 2.402769088745117188e+00 8.605485558509826660e-01 5.475386381149291992e-01
9.600000000000000000e+02 1.159135437011718750e+01 3.337479829788208008e+00 6.657386422157287598e-01 5.388518422842025757e-02 2.158871591091156006e-01 -1.452550888061523438e-01
9.610000000000000000e+02 1.308887577056884766e+01 2.647953510284423828e+00 8.814082145690917969e-01 1.740853548049926758e+00 7.866784930229187012e-01 -6.184186339378356934e-01
9.620000000000000000e+02 1.457882595062255859e+01 1.087201714515686035e+00 5.912210464477539062e+00 2.908964872360229492e+00 2.646352529525756836e+00 -3.541088104248046875e+00
9.630000000000000000e+02 1.507565784454345703e+01 8.763610124588012695e-01 9.736972808837890625e+00 1.106407165527343750e+00 3.253014087677001953e+00 -2.762519121170043945e+00
9.640000000000000000e+02 1.370456695556640625e+01 2.568073272705078125e+00 5.194213390350341797e-01 3.704524993896484375e+00 1.267183899879455566e+00 -4.233006238937377930e-01
9.650000000000000000e+02 1.439503479003906250e+01 4.085944652557373047e+00 5.999529957771301270e-01 1.069075345993041992e+00 5.007085204124450684e-01 6.653761267662048340e-01
9.660000000000000000e+02 1.530604648590087891e+01 4.898571491241455078e+00 2.837392091751098633e-01 3.869317173957824707e-01 2.012012749910354614e-01 3.690855801105499268e-01
9.670000000000000000e+02 1.498688793182373047e+01 5.164301395416259766e+00 2.986429929733276367e-01 5.633606910705566406e-01 2.586010992527008057e-01 4.257023334503173828e-01
9.680000000000000000e+02 1.607270622253417969e+01 5.814968109130859375e+00 3.440111577510833740e-01 4.771862924098968506e-01 2.463592290878295898e-01 3.764986991882324219e-01
9.690000000000000000e+02 1.581822967529296875e+01 5.504801273345947266e+00 2.841226756572723389e-01 4.718180298805236816e-01 2.267822027206420898e-01 3.711813092231750488e-01
9.700000000000000000e+02 1.662429618835449219e+01 6.397896289825439453e+00 3.346209526062011719e-01 3.493470251560211182e-01 2.051903903484344482e-01 3.307320177555084229e-01
9.710000000000000000e+02 1.771701240539550781e+01 7.573897361755371094e+00 2.468843162059783936e-01 3.026394248008728027e-01 1.648571193218231201e-01 2.725971341133117676e-01
9.720000000000000000e+02 1.854201316833496094e+01 8.465208053588867188e+00 2.644535303115844727e-01 3.025422394275665283e-01 1.700987368822097778e-01 2.789510488510131836e-01
9.730000000000000000e+02 1.884958076477050781e+01 9.305213928222656250e+00 2.310248166322708130e-01 2.762519419193267822e-01 1.521830260753631592e-01 2.418586313724517822e-01
9.740000000000000000e+02 1.883690452575683594e+01 8.745853424072265625e+00 2.769139707088470459e-01 2.870610654354095459e-01 1.691925227642059326e-01 2.711558341979980469e-01
9.750000000000000000e+02 1.913766098022460938e+01 9.018024444580078125e+00 2.696434259414672852e-01 2.552616596221923828e-01 1.574715226888656616e-01 2.600599229335784912e-01
9.760000000000000000e+02 1.943877220153808594e+01 9.286581993103027344e+00 2.526942789554595947e-01 2.305111438035964966e-01 1.449616253376007080e-01 2.389956861734390259e-01
9.770000000000000000e+02 1.936066627502441406e+01 1.043882179260253906e+01 1.930944770574569702e-01 2.486732602119445801e-01 1.325303167104721069e-01 2.254877090454101562e-01
9.780000000000000000e+02 1.973374557495117188e+01 9.557401657104492188e+00 2.249463051557540894e-01 2.133293449878692627e-01 1.314826905727386475e-01 2.261371165513992310e-01
9.790000000000000000e+02 2.001762008666992188e+01 9.834144592285156250e+00 2.069542557001113892e-01 2.162667512893676758e-01 1.269662976264953613e-01 2.156918793916702271e-01
9.800000000000000000e+02 2.029274368286132812e+01 1.011792182922363281e+01 1.974628567695617676e-01 2.254219502210617065e-01 1.268654465675354004e-01 2.166829854249954224e-01
9.810000000000000000e+02 2.056612777709960938e+01 1.040726947784423828e+01 2.018121480941772461e-01 2.392642050981521606e-01 1.323229074478149414e-01 2.190574407577514648e-01
9.820000000000000000e+02 1.970021438598632812e+01 1.013311767578125000e+01 2.043106108903884888e-01 2.325651198625564575e-01 1.310627162456512451e-01 2.314451187849044800e-01
9.830000000000000000e+02 2.112061691284179688e+01 1.098714256286621094e+01 2.158457189798355103e-01 2.385923266410827637e-01 1.363314092159271240e-01 2.226236164569854736e-01
9.840000000000000000e+02 2.168436813354492188e+01 1.155543708801269531e+01 2.048346698284149170e-01 2.165957987308502197e-01 1.264291405677795410e-01 2.101714462041854858e-01
9.850000000000000000e+02 2.196294212341308594e+01 1.183968544006347656e+01 1.942674517631530762e-01 2.117292433977127075e-01 1.217990070581436157e-01 2.058301717042922974e-01
9.860000000000000000e+02 2.250951385498046875e+01 1.241759204864501953e+01 1.891497522592544556e-01 2.183338254690170288e-01 1.222450733184814453e-01 2.044447958469390869e-01
9.870000000000000000e+02 2.305824279785156250e+01 1.299977588653564453e+01 1.987345367670059204e-01 2.194672375917434692e-01 1.254605352878570557e-01 2.072911858558654785e-01
9.880000000000000000e+02 2.333748435974121094e+01 1.328728675842285156e+01 2.041350603103637695e-01 2.139926552772521973e-01 1.254383176565170288e-01 2.058364599943161011e-01
9.890000000000000000e+02 2.361945915222167969e+01 1.357142257690429688e+01 2.062206864356994629e-01 2.045840322971343994e-01 1.232414171099662781e-01 2.031192630529403687e-01
9.900000000000000000e+02 2.390315628051757812e+01 1.385337638854980469e+01 2.063952982425689697e-01 1.936435252428054810e-01 1.200116500258445740e-01 1.969694346189498901e-01
9.910000000000000000e+02 2.446981048583984375e+01 1.442305660247802734e+01 1.897628754377365112e-01 1.699348390102386475e-01 1.079093143343925476e-01 1.797102540731430054e-01
9.920000000000000000e+02 2.503613853454589844e+01 1.501543140411376953e+01 1.655448675155639648e-01 1.609130054712295532e-01 9.793736040592193604e-02 1.666845828294754028e-01
9.930000000000000000e+02 2.562549591064453125e+01 1.559840583801269531e+01 1.557208895683288574e-01 1.681834757328033447e-01 9.717130661010742188e-02 1.636677384376525879e-01
9.940000000000000000e+02 2.592904853820800781e+01 1.587314414978027344e+01 1.558341234922409058e-01 1.723851263523101807e-01 9.846577048301696777e-02 1.646262109279632568e-01
9.950000000000000000e+02 2.532854652404785156e+01 1.531230068206787109e+01 1.582179665565490723e-01 1.632359474897384644e-01 9.643617272377014160e-02 1.643865853548049927e-01
9.960000000000000000e+02 2.652117538452148438e+01 1.642270088195800781e+01 1.610666364431381226e-01 1.743546128273010254e-01 1.006263718008995056e-01 1.666510552167892456e-01
9.970000000000000000e+02 2.709629249572753906e+01 1.697500228881835938e+01 1.660400182008743286e-01 1.672565490007400513e-01 9.998897463083267212e-02 1.652045249938964844e-01
9.980000000000000000e+02 2.738436508178710938e+01 1.724957656860351562e+01 1.663497388362884521e-01 1.608481407165527344e-01 9.815936535596847534e-02 1.620754450559616089e-01
9.990000000000000000e+02 2.767386627197265625e+01 1.752219581604003906e+01 1.638853847980499268e-01 1.534708887338638306e-01 9.520687907934188843e-02 1.579449623823165894e-01
1.000000000000000000e+03 2.825274848937988281e+01 1.806769180297851562e+01 1.548303812742233276e-01 1.424560695886611938e-01 8.918593823909759521e-02 1.488314867019653320e-01
1.001000000000000000e+03 2.796373748779296875e+01 1.779433441162109375e+01 1.598627865314483643e-01 1.473089009523391724e-01 9.215150773525238037e-02 1.530706882476806641e-01
1.002000000000000000e+03 2.853993225097656250e+01 1.834268951416015625e+01 1.503807157278060913e-01 1.393482983112335205e-01 8.691870421171188354e-02 1.449044197797775269e-01
1.003000000000000000e+03 2.939148712158203125e+01 1.917660522460937500e+01 1.385297179222106934e-01 1.325650215148925781e-01 8.132842183113098145e-02 1.360438913106918335e-01
1.004000000000000000e+03 2.967408180236816406e+01 1.945649147033691406e+01 1.349253505468368530e-01 1.310462504625320435e-01 7.979147881269454956e-02 1.334421634674072266e-01
1.005000000000000000e+03 2.995676994323730469e+01 1.973715209960937500e+01 1.315700411796569824e-01 1.299856007099151611e-01 7.846669107675552368e-02 1.314188241958618164e-01
1.006000000000000000e+03 3.196545600891113281e+01 2.168614959716796875e+01 1.045286804437637329e-01 1.028140112757682800e-01 6.220280751585960388e-02 1.065064668655395508e-01
1.007000000000000000e+03 3.251634979248046875e+01 2.225882148742675781e+01 8.870751410722732544e-02 1.108496114611625671e-01 5.986713618040084839e-02 1.025642082095146179e-01
1.008000000000000000e+03 3.277948379516601562e+01 2.255946540832519531e+01 8.881914615631103516e-02 1.198879331350326538e-01 6.261212378740310669e-02 1.048529893159866333e-01
1.009000000000000000e+03 3.304073715209960938e+01 2.286388778686523438e+01 9.259993582963943481e-02 1.267040818929672241e-01 6.579120457172393799e-02 1.079978048801422119e-01
1.010000000000000000e+03 3.224588775634765625e+01 2.196710586547851562e+01 9.408503025770187378e-02 1.040300279855728149e-01 5.943451821804046631e-02 1.029635071754455566e-01
1.011000000000000000e+03 3.213680267333984375e+01 2.255233764648437500e+01 9.522781521081924438e-02 1.147534549236297607e-01 6.299438327550888062e-02 1.119932085275650024e-01
1.012000000000000000e+03 3.357281494140625000e+01 2.346644973754882812e+01 9.572404623031616211e-02 1.249470114707946777e-01 6.620132178068161011e-02 1.089634671807289124e-01
1.013000000000000000e+03 3.384152984619140625e+01 2.376400566101074219e+01 9.229256212711334229e-02 1.218990832567214966e-01 6.425749510526657104e-02 1.068738251924514771e-01
1.014000000000000000e+03 3.436604690551757812e+01 2.436718368530273438e+01 8.727053552865982056e-02 1.256567388772964478e-01 6.387817859649658203e-02 1.057707890868186951e-01
1.015000000000000000e+03 3.462232971191406250e+01 2.467435646057128906e+01 8.982498198747634888e-02 1.302503943443298340e-01 6.602261215448379517e-02 1.078646928071975708e-01
1.016000000000000000e+03 3.488005828857421875e+01 2.498143005371093750e+01 9.430778771638870239e-02 1.318812668323516846e-01 6.785672158002853394e-02 1.101040020585060120e-01
1.017000000000000000e+03 3.514274978637695312e+01 2.528456687927246094e+01 9.730332344770431519e-02 1.284130960702896118e-01 6.771492213010787964e-02 1.100940331816673279e-01
1.018000000000000000e+03 3.567705535888671875e+01 2.587894821166992188e+01 9.074896574020385742e-02 1.173035576939582825e-01 6.241575628519058228e-02 1.039594635367393494e-01
1.019000000000000000e+03 3.593992614746093750e+01 2.617802810668945312e+01 8.540014922618865967e-02 1.169471666216850281e-01 6.070419400930404663e-02 1.017943844199180603e-01
1.020000000000000000e+03 3.644680404663085938e+01 2.679367446899414062e+01 8.614008128643035889e-02 1.275563389062881470e-01 6.410893052816390991e-02 1.049679145216941833e-01
1.021000000000000000e+03 3.669735717773437500e+01 2.710645103454589844e+01 9.224674850702285767e-02 1.315998733043670654e-01 6.715399026870727539e-02 1.085983589291572571e-01
1.022000000000000000e+03 3.747765731811523438e+01 2.802731323242187500e+01 1.050558164715766907e-01 1.196200698614120483e-01 6.740276515483856201e-02 1.101113185286521912e-01
1.023000000000000000e+03 3.774808120727539062e+01 2.832444000244140625e+01 1.052402630448341370e-01 1.133313402533531189e-01 6.557147949934005737e-02 1.075909733772277832e-01
1.024000000000000000e+03 3.721199798583984375e+01 2.772483634948730469e+01 1.030642986297607422e-01 1.260284334421157837e-01 6.872782111167907715e-02 1.114905402064323425e-01
1.025000000000000000e+03 3.858093643188476562e+01 2.918462371826171875e+01 9.898234903812408447e-02 1.003435254096984863e-01 5.979776009917259216e-02 9.978622943162918091e-02
1.026000000000000000e+03 3.759220886230468750e+01 2.890354347229003906e+01 9.689738601446151733e-02 1.129941120743751526e-01 6.296744942665100098e-02 1.014441251754760742e-01
1.027000000000000000e+03 3.884936523437500000e+01 2.948623085021972656e+01 9.731687605381011963e-02 9.927971661090850830e-02 5.897897854447364807e-02 9.856238961219787598e-02
1.028000000000000000e+03 3.974612426757812500e+01 3.036349868774414062e+01 1.033205762505531311e-01 9.633246809244155884e-02 5.989591404795646667e-02 9.781169891357421875e-02
1.029000000000000000e+03 4.035853195190429688e+01 3.092077445983886719e+01 1.048348098993301392e-01 8.864723891019821167e-02 5.804461613297462463e-02 9.461458027362823486e-02
1.030000000000000000e+03 4.004267120361328125e+01 3.065106391906738281e+01 1.045915707945823669e-01 9.239594638347625732e-02 5.909625440835952759e-02 9.673354029655456543e-02
1.031000000000000000e+03 4.099009704589843750e+01 3.140616989135742188e+01 1.025899425148963928e-01 8.179593831300735474e-02 5.531576275825500488e-02 9.073366969823837280e-02
1.032000000000000000e+03 4.032506179809570312e+01 3.186644554138183594e+01 1.006382852792739868e-01 8.913818746805191040e-02 5.693294107913970947e-02 9.183795750141143799e-02
1.033000000000000000e+03 4.157064056396484375e+01 3.193674468994140625e+01 1.028526127338409424e-01 8.024160563945770264e-02 5.492826551198959351e-02 8.985004574060440063e-02
1.034000000000000000e+03 4.186613464355468750e+01 3.220921325683593750e+01 1.036650165915489197e-01 7.901987433433532715e-02 5.480546504259109497e-02 9.032492339611053467e-02
1.035000000000000000e+03 4.216096878051757812e+01 3.248312377929687500e+01 1.058456897735595703e-01 7.874755561351776123e-02 5.537797138094902039e-02 8.992306888103485107e-02
1.036000000000000000e+03 4.246706771850585938e+01 3.274370956420898438e+01 1.075141951441764832e-01 7.711199671030044556e-02 5.538785830140113831e-02 9.029328823089599609e-02
1.037000000000000000e+03 4.278791046142578125e+01 3.298882675170898438e+01 1.100747808814048767e-01 7.593754678964614868e-02 5.580369755625724792e-02 8.979105949401855469e-02
1.038000000000000000e+03 4.341436004638671875e+01 3.348997116088867188e+01 1.127156913280487061e-01 7.198615372180938721e-02 5.541055276989936829e-02 8.850714564323425293e-02
1.039000000000000000e+03 4.400012588500976562e+01 3.403516387939453125e+01 1.144091859459877014e-01 7.048483192920684814e-02 5.546820536255836487e-02 8.899901062250137329e-02
1.040000000000000000e+03 4.310745239257812500e+01 3.323351669311523438e+01 1.110112890601158142e-01 7.338975369930267334e-02 5.532031133770942688e-02 8.984761685132980347e-02
1.041000000000000000e+03 4.447151565551757812e+01 3.508568191528320312e+01 1.303696036338806152e-01 6.750391423702239990e-02 5.936205759644508362e-02 9.055320173501968384e-02
1.042000000000000000e+03 4.503407287597656250e+01 3.475195693969726562e+01 1.249845772981643677e-01 7.097812741994857788e-02 5.878881365060806274e-02 9.337063133716583252e-02
1.043000000000000000e+03 4.647187805175781250e+01 3.665473175048828125e+01 1.846888363361358643e-01 6.187465414404869080e-02 7.396905124187469482e-02 9.983284771442413330e-02
1.044000000000000000e+03 4.691727447509765625e+01 3.700621795654296875e+01 2.065726071596145630e-01 6.277261674404144287e-02 8.080356568098068237e-02 9.893662482500076294e-02
1.045000000000000000e+03 4.780951309204101562e+01 3.703816223144531250e+01 2.381692677736282349e-01 7.886858284473419189e-02 9.511135518550872803e-02 1.098233759403228760e-01
1.046000000000000000e+03 4.821599578857421875e+01 3.725836944580078125e+01 2.581028342247009277e-01 5.567846819758415222e-02 9.413439780473709106e-02 1.113872900605201721e-01
1.047000000000000000e+03 5.047532653808593750e+01 3.820686721801757812e+01 2.733300924301147461e-01 3.838611394166946411e-02 9.351485967636108398e-02 1.045031398534774780e-01
1.048000000000000000e+03 5.081773376464843750e+01 3.831562805175781250e+01 2.872808277606964111e-01 4.854107275605201721e-02 1.007465720176696777e-01 1.099617853760719299e-01
1.049000000000000000e+03 5.091946411132812500e+01 3.802509307861328125e+01 2.495526373386383057e-01 5.463554710149765015e-02 9.125645458698272705e-02 1.156663522124290466e-01
1.050000000000000000e+03 5.120598602294921875e+01 3.854536437988281250e+01 3.484947085380554199e-01 3.901930525898933411e-02 1.162542030215263367e-01 1.099085286259651184e-01
1.051000000000000000e+03 5.379795837402343750e+01 3.791156387329101562e+01 6.259380280971527100e-02 1.061776727437973022e-01 5.063144117593765259e-02 -7.946733385324478149e-02
1.052000000000000000e+03 5.759380722045898438e+01 3.868397140502929688e+01 2.400001287460327148e-01 -1.485805660486221313e-01 2.742586657404899597e-02 4.903543367981910706e-02
1.053000000000000000e+03 5.821623992919921875e+01 3.759191513061523438e+01 1.131627485156059265e-01 -9.870334714651107788e-02 4.337820690125226974e-03 6.462689489126205444e-02
1.054000000000000000e+03 5.896154403686523438e+01 3.727695083618164062e+01 9.921388328075408936e-02 -1.002422347664833069e-01 -3.085058997385203838e-04 1.104572564363479614e-01
1.055000000000000000e+03 5.855483627319335938e+01 3.659972000122070312e+01 2.061432227492332458e-02 -5.694225430488586426e-02 -1.089838054031133652e-02 6.797613948583602905e-02
1.056000000000000000e+03 6.097617340087890625e+01 3.758611679077148438e+01 6.393761187791824341e-02 -1.768314838409423828e-01 -3.386816009879112244e-02 2.680938839912414551e-01
1.057000000000000000e+03 6.123093795776367188e+01 3.644409942626953125e+01 -8.884415030479431152e-02 -1.074211448431015015e-01 -5.887958779931068420e-02 1.987680643796920776e-01
1.058000000000000000e+03 6.201298141479492188e+01 3.641737365722656250e+01 -1.336752772331237793e-01 -1.317573040723800659e-01 -7.962977886199951172e-02 2.789358198642730713e-01
1.059000000000000000e+03 6.355858612060546875e+01 3.624847412109375000e+01 -2.836396098136901855e-01 -1.510612815618515015e-01 -1.304102689027786255e-01 3.973128497600555420e-01
1.060000000000000000e+03 6.432094573974609375e+01 3.618560409545898438e+01 -4.100174605846405029e-01 -1.392554193735122681e-01 -1.647818684577941895e-01 4.676605761051177979e-01
1.061000000000000000e+03 6.508159637451171875e+01 3.609613800048828125e+01 -5.172377228736877441e-01 -1.542754471302032471e-01 -2.014539539813995361e-01 5.153194665908813477e-01
1.062000000000000000e+03 6.686711120605468750e+01 3.648286437988281250e+01 -5.000094771385192871e-01 -2.078654617071151733e-01 -2.123624831438064575e-01 7.642050385475158691e-01
1.063000000000000000e+03 6.719867706298828125e+01 3.586348342895507812e+01 -9.361619949340820312e-01 -1.404636055231094360e-01 -3.229876756668090820e-01 7.003470659255981445e-01
1.064000000000000000e+03 7.004273986816406250e+01 3.713676834106445312e+01 1.238429732620716095e-02 4.525330662727355957e-01 1.394752115011215210e-01 6.788906455039978027e-01
1.065000000000000000e+03 7.009382629394531250e+01 3.597232437133789062e+01 -1.297397255897521973e+00 2.637737058103084564e-02 -3.813059628009796143e-01 7.404425144195556641e-01
1.066000000000000000e+03 7.083699035644531250e+01 3.589665603637695312e+01 -1.300708889961242676e+00 2.274828106164932251e-01 -3.219678401947021484e-01 6.284485459327697754e-01
1.067000000000000000e+03 7.306152343750000000e+01 3.591255569458007812e+01 -6.576133370399475098e-01 9.245202541351318359e-01 8.007206022739410400e-02 -4.688545465469360352e-01
1.068000000000000000e+03 7.213680267333984375e+01 3.575536346435546875e+01 -1.215359807014465332e+00 2.482743561267852783e-01 -2.901256382465362549e-01 2.565519511699676514e-01
1.069000000000000000e+03 7.353386688232421875e+01 3.560740280151367188e+01 -9.669965505599975586e-01 8.303110599517822266e-01 -4.100564867258071899e-02 -6.934116482734680176e-01
1.070000000000000000e+03 7.444164276123046875e+01 3.561714172363281250e+01 3.549406230449676514e-01 2.462013006210327148e+00 8.450860977172851562e-01 -2.586482048034667969e+00
1.071000000000000000e+03 7.486174774169921875e+01 3.558008575439453125e+01 9.751458764076232910e-01 3.392800569534301758e+00 1.310383915901184082e+00 -3.625486612319946289e+00
1.072000000000000000e+03 7.456049346923828125e+01 3.588332366943359375e+01 7.368980646133422852e-01 3.284950494766235352e+00 1.206554532051086426e+00 -3.184302806854248047e+00
1.073000000000000000e+03 7.536852264404296875e+01 3.552813720703125000e+01 1.241746783256530762e+00 6.392379760742187500e+00 2.290237903594970703e+00 -5.359393119812011719e+00
1.074000000000000000e+03 7.572618865966796875e+01 3.559411239624023438e+01 4.805156588554382324e-01 9.960420608520507812e+00 3.132281064987182617e+00 -6.072721004486083984e+00
1.075000000000000000e+03 7.612482452392578125e+01 3.559126281738281250e+01 -1.056488156318664551e+00 1.616298294067382812e+01 4.531948566436767578e+00 -5.984100341796875000e+00
1.076000000000000000e+03 7.631087493896484375e+01 3.561209487915039062e+01 -1.585977911949157715e+00 1.760740089416503906e+01 4.806427001953125000e+00 -5.723714828491210938e+00
1.077000000000000000e+03 7.730204772949218750e+01 3.552270507812500000e+01 -1.980804085731506348e+00 2.184329223632812500e+01 5.958746433258056641e+00 8.132770657539367676e-01
1.078000000000000000e+03 7.792180633544921875e+01 3.570112228393554688e+01 -1.154965281486511230e+00 1.864656639099121094e+01 5.247479915618896484e+00 2.314192295074462891e+00
1.079000000000000000e+03 7.814488983154296875e+01 3.417509841918945312e+01 4.743340015411376953e+00 1.716874504089355469e+01 6.573625564575195312e+00 5.603573322296142578e-01
1.080000000000000000e+03 7.840654754638671875e+01 3.386810302734375000e+01 4.717702865600585938e+00 1.532735729217529297e+01 6.013517856597900391e+00 -1.397440552711486816e+00
1.081000000000000000e+03 7.729683685302734375e+01 3.258338546752929688e+01 -2.446925640106201172e+00 2.279143905639648438e+01 6.103353977203369141e+00 -1.048886537551879883e+00
1.082000000000000000e+03 7.607453155517578125e+01 3.224568557739257812e+01 -1.991327762603759766e+00 1.369713783264160156e+01 3.511743068695068359e+00 5.945482254028320312e+00
1.083000000000000000e+03 7.543150329589843750e+01 3.233796691894531250e+01 -7.406487464904785156e-01 7.242233753204345703e+00 1.950475454330444336e+00 5.715759754180908203e+00
1.084000000000000000e+03 7.501357269287109375e+01 3.230689620971679688e+01 -7.115308642387390137e-01 4.630881309509277344e+00 1.175805091857910156e+00 4.367212295532226562e+00
1.085000000000000000e+03 7.367961883544921875e+01 3.224078369140625000e+01 -2.440345287322998047e+00 9.322481751441955566e-01 -4.524291455745697021e-01 1.421123147010803223e+00
1.086000000000000000e+03 7.400987243652343750e+01 3.207881164550781250e+01 -1.693558573722839355e+00 1.984766840934753418e+00 8.736249059438705444e-02 2.211189746856689453e+00
1.087000000000000000e+03 7.001329803466796875e+01 3.213899993896484375e+01 -4.193653106689453125e+00 -1.177629176527261734e-02 -1.261628866195678711e+00 -3.337762653827667236e-01
1.088000000000000000e+03 7.130284881591796875e+01 3.214706802368164062e+01 -3.857364654541015625e+00 1.106390133500099182e-01 -1.124017715454101562e+00 -6.751100718975067139e-02
1.089000000000000000e+03 7.249187469482421875e+01 3.215649414062500000e+01 -3.447245836257934570e+00 3.536371588706970215e-01 -9.280826449394226074e-01 3.731848895549774170e-01
1.090000000000000000e+03 6.852340698242187500e+01 3.214753723144531250e+01 -4.204978942871093750e+00 -5.918966978788375854e-02 -1.279250621795654297e+00 -4.084455966949462891e-01
1.091000000000000000e+03 6.471990203857421875e+01 3.227503204345703125e+01 -3.586852550506591797e+00 -1.601151004433631897e-02 -1.080859184265136719e+00 -3.951956629753112793e-01
1.092000000000000000e+03 6.548241424560546875e+01 3.223553466796875000e+01 -3.757910251617431641e+00 -3.307294845581054688e-02 -1.137294888496398926e+00 -4.088979661464691162e-01
1.093000000000000000e+03 6.243618774414062500e+01 3.245031738281250000e+01 -3.037883281707763672e+00 2.164073102176189423e-02 -9.048727750778198242e-01 -3.787977695465087891e-01
1.094000000000000000e+03 6.167666244506835938e+01 3.251723480224609375e+01 -2.835391044616699219e+00 3.902760893106460571e-02 -8.389090895652770996e-01 -3.781606853008270264e-01
1.095000000000000000e+03 6.091853332519531250e+01 3.259730529785156250e+01 -2.632587909698486328e+00 5.248690396547317505e-02 -7.740303277969360352e-01 -3.836370408535003662e-01
1.096000000000000000e+03 5.790091705322265625e+01 3.300818252563476562e+01 -1.798790454864501953e+00 1.200194731354713440e-01 -5.036312937736511230e-01 -4.147429466247558594e-01
1.097000000000000000e+03 5.865865707397460938e+01 3.289373397827148438e+01 -2.010514974594116211e+00 1.078612357378005981e-01 -5.707961320877075195e-01 -3.996890783309936523e-01
1.098000000000000000e+03 5.562208938598632812e+01 3.338020324707031250e+01 -1.173948287963867188e+00 1.238991469144821167e-01 -3.150147199630737305e-01 -4.360885620117187500e-01
1.099000000000000000e+03 5.226261520385742188e+01 3.307693481445312500e+01 -5.103738903999328613e-01 -5.406193137168884277e-01 -3.152979612350463867e-01 -5.379947423934936523e-01
1.100000000000000000e+03 2.449831390380859375e+01 -3.099579334259033203e+00 1.870776295661926270e+00 1.311221003532409668e+00 9.545992016792297363e-01 -1.330242633819580078e+00
1.101000000000000000e+03 2.835589790344238281e+01 -7.295751571655273438e+00 7.870078086853027344e-01 6.368718743324279785e-01 4.271638989448547363e-01 -6.174377202987670898e-01
1.102000000000000000e+03 3.002865982055664062e+01 -7.815925598144531250e+00 6.733352541923522949e-01 9.871478378772735596e-02 2.316150069236755371e-01 -3.701653778553009033e-01
1.103000000000000000e+03 2.919091033935546875e+01 -8.377234458923339844e+00 4.117910563945770264e-01 4.756068289279937744e-01 2.662193477153778076e-01 -4.781235754489898682e-01
1.104000000000000000e+03 3.152627944946289062e+01 -1.006445503234863281e+01 3.330763578414916992e-01 -1.030328422784805298e-01 6.901305913925170898e-02 -1.769197881221771240e-01
1.105000000000000000e+03 3.353187942504882812e+01 -1.536926746368408203e+01 -9.849318116903305054e-02 -4.344068467617034912e-01 -1.598700135946273804e-01 1.927746236324310303e-01
1.106000000000000000e+03 3.494382476806640625e+01 -1.774137878417968750e+01 -1.535429507493972778e-01 -5.694251060485839844e-01 -2.168904095888137817e-01 2.875246405601501465e-01
1.107000000000000000e+03 3.633129119873046875e+01 -2.013706970214843750e+01 -2.010975629091262817e-01 -6.868811845779418945e-01 -2.663936316967010498e-01 3.552065491676330566e-01
1.108000000000000000e+03 3.764694595336914062e+01 -2.255776786804199219e+01 -2.090511173009872437e-01 -6.900393962860107422e-01 -2.697271406650543213e-01 3.784509003162384033e-01
1.109000000000000000e+03 3.902303314208984375e+01 -2.491762161254882812e+01 -2.694599330425262451e-01 -7.326908707618713379e-01 -3.006452322006225586e-01 4.220336079597473145e-01
1.110000000000000000e+03 4.042354965209960938e+01 -2.238579559326171875e+01 -8.908081054687500000e-02 -4.285003840923309326e-01 -1.552743613719940186e-01 2.596880793571472168e-01
1.111000000000000000e+03 4.205408477783203125e+01 -2.766113471984863281e+01 -2.199213951826095581e-01 -5.136000514030456543e-01 -2.200564444065093994e-01 3.382574021816253662e-01
1.112000000000000000e+03 4.188141632080078125e+01 -2.956478309631347656e+01 -3.027884066104888916e-01 -6.970854401588439941e-01 -2.999621629714965820e-01 4.326122999191284180e-01
1.113000000000000000e+03 4.328347778320312500e+01 -3.184303474426269531e+01 -2.573331892490386963e-01 -6.332602500915527344e-01 -2.671780288219451904e-01 3.829945325851440430e-01
1.114000000000000000e+03 4.389171600341796875e+01 -3.289738845825195312e+01 -2.019094675779342651e-01 -5.043942332267761230e-01 -2.118910998106002808e-01 3.455714583396911621e-01
1.115000000000000000e+03 4.509867095947265625e+01 -3.620664978027343750e+01 6.650462746620178223e-02 2.433346956968307495e-01 9.295179694890975952e-02 3.173334896564483643e-01
1.116000000000000000e+03 3.819470977783203125e+01 -3.875587081909179688e+01 1.387823700904846191e+00 5.529593229293823242e-01 5.822349190711975098e-01 -6.209219694137573242e-01
1.117000000000000000e+03 3.647826385498046875e+01 -3.671038436889648438e+01 6.023451685905456543e-01 5.497168302536010742e-01 3.456186056137084961e-01 -5.297288298606872559e-01
1.118000000000000000e+03 3.441300964355468750e+01 -3.469455718994140625e+01 5.495697855949401855e-01 5.880855321884155273e-01 3.412965834140777588e-01 -5.226396918296813965e-01
1.119000000000000000e+03 3.359249496459960938e+01 -3.355581665039062500e+01 4.856656193733215332e-01 6.263251304626464844e-01 3.335972130298614502e-01 -5.513179302215576172e-01
1.120000000000000000e+03 3.063514900207519531e+01 -2.903761482238769531e+01 2.324524670839309692e-01 7.804261445999145508e-01 3.038635849952697754e-01 -4.265023171901702881e-01
1.121000000000000000e+03 3.132374191284179688e+01 -3.022684288024902344e+01 3.291678726673126221e-01 8.362911939620971680e-01 3.496377170085906982e-01 -4.767096042633056641e-01
1.122000000000000000e+03 2.696655082702636719e+01 -2.157859420776367188e+01 1.425528675317764282e-01 5.403769016265869141e-01 2.048789262771606445e-01 -2.955890893936157227e-01
1.123000000000000000e+03 2.578093338012695312e+01 -2.222553634643554688e+01 1.749648302793502808e-01 4.395544826984405518e-01 1.843557953834533691e-01 -2.808184623718261719e-01
1.124000000000000000e+03 2.755635643005371094e+01 -2.281845283508300781e+01 1.649791300296783447e-01 5.871716141700744629e-01 2.256452292203903198e-01 -3.012854158878326416e-01
1.125000000000000000e+03 2.512129783630371094e+01 -1.791642379760742188e+01 1.538119316101074219e-01 4.021340310573577881e-01 1.667837947607040405e-01 -2.349006831645965576e-01
1.126000000000000000e+03 2.299337577819824219e+01 -1.442232608795166016e+01 1.266907751560211182e-01 2.450543940067291260e-01 1.115235462784767151e-01 -2.138743698596954346e-01
1.127000000000000000e+03 2.087215995788574219e+01 -1.082538127899169922e+01 9.835935384035110474e-02 -1.116088479757308960e-01 -3.974847961217164993e-03 -2.765736356377601624e-02
1.128000000000000000e+03 2.020846939086914062e+01 -9.563526153564453125e+00 -5.233819596469402313e-03 -4.294295012950897217e-01 -1.303989887237548828e-01 -1.214844547212123871e-02
1.129000000000000000e+03 1.726239776611328125e+01 -2.714327812194824219e+00 -1.730581402778625488e+00 -1.333086490631103516e+00 -9.191003441810607910e-01 -1.196253180503845215e+00
1.130000000000000000e+03 4.485173797607421875e+01 2.579045867919921875e+01 -1.394288420677185059e+00 -1.476054191589355469e+00 -8.611028194427490234e-01 -1.428165674209594727e+00
1.131000000000000000e+03 4.457295227050781250e+01 2.550510787963867188e+01 -1.476111054420471191e+00 -1.509291052818298340e+00 -8.956206440925598145e-01 -1.475608706474304199e+00
1.132000000000000000e+03 4.428932189941406250e+01 2.522328758239746094e+01 -1.554005026817321777e+00 -1.496953010559082031e+00 -9.152874350547790527e-01 -1.502406835556030273e+00
1.133000000000000000e+03 4.370653533935546875e+01 2.467482376098632812e+01 -1.611967325210571289e+00 -1.386270880699157715e+00 -8.994714617729187012e-01 -1.481661319732666016e+00
1.134000000000000000e+03 3.153985023498535156e+01 1.203516578674316406e+01 -1.469529986381530762e+00 -1.546992540359497070e+00 -9.049568176269531250e-01 -1.465831160545349121e+00
1.135000000000000000e+03 7.753556823730468750e+01 3.244288253784179688e+01 -2.082047939300537109e+00 2.097453117370605469e+01 5.667745113372802734e+00 -1.856223344802856445e+00
1.136000000000000000e+03 7.794744873046875000e+01 3.504326629638671875e+01 2.257932186126708984e+00 1.914953231811523438e+01 6.422239303588867188e+00 3.020739793777465820e+00
1.137000000000000000e+03 7.752607727050781250e+01 3.539273452758789062e+01 -1.086055517196655273e+00 2.181077384948730469e+01 6.217415809631347656e+00 1.791719794273376465e+00
1.138000000000000000e+03 7.715192413330078125e+01 3.970938873291015625e+01 -3.561775386333465576e-01 1.388695049285888672e+01 4.059231758117675781e+00 -7.993936538696289062e-01
1.139000000000000000e+03 7.838951110839843750e+01 3.303417968750000000e+01 9.805535674095153809e-01 1.598919582366943359e+01 5.090924739837646484e+00 -3.338048934936523438e+00
1.140000000000000000e+03 7.808893585205078125e+01 3.354203033447265625e+01 4.973542690277099609e+00 1.742213630676269531e+01 6.718703746795654297e+00 -2.620088338851928711e+00
1.141000000000000000e+03 7.885162353515625000e+01 3.214253234863281250e+01 -2.951712310314178467e-01 1.495410442352294922e+01 4.397679805755615234e+00 -3.014778375625610352e+00
1.142000000000000000e+03 7.835884857177734375e+01 3.550553894042968750e+01 -4.937777221202850342e-01 1.646134567260742188e+01 4.790270328521728516e+00 2.985089302062988281e+00
1.143000000000000000e+03 7.803637695312500000e+01 3.478992462158203125e+01 3.968691349029541016e+00 1.856774520874023438e+01 6.760931015014648438e+00 3.170810222625732422e+00
1.144000000000000000e+03 7.945270538330078125e+01 3.626567459106445312e+01 -4.526367187500000000e-01 1.213878250122070312e+01 3.505843639373779297e+00 1.416404962539672852e+00
1.145000000000000000e+03 7.930285644531250000e+01 3.278511047363281250e+01 1.978532075881958008e-01 1.096413421630859375e+01 3.348596096038818359e+00 -1.993095517158508301e+00
1.146000000000000000e+03 7.875514221191406250e+01 3.487648391723632812e+01 1.845466375350952148e+00 1.408623504638671875e+01 4.779510498046875000e+00 2.469549894332885742e+00
1.147000000000000000e+03 7.801312255859375000e+01 3.334845352172851562e+01 3.207519292831420898e+00 1.859379386901855469e+01 6.540394306182861328e+00 -3.351899862289428711e+00
1.148000000000000000e+03 7.784802246093750000e+01 3.292578125000000000e+01 8.514446020126342773e-01 2.064077186584472656e+01 6.447665214538574219e+00 -3.853986263275146484e+00
1.149000000000000000e+03 7.950892639160156250e+01 2.933797454833984375e+01 -2.029183804988861084e-01 1.544915390014648438e+01 4.573870658874511719e+00 -1.275824150070548058e-03
1.150000000000000000e+03 7.566519165039062500e+01 3.615430831909179688e+01 -8.941715955734252930e-02 9.704747200012207031e+00 2.884598970413208008e+00 -4.433517456054687500e+00
1.151000000000000000e+03 7.629237365722656250e+01 3.226110839843750000e+01 -2.599604129791259766e+00 1.627932357788085938e+01 4.103915691375732422e+00 5.433789730072021484e+00
1.152000000000000000e+03 7.651214599609375000e+01 3.874522399902343750e+01 -1.190436959266662598e+00 1.303193664550781250e+01 3.552449941635131836e+00 -5.687042474746704102e-01
1.153000000000000000e+03 7.520592498779296875e+01 3.552877807617187500e+01 1.058735609054565430e+00 5.393632411956787109e+00 1.935710430145263672e+00 -4.478169441223144531e+00
1.154000000000000000e+03 7.526472473144531250e+01 3.591308975219726562e+01 7.629406452178955078e-01 6.829574108123779297e+00 2.277754306793212891e+00 -4.442800521850585938e+00
1.155000000000000000e+03 7.543941497802734375e+01 3.565969848632812500e+01 8.937367200851440430e-01 7.524912834167480469e+00 2.525594949722290039e+00 -5.561605453491210938e+00
1.156000000000000000e+03 7.504099273681640625e+01 3.555327606201171875e+01 1.141889214515686035e+00 3.947152376174926758e+00 1.526712536811828613e+00 -4.080949783325195312e+00
1.157000000000000000e+03 7.554260253906250000e+01 3.555306243896484375e+01 9.218780994415283203e-01 7.882074832916259766e+00 2.641185760498046875e+00 -6.086658000946044922e+00
1.158000000000000000e+03 7.593339538574218750e+01 3.559800338745117188e+01 2.503018453717231750e-02 1.224880695343017578e+01 3.682151317596435547e+00 -6.089515209197998047e+00
1.159000000000000000e+03 7.594843292236328125e+01 3.575612640380859375e+01 -5.181981325149536133e-01 1.262241935729980469e+01 3.631266355514526367e+00 -5.431613922119140625e+00
1.160000000000000000e+03 7.302421569824218750e+01 3.213088989257812500e+01 -2.871307849884033203e+00 7.323341369628906250e-01 -6.416921019554138184e-01 8.001376390457153320e-01
1.161000000000000000e+03 7.819226074218750000e+01 2.831205558776855469e+01 -4.524925351142883301e-01 1.315805816650390625e+01 3.811669588088989258e+00 8.499723076820373535e-01
1.162000000000000000e+03 7.461759185791015625e+01 3.230139160156250000e+01 -1.231582045555114746e+00 3.031244039535522461e+00 5.398985743522644043e-01 3.066340446472167969e+00
1.163000000000000000e+03 7.522663879394531250e+01 3.231733322143554688e+01 -7.767366170883178711e-01 5.865265369415283203e+00 1.526558756828308105e+00 4.936778068542480469e+00
1.164000000000000000e+03 7.423244476318359375e+01 3.233168792724609375e+01 -1.866087555885314941e+00 1.631687760353088379e+00 -7.031997293233871460e-02 2.226765632629394531e+00
1.165000000000000000e+03 7.584520721435546875e+01 3.222822952270507812e+01 -1.584207177162170410e+00 1.145228862762451172e+01 2.960424423217773438e+00 6.069496154785156250e+00
1.166000000000000000e+03 7.547651672363281250e+01 3.206590652465820312e+01 -1.102055668830871582e+00 8.489591598510742188e+00 2.216260910034179688e+00 5.442605495452880859e+00
1.167000000000000000e+03 7.625382232666015625e+01 3.186452674865722656e+01 -2.681102514266967773e+00 1.476859951019287109e+01 3.626249074935913086e+00 4.783070564270019531e+00
1.168000000000000000e+03 7.481697845458984375e+01 3.232222747802734375e+01 -8.013877272605895996e-01 3.736948966979980469e+00 8.806683421134948730e-01 3.823960065841674805e+00
1.169000000000000000e+03 2.914424705505371094e+01 5.509808063507080078e+00 -2.069610357284545898e+00 -1.204407095909118652e+00 -9.822052717208862305e-01 -1.108545422554016113e+00
1.170000000000000000e+03 2.808587074279785156e+01 4.907397747039794922e+00 -2.295314550399780273e+00 -1.177977681159973145e+00 -1.041987657546997070e+00 -1.292087554931640625e+00
1.171000000000000000e+03 2.861719512939453125e+01 4.728721141815185547e+00 -2.089053869247436523e+00 -1.123583078384399414e+00 -9.637910723686218262e-01 -1.060620069503784180e+00
1.172000000000000000e+03 2.773844337463378906e+01 4.735719203948974609e+00 -2.392742395401000977e+00 -1.118451595306396484e+00 -1.053358197212219238e+00 -1.337899684906005859e+00
1.173000000000000000e+03 2.709324455261230469e+01 4.308858394622802734e+00 -2.531198263168334961e+00 -9.545609354972839355e-01 -1.045727729797363281e+00 -1.334309816360473633e+00
1.174000000000000000e+03 2.167213630676269531e+01 6.769226789474487305e-01 -1.955683231353759766e+00 -4.818354845046997070e-01 -7.312555909156799316e-01 -2.325702190399169922e+00
1.175000000000000000e+03 2.119547080993652344e+01 -8.765675425529479980e-01 5.395550727844238281e-01 5.729927420616149902e-01 3.337643444538116455e-01 -1.925957441329956055e+00
1.176000000000000000e+03 1.935979270935058594e+01 -4.886828064918518066e-01 -1.524412512779235840e+00 -3.163126707077026367e+00 -1.406261801719665527e+00 -2.183796167373657227e+00
1.177000000000000000e+03 1.979995536804199219e+01 -3.077180981636047363e-01 -1.556936144828796387e+00 -3.595582485198974609e+00 -1.545755624771118164e+00 -2.229499340057373047e+00
1.178000000000000000e+03 1.966989898681640625e+01 -6.733336448669433594e-01 -2.181479692459106445e+00 -3.441181898117065430e+00 -1.686798453330993652e+00 -2.479092121124267578e+00
1.179000000000000000e+03 1.899088668823242188e+01 -1.567005991935729980e+00 -1.706871032714843750e+00 -3.210312366485595703e+00 -1.475155115127563477e+00 -1.889384388923645020e+00
1.180000000000000000e+03 1.918911361694335938e+01 -2.689950466156005859e+00 -8.397449254989624023e-01 -4.846549510955810547e+00 -1.705888390541076660e+00 -1.635107159614562988e+00
1.181000000000000000e+03 1.720072937011718750e+01 -1.944450259208679199e+00 -1.690438866615295410e+00 -1.001824736595153809e+00 -8.076790571212768555e-01 -9.917146563529968262e-01
1.182000000000000000e+03 1.791320228576660156e+01 -2.228229761123657227e+00 -1.537304639816284180e+00 -1.571698188781738281e+00 -9.327008724212646484e-01 -1.137378215789794922e+00
1.183000000000000000e+03 2.741525268554687500e+01 4.528023242950439453e+00 -2.489960432052612305e+00 -1.029030323028564453e+00 -1.055697202682495117e+00 -1.349158883094787598e+00
1.184000000000000000e+03 2.306711769104003906e+01 1.181859970092773438e+00 -2.219612836837768555e+00 -1.140405535697937012e-01 -7.000960111618041992e-01 -1.384750485420227051e+00
1.185000000000000000e+03 2.229732894897460938e+01 1.310187220573425293e+00 -2.643912076950073242e+00 -5.412796139717102051e-01 -9.555575251579284668e-01 -1.873586058616638184e+00
1.186000000000000000e+03 2.189570999145507812e+01 7.262639999389648438e-01 -2.019204616546630859e+00 -6.289554387331008911e-02 -6.246300339698791504e-01 -2.188419580459594727e+00
1.187000000000000000e+03 2.337961387634277344e+01 -2.230800628662109375e+00 1.910549402236938477e+00 1.339123487472534180e+00 9.749018549919128418e-01 -2.025646448135375977e+00
1.188000000000000000e+03 2.935935401916503906e+01 5.603704452514648438e+00 -2.036724567413330078e+00 -1.147982835769653320e+00 -9.554122090339660645e-01 -1.097678542137145996e+00
1.189000000000000000e+03 2.895989418029785156e+01 5.261778354644775391e+00 -2.074603796005249023e+00 -1.231052875518798828e+00 -9.916970133781433105e-01 -1.117331743240356445e+00
1.190000000000000000e+03 2.865057373046875000e+01 5.219279289245605469e+00 -2.157693147659301758e+00 -1.286798596382141113e+00 -1.033347606658935547e+00 -1.202927112579345703e+00
1.191000000000000000e+03 2.827345657348632812e+01 4.990322113037109375e+00 -2.265782356262207031e+00 -1.227584719657897949e+00 -1.048010110855102539e+00 -1.265651941299438477e+00
1.192000000000000000e+03 2.677275848388671875e+01 4.066363334655761719e+00 -2.602042198181152344e+00 -8.844702243804931641e-01 -1.045953750610351562e+00 -1.323757886886596680e+00
1.193000000000000000e+03 2.603304290771484375e+01 3.294789552688598633e+00 -2.627032518386840820e+00 -6.568001508712768555e-01 -9.851498007774353027e-01 -1.181045055389404297e+00
1.194000000000000000e+03 2.588746452331542969e+01 3.530223846435546875e+00 -2.775003910064697266e+00 -7.510858178138732910e-01 -1.057826876640319824e+00 -1.302325129508972168e+00
1.195000000000000000e+03 2.554659080505371094e+01 3.308325529098510742e+00 -2.856473445892333984e+00 -7.186760902404785156e-01 -1.072544932365417480e+00 -1.316270112991333008e+00
1.196000000000000000e+03 2.512375068664550781e+01 2.777724266052246094e+00 -2.785421609878540039e+00 -5.873280167579650879e-01 -1.011824846267700195e+00 -1.200515389442443848e+00
1.197000000000000000e+03 2.398174285888671875e+01 2.382677316665649414e+00 -3.014044284820556641e+00 -6.112158298492431641e-01 -1.087578058242797852e+00 -1.428286552429199219e+00
1.198000000000000000e+03 2.361326026916503906e+01 1.762228846549987793e+00 -2.649366617202758789e+00 -3.513242602348327637e-01 -9.002072215080261230e-01 -1.284691452980041504e+00
1.199000000000000000e+03 2.133140945434570312e+01 5.442492365837097168e-01 -1.963515520095825195e+00 -5.086535811424255371e-01 -7.416507601737976074e-01 -2.486917495727539062e+00
1.200000000000000000e+03 2.107354927062988281e+01 5.992611646652221680e-01 -1.932083606719970703e+00 -1.352015972137451172e+00 -9.852299094200134277e-01 -3.084040164947509766e+00
1.201000000000000000e+03 1.808483314514160156e+01 -1.365075588226318359e+00 -1.769479155540466309e+00 -1.614995241165161133e+00 -1.015342354774475098e+00 -1.312289237976074219e+00
1.202000000000000000e+03 1.695527648925781250e+01 -2.375753641128540039e+00 -1.383081793785095215e+00 -8.187689185142517090e-01 -6.605552434921264648e-01 -7.693597078323364258e-01
1.203000000000000000e+03 1.838160705566406250e+01 -2.570117950439453125e+00 -1.694146275520324707e+00 -2.859320878982543945e+00 -1.366040229797363281e+00 -1.596719741821289062e+00
1.204000000000000000e+03 1.662870788574218750e+01 -2.217193841934204102e+00 -1.457005739212036133e+00 -6.763066053390502930e-01 -6.399936676025390625e-01 -7.887086272239685059e-01
1.205000000000000000e+03 1.755441284179687500e+01 -1.912127375602722168e+00 -1.812951445579528809e+00 -1.216513991355895996e+00 -9.088396430015563965e-01 -1.143329620361328125e+00
1.206000000000000000e+03 2.501632118225097656e+01 3.011278152465820312e+00 -2.945325613021850586e+00 -6.395556926727294922e-01 -1.075464367866516113e+00 -1.348762154579162598e+00
1.207000000000000000e+03 2.467201995849609375e+01 2.809295892715454102e+00 -2.969073772430419922e+00 -5.999838113784790039e-01 -1.070717334747314453e+00 -1.346418619155883789e+00
1.208000000000000000e+03 2.790776443481445312e+01 4.826115608215332031e+00 -2.370615482330322266e+00 -1.164156675338745117e+00 -1.060431599617004395e+00 -1.326421380043029785e+00
1.209000000000000000e+03 5.312819290161132812e+01 3.869211196899414062e+01 6.288215517997741699e-01 1.321599334478378296e-01 2.282944470643997192e-01 -2.029784470796585083e-01
1.210000000000000000e+03 5.633008193969726562e+01 3.700172424316406250e+01 7.977905869483947754e-02 -2.552595734596252441e-02 1.627592928707599640e-02 -5.119467619806528091e-03
1.211000000000000000e+03 5.735063934326171875e+01 3.778031539916992188e+01 1.376262158155441284e-01 -7.853098958730697632e-02 1.772857084870338440e-02 4.507049173116683960e-02
1.212000000000000000e+03 5.381852340698242188e+01 3.835167312622070312e+01 2.398319989442825317e-01 8.820626884698867798e-02 9.841147810220718384e-02 -1.438124477863311768e-01
1.213000000000000000e+03 5.338315200805664062e+01 3.847624969482421875e+01 3.676442503929138184e-01 1.907308250665664673e-01 1.675125211477279663e-01 -2.321824133396148682e-01
1.214000000000000000e+03 5.400443649291992188e+01 3.858028030395507812e+01 3.151998221874237061e-01 1.827928051352500916e-02 1.000437289476394653e-01 -9.042436629533767700e-02
1.215000000000000000e+03 5.409058380126953125e+01 3.737353515625000000e+01 3.536802902817726135e-02 2.879831567406654358e-02 1.924990303814411163e-02 -3.722460940480232239e-02
1.216000000000000000e+03 3.094360923767089844e+01 1.147093009948730469e+01 -1.629347920417785645e+00 -1.397658705711364746e+00 -9.081020355224609375e-01 -1.446104884147644043e+00
1.217000000000000000e+03 5.173126220703125000e+01 3.180763435363769531e+01 -9.694055318832397461e-01 -6.831490993499755859e-01 -4.957664012908935547e-01 -8.147121071815490723e-01
1.218000000000000000e+03 3.334217834472656250e+01 1.316445827484130859e+01 -1.292785406112670898e+00 -1.434697985649108887e+00 -8.182449936866760254e-01 -1.338762998580932617e+00
1.219000000000000000e+03 3.269839477539062500e+01 1.316588592529296875e+01 -1.336462378501892090e+00 -1.382084250450134277e+00 -8.155640363693237305e-01 -1.370126128196716309e+00
1.220000000000000000e+03 3.257680892944335938e+01 1.182742214202880859e+01 -1.363796353340148926e+00 -1.333363771438598633e+00 -8.091480731964111328e-01 -1.308918356895446777e+00
1.221000000000000000e+03 3.238838577270507812e+01 1.223353004455566406e+01 -1.361619591712951660e+00 -1.365729212760925293e+00 -8.182046413421630859e-01 -1.368778347969055176e+00
1.222000000000000000e+03 3.961035919189453125e+01 2.033404731750488281e+01 -1.074322342872619629e+00 -1.181011319160461426e+00 -6.766000986099243164e-01 -1.201838612556457520e+00
1.223000000000000000e+03 3.987834930419921875e+01 2.062274742126464844e+01 -1.109452366828918457e+00 -1.153874397277832031e+00 -6.789980530738830566e-01 -1.205415129661560059e+00
1.224000000000000000e+03 4.045627212524414062e+01 2.173364257812500000e+01 -1.379921555519104004e+00 -1.097760915756225586e+00 -7.433047294616699219e-01 -1.241267204284667969e+00
1.225000000000000000e+03 2.976816558837890625e+01 9.706530570983886719e+00 -1.641549468040466309e+00 -1.139098882675170898e+00 -8.341944813728332520e-01 -1.279348134994506836e+00
1.226000000000000000e+03 3.045200347900390625e+01 1.035642147064208984e+01 -1.501663565635681152e+00 -1.241300463676452637e+00 -8.228892087936401367e-01 -1.327312707901000977e+00
1.227000000000000000e+03 5.396078491210937500e+01 3.244748687744140625e+01 -1.081779479980468750e+00 -2.730496786534786224e-02 -3.327253460884094238e-01 -6.473876833915710449e-01
1.228000000000000000e+03 4.400008773803710938e+01 2.494663238525390625e+01 -1.599808335304260254e+00 -1.446125388145446777e+00 -9.137800931930541992e-01 -1.502345919609069824e+00
1.229000000000000000e+03 4.421879196166992188e+01 2.467721176147460938e+01 -1.501655697822570801e+00 -1.381535291671752930e+00 -8.649572730064392090e-01 -1.396466970443725586e+00
1.230000000000000000e+03 4.042945480346679688e+01 2.117760658264160156e+01 -1.209800839424133301e+00 -1.150162577629089355e+00 -7.079890370368957520e-01 -1.232003450393676758e+00
1.231000000000000000e+03 3.801214981079101562e+01 1.913504409790039062e+01 -1.034651398658752441e+00 -1.541286349296569824e+00 -7.727813124656677246e-01 -1.264882922172546387e+00
1.232000000000000000e+03 3.908745193481445312e+01 1.974562835693359375e+01 -1.046413779258728027e+00 -1.263270974159240723e+00 -6.929054260253906250e-01 -1.211415290832519531e+00
1.233000000000000000e+03 5.143494796752929688e+01 3.152354812622070312e+01 -1.025131225585937500e+00 -7.635443210601806641e-01 -5.366026759147644043e-01 -8.800848126411437988e-01
1.234000000000000000e+03 4.100264358520507812e+01 2.171753501892089844e+01 -1.328197479248046875e+00 -1.203024864196777344e+00 -7.593666911125183105e-01 -1.266357779502868652e+00
1.235000000000000000e+03 4.105502700805664062e+01 2.225892066955566406e+01 -1.513956308364868164e+00 -1.225251436233520508e+00 -8.217623233795166016e-01 -1.349231243133544922e+00
1.236000000000000000e+03 3.309011840820312500e+01 1.278278636932373047e+01 -1.284351348876953125e+00 -1.397068858146667480e+00 -8.044260144233703613e-01 -1.351697802543640137e+00
1.237000000000000000e+03 3.392446136474609375e+01 1.329759502410888672e+01 -1.270405530929565430e+00 -1.415628194808959961e+00 -8.058101534843444824e-01 -1.291526913642883301e+00
1.238000000000000000e+03 2.997117042541503906e+01 8.435000419616699219e+00 -1.235564351081848145e+00 -1.206866145133972168e+00 -7.327291965484619141e-01 -8.880475759506225586e-01
1.239000000000000000e+03 4.341043090820312500e+01 2.440653610229492188e+01 -1.597923398017883301e+00 -1.331860303878784180e+00 -8.789350986480712891e-01 -1.452814221382141113e+00
1.240000000000000000e+03 4.187646102905273438e+01 2.252624702453613281e+01 -1.429322719573974609e+00 -1.246503233909606934e+00 -8.027477860450744629e-01 -1.320816993713378906e+00
1.241000000000000000e+03 4.536444473266601562e+01 2.578741645812988281e+01 -1.378847479820251465e+00 -1.305409908294677734e+00 -8.052772283554077148e-01 -1.352588891983032227e+00
1.242000000000000000e+03 5.328947448730468750e+01 3.340297317504882812e+01 -6.502149701118469238e-01 -1.604899168014526367e-01 -2.432114779949188232e-01 -4.592998921871185303e-01
1.243000000000000000e+03 5.252207565307617188e+01 3.340503692626953125e+01 -4.197668433189392090e-01 -3.991511464118957520e-01 -2.456753998994827271e-01 -4.331825673580169678e-01
1.244000000000000000e+03 4.564395523071289062e+01 2.606431388854980469e+01 -1.345862150192260742e+00 -1.268096446990966797e+00 -7.841875553131103516e-01 -1.335951328277587891e+00
1.245000000000000000e+03 3.483935546875000000e+01 1.503755760192871094e+01 -1.235299468040466309e+00 -1.470030188560485840e+00 -8.115988969802856445e-01 -1.354731917381286621e+00
1.246000000000000000e+03 3.456659317016601562e+01 1.527010536193847656e+01 -1.232583284378051758e+00 -1.499748706817626953e+00 -8.196995854377746582e-01 -1.368123292922973633e+00
1.247000000000000000e+03 3.275944519042968750e+01 1.246071052551269531e+01 -1.322781085968017578e+00 -1.373080015182495117e+00 -8.087583184242248535e-01 -1.356279134750366211e+00
1.248000000000000000e+03 4.588331985473632812e+01 2.576513671875000000e+01 -1.352668404579162598e+00 -1.198261857032775879e+00 -7.652791142463684082e-01 -1.304227352142333984e+00
1.249000000000000000e+03 5.033080291748046875e+01 3.101011657714843750e+01 -1.128113627433776855e+00 -1.045545935630798340e+00 -6.520978808403015137e-01 -1.083707213401794434e+00
1.250000000000000000e+03 5.113980865478515625e+01 3.124525070190429688e+01 -1.077417731285095215e+00 -8.314313292503356934e-01 -5.726547241210937500e-01 -9.375529289245605469e-01
1.251000000000000000e+03 3.775815582275390625e+01 1.882754325866699219e+01 -1.081742644309997559e+00 -1.602228522300720215e+00 -8.051913380622863770e-01 -1.311671137809753418e+00
1.252000000000000000e+03 2.885120582580566406e+01 9.638079643249511719e+00 -1.774033188819885254e+00 -1.505052089691162109e+00 -9.837256073951721191e-01 -1.617849826812744141e+00
1.253000000000000000e+03 3.040210151672363281e+01 1.096921539306640625e+01 -1.573575019836425781e+00 -1.252264499664306641e+00 -8.477518558502197266e-01 -1.385230779647827148e+00
1.254000000000000000e+03 3.618119430541992188e+01 1.702724456787109375e+01 -1.272542476654052734e+00 -1.541722416877746582e+00 -8.442794680595397949e-01 -1.398001670837402344e+00
1.255000000000000000e+03 3.723554992675781250e+01 1.766954803466796875e+01 -1.201226234436035156e+00 -1.546320676803588867e+00 -8.242640495300292969e-01 -1.330584883689880371e+00
1.256000000000000000e+03 4.736202621459960938e+01 2.769334030151367188e+01 -1.377016305923461914e+00 -1.146777629852294922e+00 -7.571381926536560059e-01 -1.270913720130920410e+00
1.257000000000000000e+03 3.829583740234375000e+01 1.885848617553710938e+01 -1.090532422065734863e+00 -1.428137540817260742e+00 -7.556009888648986816e-01 -1.257164716720581055e+00
1.258000000000000000e+03 4.304136657714843750e+01 2.359840393066406250e+01 -1.453489542007446289e+00 -1.270966649055480957e+00 -8.173368573188781738e-01 -1.367796897888183594e+00
1.259000000000000000e+03 4.222686767578125000e+01 2.333873748779296875e+01 -1.463816642761230469e+00 -1.265155076980590820e+00 -8.186914920806884766e-01 -1.369138479232788086e+00
1.260000000000000000e+03 4.392484664916992188e+01 2.440463447570800781e+01 -1.502697825431823730e+00 -1.355244278907775879e+00 -8.573825955390930176e-01 -1.396825551986694336e+00
1.261000000000000000e+03 3.011063194274902344e+01 1.067982482910156250e+01 -1.524518370628356934e+00 -1.208882093429565430e+00 -8.200201392173767090e-01 -1.374942898750305176e+00
1.262000000000000000e+03 5.004356384277343750e+01 3.073165893554687500e+01 -1.172685265541076660e+00 -1.076564073562622070e+00 -6.747748255729675293e-01 -1.120973706245422363e+00
1.263000000000000000e+03 5.084548187255859375e+01 3.097023010253906250e+01 -1.122397303581237793e+00 -8.833376765251159668e-01 -6.017205119132995605e-01 -9.912375211715698242e-01
1.264000000000000000e+03 3.591209030151367188e+01 1.673357391357421875e+01 -1.274587631225585938e+00 -1.527143001556396484e+00 -8.405191898345947266e-01 -1.391082644462585449e+00
1.265000000000000000e+03 3.696907043457031250e+01 1.737447547912597656e+01 -1.215583920478820801e+00 -1.539442062377929688e+00 -8.265078067779541016e-01 -1.341403484344482422e+00
1.266000000000000000e+03 4.281624603271484375e+01 2.387402725219726562e+01 -1.529982089996337891e+00 -1.265300512313842773e+00 -8.385847806930541992e-01 -1.395780920982360840e+00
1.267000000000000000e+03 4.274821090698242188e+01 2.333088684082031250e+01 -1.436338424682617188e+00 -1.255318284034729004e+00 -8.074970245361328125e-01 -1.359142661094665527e+00
1.268000000000000000e+03 4.649339675903320312e+01 2.688521385192871094e+01 -1.334579348564147949e+00 -1.182768106460571289e+00 -7.552042603492736816e-01 -1.289877057075500488e+00
1.269000000000000000e+03 4.713650512695312500e+01 2.800073051452636719e+01 -1.433468818664550781e+00 -1.178924441337585449e+00 -7.837179899215698242e-01 -1.303630828857421875e+00
1.270000000000000000e+03 4.015105819702148438e+01 2.090337562561035156e+01 -1.156358599662780762e+00 -1.143298745155334473e+00 -6.898971796035766602e-01 -1.215904712677001953e+00
1.271000000000000000e+03 4.245672225952148438e+01 2.306350898742675781e+01 -1.429690122604370117e+00 -1.247367024421691895e+00 -8.031171560287475586e-01 -1.349648356437683105e+00
1.272000000000000000e+03 4.216654968261718750e+01 2.279550170898437500e+01 -1.429456472396850586e+00 -1.244999051094055176e+00 -8.023366928100585938e-01 -1.337417721748352051e+00
1.273000000000000000e+03 3.206384658813476562e+01 1.201238155364990234e+01 -1.415331840515136719e+00 -1.399516820907592773e+00 -8.444546461105346680e-01 -1.365792274475097656e+00
1.274000000000000000e+03 4.975641632080078125e+01 3.045407676696777344e+01 -1.209760546684265137e+00 -1.106429219245910645e+00 -6.948569416999816895e-01 -1.158242583274841309e+00
1.275000000000000000e+03 5.055160903930664062e+01 3.069606399536132812e+01 -1.163540363311767578e+00 -9.303483963012695312e-01 -6.281666159629821777e-01 -1.036815881729125977e+00
1.276000000000000000e+03 4.071366882324218750e+01 2.144824028015136719e+01 -1.268731832504272461e+00 -1.172899484634399414e+00 -7.324894070625305176e-01 -1.248966097831726074e+00
1.277000000000000000e+03 4.852993392944335938e+01 2.877583312988281250e+01 -1.385751366615295410e+00 -1.130468249320983887e+00 -7.548659443855285645e-01 -1.237659692764282227e+00
1.278000000000000000e+03 4.772798538208007812e+01 2.853530502319335938e+01 -1.455467224121093750e+00 -1.191191434860229492e+00 -7.939975857734680176e-01 -1.313907027244567871e+00
1.279000000000000000e+03 3.856053924560546875e+01 1.915547943115234375e+01 -1.065721988677978516e+00 -1.373252034187316895e+00 -7.316921949386596680e-01 -1.237751603126525879e+00
1.280000000000000000e+03 4.508344268798828125e+01 2.550911903381347656e+01 -1.420065760612487793e+00 -1.343030333518981934e+00 -8.289288282394409180e-01 -1.367544412612915039e+00
1.281000000000000000e+03 4.363017272949218750e+01 2.413457107543945312e+01 -1.492633104324340820e+00 -1.323808073997497559e+00 -8.449323773384094238e-01 -1.389545083045959473e+00
1.282000000000000000e+03 3.406871032714843750e+01 1.415489673614501953e+01 -1.315067648887634277e+00 -1.482972383499145508e+00 -8.394120335578918457e-01 -1.363586306571960449e+00
1.283000000000000000e+03 3.432112503051757812e+01 1.445480823516845703e+01 -1.288867354393005371e+00 -1.480598926544189453e+00 -8.308398723602294922e-01 -1.363945841789245605e+00
1.284000000000000000e+03 3.564258575439453125e+01 1.644043731689453125e+01 -1.272565841674804688e+00 -1.512994170188903809e+00 -8.356680274009704590e-01 -1.386743307113647461e+00
1.285000000000000000e+03 3.670212173461914062e+01 1.708034706115722656e+01 -1.223146319389343262e+00 -1.524290323257446289e+00 -8.242310285568237305e-01 -1.348824620246887207e+00
1.286000000000000000e+03 4.889699554443359375e+01 2.962239456176757812e+01 -1.347839713096618652e+00 -1.203339815139770508e+00 -7.653538584709167480e-01 -1.266067624092102051e+00
1.287000000000000000e+03 4.707079315185546875e+01 2.742467498779296875e+01 -1.362839698791503906e+00 -1.154615998268127441e+00 -7.552366852760314941e-01 -1.275362849235534668e+00
1.288000000000000000e+03 4.765423583984375000e+01 2.796225738525390625e+01 -1.388880372047424316e+00 -1.143565058708190918e+00 -7.597336173057556152e-01 -1.265238285064697266e+00
1.289000000000000000e+03 5.025865173339843750e+01 3.042204856872558594e+01 -1.199797987937927246e+00 -9.685649275779724121e-01 -6.505088806152343750e-01 -1.080044627189636230e+00
1.290000000000000000e+03 4.678110122680664062e+01 2.715552711486816406e+01 -1.347562432289123535e+00 -1.165144443511962891e+00 -7.538120746612548828e-01 -1.282058954238891602e+00
1.291000000000000000e+03 3.616748046875000000e+01 1.649468803405761719e+01 -1.231840729713439941e+00 -1.494868755340576172e+00 -8.180128335952758789e-01 -1.349679708480834961e+00
1.292000000000000000e+03 3.590058135986328125e+01 1.620227622985839844e+01 -1.233685731887817383e+00 -1.485234379768371582e+00 -8.156760334968566895e-01 -1.346168637275695801e+00
1.293000000000000000e+03 3.510288619995117188e+01 1.532762241363525391e+01 -1.223897695541381836e+00 -1.467764496803283691e+00 -8.074986338615417480e-01 -1.349999666213989258e+00
1.294000000000000000e+03 3.563395309448242188e+01 1.591016197204589844e+01 -1.228933930397033691e+00 -1.476379513740539551e+00 -8.115940093994140625e-01 -1.345890641212463379e+00
1.295000000000000000e+03 3.536791610717773438e+01 1.561854267120361328e+01 -1.227550268173217773e+00 -1.471582293510437012e+00 -8.097397685050964355e-01 -1.344706058502197266e+00
1.296000000000000000e+03 4.996804046630859375e+01 3.014817810058593750e+01 -1.236954331398010254e+00 -1.006164908409118652e+00 -6.729357838630676270e-01 -1.117088913917541504e+00
1.297000000000000000e+03 4.910751342773437500e+01 2.932441902160644531e+01 -1.343561410903930664e+00 -1.095715880393981934e+00 -7.317832112312316895e-01 -1.201424598693847656e+00
1.298000000000000000e+03 4.968027496337890625e+01 2.987411880493164062e+01 -1.273977398872375488e+00 -1.037722349166870117e+00 -6.935099363327026367e-01 -1.150442242622375488e+00
1.299000000000000000e+03 4.673089599609375000e+01 2.657816696166992188e+01 -1.318033695220947266e+00 -1.138212561607360840e+00 -7.368738651275634766e-01 -1.272217154502868652e+00
1.300000000000000000e+03 2.895725250244140625e+01 8.811951637268066406e+00 -2.066768169403076172e+00 -6.883819699287414551e-01 -8.265450596809387207e-01 -1.013523817062377930e+00
1.301000000000000000e+03 1.288748168945312500e+01 1.280197858810424805e+00 9.494557976722717285e-01 -1.740184575319290161e-01 2.326312065124511719e-01 4.429328143596649170e-01
1.302000000000000000e+03 1.374526405334472656e+01 2.992142438888549805e+00 3.444252610206604004e-01 3.140848636627197266e+00 1.045582175254821777e+00 1.773767769336700439e-01
1.303000000000000000e+03 1.303755664825439453e+01 1.752378225326538086e+00 1.752862453460693359e+00 6.288183927536010742e-01 7.145042419433593750e-01 -4.744999706745147705e-01
1.304000000000000000e+03 8.540334701538085938e+00 3.079448223114013672e+00 1.945918425917625427e-02 -2.680078446865081787e-01 -7.456459850072860718e-02 3.364853262901306152e-01
1.305000000000000000e+03 1.404151535034179688e+01 4.339221000671386719e+00 2.845856845378875732e-01 1.237761139869689941e+00 4.567040503025054932e-01 4.170846045017242432e-01
1.306000000000000000e+03 1.501335716247558594e+01 4.627485275268554688e+00 3.975557684898376465e-01 4.571413397789001465e-01 2.564091384410858154e-01 4.137488603591918945e-01
1.307000000000000000e+03 1.437391757965087891e+01 4.628687858581542969e+00 3.037400841712951660e-01 9.505776166915893555e-01 3.762953281402587891e-01 4.590001106262207031e-01
1.308000000000000000e+03 1.557015323638916016e+01 5.193530559539794922e+00 2.698905169963836670e-01 4.329230189323425293e-01 2.108440548181533813e-01 3.410117030143737793e-01
1.309000000000000000e+03 1.552745723724365234e+01 5.730772972106933594e+00 3.098259866237640381e-01 4.625273942947387695e-01 2.317060232162475586e-01 3.538801372051239014e-01
1.310000000000000000e+03 4.861991882324218750e+01 3.740658187866210938e+01 2.684741020202636719e-01 5.869845300912857056e-02 9.815176576375961304e-02 9.913323819637298584e-02
1.311000000000000000e+03 1.470225048065185547e+01 4.366279602050781250e+00 5.016440153121948242e-01 6.416267752647399902e-01 3.429812490940093994e-01 5.531816482543945312e-01
1.312000000000000000e+03 1.605381584167480469e+01 6.326869487762451172e+00 2.957811653614044189e-01 4.397679567337036133e-01 2.206647396087646484e-01 3.226827979087829590e-01
1.313000000000000000e+03 4.986904144287109375e+01 3.781065368652343750e+01 2.466985732316970825e-01 3.721292689442634583e-02 8.517345041036605835e-02 9.934954345226287842e-02
1.314000000000000000e+03 4.975569534301757812e+01 3.852625274658203125e+01 2.884800434112548828e-01 3.202152997255325317e-02 9.615047276020050049e-02 9.518271684646606445e-02
1.315000000000000000e+03 1.469063663482666016e+01 4.896962165832519531e+00 2.879067957401275635e-01 6.876659393310546875e-01 2.926718294620513916e-01 4.763887524604797363e-01
1.316000000000000000e+03 1.943225097656250000e+01 9.851075172424316406e+00 2.104933410882949829e-01 2.450941652059555054e-01 1.366762518882751465e-01 2.338969856500625610e-01
1.317000000000000000e+03 1.788716506958007812e+01 8.507404327392578125e+00 2.391581535339355469e-01 2.985625565052032471e-01 1.613162159919738770e-01 2.621781527996063232e-01
1.318000000000000000e+03 4.612170791625976562e+01 3.584189605712890625e+01 1.373779922723770142e-01 6.831714510917663574e-02 6.170853972434997559e-02 9.881771355867385864e-02
1.319000000000000000e+03 3.330480957031250000e+01 2.316699981689453125e+01 9.594756364822387695e-02 1.280224025249481201e-01 6.719098985195159912e-02 1.097751781344413757e-01
1.320000000000000000e+03 1.526291847229003906e+01 5.441455841064453125e+00 2.920116186141967773e-01 4.711581766605377197e-01 2.289509326219558716e-01 4.024799168109893799e-01
1.321000000000000000e+03 3.619588851928710938e+01 2.648310852050781250e+01 8.367650210857391357e-02 1.214099302887916565e-01 6.152592971920967102e-02 1.020496562123298645e-01
1.322000000000000000e+03 3.534642028808593750e+01 2.610425376892089844e+01 8.740344643592834473e-02 1.236065179109573364e-01 6.330298632383346558e-02 1.055430248379707336e-01
1.323000000000000000e+03 3.109412193298339844e+01 2.086375617980957031e+01 1.297460347414016724e-01 1.228265985846519470e-01 7.577178627252578735e-02 1.248516440391540527e-01
1.324000000000000000e+03 5.027408981323242188e+01 3.786130142211914062e+01 2.473543584346771240e-01 3.733950108289718628e-02 8.540815860033035278e-02 1.054266244173049927e-01
1.325000000000000000e+03 1.997340583801269531e+01 1.040893650054931641e+01 2.038330733776092529e-01 2.309141308069229126e-01 1.304241567850112915e-01 2.237628698348999023e-01
1.326000000000000000e+03 3.610930252075195312e+01 2.700464057922363281e+01 9.095937013626098633e-02 1.215247437357902527e-01 6.374523788690567017e-02 1.051056087017059326e-01
1.327000000000000000e+03 1.682890510559082031e+01 7.233104228973388672e+00 2.471997588872909546e-01 3.372695147991180420e-01 1.753407716751098633e-01 3.019868731498718262e-01
1.328000000000000000e+03 1.745075607299804688e+01 7.269862174987792969e+00 2.498066425323486328e-01 2.949614524841308594e-01 1.634304374456405640e-01 2.803020775318145752e-01
1.329000000000000000e+03 1.657544898986816406e+01 6.925335407257080078e+00 2.644273340702056885e-01 3.691420555114746094e-01 1.900708228349685669e-01 3.080411851406097412e-01
1.330000000000000000e+03 2.424479484558105469e+01 1.574042510986328125e+01 1.488787084817886353e-01 1.803764551877975464e-01 9.877654910087585449e-02 1.687748134136199951e-01
1.331000000000000000e+03 1.733122062683105469e+01 7.880140304565429688e+00 2.365171611309051514e-01 3.114026188850402832e-01 1.643759310245513916e-01 2.795135080814361572e-01
1.332000000000000000e+03 1.914961814880371094e+01 9.572889328002929688e+00 2.181085646152496338e-01 2.574713230133056641e-01 1.426739692687988281e-01 2.408842593431472778e-01
1.333000000000000000e+03 3.410657501220703125e+01 2.406340599060058594e+01 8.849199116230010986e-02 1.219617351889610291e-01 6.313611567020416260e-02 1.053200289607048035e-01
1.334000000000000000e+03 3.350103759765625000e+01 2.402285385131835938e+01 8.973153680562973022e-02 1.253145784139633179e-01 6.451383233070373535e-02 1.076420098543167114e-01
1.335000000000000000e+03 3.508495330810546875e+01 2.580871963500976562e+01 8.944427222013473511e-02 1.257670968770980835e-01 6.456340849399566650e-02 1.050083711743354797e-01
1.336000000000000000e+03 2.084159278869628906e+01 1.069846630096435547e+01 2.087379992008209229e-01 2.435098141431808472e-01 1.356743425130844116e-01 2.243314534425735474e-01
1.337000000000000000e+03 2.026094245910644531e+01 1.068101310729980469e+01 2.020899355411529541e-01 2.295850515365600586e-01 1.295024901628494263e-01 2.188969701528549194e-01
1.338000000000000000e+03 3.204085540771484375e+01 2.313550567626953125e+01 9.387950599193572998e-02 1.196499913930892944e-01 6.405884772539138794e-02 1.120971143245697021e-01
1.339000000000000000e+03 3.802203369140625000e+01 2.861422538757324219e+01 1.036741435527801514e-01 1.077169552445411682e-01 6.341733038425445557e-02 1.047817543148994446e-01
1.340000000000000000e+03 3.709709548950195312e+01 2.826987648010253906e+01 9.797073900699615479e-02 1.201549246907234192e-01 6.543769687414169312e-02 1.031514257192611694e-01
1.341000000000000000e+03 3.403271865844726562e+01 2.461281776428222656e+01 9.032198041677474976e-02 1.241075471043586731e-01 6.432885676622390747e-02 1.076514050364494324e-01
1.342000000000000000e+03 2.055024528503417969e+01 1.095650100708007812e+01 2.030776292085647583e-01 2.335708290338516235e-01 1.309945434331893921e-01 2.127072364091873169e-01
1.343000000000000000e+03 2.111647224426269531e+01 1.151713848114013672e+01 1.963664591312408447e-01 2.313217371702194214e-01 1.283064633607864380e-01 2.093657404184341431e-01
1.344000000000000000e+03 3.104480743408203125e+01 2.141797256469726562e+01 1.116959899663925171e-01 1.241344213485717773e-01 7.074912637472152710e-02 1.175732985138893127e-01
1.345000000000000000e+03 1.798374366760253906e+01 7.877760410308837891e+00 2.435987144708633423e-01 3.050529956817626953e-01 1.645955145359039307e-01 2.760785222053527832e-01
1.346000000000000000e+03 1.759438323974609375e+01 8.205897331237792969e+00 2.412579506635665894e-01 3.072089850902557373e-01 1.645400822162628174e-01 2.668859064579010010e-01
1.347000000000000000e+03 3.585837554931640625e+01 2.670004844665527344e+01 8.818336576223373413e-02 1.207838356494903564e-01 6.269016116857528687e-02 1.057305634021759033e-01
1.348000000000000000e+03 2.223728370666503906e+01 1.212705993652343750e+01 1.900917887687683105e-01 2.146937996149063110e-01 1.214356720447540283e-01 2.027972042560577393e-01
1.349000000000000000e+03 2.166189002990722656e+01 1.208354473114013672e+01 1.889964193105697632e-01 2.197632789611816406e-01 1.226279065012931824e-01 2.060775309801101685e-01
1.350000000000000000e+03 3.734310913085937500e+01 2.859166336059570312e+01 9.741235524415969849e-02 1.165207773447036743e-01 6.417994201183319092e-02 1.022961735725402832e-01
1.351000000000000000e+03 2.384114837646484375e+01 1.437168502807617188e+01 1.803396940231323242e-01 1.917202323675155640e-01 1.116179749369621277e-01 1.819820255041122437e-01
1.352000000000000000e+03 2.418739318847656250e+01 1.413587474822998047e+01 2.002634704113006592e-01 1.808149516582489014e-01 1.143235266208648682e-01 1.891828626394271851e-01
1.353000000000000000e+03 2.357874107360839844e+01 1.407746315002441406e+01 1.864352524280548096e-01 1.980428248643875122e-01 1.153434216976165771e-01 1.868201047182083130e-01
1.354000000000000000e+03 3.159470176696777344e+01 2.198159217834472656e+01 9.979761391878128052e-02 1.178233474493026733e-01 6.528628617525100708e-02 1.149988472461700439e-01
1.355000000000000000e+03 3.132194519042968750e+01 2.169995689392089844e+01 1.052995473146438599e-01 1.211087480187416077e-01 6.792248785495758057e-02 1.159484013915061951e-01
1.356000000000000000e+03 2.247458457946777344e+01 1.293699264526367188e+01 1.886761188507080078e-01 2.131581902503967285e-01 1.205502897500991821e-01 1.989493817090988159e-01
1.357000000000000000e+03 4.323258590698242188e+01 3.487485122680664062e+01 1.248545050621032715e-01 7.321307808160781860e-02 5.942027643322944641e-02 9.085582941770553589e-02
1.358000000000000000e+03 4.385262680053710938e+01 3.536860275268554688e+01 1.340379714965820312e-01 7.013141363859176636e-02 6.125081703066825867e-02 8.893423527479171753e-02
1.359000000000000000e+03 2.219978713989257812e+01 1.265123748779296875e+01 1.881925910711288452e-01 2.142848670482635498e-01 1.207432374358177185e-01 2.007187157869338989e-01
1.360000000000000000e+03 2.192944335937500000e+01 1.236670017242431641e+01 1.869589984416961670e-01 2.150180041790008545e-01 1.205931007862091064e-01 2.044607400894165039e-01
1.361000000000000000e+03 2.460081100463867188e+01 1.539384746551513672e+01 1.563371419906616211e-01 1.750953495502471924e-01 9.942974150180816650e-02 1.720676124095916748e-01
1.362000000000000000e+03 3.240883636474609375e+01 2.284416580200195312e+01 9.506282955408096313e-02 1.164422035217285156e-01 6.345150619745254517e-02 1.095987185835838318e-01
1.363000000000000000e+03 3.268165206909179688e+01 2.313905906677246094e+01 9.456679970026016235e-02 1.199046522378921509e-01 6.434143334627151489e-02 1.075329259037971497e-01
1.364000000000000000e+03 1.825713348388671875e+01 8.175577163696289062e+00 2.553897500038146973e-01 3.104701340198516846e-01 1.697579622268676758e-01 2.748245298862457275e-01
1.365000000000000000e+03 3.560426712036132812e+01 2.640050697326660156e+01 8.709596842527389526e-02 1.216405108571052551e-01 6.262094527482986450e-02 1.057712286710739136e-01
1.366000000000000000e+03 2.278249549865722656e+01 1.270931911468505859e+01 1.940068155527114868e-01 2.214860618114471436e-01 1.246478632092475891e-01 2.055432945489883423e-01
1.367000000000000000e+03 3.910095977783203125e+01 2.981841850280761719e+01 9.875527024269104004e-02 9.921658784151077271e-02 5.939155817031860352e-02 9.787487983703613281e-02
1.368000000000000000e+03 3.830075454711914062e+01 2.889810943603515625e+01 1.015411242842674255e-01 1.033262535929679871e-01 6.146021187305450439e-02 1.018731743097305298e-01
1.369000000000000000e+03 2.991860771179199219e+01 2.028787994384765625e+01 1.252479851245880127e-01 1.313742250204086304e-01 7.698666304349899292e-02 1.290535926818847656e-01
1.370000000000000000e+03 3.052176856994628906e+01 2.030130386352539062e+01 1.290816515684127808e-01 1.294595748186111450e-01 7.756236940622329712e-02 1.290316432714462280e-01
1.371000000000000000e+03 2.408994865417480469e+01 1.468468761444091797e+01 1.711051464080810547e-01 1.853923052549362183e-01 1.069492325186729431e-01 1.783609092235565186e-01
1.372000000000000000e+03 1.853465080261230469e+01 9.044911384582519531e+00 2.360978126525878906e-01 2.855913937091827393e-01 1.565067619085311890e-01 2.482585608959197998e-01
1.373000000000000000e+03 1.647425270080566406e+01 7.466292381286621094e+00 2.285356521606445312e-01 3.742170929908752441e-01 1.808258295059204102e-01 2.875541448593139648e-01
1.374000000000000000e+03 4.914881134033203125e+01 3.834502792358398438e+01 2.667032182216644287e-01 3.816983476281166077e-02 9.146191179752349854e-02 9.468445181846618652e-02
1.375000000000000000e+03 4.903012084960937500e+01 3.748982620239257812e+01 2.639399170875549316e-01 2.962573617696762085e-02 8.806969225406646729e-02 9.816430509090423584e-02
1.376000000000000000e+03 4.280772781372070312e+01 3.355307006835937500e+01 1.126995831727981567e-01 7.564040273427963257e-02 5.650199577212333679e-02 8.880739659070968628e-02
1.377000000000000000e+03 2.680937004089355469e+01 1.669899749755859375e+01 1.640481203794479370e-01 1.721455752849578857e-01 1.008581072092056274e-01 1.663949042558670044e-01
1.378000000000000000e+03 2.525140190124511719e+01 1.604473304748535156e+01 1.533007472753524780e-01 1.679232567548751831e-01 9.636720269918441772e-02 1.643526405096054077e-01
1.379000000000000000e+03 3.854899978637695312e+01 3.013264083862304688e+01 9.742372483015060425e-02 1.015256717801094055e-01 5.968482047319412231e-02 9.709810465574264526e-02
1.380000000000000000e+03 4.308576202392578125e+01 3.380258178710937500e+01 1.136846318840980530e-01 7.371906936168670654e-02 5.622110888361930847e-02 8.967959135770797729e-02
1.381000000000000000e+03 3.376881408691406250e+01 2.431675720214843750e+01 8.933639526367187500e-02 1.245166584849357605e-01 6.415591388940811157e-02 1.080949828028678894e-01
1.382000000000000000e+03 4.378045654296875000e+01 3.477998733520507812e+01 1.234844774007797241e-01 7.026715576648712158e-02 5.812548846006393433e-02 9.020053595304489136e-02
1.383000000000000000e+03 4.330530548095703125e+01 3.412208557128906250e+01 1.161405146121978760e-01 7.318168133497238159e-02 5.679665878415107727e-02 8.947475254535675049e-02
1.384000000000000000e+03 4.069251251220703125e+01 3.115330696105957031e+01 1.032139956951141357e-01 8.381720632314682007e-02 5.610936135053634644e-02 9.282752126455307007e-02
1.385000000000000000e+03 4.151155853271484375e+01 3.254497146606445312e+01 1.057917773723602295e-01 8.094711601734161377e-02 5.602166801691055298e-02 9.001453965902328491e-02
1.386000000000000000e+03 2.139196777343750000e+01 1.180038356781005859e+01 1.908223778009414673e-01 2.243729978799819946e-01 1.245586127042770386e-01 2.091027945280075073e-01
1.387000000000000000e+03 3.370195770263671875e+01 2.486585807800292969e+01 8.941788226366043091e-02 1.241693720221519470e-01 6.407617777585983276e-02 1.068369820713996887e-01
1.388000000000000000e+03 2.750470733642578125e+01 1.830862045288085938e+01 1.411552280187606812e-01 1.547869294881820679e-01 8.878264576196670532e-02 1.467586308717727661e-01
1.389000000000000000e+03 4.370684051513671875e+01 3.375924682617187500e+01 1.128016412258148193e-01 6.989423185586929321e-02 5.480876192450523376e-02 8.899623900651931763e-02
1.390000000000000000e+03 3.023917198181152344e+01 2.001883697509765625e+01 1.294825524091720581e-01 1.297480314970016479e-01 7.776917517185211182e-02 1.299535185098648071e-01
1.391000000000000000e+03 2.964153289794921875e+01 2.000589942932128906e+01 1.269630044698715210e-01 1.331205517053604126e-01 7.802506536245346069e-02 1.312382817268371582e-01
1.392000000000000000e+03 2.597280693054199219e+01 1.650528907775878906e+01 1.547300517559051514e-01 1.692097038030624390e-01 9.718192368745803833e-02 1.604767888784408569e-01
1.393000000000000000e+03 3.429483413696289062e+01 2.491159629821777344e+01 9.164083749055862427e-02 1.248466446995735168e-01 6.494624167680740356e-02 1.066554561257362366e-01
1.394000000000000000e+03 2.936735343933105469e+01 1.972273254394531250e+01 1.292629688978195190e-01 1.347696185111999512e-01 7.920978218317031860e-02 1.334161907434463501e-01
1.395000000000000000e+03 4.093072128295898438e+01 3.200892639160156250e+01 1.031645387411117554e-01 8.427939563989639282e-02 5.623318254947662354e-02 9.119991213083267212e-02
1.396000000000000000e+03 3.048084068298339844e+01 2.085110855102539062e+01 1.216292306780815125e-01 1.282828897237777710e-01 7.497363537549972534e-02 1.233211308717727661e-01
1.397000000000000000e+03 3.019809722900390625e+01 2.056895065307617188e+01 1.238673850893974304e-01 1.298200041055679321e-01 7.610621303319931030e-02 1.263613849878311157e-01
1.398000000000000000e+03 4.581287002563476562e+01 3.547888946533203125e+01 1.353518962860107422e-01 6.778100878000259399e-02 6.093987077474594116e-02 9.324721246957778931e-02
1.399000000000000000e+03 2.829020500183105469e+01 1.859658432006835938e+01 1.425941586494445801e-01 1.437944620847702026e-01 8.591658622026443481e-02 1.440031528472900391e-01
1.400000000000000000e+03 2.910872459411621094e+01 1.889739990234375000e+01 1.423956304788589478e-01 1.346340030431747437e-01 8.310888707637786865e-02 1.387016028165817261e-01
1.401000000000000000e+03 4.127669906616210938e+01 3.167052268981933594e+01 1.017489433288574219e-01 8.012305200099945068e-02 5.456160008907318115e-02 9.066773205995559692e-02
1.402000000000000000e+03 2.801506996154785156e+01 1.832155990600585938e+01 1.462556719779968262e-01 1.475487500429153442e-01 8.814132958650588989e-02 1.470081061124801636e-01
1.403000000000000000e+03 2.882509040832519531e+01 1.861930847167968750e+01 1.461210697889328003e-01 1.366973072290420532e-01 8.484551310539245605e-02 1.417900025844573975e-01
1.404000000000000000e+03 2.878859519958496094e+01 1.969818687438964844e+01 1.260340362787246704e-01 1.402121484279632568e-01 7.987385988235473633e-02 1.346493363380432129e-01
1.405000000000000000e+03 4.090573120117187500e+01 3.257967376708984375e+01 1.047892048954963684e-01 8.432413637638092041e-02 5.673400312662124634e-02 8.995562791824340820e-02
1.406000000000000000e+03 4.123313903808593750e+01 3.226574325561523438e+01 1.039752140641212463e-01 8.165592700242996216e-02 5.568934231996536255e-02 9.081277251243591309e-02
1.407000000000000000e+03 3.838183975219726562e+01 2.977339363098144531e+01 9.690954536199569702e-02 1.033231616020202637e-01 6.006981432437896729e-02 9.906122833490371704e-02
1.408000000000000000e+03 4.355779647827148438e+01 3.442913055419921875e+01 1.192266047000885010e-01 7.104457914829254150e-02 5.708135291934013367e-02 8.985227346420288086e-02
1.409000000000000000e+03 2.773492240905761719e+01 1.805158615112304688e+01 1.494742631912231445e-01 1.519310921430587769e-01 9.042160212993621826e-02 1.502390652894973755e-01
1.410000000000000000e+03 4.044247055053710938e+01 3.150485610961914062e+01 1.020371690392494202e-01 8.837582170963287354e-02 5.712389945983886719e-02 9.307030588388442993e-02
1.411000000000000000e+03 4.465315628051757812e+01 3.458399963378906250e+01 1.211692020297050476e-01 7.085861265659332275e-02 5.760834366083145142e-02 9.177786111831665039e-02
1.412000000000000000e+03 4.429915618896484375e+01 3.434219360351562500e+01 1.179468929767608643e-01 7.069820910692214966e-02 5.659352988004684448e-02 9.007519483566284180e-02
1.413000000000000000e+03 2.909700965881347656e+01 1.943934631347656250e+01 1.323425769805908203e-01 1.366672664880752563e-01 8.070295304059982300e-02 1.355708837509155273e-01
1.414000000000000000e+03 5.257720184326171875e+01 3.914039230346679688e+01 5.303172469139099121e-01 1.464055776596069336e-01 2.030168473720550537e-01 9.308396256528794765e-04
1.415000000000000000e+03 5.171853637695312500e+01 3.845335388183593750e+01 3.205198347568511963e-01 7.057225704193115234e-02 1.173276230692863464e-01 1.707396060228347778e-01
1.416000000000000000e+03 5.036050033569335938e+01 3.871045684814453125e+01 3.248648345470428467e-01 3.392152860760688782e-02 1.076359152793884277e-01 8.822695165872573853e-02
1.417000000000000000e+03 7.236962127685546875e+01 3.638993072509765625e+01 -2.052361965179443359e-01 6.154942512512207031e-01 1.230774223804473877e-01 -1.201171502470970154e-01
1.418000000000000000e+03 7.193840789794921875e+01 3.834644317626953125e+01 1.133649110794067383e+00 1.621040582656860352e+00 8.264068961143493652e-01 -4.857947230339050293e-01
1.419000000000000000e+03 7.411197662353515625e+01 3.616236877441406250e+01 4.145762324333190918e-01 2.734042167663574219e+00 9.445855021476745605e-01 -2.163727283477783203e+00
1.420000000000000000e+03 6.790893554687500000e+01 3.586086654663085938e+01 -1.001923441886901855e+00 -1.455018073320388794e-01 -3.442275822162628174e-01 7.448705434799194336e-01
1.421000000000000000e+03 7.068964385986328125e+01 3.213800048828125000e+01 -4.036907672882080078e+00 4.168521612882614136e-03 -1.209821701049804688e+00 -2.465830445289611816e-01
1.422000000000000000e+03 7.107640838623046875e+01 3.159124946594238281e+01 -3.036728143692016602e+00 2.365169376134872437e-01 -8.400633335113525391e-01 3.346017375588417053e-02
1.423000000000000000e+03 7.222042083740234375e+01 3.159773254394531250e+01 -2.409858226776123047e+00 6.048724055290222168e-01 -5.414957404136657715e-01 6.207637190818786621e-01
1.424000000000000000e+03 7.267038726806640625e+01 3.154408454895019531e+01 -2.008584499359130859e+00 9.713968634605407715e-01 -3.111563324928283691e-01 1.021145105361938477e+00
1.425000000000000000e+03 7.335742187500000000e+01 3.194491577148437500e+01 -2.184441566467285156e+00 1.234066724777221680e+00 -2.851124703884124756e-01 1.252405524253845215e+00
1.426000000000000000e+03 5.352024841308593750e+01 3.389489746093750000e+01 -4.988785386085510254e-01 -1.036798879504203796e-01 -1.807675212621688843e-01 -3.332197964191436768e-01
1.427000000000000000e+03 5.490485763549804688e+01 3.352651596069335938e+01 -9.843392968177795410e-01 7.211654633283615112e-02 -2.736668288707733154e-01 -4.289716184139251709e-01
1.428000000000000000e+03 5.294849014282226562e+01 3.303585433959960938e+01 -7.131921648979187012e-01 -2.752670645713806152e-01 -2.965377569198608398e-01 -5.547536015510559082e-01
1.429000000000000000e+03 5.331207275390625000e+01 3.262722015380859375e+01 -9.104462862014770508e-01 -1.631616055965423584e-01 -3.220823705196380615e-01 -6.166166663169860840e-01
1.430000000000000000e+03 5.784921646118164062e+01 3.677063751220703125e+01 5.967901647090911865e-02 -4.974155128002166748e-02 2.981239231303334236e-03 5.209686607122421265e-02
1.431000000000000000e+03 5.550650024414062500e+01 3.711609268188476562e+01 8.000899851322174072e-02 -1.117181498557329178e-02 2.065115608274936676e-02 -2.670137397944927216e-02
1.432000000000000000e+03 5.919805145263671875e+01 3.641436767578125000e+01 1.210820861160755157e-02 -6.334909051656723022e-02 -1.537226513028144836e-02 9.229175001382827759e-02
1.433000000000000000e+03 9.228287696838378906e+00 2.437220573425292969e+00 -6.428509205579757690e-02 -3.277916312217712402e-01 -1.176230162382125854e-01 4.201060235500335693e-01
1.434000000000000000e+03 7.035322189331054688e+00 2.519139528274536133e+00 -1.661373525857925415e-01 -1.392785310745239258e-01 -9.162476658821105957e-02 2.912844419479370117e-01
1.435000000000000000e+03 6.327320098876953125e+00 2.554859876632690430e+00 -1.484253406524658203e-01 -1.054316759109497070e-01 -7.615710794925689697e-02 2.466997653245925903e-01
1.436000000000000000e+03 6.205930233001708984e+00 1.851617217063903809e+00 -2.299757897853851318e-01 -6.593500822782516479e-02 -8.877324312925338745e-02 2.095741778612136841e-01
1.437000000000000000e+03 3.712985515594482422e+00 3.722430467605590820e+00 -2.934797666966915131e-02 -1.038614958524703979e-01 -3.996284306049346924e-02 1.467717438936233521e-01
1.438000000000000000e+03 5.073932170867919922e+00 3.393103837966918945e+00 -5.276459828019142151e-02 -1.119827479124069214e-01 -4.942420497536659241e-02 1.974269449710845947e-01
1.439000000000000000e+03 1.653286457061767578e+00 7.938035011291503906e+00 1.452022138983011246e-02 -2.356273531913757324e-01 -6.633213907480239868e-02 4.939702153205871582e-02
1.440000000000000000e+03 2.584624767303466797e+00 2.042979717254638672e+00 -5.018188804388046265e-02 -3.943373635411262512e-02 -2.688468806445598602e-02 7.235246896743774414e-02
1.441000000000000000e+03 2.005370378494262695e+00 3.317598819732666016e+00 -1.998312398791313171e-02 -8.296597748994827271e-02 -3.088472969830036163e-02 7.957267016172409058e-02
1.442000000000000000e+03 8.463479042053222656e+00 2.454277753829956055e+00 -1.448465883731842041e-01 -2.509852051734924316e-01 -1.187495440244674683e-01 3.926991522312164307e-01
1.443000000000000000e+03 6.744514465332031250e+01 3.724775695800781250e+01 -1.322997659444808960e-01 -2.737677097320556641e-01 -1.218202412128448486e-01 7.754514813423156738e-01
1.444000000000000000e+03 6.612971496582031250e+01 3.683774185180664062e+01 -2.704894840717315674e-01 -2.216785699129104614e-01 -1.476504206657409668e-01 6.847681999206542969e-01
1.445000000000000000e+03 6.196810913085937500e+01 3.768054199218750000e+01 4.178821295499801636e-02 -2.063202410936355591e-01 -4.935960844159126282e-02 2.967162430286407471e-01
1.446000000000000000e+03 1.030197620391845703e+01 -3.635689020156860352e+00 -4.047442972660064697e-01 -3.981024399399757385e-02 -1.333663612604141235e-01 -2.549053132534027100e-01
1.447000000000000000e+03 1.175582695007324219e+01 -2.994805812835693359e+00 -5.296434760093688965e-01 -6.852319836616516113e-02 -1.794500052928924561e-01 -2.597593963146209717e-01
1.448000000000000000e+03 9.507191658020019531e+00 -2.781167268753051758e+00 -3.058974444866180420e-01 -1.131022628396749496e-02 -9.516229480504989624e-02 -1.548409163951873779e-01
1.449000000000000000e+03 5.953512191772460938e+01 3.686006164550781250e+01 1.545880548655986786e-02 -9.139568358659744263e-02 -2.278106473386287689e-02 1.260247677564620972e-01
1.450000000000000000e+03 6.902603149414062500e+01 3.710355758666992188e+01 -3.472883626818656921e-02 1.227713897824287415e-01 2.641276642680168152e-02 9.479783177375793457e-01
1.451000000000000000e+03 1.367652130126953125e+01 1.109115481376647949e+00 2.227953672409057617e+00 1.393354892730712891e+00 1.086392521858215332e+00 -4.479083120822906494e-01
1.452000000000000000e+03 6.776816558837890625e+01 3.215117645263671875e+01 -4.122728824615478516e+00 -6.380253285169601440e-02 -1.255959391593933105e+00 -4.194293320178985596e-01
1.453000000000000000e+03 6.889552307128906250e+01 3.097367858886718750e+01 -2.711563825607299805e+00 6.901570409536361694e-02 -7.927644252777099609e-01 -3.187969028949737549e-01
1.454000000000000000e+03 6.907884979248046875e+01 3.156858253479003906e+01 -3.422944307327270508e+00 -5.406287964433431625e-03 -1.028505206108093262e+00 -3.704307675361633301e-01
1.455000000000000000e+03 6.700769042968750000e+01 3.216835784912109375e+01 -4.021982669830322266e+00 -6.299900263547897339e-02 -1.225494503974914551e+00 -4.246621131896972656e-01
1.456000000000000000e+03 7.167333221435546875e+01 3.160680961608886719e+01 -2.759260177612304688e+00 3.770138919353485107e-01 -7.146738767623901367e-01 2.605833709239959717e-01
1.457000000000000000e+03 6.978648376464843750e+01 3.157121658325195312e+01 -3.327991962432861328e+00 4.791343957185745239e-02 -9.840235710144042969e-01 -2.698934078216552734e-01
1.458000000000000000e+03 6.076309967041015625e+01 3.197691154479980469e+01 -2.410439491271972656e+00 8.154194056987762451e-02 -6.986692547798156738e-01 -5.555144548416137695e-01
1.459000000000000000e+03 5.713842391967773438e+01 3.313165664672851562e+01 -1.584201574325561523e+00 1.268578320741653442e-01 -4.372031092643737793e-01 -4.236013591289520264e-01
1.460000000000000000e+03 6.000849533081054688e+01 3.207315826416015625e+01 -2.256547451019287109e+00 1.024405732750892639e-01 -6.462320685386657715e-01 -5.610017180442810059e-01
1.461000000000000000e+03 1.208926582336425781e+01 1.432168483734130859e+00 1.662209928035736084e-01 -4.399735331535339355e-01 -8.212576061487197876e-02 6.898231506347656250e-01
1.462000000000000000e+03 1.341566753387451172e+01 4.966719627380371094e+00 1.692276000976562500e-01 1.024016737937927246e+00 3.579733073711395264e-01 6.433040648698806763e-02
1.463000000000000000e+03 1.254331302642822266e+01 2.458588123321533203e+00 1.261047840118408203e+00 3.326526582241058350e-01 4.781101644039154053e-01 -4.341647922992706299e-01
1.464000000000000000e+03 1.370574092864990234e+01 4.631749153137207031e+00 1.923888921737670898e-01 1.210190057754516602e+00 4.207736849784851074e-01 1.813640445470809937e-01
1.465000000000000000e+03 1.224995326995849609e+01 1.958988666534423828e+00 8.540434837341308594e-01 -2.908090651035308838e-01 1.689703315496444702e-01 2.344215810298919678e-01
1.466000000000000000e+03 6.288169860839843750e+01 3.113090705871582031e+01 -2.511027336120605469e+00 4.344326257705688477e-02 -7.402752041816711426e-01 -6.659319996833801270e-01
1.467000000000000000e+03 6.303834915161132812e+01 3.176173973083496094e+01 -2.858370065689086914e+00 2.213961631059646606e-02 -8.508691191673278809e-01 -5.452340841293334961e-01
1.468000000000000000e+03 6.152095794677734375e+01 3.189473533630371094e+01 -2.567323684692382812e+00 5.988086014986038208e-02 -7.522328495979309082e-01 -5.527089238166809082e-01
1.469000000000000000e+03 6.227913665771484375e+01 3.182452392578125000e+01 -2.714922189712524414e+00 4.298168793320655823e-02 -8.015820980072021484e-01 -5.466385483741760254e-01
1.470000000000000000e+03 6.380046463012695312e+01 3.170485877990722656e+01 -2.990523099899291992e+00 7.163194008171558380e-03 -8.950079679489135742e-01 -5.398137569427490234e-01
1.471000000000000000e+03 6.685220336914062500e+01 3.156238365173339844e+01 -3.375343322753906250e+00 -4.860313981771469116e-02 -1.027183890342712402e+00 -5.057176947593688965e-01
1.472000000000000000e+03 6.532686614990234375e+01 3.161528396606445312e+01 -3.217488288879394531e+00 -2.391523681581020355e-02 -9.724210500717163086e-01 -5.347152948379516602e-01
1.473000000000000000e+03 6.608950805664062500e+01 3.158362388610839844e+01 -3.310592412948608398e+00 -4.026096314191818237e-02 -1.005256056785583496e+00 -5.249852538108825684e-01
1.474000000000000000e+03 3.031973075866699219e+01 7.829160690307617188e+00 -1.007860183715820312e+00 -1.341778278350830078e+00 -7.048915624618530273e-01 -1.111166715621948242e+00
1.475000000000000000e+03 3.142252159118652344e+01 7.788193225860595703e+00 -1.174768447875976562e+00 -1.179053902626037598e+00 -7.061467170715332031e-01 -1.088143110275268555e+00
1.476000000000000000e+03 3.047908401489257812e+01 6.834156513214111328e+00 -1.357856631278991699e+00 -1.142554640769958496e+00 -7.501233816146850586e-01 -1.286231279373168945e+00
1.477000000000000000e+03 2.991827201843261719e+01 6.018311500549316406e+00 -1.831043004989624023e+00 -1.030663013458251953e+00 -8.585118055343627930e-01 -1.194228768348693848e+00
1.478000000000000000e+03 3.084825897216796875e+01 7.948133468627929688e+00 -1.128683209419250488e+00 -1.235424399375915527e+00 -7.092322707176208496e-01 -1.057196974754333496e+00
1.479000000000000000e+03 3.116576957702636719e+01 6.741858482360839844e+00 -1.322106361389160156e+00 -1.028370976448059082e+00 -7.051432132720947266e-01 -1.084486126899719238e+00
1.480000000000000000e+03 5.637877655029296875e+01 3.325625228881835938e+01 -1.373240947723388672e+00 1.317286938428878784e-01 -3.724536597728729248e-01 -4.406958520412445068e-01
1.481000000000000000e+03 5.777056121826171875e+01 3.244108581542968750e+01 -1.769056916236877441e+00 1.519648283720016479e-01 -4.851276278495788574e-01 -5.607254505157470703e-01
1.482000000000000000e+03 5.762464141845703125e+01 3.185558319091796875e+01 -1.729677677154541016e+00 1.742914468050003052e-01 -4.666158854961395264e-01 -6.877224445343017578e-01
1.483000000000000000e+03 5.629718399047851562e+01 3.272797775268554688e+01 -1.434963107109069824e+00 1.559638679027557373e-01 -3.836997747421264648e-01 -5.580120682716369629e-01
1.484000000000000000e+03 5.489667892456054688e+01 3.299410247802734375e+01 -1.098416686058044434e+00 9.212630242109298706e-02 -3.018871247768402100e-01 -5.329425334930419922e-01
1.485000000000000000e+03 5.557831192016601562e+01 3.286658859252929688e+01 -1.266219496726989746e+00 1.264164000749588013e-01 -3.419409394264221191e-01 -5.475247502326965332e-01
1.486000000000000000e+03 8.732051849365234375e+00 -2.753144979476928711e+00 -2.410995811223983765e-01 -3.060097247362136841e-02 -8.151016384363174438e-02 -1.293196976184844971e-01
1.487000000000000000e+03 7.942851066589355469e+00 -2.748600482940673828e+00 -1.982334107160568237e-01 -1.803831942379474640e-02 -6.488151848316192627e-02 -1.127198860049247742e-01
1.488000000000000000e+03 6.225394725799560547e+00 -1.927568316459655762e+00 -8.169072121381759644e-02 -1.776304468512535095e-02 -2.983612939715385437e-02 -4.555330425500869751e-02
1.489000000000000000e+03 9.555283546447753906e+00 -3.593637943267822266e+00 -3.313739299774169922e-01 -6.306526064872741699e-02 -1.183317601680755615e-01 -2.175896465778350830e-01
1.490000000000000000e+03 4.591951847076416016e+00 -1.954590439796447754e+00 -4.069250822067260742e-02 -1.669908687472343445e-02 -1.721747964620590210e-02 -2.321919426321983337e-02
1.491000000000000000e+03 6.342717647552490234e+00 -2.786231756210327148e+00 -1.232445985078811646e-01 -2.490509115159511566e-02 -4.444490745663642883e-02 -7.951976358890533447e-02
1.492000000000000000e+03 4.264992237091064453e+00 -4.768820762634277344e+00 -7.752813398838043213e-02 -8.106554299592971802e-02 -4.757810384035110474e-02 -9.586193412542343140e-02
1.493000000000000000e+03 7.145364284515380859e+00 -2.761337280273437500e+00 -1.532539427280426025e-01 -3.289649263024330139e-02 -5.584513023495674133e-02 -9.452822059392929077e-02
1.494000000000000000e+03 1.616467833518981934e+00 -9.319410324096679688e+00 -1.021001301705837250e-02 -2.078662365674972534e-01 -6.542287766933441162e-02 -9.258504211902618408e-02
1.495000000000000000e+03 5.172333121299743652e-01 -6.516159057617187500e+00 -1.847523264586925507e-03 -3.367366269230842590e-02 -1.065635588020086288e-02 -1.743176579475402832e-02
1.496000000000000000e+03 2.602752923965454102e+00 -4.030720710754394531e+00 -3.185741603374481201e-02 -3.700057044625282288e-02 -2.065739594399929047e-02 -3.067931532859802246e-02
1.497000000000000000e+03 5.246339440345764160e-01 -3.630574941635131836e+00 -3.064252203330397606e-03 1.633285358548164368e-02 3.980580717325210571e-03 -2.295596525073051453e-03
1.498000000000000000e+03 1.501251983642578125e+01 -2.478183031082153320e+00 -1.058566570281982422e+00 -2.340479791164398193e-01 -3.877843618392944336e-01 -4.924798607826232910e-01
1.499000000000000000e+03 1.505485153198242188e+01 -3.191507339477539062e+00 -1.085153102874755859e+00 -4.009857177734375000e-01 -4.458416402339935303e-01 -6.502557992935180664e-01
1.500000000000000000e+03 1.424794673919677734e+01 -3.974372148513793945e+00 -8.525651693344116211e-01 -3.658838570117950439e-01 -3.655346930027008057e-01 -6.335521340370178223e-01
1.501000000000000000e+03 1.252238655090332031e+01 -3.074365615844726562e+00 -6.350073814392089844e-01 -4.968597739934921265e-02 -2.054080069065093994e-01 -3.199112117290496826e-01
1.502000000000000000e+03 1.333272647857666016e+01 -3.137290477752685547e+00 -7.753632664680480957e-01 -1.478036493062973022e-01 -2.769500911235809326e-01 -4.044706523418426514e-01
1.503000000000000000e+03 5.478694152832031250e+01 3.782490158081054688e+01 1.308485418558120728e-01 2.088770270347595215e-02 4.552087560296058655e-02 -7.364582270383834839e-02
1.504000000000000000e+03 5.428126907348632812e+01 3.830998992919921875e+01 2.343701869249343872e-01 2.021521702408790588e-02 7.637562602758407593e-02 -1.019605249166488647e-01
1.505000000000000000e+03 2.227991104125976562e+01 -1.491052389144897461e+00 3.710653305053710938e+00 1.861178755760192871e+00 1.671549677848815918e+00 -1.792132258415222168e+00
1.506000000000000000e+03 1.779191017150878906e+01 -1.891972899436950684e+00 -1.868785381317138672e+00 -1.218888521194458008e+00 -9.263021945953369141e-01 -1.215815782546997070e+00
1.507000000000000000e+03 4.370235824584960938e+01 -3.861135101318359375e+01 1.552481055259704590e+00 7.356084585189819336e-01 6.864268779754638672e-01 8.064579367637634277e-01
1.508000000000000000e+03 4.174376296997070312e+01 -3.978962326049804688e+01 2.225930452346801758e+00 4.765030145645141602e-01 8.107300400733947754e-01 1.081192493438720703e-01
1.509000000000000000e+03 4.215661621093750000e+01 -4.163510131835937500e+01 1.678009390830993652e+00 7.018321156501770020e-01 7.139524221420288086e-01 -1.480539143085479736e-02
1.510000000000000000e+03 4.259840393066406250e+01 -3.071203231811523438e+01 -2.590548992156982422e-01 -6.598927378654479980e-01 -2.756842970848083496e-01 4.317670166492462158e-01
1.511000000000000000e+03 3.972535324096679688e+01 -3.959300994873046875e+01 2.034356117248535156e+00 4.581038951873779297e-01 7.477380037307739258e-01 -4.383800923824310303e-01
1.512000000000000000e+03 4.726044082641601562e+01 -3.382797622680664062e+01 -8.724241703748703003e-02 5.015063285827636719e-01 1.242791712284088135e-01 3.776212036609649658e-01
1.513000000000000000e+03 3.059592056274414062e+01 -1.072680091857910156e+01 9.211765229701995850e-02 3.058938682079315186e-02 3.681211173534393311e-02 -1.272508949041366577e-01
1.514000000000000000e+03 3.016766548156738281e+01 -6.169489860534667969e+00 8.359643816947937012e-01 -1.000040546059608459e-01 2.207880914211273193e-01 -3.579912483692169189e-01
1.515000000000000000e+03 1.917212677001953125e+01 -5.439002513885498047e+00 1.318806856870651245e-01 -1.874876260757446289e+00 -5.228986740112304688e-01 1.605088710784912109e-01
1.516000000000000000e+03 3.832552337646484375e+01 -2.374323272705078125e+01 -2.218284308910369873e-01 -6.853516697883605957e-01 -2.721540331840515137e-01 4.182229042053222656e-01
1.517000000000000000e+03 3.699600601196289062e+01 -2.134852409362792969e+01 -1.888627409934997559e-01 -7.024983763694763184e-01 -2.674083411693572998e-01 3.811361491680145264e-01
1.518000000000000000e+03 2.827642440795898438e+01 -3.080300903320312500e+01 3.199761807918548584e-01 4.964834451675415039e-01 2.449378818273544312e-01 -3.566612601280212402e-01
1.519000000000000000e+03 1.895527267456054688e+01 -1.019092655181884766e+01 1.625231802463531494e-01 -5.744107365608215332e-01 -1.235662624239921570e-01 -1.555134803056716919e-01
1.520000000000000000e+03 2.157687568664550781e+01 -1.204215049743652344e+01 6.636453419923782349e-02 3.689743205904960632e-02 3.097858838737010956e-02 -1.284818947315216064e-01
1.521000000000000000e+03 2.849024772644042969e+01 -3.399353504180908203e+00 8.274691700935363770e-01 -1.005709692835807800e-01 2.180694490671157837e-01 -3.214132189750671387e-01
1.522000000000000000e+03 2.437462043762207031e+01 -1.469879746437072754e+00 1.221234798431396484e+00 4.845079183578491211e-01 5.117228031158447266e-01 -9.052882194519042969e-01
1.523000000000000000e+03 3.209896087646484375e+01 -3.413322830200195312e+01 4.695484340190887451e-01 6.205517649650573730e-01 3.270300626754760742e-01 -4.480490088462829590e-01
1.524000000000000000e+03 1.846975898742675781e+01 -8.648910522460937500e+00 4.686421528458595276e-02 -9.394342899322509766e-01 -2.677710056304931641e-01 -2.754068076610565186e-01
1.525000000000000000e+03 3.547327804565429688e+01 -3.814027404785156250e+01 8.368952870368957520e-01 4.621375799179077148e-01 3.897098600864410400e-01 -5.301532745361328125e-01
1.526000000000000000e+03 3.204296112060546875e+01 -1.304692745208740234e+01 -1.093127578496932983e-02 -2.202306538820266724e-01 -6.934858113527297974e-02 5.508042126893997192e-02
1.527000000000000000e+03 3.118059349060058594e+01 -3.194848251342773438e+01 4.110676944255828857e-01 6.844555139541625977e-01 3.286569714546203613e-01 -4.338596761226654053e-01
1.528000000000000000e+03 2.658880424499511719e+01 -5.193578243255615234e+00 1.155240416526794434e+00 8.987759351730346680e-01 6.162049174308776855e-01 -8.995118141174316406e-01
1.529000000000000000e+03 2.462705612182617188e+01 -1.978040885925292969e+01 1.665916889905929565e-01 3.526419401168823242e-01 1.557700932025909424e-01 -2.523803114891052246e-01
1.530000000000000000e+03 2.445048141479492188e+01 -1.673614501953125000e+01 1.265507191419601440e-01 3.306575119495391846e-01 1.371624767780303955e-01 -2.432755231857299805e-01
1.531000000000000000e+03 2.937450027465820312e+01 -2.654551124572753906e+01 1.798153668642044067e-01 6.700050830841064453e-01 2.549461424350738525e-01 -3.619677722454071045e-01
1.532000000000000000e+03 2.950264167785644531e+01 -2.984642791748046875e+01 3.166314065456390381e-01 6.383040547370910645e-01 2.864806354045867920e-01 -4.004687666893005371e-01
1.533000000000000000e+03 2.195896530151367188e+01 -1.515512943267822266e+01 1.782546341419219971e-01 1.182747855782508850e-01 8.895882219076156616e-02 -1.723527759313583374e-01
1.534000000000000000e+03 2.637858963012695312e+01 -3.307206869125366211e+00 1.318078279495239258e+00 4.226069152355194092e-01 5.222055315971374512e-01 -7.317405939102172852e-01
1.535000000000000000e+03 2.123563194274902344e+01 -1.397943401336669922e+01 1.513860821723937988e-01 -1.776678301393985748e-02 4.008579254150390625e-02 -1.849396973848342896e-01
1.536000000000000000e+03 2.575927162170410156e+01 -1.912040710449218750e+01 1.294225603342056274e-01 4.409475326538085938e-01 1.711110323667526245e-01 -2.667863070964813232e-01
1.537000000000000000e+03 3.936500167846679688e+01 -2.305032348632812500e+01 -1.588508486747741699e-01 -5.852133631706237793e-01 -2.232192754745483398e-01 3.174718618392944336e-01
1.538000000000000000e+03 3.971028900146484375e+01 -2.609673118591308594e+01 -2.422925531864166260e-01 -7.065508365631103516e-01 -2.846530079841613770e-01 4.402368068695068359e-01
1.539000000000000000e+03 2.875372314453125000e+01 -2.530411720275878906e+01 1.918821632862091064e-01 6.497212648391723633e-01 2.524810135364532471e-01 -3.403443694114685059e-01
1.540000000000000000e+03 2.814043998718261719e+01 -2.725405693054199219e+01 2.236401885747909546e-01 5.779988765716552734e-01 2.404917180538177490e-01 -3.494051694869995117e-01
1.541000000000000000e+03 4.279420471191406250e+01 -2.876753807067871094e+01 -2.096646428108215332e-01 -4.461385309696197510e-01 -1.967409551143646240e-01 3.312553167343139648e-01
1.542000000000000000e+03 4.352533721923828125e+01 -2.985479354858398438e+01 -2.395258545875549316e-01 -3.883201479911804199e-01 -1.883537918329238892e-01 3.014239668846130371e-01
1.543000000000000000e+03 2.773788261413574219e+01 -4.649147510528564453e+00 1.007480382919311523e+00 2.774621546268463135e-01 3.854827582836151123e-01 -6.402937769889831543e-01
1.544000000000000000e+03 4.422217178344726562e+01 -3.091720390319824219e+01 -2.103839814662933350e-01 -2.657998204231262207e-01 -1.428551375865936279e-01 2.960591316223144531e-01
1.545000000000000000e+03 4.483694839477539062e+01 -3.193024826049804688e+01 -2.421575039625167847e-01 -1.279983818531036377e-01 -1.110467687249183655e-01 2.879524827003479004e-01
1.546000000000000000e+03 4.113780975341796875e+01 -2.842055702209472656e+01 -2.640406787395477295e-01 -6.674596071243286133e-01 -2.794500887393951416e-01 4.500781297683715820e-01
1.547000000000000000e+03 1.974004173278808594e+01 -1.153847312927246094e+01 1.363676786422729492e-01 -3.562422096729278564e-01 -6.596235930919647217e-02 -1.660690754652023315e-01
1.548000000000000000e+03 2.049856758117675781e+01 -1.278075885772705078e+01 1.748110949993133545e-01 -1.195857375860214233e-01 1.656760647892951965e-02 -1.290067285299301147e-01
1.549000000000000000e+03 3.531132507324218750e+01 -1.579411220550537109e+01 -4.518539644777774811e-03 -4.743464589118957520e-01 -1.436595022678375244e-01 1.440881639719009399e-01
1.550000000000000000e+03 2.594641494750976562e+01 -2.524790287017822266e+00 1.202976822853088379e+00 5.893705487251281738e-01 5.377042293548583984e-01 -5.958916544914245605e-01
1.551000000000000000e+03 2.226840782165527344e+01 -1.818346405029296875e+01 1.629486083984375000e-01 1.247795969247817993e-01 8.631846308708190918e-02 -2.432206124067306519e-01
1.552000000000000000e+03 2.335436820983886719e+01 -1.745494079589843750e+01 1.660557389259338379e-01 2.585001289844512939e-01 1.273667514324188232e-01 -2.212731838226318359e-01
1.553000000000000000e+03 3.672767639160156250e+01 -1.820272636413574219e+01 -7.184807956218719482e-02 -5.471872687339782715e-01 -1.857106089591979980e-01 2.196202129125595093e-01
1.554000000000000000e+03 3.456924438476562500e+01 -1.461848068237304688e+01 6.654992699623107910e-02 -4.207379519939422607e-01 -1.062564030289649963e-01 1.068074107170104980e-01
1.555000000000000000e+03 2.521615028381347656e+01 -2.098991203308105469e+01 1.527082771062850952e-01 3.855482041835784912e-01 1.614769548177719116e-01 -2.827273905277252197e-01
1.556000000000000000e+03 3.537580108642578125e+01 -3.580163192749023438e+01 5.419012308120727539e-01 5.485652089118957520e-01 3.271399140357971191e-01 -5.525750517845153809e-01
1.557000000000000000e+03 3.380327987670898438e+01 -1.346148490905761719e+01 8.635079115629196167e-02 -3.677854835987091064e-01 -8.443041145801544189e-02 3.879495710134506226e-02
1.558000000000000000e+03 1.832246589660644531e+01 -7.084877967834472656e+00 5.294621735811233521e-02 -1.240581154823303223e+00 -3.562904894351959229e-01 -2.130894660949707031e-01
1.559000000000000000e+03 3.782422637939453125e+01 -1.747823524475097656e+01 4.089042544364929199e-02 -4.582024812698364258e-01 -1.251936107873916626e-01 1.552679091691970825e-01
1.560000000000000000e+03 2.991272735595703125e+01 -9.544180870056152344e+00 2.546178400516510010e-01 2.448653727769851685e-01 1.498449593782424927e-01 -2.285412997007369995e-01
1.561000000000000000e+03 3.079085540771484375e+01 -8.935002326965332031e+00 4.141614735126495361e-01 -9.206911548972129822e-03 1.214863732457160950e-01 -3.103331923484802246e-01
1.562000000000000000e+03 2.691279411315917969e+01 -2.472860527038574219e+01 1.970381885766983032e-01 5.104314684867858887e-01 2.122408896684646606e-01 -3.083146214485168457e-01
1.563000000000000000e+03 2.879977226257324219e+01 -2.854950332641601562e+01 2.413592934608459473e-01 6.003919243812561035e-01 2.525253593921661377e-01 -3.830736279487609863e-01
1.564000000000000000e+03 7.707529449462890625e+01 -3.634322738647460938e+01 3.762751584872603416e-03 4.449762821197509766e+00 1.336057662963867188e+00 3.093179315328598022e-02
1.565000000000000000e+03 7.909342193603515625e+01 -3.487958145141601562e+01 -3.530942602083086967e-03 4.680486202239990234e+00 1.403086543083190918e+00 1.549759507179260254e-02
1.566000000000000000e+03 7.788420104980468750e+01 -2.937174606323242188e+01 7.279783312696963549e-05 4.611094474792480469e+00 1.383350133895874023e+00 3.192840144038200378e-02
1.567000000000000000e+03 7.930545043945312500e+01 -2.792246437072753906e+01 -6.599581683985888958e-04 4.805159091949462891e+00 1.441349744796752930e+00 1.022691000252962112e-02
1.568000000000000000e+03 7.932144165039062500e+01 -2.096757888793945312e+01 2.811468439176678658e-04 4.957261562347412109e+00 1.487262845039367676e+00 1.334871165454387665e-02
1.569000000000000000e+03 7.793280029296875000e+01 -2.527981567382812500e+01 1.399901811964809895e-03 4.689202308654785156e+00 1.407180666923522949e+00 3.899762406945228577e-02
1.570000000000000000e+03 7.791793060302734375e+01 -2.666604804992675781e+01 1.592683373019099236e-03 4.662017345428466797e+00 1.399083018302917480e+00 3.817603737115859985e-02
1.571000000000000000e+03 7.768595886230468750e+01 -3.210235214233398438e+01 3.053306834772229195e-03 4.541827201843261719e+00 1.363464117050170898e+00 3.075619786977767944e-02
1.572000000000000000e+03 7.927002716064453125e+01 -3.068622970581054688e+01 1.728518400341272354e-03 4.753365516662597656e+00 1.426528215408325195e+00 1.046425290405750275e-02
1.573000000000000000e+03 7.749786376953125000e+01 -3.350657653808593750e+01 -1.469463924877345562e-03 4.505856037139892578e+00 1.351315975189208984e+00 2.812412194907665253e-02
1.574000000000000000e+03 7.506812286376953125e+01 -3.642197418212890625e+01 6.880094762891530991e-03 4.184273242950439453e+00 1.257346034049987793e+00 3.590282797813415527e-02
1.575000000000000000e+03 7.612944793701171875e+01 -4.076942825317382812e+01 1.892699673771858215e-02 4.393924236297607422e+00 1.323855280876159668e+00 -3.252915665507316589e-02
1.576000000000000000e+03 7.935951995849609375e+01 3.761420822143554688e+01 -2.975173592567443848e-01 1.439772224426269531e+01 4.230061531066894531e+00 4.971055984497070312e-01
1.577000000000000000e+03 7.832666778564453125e+01 1.522804737091064453e+01 3.519780188798904419e-02 7.835730552673339844e+00 2.361278533935546875e+00 4.136041402816772461e-01
1.578000000000000000e+03 7.944338226318359375e+01 1.529270458221435547e+01 5.124398507177829742e-03 8.272719383239746094e+00 2.483353137969970703e+00 1.296685338020324707e-01
1.579000000000000000e+03 7.834202575683593750e+01 2.065716743469238281e+01 5.986713618040084839e-02 9.507715225219726562e+00 2.870274782180786133e+00 7.044920921325683594e-01
1.580000000000000000e+03 7.944044494628906250e+01 2.219928741455078125e+01 1.725910604000091553e-02 1.103468418121337891e+01 3.315582990646362305e+00 2.615590095520019531e-01
1.581000000000000000e+03 7.934907531738281250e+01 2.791724967956542969e+01 -1.017960160970687866e-01 1.466963863372802734e+01 4.370352745056152344e+00 3.706927299499511719e-01
1.582000000000000000e+03 7.819345092773437500e+01 2.467565727233886719e+01 8.812575787305831909e-02 1.124139308929443359e+01 3.398855447769165039e+00 1.094588875770568848e+00
1.583000000000000000e+03 7.614077758789062500e+01 2.032743072509765625e+01 2.672626972198486328e-01 7.750225067138671875e+00 2.405246257781982422e+00 1.311273097991943359e+00
1.584000000000000000e+03 7.834119415283203125e+01 1.659239768981933594e+01 3.863674774765968323e-02 8.185056686401367188e+00 2.467108011245727539e+00 4.674312770366668701e-01
1.585000000000000000e+03 7.831101226806640625e+01 1.386275672912597656e+01 2.853104844689369202e-02 7.524871349334716797e+00 2.266020774841308594e+00 3.673733174800872803e-01
1.586000000000000000e+03 7.715158843994140625e+01 1.248581504821777344e+01 6.550741940736770630e-02 6.858950138092041016e+00 2.077337265014648438e+00 5.250403285026550293e-01
1.587000000000000000e+03 7.823572540283203125e+01 9.749094963073730469e+00 2.034128271043300629e-02 6.770380020141601562e+00 2.037216424942016602e+00 2.691919803619384766e-01
1.588000000000000000e+03 7.941224670410156250e+01 9.748533248901367188e+00 2.716710092499852180e-03 7.070767402648925781e+00 2.122045278549194336e+00 8.308967947959899902e-02
1.589000000000000000e+03 7.958999633789062500e+01 3.194831657409667969e+01 -9.948522597551345825e-02 1.197459030151367188e+01 3.562531709671020508e+00 -1.281299829483032227e+00
1.590000000000000000e+03 7.793794250488281250e+01 1.512825489044189453e-03 1.116868574172258377e-02 5.671214580535888672e+00 1.704715013504028320e+00 1.549573987722396851e-01
1.591000000000000000e+03 7.932151031494140625e+01 1.393173694610595703e+00 1.874381210654973984e-03 6.028590202331542969e+00 1.809139370918273926e+00 5.153883248567581177e-02
1.592000000000000000e+03 7.819792938232421875e+01 8.370645523071289062e+00 1.716525293886661530e-02 6.565288543701171875e+00 1.974736094474792480e+00 2.460012137889862061e-01
1.593000000000000000e+03 7.799590301513671875e+01 -1.549522590637207031e+01 2.828311407938599586e-03 4.932194232940673828e+00 1.480506777763366699e+00 5.600392073392868042e-02
1.594000000000000000e+03 7.932946777343750000e+01 -1.398852920532226562e+01 6.330963224172592163e-04 5.157430648803710938e+00 1.547419071197509766e+00 1.704056374728679657e-02
1.595000000000000000e+03 7.792994689941406250e+01 -8.485890388488769531e+00 6.867005955427885056e-03 5.177228450775146484e+00 1.555228710174560547e+00 8.825118094682693481e-02
1.596000000000000000e+03 7.930458068847656250e+01 -7.003466606140136719e+00 2.189777558669447899e-03 5.447894573211669922e+00 1.635025262832641602e+00 2.844935469329357147e-02
1.597000000000000000e+03 7.932458496093750000e+01 -1.957292747497558594e+01 7.540307706221938133e-05 4.993208885192871094e+00 1.497985243797302246e+00 1.371270045638084412e-02
1.598000000000000000e+03 7.795623779296875000e+01 -2.249027252197265625e+01 1.893694861792027950e-03 4.750514507293701172e+00 1.425722360610961914e+00 4.384350404143333435e-02
1.599000000000000000e+03 7.529750061035156250e+01 3.560155868530273438e+01 9.768132567405700684e-01 6.311829566955566406e+00 2.186592817306518555e+00 -5.038752555847167969e+00
1.600000000000000000e+03 7.920142364501953125e+01 3.894012832641601562e+01 -2.434746772050857544e-01 1.475822734832763672e+01 4.354425907135009766e+00 -4.090024530887603760e-02
1.601000000000000000e+03 7.795989990234375000e+01 1.404025316238403320e+00 1.290066540241241455e-02 5.784697055816650391e+00 1.739279270172119141e+00 1.672949045896530151e-01
1.602000000000000000e+03 7.799651336669921875e+01 2.804471254348754883e+00 1.284010987728834152e-02 5.910057067871093750e+00 1.776869177818298340e+00 1.820121258497238159e-01
1.603000000000000000e+03 7.655445861816406250e+01 2.333821356296539307e-02 3.114133141934871674e-02 5.415459632873535156e+00 1.633980274200439453e+00 2.515428364276885986e-01
1.604000000000000000e+03 7.791454315185546875e+01 -4.256494045257568359e+00 8.958193473517894745e-03 5.386363029479980469e+00 1.618596315383911133e+00 1.193251907825469971e-01
1.605000000000000000e+03 7.930481719970703125e+01 -2.803683757781982422e+00 2.902943640947341919e-03 5.698686599731445312e+00 1.710476875305175781e+00 3.917490318417549133e-02
1.606000000000000000e+03 7.791090393066406250e+01 -5.670753955841064453e+00 8.526112884283065796e-03 5.309070587158203125e+00 1.595278978347778320e+00 1.068706661462783813e-01
1.607000000000000000e+03 7.796997833251953125e+01 -1.129705715179443359e+01 4.690515343099832535e-03 5.068266868591308594e+00 1.521887183189392090e+00 7.340195029973983765e-02
1.608000000000000000e+03 7.931546020507812500e+01 -9.799396514892578125e+00 1.904925797134637833e-03 5.316746711730957031e+00 1.595595479011535645e+00 2.303295023739337921e-02
1.609000000000000000e+03 7.798470306396484375e+01 -1.269662380218505859e+01 4.522399511188268661e-03 5.019505977630615234e+00 1.507208585739135742e+00 6.610304117202758789e-02
1.610000000000000000e+03 7.798580169677734375e+01 -1.829788780212402344e+01 1.450606388971209526e-03 4.853793621063232422e+00 1.456573247909545898e+00 4.983190074563026428e-02
1.611000000000000000e+03 7.932971191406250000e+01 -1.678114128112792969e+01 2.088012988679111004e-04 5.070496082305908203e+00 1.521211385726928711e+00 1.482141762971878052e-02
1.612000000000000000e+03 7.797573089599609375e+01 -1.969724082946777344e+01 1.624104101210832596e-03 4.817425251007080078e+00 1.445714831352233887e+00 4.782821983098983765e-02
1.613000000000000000e+03 7.953884887695312500e+01 3.490599822998046875e+01 4.386197924613952637e-01 8.424756050109863281e+00 2.659012794494628906e+00 1.345375895500183105e+00
1.614000000000000000e+03 7.959828186035156250e+01 3.363173675537109375e+01 6.545253992080688477e-01 7.421720027923583984e+00 2.422873735427856445e+00 -5.616412162780761719e-01
1.615000000000000000e+03 6.603063344955444336e-01 3.742985153198242188e+01 8.906588191166520119e-04 -1.811045408248901367e-01 -5.406416207551956177e-02 -3.307642880827188492e-03
1.616000000000000000e+03 6.828397512435913086e-01 3.472512817382812500e+01 1.789690722944214940e-04 -1.914419531822204590e-01 -5.737889185547828674e-02 -1.692537567578256130e-03
1.617000000000000000e+03 7.309513092041015625e-01 3.332011413574218750e+01 -4.894520970992743969e-04 -1.950297355651855469e-01 -5.865575373172760010e-02 -1.984855625778436661e-03
1.618000000000000000e+03 6.570332050323486328e-01 2.763111305236816406e+01 -2.012249569816049188e-05 -2.187961190938949585e-01 -6.564486771821975708e-02 -3.908751998096704483e-03
1.619000000000000000e+03 6.311980485916137695e-01 2.621693801879882812e+01 -2.175110566895455122e-04 -2.276544868946075439e-01 -6.836160272359848022e-02 -4.193028900772333145e-03
1.620000000000000000e+03 1.100691199302673340e+00 -3.600624465942382812e+01 3.268000902608036995e-03 -1.430282592773437500e+00 -4.281043708324432373e-01 -1.152350939810276031e-02
1.621000000000000000e+03 2.575943946838378906e+00 -3.276139450073242188e+01 7.854158990085124969e-03 -1.242011070251464844e+00 -3.702470660209655762e-01 -5.101152881979942322e-02
1.622000000000000000e+03 3.049554586410522461e+00 2.468610382080078125e+01 -2.824981231242418289e-03 -1.792168170213699341e-01 -5.461253970861434937e-02 -1.821050792932510376e-02
1.623000000000000000e+03 1.889183282852172852e+00 2.615435600280761719e+01 -1.199924503453075886e-03 -2.004804164171218872e-01 -6.050410121679306030e-02 -1.134863868355751038e-02
1.624000000000000000e+03 2.112379550933837891e+00 3.482423400878906250e+01 -8.286362281069159508e-04 -1.701036989688873291e-01 -5.127969756722450256e-02 -4.880698397755622864e-03
1.625000000000000000e+03 2.243173599243164062e+00 3.338005447387695312e+01 -3.938851587008684874e-04 -1.705156713724136353e-01 -5.127286538481712341e-02 -5.824185442179441452e-03
1.626000000000000000e+03 2.262025833129882812e+00 3.822111129760742188e+01 3.693306935019791126e-04 -1.642025262117385864e-01 -4.914995655417442322e-02 -8.635803125798702240e-03
1.627000000000000000e+03 2.979208946228027344e+00 3.918906021118164062e+01 5.938289687037467957e-04 -1.618381291627883911e-01 -4.837328940629959106e-02 -5.575618240982294083e-03
1.628000000000000000e+03 1.997022032737731934e+00 -2.861254310607910156e+01 9.922465309500694275e-03 -1.190612316131591797e+00 -3.542069494724273682e-01 -5.879458785057067871e-02
1.629000000000000000e+03 1.923987030982971191e+00 -2.587179565429687500e+01 8.219121955335140228e-03 -1.107203483581542969e+00 -3.296952843666076660e-01 -7.221733033657073975e-02
1.630000000000000000e+03 3.205232620239257812e+00 -3.566003036499023438e+01 7.886094041168689728e-03 -1.225737094879150391e+00 -3.653552830219268799e-01 -4.309833049774169922e-02
1.631000000000000000e+03 1.722648978233337402e+00 1.777689552307128906e+01 -1.365279149467824027e-05 -2.577562928199768066e-01 -7.733098417520523071e-02 -1.582777872681617737e-02
1.632000000000000000e+03 5.664193630218505859e-01 1.494709014892578125e+01 8.027652511373162270e-04 -3.305400609970092773e-01 -9.892118722200393677e-02 -4.637986887246370316e-03
1.633000000000000000e+03 5.573046207427978516e-01 7.884272098541259766e+00 3.532959148287773132e-03 -2.734231650829315186e-01 -8.096706122159957886e-02 1.952364854514598846e-02
1.634000000000000000e+03 5.824179053306579590e-01 2.058089637756347656e+01 1.668537588557228446e-04 -2.748865485191345215e-01 -8.241590857505798340e-02 -5.756528582423925400e-03
1.635000000000000000e+03 5.772184133529663086e-01 1.917302513122558594e+01 -3.743569250218570232e-04 -2.891235053539276123e-01 -8.684935420751571655e-02 -5.969194229692220688e-03
1.636000000000000000e+03 1.766943454742431641e+00 -1.616069221496582031e+01 3.194785909727215767e-03 -6.345831155776977539e-01 -1.894164979457855225e-01 -1.218826472759246826e-01
1.637000000000000000e+03 4.031143665313720703e+00 -4.076971817016601562e+01 6.224517244845628738e-03 -1.277289986610412598e+00 -3.813196420669555664e-01 -4.175457358360290527e-02
1.638000000000000000e+03 5.147748470306396484e+00 -3.518090057373046875e+01 2.700003422796726227e-02 -1.066267490386962891e+00 -3.117802441120147705e-01 -6.484291702508926392e-02
1.639000000000000000e+03 2.890112400054931641e+00 -3.418252563476562500e+01 8.510317653417587280e-03 -1.240690708160400391e+00 -3.696541190147399902e-01 -4.693399742245674133e-02
1.640000000000000000e+03 2.316062927246093750e+00 -3.137321090698242188e+01 8.113818243145942688e-03 -1.232885003089904785e+00 -3.674313426017761230e-01 -5.048514530062675476e-02
1.641000000000000000e+03 1.941161155700683594e+00 -2.724095726013183594e+01 4.767204169183969498e-03 -1.152833461761474609e+00 -3.444198668003082275e-01 -6.664928793907165527e-02
1.642000000000000000e+03 3.222277879714965820e+00 -2.696787261962890625e+01 1.872370764613151550e-02 -1.054073214530944824e+00 -3.106048703193664551e-01 -1.065729558467864990e-01
1.643000000000000000e+03 1.899944305419921875e+00 -2.172098541259765625e+01 6.255150306969881058e-03 -9.376869797706604004e-01 -2.794295549392700195e-01 -9.870004653930664062e-02
1.644000000000000000e+03 1.919914960861206055e+00 -2.449714088439941406e+01 5.250095855444669724e-03 -1.056805491447448730e+00 -3.154666125774383545e-01 -8.259053528308868408e-02
1.645000000000000000e+03 3.136917591094970703e+00 -2.013729667663574219e+01 1.546471193432807922e-02 -8.077142834663391113e-01 -2.376748770475387573e-01 -1.686763018369674683e-01
1.646000000000000000e+03 6.104866266250610352e-01 -1.909557723999023438e+01 7.609826279804110527e-04 -8.562117218971252441e-01 -2.566352188587188721e-01 -3.780123218894004822e-02
1.647000000000000000e+03 1.837764143943786621e+00 -1.893376922607421875e+01 5.520759150385856628e-03 -7.966502904891967773e-01 -2.373388558626174927e-01 -1.124954223632812500e-01
1.648000000000000000e+03 1.680575966835021973e+00 -1.203497123718261719e+01 -4.184561781585216522e-03 -3.696732819080352783e-01 -1.121573522686958313e-01 -1.157749295234680176e-01
1.649000000000000000e+03 5.561776757240295410e-01 -1.208278751373291016e+01 2.460235555190593004e-04 -3.544600307941436768e-01 -1.062642037868499756e-01 -4.016659781336784363e-02
1.650000000000000000e+03 1.560432910919189453e+00 -6.676831245422363281e+00 -1.329135522246360779e-02 -8.494608849287033081e-02 -2.947123162448406219e-02 -5.585530772805213928e-02
1.651000000000000000e+03 1.477240920066833496e+00 -3.443460941314697266e+00 -1.189573109149932861e-02 -1.165622007101774216e-02 -7.065585348755121231e-03 -6.868475582450628281e-03
1.652000000000000000e+03 5.569143891334533691e-01 -5.092559814453125000e+00 -3.401826601475477219e-03 2.749250037595629692e-03 -1.957729837158694863e-04 -9.828581474721431732e-03
1.653000000000000000e+03 4.967165887355804443e-01 5.006818771362304688e+00 4.103162209503352642e-04 -1.518190950155258179e-01 -4.542263224720954895e-02 2.574234828352928162e-02
1.654000000000000000e+03 2.337039947509765625e+00 4.529351234436035156e+00 -2.715086098760366440e-03 -1.291267424821853638e-01 -3.955254703760147095e-02 1.021156460046768188e-01
1.655000000000000000e+03 1.665147423744201660e+00 1.077907848358154297e+01 9.837816469371318817e-03 -2.761547863483428955e-01 -7.989509403705596924e-02 1.362105458974838257e-02
1.656000000000000000e+03 5.555361509323120117e-01 1.071970081329345703e+01 2.038876758888363838e-03 -3.347055912017822266e-01 -9.980001300573348999e-02 5.026194266974925995e-03
1.657000000000000000e+03 1.692469716072082520e+00 1.357699775695800781e+01 4.741425160318613052e-03 -2.807877361774444580e-01 -8.281389623880386353e-02 -6.664196494966745377e-03
1.658000000000000000e+03 1.702604532241821289e+00 1.497887420654296875e+01 2.463814336806535721e-03 -2.754734158515930176e-01 -8.190288394689559937e-02 -1.167565491050481796e-02
1.659000000000000000e+03 5.730871558189392090e-01 1.776505661010742188e+01 3.503862826619297266e-04 -3.037430346012115479e-01 -9.101779758930206299e-02 -6.030571181327104568e-03
1.660000000000000000e+03 1.833809137344360352e+00 2.475265502929687500e+01 -9.167310781776905060e-04 -2.089742720127105713e-01 -6.296730041503906250e-02 -1.236386224627494812e-02
1.661000000000000000e+03 7.682830047607421875e+01 3.567048645019531250e+01 -2.744527101516723633e+00 2.164031410217285156e+01 5.668735980987548828e+00 -2.459887027740478516e+00
1.662000000000000000e+03 7.704441833496093750e+01 3.564351654052734375e+01 -2.549174547195434570e+00 2.178399848937988281e+01 5.770447254180908203e+00 -1.283127665519714355e+00
1.663000000000000000e+03 7.652030181884765625e+01 3.560749053955078125e+01 -2.459172010421752930e+00 1.979068374633789062e+01 5.199453830718994141e+00 -4.737463951110839844e+00
1.664000000000000000e+03 7.652585601806640625e+01 2.652482032775878906e+01 7.198106497526168823e-03 9.616389274597167969e+00 2.887076377868652344e+00 1.897735476493835449e+00
1.665000000000000000e+03 7.672729492187500000e+01 3.230002212524414062e+01 -3.337848186492919922e+00 1.996501541137695312e+01 4.988150119781494141e+00 3.186731100082397461e+00
1.666000000000000000e+03 7.425792694091796875e+01 3.206357192993164062e+01 -1.492553353309631348e+00 2.308075428009033203e+00 2.446565926074981689e-01 2.598102092742919922e+00
1.667000000000000000e+03 7.386957550048828125e+01 3.231139755249023438e+01 -2.241487026214599609e+00 1.401566863059997559e+00 -2.519760131835937500e-01 1.580059528350830078e+00
1.668000000000000000e+03 7.469666290283203125e+01 3.202294540405273438e+01 -9.910769462585449219e-01 4.073840618133544922e+00 9.248291850090026855e-01 3.752685070037841797e+00
1.669000000000000000e+03 7.562303161621093750e+01 3.230210113525390625e+01 -1.131045937538146973e+00 9.250274658203125000e+00 2.435768604278564453e+00 5.940608501434326172e+00
1.670000000000000000e+03 7.673503112792968750e+01 3.192757225036621094e+01 -3.351596117019653320e+00 1.799353790283203125e+01 4.392582416534423828e+00 3.005707263946533203e+00
1.671000000000000000e+03 2.725109100341796875e+01 3.644464015960693359e+00 -2.260465860366821289e+00 -8.037999868392944336e-01 -9.192797541618347168e-01 -1.026030898094177246e+00
1.672000000000000000e+03 2.756101989746093750e+01 4.354151248931884766e+00 -2.360416889190673828e+00 -9.973431229591369629e-01 -1.007328033447265625e+00 -1.235817313194274902e+00
1.673000000000000000e+03 2.320299339294433594e+01 1.825486540794372559e+00 -2.901133775711059570e+00 -5.055428147315979004e-01 -1.022002935409545898e+00 -1.491863012313842773e+00
1.674000000000000000e+03 2.641634750366210938e+01 3.414052724838256836e+00 -2.475798845291137695e+00 -7.079395651817321777e-01 -9.551215767860412598e-01 -1.139778256416320801e+00
1.675000000000000000e+03 2.837716484069824219e+01 4.676402091979980469e+00 -2.137480258941650391e+00 -1.086520910263061523e+00 -9.672003388404846191e-01 -1.105269551277160645e+00
1.676000000000000000e+03 2.536911392211914062e+01 3.208523750305175781e+00 -2.860878705978393555e+00 -6.652413010597229004e-01 -1.057836055755615234e+00 -1.319863319396972656e+00
1.677000000000000000e+03 2.450134658813476562e+01 2.705427408218383789e+00 -3.048084020614624023e+00 -6.247006654739379883e-01 -1.101835370063781738e+00 -1.366448163986206055e+00
1.678000000000000000e+03 2.390391731262207031e+01 1.725318312644958496e+00 -2.575496673583984375e+00 -3.556028902530670166e-01 -8.793298602104187012e-01 -1.153544783592224121e+00
1.679000000000000000e+03 2.406557655334472656e+01 2.142141580581665039e+00 -2.870362758636474609e+00 -4.904111027717590332e-01 -1.008232116699218750e+00 -1.287590503692626953e+00
1.680000000000000000e+03 1.700543594360351562e+01 -2.051199436187744141e+00 -1.527618765830993652e+00 -9.166522622108459473e-01 -7.332813143730163574e-01 -8.516278862953186035e-01
1.681000000000000000e+03 1.837945747375488281e+01 -1.481417059898376465e+00 -1.707383036613464355e+00 -2.126241445541381836e+00 -1.150087356567382812e+00 -1.546984195709228516e+00
1.682000000000000000e+03 2.494852638244628906e+01 2.687268972396850586e+00 -2.775008916854858398e+00 -5.445851683616638184e-01 -9.958782196044921875e-01 -1.210873365402221680e+00
1.683000000000000000e+03 2.384111404418945312e+01 2.114729404449462891e+00 -2.883152008056640625e+00 -5.260195732116699219e-01 -1.022751450538635254e+00 -1.358208298683166504e+00
1.684000000000000000e+03 2.433052444458007812e+01 2.596959352493286133e+00 -2.996198415756225586e+00 -5.490811467170715332e-01 -1.063583850860595703e+00 -1.355842590332031250e+00
1.685000000000000000e+03 2.519177055358886719e+01 3.110288143157958984e+00 -2.925572872161865234e+00 -6.857822537422180176e-01 -1.083406567573547363e+00 -1.327791571617126465e+00
1.686000000000000000e+03 2.380746269226074219e+01 2.302673816680908203e+00 -3.084772109985351562e+00 -6.119058132171630859e-01 -1.109003305435180664e+00 -1.432643532752990723e+00
1.687000000000000000e+03 1.773380851745605469e+01 -3.316552639007568359e+00 -1.219623565673828125e+00 -2.050952911376953125e+00 -9.811729788780212402e-01 -1.257196545600891113e+00
1.688000000000000000e+03 2.336678886413574219e+01 1.958302736282348633e+00 -2.916580677032470703e+00 -5.177714824676513672e-01 -1.030305624008178711e+00 -1.496207714080810547e+00
1.689000000000000000e+03 2.660545730590820312e+01 3.943475484848022461e+00 -2.632417201995849609e+00 -8.568454980850219727e-01 -1.046778798103332520e+00 -1.317865014076232910e+00
1.690000000000000000e+03 7.869664764404296875e+01 3.420823287963867188e+01 2.272682666778564453e+00 1.373307609558105469e+01 4.801727771759033203e+00 1.986597031354904175e-01
1.691000000000000000e+03 7.796340179443359375e+01 3.313737106323242188e+01 2.128785133361816406e+00 1.990514945983886719e+01 6.610180377960205078e+00 -3.797500610351562500e+00
1.692000000000000000e+03 7.805413055419921875e+01 3.456481552124023438e+01 5.379292488098144531e+00 1.829020690917968750e+01 7.100850105285644531e+00 2.984920024871826172e+00
1.693000000000000000e+03 7.810456085205078125e+01 3.754359817504882812e+01 -1.576221227645874023e+00 1.549745082855224609e+01 4.176369190216064453e+00 7.620811462402343750e-01
1.694000000000000000e+03 7.695801544189453125e+01 3.233945846557617188e+01 -3.300036191940307617e+00 2.128087043762207031e+01 5.394250392913818359e+00 1.677415490150451660e+00
1.695000000000000000e+03 7.466020965576171875e+01 3.560184860229492188e+01 6.981211900711059570e-01 2.768399000167846680e+00 1.039956092834472656e+00 -3.116188287734985352e+00
1.696000000000000000e+03 7.422422027587890625e+01 3.564615249633789062e+01 7.990794628858566284e-02 2.140360593795776367e+00 6.660805344581604004e-01 -1.927273035049438477e+00
1.697000000000000000e+03 2.177453994750976562e+01 9.917834997177124023e-01 -2.410926342010498047e+00 -6.774254441261291504e-01 -9.265055060386657715e-01 -2.217514753341674805e+00
1.698000000000000000e+03 2.148342895507812500e+01 6.323171854019165039e-01 -1.978784561157226562e+00 -4.454962909221649170e-01 -7.272842526435852051e-01 -2.550544977188110352e+00
1.699000000000000000e+03 2.042287635803222656e+01 -4.773027002811431885e-01 -3.105755090713500977e+00 -3.679294824600219727e+00 -2.035515069961547852e+00 -3.686911344528198242e+00
1.700000000000000000e+03 1.873621559143066406e+01 -8.701297044754028320e-01 -1.958320260047912598e+00 -2.059800386428833008e+00 -1.205436229705810547e+00 -1.546733021736145020e+00
1.701000000000000000e+03 2.090172767639160156e+01 5.121938586235046387e-01 -1.721547722816467285e+00 -1.177045345306396484e+00 -8.695779442787170410e-01 -3.394216060638427734e+00
1.702000000000000000e+03 1.578997039794921875e+01 6.028160095214843750e+00 2.999189794063568115e-01 4.458831548690795898e-01 2.237406522035598755e-01 3.412436842918395996e-01
1.703000000000000000e+03 3.148221015930175781e+01 2.255882835388183594e+01 9.509890526533126831e-02 1.221259608864784241e-01 6.516746431589126587e-02 1.159930974245071411e-01
1.704000000000000000e+03 3.186542510986328125e+01 2.226501655578613281e+01 9.659121930599212646e-02 1.155344471335411072e-01 6.363770365715026855e-02 1.138095557689666748e-01
1.705000000000000000e+03 1.964451980590820312e+01 1.072247409820556641e+01 1.919718533754348755e-01 2.379431277513504028e-01 1.289744973182678223e-01 2.221453487873077393e-01
1.706000000000000000e+03 4.966373062133789062e+01 3.928142929077148438e+01 3.051045536994934082e-01 2.572481706738471985e-02 9.924880415201187134e-02 6.785143166780471802e-02
1.707000000000000000e+03 4.017350769042968750e+01 2.033352279663085938e+01 -1.097364068031311035e+00 -1.175147294998168945e+00 -6.817533969879150391e-01 -1.232308626174926758e+00
1.708000000000000000e+03 1.707893371582031250e+01 7.551746368408203125e+00 2.442674338817596436e-01 3.257915377616882324e-01 1.710176914930343628e-01 2.850084304809570312e-01
1.709000000000000000e+03 4.043660354614257812e+01 2.061589241027832031e+01 -1.123399734497070312e+00 -1.174953460693359375e+00 -6.895059943199157715e-01 -1.235723495483398438e+00
1.710000000000000000e+03 3.527215957641601562e+01 2.662325477600097656e+01 8.703909069299697876e-02 1.227966025471687317e-01 6.295070797204971313e-02 1.051139459013938904e-01
1.711000000000000000e+03 3.460570144653320312e+01 1.423470211029052734e+01 -1.262576341629028320e+00 -1.425254702568054199e+00 -8.063492774963378906e-01 -1.320522427558898926e+00
1.712000000000000000e+03 3.178190422058105469e+01 1.174883747100830078e+01 -1.458307147026062012e+00 -1.411121368408203125e+00 -8.608285784721374512e-01 -1.375622391700744629e+00
1.713000000000000000e+03 3.298691558837890625e+01 1.197409725189208984e+01 -1.307665467262268066e+00 -1.324271678924560547e+00 -7.895811796188354492e-01 -1.294999361038208008e+00
1.714000000000000000e+03 2.490892601013183594e+01 1.574599075317382812e+01 1.539608836174011230e-01 1.701495200395584106e-01 9.723311662673950195e-02 1.674978733062744141e-01
1.715000000000000000e+03 3.295550918579101562e+01 2.343472099304199219e+01 9.320075064897537231e-02 1.235015466809272766e-01 6.501068919897079468e-02 1.065243855118751526e-01
1.716000000000000000e+03 3.482128524780273438e+01 2.551157188415527344e+01 9.127006679773330688e-02 1.267275512218475342e-01 6.539928168058395386e-02 1.048617213964462280e-01
1.717000000000000000e+03 2.933876228332519531e+01 9.445251464843750000e+00 -1.913816094398498535e+00 -1.034981846809387207e+00 -8.846393823623657227e-01 -1.362826108932495117e+00
1.718000000000000000e+03 2.432146072387695312e+01 1.503796958923339844e+01 1.623032093048095703e-01 1.802660524845123291e-01 1.027707830071449280e-01 1.747342497110366821e-01
1.719000000000000000e+03 4.668865203857421875e+01 2.600038528442382812e+01 -1.308630108833312988e+00 -1.100303649902343750e+00 -7.226800918579101562e-01 -1.254090309143066406e+00
1.720000000000000000e+03 4.158575820922851562e+01 2.225650024414062500e+01 -1.415128111839294434e+00 -1.242454051971435547e+00 -7.972746491432189941e-01 -1.301451563835144043e+00
1.721000000000000000e+03 4.644668197631835938e+01 2.630760955810546875e+01 -1.321052908897399902e+00 -1.156180620193481445e+00 -7.431700229644775391e-01 -1.284262895584106445e+00
1.722000000000000000e+03 3.322932815551757812e+01 2.372934532165527344e+01 9.121870249509811401e-02 1.254574656486511230e-01 6.500285118818283081e-02 1.069321706891059875e-01
1.723000000000000000e+03 1.820916938781738281e+01 8.782403945922851562e+00 2.420774698257446289e-01 2.963391542434692383e-01 1.615249812602996826e-01 2.510944008827209473e-01
1.724000000000000000e+03 1.750635719299316406e+01 8.885789871215820312e+00 2.145534455776214600e-01 3.089942634105682373e-01 1.570643037557601929e-01 2.438182085752487183e-01
1.725000000000000000e+03 2.135466766357421875e+01 1.232814693450927734e+01 1.800977885723114014e-01 2.215703427791595459e-01 1.205004379153251648e-01 2.025197595357894897e-01
1.726000000000000000e+03 4.560173797607421875e+01 2.549361228942871094e+01 -1.377712965011596680e+00 -1.224360704421997070e+00 -7.806220650672912598e-01 -1.309637904167175293e+00
1.727000000000000000e+03 3.803107070922851562e+01 1.856082344055175781e+01 -1.122807741165161133e+00 -1.477703690528869629e+00 -7.801534533500671387e-01 -1.277444124221801758e+00
1.728000000000000000e+03 4.297831726074218750e+01 2.305858802795410156e+01 -1.381591677665710449e+00 -1.240737080574035645e+00 -7.866986393928527832e-01 -1.323205947875976562e+00
1.729000000000000000e+03 4.697170639038085938e+01 2.627029800415039062e+01 -1.301170110702514648e+00 -1.087512850761413574e+00 -7.166048884391784668e-01 -1.243849277496337891e+00
1.730000000000000000e+03 3.511413192749023438e+01 1.480380249023437500e+01 -1.221164107322692871e+00 -1.428746104240417480e+00 -7.949730753898620605e-01 -1.324168086051940918e+00
1.731000000000000000e+03 3.457835006713867188e+01 1.474746131896972656e+01 -1.253615736961364746e+00 -1.472991585731506348e+00 -8.179821968078613281e-01 -1.363529205322265625e+00
1.732000000000000000e+03 1.631661987304687500e+01 6.624818801879882812e+00 2.722397446632385254e-01 3.977608084678649902e-01 2.010001689195632935e-01 3.246771991252899170e-01
1.733000000000000000e+03 1.524101638793945312e+01 5.964059829711914062e+00 2.682155966758728027e-01 4.900452196598052979e-01 2.274782359600067139e-01 3.569103777408599854e-01
1.734000000000000000e+03 4.129413986206054688e+01 2.198682785034179688e+01 -1.379867076873779297e+00 -1.229296445846557617e+00 -7.827490568161010742e-01 -1.282255172729492188e+00
1.735000000000000000e+03 4.240135955810546875e+01 2.252474212646484375e+01 -1.370103836059570312e+00 -1.224005103111267090e+00 -7.782326936721801758e-01 -1.297314763069152832e+00
1.736000000000000000e+03 2.083569145202636719e+01 1.123543071746826172e+01 1.991317570209503174e-01 2.334931641817092896e-01 1.297874748706817627e-01 2.117313146591186523e-01
1.737000000000000000e+03 1.996944618225097656e+01 1.096811580657958984e+01 1.944278329610824585e-01 2.344575375318527222e-01 1.286656111478805542e-01 2.147371917963027954e-01
1.738000000000000000e+03 3.134077644348144531e+01 1.095826053619384766e+01 -1.419990181922912598e+00 -1.351975440979003906e+00 -8.315896987915039062e-01 -1.315433025360107422e+00
1.739000000000000000e+03 3.073938560485839844e+01 1.071175956726074219e+01 -1.466978430747985840e+00 -1.284400582313537598e+00 -8.254137039184570312e-01 -1.358134269714355469e+00
1.740000000000000000e+03 3.537383270263671875e+01 1.509131145477294922e+01 -1.209949612617492676e+00 -1.434176683425903320e+00 -7.932378649711608887e-01 -1.318436026573181152e+00
1.741000000000000000e+03 4.333550643920898438e+01 2.386610603332519531e+01 -1.474406838417053223e+00 -1.293727278709411621e+00 -8.304402232170104980e-01 -1.379194378852844238e+00
1.742000000000000000e+03 1.624066352844238281e+01 7.147981166839599609e+00 2.304572910070419312e-01 3.941924571990966797e-01 1.873949319124221802e-01 3.007650673389434814e-01
1.743000000000000000e+03 1.631949043273925781e+01 8.012256622314453125e+00 2.019240409135818481e-01 3.725723326206207275e-01 1.723489165306091309e-01 2.638050615787506104e-01
1.744000000000000000e+03 3.635792541503906250e+01 2.731490898132324219e+01 9.381528943777084351e-02 1.229505389928817749e-01 6.502974778413772583e-02 1.046717613935470581e-01
1.745000000000000000e+03 3.577400588989257812e+01 2.721541404724121094e+01 9.074266999959945679e-02 1.203232780098915100e-01 6.331978738307952881e-02 1.041415184736251831e-01
1.746000000000000000e+03 3.776649856567382812e+01 1.826296615600585938e+01 -1.154655456542968750e+00 -1.515205979347229004e+00 -8.009584546089172363e-01 -1.297182679176330566e+00
1.747000000000000000e+03 3.991447067260742188e+01 2.003979492187500000e+01 -1.078493356704711914e+00 -1.185076951980590820e+00 -6.790711283683776855e-01 -1.231416225433349609e+00
1.748000000000000000e+03 4.701642990112304688e+01 2.684789466857910156e+01 -1.321329712867736816e+00 -1.124953508377075195e+00 -7.338849306106567383e-01 -1.260048389434814453e+00
1.749000000000000000e+03 3.224695205688476562e+01 1.170478630065917969e+01 -1.397660255432128906e+00 -1.336924552917480469e+00 -8.203754425048828125e-01 -1.321743488311767578e+00
1.750000000000000000e+03 2.275244331359863281e+01 1.322256755828857422e+01 1.906428784132003784e-01 2.127586007118225098e-01 1.210204437375068665e-01 1.959852129220962524e-01
1.751000000000000000e+03 2.188342285156250000e+01 1.288981151580810547e+01 1.800649017095565796e-01 2.135206311941146851e-01 1.180756613612174988e-01 1.969220638275146484e-01
1.752000000000000000e+03 4.326903915405273438e+01 2.332641220092773438e+01 -1.389546632766723633e+00 -1.256563067436218262e+00 -7.938328981399536133e-01 -1.329852461814880371e+00
1.753000000000000000e+03 2.628666877746582031e+01 1.675039672851562500e+01 1.557853221893310547e-01 1.698096096515655518e-01 9.767847508192062378e-02 1.596647351980209351e-01
1.754000000000000000e+03 2.576569366455078125e+01 1.685948753356933594e+01 1.490474939346313477e-01 1.680108159780502319e-01 9.511749446392059326e-02 1.564304530620574951e-01
1.755000000000000000e+03 4.823875808715820312e+01 2.850303077697753906e+01 -1.394668459892272949e+00 -1.138130664825439453e+00 -7.598397135734558105e-01 -1.249963521957397461e+00
1.756000000000000000e+03 4.794669342041015625e+01 2.823197555541992188e+01 -1.394727945327758789e+00 -1.140334963798522949e+00 -7.605189085006713867e-01 -1.259491682052612305e+00
1.757000000000000000e+03 2.931533622741699219e+01 2.027578544616699219e+01 1.211030706763267517e-01 1.361075639724731445e-01 7.716318964958190918e-02 1.300204545259475708e-01
1.758000000000000000e+03 7.617037200927734375e+01 3.582380294799804688e+01 -1.242797136306762695e+00 1.533294010162353516e+01 4.227042675018310547e+00 -5.129321098327636719e+00
1.759000000000000000e+03 4.479918670654296875e+01 2.523042678833007812e+01 -1.459819674491882324e+00 -1.374148011207580566e+00 -8.501903414726257324e-01 -1.378854632377624512e+00
1.760000000000000000e+03 4.531681442260742188e+01 2.522147178649902344e+01 -1.402786612510681152e+00 -1.253891587257385254e+00 -7.970034480094909668e-01 -1.310912728309631348e+00
1.761000000000000000e+03 5.017765045166015625e+01 2.984250831604003906e+01 -1.257946610450744629e+00 -9.063484072685241699e-01 -6.492885351181030273e-01 -1.078853845596313477e+00
1.762000000000000000e+03 4.939402008056640625e+01 2.959959220886230469e+01 -1.311049818992614746e+00 -1.069963455200195312e+00 -7.143039703369140625e-01 -1.177347898483276367e+00
1.763000000000000000e+03 3.563485717773437500e+01 1.538122940063476562e+01 -1.199834823608398438e+00 -1.438956141471862793e+00 -7.916373014450073242e-01 -1.315345525741577148e+00
1.764000000000000000e+03 3.455745697021484375e+01 2.521196174621582031e+01 9.239735454320907593e-02 1.260489225387573242e-01 6.553388386964797974e-02 1.054050847887992859e-01
1.765000000000000000e+03 3.396746444702148438e+01 2.515750503540039062e+01 9.008891135454177856e-02 1.240254417061805725e-01 6.423430889844894409e-02 1.056152284145355225e-01
1.766000000000000000e+03 5.047115707397460938e+01 3.011117935180664062e+01 -1.229372620582580566e+00 -8.667473793029785156e-01 -6.288359761238098145e-01 -1.043871283531188965e+00
1.767000000000000000e+03 2.828556251525878906e+01 1.912465095520019531e+01 1.321606487035751343e-01 1.447222530841827393e-01 8.306487649679183960e-02 1.395157128572463989e-01
1.768000000000000000e+03 4.730348205566406250e+01 2.711738014221191406e+01 -1.328074574470520020e+00 -1.112287282943725586e+00 -7.321085333824157715e-01 -1.249466300010681152e+00
1.769000000000000000e+03 4.845917510986328125e+01 2.820325660705566406e+01 -1.353572726249694824e+00 -1.070132017135620117e+00 -7.271114587783813477e-01 -1.200500965118408203e+00
1.770000000000000000e+03 3.589683151245117188e+01 1.567243003845214844e+01 -1.200011491775512695e+00 -1.445051550865173340e+00 -7.935189008712768555e-01 -1.310524940490722656e+00
1.771000000000000000e+03 3.615972137451171875e+01 1.596396350860595703e+01 -1.196995139122009277e+00 -1.450864791870117188e+00 -7.943579554557800293e-01 -1.309594154357910156e+00
1.772000000000000000e+03 3.643474197387695312e+01 1.678726387023925781e+01 -1.230318307876586914e+00 -1.509063005447387695e+00 -8.218144178390502930e-01 -1.349674701690673828e+00
1.773000000000000000e+03 3.642364120483398438e+01 1.625511360168457031e+01 -1.197123169898986816e+00 -1.459082126617431641e+00 -7.968615889549255371e-01 -1.306552171707153320e+00
1.774000000000000000e+03 3.904074096679687500e+01 3.058197784423828125e+01 9.895132482051849365e-02 9.882703423500061035e-02 5.933350697159767151e-02 9.470526874065399170e-02
1.775000000000000000e+03 4.211424636840820312e+01 2.225680541992187500e+01 -1.356009125709533691e+00 -1.223189830780029297e+00 -7.737596631050109863e-01 -1.279068708419799805e+00
1.776000000000000000e+03 2.803380584716796875e+01 1.884353828430175781e+01 1.352898329496383667e-01 1.476550400257110596e-01 8.488346636295318604e-02 1.419642716646194458e-01
1.777000000000000000e+03 4.356069183349609375e+01 2.359468078613281250e+01 -1.401386022567749023e+00 -1.275545954704284668e+00 -8.030795454978942871e-01 -1.332362771034240723e+00
1.778000000000000000e+03 2.856082534790039062e+01 1.887503433227539062e+01 1.391593217849731445e-01 1.410569250583648682e-01 8.406487852334976196e-02 1.408362835645675659e-01
1.779000000000000000e+03 2.882898902893066406e+01 1.915636444091796875e+01 1.355942189693450928e-01 1.386099010705947876e-01 8.226123452186584473e-02 1.381606906652450562e-01
1.780000000000000000e+03 2.904763221740722656e+01 1.998682022094726562e+01 1.234788447618484497e-01 1.381520628929138184e-01 7.848927378654479980e-02 1.322757750749588013e-01
1.781000000000000000e+03 3.668893814086914062e+01 1.654564857482910156e+01 -1.192120790481567383e+00 -1.466881394386291504e+00 -7.977006435394287109e-01 -1.304445743560791016e+00
1.782000000000000000e+03 1.338729667663574219e+01 3.613575458526611328e+00 3.959547579288482666e-01 1.749000072479248047e+00 6.434864401817321777e-01 -9.035401046276092529e-02
1.783000000000000000e+03 4.010881042480468750e+01 3.136105537414550781e+01 1.004513427615165710e-01 9.114166349172592163e-02 5.747790262103080750e-02 9.314679354429244995e-02
1.784000000000000000e+03 3.117125892639160156e+01 9.754718780517578125e+00 -1.379039883613586426e+00 -1.224546909332275391e+00 -7.810760736465454102e-01 -1.199931144714355469e+00
1.785000000000000000e+03 3.080561828613281250e+01 1.005595302581787109e+01 -1.420956850051879883e+00 -1.234386563301086426e+00 -7.966030240058898926e-01 -1.269768357276916504e+00
1.786000000000000000e+03 3.175951004028320312e+01 2.284691238403320312e+01 9.437830001115798950e-02 1.202980056405067444e-01 6.440289318561553955e-02 1.143912151455879211e-01
1.787000000000000000e+03 3.076408195495605469e+01 2.113468170166015625e+01 1.177997738122940063e-01 1.263689398765563965e-01 7.325061410665512085e-02 1.200228184461593628e-01
1.788000000000000000e+03 2.986666297912597656e+01 2.084089851379394531e+01 1.167246550321578979e-01 1.326799839735031128e-01 7.482139766216278076e-02 1.246928945183753967e-01
1.789000000000000000e+03 2.745096397399902344e+01 1.778704261779785156e+01 1.526594012975692749e-01 1.569758802652359009e-01 9.289058297872543335e-02 1.528314352035522461e-01
1.790000000000000000e+03 4.759174728393554688e+01 2.738724899291992188e+01 -1.336692690849304199e+00 -1.102835774421691895e+00 -7.318585515022277832e-01 -1.237736701965332031e+00
1.791000000000000000e+03 4.817018127441406250e+01 2.792985534667968750e+01 -1.351196289062500000e+00 -1.083093285560607910e+00 -7.302868962287902832e-01 -1.213900685310363770e+00
1.792000000000000000e+03 3.940575790405273438e+01 3.011370086669921875e+01 1.007180362939834595e-01 9.838432073593139648e-02 5.973070859909057617e-02 9.804461896419525146e-02
1.793000000000000000e+03 2.716442489624023438e+01 1.752466201782226562e+01 1.547727882862091064e-01 1.615499854087829590e-01 9.489683061838150024e-02 1.553219258785247803e-01
1.794000000000000000e+03 4.177607345581054688e+01 3.286389923095703125e+01 1.076805591583251953e-01 7.936775684356689453e-02 5.611449480056762695e-02 8.989226818084716797e-02
1.795000000000000000e+03 3.750145721435546875e+01 1.796566581726074219e+01 -1.182370424270629883e+00 -1.539332628250122070e+00 -8.165109157562255859e-01 -1.313928365707397461e+00
1.796000000000000000e+03 3.232345581054687500e+01 2.342439460754394531e+01 9.322816878557205200e-02 1.205323487520217896e-01 6.412815302610397339e-02 1.095846593379974365e-01
1.797000000000000000e+03 2.115756034851074219e+01 3.993266820907592773e-01 -1.891509294509887695e+00 -1.733423322439193726e-01 -6.194555163383483887e-01 -3.115130662918090820e+00
1.798000000000000000e+03 1.851815795898437500e+01 -1.866275429725646973e+00 -1.910223245620727539e+00 -2.794883012771606445e+00 -1.411531805992126465e+00 -1.620118260383605957e+00
1.799000000000000000e+03 2.016990089416503906e+01 -5.384090915322303772e-02 -1.628606081008911133e+00 -4.689517498016357422e+00 -1.895437002182006836e+00 -3.051551342010498047e+00
1.800000000000000000e+03 1.857617568969726562e+01 -9.917073249816894531e-01 -2.126135587692260742e+00 -2.126367092132568359e+00 -1.275750875473022461e+00 -1.559471607208251953e+00
1.801000000000000000e+03 2.658509826660156250e+01 1.700397491455078125e+01 1.564316004514694214e-01 1.680337935686111450e-01 9.733962267637252808e-02 1.588674932718276978e-01
1.802000000000000000e+03 2.446600914001464844e+01 1.607149887084960938e+01 1.451002061367034912e-01 1.765941977500915527e-01 9.650832414627075195e-02 1.654235124588012695e-01
1.803000000000000000e+03 2.303107833862304688e+01 1.350717926025390625e+01 1.906803548336029053e-01 2.094166874885559082e-01 1.200291141867637634e-01 1.942365467548370361e-01
1.804000000000000000e+03 2.161372566223144531e+01 1.260947322845458984e+01 1.804624348878860474e-01 2.180337458848953247e-01 1.195488572120666504e-01 1.991511881351470947e-01
1.805000000000000000e+03 5.076995849609375000e+01 3.037834548950195312e+01 -1.200405120849609375e+00 -8.177008032798767090e-01 -6.054317355155944824e-01 -1.004743337631225586e+00
1.806000000000000000e+03 4.451079177856445312e+01 2.495268440246582031e+01 -1.487102866172790527e+00 -1.388566136360168457e+00 -8.627007007598876953e-01 -1.389268279075622559e+00
1.807000000000000000e+03 3.786458206176757812e+01 2.919206428527832031e+01 9.628383815288543701e-02 1.097092628479003906e-01 6.179793179035186768e-02 1.008912846446037292e-01
1.808000000000000000e+03 2.777471160888671875e+01 1.856967163085937500e+01 1.382136940956115723e-01 1.509421020746231079e-01 8.674673736095428467e-02 1.446969956159591675e-01
1.809000000000000000e+03 3.382192993164062500e+01 1.384202766418457031e+01 -1.331242322921752930e+00 -1.478117108345031738e+00 -8.428078293800354004e-01 -1.349771022796630859e+00
1.810000000000000000e+03 3.436289978027343750e+01 1.394397449493408203e+01 -1.281249642372131348e+00 -1.425902128219604492e+00 -8.121455311775207520e-01 -1.308614134788513184e+00
1.811000000000000000e+03 3.354265975952148438e+01 1.251209068298339844e+01 -1.266144871711730957e+00 -1.356994748115539551e+00 -7.869418859481811523e-01 -1.287229418754577637e+00
1.812000000000000000e+03 3.941261672973632812e+01 3.072649955749511719e+01 1.003382951021194458e-01 9.628219902515411377e-02 5.898614972829818726e-02 9.458398818969726562e-02
1.813000000000000000e+03 4.524759674072265625e+01 3.522750473022460938e+01 1.279930174350738525e-01 7.082276791334152222e-02 5.964474007487297058e-02 9.291318804025650024e-02
1.814000000000000000e+03 4.419230270385742188e+01 3.589867782592773438e+01 1.434371620416641235e-01 6.757201999425888062e-02 6.330275535583496094e-02 8.807786554098129272e-02
1.815000000000000000e+03 3.695547866821289062e+01 1.683591079711914062e+01 -1.188769340515136719e+00 -1.474434494972229004e+00 -7.989611625671386719e-01 -1.297217607498168945e+00
1.816000000000000000e+03 4.616415405273437500e+01 2.603640365600585938e+01 -1.332450270652770996e+00 -1.175136804580688477e+00 -7.522761225700378418e-01 -1.295928001403808594e+00
1.817000000000000000e+03 3.853534317016601562e+01 3.057906150817871094e+01 9.646558016538619995e-02 1.007875576615333557e-01 5.917594209313392639e-02 9.461145102977752686e-02
1.818000000000000000e+03 4.506866073608398438e+01 3.711643600463867188e+01 1.749407500028610229e-01 5.531761050224304199e-02 6.907750666141510010e-02 8.431944996118545532e-02
1.819000000000000000e+03 5.107117462158203125e+01 3.064366340637207031e+01 -1.172352552413940430e+00 -7.642461061477661133e-01 -5.809795856475830078e-01 -9.597421288490295410e-01
1.820000000000000000e+03 2.501744079589843750e+01 1.651988220214843750e+01 1.455931514501571655e-01 1.710013151168823242e-01 9.497833997011184692e-02 1.605680286884307861e-01
1.821000000000000000e+03 4.182783126831054688e+01 2.198766517639160156e+01 -1.329636096954345703e+00 -1.225228428840637207e+00 -7.664593458175659180e-01 -1.262238383293151855e+00
1.822000000000000000e+03 4.070475006103515625e+01 2.089348030090332031e+01 -1.157997012138366699e+00 -1.183922290802001953e+00 -7.025758028030395508e-01 -1.239592075347900391e+00
1.823000000000000000e+03 4.125820922851562500e+01 2.144408988952636719e+01 -1.245014786720275879e+00 -1.213014125823974609e+00 -7.374086976051330566e-01 -1.245281100273132324e+00
1.824000000000000000e+03 5.232824325561523438e+01 3.239817047119140625e+01 -8.425963521003723145e-01 -4.748305380344390869e-01 -3.952280580997467041e-01 -6.844193339347839355e-01
1.825000000000000000e+03 4.209904479980468750e+01 3.314423370361328125e+01 1.096849590539932251e-01 7.888542860746383667e-02 5.657111480832099915e-02 8.924294263124465942e-02
1.826000000000000000e+03 3.014942741394042969e+01 2.112028121948242188e+01 1.138586625456809998e-01 1.313064992427825928e-01 7.354954630136489868e-02 1.218688860535621643e-01
1.827000000000000000e+03 4.385314941406250000e+01 2.386357307434082031e+01 -1.413688659667968750e+00 -1.294041752815246582e+00 -8.123191595077514648e-01 -1.332931876182556152e+00
1.828000000000000000e+03 4.414652252197265625e+01 2.413334465026855469e+01 -1.424047350883483887e+00 -1.309504032135009766e+00 -8.200654387474060059e-01 -1.329472184181213379e+00
1.829000000000000000e+03 3.685152816772460938e+01 2.794897079467773438e+01 9.752121567726135254e-02 1.228410676121711731e-01 6.610868126153945923e-02 1.040028557181358337e-01
1.830000000000000000e+03 3.885171890258789062e+01 1.885978317260742188e+01 -1.094631910324096680e+00 -1.305286049842834473e+00 -7.199754118919372559e-01 -1.236387252807617188e+00
1.831000000000000000e+03 3.722262191772460938e+01 1.712617683410644531e+01 -1.181585311889648438e+00 -1.476690292358398438e+00 -7.974826693534851074e-01 -1.288915038108825684e+00
1.832000000000000000e+03 3.749043655395507812e+01 1.741604804992675781e+01 -1.175628900527954102e+00 -1.470706820487976074e+00 -7.939007282257080078e-01 -1.276445031166076660e+00
1.833000000000000000e+03 4.247421646118164062e+01 3.334741973876953125e+01 1.103606820106506348e-01 7.667714357376098633e-02 5.611134693026542664e-02 8.936007320880889893e-02
1.834000000000000000e+03 1.912722778320312500e+01 1.012765598297119141e+01 1.956342160701751709e-01 2.567533552646636963e-01 1.357162743806838989e-01 2.327364832162857056e-01
1.835000000000000000e+03 4.291328811645507812e+01 3.433337402343750000e+01 1.196175217628479004e-01 7.420017570257186890e-02 5.814531072974205017e-02 9.104616194963455200e-02
1.836000000000000000e+03 3.152600860595703125e+01 1.141088581085205078e+01 -1.491898775100708008e+00 -1.399381518363952637e+00 -8.673840761184692383e-01 -1.344076156616210938e+00
1.837000000000000000e+03 2.330752182006835938e+01 1.379122734069824219e+01 1.905004531145095825e-01 2.047901004552841187e-01 1.185871660709381104e-01 1.905369162559509277e-01
1.838000000000000000e+03 5.202818679809570312e+01 3.209893035888671875e+01 -9.070965051651000977e-01 -5.818210840225219727e-01 -4.466752707958221436e-01 -7.501906156539916992e-01
1.839000000000000000e+03 3.201330947875976562e+01 1.151687908172607422e+01 -1.431174755096435547e+00 -1.354546904563903809e+00 -8.357164859771728516e-01 -1.306142807006835938e+00
1.840000000000000000e+03 3.337346649169921875e+01 2.512689399719238281e+01 8.790185302495956421e-02 1.241478547453880310e-01 6.361491233110427856e-02 1.056471616029739380e-01
1.841000000000000000e+03 5.296284103393554688e+01 3.232202529907226562e+01 -9.549469947814941406e-01 -2.537216842174530029e-01 -3.626005947589874268e-01 -6.722882390022277832e-01
1.842000000000000000e+03 4.444079589843750000e+01 2.440425872802734375e+01 -1.429899334907531738e+00 -1.314057469367980957e+00 -8.231869935989379883e-01 -1.323510408401489258e+00
1.843000000000000000e+03 3.316226959228515625e+01 2.428856086730957031e+01 8.908026665449142456e-02 1.248449981212615967e-01 6.417758017778396606e-02 1.072717607021331787e-01
1.844000000000000000e+03 2.109673500061035156e+01 1.204413127899169922e+01 1.829431056976318359e-01 2.272214442491531372e-01 1.230493634939193726e-01 2.029647231101989746e-01
1.845000000000000000e+03 2.083089256286621094e+01 1.176160049438476562e+01 1.851042658090591431e-01 2.298474013805389404e-01 1.244855001568794250e-01 2.050985842943191528e-01
1.846000000000000000e+03 3.501653289794921875e+01 2.633136558532714844e+01 8.683750033378601074e-02 1.243803799152374268e-01 6.336536258459091187e-02 1.044926568865776062e-01
1.847000000000000000e+03 3.475767517089843750e+01 2.603943252563476562e+01 8.738656342029571533e-02 1.253492236137390137e-01 6.382073462009429932e-02 1.038404554128646851e-01
1.848000000000000000e+03 3.711660385131835938e+01 2.922030448913574219e+01 9.204723685979843140e-02 1.147974431514739990e-01 6.205340474843978882e-02 9.754890203475952148e-02
1.849000000000000000e+03 2.216188812255859375e+01 1.317028141021728516e+01 1.809750497341156006e-01 2.118317186832427979e-01 1.178420335054397583e-01 1.924856007099151611e-01
1.850000000000000000e+03 2.299245452880859375e+01 1.400952720642089844e+01 1.766146421432495117e-01 2.042422294616699219e-01 1.142570599913597107e-01 1.831016540527343750e-01
1.851000000000000000e+03 3.042656135559082031e+01 2.140402603149414062e+01 1.094665452837944031e-01 1.302834600210189819e-01 7.192499935626983643e-02 1.195822805166244507e-01
1.852000000000000000e+03 5.137404632568359375e+01 3.090905761718750000e+01 -1.142416238784790039e+00 -6.986737251281738281e-01 -5.523269772529602051e-01 -9.138495922088623047e-01
1.853000000000000000e+03 2.371586608886718750e+01 1.487874317169189453e+01 1.615488678216934204e-01 1.918403655290603638e-01 1.060167700052261353e-01 1.748454421758651733e-01
1.854000000000000000e+03 2.325352478027343750e+01 1.429058742523193359e+01 1.730936467647552490e-01 2.008657604455947876e-01 1.121878176927566528e-01 1.797196269035339355e-01
1.855000000000000000e+03 3.372951126098632812e+01 1.293050956726074219e+01 -1.253318667411804199e+00 -1.395807027816772461e+00 -7.947376966476440430e-01 -1.295591115951538086e+00
1.856000000000000000e+03 1.670269203186035156e+01 7.801439762115478516e+00 2.194120883941650391e-01 3.476529121398925781e-01 1.701195091009140015e-01 2.832218110561370850e-01
1.857000000000000000e+03 3.670782089233398438e+01 2.849212455749511719e+01 9.383974224328994751e-02 1.192747130990028381e-01 6.393433362245559692e-02 9.943094849586486816e-02
1.858000000000000000e+03 3.660520553588867188e+01 2.763028717041015625e+01 9.629088640213012695e-02 1.237430274486541748e-01 6.601017713546752930e-02 1.041671782732009888e-01
1.859000000000000000e+03 3.121515464782714844e+01 2.227021408081054688e+01 9.705801308155059814e-02 1.246829032897949219e-01 6.652227044105529785e-02 1.168018579483032227e-01
1.860000000000000000e+03 3.095592117309570312e+01 2.198059844970703125e+01 1.003149673342704773e-01 1.269824653863906860e-01 6.818923354148864746e-02 1.172978058457374573e-01
1.861000000000000000e+03 5.199025344848632812e+01 3.145319175720214844e+01 -1.078688859939575195e+00 -5.364112854003906250e-01 -4.845300316810607910e-01 -8.155453205108642578e-01
1.862000000000000000e+03 5.262918853759765625e+01 3.202503585815429688e+01 -1.002861499786376953e+00 -3.404766917228698730e-01 -4.030014574527740479e-01 -7.212632894515991211e-01
1.863000000000000000e+03 3.288572692871093750e+01 2.400115013122558594e+01 9.026413410902023315e-02 1.240211725234985352e-01 6.428559124469757080e-02 1.070853099226951599e-01
1.864000000000000000e+03 5.167982101440429688e+01 3.117805862426757812e+01 -1.112228989601135254e+00 -6.252497434616088867e-01 -5.212436318397521973e-01 -8.638965487480163574e-01
1.865000000000000000e+03 5.160593414306640625e+01 3.056163787841796875e+01 -1.200302004814147949e+00 -5.879800319671630859e-01 -5.364845991134643555e-01 -9.022913575172424316e-01
1.866000000000000000e+03 3.112444114685058594e+01 1.047594642639160156e+01 -1.426254630088806152e+00 -1.290081024169921875e+00 -8.149006962776184082e-01 -1.289079427719116211e+00
1.867000000000000000e+03 3.544303512573242188e+01 2.742600822448730469e+01 8.947201818227767944e-02 1.201514080166816711e-01 6.288702785968780518e-02 1.022014990448951721e-01
1.868000000000000000e+03 1.886953163146972656e+01 9.845584869384765625e+00 2.025323957204818726e-01 2.707160413265228271e-01 1.419745236635208130e-01 2.323001623153686523e-01
1.869000000000000000e+03 3.019358444213867188e+01 5.613040924072265625e+00 -1.710773468017578125e+00 -9.261850118637084961e-01 -7.910875678062438965e-01 -9.965704083442687988e-01
1.870000000000000000e+03 2.964530754089355469e+01 5.284234523773193359e+00 -1.903871178627014160e+00 -1.009304523468017578e+00 -8.739527463912963867e-01 -9.518585205078125000e-01
1.871000000000000000e+03 4.746723937988281250e+01 3.678758621215820312e+01 2.098398655652999878e-01 8.590089529752731323e-02 8.872222900390625000e-02 1.161665990948677063e-01
1.872000000000000000e+03 4.465387344360351562e+01 3.935617828369140625e+01 1.985526382923126221e-01 4.939031600952148438e-02 7.438288629055023193e-02 4.999209567904472351e-02
1.873000000000000000e+03 4.796745300292968750e+01 3.859828567504882812e+01 2.523062229156494141e-01 5.053076893091201782e-02 9.085109829902648926e-02 7.751126587390899658e-02
1.874000000000000000e+03 7.374711608886718750e+01 3.695505905151367188e+01 4.871819913387298584e-01 4.013479232788085938e+00 1.350198388099670410e+00 -1.523872613906860352e+00
1.875000000000000000e+03 1.497623825073242188e+01 5.687853336334228516e+00 2.624603211879730225e-01 5.680074691772460938e-01 2.491403371095657349e-01 3.742908537387847900e-01
1.876000000000000000e+03 1.599938583374023438e+01 6.840136528015136719e+00 2.468892186880111694e-01 4.292622804641723633e-01 2.028454393148422241e-01 2.987230122089385986e-01
1.877000000000000000e+03 1.575129985809326172e+01 6.540762424468994141e+00 2.551560997962951660e-01 4.428254663944244385e-01 2.093944698572158813e-01 3.131852149963378906e-01
1.878000000000000000e+03 1.406558513641357422e+01 4.904797077178955078e+00 1.923158019781112671e-01 9.849579930305480957e-01 3.531821370124816895e-01 3.392666280269622803e-01
1.879000000000000000e+03 5.403630447387695312e+01 3.901647567749023438e+01 3.646515607833862305e-01 1.825571805238723755e-02 1.148721873760223389e-01 -4.028487578034400940e-02
1.880000000000000000e+03 5.473522949218750000e+01 3.837835693359375000e+01 2.395501583814620972e-01 -1.029429864138364792e-02 6.877675652503967285e-02 -7.514581829309463501e-02
1.881000000000000000e+03 1.248851108551025391e+01 3.448299169540405273e+00 7.492680549621582031e-01 7.519808411598205566e-01 4.503746628761291504e-01 -4.746505618095397949e-01
1.882000000000000000e+03 1.370426654815673828e+01 4.005731582641601562e+00 3.132610321044921875e-01 1.589809417724609375e+00 5.709211230278015137e-01 1.997152268886566162e-01
1.883000000000000000e+03 5.365947341918945312e+01 3.947063446044921875e+01 3.970220685005187988e-01 5.566234141588211060e-02 1.358053237199783325e-01 1.438019890338182449e-02
1.884000000000000000e+03 5.352282714843750000e+01 3.886641311645507812e+01 4.688527584075927734e-01 7.925412058830261230e-02 1.644320636987686157e-01 -6.161617115139961243e-02
1.885000000000000000e+03 1.148720550537109375e+01 2.093718290328979492e+00 4.601606428623199463e-01 -4.390007853507995605e-01 6.347954273223876953e-03 3.563522398471832275e-01
1.886000000000000000e+03 5.555120849609375000e+01 3.785237503051757812e+01 1.622216254472732544e-01 -4.051220044493675232e-02 3.651282936334609985e-02 -4.926404729485511780e-02
1.887000000000000000e+03 5.643281173706054688e+01 3.787618255615234375e+01 1.691284626722335815e-01 -7.278677821159362793e-02 2.890250273048877716e-02 2.098328201100230217e-03
1.888000000000000000e+03 1.313090419769287109e+01 3.144424915313720703e+00 7.173953056335449219e-01 1.749635457992553711e+00 7.401092052459716797e-01 -4.839682877063751221e-01
1.889000000000000000e+03 5.371130752563476562e+01 3.293788528442382812e+01 -8.908079862594604492e-01 -6.672104448080062866e-02 -2.872587144374847412e-01 -5.590073466300964355e-01
1.890000000000000000e+03 5.204238510131835938e+01 3.933988189697265625e+01 4.574139416217803955e-01 8.975879102945327759e-02 1.641518175601959229e-01 -6.214128807187080383e-03
1.891000000000000000e+03 7.098294067382812500e+01 3.679335021972656250e+01 -1.267978250980377197e-01 4.591070115566253662e-01 9.969275444746017456e-02 2.897441685199737549e-01
1.892000000000000000e+03 7.281757354736328125e+01 3.095767784118652344e+01 -1.295792579650878906e+00 1.618418812751770020e+00 9.678786993026733398e-02 1.476326584815979004e+00
1.893000000000000000e+03 7.086774444580078125e+01 3.103335380554199219e+01 -2.278783321380615234e+00 3.740620315074920654e-01 -5.714163780212402344e-01 1.792995035648345947e-01
1.894000000000000000e+03 1.026096439361572266e+01 -2.836432218551635742e+00 -3.633941411972045898e-01 -3.703259676694869995e-02 -1.201280206441879272e-01 -1.793970018625259399e-01
1.895000000000000000e+03 4.654483795166015625e+01 3.606958389282226562e+01 1.460919231176376343e-01 7.465821504592895508e-02 6.622503697872161865e-02 1.029952839016914368e-01
1.896000000000000000e+03 5.867690658569335938e+01 3.848266983032226562e+01 1.994009912014007568e-01 -1.488628238439559937e-01 1.516145095229148865e-02 1.223292499780654907e-01
1.897000000000000000e+03 5.471497726440429688e+01 3.896427917480468750e+01 3.167863190174102783e-01 -2.451496385037899017e-02 8.768140524625778198e-02 -4.317340999841690063e-02
1.898000000000000000e+03 7.856032371520996094e+00 3.149645328521728516e+00 -1.893312111496925354e-02 -2.310106009244918823e-01 -7.498311996459960938e-02 3.221004009246826172e-01
1.899000000000000000e+03 7.159700393676757812e+00 3.211195707321166992e+00 -4.596420004963874817e-02 -1.788566112518310547e-01 -6.744624674320220947e-02 2.860318720340728760e-01
1.900000000000000000e+03 5.904457569122314453e+00 4.043322086334228516e+00 7.335639093071222305e-03 -1.566617339849472046e-01 -4.479783028364181519e-02 2.196855396032333374e-01
1.901000000000000000e+03 5.618167400360107422e+00 2.598057746887207031e+00 -1.258702874183654785e-01 -9.024873375892639160e-02 -6.483570486307144165e-02 2.111508250236511230e-01
1.902000000000000000e+03 3.474683284759521484e+00 2.899497747421264648e+00 -5.587472394108772278e-02 -7.071492075920104980e-02 -3.797689452767372131e-02 1.282867938280105591e-01
1.903000000000000000e+03 4.194055080413818359e+00 2.754390716552734375e+00 -7.811316847801208496e-02 -7.274621725082397461e-02 -4.525781422853469849e-02 1.522352248430252075e-01
1.904000000000000000e+03 5.764886856079101562e+00 3.318016290664672852e+00 -5.858194455504417419e-02 -1.240676045417785645e-01 -5.479486659169197083e-02 2.248711884021759033e-01
1.905000000000000000e+03 9.996604919433593750e+00 2.332811594009399414e+00 1.225406397134065628e-02 -4.246325492858886719e-01 -1.237135455012321472e-01 4.655200839042663574e-01
1.906000000000000000e+03 6.460655212402343750e+00 3.263203620910644531e+00 -5.788626521825790405e-02 -1.507745385169982910e-01 -6.259823590517044067e-02 2.568430602550506592e-01
1.907000000000000000e+03 4.389892578125000000e+00 3.515947103500366211e+00 -4.194228723645210266e-02 -1.024212166666984558e-01 -4.330905154347419739e-02 1.711227744817733765e-01
1.908000000000000000e+03 1.073023891448974609e+01 2.168079137802124023e+00 1.338984817266464233e-01 -4.795148074626922607e-01 -1.036849021911621094e-01 4.508525133132934570e-01
1.909000000000000000e+03 9.247869491577148438e+00 3.063293457031250000e+00 1.292094290256500244e-01 -3.387075960636138916e-01 -6.284945458173751831e-02 3.325988948345184326e-01
1.910000000000000000e+03 1.104926586151123047e+01 -3.696754693984985352e+00 -4.663172364234924316e-01 -9.265249967575073242e-02 -1.676909178495407104e-01 -2.992411851882934570e-01
1.911000000000000000e+03 1.418552398681640625e+01 -3.179394006729125977e+00 -8.837864995002746582e-01 -2.004111707210540771e-01 -3.252592980861663818e-01 -5.110029578208923340e-01
1.912000000000000000e+03 6.873419189453125000e+01 3.036580467224121094e+01 -2.098788738250732422e+00 1.665189266204833984e-01 -5.796809196472167969e-01 -2.525424063205718994e-01
1.913000000000000000e+03 6.760891723632812500e+01 3.155519866943359375e+01 -3.428074359893798828e+00 -5.022353678941726685e-02 -1.043489336967468262e+00 -4.785169959068298340e-01
1.914000000000000000e+03 6.745367431640625000e+01 3.093523025512695312e+01 -2.783342123031616211e+00 -1.072740368545055389e-02 -8.382208943367004395e-01 -4.904707372188568115e-01
1.915000000000000000e+03 5.851529312133789062e+01 3.230560302734375000e+01 -1.937126517295837402e+00 1.399363428354263306e-01 -5.391570329666137695e-01 -5.638306736946105957e-01
1.916000000000000000e+03 5.984696197509765625e+01 3.143893432617187500e+01 -2.083632946014404297e+00 1.283175945281982422e-01 -5.865946412086486816e-01 -6.974845528602600098e-01
1.917000000000000000e+03 5.702886962890625000e+01 3.258411788940429688e+01 -1.601560354232788086e+00 1.563948243856430054e-01 -4.335496723651885986e-01 -5.647160410881042480e-01
1.918000000000000000e+03 5.835852432250976562e+01 3.169932556152343750e+01 -1.851591229438781738e+00 1.651696860790252686e-01 -5.059264302253723145e-01 -6.925526857376098633e-01
1.919000000000000000e+03 1.356685543060302734e+01 5.524194717407226562e+00 1.370097696781158447e-01 8.543786406517028809e-01 2.974165380001068115e-01 1.237883418798446655e-01
1.920000000000000000e+03 7.024490356445312500e+01 3.101021575927734375e+01 -2.470793247222900391e+00 2.367889434099197388e-01 -6.702012419700622559e-01 -3.066296875476837158e-02
1.921000000000000000e+03 6.958426666259765625e+01 3.099288749694824219e+01 -2.610548257827758789e+00 1.363497823476791382e-01 -7.422595620155334473e-01 -1.906346380710601807e-01
1.922000000000000000e+03 6.212198257446289062e+01 3.119058609008789062e+01 -2.414233446121215820e+00 6.202044710516929626e-02 -7.056638598442077637e-01 -6.793504357337951660e-01
1.923000000000000000e+03 6.456402587890625000e+01 3.165562820434570312e+01 -3.114385604858398438e+00 -1.205386780202388763e-02 -9.379318356513977051e-01 -5.406066179275512695e-01
1.924000000000000000e+03 6.669916534423828125e+01 3.093641471862792969e+01 -2.789170503616333008e+00 -1.885998621582984924e-02 -8.424091935157775879e-01 -5.471640825271606445e-01
1.925000000000000000e+03 6.517179107666015625e+01 3.098640251159667969e+01 -2.729058504104614258e+00 -8.655246347188949585e-03 -8.213140964508056641e-01 -6.202967762947082520e-01
1.926000000000000000e+03 6.593552398681640625e+01 3.095460700988769531e+01 -2.765290260314941406e+00 -1.294543128460645676e-02 -8.334707617759704590e-01 -5.906320810317993164e-01
1.927000000000000000e+03 3.100431823730468750e+01 8.509591102600097656e+00 -1.248059391975402832e+00 -1.206743717193603516e+00 -7.364408969879150391e-01 -1.060617089271545410e+00
1.928000000000000000e+03 3.127460479736328125e+01 7.261142730712890625e+00 -1.245695710182189941e+00 -1.102077484130859375e+00 -7.043319940567016602e-01 -1.118962764739990234e+00
1.929000000000000000e+03 3.115223693847656250e+01 6.233854770660400391e+00 -1.397099494934082031e+00 -9.481397867202758789e-01 -7.035717964172363281e-01 -1.035377025604248047e+00
1.930000000000000000e+03 5.746028137207031250e+01 3.125476074218750000e+01 -1.676808595657348633e+00 1.901722997426986694e-01 -4.459908902645111084e-01 -7.839157581329345703e-01
1.931000000000000000e+03 5.909869003295898438e+01 3.155894088745117188e+01 -1.971128463745117188e+00 1.483726799488067627e-01 -5.468267202377319336e-01 -6.989307999610900879e-01
1.932000000000000000e+03 5.690293884277343750e+01 3.201871109008789062e+01 -1.602019667625427246e+00 1.776861399412155151e-01 -4.273000657558441162e-01 -6.755555868148803711e-01
1.933000000000000000e+03 6.364408493041992188e+01 3.107658195495605469e+01 -2.599736690521240234e+00 2.236801385879516602e-02 -7.732105851173400879e-01 -6.557202339172363281e-01
1.934000000000000000e+03 4.442882919311523438e+01 3.685927963256835938e+01 1.678866744041442871e-01 6.118820980191230774e-02 6.872246414422988892e-02 8.451443910598754883e-02
1.935000000000000000e+03 4.549810028076171875e+01 3.644718170166015625e+01 1.644722521305084229e-01 6.332311034202575684e-02 6.833861023187637329e-02 9.782288968563079834e-02
1.936000000000000000e+03 6.060314559936523438e+01 3.133947372436523438e+01 -2.198602437973022461e+00 1.057279333472251892e-01 -6.278623342514038086e-01 -6.959774494171142578e-01
1.937000000000000000e+03 1.592953014373779297e+01 -3.145025014877319336e+00 -1.193248033523559570e+00 -6.348431706428527832e-01 -5.484273433685302734e-01 -8.120554685592651367e-01
1.938000000000000000e+03 8.799080848693847656e+00 -3.574751615524291992e+00 -2.852001488208770752e-01 -3.586399555206298828e-02 -9.631924331188201904e-02 -1.885502338409423828e-01
1.939000000000000000e+03 5.538719177246093750e+00 -2.819436311721801758e+00 -9.161579608917236328e-02 -3.402383625507354736e-02 -3.769189119338989258e-02 -6.278816610574722290e-02
1.940000000000000000e+03 7.256926059722900391e+00 -3.606494426727294922e+00 -1.910409182310104370e-01 -4.222194105386734009e-02 -6.997885555028915405e-02 -1.402883827686309814e-01
1.941000000000000000e+03 4.736992835998535156e+00 -2.860180377960205078e+00 -7.085312157869338989e-02 -2.744732983410358429e-02 -2.949013561010360718e-02 -4.779168218374252319e-02
1.942000000000000000e+03 6.470351219177246094e+00 -3.649835109710693359e+00 -1.489666700363159180e-01 -5.601627007126808167e-02 -6.149488314986228943e-02 -1.186225563287734985e-01
1.943000000000000000e+03 5.679893970489501953e+00 -3.704278707504272461e+00 -1.208330318331718445e-01 -4.797823354601860046e-02 -5.064338073134422302e-02 -9.913410991430282593e-02
1.944000000000000000e+03 2.318971395492553711e+00 -3.148042678833007812e+00 -2.376241236925125122e-02 -2.150203846395015717e-02 -1.357933506369590759e-02 -1.338758599013090134e-02
1.945000000000000000e+03 3.778023958206176758e+00 -8.062728881835937500e+00 -5.333226919174194336e-02 -2.033803462982177734e-01 -7.701378315687179565e-02 -1.767228692770004272e-01
1.946000000000000000e+03 1.626577496528625488e+00 -5.380274295806884766e+00 -1.527374796569347382e-02 -4.981876909732818604e-02 -1.952775567770004272e-02 -3.494274988770484924e-02
1.947000000000000000e+03 5.290833282470703125e+01 3.164271545410156250e+01 -1.124541640281677246e+00 -2.487042099237442017e-01 -4.119737744331359863e-01 -7.553330063819885254e-01
1.948000000000000000e+03 5.488808441162109375e+01 3.244739151000976562e+01 -1.214253544807434082e+00 8.871189504861831665e-02 -3.376625180244445801e-01 -6.358565688133239746e-01
1.949000000000000000e+03 1.035416221618652344e+01 3.550510644912719727e+00 4.307523369789123535e-01 -2.687618136405944824e-01 4.859715700149536133e-02 1.079282462596893311e-01
1.950000000000000000e+03 2.890140151977539062e+01 9.342463493347167969e+00 -2.091090202331542969e+00 -1.232768893241882324e+00 -9.971577525138854980e-01 -1.576287984848022461e+00
1.951000000000000000e+03 2.955416297912597656e+01 8.965227127075195312e+00 -1.716384649276733398e+00 -1.010721325874328613e+00 -8.181318044662475586e-01 -9.902856945991516113e-01
1.952000000000000000e+03 1.343845367431640625e+01 -4.737829685211181641e+00 -6.697004437446594238e-01 -3.420863151550292969e-01 -3.035360276699066162e-01 -6.118963956832885742e-01
1.953000000000000000e+03 1.339805698394775391e+01 -3.921959161758422852e+00 -7.285089492797851562e-01 -1.917018741369247437e-01 -2.760632336139678955e-01 -5.212088823318481445e-01
1.954000000000000000e+03 1.180778884887695312e+01 -3.771075725555419922e+00 -5.528146624565124512e-01 -7.301699370145797729e-02 -1.877494901418685913e-01 -3.547081053256988525e-01
1.955000000000000000e+03 1.258554172515869141e+01 -3.850117921829223633e+00 -6.460460424423217773e-01 -1.672592014074325562e-01 -2.439915686845779419e-01 -4.312317967414855957e-01
1.956000000000000000e+03 1.820690727233886719e+01 -5.670727729797363281e+00 -1.104597151279449463e-01 -2.014686822891235352e+00 -6.375439763069152832e-01 -5.373260974884033203e-01
1.957000000000000000e+03 2.253574562072753906e+01 -9.961141943931579590e-01 1.346534132957458496e+00 1.324525475502014160e+00 8.013178706169128418e-01 -1.108267664909362793e+00
1.958000000000000000e+03 1.966253852844238281e+01 -1.546924591064453125e+00 -2.178143978118896484e+00 -5.743823051452636719e+00 -2.376590013504028320e+00 -3.205471754074096680e+00
1.959000000000000000e+03 3.480553054809570312e+01 -1.269274330139160156e+01 2.460544854402542114e-01 -3.937408328056335449e-01 -4.430590569972991943e-02 -6.265665404498577118e-03
1.960000000000000000e+03 3.980537033081054688e+01 -2.118611145019531250e+01 -7.741348445415496826e-02 -4.498948454856872559e-01 -1.581925004720687866e-01 2.286865860223770142e-01
1.961000000000000000e+03 5.956570053100585938e+01 3.798263168334960938e+01 1.270002126693725586e-01 -1.504858732223510742e-01 -7.045696489512920380e-03 1.357037574052810669e-01
1.962000000000000000e+03 7.170939636230468750e+01 3.654572677612304688e+01 -2.505967319011688232e-01 4.548793733119964600e-01 6.128478795289993286e-02 2.073625028133392334e-01
1.963000000000000000e+03 2.351296234130859375e+01 -2.042807006835937500e+01 1.638385206460952759e-01 2.342257499694824219e-01 1.194192841649055481e-01 -2.720574736595153809e-01
1.964000000000000000e+03 2.923006248474121094e+01 -6.745475769042968750e+00 6.919149160385131836e-01 2.306371778249740601e-01 2.767656147480010986e-01 -4.759723246097564697e-01
1.965000000000000000e+03 2.973004722595214844e+01 -3.861783981323242188e+00 7.428418397903442383e-01 -2.952513098716735840e-01 1.342771500349044800e-01 -2.257364094257354736e-01
1.966000000000000000e+03 2.458042335510253906e+01 -2.285459518432617188e+01 1.761052906513214111e-01 3.233210146427154541e-01 1.498278975486755371e-01 -2.938679158687591553e-01
1.967000000000000000e+03 3.302808380126953125e+01 -1.232020282745361328e+01 1.800020039081573486e-01 -2.874479889869689941e-01 -3.223379701375961304e-02 -6.225748453289270401e-03
1.968000000000000000e+03 3.561728668212890625e+01 -1.383237457275390625e+01 1.584969758987426758e-01 -4.252160191535949707e-01 -8.001571148633956909e-02 2.855754457414150238e-02
1.969000000000000000e+03 3.266104888916015625e+01 -3.561387634277343750e+01 5.025840401649475098e-01 5.582148432731628418e-01 3.182396888732910156e-01 -4.523381292819976807e-01
1.970000000000000000e+03 2.293206214904785156e+01 -2.219383049011230469e+01 1.797942072153091431e-01 1.819270402193069458e-01 1.085163727402687073e-01 -2.857393026351928711e-01
1.971000000000000000e+03 2.376857185363769531e+01 -2.476726722717285156e+01 1.984611898660659790e-01 2.486598491668701172e-01 1.341363042593002319e-01 -2.966326773166656494e-01
1.972000000000000000e+03 2.266907119750976562e+01 -1.631176185607910156e+01 1.436966210603713989e-01 1.725764572620391846e-01 9.488192200660705566e-02 -2.201277464628219604e-01
1.973000000000000000e+03 4.196048080921173096e-01 3.593495368957519531e+00 -3.811238799244165421e-03 -7.855859398841857910e-02 -2.471094951033592224e-02 2.064949646592140198e-02
1.974000000000000000e+03 2.504555892944335938e+01 -2.225114822387695312e+00 1.199396014213562012e+00 5.367200374603271484e-01 5.208348035812377930e-01 -9.427755475044250488e-01
1.975000000000000000e+03 2.745111846923828125e+01 -3.595970153808593750e+00 1.058223247528076172e+00 8.396410942077636719e-02 3.426562249660491943e-01 -5.968358516693115234e-01
1.976000000000000000e+03 4.102462387084960938e+01 -2.356147766113281250e+01 -1.244558617472648621e-01 -4.287696182727813721e-01 -1.659676432609558105e-01 2.593180537223815918e-01
1.977000000000000000e+03 3.169043540954589844e+01 -8.279051780700683594e+00 6.072802543640136719e-01 -2.190421670675277710e-01 1.164714246988296509e-01 -2.512626051902770996e-01
1.978000000000000000e+03 2.761050796508789062e+01 -2.929442977905273438e+01 2.837346792221069336e-01 4.887226223945617676e-01 2.317371964454650879e-01 -3.461694419384002686e-01
1.979000000000000000e+03 2.751192474365234375e+01 -2.598711776733398438e+01 1.889180243015289307e-01 5.442463159561157227e-01 2.199493050575256348e-01 -3.316779434680938721e-01
1.980000000000000000e+03 4.373315811157226562e+01 -2.791284942626953125e+01 -1.830762922763824463e-01 -2.365346103906631470e-01 -1.258832663297653198e-01 2.446350902318954468e-01
1.981000000000000000e+03 3.712551498413085938e+01 -1.623362541198730469e+01 6.569219380617141724e-02 -4.580279588699340820e-01 -1.177007332444190979e-01 1.094025224447250366e-01
1.982000000000000000e+03 4.226763153076171875e+01 -2.581746673583984375e+01 -1.627715229988098145e-01 -3.717955350875854492e-01 -1.603701114654541016e-01 2.712602019309997559e-01
1.983000000000000000e+03 4.066376113891601562e+01 -2.539191436767578125e+01 -2.105540335178375244e-01 -5.600819587707519531e-01 -2.311908006668090820e-01 3.415864706039428711e-01
1.984000000000000000e+03 4.317640686035156250e+01 -2.512906837463378906e+01 -1.055217385292053223e-01 -1.918714940547943115e-01 -8.921796828508377075e-02 2.201579660177230835e-01
1.985000000000000000e+03 3.741016769409179688e+01 -1.942662620544433594e+01 -9.054977446794509888e-02 -5.569232106208801270e-01 -1.942418962717056274e-01 2.615139186382293701e-01
1.986000000000000000e+03 1.945325469970703125e+01 -1.356579399108886719e+01 1.936656087636947632e-01 -2.878930568695068359e-01 -2.826823666691780090e-02 -2.196070700883865356e-01
1.987000000000000000e+03 2.020221900939941406e+01 -1.474718952178955078e+01 2.004703879356384277e-01 -1.090639755129814148e-01 2.742192335426807404e-02 -1.864555180072784424e-01
1.988000000000000000e+03 3.030774497985839844e+01 -4.671553134918212891e+00 8.088406920433044434e-01 -2.917503714561462402e-01 1.551271080970764160e-01 -2.300962209701538086e-01
1.989000000000000000e+03 1.513225650787353516e+01 -6.905780315399169922e+00 -3.374381363391876221e-01 -8.119549155235290527e-01 -3.448179066181182861e-01 -7.724717855453491211e-01
1.990000000000000000e+03 3.872236251831054688e+01 -2.185885429382324219e+01 -1.322600096464157104e-01 -5.680207014083862305e-01 -2.100842148065567017e-01 3.241294026374816895e-01
1.991000000000000000e+03 3.807432937622070312e+01 -2.064937019348144531e+01 -1.343246549367904663e-01 -5.655937194824218750e-01 -2.099755108356475830e-01 2.806576192378997803e-01
1.992000000000000000e+03 7.955236816406250000e+01 3.069062805175781250e+01 -2.464815378189086914e-01 1.471863842010498047e+01 4.341647148132324219e+00 -7.263125777244567871e-01
1.993000000000000000e+03 7.699772644042968750e+01 3.122602272033691406e+01 -2.958247900009155273e+00 1.596675586700439453e+01 3.902552366256713867e+00 1.763713121414184570e+00
1.994000000000000000e+03 7.271194458007812500e+01 -3.617516708374023438e+01 2.201426215469837189e-02 3.889267206192016602e+00 1.173384428024291992e+00 6.593685597181320190e-02
1.995000000000000000e+03 7.472695922851562500e+01 -3.190754508972167969e+01 6.340957712382078171e-03 4.201192378997802734e+00 1.262260079383850098e+00 6.593409180641174316e-02
1.996000000000000000e+03 7.727498626708984375e+01 -3.492454910278320312e+01 -6.528328638523817062e-03 4.472715854644775391e+00 1.339856266975402832e+00 3.261924535036087036e-02
1.997000000000000000e+03 7.525022888183593750e+01 -2.131761360168457031e+01 7.092426531016826630e-03 4.427241325378417969e+00 1.330300211906433105e+00 1.015451848506927490e-01
1.998000000000000000e+03 7.790546417236328125e+01 -2.802901649475097656e+01 2.084367442876100540e-03 4.634805202484130859e+00 1.391066789627075195e+00 3.603066131472587585e-02
1.999000000000000000e+03 7.835093688964843750e+01 1.930859375000000000e+01 5.245920643210411072e-02 9.016609191894531250e+00 2.720720529556274414e+00 6.099070310592651367e-01
2.000000000000000000e+03 7.615621185302734375e+01 1.905622291564941406e+01 2.334041297435760498e-01 7.524962425231933594e+00 2.327509880065917969e+00 1.169265508651733398e+00
2.001000000000000000e+03 7.659504699707031250e+01 -2.260821533203125000e+01 4.355182405561208725e-03 4.575484752655029297e+00 1.373951911926269531e+00 7.236915826797485352e-02
2.002000000000000000e+03 7.647421264648437500e+01 -2.943601417541503906e+01 2.771967090666294098e-03 4.437398433685302734e+00 1.332051157951354980e+00 5.629381909966468811e-02
2.003000000000000000e+03 7.550009918212890625e+01 4.082864761352539062e+01 7.146449089050292969e-01 9.380570411682128906e+00 3.028564691543579102e+00 1.320529282093048096e-01
2.004000000000000000e+03 7.545841217041015625e+01 -3.486189651489257812e+01 -1.400325330905616283e-03 4.237672328948974609e+00 1.270881652832031250e+00 3.906491026282310486e-02
2.005000000000000000e+03 7.647739410400390625e+01 -2.814380264282226562e+01 5.996638443320989609e-03 4.462136745452880859e+00 1.340440034866333008e+00 5.798954516649246216e-02
2.006000000000000000e+03 7.522693634033203125e+01 -2.271985626220703125e+01 8.190258406102657318e-03 4.399790287017822266e+00 1.322394132614135742e+00 9.911148995161056519e-02
2.007000000000000000e+03 7.651281738281250000e+01 -2.678721427917480469e+01 4.735476803034543991e-03 4.483435153961181641e+00 1.346451282501220703e+00 6.180694326758384705e-02
2.008000000000000000e+03 7.658061981201171875e+01 -2.400146865844726562e+01 4.634338431060314178e-03 4.546361446380615234e+00 1.365298748016357422e+00 6.940901279449462891e-02
2.009000000000000000e+03 7.618748474121093750e+01 -3.204906082153320312e+01 1.317373663187026978e-02 4.367221355438232422e+00 1.314118623733520508e+00 5.089339986443519592e-02
2.010000000000000000e+03 7.587855529785156250e+01 -3.342860794067382812e+01 3.319827839732170105e-03 4.305780410766601562e+00 1.292729973793029785e+00 4.729066416621208191e-02
2.011000000000000000e+03 7.649755096435546875e+01 -3.907733154296875000e+01 -1.651522144675254822e-02 4.343657970428466797e+00 1.298142790794372559e+00 1.837845891714096069e-02
2.012000000000000000e+03 7.832138061523437500e+01 2.199835205078125000e+01 6.203469261527061462e-02 1.004523468017578125e+01 3.032180786132812500e+00 8.056947588920593262e-01
2.013000000000000000e+03 7.595537567138671875e+01 2.398077011108398438e+01 3.015219867229461670e-01 8.224409103393554688e+00 2.557779550552368164e+00 1.797899603843688965e+00
2.014000000000000000e+03 7.705158996582031250e+01 2.431713485717773438e+01 1.880224645137786865e-01 9.639090538024902344e+00 2.948133945465087891e+00 1.565112829208374023e+00
2.015000000000000000e+03 7.718235015869140625e+01 1.383305072784423828e+01 7.703072577714920044e-02 7.094853878021240234e+00 2.151565313339233398e+00 5.842885971069335938e-01
2.016000000000000000e+03 7.829124450683593750e+01 1.249468994140625000e+01 2.630789950489997864e-02 7.246590137481689453e+00 2.181869506835937500e+00 3.293603062629699707e-01
2.017000000000000000e+03 7.495040893554687500e+01 1.383476924896240234e+01 2.113751322031021118e-01 6.167229175567626953e+00 1.913581252098083496e+00 8.940320611000061035e-01
2.018000000000000000e+03 7.686132049560546875e+01 2.550379753112792969e+01 9.104564040899276733e-02 9.702729225158691406e+00 2.938132524490356445e+00 1.724327325820922852e+00
2.019000000000000000e+03 7.720848846435546875e+01 1.517736244201660156e+01 8.619670569896697998e-02 7.352941513061523438e+00 2.231741428375244141e+00 6.524156928062438965e-01
2.020000000000000000e+03 7.796546936035156250e+01 -2.109428596496582031e+01 1.435807556845247746e-03 4.783072471618652344e+00 1.435352444648742676e+00 4.564580693840980530e-02
2.021000000000000000e+03 7.661035156250000000e+01 -2.121115303039550781e+01 4.527804907411336899e-03 4.606761932373046875e+00 1.383386969566345215e+00 7.576467096805572510e-02
2.022000000000000000e+03 7.515313720703125000e+01 5.362334847450256348e-02 5.535049736499786377e-02 5.146799564361572266e+00 1.560644984245300293e+00 3.421015143394470215e-01
2.023000000000000000e+03 7.791558837890625000e+01 -7.078083038330078125e+00 7.443534210324287415e-03 5.240695953369140625e+00 1.574441790580749512e+00 9.821632504463195801e-02
2.024000000000000000e+03 7.558599853515625000e+01 5.762215137481689453e+00 7.378319650888442993e-02 5.625658512115478516e+00 1.709832549095153809e+00 4.553364813327789307e-01
2.025000000000000000e+03 7.511573791503906250e+01 -7.244242191314697266e+00 3.503625839948654175e-02 4.795131683349609375e+00 1.449050426483154297e+00 2.186549454927444458e-01
2.026000000000000000e+03 7.799317169189453125e+01 -1.409513282775878906e+01 3.741839667782187462e-03 4.974878311157226562e+00 1.493586063385009766e+00 6.061681360006332397e-02
2.027000000000000000e+03 7.535518646240234375e+01 -1.429606819152832031e+01 1.752362400293350220e-02 4.599046230316162109e+00 1.384971022605895996e+00 1.368512511253356934e-01
2.028000000000000000e+03 7.720657348632812500e+01 2.178599739074707031e+01 1.616909801959991455e-01 9.000394821166992188e+00 2.748625755310058594e+00 1.214262962341308594e+00
2.029000000000000000e+03 7.857295989990234375e+01 2.958091545104980469e+01 -6.888502240180969238e-01 1.439200019836425781e+01 4.110945224761962891e+00 -3.706228453665971756e-03
2.030000000000000000e+03 7.815240478515625000e+01 6.987033367156982422e+00 1.673148013651371002e-02 6.377367973327636719e+00 1.918229937553405762e+00 2.268024682998657227e-01
2.031000000000000000e+03 7.692462921142578125e+01 7.039533615112304688e+00 4.228284582495689392e-02 6.084323883056640625e+00 1.837982058525085449e+00 3.671580553054809570e-01
2.032000000000000000e+03 7.792696380615234375e+01 -1.410622954368591309e+00 1.109973527491092682e-02 5.566960811614990234e+00 1.673418164253234863e+00 1.407768577337265015e-01
2.033000000000000000e+03 7.655534362792968750e+01 -1.408803701400756836e+00 2.596864849328994751e-02 5.323883056640625000e+00 1.604955554008483887e+00 2.311144769191741943e-01
2.034000000000000000e+03 7.655380249023437500e+01 -8.580039024353027344e+00 1.588330604135990143e-02 4.967676162719726562e+00 1.495067834854125977e+00 1.457272022962570190e-01
2.035000000000000000e+03 7.667243194580078125e+01 -1.559927272796630859e+01 7.600863464176654816e-03 4.748898029327392578e+00 1.426949620246887207e+00 9.318786114454269409e-02
2.036000000000000000e+03 7.841872406005859375e+01 3.635385894775390625e+01 -1.460687756538391113e+00 1.589980125427246094e+01 4.331733703613281250e+00 2.331331729888916016e+00
2.037000000000000000e+03 7.781291961669921875e+01 3.871638488769531250e+01 -1.281931877136230469e+00 1.419495391845703125e+01 3.873906612396240234e+00 -1.116149902343750000e+00
2.038000000000000000e+03 7.724925994873046875e+01 1.917818832397460938e+01 1.346256136894226074e-01 8.283444404602050781e+00 2.525421142578125000e+00 9.358859062194824219e-01
2.039000000000000000e+03 7.711122894287109375e+01 1.113335037231445312e+01 5.920045450329780579e-02 6.642033576965332031e+00 2.010370254516601562e+00 4.761595726013183594e-01
2.040000000000000000e+03 7.699903869628906250e+01 8.411379814147949219e+00 4.783932864665985107e-02 6.256367206573486328e+00 1.891261935234069824e+00 3.979597091674804688e-01
2.041000000000000000e+03 7.666770172119140625e+01 -1.419809913635253906e+01 9.833338670432567596e-03 4.787714958190917969e+00 1.439264535903930664e+00 1.006527170538902283e-01
2.042000000000000000e+03 7.652367401123046875e+01 -7.157697200775146484e+00 1.958474144339561462e-02 5.020439624786376953e+00 1.512007355690002441e+00 1.594422012567520142e-01
2.043000000000000000e+03 7.658303833007812500e+01 1.440105080604553223e+00 3.272798284888267517e-02 5.519165515899658203e+00 1.665567994117736816e+00 2.756448090076446533e-01
2.044000000000000000e+03 7.683734893798828125e+01 5.656651020050048828e+00 4.079756140708923340e-02 5.922230720520019531e+00 1.788908600807189941e+00 3.409421741962432861e-01
2.045000000000000000e+03 7.570853424072265625e+01 7.131806850433349609e+00 8.114715665578842163e-02 5.774226665496826172e+00 1.756612181663513184e+00 4.892816543579101562e-01
2.046000000000000000e+03 7.652111816406250000e+01 -5.735954284667968750e+00 2.141558937728404999e-02 5.084334373474121094e+00 1.531724929809570312e+00 1.769269704818725586e-01
2.047000000000000000e+03 7.655645751953125000e+01 -2.856336116790771484e+00 2.380547113716602325e-02 5.233834743499755859e+00 1.577292084693908691e+00 2.111534476280212402e-01
2.048000000000000000e+03 7.520892333984375000e+01 -1.409709811210632324e+00 4.864217340946197510e-02 5.064445972442626953e+00 1.533926486968994141e+00 3.112908005714416504e-01
2.049000000000000000e+03 7.662984466552734375e+01 -1.140366268157958984e+01 1.331936288625001907e-02 4.870471000671386719e+00 1.465137124061584473e+00 1.201903671026229858e-01
2.050000000000000000e+03 7.665376281738281250e+01 -1.280098438262939453e+01 1.124720554798841476e-02 4.828940868377685547e+00 1.452056407928466797e+00 1.097016632556915283e-01
2.051000000000000000e+03 7.659468841552734375e+01 -9.998439788818359375e+00 1.316450536251068115e-02 4.916073799133300781e+00 1.478771448135375977e+00 1.335584521293640137e-01
2.052000000000000000e+03 7.663064575195312500e+01 -1.981104660034179688e+01 3.989004530012607574e-03 4.639435768127441406e+00 1.393027424812316895e+00 7.861930131912231445e-02
2.053000000000000000e+03 7.666692352294921875e+01 -1.700376319885253906e+01 5.982063245028257370e-03 4.710620403289794922e+00 1.414980769157409668e+00 8.770121634006500244e-02
2.054000000000000000e+03 7.536495971679687500e+01 -1.569592380523681641e+01 1.453245338052511215e-02 4.562759876251220703e+00 1.373187661170959473e+00 1.278378218412399292e-01
2.055000000000000000e+03 7.257997131347656250e+01 3.702455902099609375e+01 4.578714668750762939e-01 1.644118309020996094e+00 6.305969357490539551e-01 -5.559151172637939453e-01
2.056000000000000000e+03 2.926815414428710938e+01 -3.212594985961914062e+01 3.789704442024230957e-01 5.336313843727111816e-01 2.737805545330047607e-01 -3.560505807399749756e-01
2.057000000000000000e+03 3.031427192687988281e+01 -3.100852012634277344e+01 3.485065996646881104e-01 6.657705903053283691e-01 3.042831718921661377e-01 -4.262234270572662354e-01
2.058000000000000000e+03 2.290704154968261719e+01 -1.929424858093261719e+01 1.787877529859542847e-01 2.070048749446868896e-01 1.157377883791923523e-01 -2.404403090476989746e-01
2.059000000000000000e+03 2.160391807556152344e+01 -1.705811500549316406e+01 1.857887953519821167e-01 8.279181271791458130e-02 8.057418465614318848e-02 -2.095066905021667480e-01
2.060000000000000000e+03 2.406822395324707031e+01 -2.161441802978515625e+01 1.829120516777038574e-01 2.963335812091827393e-01 1.437736898660659790e-01 -2.667385935783386230e-01
2.061000000000000000e+03 3.574253320693969727e+00 3.777537155151367188e+01 1.826548133976757526e-03 -1.535108536481857300e-01 -4.550529271364212036e-02 -2.283985028043389320e-03
2.062000000000000000e+03 1.966505050659179688e+00 2.756500816345214844e+01 -9.122604387812316418e-04 -1.924111694097518921e-01 -5.799702927470207214e-02 -1.018043980002403259e-02
2.063000000000000000e+03 3.643078088760375977e+00 3.031937408447265625e+01 -3.395512467250227928e-03 -1.511328220367431641e-01 -4.635850340127944946e-02 -1.204264443367719650e-02
2.064000000000000000e+03 3.256557464599609375e+00 2.746001625061035156e+01 -2.731213811784982681e-03 -1.653904765844345093e-01 -5.043650791049003601e-02 -1.475156284868717194e-02
2.065000000000000000e+03 5.525384426116943359e+00 3.356380462646484375e+01 -4.216361325234174728e-03 -1.126520410180091858e-01 -3.506052121520042419e-02 -1.166322920471429825e-02
2.066000000000000000e+03 3.804924726486206055e+00 3.186207771301269531e+01 -3.420393215492367744e-03 -1.446330249309539795e-01 -4.441602528095245361e-02 -1.068644411861896515e-02
2.067000000000000000e+03 3.435071468353271484e+00 2.886599922180175781e+01 -2.252844395115971565e-03 -1.576856225728988647e-01 -4.798154160380363464e-02 -1.358218863606452942e-02
2.068000000000000000e+03 3.132264375686645508e+00 2.606690216064453125e+01 -2.458180068060755730e-03 -1.722231060266494751e-01 -5.240438506007194519e-02 -1.630770601332187653e-02
2.069000000000000000e+03 3.670094251632690430e+00 3.522540664672851562e+01 -2.763349912129342556e-04 -1.437368541955947876e-01 -4.320395737886428833e-02 -6.253750529140233994e-03
2.070000000000000000e+03 6.067819595336914062e+00 2.824995231628417969e+01 -5.666608922183513641e-03 -1.029263287782669067e-01 -3.257787972688674927e-02 -1.767949759960174561e-02
2.071000000000000000e+03 4.736825466156005859e+00 -3.366481018066406250e+01 2.187147364020347595e-02 -1.080126047134399414e+00 -3.174763917922973633e-01 -7.593260705471038818e-02
2.072000000000000000e+03 3.594695568084716797e+00 -3.723333358764648438e+01 3.077817335724830627e-02 -1.198735356330871582e+00 -3.503871560096740723e-01 -3.336006775498390198e-02
2.073000000000000000e+03 4.145571231842041016e+00 -3.224586105346679688e+01 1.997763291001319885e-02 -1.107903957366943359e+00 -3.263778686523437500e-01 -7.984863966703414917e-02
2.074000000000000000e+03 2.121278285980224609e+00 -2.999456596374511719e+01 4.761790391057729721e-03 -1.219318985939025879e+00 -3.643671572208404541e-01 -5.455288663506507874e-02
2.075000000000000000e+03 3.278386116027832031e+00 -2.828566169738769531e+01 1.471096742898225784e-02 -1.087119340896606445e+00 -3.217225372791290283e-01 -9.873142093420028687e-02
2.076000000000000000e+03 3.220537185668945312e+00 -2.563413238525390625e+01 1.433941163122653961e-02 -1.013340830802917480e+00 -2.997004389762878418e-01 -1.213862150907516479e-01
2.077000000000000000e+03 1.769643783569335938e+00 2.196291351318359375e+01 -5.319938063621520996e-04 -2.275028973817825317e-01 -6.841046363115310669e-02 -1.458240393549203873e-02
2.078000000000000000e+03 2.993481874465942383e+00 2.330940437316894531e+01 -1.856916933320462704e-03 -1.859322637319564819e-01 -5.633675307035446167e-02 -1.950171589851379395e-02
2.079000000000000000e+03 2.786672353744506836e+00 -1.064191055297851562e+01 -1.713266596198081970e-02 -3.060641288757324219e-01 -9.695903956890106201e-02 -1.697165966033935547e-01
2.080000000000000000e+03 3.008710384368896484e+00 -1.738513565063476562e+01 1.100304257124662399e-02 -6.794322133064270020e-01 -2.005287557840347290e-01 -1.859264075756072998e-01
2.081000000000000000e+03 1.734388589859008789e+00 -1.478277397155761719e+01 1.721346867270767689e-03 -5.466161966323852539e-01 -1.634684503078460693e-01 -1.222044602036476135e-01
2.082000000000000000e+03 2.899081945419311523e+00 1.916868591308593750e+01 -8.695522556081414223e-04 -2.059252709150314331e-01 -6.203844398260116577e-02 -2.243438921868801117e-02
2.083000000000000000e+03 2.805888414382934570e+00 1.222101211547851562e+01 1.656582765281200409e-02 -2.298910468816757202e-01 -6.399756669998168945e-02 2.376423217356204987e-03
2.084000000000000000e+03 2.952905893325805664e+00 2.193128967285156250e+01 -2.099806675687432289e-03 -1.924056559801101685e-01 -5.835163593292236328e-02 -2.087160944938659668e-02
2.085000000000000000e+03 3.072515010833740234e+00 -1.875656700134277344e+01 1.598512567579746246e-02 -7.431371212005615234e-01 -2.181455940008163452e-01 -1.763091236352920532e-01
2.086000000000000000e+03 2.859081745147705078e+00 -1.332229423522949219e+01 -1.449452363885939121e-03 -4.574323296546936035e-01 -1.376645416021347046e-01 -1.902844309806823730e-01
2.087000000000000000e+03 1.577591538429260254e+00 -7.987763881683349609e+00 -1.179239153861999512e-02 -1.420104354619979858e-01 -4.614084959030151367e-02 -7.476287335157394409e-02
2.088000000000000000e+03 3.480125904083251953e+00 -4.819343566894531250e+00 -5.652356520295143127e-02 -6.960375607013702393e-02 -3.783819451928138733e-02 -7.381128519773483276e-02
2.089000000000000000e+03 4.259816646575927734e+00 5.021168708801269531e+00 2.525703236460685730e-02 -1.499628126621246338e-01 -3.741173446178436279e-02 1.548374891281127930e-01
2.090000000000000000e+03 2.736278295516967773e+00 8.044677734375000000e+00 3.165753930807113647e-02 -2.096213251352310181e-01 -5.338913574814796448e-02 6.622111052274703979e-02
2.091000000000000000e+03 2.827718734741210938e+00 1.361462116241455078e+01 1.071783900260925293e-02 -2.281667888164520264e-01 -6.523468345403671265e-02 -8.640621788799762726e-03
2.092000000000000000e+03 1.712050199508666992e+00 1.637945556640625000e+01 1.470964867621660233e-03 -2.673102617263793945e-01 -7.975178956985473633e-02 -1.482530962675809860e-02
2.093000000000000000e+03 2.878291368484497070e+00 1.778759765625000000e+01 8.932814234867691994e-04 -2.124584317207336426e-01 -6.346954405307769775e-02 -2.232889831066131592e-02
2.094000000000000000e+03 2.742549419403076172e+00 9.448361396789550781e+00 2.911662682890892029e-02 -2.229237854480743408e-01 -5.814214795827865601e-02 4.030122980475425720e-02
2.095000000000000000e+03 2.669539451599121094e+00 -8.052103996276855469e+00 -3.009684942662715912e-02 -1.749227792024612427e-01 -6.150588765740394592e-02 -1.257962286472320557e-01
2.096000000000000000e+03 1.969228863716125488e+00 -4.418448448181152344e+00 -1.759503968060016632e-02 -3.211367130279541016e-02 -1.491261366754770279e-02 -2.637693472206592560e-02
2.097000000000000000e+03 3.187457799911499023e+00 -2.152580642700195312e+01 1.809979416429996490e-02 -8.621875643730163574e-01 -2.532263398170471191e-01 -1.554872095584869385e-01
2.098000000000000000e+03 5.685878276824951172e+00 -3.668153381347656250e+01 3.795296326279640198e-02 -1.041639566421508789e+00 -3.011059761047363281e-01 -5.703548341989517212e-02
2.099000000000000000e+03 2.737337589263916016e+00 -9.328610420227050781e+00 -2.417820878326892853e-02 -2.407900989055633545e-01 -7.949049770832061768e-02 -1.514018177986145020e-01
2.100000000000000000e+03 2.952222824096679688e+00 -1.602308464050292969e+01 9.816484525799751282e-03 -6.067829728126525879e-01 -1.790899485349655151e-01 -1.896443516016006470e-01
2.101000000000000000e+03 2.900928974151611328e+00 -1.467092990875244141e+01 2.496894448995590210e-03 -5.354798436164855957e-01 -1.598948836326599121e-01 -1.940864771604537964e-01
2.102000000000000000e+03 1.914471387863159180e+00 -2.311305236816406250e+01 7.657735142856836319e-03 -9.981646537780761719e-01 -2.971520721912384033e-01 -8.812417834997177124e-02
2.103000000000000000e+03 6.190988540649414062e+00 -3.280403518676757812e+01 4.463067278265953064e-02 -9.752434492111206055e-01 -2.791838347911834717e-01 -1.061530038714408875e-01
2.104000000000000000e+03 4.560904026031494141e+00 -2.407946777343750000e+01 3.055457025766372681e-02 -8.883640766143798828e-01 -2.573428452014923096e-01 -1.803341656923294067e-01
2.105000000000000000e+03 2.822883367538452148e+00 -1.197761344909667969e+01 -1.085233967751264572e-02 -3.834917545318603516e-01 -1.183032318949699402e-01 -1.857004612684249878e-01
2.106000000000000000e+03 2.774097204208374023e+00 1.083445549011230469e+01 2.266223169863224030e-02 -2.291045188903808594e-01 -6.193268299102783203e-02 1.914007216691970825e-02
2.107000000000000000e+03 3.935828447341918945e+00 1.225666522979736328e+01 2.760213986039161682e-02 -1.831809580326080322e-01 -4.667364805936813354e-02 1.931065227836370468e-03
2.108000000000000000e+03 3.962276458740234375e+00 1.365145397186279297e+01 1.912939734756946564e-02 -1.793899685144424438e-01 -4.807816818356513977e-02 -1.146606169641017914e-02
2.109000000000000000e+03 2.859384298324584961e+00 1.640298843383789062e+01 2.774215536192059517e-03 -2.186942845582962036e-01 -6.477601826190948486e-02 -2.039001695811748505e-02
2.110000000000000000e+03 1.615472793579101562e+01 -7.088812828063964844e+00 -1.994721889495849609e-01 -9.585178494453430176e-01 -3.473969995975494385e-01 -7.168865799903869629e-01
2.111000000000000000e+03 3.916399002075195312e+01 -1.996548652648925781e+01 -3.693247586488723755e-02 -4.496107697486877441e-01 -1.459629833698272705e-01 2.186541855335235596e-01
2.112000000000000000e+03 3.037995529174804688e+01 -3.427426910400390625e+01 4.267691373825073242e-01 5.347193479537963867e-01 2.884465456008911133e-01 -3.690752089023590088e-01
2.113000000000000000e+03 2.091591835021972656e+01 -1.591111183166503906e+01 1.768752187490463257e-01 -3.452179580926895142e-02 4.270602762699127197e-02 -2.181015610694885254e-01
2.114000000000000000e+03 5.928258132934570312e+01 3.958576965332031250e+01 3.543141782283782959e-01 -2.601526081562042236e-01 2.824847586452960968e-02 8.966101706027984619e-02
2.115000000000000000e+03 3.399036407470703125e+01 -1.157611274719238281e+01 2.671404182910919189e-01 -3.563940823078155518e-01 -2.677609398961067200e-02 -7.150397449731826782e-02
2.116000000000000000e+03 6.809594726562500000e+01 3.832957077026367188e+01 6.957655549049377441e-01 -2.390060424804687500e-01 1.370278447866439819e-01 7.989135980606079102e-01
2.117000000000000000e+03 6.821897888183593750e+01 3.657553482055664062e+01 -4.316657483577728271e-01 -1.715339273214340210e-01 -1.809598952531814575e-01 8.999171257019042969e-01
2.118000000000000000e+03 6.571328735351562500e+01 3.810377502441406250e+01 4.388324320316314697e-01 -3.906980156898498535e-01 1.444032788276672363e-02 5.939921140670776367e-01
2.119000000000000000e+03 6.046677780151367188e+01 3.881822586059570312e+01 3.311803936958312988e-01 -2.615427970886230469e-01 2.089128457009792328e-02 2.048768401145935059e-01
2.120000000000000000e+03 4.451283645629882812e+01 -2.892629051208496094e+01 -1.745100021362304688e-01 -1.190800890326499939e-01 -8.807703107595443726e-02 2.384034395217895508e-01
2.121000000000000000e+03 2.396359825134277344e+01 1.413614034652709961e+00 -2.158032894134521484e+00 -2.037445753812789917e-01 -7.085332274436950684e-01 -1.023643255233764648e+00
2.122000000000000000e+03 2.884644508361816406e+01 -4.277987957000732422e+00 9.082254767417907715e-01 -9.530952572822570801e-02 2.438747882843017578e-01 -3.709916174411773682e-01
2.123000000000000000e+03 1.807242774963378906e+01 -4.336157321929931641e+00 -6.286038160324096680e-01 -2.213852167129516602e+00 -8.527368307113647461e-01 -9.809224009513854980e-01
2.124000000000000000e+03 1.720312118530273438e+01 -5.841897964477539062e+00 -3.116364181041717529e-01 -1.391606926918029785e+00 -5.109730362892150879e-01 -7.905475497245788574e-01
2.125000000000000000e+03 4.527645492553710938e+01 -2.996928405761718750e+01 -2.002787888050079346e-01 4.219154827296733856e-03 -5.881788954138755798e-02 2.345917522907257080e-01
2.126000000000000000e+03 1.716244316101074219e+01 -8.690012931823730469e+00 8.813634514808654785e-02 -9.024209976196289062e-01 -2.442854046821594238e-01 -4.189327061176300049e-01
2.127000000000000000e+03 1.667954444885253906e+01 -1.018313026428222656e+01 8.450097590684890747e-02 -7.395569086074829102e-01 -1.965167671442031860e-01 -4.432650804519653320e-01
2.128000000000000000e+03 2.943301582336425781e+01 -5.206987857818603516e+00 8.405030369758605957e-01 -8.578969538211822510e-02 2.264139950275421143e-01 -3.691024780273437500e-01
2.129000000000000000e+03 4.872013092041015625e+01 -3.254318618774414062e+01 -4.221012815833091736e-02 7.353177666664123535e-01 2.079322934150695801e-01 3.028286397457122803e-01
2.130000000000000000e+03 4.701998138427734375e+01 -3.691528701782226562e+01 4.796346127986907959e-01 4.188243746757507324e-01 2.695377171039581299e-01 6.071556806564331055e-01
2.131000000000000000e+03 4.663332462310791016e+00 4.024411010742187500e+01 -4.164111800491809845e-03 -1.325512081384658813e-01 -4.101459681987762451e-02 2.233923180028796196e-03
2.132000000000000000e+03 7.399671936035156250e+01 3.143659973144531250e+01 -1.056380271911621094e+00 3.069064617156982422e+00 6.038052439689636230e-01 2.650430679321289062e+00
2.133000000000000000e+03 7.658943939208984375e+01 3.156641006469726562e+01 -2.959279537200927734e+00 1.554883670806884766e+01 3.776867151260375977e+00 3.137991428375244141e+00
2.134000000000000000e+03 2.477867126464843750e+01 2.594465494155883789e+00 -2.852825403213500977e+00 -5.590402483940124512e-01 -1.023559689521789551e+00 -1.228768348693847656e+00
2.135000000000000000e+03 2.549401664733886719e+01 2.943154335021972656e+00 -2.717041969299316406e+00 -6.112755537033081055e-01 -9.984952807426452637e-01 -1.162173986434936523e+00
2.136000000000000000e+03 2.569954299926757812e+01 3.020569086074829102e+00 -2.633490562438964844e+00 -5.887834429740905762e-01 -9.666821956634521484e-01 -1.137100696563720703e+00
2.137000000000000000e+03 2.588746261596679688e+01 3.142595291137695312e+00 -2.616402864456176758e+00 -6.593940258026123047e-01 -9.827390313148498535e-01 -1.141364693641662598e+00
2.138000000000000000e+03 2.619581413269042969e+01 3.380631446838378906e+00 -2.598845243453979492e+00 -7.103483676910400391e-01 -9.927580952644348145e-01 -1.163406848907470703e+00
2.139000000000000000e+03 2.815996170043945312e+01 4.640985488891601562e+00 -2.233538150787353516e+00 -1.114977478981018066e+00 -1.004554748535156250e+00 -1.183998703956604004e+00
2.140000000000000000e+03 2.338908576965332031e+01 8.592091202735900879e-01 -1.759196639060974121e+00 6.254106760025024414e-02 -5.089966654777526855e-01 -1.062258601188659668e+00
2.141000000000000000e+03 2.847355461120605469e+01 5.082480430603027344e+00 -2.194247245788574219e+00 -1.225494980812072754e+00 -1.025922656059265137e+00 -1.211314082145690918e+00
2.142000000000000000e+03 2.797637748718261719e+01 4.616318702697753906e+00 -2.265802145004272461e+00 -1.080887079238891602e+00 -1.004006743431091309e+00 -1.218823552131652832e+00
2.143000000000000000e+03 2.782897377014160156e+01 4.558218479156494141e+00 -2.339578390121459961e+00 -1.091345191001892090e+00 -1.029277086257934570e+00 -1.263874769210815430e+00
2.144000000000000000e+03 7.580239868164062500e+01 3.171577835083007812e+01 -1.772659897804260254e+00 1.127126693725585938e+01 2.849582195281982422e+00 5.148163318634033203e+00
2.145000000000000000e+03 7.730111694335937500e+01 3.600262069702148438e+01 -2.773528575897216797e+00 2.092284584045410156e+01 5.444795131683349609e+00 1.987288147211074829e-01
2.146000000000000000e+03 7.761904144287109375e+01 3.584235000610351562e+01 -2.155762195587158203e+00 1.987584877014160156e+01 5.316025733947753906e+00 1.125302314758300781e+00
2.147000000000000000e+03 7.533691406250000000e+01 3.679211044311523438e+01 -6.770950555801391602e-02 7.985093116760253906e+00 2.375215053558349609e+00 -3.696249485015869141e+00
2.148000000000000000e+03 7.439568328857421875e+01 3.170790100097656250e+01 -9.515886902809143066e-01 3.635269403457641602e+00 8.051041960716247559e-01 3.238029718399047852e+00
2.149000000000000000e+03 1.791023063659667969e+01 -1.497022747993469238e+00 -1.922017216682434082e+00 -1.549269199371337891e+00 -1.041385889053344727e+00 -1.129356265068054199e+00
2.150000000000000000e+03 2.276085662841796875e+01 2.464325278997421265e-01 -1.242870926856994629e+00 2.463532686233520508e-01 -2.989553213119506836e-01 -1.201568126678466797e+00
2.151000000000000000e+03 2.230994415283203125e+01 6.919758915901184082e-01 -1.890696406364440918e+00 -1.091789081692695618e-01 -5.999625921249389648e-01 -1.626360416412353516e+00
2.152000000000000000e+03 2.353625869750976562e+01 -1.433840274810791016e+00 1.927673459053039551e+00 8.954088687896728516e-01 8.469246625900268555e-01 -1.036176323890686035e+00
2.153000000000000000e+03 1.469625473022460938e+01 5.420883655548095703e+00 2.371414601802825928e-01 6.447943449020385742e-01 2.645807266235351562e-01 4.072285294532775879e-01
2.154000000000000000e+03 2.997615432739257812e+01 5.156444072723388672e+00 -1.761216163635253906e+00 -9.039995670318603516e-01 -7.995647192001342773e-01 -8.667147159576416016e-01
2.155000000000000000e+03 2.912524032592773438e+01 4.995443344116210938e+00 -1.947120189666748047e+00 -1.081255316734313965e+00 -9.085126519203186035e-01 -9.622032046318054199e-01
2.156000000000000000e+03 7.242598724365234375e+01 3.101189231872558594e+01 -1.593479514122009277e+00 1.204048275947570801e+00 -1.168294027447700500e-01 1.115905284881591797e+00
2.157000000000000000e+03 3.161291694641113281e+01 2.402482414245605469e+01 8.776718378067016602e-02 1.251040697097778320e-01 6.386137753725051880e-02 1.106156185269355774e-01
2.158000000000000000e+03 1.857956886291503906e+01 9.592664718627929688e+00 2.069656997919082642e-01 2.785397171974182129e-01 1.456516236066818237e-01 2.357068508863449097e-01
2.159000000000000000e+03 4.047576522827148438e+01 2.005297851562500000e+01 -1.080926418304443359e+00 -1.179027080535888672e+00 -6.779860258102416992e-01 -1.235454440116882324e+00
2.160000000000000000e+03 4.072942352294921875e+01 2.033319854736328125e+01 -1.096753239631652832e+00 -1.183272600173950195e+00 -6.840077638626098633e-01 -1.235687613487243652e+00
2.161000000000000000e+03 1.611678123474121094e+01 7.672920703887939453e+00 2.018557637929916382e-01 3.896514177322387695e-01 1.774521619081497192e-01 2.763523459434509277e-01
2.162000000000000000e+03 4.097865295410156250e+01 2.116945075988769531e+01 -1.199103832244873047e+00 -1.197808623313903809e+00 -7.190737724304199219e-01 -1.243313312530517578e+00
2.163000000000000000e+03 3.552505874633789062e+01 2.691720390319824219e+01 8.875760436058044434e-02 1.212279573082923889e-01 6.299567222595214844e-02 1.048902422189712524e-01
2.164000000000000000e+03 3.517064285278320312e+01 1.376886463165283203e+01 -1.197303295135498047e+00 -1.341784238815307617e+00 -7.617262601852416992e-01 -1.234914064407348633e+00
2.165000000000000000e+03 2.026871871948242188e+01 1.122245025634765625e+01 1.921247392892837524e-01 2.315023690462112427e-01 1.270881295204162598e-01 2.109332680702209473e-01
2.166000000000000000e+03 1.970871543884277344e+01 1.126363468170166016e+01 1.819857954978942871e-01 2.374136596918106079e-01 1.258198320865631104e-01 2.119257748126983643e-01
2.167000000000000000e+03 3.857561874389648438e+01 1.857212066650390625e+01 -1.113785147666931152e+00 -1.347836136817932129e+00 -7.384863495826721191e-01 -1.241603016853332520e+00
2.168000000000000000e+03 3.940102005004882812e+01 1.943686103820800781e+01 -1.071143150329589844e+00 -1.232240796089172363e+00 -6.910151839256286621e-01 -1.232074737548828125e+00
2.169000000000000000e+03 2.607641792297363281e+01 1.707848167419433594e+01 1.491171419620513916e-01 1.671631634235382080e-01 9.488409012556076050e-02 1.549597978591918945e-01
2.170000000000000000e+03 4.154205322265625000e+01 2.171686744689941406e+01 -1.290928840637207031e+00 -1.222238659858703613e+00 -7.539502382278442383e-01 -1.251569509506225586e+00
2.171000000000000000e+03 1.693152999877929688e+01 8.160372734069824219e+00 2.202302515506744385e-01 3.344604372978210449e-01 1.664071977138519287e-01 2.669330537319183350e-01
2.172000000000000000e+03 3.343411254882812500e+01 2.457653045654296875e+01 8.898884057998657227e-02 1.245707869529724121e-01 6.406788527965545654e-02 1.072804480791091919e-01
2.173000000000000000e+03 3.601732635498046875e+01 2.752057266235351562e+01 9.284763783216476440e-02 1.201749518513679504e-01 6.390677392482757568e-02 1.026127636432647705e-01
2.174000000000000000e+03 3.519570922851562500e+01 2.713668251037597656e+01 8.774840086698532104e-02 1.213848516345024109e-01 6.273997575044631958e-02 1.031998693943023682e-01
2.175000000000000000e+03 4.665819168090820312e+01 2.541956329345703125e+01 -1.297190308570861816e+00 -1.059299826622009277e+00 -7.069470286369323730e-01 -1.220985174179077148e+00
2.176000000000000000e+03 3.830122756958007812e+01 1.828363227844238281e+01 -1.132566571235656738e+00 -1.388622641563415527e+00 -7.563567757606506348e-01 -1.248276233673095703e+00
2.177000000000000000e+03 4.612694931030273438e+01 2.546168136596679688e+01 -1.337055087089538574e+00 -1.135393500328063965e+00 -7.417345643043518066e-01 -1.264231681823730469e+00
2.178000000000000000e+03 2.128283309936523438e+01 1.285886955261230469e+01 1.707139015197753906e-01 2.186337411403656006e-01 1.168042942881584167e-01 1.941628754138946533e-01
2.179000000000000000e+03 3.449576568603515625e+01 2.574612808227539062e+01 8.893557637929916382e-02 1.252153515815734863e-01 6.424527615308761597e-02 1.036387979984283447e-01
2.180000000000000000e+03 1.790143203735351562e+01 9.132049560546875000e+00 2.138652652502059937e-01 2.941991388797760010e-01 1.524193137884140015e-01 2.404721677303314209e-01
2.181000000000000000e+03 1.717284202575683594e+01 8.550945281982421875e+00 2.120436728000640869e-01 3.169670701026916504e-01 1.587032228708267212e-01 2.574051320552825928e-01
2.182000000000000000e+03 3.423193740844726562e+01 2.545153999328613281e+01 8.977088332176208496e-02 1.246368065476417542e-01 6.432230770587921143e-02 1.044004335999488831e-01
2.183000000000000000e+03 3.364092636108398438e+01 2.541162872314453125e+01 8.781560510396957397e-02 1.241197362542152405e-01 6.358060240745544434e-02 1.047525182366371155e-01
2.184000000000000000e+03 2.155993652343750000e+01 1.313579559326171875e+01 1.709071993827819824e-01 2.155822366476058960e-01 1.159468293190002441e-01 1.902370452880859375e-01
2.185000000000000000e+03 2.528443908691406250e+01 1.703575515747070312e+01 1.410593986511230469e-01 1.695166826248168945e-01 9.317281842231750488e-02 1.547760069370269775e-01
2.186000000000000000e+03 3.167403221130371094e+01 2.343491363525390625e+01 9.125283360481262207e-02 1.232308521866798401e-01 6.434510648250579834e-02 1.127179712057113647e-01
2.187000000000000000e+03 4.321180343627929688e+01 2.279092597961425781e+01 -1.324505805969238281e+00 -1.219836950302124023e+00 -7.633028030395507812e-01 -1.282834410667419434e+00
2.188000000000000000e+03 4.268915939331054688e+01 2.279159736633300781e+01 -1.375870466232299805e+00 -1.229090332984924316e+00 -7.814882397651672363e-01 -1.312836885452270508e+00
2.189000000000000000e+03 4.349958038330078125e+01 2.305821609497070312e+01 -1.332119703292846680e+00 -1.232292890548706055e+00 -7.693238258361816406e-01 -1.286658167839050293e+00
2.190000000000000000e+03 4.749954986572265625e+01 2.623047065734863281e+01 -1.276570796966552734e+00 -1.019612550735473633e+00 -6.888549923896789551e-01 -1.198452711105346680e+00
2.191000000000000000e+03 3.539172363281250000e+01 1.456773090362548828e+01 -1.203914642333984375e+00 -1.388852000236511230e+00 -7.778300046920776367e-01 -1.282038807868957520e+00
2.192000000000000000e+03 3.485723495483398438e+01 1.451897811889648438e+01 -1.245123147964477539e+00 -1.426921367645263672e+00 -8.016133904457092285e-01 -1.322695970535278320e+00
2.193000000000000000e+03 3.802924346923828125e+01 1.799464416503906250e+01 -1.151422142982482910e+00 -1.425394892692565918e+00 -7.730451226234436035e-01 -1.255336880683898926e+00
2.194000000000000000e+03 4.053626251220703125e+01 1.951531791687011719e+01 -1.059292316436767578e+00 -1.168470144271850586e+00 -6.683287024497985840e-01 -1.226863980293273926e+00
2.195000000000000000e+03 4.502795028686523438e+01 2.494900894165039062e+01 -1.420607328414916992e+00 -1.282857775688171387e+00 -8.110395073890686035e-01 -1.313046932220458984e+00
2.196000000000000000e+03 4.584329986572265625e+01 2.519457435607910156e+01 -1.354262351989746094e+00 -1.157774209976196289e+00 -7.536109685897827148e-01 -1.263321518898010254e+00
2.197000000000000000e+03 2.958865737915039062e+01 2.056117630004882812e+01 1.190734356641769409e-01 1.343531608581542969e-01 7.602798193693161011e-02 1.273932456970214844e-01
2.198000000000000000e+03 3.069430541992187500e+01 2.169133186340332031e+01 1.048751696944236755e-01 1.287834644317626953e-01 7.009758800268173218e-02 1.179247796535491943e-01
2.199000000000000000e+03 4.725548171997070312e+01 2.653993797302246094e+01 -1.299085974693298340e+00 -1.073568105697631836e+00 -7.117962241172790527e-01 -1.232416272163391113e+00
2.200000000000000000e+03 4.788083648681640625e+01 2.765796661376953125e+01 -1.344482064247131348e+00 -1.092654109001159668e+00 -7.311408519744873047e-01 -1.226896882057189941e+00
2.201000000000000000e+03 3.413438796997070312e+01 1.363375568389892578e+01 -1.276386499404907227e+00 -1.424635410308837891e+00 -8.103065490722656250e-01 -1.301851511001586914e+00
2.202000000000000000e+03 3.564722824096679688e+01 1.485410308837890625e+01 -1.186370372772216797e+00 -1.395166873931884766e+00 -7.744612097740173340e-01 -1.282684683799743652e+00
2.203000000000000000e+03 3.777436447143554688e+01 2.973933219909667969e+01 9.401861578226089478e-02 1.083879768848419189e-01 6.072197481989860535e-02 9.755957126617431641e-02
2.204000000000000000e+03 2.055510520935058594e+01 1.148688507080078125e+01 1.902024894952774048e-01 2.325747758150100708e-01 1.268331855535507202e-01 2.057857066392898560e-01
2.205000000000000000e+03 2.897665214538574219e+01 2.054614067077636719e+01 1.147020831704139709e-01 1.393004506826400757e-01 7.620076090097427368e-02 1.282772272825241089e-01
2.206000000000000000e+03 4.264145660400390625e+01 2.225803756713867188e+01 -1.305517554283142090e+00 -1.206047892570495605e+00 -7.534696459770202637e-01 -1.261097431182861328e+00
2.207000000000000000e+03 4.754050064086914062e+01 2.681057357788085938e+01 -1.300767064094543457e+00 -1.062201738357543945e+00 -7.088906764984130859e-01 -1.218839526176452637e+00
2.208000000000000000e+03 3.182994842529296875e+01 1.123332881927490234e+01 -1.415632009506225586e+00 -1.347620964050292969e+00 -8.289759159088134766e-01 -1.289743900299072266e+00
2.209000000000000000e+03 2.952664184570312500e+01 2.112453269958496094e+01 1.099890246987342834e-01 1.360104680061340332e-01 7.379984855651855469e-02 1.235405132174491882e-01
2.210000000000000000e+03 2.799695205688476562e+01 1.936244201660156250e+01 1.257305592298507690e-01 1.479549705982208252e-01 8.210565894842147827e-02 1.376295536756515503e-01
2.211000000000000000e+03 2.244260406494140625e+01 1.345030117034912109e+01 1.801880002021789551e-01 2.092868983745574951e-01 1.168424710631370544e-01 1.895766407251358032e-01
2.212000000000000000e+03 2.184811973571777344e+01 1.340994834899902344e+01 1.703308820724487305e-01 2.113010585308074951e-01 1.144895777106285095e-01 1.874420493841171265e-01
2.213000000000000000e+03 1.897823905944824219e+01 1.067678451538085938e+01 1.790430098772048950e-01 2.574047446250915527e-01 1.309343278408050537e-01 2.211888432502746582e-01
2.214000000000000000e+03 1.825756263732910156e+01 9.360683441162109375e+00 2.140011638402938843e-01 2.907452881336212158e-01 1.514239460229873657e-01 2.345145344734191895e-01
2.215000000000000000e+03 2.777064514160156250e+01 1.907642555236816406e+01 1.286859661340713501e-01 1.504359394311904907e-01 8.373657613992691040e-02 1.398491859436035156e-01
2.216000000000000000e+03 7.534860992431640625e+01 3.576397323608398438e+01 7.070873975753784180e-01 7.379297256469726562e+00 2.425915479660034180e+00 -5.015858650207519531e+00
2.217000000000000000e+03 7.467010498046875000e+01 3.923281097412109375e+01 7.779186367988586426e-01 6.557977676391601562e+00 2.200768947601318359e+00 -1.135519862174987793e+00
2.218000000000000000e+03 2.587767601013183594e+01 1.739848709106445312e+01 1.418738365173339844e-01 1.670604497194290161e-01 9.268029034137725830e-02 1.511287391185760498e-01
2.219000000000000000e+03 2.853586387634277344e+01 1.941038894653320312e+01 1.291075199842453003e-01 1.424198001623153687e-01 8.145819604396820068e-02 1.369579285383224487e-01
2.220000000000000000e+03 2.846320533752441406e+01 1.995237350463867188e+01 1.198229119181632996e-01 1.435843557119369507e-01 7.902217656373977661e-02 1.330658942461013794e-01
2.221000000000000000e+03 2.871298789978027344e+01 2.024744796752929688e+01 1.171227097511291504e-01 1.414754092693328857e-01 7.757943868637084961e-02 1.307935416698455811e-01
2.222000000000000000e+03 4.378857040405273438e+01 2.332616615295410156e+01 -1.340666651725769043e+00 -1.244615435600280762e+00 -7.755846381187438965e-01 -1.286754727363586426e+00
2.223000000000000000e+03 4.988994979858398438e+01 2.957252502441406250e+01 -1.286355376243591309e+00 -9.441689848899841309e-01 -6.691573262214660645e-01 -1.106635212898254395e+00
2.224000000000000000e+03 5.068035507202148438e+01 2.980004119873046875e+01 -1.253267407417297363e+00 -7.701984643936157227e-01 -6.070397496223449707e-01 -1.015974402427673340e+00
2.225000000000000000e+03 3.964045715332031250e+01 3.171214294433593750e+01 9.879383444786071777e-02 9.363841265439987183e-02 5.772967264056205750e-02 9.130219370126724243e-02
2.226000000000000000e+03 3.925640869140625000e+01 3.106027793884277344e+01 9.850709140300750732e-02 9.765462577342987061e-02 5.884851515293121338e-02 9.311911463737487793e-02
2.227000000000000000e+03 4.903457641601562500e+01 2.875220680236816406e+01 -1.345065474510192871e+00 -1.032211303710937500e+00 -7.131830453872680664e-01 -1.168450832366943359e+00
2.228000000000000000e+03 4.981824111938476562e+01 2.900449943542480469e+01 -1.307343363761901855e+00 -8.930822610855102539e-01 -6.601276993751525879e-01 -1.090932488441467285e+00
2.229000000000000000e+03 3.964142990112304688e+01 3.098031044006347656e+01 1.003701016306877136e-01 9.488107264041900635e-02 5.857535079121589661e-02 9.339223802089691162e-02
2.230000000000000000e+03 3.590354156494140625e+01 1.514407157897949219e+01 -1.179322481155395508e+00 -1.401350140571594238e+00 -7.742017507553100586e-01 -1.278504014015197754e+00
2.231000000000000000e+03 2.386945724487304688e+01 1.559946060180664062e+01 1.469299495220184326e-01 1.851569712162017822e-01 9.962607920169830322e-02 1.684537976980209351e-01
2.232000000000000000e+03 2.349805831909179688e+01 1.457691192626953125e+01 1.672325730323791504e-01 1.961180567741394043e-01 1.090051904320716858e-01 1.775135397911071777e-01
2.233000000000000000e+03 4.280095672607421875e+01 3.472365951538085938e+01 1.234779134392738342e-01 7.163102924823760986e-02 5.853268504142761230e-02 8.860656619071960449e-02
2.234000000000000000e+03 3.401654434204101562e+01 1.237967109680175781e+01 -1.217404723167419434e+00 -1.315584540367126465e+00 -7.598967552185058594e-01 -1.223215103149414062e+00
2.235000000000000000e+03 3.465077209472656250e+01 1.374255943298339844e+01 -1.238536477088928223e+00 -1.383367657661437988e+00 -7.865712046623229980e-01 -1.271956920623779297e+00
2.236000000000000000e+03 3.641926193237304688e+01 1.572606468200683594e+01 -1.169152975082397461e+00 -1.412897944450378418e+00 -7.746152877807617188e-01 -1.270696759223937988e+00
2.237000000000000000e+03 3.667976760864257812e+01 1.601499176025390625e+01 -1.164373993873596191e+00 -1.417219638824462891e+00 -7.744780778884887695e-01 -1.267550826072692871e+00
2.238000000000000000e+03 2.000272369384765625e+01 1.149184226989746094e+01 1.823209375143051147e-01 2.354824393987655640e-01 1.253410130739212036e-01 2.061396539211273193e-01
2.239000000000000000e+03 3.741910171508789062e+01 2.953372383117675781e+01 9.224181622266769409e-02 1.120179966092109680e-01 6.127794459462165833e-02 9.722723811864852905e-02
2.240000000000000000e+03 3.694291305541992188e+01 1.630203628540039062e+01 -1.162763953208923340e+00 -1.421048164367675781e+00 -7.751436829566955566e-01 -1.260771393775939941e+00
2.241000000000000000e+03 3.625482559204101562e+01 2.783546066284179688e+01 9.397376328706741333e-02 1.203345730900764465e-01 6.429249793291091919e-02 1.013700217008590698e-01
2.242000000000000000e+03 3.568127441406250000e+01 2.772175598144531250e+01 9.070099890232086182e-02 1.194643229246139526e-01 6.304959207773208618e-02 1.010810062289237976e-01
2.243000000000000000e+03 4.782623291015625000e+01 2.708257675170898438e+01 -1.305137395858764648e+00 -1.049101829528808594e+00 -7.062717676162719727e-01 -1.206166744232177734e+00
2.244000000000000000e+03 4.839871597290039062e+01 2.763024711608886719e+01 -1.317173361778259277e+00 -1.020386099815368652e+00 -7.012678384780883789e-01 -1.176358461380004883e+00
2.245000000000000000e+03 4.881962203979492188e+01 2.904965019226074219e+01 -1.369442939758300781e+00 -1.117635965347290039e+00 -7.461236715316772461e-01 -1.220441341400146484e+00
2.246000000000000000e+03 4.488291549682617188e+01 3.616865921020507812e+01 1.504479646682739258e-01 6.415867060422897339e-02 6.438198685646057129e-02 9.202384203672409058e-02
2.247000000000000000e+03 4.371496582031250000e+01 3.666151428222656250e+01 1.517752707004547119e-01 6.321129202842712402e-02 6.449597328901290894e-02 8.179016411304473877e-02
2.248000000000000000e+03 4.932042694091796875e+01 2.902655029296875000e+01 -1.331866741180419922e+00 -1.006728768348693848e+00 -7.015786767005920410e-01 -1.149790406227111816e+00
2.249000000000000000e+03 2.687611961364746094e+01 1.726296424865722656e+01 1.563147306442260742e-01 1.655910015106201172e-01 9.657171368598937988e-02 1.571662575006484985e-01
2.250000000000000000e+03 3.488965988159179688e+01 1.401203155517578125e+01 -1.236484527587890625e+00 -1.383060216903686523e+00 -7.858633995056152344e-01 -1.275399565696716309e+00
2.251000000000000000e+03 3.805535507202148438e+01 3.027496719360351562e+01 9.430037438869476318e-02 1.050446629524230957e-01 5.980351194739341736e-02 9.562894701957702637e-02
2.252000000000000000e+03 4.021815872192382812e+01 3.228699874877929688e+01 1.019449979066848755e-01 8.983016014099121094e-02 5.753254517912864685e-02 9.030772000551223755e-02
2.253000000000000000e+03 4.874740600585937500e+01 2.847776794433593750e+01 -1.352518916130065918e+00 -1.054421782493591309e+00 -7.220821976661682129e-01 -1.184763908386230469e+00
2.254000000000000000e+03 4.473536300659179688e+01 2.467639732360839844e+01 -1.429856300354003906e+00 -1.305382966995239258e+00 -8.205717802047729492e-01 -1.317010760307312012e+00
2.255000000000000000e+03 4.555358886718750000e+01 2.492821121215820312e+01 -1.367722630500793457e+00 -1.183884501457214355e+00 -7.654821276664733887e-01 -1.262181758880615234e+00
2.256000000000000000e+03 4.407861709594726562e+01 2.359402847290039062e+01 -1.351149559020996094e+00 -1.254854917526245117e+00 -7.818013429641723633e-01 -1.282394886016845703e+00
2.257000000000000000e+03 4.098751449584960938e+01 2.061505317687988281e+01 -1.119443893432617188e+00 -1.189106464385986328e+00 -6.925650835037231445e-01 -1.234399080276489258e+00
2.258000000000000000e+03 3.775925827026367188e+01 1.770541954040527344e+01 -1.164783596992492676e+00 -1.452979922294616699e+00 -7.853290438652038574e-01 -1.265984058380126953e+00
2.259000000000000000e+03 2.981867980957031250e+01 2.139205169677734375e+01 1.068230643868446350e-01 1.345844119787216187e-01 7.242224365472793579e-02 1.213687658309936523e-01
2.260000000000000000e+03 5.098549652099609375e+01 3.005622100830078125e+01 -1.234381794929504395e+00 -7.176530957221984863e-01 -5.856104493141174316e-01 -9.800099730491638184e-01
2.261000000000000000e+03 4.960511779785156250e+01 2.930047607421875000e+01 -1.311520099639892578e+00 -9.757397770881652832e-01 -6.861779689788818359e-01 -1.130406498908996582e+00
2.262000000000000000e+03 2.637032508850097656e+01 1.731396484375000000e+01 1.486068367958068848e-01 1.665901839733123779e-01 9.455911070108413696e-02 1.533444672822952271e-01
2.263000000000000000e+03 4.235859298706054688e+01 2.199057960510253906e+01 -1.286610245704650879e+00 -1.206971406936645508e+00 -7.480744719505310059e-01 -1.247192621231079102e+00
2.264000000000000000e+03 4.063443374633789062e+01 3.236587905883789062e+01 1.027665808796882629e-01 8.600762486457824707e-02 5.663226172327995300e-02 9.081855416297912598e-02
2.265000000000000000e+03 3.390590286254882812e+01 2.569959449768066406e+01 8.773017674684524536e-02 1.241447106003761292e-01 6.356246769428253174e-02 1.036967337131500244e-01
2.266000000000000000e+03 4.278669357299804688e+01 3.403984069824218750e+01 1.158740222454071045e-01 7.506907731294631958e-02 5.728293210268020630e-02 8.852592855691909790e-02
2.267000000000000000e+03 3.265118789672851562e+01 1.137315940856933594e+01 -1.327667713165283203e+00 -1.296184420585632324e+00 -7.871556282043457031e-01 -1.246354937553405762e+00
2.268000000000000000e+03 3.494346618652343750e+01 2.685043334960937500e+01 8.672792464494705200e-02 1.226636394858360291e-01 6.281746923923492432e-02 1.033051460981369019e-01
2.269000000000000000e+03 3.720884704589843750e+01 1.658772277832031250e+01 -1.157828450202941895e+00 -1.421043515205383301e+00 -7.736615538597106934e-01 -1.254503130912780762e+00
2.270000000000000000e+03 3.692001724243164062e+01 2.884047317504882812e+01 9.307055175304412842e-02 1.175063401460647583e-01 6.317307054996490479e-02 9.836361557245254517e-02
2.271000000000000000e+03 3.260575485229492188e+01 2.371307945251464844e+01 9.180951118469238281e-02 1.223569214344024658e-01 6.424993276596069336e-02 1.078727915883064270e-01
2.272000000000000000e+03 2.272072219848632812e+01 1.372984790802001953e+01 1.796694844961166382e-01 2.076697498559951782e-01 1.162017732858657837e-01 1.856179684400558472e-01
2.273000000000000000e+03 2.694332504272460938e+01 1.780909538269042969e+01 1.456807702779769897e-01 1.620247811079025269e-01 9.231166541576385498e-02 1.502904146909713745e-01
2.274000000000000000e+03 5.129478454589843750e+01 3.030844879150390625e+01 -1.216651558876037598e+00 -6.551253199577331543e-01 -5.615330338478088379e-01 -9.425286650657653809e-01
2.275000000000000000e+03 2.678466224670410156e+01 1.864719772338867188e+01 1.273723095655441284e-01 1.600142270326614380e-01 8.621595799922943115e-02 1.414927393198013306e-01
2.276000000000000000e+03 2.494058609008789062e+01 1.695645141601562500e+01 1.376764327287673950e-01 1.711007952690124512e-01 9.263316541910171509e-02 1.550130844116210938e-01
2.277000000000000000e+03 2.103392410278320312e+01 1.257372760772705078e+01 1.723975539207458496e-01 2.234188765287399292e-01 1.187449321150779724e-01 1.955041438341140747e-01
2.278000000000000000e+03 3.156241607666015625e+01 9.466979980468750000e+00 -1.305101394653320312e+00 -1.213678479194641113e+00 -7.556339502334594727e-01 -1.144925355911254883e+00
2.279000000000000000e+03 4.114814376831054688e+01 3.283555984497070312e+01 1.061074435710906982e-01 8.223219215869903564e-02 5.650189146399497986e-02 8.967405557632446289e-02
2.280000000000000000e+03 3.912832641601562500e+01 1.914731788635253906e+01 -1.079465866088867188e+00 -1.265987157821655273e+00 -7.036358714103698730e-01 -1.232928395271301270e+00
2.281000000000000000e+03 2.722637939453125000e+01 1.805835342407226562e+01 1.433168202638626099e-01 1.585546135902404785e-01 9.056143462657928467e-02 1.487660109996795654e-01
2.282000000000000000e+03 2.727931404113769531e+01 1.856544113159179688e+01 1.334948837757110596e-01 1.565604954957962036e-01 8.701661229133605957e-02 1.438787579536437988e-01
2.283000000000000000e+03 3.747663879394531250e+01 1.687218093872070312e+01 -1.155822396278381348e+00 -1.415926575660705566e+00 -7.715247273445129395e-01 -1.244458794593811035e+00
2.284000000000000000e+03 3.774572372436523438e+01 1.715509033203125000e+01 -1.150847077369689941e+00 -1.403033733367919922e+00 -7.661642432212829590e-01 -1.236365318298339844e+00
2.285000000000000000e+03 4.223462295532226562e+01 3.373856353759765625e+01 1.132628992199897766e-01 7.816776633262634277e-02 5.742919817566871643e-02 8.870616555213928223e-02
2.286000000000000000e+03 3.972180175781250000e+01 3.134022712707519531e+01 1.001056134700775146e-01 9.425593167543411255e-02 5.830846354365348816e-02 9.291523694992065430e-02
2.287000000000000000e+03 5.224073791503906250e+01 3.108863449096679688e+01 -1.165764093399047852e+00 -4.278885126113891602e-01 -4.780957996845245361e-01 -8.260450959205627441e-01
2.288000000000000000e+03 3.254385757446289062e+01 2.428264236450195312e+01 8.881922811269760132e-02 1.238664910197257996e-01 6.380571424961090088e-02 1.076868250966072083e-01
2.289000000000000000e+03 3.196712303161621094e+01 2.371896553039550781e+01 9.061535447835922241e-02 1.228066235780715942e-01 6.402659416198730469e-02 1.107238605618476868e-01
2.290000000000000000e+03 1.651087379455566406e+01 8.381583213806152344e+00 1.935786753892898560e-01 3.502929508686065674e-01 1.631614863872528076e-01 2.570247352123260498e-01
2.291000000000000000e+03 3.427236938476562500e+01 1.312656784057617188e+01 -1.233582377433776855e+00 -1.369134783744812012e+00 -7.808151245117187500e-01 -1.254682183265686035e+00
2.292000000000000000e+03 3.081617355346679688e+01 2.255895614624023438e+01 9.398888796567916870e-02 1.288114786148071289e-01 6.684011220932006836e-02 1.168332472443580627e-01
2.293000000000000000e+03 4.640722656250000000e+01 2.573031044006347656e+01 -1.321339845657348633e+00 -1.117120504379272461e+00 -7.315381169319152832e-01 -1.261056542396545410e+00
2.294000000000000000e+03 4.125072860717773438e+01 2.089790344238281250e+01 -1.149915218353271484e+00 -1.198827624320983887e+00 -7.046228051185607910e-01 -1.230769395828247070e+00
2.295000000000000000e+03 4.179709625244140625e+01 2.145123672485351562e+01 -1.224230408668518066e+00 -1.209932804107666016e+00 -7.302489280700683594e-01 -1.229549646377563477e+00
2.296000000000000000e+03 3.413013076782226562e+01 1.276949977874755859e+01 -1.233978152275085449e+00 -1.346591949462890625e+00 -7.741710543632507324e-01 -1.244141101837158203e+00
2.297000000000000000e+03 4.437042236328125000e+01 2.386165428161621094e+01 -1.361559271812438965e+00 -1.258199930191040039e+00 -7.859277725219726562e-01 -1.276134610176086426e+00
2.298000000000000000e+03 4.466473007202148438e+01 2.412896347045898438e+01 -1.370769262313842773e+00 -1.252922058105468750e+00 -7.871074080467224121e-01 -1.268736720085144043e+00
2.299000000000000000e+03 2.213389205932617188e+01 1.368312168121337891e+01 1.703614741563796997e-01 2.093833982944488525e-01 1.139234602451324463e-01 1.831272542476654053e-01
2.300000000000000000e+03 2.351079177856445312e+01 1.529679012298583984e+01 1.487772762775421143e-01 1.923754960298538208e-01 1.023458316922187805e-01 1.690299063920974731e-01
2.301000000000000000e+03 2.336631202697753906e+01 1.503887271881103516e+01 1.528998315334320068e-01 1.947844028472900391e-01 1.043052673339843750e-01 1.711021661758422852e-01
2.302000000000000000e+03 2.316442108154296875e+01 1.477254199981689453e+01 1.577802449464797974e-01 1.986665278673171997e-01 1.069340258836746216e-01 1.725935041904449463e-01
2.303000000000000000e+03 5.230600357055664062e+01 3.173549461364746094e+01 -1.043399691581726074e+00 -4.426174461841583252e-01 -4.458051323890686035e-01 -7.670601010322570801e-01
2.304000000000000000e+03 4.496173477172851562e+01 2.439599800109863281e+01 -1.375695705413818359e+00 -1.236349344253540039e+00 -7.836135029792785645e-01 -1.263246536254882812e+00
2.305000000000000000e+03 3.648540878295898438e+01 2.815958213806152344e+01 9.442218393087387085e-02 1.200707033276557922e-01 6.434787064790725708e-02 1.001004353165626526e-01
2.306000000000000000e+03 3.033319282531738281e+01 2.195690536499023438e+01 9.991583228111267090e-02 1.322064250707626343e-01 6.963667273521423340e-02 1.182314306497573853e-01
2.307000000000000000e+03 2.079758071899414062e+01 1.228229713439941406e+01 1.734347194433212280e-01 2.265560775995254517e-01 1.199972406029701233e-01 1.986490339040756226e-01
2.308000000000000000e+03 2.054862403869628906e+01 1.200046348571777344e+01 1.773999780416488647e-01 2.308131009340286255e-01 1.224639192223548889e-01 1.997615694999694824e-01
2.309000000000000000e+03 3.416952896118164062e+01 2.598918724060058594e+01 8.690872788429260254e-02 1.244898140430450439e-01 6.341955810785293579e-02 1.030835509300231934e-01
2.310000000000000000e+03 3.468842697143554688e+01 2.656456565856933594e+01 8.600321412086486816e-02 1.238802000880241394e-01 6.296502053737640381e-02 1.031864359974861145e-01
2.311000000000000000e+03 3.443061828613281250e+01 2.627778434753417969e+01 8.645883202552795410e-02 1.243550255894660950e-01 6.324415653944015503e-02 1.028966307640075684e-01
2.312000000000000000e+03 5.192034530639648438e+01 3.082094001770019531e+01 -1.182834386825561523e+00 -5.104300975799560547e-01 -5.079793334007263184e-01 -8.641253709793090820e-01
2.313000000000000000e+03 5.256880569458007812e+01 3.136388587951660156e+01 -1.145668387413024902e+00 -3.366108536720275879e-01 -4.446837902069091797e-01 -7.900127172470092773e-01
2.314000000000000000e+03 3.650326156616210938e+01 2.902213096618652344e+01 9.060478210449218750e-02 1.173458248376846313e-01 6.238518282771110535e-02 9.646566212177276611e-02
2.315000000000000000e+03 3.346788406372070312e+01 1.202013397216796875e+01 -1.256279468536376953e+00 -1.312540769577026367e+00 -7.706460952758789062e-01 -1.252780199050903320e+00
2.316000000000000000e+03 1.881863403320312500e+01 1.036047458648681641e+01 1.860834509134292603e-01 2.661327123641967773e-01 1.356648504734039307e-01 2.236306369304656982e-01
2.317000000000000000e+03 5.551948165893554688e+01 3.232395172119140625e+01 -1.339023709297180176e+00 1.365563422441482544e-01 -3.607402145862579346e-01 -6.519450545310974121e-01
2.318000000000000000e+03 3.535586166381835938e+01 2.792046737670898438e+01 8.866332471370697021e-02 1.192913800477981567e-01 6.238641217350959778e-02 9.916537255048751831e-02
2.319000000000000000e+03 1.549836540222167969e+01 6.248832225799560547e+00 2.729213535785675049e-01 4.748083651065826416e-01 2.243189066648483276e-01 3.206809461116790771e-01
2.320000000000000000e+03 1.489018249511718750e+01 6.704888820648193359e+00 1.932098120450973511e-01 5.345743894577026367e-01 2.183352559804916382e-01 2.755143344402313232e-01
2.321000000000000000e+03 3.149750900268554688e+01 1.017424201965332031e+01 -1.349252223968505859e+00 -1.262192964553833008e+00 -7.834335565567016602e-01 -1.224626779556274414e+00
2.322000000000000000e+03 1.860603332519531250e+01 1.009518623352050781e+01 1.885428279638290405e-01 2.722695171833038330e-01 1.382437050342559814e-01 2.277797609567642212e-01
2.323000000000000000e+03 1.834194755554199219e+01 9.877463340759277344e+00 1.927498131990432739e-01 2.840288281440734863e-01 1.430335938930511475e-01 2.262429445981979370e-01
2.324000000000000000e+03 3.887452697753906250e+01 3.102577018737792969e+01 9.710554778575897217e-02 9.860746562480926514e-02 5.871390551328659058e-02 9.243573993444442749e-02
2.325000000000000000e+03 1.379341125488281250e+01 5.201763629913330078e+00 1.454617679119110107e-01 9.726637005805969238e-01 3.354376554489135742e-01 2.050440162420272827e-01
2.326000000000000000e+03 7.728510284423828125e+01 3.197353553771972656e+01 -3.070618867874145508e+00 1.929048919677734375e+01 4.865961074829101562e+00 1.325431168079376221e-01
2.327000000000000000e+03 7.828009796142578125e+01 3.261749649047851562e+01 -2.241234630346298218e-01 1.723151397705078125e+01 5.102216720581054688e+00 -3.614786386489868164e+00
2.328000000000000000e+03 1.590416336059570312e+01 7.353109359741210938e+00 2.112960517406463623e-01 4.207952022552490234e-01 1.896273791790008545e-01 2.764709889888763428e-01
2.329000000000000000e+03 1.544244384765625000e+01 6.753112316131591797e+00 2.285616397857666016e-01 4.735873043537139893e-01 2.106446772813796997e-01 2.904901802539825439e-01
2.330000000000000000e+03 7.779567718505859375e+01 3.623395156860351562e+01 -1.922979354858398438e+00 1.827262687683105469e+01 4.904894351959228516e+00 1.169739961624145508e+00
2.331000000000000000e+03 7.646765899658203125e+01 3.578498458862304688e+01 -2.007193088531494141e+00 1.857246971130371094e+01 4.969582557678222656e+00 -4.507280826568603516e+00
2.332000000000000000e+03 9.889580726623535156e+00 3.246632575988769531e+00 2.934012115001678467e-01 -3.524312078952789307e-01 -1.770900003612041473e-02 2.509447634220123291e-01
2.333000000000000000e+03 1.330910491943359375e+01 4.321420669555664062e+00 2.556662857532501221e-01 1.267907977104187012e+00 4.570722877979278564e-01 -2.825140021741390228e-02
2.334000000000000000e+03 1.206093120574951172e+01 2.915116071701049805e+00 8.610639572143554688e-01 1.402825266122817993e-01 3.004039227962493896e-01 -2.479735612869262695e-01
2.335000000000000000e+03 3.120485115051269531e+01 5.736042976379394531e+00 -1.464272499084472656e+00 -8.456975817680358887e-01 -6.929910182952880859e-01 -9.211868047714233398e-01
2.336000000000000000e+03 7.481985473632812500e+01 3.584223556518554688e+01 8.822863101959228516e-01 3.951106548309326172e+00 1.450017929077148438e+00 -3.803241968154907227e+00
2.337000000000000000e+03 2.226169776916503906e+01 3.141797184944152832e-01 -1.393246173858642578e+00 4.143465459346771240e-01 -2.936698794364929199e-01 -1.642100334167480469e+00
2.338000000000000000e+03 1.147080802917480469e+01 2.608000993728637695e+00 6.974358558654785156e-01 -2.797883450984954834e-01 1.252942532300949097e-01 9.359604865312576294e-02
2.339000000000000000e+03 1.669684219360351562e+01 -3.023816585540771484e+00 -1.433349490165710449e+00 -1.042136073112487793e+00 -7.426456809043884277e-01 -1.039722919464111328e+00
2.340000000000000000e+03 7.045308685302734375e+01 3.157568931579589844e+01 -3.188420057296752930e+00 1.123063415288925171e-01 -9.228340983390808105e-01 -1.307689398527145386e-01
2.341000000000000000e+03 3.189556503295898438e+01 1.047632598876953125e+01 -1.353932023048400879e+00 -1.283495545387268066e+00 -7.912282943725585938e-01 -1.213073968887329102e+00
2.342000000000000000e+03 3.084372520446777344e+01 9.316744804382324219e+00 -1.373561859130859375e+00 -1.197468519210815430e+00 -7.713090777397155762e-01 -1.162482500076293945e+00
2.343000000000000000e+03 5.532090759277343750e+01 3.853408050537109375e+01 2.416291385889053345e-01 -4.299996793270111084e-02 5.958875268697738647e-02 -5.327599495649337769e-02
2.344000000000000000e+03 5.390865325927734375e+01 4.012807083129882812e+01 3.474014401435852051e-01 6.177552044391632080e-02 1.227530837059020996e-01 1.986671425402164459e-02
2.345000000000000000e+03 4.380474090576171875e+01 3.759889221191406250e+01 1.697493344545364380e-01 5.895014479756355286e-02 6.860984116792678833e-02 7.175552845001220703e-02
2.346000000000000000e+03 5.581711959838867188e+01 3.901508712768554688e+01 2.811357080936431885e-01 -1.219601109623908997e-01 4.775267839431762695e-02 -8.927673101425170898e-03
2.347000000000000000e+03 7.319872283935546875e+01 3.089573287963867188e+01 -1.093008756637573242e+00 2.113451242446899414e+00 3.061327636241912842e-01 1.888968586921691895e+00
2.348000000000000000e+03 7.145173645019531250e+01 3.105233573913574219e+01 -2.077526807785034180e+00 5.949535965919494629e-01 -4.447719156742095947e-01 4.465579092502593994e-01
2.349000000000000000e+03 7.197648620605468750e+01 3.104693031311035156e+01 -1.813812494277954102e+00 8.833191394805908203e-01 -2.791480123996734619e-01 7.685041427612304688e-01
2.350000000000000000e+03 1.034738731384277344e+01 -4.407262325286865234e+00 -4.010983109474182129e-01 -1.181426569819450378e-01 -1.557722836732864380e-01 -3.238814175128936768e-01
2.351000000000000000e+03 1.039048957824707031e+01 -5.152467727661132812e+00 -4.012082517147064209e-01 -1.233253702521324158e-01 -1.573600918054580688e-01 -3.761875629425048828e-01
2.352000000000000000e+03 3.175628471374511719e+01 6.647589683532714844e+00 -1.270855784416198730e+00 -9.641225934028625488e-01 -6.704934835433959961e-01 -9.887116551399230957e-01
2.353000000000000000e+03 2.948344993591308594e+01 5.062614917755126953e+00 -1.901096701622009277e+00 -1.012826561927795410e+00 -8.741769790649414062e-01 -9.234749078750610352e-01
2.354000000000000000e+03 2.898420715332031250e+01 4.425388336181640625e+00 -1.921328067779541016e+00 -9.760580062866210938e-01 -8.692158460617065430e-01 -8.661531805992126465e-01
2.355000000000000000e+03 2.171539497375488281e+01 1.877904534339904785e-01 -1.478049993515014648e+00 1.303643137216567993e-01 -4.043057262897491455e-01 -2.121193170547485352e+00
2.356000000000000000e+03 5.275473785400390625e+01 4.002639389038085938e+01 3.511243760585784912e-01 1.301997452974319458e-01 1.443972289562225342e-01 7.870298810303211212e-03
2.357000000000000000e+03 7.499583435058593750e+01 3.607567596435546875e+01 6.575061082839965820e-01 5.302374362945556641e+00 1.787964105606079102e+00 -4.155729293823242188e+00
2.358000000000000000e+03 1.109045410156250000e+01 -4.461227893829345703e+00 -4.732984900474548340e-01 -9.741085022687911987e-02 -1.712128072977066040e-01 -3.704642355442047119e-01
2.359000000000000000e+03 8.875470161437988281e+00 -4.378715038299560547e+00 -2.939392030239105225e-01 -9.143138676881790161e-02 -1.156111732125282288e-01 -2.464787364006042480e-01
2.360000000000000000e+03 8.009299278259277344e+00 3.848790645599365234e+00 1.090768128633499146e-01 -2.407100945711135864e-01 -3.948998451232910156e-02 2.547665536403656006e-01
2.361000000000000000e+03 9.612192153930664062e+00 -4.379848957061767578e+00 -3.566696643829345703e-01 -6.878634542226791382e-02 -1.276368051767349243e-01 -2.786701023578643799e-01
2.362000000000000000e+03 7.418909549713134766e+00 4.657534599304199219e+00 1.355192512273788452e-01 -2.100070565938949585e-01 -2.234633825719356537e-02 2.003732472658157349e-01
2.363000000000000000e+03 7.290035247802734375e+00 3.923387050628662109e+00 5.820504948496818542e-02 -2.091500312089920044e-01 -4.528349637985229492e-02 2.547461986541748047e-01
2.364000000000000000e+03 5.233076095581054688e+00 4.100597381591796875e+00 -1.799279707483947277e-03 -1.381432265043258667e-01 -4.198275133967399597e-02 1.973208487033843994e-01
2.365000000000000000e+03 8.642327308654785156e+00 3.701383113861083984e+00 1.696676313877105713e-01 -2.795543968677520752e-01 -3.296603262424468994e-02 2.607366442680358887e-01
2.366000000000000000e+03 4.277255058288574219e+00 6.024836063385009766e+00 5.124589428305625916e-02 -1.696636676788330078e-01 -3.552532941102981567e-02 1.325085759162902832e-01
2.367000000000000000e+03 5.333835601806640625e+00 4.808830738067626953e+00 4.021536186337471008e-02 -1.596351414918899536e-01 -3.582593426108360291e-02 1.838688701391220093e-01
2.368000000000000000e+03 3.428920030593872070e+00 4.769534111022949219e+00 1.399386208504438400e-03 -1.323776990175247192e-01 -3.929349407553672791e-02 1.347258836030960083e-01
2.369000000000000000e+03 3.033344030380249023e+00 4.047338485717773438e+00 -1.543986517935991287e-02 -1.088281646370887756e-01 -3.728041052818298340e-02 1.270564943552017212e-01
2.370000000000000000e+03 1.488565206527709961e+00 4.897277832031250000e+00 2.626521163620054722e-04 -1.414971947669982910e-01 -4.237036034464836121e-02 7.119619846343994141e-02
2.371000000000000000e+03 5.435775375366210938e+01 3.253388977050781250e+01 -1.125348806381225586e+00 3.509386628866195679e-02 -3.270764648914337158e-01 -6.342825889587402344e-01
2.372000000000000000e+03 1.189638423919677734e+01 3.744943618774414062e+00 6.421815752983093262e-01 2.851383686065673828e-01 2.781959772109985352e-01 -2.741506397724151611e-01
2.373000000000000000e+03 5.354378509521484375e+01 3.151648139953613281e+01 -1.216255664825439453e+00 -9.165292978286743164e-02 -3.923726081848144531e-01 -7.631544470787048340e-01
2.374000000000000000e+03 5.967886734008789062e+01 3.078203010559082031e+01 -1.916940808296203613e+00 1.500436067581176758e-01 -5.300691723823547363e-01 -8.061332702636718750e-01
2.375000000000000000e+03 6.136265563964843750e+01 3.125826072692871094e+01 -2.306607484817504883e+00 8.405010402202606201e-02 -6.667671799659729004e-01 -6.868845820426940918e-01
2.376000000000000000e+03 6.818694305419921875e+01 3.095040702819824219e+01 -2.765630960464477539e+00 1.670589298009872437e-02 -8.246774673461914062e-01 -4.208866357803344727e-01
2.377000000000000000e+03 6.860793304443359375e+01 2.974720001220703125e+01 -1.582539677619934082e+00 2.926993668079376221e-01 -3.869521021842956543e-01 -1.624605506658554077e-01
2.378000000000000000e+03 6.425312042236328125e+01 3.039418792724609375e+01 -2.271446704864501953e+00 3.187632933259010315e-02 -6.718711256980895996e-01 -7.037557959556579590e-01
2.379000000000000000e+03 6.440821838378906250e+01 3.102795028686523438e+01 -2.670769453048706055e+00 6.719834636896848679e-03 -7.992148995399475098e-01 -6.381902098655700684e-01
2.380000000000000000e+03 6.578023529052734375e+01 3.031161117553710938e+01 -2.274308681488037109e+00 2.167768590152263641e-02 -6.757892966270446777e-01 -6.212788820266723633e-01
2.381000000000000000e+03 6.196995925903320312e+01 3.054849624633789062e+01 -2.130811452865600586e+00 8.609768003225326538e-02 -6.134141087532043457e-01 -7.725016474723815918e-01
2.382000000000000000e+03 1.088171577453613281e+01 2.621897459030151367e+00 4.043712019920349121e-01 -4.589346647262573242e-01 -1.636903919279575348e-02 3.159771561622619629e-01
2.383000000000000000e+03 1.069582366943359375e+01 3.262609481811523438e+00 5.246388912200927734e-01 -2.720547616481781006e-01 7.577524334192276001e-02 8.101854473352432251e-02
2.384000000000000000e+03 5.818623352050781250e+01 3.107382965087890625e+01 -1.762227296829223633e+00 1.826093345880508423e-01 -4.738853871822357178e-01 -7.979167699813842773e-01
2.385000000000000000e+03 6.349030303955078125e+01 3.044400978088378906e+01 -2.238691806793212891e+00 4.827828705310821533e-02 -6.571240425109863281e-01 -7.301450967788696289e-01
2.386000000000000000e+03 5.620022583007812500e+01 3.217850112915039062e+01 -1.473421454429626465e+00 1.639585196971893311e-01 -3.928388655185699463e-01 -6.645863652229309082e-01
2.387000000000000000e+03 5.799206924438476562e+01 3.042991638183593750e+01 -1.664504408836364746e+00 1.951671540737152100e-01 -4.408011734485626221e-01 -8.735958337783813477e-01
2.388000000000000000e+03 6.044164276123046875e+01 3.068185615539550781e+01 -1.988408446311950684e+00 1.286101043224334717e-01 -5.579394698143005371e-01 -7.991315126419067383e-01
2.389000000000000000e+03 6.120741653442382812e+01 3.060720634460449219e+01 -2.063309431076049805e+00 1.063958331942558289e-01 -5.870741009712219238e-01 -7.904166579246520996e-01
2.390000000000000000e+03 6.730738830566406250e+01 3.029179382324218750e+01 -2.215128421783447266e+00 5.197841301560401917e-02 -6.489449739456176758e-01 -4.687558412551879883e-01
2.391000000000000000e+03 4.881694793701171875e+01 3.915260314941406250e+01 2.808057963848114014e-01 4.085561260581016541e-02 9.649842232465744019e-02 7.427318394184112549e-02
2.392000000000000000e+03 6.654788970947265625e+01 3.029065895080566406e+01 -2.248452901840209961e+00 3.820037469267845154e-02 -6.630757451057434082e-01 -5.554280281066894531e-01
2.393000000000000000e+03 5.608580398559570312e+01 3.162062835693359375e+01 -1.490471720695495605e+00 1.695608049631118774e-01 -3.962732553482055664e-01 -7.498886585235595703e-01
2.394000000000000000e+03 5.316800689697265625e+01 3.125909805297851562e+01 -1.215600252151489258e+00 -1.748504489660263062e-01 -4.171352088451385498e-01 -7.861520648002624512e-01
2.395000000000000000e+03 5.480412292480468750e+01 3.190394020080566406e+01 -1.297486186027526855e+00 8.319789916276931763e-02 -3.642864823341369629e-01 -7.209544777870178223e-01
2.396000000000000000e+03 5.046997547149658203e+00 -4.686244487762451172e+00 -1.082892268896102905e-01 -7.631177455186843872e-02 -5.538029968738555908e-02 -1.173166111111640930e-01
2.397000000000000000e+03 5.828294754028320312e+00 -4.595119953155517578e+00 -1.340715438127517700e-01 -8.482802659273147583e-02 -6.566987186670303345e-02 -1.396533697843551636e-01
2.398000000000000000e+03 6.609147071838378906e+00 -4.511980533599853516e+00 -1.736040264368057251e-01 -7.315179705619812012e-02 -7.402674853801727295e-02 -1.640729308128356934e-01
2.399000000000000000e+03 8.033197402954101562e+00 -3.579984664916992188e+00 -2.284173965454101562e-01 -5.516488105058670044e-02 -8.507468551397323608e-02 -1.623426675796508789e-01
2.400000000000000000e+03 7.380019187927246094e+00 -4.446714401245117188e+00 -2.073170989751815796e-01 -8.439578115940093994e-02 -8.751386404037475586e-02 -1.894945055246353149e-01
2.401000000000000000e+03 3.341316938400268555e+00 -3.914086103439331055e+00 -4.587014019489288330e-02 -4.696387797594070435e-02 -2.785020507872104645e-02 -4.497270286083221436e-02
2.402000000000000000e+03 3.550090551376342773e+00 -5.794044017791748047e+00 -5.976714938879013062e-02 -1.065288037061691284e-01 -4.988878592848777771e-02 -1.054326966404914856e-01
2.403000000000000000e+03 2.704871892929077148e+00 -4.790017127990722656e+00 -3.392213210463523865e-02 -6.387085467576980591e-02 -2.933789603412151337e-02 -5.453114584088325500e-02
2.404000000000000000e+03 2.622819423675537109e+00 -5.700967788696289062e+00 -3.859184682369232178e-02 -8.391700685024261475e-02 -3.675265610218048096e-02 -7.209005206823348999e-02
2.405000000000000000e+03 1.602277183532714844e+01 -3.929322004318237305e+00 -1.032498717308044434e+00 -8.690906167030334473e-01 -5.704767704010009766e-01 -9.120112657546997070e-01
2.406000000000000000e+03 4.467458724975585938e+01 3.544685363769531250e+01 1.360506117343902588e-01 6.682498753070831299e-02 6.086267903447151184e-02 9.171844273805618286e-02
2.407000000000000000e+03 6.715376377105712891e+00 4.763387203216552734e+00 9.745103120803833008e-02 -1.926894932985305786e-01 -2.857153862714767456e-02 2.013505250215530396e-01
2.408000000000000000e+03 1.080629539489746094e+01 3.688120841979980469e+00 5.431364178657531738e-01 -1.576483249664306641e-01 1.156464219093322754e-01 -3.745795786380767822e-02
2.409000000000000000e+03 5.675881958007812500e+01 3.144187355041503906e+01 -1.587037682533264160e+00 1.847382783889770508e-01 -4.206898212432861328e-01 -7.692834734916687012e-01
2.410000000000000000e+03 5.093426513671875000e+01 3.880553817749023438e+01 3.665531873703002930e-01 2.953616529703140259e-02 1.188268065452575684e-01 8.875660598278045654e-02
2.411000000000000000e+03 2.192028236389160156e+01 4.268882274627685547e-01 -1.598724126815795898e+00 1.269153952598571777e-01 -4.415426254272460938e-01 -2.054415225982666016e+00
2.412000000000000000e+03 1.521632289886474609e+01 -5.848868370056152344e+00 -5.110539197921752930e-01 -7.239157557487487793e-01 -3.704909086227416992e-01 -8.067259788513183594e-01
2.413000000000000000e+03 4.699118423461914062e+01 3.960095596313476562e+01 2.456177622079849243e-01 5.510837584733963013e-02 9.021784365177154541e-02 4.863014072179794312e-02
2.414000000000000000e+03 4.760408020019531250e+01 3.778031158447265625e+01 2.325670868158340454e-01 6.386829167604446411e-02 8.893061429262161255e-02 8.412091434001922607e-02
2.415000000000000000e+03 1.184690952301025391e+01 -4.539824962615966797e+00 -5.347811579704284668e-01 -1.837132424116134644e-01 -2.155483216047286987e-01 -4.416993558406829834e-01
2.416000000000000000e+03 1.262433433532714844e+01 -4.636229991912841797e+00 -5.982266068458557129e-01 -1.904983222484588623e-01 -2.366174906492233276e-01 -5.126081109046936035e-01
2.417000000000000000e+03 5.119745635986328125e+01 3.950820922851562500e+01 3.907548189163208008e-01 6.035761162638664246e-02 1.353337317705154419e-01 2.172121778130531311e-02
2.418000000000000000e+03 5.940886306762695312e+01 4.104852676391601562e+01 3.790886998176574707e-01 -2.707431614398956299e-01 3.250366449356079102e-02 2.222724072635173798e-02
2.419000000000000000e+03 5.650791931152343750e+01 3.947928237915039062e+01 2.940079867839813232e-01 -1.161396577954292297e-01 5.336049571633338928e-02 3.465014696121215820e-02
2.420000000000000000e+03 4.582281112670898438e+01 3.700585556030273438e+01 1.819160431623458862e-01 6.109593436121940613e-02 7.290359586477279663e-02 9.148927032947540283e-02
2.421000000000000000e+03 4.676413345336914062e+01 3.781953811645507812e+01 2.191711962223052979e-01 6.420389562845230103e-02 8.501252532005310059e-02 7.907257974147796631e-02
2.422000000000000000e+03 1.613483428955078125e+01 -4.837776660919189453e+00 -7.047960758209228516e-01 -9.539394974708557129e-01 -4.976206719875335693e-01 -9.115527868270874023e-01
2.423000000000000000e+03 1.512762832641601562e+01 -3.987942934036254883e+00 -9.067165255546569824e-01 -5.129249691963195801e-01 -4.258924424648284912e-01 -7.727733850479125977e-01
2.424000000000000000e+03 1.689592170715332031e+01 -3.741971015930175781e+00 -1.032727718353271484e+00 -1.259758114814758301e+00 -6.877457499504089355e-01 -1.048603534698486328e+00
2.425000000000000000e+03 6.206692123413085938e+01 3.916732406616210938e+01 3.512014746665954590e-01 -3.385150730609893799e-01 3.805918619036674500e-03 3.397956192493438721e-01
2.426000000000000000e+03 2.670644950866699219e+01 -2.577928781509399414e+00 8.885789513587951660e-01 -2.316886745393276215e-02 2.596230208873748779e-01 -4.504625797271728516e-01
2.427000000000000000e+03 7.797261810302734375e+01 3.133924293518066406e+01 -2.100416421890258789e+00 1.646240806579589844e+01 4.308597564697265625e+00 -9.863512516021728516e-01
2.428000000000000000e+03 2.610381889343261719e+01 -1.740807533264160156e+00 6.650022864341735840e-01 1.149078607559204102e-01 2.339730560779571533e-01 -4.632853269577026367e-01
2.429000000000000000e+03 7.315973663330078125e+01 3.694841384887695312e+01 6.267517805099487305e-01 1.426618456840515137e+00 6.160110831260681152e-01 -8.488326668739318848e-01
2.430000000000000000e+03 1.917918777465820312e+01 -1.554170894622802734e+01 2.093275338411331177e-01 -2.401853054761886597e-01 -9.257330559194087982e-03 -2.483958303928375244e-01
2.431000000000000000e+03 2.053327751159667969e+01 -1.783296585083007812e+01 1.870617419481277466e-01 -4.691145196557044983e-02 4.204508662223815918e-02 -2.479731589555740356e-01
2.432000000000000000e+03 2.181722259521484375e+01 -2.002124023437500000e+01 1.792320907115936279e-01 8.454782515764236450e-02 7.913397252559661865e-02 -2.618737220764160156e-01
2.433000000000000000e+03 3.667502975463867188e+01 -1.299728965759277344e+01 2.925760149955749512e-01 -4.180489182472229004e-01 -3.764187172055244446e-02 -3.050169441848993301e-03
2.434000000000000000e+03 3.491056060791015625e+01 -1.081059932708740234e+01 4.101881086826324463e-01 -4.089943170547485352e-01 3.581358760129660368e-04 -8.260896056890487671e-02
2.435000000000000000e+03 3.639378356933593750e+01 -1.501213836669921875e+01 1.370662003755569458e-01 -4.415430426597595215e-01 -9.134306013584136963e-02 8.036854863166809082e-02
2.436000000000000000e+03 3.750443267822265625e+01 -1.420210647583007812e+01 2.116137593984603882e-01 -4.137485623359680176e-01 -6.064044311642646790e-02 2.367926388978958130e-02
2.437000000000000000e+03 3.409479141235351562e+01 -9.752878189086914062e+00 4.355766475200653076e-01 -3.936764299869537354e-01 1.257006078958511353e-02 -1.344385743141174316e-01
2.438000000000000000e+03 2.749345970153808594e+01 -1.904696464538574219e+00 5.546692013740539551e-01 -2.368022799491882324e-01 9.536007046699523926e-02 -2.878708541393280029e-01
2.439000000000000000e+03 3.333179855346679688e+01 -8.694644927978515625e+00 5.666124820709228516e-01 -3.812970221042633057e-01 5.559463426470756531e-02 -1.687333732843399048e-01
2.440000000000000000e+03 3.243804550170898438e+01 -9.379491806030273438e+00 4.259807169437408447e-01 -2.609257102012634277e-01 4.951650649309158325e-02 -2.045757472515106201e-01
2.441000000000000000e+03 1.709145355224609375e+01 -4.676643848419189453e+00 -7.275719046592712402e-01 -1.473120212554931641e+00 -6.602076292037963867e-01 -9.695506095886230469e-01
2.442000000000000000e+03 4.090980529785156250e+01 -2.054082679748535156e+01 -1.487488392740488052e-03 -3.137087523937225342e-01 -9.455887228250503540e-02 1.792743802070617676e-01
2.443000000000000000e+03 2.242550468444824219e+01 -2.107020568847656250e+01 1.933980286121368408e-01 1.572383344173431396e-01 1.051909103989601135e-01 -2.572233378887176514e-01
2.444000000000000000e+03 4.465255355834960938e+01 -2.698451423645019531e+01 -1.295118927955627441e-01 -2.470237389206886292e-02 -4.626427963376045227e-02 1.981951743364334106e-01
2.445000000000000000e+03 4.385249328613281250e+01 -2.609295845031738281e+01 -1.323356479406356812e-01 -1.356627494096755981e-01 -8.039951324462890625e-02 2.050539553165435791e-01
2.446000000000000000e+03 4.207235717773437500e+01 -2.293454551696777344e+01 -5.990597233176231384e-02 -2.649925351142883301e-01 -9.746955335140228271e-02 2.102252393960952759e-01
2.447000000000000000e+03 2.182154083251953125e+01 -2.267605972290039062e+01 2.071023881435394287e-01 1.060162410140037537e-01 9.393558651208877563e-02 -2.646703720092773438e-01
2.448000000000000000e+03 4.260871887207031250e+01 -2.406584167480468750e+01 -9.857051819562911987e-02 -2.513175904750823975e-01 -1.049664318561553955e-01 2.113665193319320679e-01
2.449000000000000000e+03 4.162907028198242188e+01 -2.470719528198242188e+01 -1.328496634960174561e-01 -3.871201872825622559e-01 -1.559909582138061523e-01 2.762120366096496582e-01
2.450000000000000000e+03 3.893052291870117188e+01 -1.677855873107910156e+01 1.030557900667190552e-01 -3.825560510158538818e-01 -8.385007828474044800e-02 9.227041155099868774e-02
2.451000000000000000e+03 2.118169021606445312e+01 -1.895270156860351562e+01 1.934384703636169434e-01 5.208859220147132874e-02 7.365811616182327271e-02 -2.380188256502151489e-01
2.452000000000000000e+03 2.563595199584960938e+01 -2.541376876831054688e+01 1.966223865747451782e-01 3.978060781955718994e-01 1.783285439014434814e-01 -3.107418715953826904e-01
2.453000000000000000e+03 2.509004402160644531e+01 -2.412812614440917969e+01 1.995470970869064331e-01 3.685450255870819092e-01 1.704276353120803833e-01 -2.889872789382934570e-01
2.454000000000000000e+03 2.749231719970703125e+01 -2.679782867431640625e+00 9.125915169715881348e-01 -3.250244632363319397e-02 2.640267312526702881e-01 -3.363415598869323730e-01
2.455000000000000000e+03 7.605938720703125000e+01 1.382240962982177734e+01 1.375515162944793701e-01 6.636766433715820312e+00 2.032295227050781250e+00 7.593008279800415039e-01
2.456000000000000000e+03 7.665051269531250000e+01 2.853717327117919922e+00 3.407423198223114014e-02 5.639913558959960938e+00 1.702196359634399414e+00 2.954638302326202393e-01
2.457000000000000000e+03 7.517431640625000000e+01 1.507348299026489258e+00 6.172849610447883606e-02 5.234819412231445312e+00 1.588964343070983887e+00 3.673783838748931885e-01
2.458000000000000000e+03 7.370922088623046875e+01 5.116865038871765137e-02 8.976142853498458862e-02 4.835961818695068359e+00 1.477717041969299316e+00 4.158060848712921143e-01
2.459000000000000000e+03 7.365944671630859375e+01 -7.347349643707275391e+00 5.583250150084495544e-02 4.536609172821044922e+00 1.377732515335083008e+00 2.697736620903015137e-01
2.460000000000000000e+03 7.706079101562500000e+01 9.775483131408691406e+00 5.135724321007728577e-02 6.441906452178955078e+00 1.947979092597961426e+00 4.337486326694488525e-01
2.461000000000000000e+03 7.581047821044921875e+01 8.486174583435058594e+00 8.671079576015472412e-02 5.930257797241210938e+00 1.805090546607971191e+00 5.284100174903869629e-01
2.462000000000000000e+03 7.674172210693359375e+01 4.261345863342285156e+00 3.557505831122398376e-02 5.772639274597167969e+00 1.742464303970336914e+00 3.163827061653137207e-01
2.463000000000000000e+03 7.544422149658203125e+01 4.370500087738037109e+00 7.088511437177658081e-02 5.480835437774658203e+00 1.665516138076782227e+00 4.255485534667968750e-01
2.464000000000000000e+03 7.601740264892578125e+01 1.249791240692138672e+01 1.225655376911163330e-01 6.446412086486816406e+00 1.970693349838256836e+00 6.884247660636901855e-01
2.465000000000000000e+03 7.523616027832031250e+01 -2.873851776123046875e+00 4.667403548955917358e-02 4.994168281555175781e+00 1.512252688407897949e+00 2.791856527328491211e-01
2.466000000000000000e+03 7.654073333740234375e+01 -4.302939891815185547e+00 2.215151488780975342e-02 5.155797004699707031e+00 1.553384542465209961e+00 1.909401267766952515e-01
2.467000000000000000e+03 7.519591522216796875e+01 -4.334980487823486328e+00 4.102177545428276062e-02 4.917796134948730469e+00 1.487645387649536133e+00 2.549367249011993408e-01
2.468000000000000000e+03 7.408171844482421875e+01 -1.578618907928466797e+01 2.296055108308792114e-02 4.376442432403564453e+00 1.319820880889892578e+00 1.578030884265899658e-01
2.469000000000000000e+03 7.525576782226562500e+01 -1.012038898468017578e+01 2.734108455479145050e-02 4.705913543701171875e+00 1.419976353645324707e+00 1.781171560287475586e-01
2.470000000000000000e+03 7.530409240722656250e+01 -1.151793098449707031e+01 2.358233928680419922e-02 4.671020984649658203e+00 1.408380985260009766e+00 1.622624099254608154e-01
2.471000000000000000e+03 7.518405151367187500e+01 -8.692416191101074219e+00 2.874937281012535095e-02 4.743095397949218750e+00 1.431553483009338379e+00 1.990435272455215454e-01
2.472000000000000000e+03 7.596407318115234375e+01 1.116858482360839844e+01 1.069513559341430664e-01 6.265162944793701172e+00 1.911634325981140137e+00 6.261664628982543945e-01
2.473000000000000000e+03 7.723371887207031250e+01 1.651972961425781250e+01 1.019260287284851074e-01 7.640125751495361328e+00 2.322615623474121094e+00 7.320567965507507324e-01
2.474000000000000000e+03 7.609848022460937500e+01 1.514508724212646484e+01 1.592214107513427734e-01 6.843756198883056641e+00 2.100893259048461914e+00 8.421819210052490234e-01
2.475000000000000000e+03 7.535666656494140625e+01 -1.710033988952636719e+01 1.222334522753953934e-02 4.527209758758544922e+00 1.361829996109008789e+00 1.190680563449859619e-01
2.476000000000000000e+03 7.665167236328125000e+01 -1.840840911865234375e+01 5.258318968117237091e-03 4.673678398132324219e+00 1.403681039810180664e+00 8.255669474601745605e-02
2.477000000000000000e+03 7.532854461669921875e+01 -1.850536155700683594e+01 1.043745409697294235e-02 4.492142677307128906e+00 1.350774049758911133e+00 1.126705631613731384e-01
2.478000000000000000e+03 7.497373199462890625e+01 -2.830876731872558594e+01 1.372330728918313980e-02 4.261970043182373047e+00 1.282707929611206055e+00 8.369637280702590942e-02
2.479000000000000000e+03 7.383026885986328125e+01 -2.283331108093261719e+01 1.095386594533920288e-02 4.214217185974121094e+00 1.267551302909851074e+00 1.200696825981140137e-01
2.480000000000000000e+03 7.504196929931640625e+01 2.138440704345703125e+01 4.265127182006835938e-01 6.989139080047607422e+00 2.224695444107055664e+00 1.598608374595642090e+00
2.481000000000000000e+03 7.724826049804687500e+01 1.785445022583007812e+01 1.151101738214492798e-01 7.949520111083984375e+00 2.419389009475708008e+00 8.250554800033569336e-01
2.482000000000000000e+03 7.615434265136718750e+01 1.776759529113769531e+01 2.074129879474639893e-01 7.297218322753906250e+00 2.251389265060424805e+00 1.044629931449890137e+00
2.483000000000000000e+03 7.521783447265625000e+01 -2.410541534423828125e+01 8.325347676873207092e-03 4.371359348297119141e+00 1.313905477523803711e+00 9.499907493591308594e-02
2.484000000000000000e+03 7.655506134033203125e+01 -2.539457702636718750e+01 4.687478300184011459e-03 4.513786792755126953e+00 1.355542302131652832e+00 6.655931472778320312e-02
2.485000000000000000e+03 7.387662506103515625e+01 -2.554851150512695312e+01 1.065887045115232468e-02 4.177087783813476562e+00 1.256323933601379395e+00 1.145517304539680481e-01
2.486000000000000000e+03 7.507832336425781250e+01 -3.067688751220703125e+01 1.127691753208637238e-02 4.244602680206298828e+00 1.276763916015625000e+00 6.140751019120216370e-02
2.487000000000000000e+03 7.365940856933593750e+01 -3.445880889892578125e+01 1.411252934485673904e-02 4.001537322998046875e+00 1.204694986343383789e+00 7.435905933380126953e-02
2.488000000000000000e+03 7.715335083007812500e+01 2.306486511230468750e+01 1.715880483388900757e-01 9.369956970214843750e+00 2.862463474273681641e+00 1.385138273239135742e+00
2.489000000000000000e+03 7.610903930664062500e+01 2.157734680175781250e+01 2.915587723255157471e-01 7.956168174743652344e+00 2.474318027496337891e+00 1.471385478973388672e+00
2.490000000000000000e+03 7.352966308593750000e+01 -2.828120231628417969e+01 2.195682190358638763e-02 4.092290401458740234e+00 1.234274268150329590e+00 9.969858825206756592e-02
2.491000000000000000e+03 7.640055847167968750e+01 -3.072146415710449219e+01 1.698979292996227741e-03 4.405478954315185547e+00 1.322153449058532715e+00 5.293961241841316223e-02
2.492000000000000000e+03 7.506629180908203125e+01 -2.956492996215820312e+01 8.362106047570705414e-03 4.252132415771484375e+00 1.278148412704467773e+00 7.363781332969665527e-02
2.493000000000000000e+03 7.582218170166015625e+01 2.507950019836425781e+01 2.500607073307037354e-01 8.268345832824707031e+00 2.555521965026855469e+00 1.932350277900695801e+00
2.494000000000000000e+03 7.727855682373046875e+01 2.883266258239746094e+01 -9.653281569480895996e-01 1.213441276550292969e+01 3.350725412368774414e+00 1.492644190788269043e+00
2.495000000000000000e+03 7.563084411621093750e+01 2.604792404174804688e+01 1.636103540658950806e-01 8.155368804931640625e+00 2.495693922042846680e+00 2.103351831436157227e+00
2.496000000000000000e+03 3.850259017944335938e+01 -1.872691726684570312e+01 -1.931571215391159058e-02 -4.602361917495727539e-01 -1.438655704259872437e-01 1.764374226331710815e-01
2.497000000000000000e+03 2.691208457946777344e+01 -2.796909523010253906e+01 2.315030694007873535e-01 4.674991071224212646e-01 2.097006589174270630e-01 -3.370718061923980713e-01
2.498000000000000000e+03 4.130878925323486328e+00 -1.587532424926757812e+01 1.261572819203138351e-02 -5.879889130592346191e-01 -1.726119667291641235e-01 -2.517479062080383301e-01
2.499000000000000000e+03 4.133200168609619141e+00 2.189878845214843750e+01 -2.845627255737781525e-03 -1.571844369173049927e-01 -4.800901934504508972e-02 -2.452570572495460510e-02
2.500000000000000000e+03 2.922535657882690430e+00 2.055053901672363281e+01 -1.164780929684638977e-03 -1.992368996143341064e-01 -6.012050434947013855e-02 -2.202394790947437286e-02
2.501000000000000000e+03 4.093987464904785156e+00 2.053247451782226562e+01 -2.501520793884992599e-03 -1.609734594821929932e-01 -4.904249683022499084e-02 -2.556353621184825897e-02
2.502000000000000000e+03 4.212844848632812500e+00 -1.721021461486816406e+01 2.371563389897346497e-02 -6.439906954765319824e-01 -1.860825121402740479e-01 -2.424669712781906128e-01
2.503000000000000000e+03 4.490490436553955078e+00 -2.132252693176269531e+01 3.010118938982486725e-02 -8.016410470008850098e-01 -2.314619570970535278e-01 -2.099142074584960938e-01
2.504000000000000000e+03 4.037036895751953125e+00 1.779929542541503906e+01 1.214672345668077469e-03 -1.684464514255523682e-01 -5.016953125596046448e-02 -2.550439909100532532e-02
2.505000000000000000e+03 4.064942359924316406e+00 1.916494560241699219e+01 -5.990552017465233803e-04 -1.648147851228713989e-01 -4.962415248155593872e-02 -2.631217241287231445e-02
2.506000000000000000e+03 2.843068361282348633e+00 1.501122188568115234e+01 6.729052867740392685e-03 -2.241460382938385010e-01 -6.522509455680847168e-02 -1.656099036335945129e-02
2.507000000000000000e+03 5.081351757049560547e+00 1.369076347351074219e+01 2.611304447054862976e-02 -1.321279704570770264e-01 -3.180447593331336975e-02 -1.404814235866069794e-02
2.508000000000000000e+03 4.488706111907958984e+00 -2.798668861389160156e+01 3.291008621454238892e-02 -9.966398477554321289e-01 -2.891189455986022949e-01 -1.309949457645416260e-01
2.509000000000000000e+03 3.217141866683959961e+00 -2.290956115722656250e+01 1.661153137683868408e-02 -9.193900227546691895e-01 -2.708335518836975098e-01 -1.460831314325332642e-01
2.510000000000000000e+03 4.546688556671142578e+00 -2.270656394958496094e+01 3.279189020395278931e-02 -8.413811326026916504e-01 -2.425767779350280762e-01 -1.925204247236251831e-01
2.511000000000000000e+03 5.303034782409667969e+00 2.186964225769042969e+01 -4.634419921785593033e-03 -1.219503805041313171e-01 -3.797544166445732117e-02 -2.569022960960865021e-02
2.512000000000000000e+03 4.256217002868652344e+00 2.461495590209960938e+01 -3.626637393608689308e-03 -1.491966992616653442e-01 -4.584700241684913635e-02 -2.127261087298393250e-02
2.513000000000000000e+03 4.783605098724365234e+00 2.865739631652832031e+01 -4.540171474218368530e-03 -1.305372118949890137e-01 -4.052321612834930420e-02 -1.584389805793762207e-02
2.514000000000000000e+03 5.401786804199218750e+00 -1.701857376098632812e+01 2.912513725459575653e-02 -6.202069520950317383e-01 -1.773245334625244141e-01 -2.948755621910095215e-01
2.515000000000000000e+03 4.306335926055908203e+00 -1.856205940246582031e+01 2.469969540834426880e-02 -7.025324702262878418e-01 -2.033498287200927734e-01 -2.351378351449966431e-01
2.516000000000000000e+03 5.939250946044921875e+00 -2.390721702575683594e+01 5.005381628870964050e-02 -8.071550130844116211e-01 -2.271303534507751465e-01 -2.169450223445892334e-01
2.517000000000000000e+03 3.225932598114013672e+00 -2.428016853332519531e+01 1.770628429949283600e-02 -9.663022756576538086e-01 -2.845788002014160156e-01 -1.298148930072784424e-01
2.518000000000000000e+03 4.533565521240234375e+00 -2.543415260314941406e+01 3.083767928183078766e-02 -9.271816015243530273e-01 -2.689031660556793213e-01 -1.587061136960983276e-01
2.519000000000000000e+03 3.941306114196777344e+00 -1.060597515106201172e+01 -3.355352953076362610e-02 -3.257065415382385254e-01 -1.077780202031135559e-01 -2.336198836565017700e-01
2.520000000000000000e+03 3.890969991683959961e+00 -9.312166213989257812e+00 -4.451504349708557129e-02 -2.550653517246246338e-01 -8.987411856651306152e-02 -2.055711150169372559e-01
2.521000000000000000e+03 4.007381916046142578e+00 -1.323602867126464844e+01 -6.396599113941192627e-03 -4.606011509895324707e-01 -1.400993317365646362e-01 -2.543341815471649170e-01
2.522000000000000000e+03 4.186166286468505859e+00 2.325989913940429688e+01 -3.900836920365691185e-03 -1.530063450336456299e-01 -4.707215353846549988e-02 -2.287403680384159088e-02
2.523000000000000000e+03 4.351469516754150391e+00 2.596300888061523438e+01 -5.006588529795408249e-03 -1.446661651134490967e-01 -4.490182921290397644e-02 -1.979842409491539001e-02
2.524000000000000000e+03 4.992110252380371094e+00 1.089306449890136719e+01 5.476818606257438660e-02 -1.473748087882995605e-01 -2.778198756277561188e-02 1.595202274620532990e-02
2.525000000000000000e+03 3.453776359558105469e+00 -2.960433959960937500e+01 2.024200372397899628e-02 -1.106567740440368652e+00 -3.258976936340332031e-01 -8.987382799386978149e-02
2.526000000000000000e+03 4.678008556365966797e+00 -2.918394851684570312e+01 2.754158340394496918e-02 -1.013466477394104004e+00 -2.957774698734283447e-01 -1.237142607569694519e-01
2.527000000000000000e+03 5.480153560638427734e+00 3.556696701049804688e+01 -3.577279159799218178e-03 -1.115723922848701477e-01 -3.454490005970001221e-02 -6.480345036834478378e-03
2.528000000000000000e+03 3.884712934494018555e+00 1.087816715240478516e+01 3.879966214299201965e-02 -1.868899166584014893e-01 -4.442707449197769165e-02 1.893514581024646759e-02
2.529000000000000000e+03 3.971542119979858398e+00 -1.191910266876220703e+01 -1.540808938443660736e-02 -3.899462223052978516e-01 -1.216062977910041809e-01 -2.442760765552520752e-01
2.530000000000000000e+03 4.407124996185302734e+00 -5.748422145843505859e+00 -8.855735510587692261e-02 -1.086030080914497375e-01 -5.914811044931411743e-02 -1.329389214515686035e-01
2.531000000000000000e+03 8.247633934020996094e+00 -3.191500473022460938e+01 7.921076565980911255e-02 -7.958808541297912598e-01 -2.150010317564010620e-01 -1.538270413875579834e-01
2.532000000000000000e+03 5.119731903076171875e+00 -3.037813186645507812e+01 3.403161466121673584e-02 -1.005677819252014160e+00 -2.914938628673553467e-01 -1.191163882613182068e-01
2.533000000000000000e+03 6.818276882171630859e+00 -3.152887344360351562e+01 5.849578976631164551e-02 -9.038931727409362793e-01 -2.536192238330841064e-01 -1.392537355422973633e-01
2.534000000000000000e+03 3.753659963607788086e+00 -3.091306877136230469e+01 1.505554188042879105e-02 -1.118749976158142090e+00 -3.311083316802978516e-01 -8.576279878616333008e-02
2.535000000000000000e+03 5.434381961822509766e+00 3.175351142883300781e+01 -5.780533421784639359e-03 -1.172597035765647888e-01 -3.691207244992256165e-02 -1.249218918383121490e-02
2.536000000000000000e+03 3.008782386779785156e+00 3.654289627075195312e+01 2.213805913925170898e-03 -1.511007398366928101e-01 -4.466608166694641113e-02 -4.560273606330156326e-03
2.537000000000000000e+03 3.843195199966430664e+00 3.350122833251953125e+01 -2.506984164938330650e-03 -1.409340500831604004e-01 -4.303231090307235718e-02 -7.452152203768491745e-03
2.538000000000000000e+03 5.147324085235595703e+00 3.010283279418945312e+01 -4.720988683402538300e-03 -1.222871169447898865e-01 -3.810242936015129089e-02 -1.448190398514270782e-02
2.539000000000000000e+03 3.820352077484130859e+00 8.208637237548828125e+00 5.473209917545318604e-02 -1.866129636764526367e-01 -3.956425935029983521e-02 7.277312874794006348e-02
2.540000000000000000e+03 4.743899822235107422e+00 4.826619625091552734e+00 2.728981152176856995e-02 -1.488586962223052979e-01 -3.647066280245780945e-02 1.698220670223236084e-01
2.541000000000000000e+03 2.614342212677001953e+00 -6.826432228088378906e+00 -3.315511345863342285e-02 -1.262212395668029785e-01 -4.781290516257286072e-02 -9.740284830331802368e-02
2.542000000000000000e+03 4.550642395019531250e+01 -2.790643882751464844e+01 -1.498322337865829468e-01 9.605261683464050293e-02 -1.613388396799564362e-02 1.830688714981079102e-01
2.543000000000000000e+03 6.665402221679687500e+01 3.876438140869140625e+01 8.525325655937194824e-01 -4.175941646099090576e-01 1.304815262556076050e-01 6.800540685653686523e-01
2.544000000000000000e+03 2.646302032470703125e+01 -2.993340682983398438e+01 2.774190306663513184e-01 4.036865532398223877e-01 2.043316811323165894e-01 -3.266568481922149658e-01
2.545000000000000000e+03 2.849923324584960938e+01 -3.382884597778320312e+01 3.989005088806152344e-01 4.384392797946929932e-01 2.512019276618957520e-01 -3.216936290264129639e-01
2.546000000000000000e+03 7.588188934326171875e+01 3.637055969238281250e+01 -8.395881652832031250e-01 1.185989379882812500e+01 3.306091785430908203e+00 -3.963709592819213867e+00
2.547000000000000000e+03 1.763074111938476562e+01 -1.331647205352783203e+01 2.135171294212341309e-01 -4.976874589920043945e-01 -8.525109291076660156e-02 -3.121086657047271729e-01
2.548000000000000000e+03 1.865439605712890625e+01 -1.236524391174316406e+01 1.969186663627624512e-01 -4.048471450805664062e-01 -6.237854063510894775e-02 -2.191786020994186401e-01
2.549000000000000000e+03 3.260808944702148438e+01 -7.615518093109130859e+00 6.008976697921752930e-01 -3.666236400604248047e-01 7.028221338987350464e-02 -1.975696831941604614e-01
2.550000000000000000e+03 2.571453857421875000e+01 -8.770845532417297363e-01 2.659749686717987061e-01 -3.675965359434485435e-03 7.868970185518264771e-02 -3.701267540454864502e-01
2.551000000000000000e+03 2.286147689819335938e+01 9.322510361671447754e-01 -2.118949413299560547e+00 -1.901737898588180542e-01 -6.927369832992553711e-01 -1.422986745834350586e+00
2.552000000000000000e+03 4.637257766723632812e+01 -2.892775344848632812e+01 -1.351887434720993042e-01 2.333678752183914185e-01 2.945373766124248505e-02 1.953473687171936035e-01
2.553000000000000000e+03 4.599182510375976562e+01 -3.110761260986328125e+01 -1.769523471593856812e-01 9.688884019851684570e-02 -2.401905134320259094e-02 2.624689638614654541e-01
2.554000000000000000e+03 1.551985454559326172e+01 -9.586957931518554688e+00 5.040883645415306091e-02 -7.714384198188781738e-01 -2.163088768720626831e-01 -5.478230714797973633e-01
2.555000000000000000e+03 1.723054122924804688e+01 -7.174408435821533203e+00 -7.645510882139205933e-02 -1.278218507766723633e+00 -4.064020812511444092e-01 -5.839227437973022461e-01
2.556000000000000000e+03 3.056518554687500000e+01 -3.285799407958984375e+01 4.079384207725524902e-01 5.929363369941711426e-01 3.002624511718750000e-01 -3.993195295333862305e-01
2.557000000000000000e+03 3.093801879882812500e+01 -7.192716121673583984e+00 6.573134660720825195e-01 -1.584876328706741333e-01 1.496477425098419189e-01 -3.043704032897949219e-01
2.558000000000000000e+03 3.190638542175292969e+01 -6.504703044891357422e+00 7.332070469856262207e-01 -3.629011213779449463e-01 1.110917925834655762e-01 -2.104544639587402344e-01
2.559000000000000000e+03 5.505857086181640625e+01 3.961388015747070312e+01 3.296023309230804443e-01 -5.704222992062568665e-02 8.176802843809127808e-02 -3.678248450160026550e-02
2.560000000000000000e+03 3.578189086914062500e+01 -1.188552665710449219e+01 3.154506087303161621e-01 -4.188416600227355957e-01 -3.101731278002262115e-02 -4.782166332006454468e-02
2.561000000000000000e+03 3.208502578735351562e+01 -4.103964614868164062e+01 8.531890511512756348e-01 3.295608460903167725e-01 3.548249602317810059e-01 -1.227250248193740845e-01
2.562000000000000000e+03 3.119640731811523438e+01 -3.837220764160156250e+01 6.529360413551330566e-01 3.979850411415100098e-01 3.152763247489929199e-01 -3.006079196929931641e-01
2.563000000000000000e+03 4.989892578125000000e+01 -3.340119552612304688e+01 3.577367961406707764e-02 9.174600243568420410e-01 2.859701216220855713e-01 3.416367173194885254e-01
2.564000000000000000e+03 4.864624023437500000e+01 -3.533889770507812500e+01 2.223407477140426636e-01 7.027114033699035645e-01 2.775156497955322266e-01 4.552225172519683838e-01
2.565000000000000000e+03 4.711278152465820312e+01 -4.152980422973632812e+01 1.264851808547973633e+00 4.166081845760345459e-01 5.044379830360412598e-01 1.189886704087257385e-01
2.566000000000000000e+03 4.968284225463867188e+01 -3.958836364746093750e+01 8.431996107101440430e-01 6.379392147064208984e-01 4.443416297435760498e-01 2.879418432712554932e-01
2.567000000000000000e+03 2.491537094116210938e+01 -2.747199630737304688e+01 2.308534234762191772e-01 3.180840909481048584e-01 1.646812558174133301e-01 -3.088597953319549561e-01
2.568000000000000000e+03 2.567641830444335938e+01 -2.874399757385253906e+01 2.679202556610107422e-01 3.631624281406402588e-01 1.893247961997985840e-01 -3.175981044769287109e-01
2.569000000000000000e+03 6.544421386718750000e+01 4.027331924438476562e+01 9.028419852256774902e-01 -5.103217363357543945e-01 1.177560687065124512e-01 3.257282078266143799e-01
2.570000000000000000e+03 7.061297607421875000e+01 3.813105392456054688e+01 8.152605891227722168e-01 9.661166071891784668e-01 5.344131588935852051e-01 3.318918943405151367e-01
2.571000000000000000e+03 5.186581420898437500e+01 -3.367805480957031250e+01 1.108493581414222717e-01 1.174871921539306641e+00 3.857163786888122559e-01 3.483336865901947021e-01
2.572000000000000000e+03 4.746401977539062500e+01 -2.775835800170898438e+01 -1.122878640890121460e-01 4.663725793361663818e-01 1.062254160642623901e-01 1.513613313436508179e-01
2.573000000000000000e+03 7.607878875732421875e+01 2.735455703735351562e+01 -1.065143793821334839e-01 9.262494087219238281e+00 2.746793985366821289e+00 2.118431806564331055e+00
2.574000000000000000e+03 7.521748352050781250e+01 3.199231529235839844e+01 -8.612776994705200195e-01 6.827764987945556641e+00 1.789946198463439941e+00 4.901868820190429688e+00
2.575000000000000000e+03 7.604573822021484375e+01 3.037841224670410156e+01 -1.657918572425842285e+00 1.099532508850097656e+01 2.801222085952758789e+00 3.173192739486694336e+00
2.576000000000000000e+03 7.552579498291015625e+01 3.175541877746582031e+01 -1.286418676376342773e+00 9.110236167907714844e+00 2.347145080566406250e+00 5.161188125610351562e+00
2.577000000000000000e+03 2.827897262573242188e+01 4.101002693176269531e+00 -2.023534059524536133e+00 -9.686834812164306641e-01 -8.976652622222900391e-01 -9.576472640037536621e-01
2.578000000000000000e+03 2.852434730529785156e+01 3.815501928329467773e+00 -1.895656585693359375e+00 -8.418343663215637207e-01 -8.212472796440124512e-01 -7.905451059341430664e-01
2.579000000000000000e+03 2.781113624572753906e+01 3.743414402008056641e+00 -2.119933128356933594e+00 -8.407769203186035156e-01 -8.882130384445190430e-01 -9.431145787239074707e-01
2.580000000000000000e+03 2.624771690368652344e+01 3.725572586059570312e+00 -2.735663652420043945e+00 -7.918914556503295898e-01 -1.058266520500183105e+00 -1.307469248771667480e+00
2.581000000000000000e+03 2.777297973632812500e+01 4.023817539215087891e+00 -2.161998033523559570e+00 -9.237464666366577148e-01 -9.257233738899230957e-01 -1.042488932609558105e+00
2.582000000000000000e+03 2.461012649536132812e+01 2.498772621154785156e+00 -2.789991378784179688e+00 -5.045024752616882324e-01 -9.883481264114379883e-01 -1.224225163459777832e+00
2.583000000000000000e+03 2.465465164184570312e+01 1.846606612205505371e+00 -2.345214128494262695e+00 -3.200511932373046875e-01 -7.995796203613281250e-01 -9.205859303474426270e-01
2.584000000000000000e+03 2.443682289123535156e+01 1.629388570785522461e+00 -2.230125427246093750e+00 -2.651282846927642822e-01 -7.485761642456054688e-01 -9.616921544075012207e-01
2.585000000000000000e+03 2.530518722534179688e+01 2.862997055053710938e+00 -2.734476566314697266e+00 -5.597548484802246094e-01 -9.882694482803344727e-01 -1.184151649475097656e+00
2.586000000000000000e+03 2.558660125732421875e+01 2.675174713134765625e+00 -2.499804735183715820e+00 -5.198232531547546387e-01 -9.058883786201477051e-01 -1.036104083061218262e+00
2.587000000000000000e+03 2.737179183959960938e+01 3.840965747833251953e+00 -2.269525051116943359e+00 -8.907534480094909668e-01 -9.480835199356079102e-01 -1.108647942543029785e+00
2.588000000000000000e+03 2.274818611145019531e+01 -3.793029189109802246e-01 -2.300741821527481079e-01 8.337323069572448730e-01 1.810974329710006714e-01 -1.145488858222961426e+00
2.589000000000000000e+03 2.924164390563964844e+01 4.524132728576660156e+00 -1.860393643379211426e+00 -9.548832774162292480e-01 -8.445830941200256348e-01 -8.381281495094299316e-01
2.590000000000000000e+03 2.931501770019531250e+01 4.876438140869140625e+00 -1.914459705352783203e+00 -9.963788986206054688e-01 -8.732516169548034668e-01 -9.001215100288391113e-01
2.591000000000000000e+03 7.680074310302734375e+01 3.750818252563476562e+01 -1.906427860260009766e+00 1.397307777404785156e+01 3.619994878768920898e+00 -1.327684760093688965e+00
2.592000000000000000e+03 2.427773284912109375e+01 -7.481288313865661621e-01 7.208449244499206543e-01 4.323234260082244873e-01 3.459505140781402588e-01 -4.267345964908599854e-01
2.593000000000000000e+03 1.939941024780273438e+01 1.105676078796386719e+01 1.809971332550048828e-01 2.471309155225753784e-01 1.284384131431579590e-01 2.154750376939773560e-01
2.594000000000000000e+03 2.372352409362792969e+01 1.086186170578002930e+00 -1.881893992424011230e+00 -6.300595402717590332e-02 -5.834699869155883789e-01 -9.810922145843505859e-01
2.595000000000000000e+03 3.999870300292968750e+01 1.943256187438964844e+01 -1.068469643592834473e+00 -1.185372829437255859e+00 -6.761527657508850098e-01 -1.232778549194335938e+00
2.596000000000000000e+03 1.575480747222900391e+01 7.856372833251953125e+00 1.843270361423492432e-01 4.116662442684173584e-01 1.787979900836944580e-01 2.523823976516723633e-01
2.597000000000000000e+03 4.152080535888671875e+01 2.117737960815429688e+01 -1.186187148094177246e+00 -1.206249833106994629e+00 -7.177311182022094727e-01 -1.229554057121276855e+00
2.598000000000000000e+03 2.924539184570312500e+01 2.084396362304687500e+01 1.121904253959655762e-01 1.374167799949645996e-01 7.488215714693069458e-02 1.259126812219619751e-01
2.599000000000000000e+03 3.057315254211425781e+01 2.225522041320800781e+01 9.650779515504837036e-02 1.305441707372665405e-01 6.811559200286865234e-02 1.173965781927108765e-01
2.600000000000000000e+03 3.487144088745117188e+01 2.736359024047851562e+01 8.661685138940811157e-02 1.211669147014617920e-01 6.233512982726097107e-02 1.010719537734985352e-01
2.601000000000000000e+03 3.885212707519531250e+01 1.827508926391601562e+01 -1.112771987915039062e+00 -1.287302136421203613e+00 -7.200222611427307129e-01 -1.222380638122558594e+00
2.602000000000000000e+03 3.973366165161132812e+01 1.911228370666503906e+01 -1.074661374092102051e+00 -1.200253486633300781e+00 -6.824744343757629395e-01 -1.228380084037780762e+00
2.603000000000000000e+03 2.406059646606445312e+01 1.609084320068359375e+01 1.394645273685455322e-01 1.807303875684738159e-01 9.605847299098968506e-02 1.626226305961608887e-01
2.604000000000000000e+03 2.388441658020019531e+01 1.522192382812500000e+01 1.541719734668731689e-01 1.874732077121734619e-01 1.024935543537139893e-01 1.723373383283615112e-01
2.605000000000000000e+03 1.765592575073242188e+01 9.519810676574707031e+00 1.932481825351715088e-01 3.011308312416076660e-01 1.483137011528015137e-01 2.280963212251663208e-01
2.606000000000000000e+03 3.277487182617187500e+01 2.511973381042480469e+01 8.610883355140686035e-02 1.244206279516220093e-01 6.315883994102478027e-02 1.055415868759155273e-01
2.607000000000000000e+03 2.453046798706054688e+01 1.653161239624023438e+01 1.400113254785537720e-01 1.744055598974227905e-01 9.432506561279296875e-02 1.598683893680572510e-01
2.608000000000000000e+03 3.282613372802734375e+01 2.456285095214843750e+01 8.814769238233566284e-02 1.242917254567146301e-01 6.373182684183120728e-02 1.068581044673919678e-01
2.609000000000000000e+03 4.719165802001953125e+01 2.537925338745117188e+01 -1.260681509971618652e+00 -9.842129349708557129e-01 -6.734683513641357422e-01 -1.177633523941040039e+00
2.610000000000000000e+03 4.721778488159179688e+01 2.596011734008789062e+01 -1.281259179115295410e+00 -1.030026316642761230e+00 -6.933856010437011719e-01 -1.209803104400634766e+00
2.611000000000000000e+03 4.207699584960937500e+01 2.172176361083984375e+01 -1.258768916130065918e+00 -1.208974719047546387e+00 -7.403231263160705566e-01 -1.235989093780517578e+00
2.612000000000000000e+03 7.363504791259765625e+01 3.129614639282226562e+01 -1.129535436630249023e+00 2.628464221954345703e+00 4.496786296367645264e-01 2.199618339538574219e+00
2.613000000000000000e+03 2.092228317260742188e+01 1.312672138214111328e+01 1.603810638189315796e-01 2.207028120756149292e-01 1.143251657485961914e-01 1.861410886049270630e-01
2.614000000000000000e+03 2.028345680236816406e+01 1.173719215393066406e+01 1.793497651815414429e-01 2.317918092012405396e-01 1.233424693346023560e-01 2.036570608615875244e-01
2.615000000000000000e+03 1.946137809753417969e+01 1.155158138275146484e+01 1.703981906175613403e-01 2.434903979301452637e-01 1.241665780544281006e-01 2.042432725429534912e-01
2.616000000000000000e+03 3.856758880615234375e+01 1.799664115905761719e+01 -1.127350926399230957e+00 -1.322340250015258789e+00 -7.349073886871337891e-01 -1.220947980880737305e+00
2.617000000000000000e+03 3.942956924438476562e+01 1.883101081848144531e+01 -1.087329268455505371e+00 -1.224649906158447266e+00 -6.935937404632568359e-01 -1.225960850715637207e+00
2.618000000000000000e+03 4.638020324707031250e+01 2.515129852294921875e+01 -1.309077501296997070e+00 -1.076881408691406250e+00 -7.157877087593078613e-01 -1.220801830291748047e+00
2.619000000000000000e+03 2.068037986755371094e+01 1.281719970703125000e+01 1.612650454044342041e-01 2.239655703306198120e-01 1.155691817402839661e-01 1.901992261409759521e-01
2.620000000000000000e+03 4.292581939697265625e+01 2.252456665039062500e+01 -1.317269682884216309e+00 -1.210920691490173340e+00 -7.584571242332458496e-01 -1.273555994033813477e+00
2.621000000000000000e+03 4.373332214355468750e+01 2.279441070556640625e+01 -1.278130054473876953e+00 -1.202091217041015625e+00 -7.440663576126098633e-01 -1.245044708251953125e+00
2.622000000000000000e+03 3.590856170654296875e+01 2.802992057800292969e+01 9.162633121013641357e-02 1.190510466694831848e-01 6.320321559906005859e-02 9.937355667352676392e-02
2.623000000000000000e+03 3.511914443969726562e+01 2.763999748229980469e+01 8.753120899200439453e-02 1.202519610524177551e-01 6.233495101332664490e-02 1.005157455801963806e-01
2.624000000000000000e+03 1.802467918395996094e+01 9.695178985595703125e+00 1.931544840335845947e-01 2.880404293537139893e-01 1.443584710359573364e-01 2.282817512750625610e-01
2.625000000000000000e+03 1.668575286865234375e+01 8.797472000122070312e+00 1.902466267347335815e-01 3.352750241756439209e-01 1.576564908027648926e-01 2.400301694869995117e-01
2.626000000000000000e+03 4.803181457519531250e+01 2.620014762878417969e+01 -1.252970099449157715e+00 -9.456791281700134277e-01 -6.595947742462158203e-01 -1.154491186141967773e+00
2.627000000000000000e+03 4.811241531372070312e+01 2.735582542419433594e+01 -1.311614036560058594e+00 -1.035971045494079590e+00 -7.042755484580993652e-01 -1.191102504730224609e+00
2.628000000000000000e+03 3.567309188842773438e+01 1.432875728607177734e+01 -1.174628496170043945e+00 -1.349874615669250488e+00 -7.573509216308593750e-01 -1.241971969604492188e+00
2.629000000000000000e+03 3.513833618164062500e+01 1.428665161132812500e+01 -1.216888904571533203e+00 -1.383788824081420898e+00 -7.802033424377441406e-01 -1.282187819480895996e+00
2.630000000000000000e+03 3.395794677734375000e+01 1.195366859436035156e+01 -1.213848233222961426e+00 -1.282890081405639648e+00 -7.490214705467224121e-01 -1.198921918869018555e+00
2.631000000000000000e+03 3.444168472290039062e+01 1.345268726348876953e+01 -1.244313240051269531e+00 -1.379201412200927734e+00 -7.870544195175170898e-01 -1.259247303009033203e+00
2.632000000000000000e+03 2.154217338562011719e+01 1.365765190124511719e+01 1.607290059328079224e-01 2.127766609191894531e-01 1.120517030358314514e-01 1.808664649724960327e-01
2.633000000000000000e+03 2.517607307434082031e+01 1.734378242492675781e+01 1.347507387399673462e-01 1.692779362201690674e-01 9.120860695838928223e-02 1.507809758186340332e-01
2.634000000000000000e+03 4.316746520996093750e+01 2.226336669921875000e+01 -1.259308099746704102e+00 -1.189404845237731934e+00 -7.346138954162597656e-01 -1.236785769462585449e+00
2.635000000000000000e+03 3.797029495239257812e+01 3.064258193969726562e+01 9.320313483476638794e-02 1.057061478495597839e-01 5.967278406023979187e-02 9.356477111577987671e-02
2.636000000000000000e+03 3.840620422363281250e+01 3.107422447204589844e+01 9.507992863655090332e-02 1.019265502691268921e-01 5.910194665193557739e-02 9.192116558551788330e-02
2.637000000000000000e+03 3.912203598022460938e+01 1.796686172485351562e+01 -1.100785613059997559e+00 -1.238732576370239258e+00 -7.018554210662841797e-01 -1.197669506072998047e+00
2.638000000000000000e+03 4.778284072875976562e+01 2.650422859191894531e+01 -1.276075005531311035e+00 -1.005898952484130859e+00 -6.845921874046325684e-01 -1.187923312187194824e+00
2.639000000000000000e+03 3.008526039123535156e+01 2.166896057128906250e+01 1.035437360405921936e-01 1.332204192876815796e-01 7.102924585342407227e-02 1.193406432867050171e-01
2.640000000000000000e+03 3.592403030395507812e+01 1.461642360687255859e+01 -1.165584683418273926e+00 -1.354178905487060547e+00 -7.559291124343872070e-01 -1.241639137268066406e+00
2.641000000000000000e+03 3.616072463989257812e+01 1.543535041809082031e+01 -1.170804858207702637e+00 -1.406921386718750000e+00 -7.733178734779357910e-01 -1.275622129440307617e+00
2.642000000000000000e+03 1.567925071716308594e+01 7.045814990997314453e+00 2.153768092393875122e-01 4.375981390476226807e-01 1.958924829959869385e-01 2.887187898159027100e-01
2.643000000000000000e+03 3.307229614257812500e+01 1.147297763824462891e+01 -1.285826206207275391e+00 -1.277320146560668945e+00 -7.689439058303833008e-01 -1.221170902252197266e+00
2.644000000000000000e+03 3.358137130737304688e+01 2.595538711547851562e+01 8.550302684307098389e-02 1.241173371672630310e-01 6.288611143827438354e-02 1.029700562357902527e-01
2.645000000000000000e+03 3.712464904785156250e+01 3.000835990905761719e+01 9.014425426721572876e-02 1.121445745229721069e-01 6.068664789199829102e-02 9.426239132881164551e-02
2.646000000000000000e+03 4.401889038085937500e+01 2.306102943420410156e+01 -1.287467598915100098e+00 -1.208598136901855469e+00 -7.488197088241577148e-01 -1.243063211441040039e+00
2.647000000000000000e+03 4.953656768798828125e+01 2.873168563842773438e+01 -1.318007707595825195e+00 -9.246015548706054688e-01 -6.727827787399291992e-01 -1.109921813011169434e+00
2.648000000000000000e+03 2.822638702392578125e+01 1.965656661987304688e+01 1.225470378994941711e-01 1.456606984138488770e-01 8.046232163906097412e-02 1.354296058416366577e-01
2.649000000000000000e+03 4.231727218627929688e+01 3.522333526611328125e+01 1.267524212598800659e-01 7.408554852008819580e-02 6.025138869881629944e-02 8.445489406585693359e-02
2.650000000000000000e+03 2.769061470031738281e+01 1.957961654663085938e+01 1.193626746535301208e-01 1.508246809244155884e-01 8.105620741844177246e-02 1.356357038021087646e-01
2.651000000000000000e+03 2.749457359313964844e+01 1.928387832641601562e+01 1.229415386915206909e-01 1.529939919710159302e-01 8.278065919876098633e-02 1.378461122512817383e-01
2.652000000000000000e+03 2.753653526306152344e+01 1.880563354492187500e+01 1.312625408172607422e-01 1.533791124820709229e-01 8.539249747991561890e-02 1.418127268552780151e-01
2.653000000000000000e+03 4.525899887084960938e+01 2.466231727600097656e+01 -1.375190734863281250e+00 -1.212019562721252441e+00 -7.761631011962890625e-01 -1.261020898818969727e+00
2.654000000000000000e+03 4.609245300292968750e+01 2.488809776306152344e+01 -1.318905234336853027e+00 -1.098044157028198242e+00 -7.250847816467285156e-01 -1.219873189926147461e+00
2.655000000000000000e+03 3.491505050659179688e+01 1.353578662872314453e+01 -1.210074067115783691e+00 -1.343181967735290527e+00 -7.659768462181091309e-01 -1.230923175811767578e+00
2.656000000000000000e+03 3.225721359252929688e+01 2.400152015686035156e+01 8.987656235694885254e-02 1.231438368558883667e-01 6.390611827373504639e-02 1.088272258639335632e-01
2.657000000000000000e+03 5.088385391235351562e+01 2.949033737182617188e+01 -1.270477533340454102e+00 -6.873143315315246582e-01 -5.873375535011291504e-01 -9.945533275604248047e-01
2.658000000000000000e+03 5.038508605957031250e+01 2.953916549682617188e+01 -1.272777199745178223e+00 -8.182187080383300781e-01 -6.272987723350524902e-01 -1.045798301696777344e+00
2.659000000000000000e+03 4.053402328491210938e+01 3.273144531250000000e+01 1.048685982823371887e-01 8.692192286252975464e-02 5.753715336322784424e-02 9.004990756511688232e-02
2.660000000000000000e+03 7.609658050537109375e+01 3.149046134948730469e+01 -2.330925941467285156e+00 1.286477851867675781e+01 3.160155773162841797e+00 4.358338832855224609e+00
2.661000000000000000e+03 3.642502975463867188e+01 1.520035457611083984e+01 -1.147646665573120117e+00 -1.366969704627990723e+00 -7.543849349021911621e-01 -1.237236261367797852e+00
2.662000000000000000e+03 5.119554519653320312e+01 2.972817993164062500e+01 -1.261565089225769043e+00 -6.259847879409790039e-01 -5.662649869918823242e-01 -9.643527865409851074e-01
2.663000000000000000e+03 3.941698074340820312e+01 3.209728240966796875e+01 9.890750795602798462e-02 9.518828988075256348e-02 5.822873860597610474e-02 8.980026096105575562e-02
2.664000000000000000e+03 4.806612777709960938e+01 2.678029441833496094e+01 -1.279451489448547363e+00 -9.909753799438476562e-01 -6.811280250549316406e-01 -1.173487663269042969e+00
2.665000000000000000e+03 3.667797851562500000e+01 1.548971176147460938e+01 -1.140761852264404297e+00 -1.370800137519836426e+00 -7.534686326980590820e-01 -1.234415888786315918e+00
2.666000000000000000e+03 3.191223335266113281e+01 2.430074882507324219e+01 8.721669763326644897e-02 1.246615499258041382e-01 6.356347352266311646e-02 1.090874373912811279e-01
2.667000000000000000e+03 3.693431472778320312e+01 1.577476024627685547e+01 -1.138728260993957520e+00 -1.373649716377258301e+00 -7.537133693695068359e-01 -1.228273630142211914e+00
2.668000000000000000e+03 4.288751220703125000e+01 2.199702453613281250e+01 -1.245221614837646484e+00 -1.187153220176696777e+00 -7.297124862670898438e-01 -1.227976560592651367e+00
2.669000000000000000e+03 3.828966903686523438e+01 1.771707344055175781e+01 -1.137897491455078125e+00 -1.354424357414245605e+00 -7.476965188980102539e-01 -1.223779678344726562e+00
2.670000000000000000e+03 4.093582916259765625e+01 3.315100860595703125e+01 1.074711754918098450e-01 8.484975993633270264e-02 5.769628286361694336e-02 8.961008489131927490e-02
2.671000000000000000e+03 2.665789222717285156e+01 1.755935287475585938e+01 1.472568213939666748e-01 1.644536852836608887e-01 9.351315349340438843e-02 1.519421637058258057e-01
2.672000000000000000e+03 4.430582427978515625e+01 2.332656097412109375e+01 -1.297457218170166016e+00 -1.211073160171508789e+00 -7.525591254234313965e-01 -1.238353967666625977e+00
2.673000000000000000e+03 3.719520950317382812e+01 1.605615997314453125e+01 -1.134080290794372559e+00 -1.372992753982543945e+00 -7.521219253540039062e-01 -1.223263502120971680e+00
2.674000000000000000e+03 5.009970855712890625e+01 2.927408027648925781e+01 -1.291363120079040527e+00 -8.567270040512084961e-01 -6.444270014762878418e-01 -1.070527195930480957e+00
2.675000000000000000e+03 2.241222381591796875e+01 1.395659446716308594e+01 1.681627780199050903e-01 2.065212875604629517e-01 1.124052181839942932e-01 1.804389804601669312e-01
2.676000000000000000e+03 4.925339126586914062e+01 2.845701217651367188e+01 -1.323885440826416016e+00 -9.551637172698974609e-01 -6.837147474288940430e-01 -1.127023339271545410e+00
2.677000000000000000e+03 4.165703582763671875e+01 3.415398406982421875e+01 1.152986437082290649e-01 7.968214899301528931e-02 5.849423632025718689e-02 8.748074620962142944e-02
2.678000000000000000e+03 4.051934814453125000e+01 3.310036087036132812e+01 1.054239198565483093e-01 8.541690558195114136e-02 5.725224688649177551e-02 8.775879442691802979e-02
2.679000000000000000e+03 4.868450164794921875e+01 2.790597343444824219e+01 -1.322641849517822266e+00 -1.002883315086364746e+00 -6.976575255393981934e-01 -1.160115838050842285e+00
2.680000000000000000e+03 4.896932601928710938e+01 2.818175506591796875e+01 -1.324532508850097656e+00 -9.804882407188415527e-01 -6.915062069892883301e-01 -1.144148945808410645e+00
2.681000000000000000e+03 3.129227638244628906e+01 9.018548011779785156e+00 -1.297003149986267090e+00 -1.188077926635742188e+00 -7.455243468284606934e-01 -1.108005046844482422e+00
2.682000000000000000e+03 3.209990692138671875e+01 1.104264163970947266e+01 -1.365109562873840332e+00 -1.309816122055053711e+00 -8.024777173995971680e-01 -1.245306849479675293e+00
2.683000000000000000e+03 4.919625091552734375e+01 2.788956069946289062e+01 -1.301929712295532227e+00 -9.104278087615966797e-01 -6.637072563171386719e-01 -1.110431790351867676e+00
2.684000000000000000e+03 2.700270080566406250e+01 1.833999061584472656e+01 1.356124132871627808e-01 1.595489382743835449e-01 8.854840695858001709e-02 1.449735313653945923e-01
2.685000000000000000e+03 3.801644515991210938e+01 1.743659591674804688e+01 -1.146648645401000977e+00 -1.382675051689147949e+00 -7.587971091270446777e-01 -1.227858543395996094e+00
2.686000000000000000e+03 1.722613143920898438e+01 9.342368125915527344e+00 1.875440627336502075e-01 3.085102736949920654e-01 1.488163024187088013e-01 2.304699122905731201e-01
2.687000000000000000e+03 2.293200302124023438e+01 1.450272464752197266e+01 1.616605967283248901e-01 2.014008760452270508e-01 1.089184433221817017e-01 1.750229001045227051e-01
2.688000000000000000e+03 4.181834030151367188e+01 3.361932754516601562e+01 1.110863685607910156e-01 7.839296758174896240e-02 5.684380233287811279e-02 8.841496706008911133e-02
2.689000000000000000e+03 4.133714294433593750e+01 3.356053543090820312e+01 1.107359305024147034e-01 8.181799948215484619e-02 5.776618048548698425e-02 8.872547745704650879e-02
2.690000000000000000e+03 5.151564407348632812e+01 2.996023368835449219e+01 -1.253248453140258789e+00 -5.623197555541992188e-01 -5.446704626083374023e-01 -9.313136935234069824e-01
2.691000000000000000e+03 2.643793106079101562e+01 1.785962295532226562e+01 1.391896158456802368e-01 1.643753349781036377e-01 9.106948971748352051e-02 1.477142125368118286e-01
2.692000000000000000e+03 2.491901588439941406e+01 1.730074501037597656e+01 1.324574500322341919e-01 1.709951013326644897e-01 9.103576838970184326e-02 1.509526818990707397e-01
2.693000000000000000e+03 4.256211853027343750e+01 3.448031616210937500e+01 1.205302327871322632e-01 7.448542863130569458e-02 5.850469693541526794e-02 8.644957840442657471e-02
2.694000000000000000e+03 3.453158950805664062e+01 1.265991497039794922e+01 -1.192830801010131836e+00 -1.305776596069335938e+00 -7.495822310447692871e-01 -1.196790575981140137e+00
2.695000000000000000e+03 7.353804016113281250e+01 3.163982582092285156e+01 -1.480840325355529785e+00 2.018511056900024414e+00 1.613012403249740601e-01 1.827110409736633301e+00
2.696000000000000000e+03 4.084426498413085938e+01 3.353685379028320312e+01 1.090363040566444397e-01 8.257299661636352539e-02 5.748279020190238953e-02 8.677461743354797363e-02
2.697000000000000000e+03 4.135052490234375000e+01 3.312936782836914062e+01 1.080345660448074341e-01 8.095870167016983032e-02 5.669797956943511963e-02 8.869136124849319458e-02
2.698000000000000000e+03 2.002420806884765625e+01 1.198251342773437500e+01 1.705191731452941895e-01 2.343832850456237793e-01 1.214707344770431519e-01 1.985082328319549561e-01
2.699000000000000000e+03 1.975076103210449219e+01 1.175935363769531250e+01 1.704598963260650635e-01 2.364107817411422729e-01 1.220612004399299622e-01 2.024405002593994141e-01
2.700000000000000000e+03 3.746080398559570312e+01 1.633519172668457031e+01 -1.132715463638305664e+00 -1.368748903274536133e+00 -7.504393458366394043e-01 -1.214811563491821289e+00
2.701000000000000000e+03 4.152810287475585938e+01 2.063792991638183594e+01 -1.111269235610961914e+00 -1.186173319816589355e+00 -6.892327666282653809e-01 -1.216368436813354492e+00
2.702000000000000000e+03 7.712136840820312500e+01 3.165662765502929688e+01 -3.129719495773315430e+00 1.750388717651367188e+01 4.312250137329101562e+00 1.183829903602600098e+00
2.703000000000000000e+03 4.344933700561523438e+01 2.252851104736328125e+01 -1.269687294960021973e+00 -1.195154309272766113e+00 -7.394524812698364258e-01 -1.242506980895996094e+00
2.704000000000000000e+03 3.632152557373046875e+01 2.868706130981445312e+01 9.138033539056777954e-02 1.179337203502655029e-01 6.279421597719192505e-02 9.693206846714019775e-02
2.705000000000000000e+03 4.211262893676757812e+01 3.418026351928710938e+01 1.157019957900047302e-01 7.664910703897476196e-02 5.770533159375190735e-02 8.755281567573547363e-02
2.706000000000000000e+03 2.267959403991699219e+01 1.423035717010498047e+01 1.658427119255065918e-01 2.047024071216583252e-01 1.111635342240333557e-01 1.768787354230880737e-01
2.707000000000000000e+03 2.123756599426269531e+01 1.339575004577636719e+01 1.599187254905700684e-01 2.153689861297607422e-01 1.125863119959831238e-01 1.844113171100616455e-01
2.708000000000000000e+03 5.183747100830078125e+01 3.019784927368164062e+01 -1.246168494224548340e+00 -4.915537536144256592e-01 -5.213166475296020508e-01 -9.011558890342712402e-01
2.709000000000000000e+03 3.908132171630859375e+01 1.739345741271972656e+01 -1.090330719947814941e+00 -1.223032712936401367e+00 -6.940090656280517578e-01 -1.168741226196289062e+00
2.710000000000000000e+03 3.772978591918945312e+01 1.661198043823242188e+01 -1.129088521003723145e+00 -1.358904123306274414e+00 -7.463977932929992676e-01 -1.208521366119384766e+00
2.711000000000000000e+03 4.459527587890625000e+01 2.359056282043457031e+01 -1.308382868766784668e+00 -1.207977294921875000e+00 -7.549080252647399902e-01 -1.231197834014892578e+00
2.712000000000000000e+03 2.615750312805175781e+01 1.762282371520996094e+01 1.406292617321014404e-01 1.656491607427597046e-01 9.188352525234222412e-02 1.494100838899612427e-01
2.713000000000000000e+03 3.656768035888671875e+01 2.940601348876953125e+01 8.953478187322616577e-02 1.158009096980094910e-01 6.160070747137069702e-02 9.470858424901962280e-02
2.714000000000000000e+03 3.310232925415039062e+01 2.484426879882812500e+01 8.772619068622589111e-02 1.244332790374755859e-01 6.364784389734268188e-02 1.064266487956047058e-01
2.715000000000000000e+03 3.249448013305664062e+01 2.484620475769042969e+01 8.627801388502120972e-02 1.245574355125427246e-01 6.325063854455947876e-02 1.065694242715835571e-01
2.716000000000000000e+03 2.350216484069824219e+01 1.556087779998779297e+01 1.432520598173141479e-01 1.914864480495452881e-01 1.004215478897094727e-01 1.663311868906021118e-01
2.717000000000000000e+03 3.461857986450195312e+01 2.708698463439941406e+01 8.549257367849349976e-02 1.223870292305946350e-01 6.236388161778450012e-02 1.016144603490829468e-01
2.718000000000000000e+03 3.436276245117187500e+01 2.680745124816894531e+01 8.523024618625640869e-02 1.231059432029724121e-01 6.250085681676864624e-02 1.016853526234626770e-01
2.719000000000000000e+03 4.178823089599609375e+01 2.092052459716796875e+01 -1.140637397766113281e+00 -1.190647244453430176e+00 -6.993854045867919922e-01 -1.211409330368041992e+00
2.720000000000000000e+03 4.205784225463867188e+01 2.119095420837402344e+01 -1.170121550559997559e+00 -1.192716479301452637e+00 -7.088513970375061035e-01 -1.210477948188781738e+00
2.721000000000000000e+03 2.049440765380859375e+01 1.249970531463623047e+01 1.660572290420532227e-01 2.283488512039184570e-01 1.183218285441398621e-01 1.930516660213470459e-01
2.722000000000000000e+03 2.973660278320312500e+01 2.192554855346679688e+01 9.840414673089981079e-02 1.358599960803985596e-01 7.027924060821533203e-02 1.190781593322753906e-01
2.723000000000000000e+03 3.015998077392578125e+01 2.251202201843261719e+01 9.258363395929336548e-02 1.336079537868499756e-01 6.785747408866882324e-02 1.169303730130195618e-01
2.724000000000000000e+03 2.972057914733886719e+01 2.253748703002929688e+01 9.141855686902999878e-02 1.360391527414321899e-01 6.823731213808059692e-02 1.170047447085380554e-01
2.725000000000000000e+03 5.248777389526367188e+01 3.071451377868652344e+01 -1.231955766677856445e+00 -3.383855521678924561e-01 -4.711024165153503418e-01 -8.414230942726135254e-01
2.726000000000000000e+03 3.273682403564453125e+01 1.091447257995605469e+01 -1.298821091651916504e+00 -1.261727571487426758e+00 -7.681645750999450684e-01 -1.190261125564575195e+00
2.727000000000000000e+03 3.220658111572265625e+01 2.457401657104492188e+01 8.681585639715194702e-02 1.244973316788673401e-01 6.339395791292190552e-02 1.075634062290191650e-01
2.728000000000000000e+03 2.325112724304199219e+01 1.544499683380126953e+01 1.428571939468383789e-01 1.938834935426712036e-01 1.010222062468528748e-01 1.665520370006561279e-01
2.729000000000000000e+03 2.284230804443359375e+01 1.498406028747558594e+01 1.483205556869506836e-01 1.991799026727676392e-01 1.042501404881477356e-01 1.686460822820663452e-01
2.730000000000000000e+03 2.261471748352050781e+01 1.472332572937011719e+01 1.522038578987121582e-01 2.024731487035751343e-01 1.064031049609184265e-01 1.698793619871139526e-01
2.731000000000000000e+03 4.488879394531250000e+01 2.385265350341796875e+01 -1.318059444427490234e+00 -1.196346044540405273e+00 -7.543216347694396973e-01 -1.224502563476562500e+00
2.732000000000000000e+03 4.518775558471679688e+01 2.411281013488769531e+01 -1.325421571731567383e+00 -1.177018642425537109e+00 -7.507320642471313477e-01 -1.219161391258239746e+00
2.733000000000000000e+03 3.542145919799804688e+01 1.404893493652343750e+01 -1.190439939498901367e+00 -1.344328522682189941e+00 -7.604305148124694824e-01 -1.237342000007629395e+00
2.734000000000000000e+03 3.181616783142089844e+01 9.849937438964843750e+00 -1.312617897987365723e+00 -1.230529546737670898e+00 -7.629442214965820312e-01 -1.163261651992797852e+00
2.735000000000000000e+03 3.445691299438476562e+01 1.228978919982910156e+01 -1.187438130378723145e+00 -1.281101465225219727e+00 -7.405618429183959961e-01 -1.179420828819274902e+00
2.736000000000000000e+03 3.612279129028320312e+01 2.835329246520996094e+01 9.157663583755493164e-02 1.187269240617752075e-01 6.309106945991516113e-02 9.813503175973892212e-02
2.737000000000000000e+03 5.362122344970703125e+01 3.219490432739257812e+01 -1.082781910896301270e+00 -7.593284547328948975e-02 -3.476144373416900635e-01 -6.734201908111572266e-01
2.738000000000000000e+03 1.902678108215332031e+01 1.104782009124755859e+01 1.735054850578308105e-01 2.513950467109680176e-01 1.274701654911041260e-01 2.114106118679046631e-01
2.739000000000000000e+03 1.443109226226806641e+01 5.672424316406250000e+00 1.903411448001861572e-01 7.210736870765686035e-01 2.734244465827941895e-01 3.290930092334747314e-01
2.740000000000000000e+03 3.331680297851562500e+01 2.567345619201660156e+01 8.589917421340942383e-02 1.240924298763275146e-01 6.299748271703720093e-02 1.037684977054595947e-01
2.741000000000000000e+03 5.216070938110351562e+01 3.044881629943847656e+01 -1.240460157394409180e+00 -4.176843166351318359e-01 -4.974433183670043945e-01 -8.703365325927734375e-01
2.742000000000000000e+03 5.282082366943359375e+01 3.098832893371582031e+01 -1.223966598510742188e+00 -2.585352063179016113e-01 -4.447505474090576172e-01 -8.146035671234130859e-01
2.743000000000000000e+03 3.615965270996093750e+01 2.923433113098144531e+01 8.840816468000411987e-02 1.161110326647758484e-01 6.135576218366622925e-02 9.386631846427917480e-02
2.744000000000000000e+03 3.066990089416503906e+01 5.724994659423828125e+00 -1.630088448524475098e+00 -8.833885788917541504e-01 -7.540431022644042969e-01 -9.656095504760742188e-01
2.745000000000000000e+03 1.859794235229492188e+01 1.079377841949462891e+01 1.692240685224533081e-01 2.650066912174224854e-01 1.302692294120788574e-01 2.126812785863876343e-01
2.746000000000000000e+03 1.836763191223144531e+01 1.031717586517333984e+01 1.785205304622650146e-01 2.773885130882263184e-01 1.367727071046829224e-01 2.190679460763931274e-01
2.747000000000000000e+03 1.519973087310791016e+01 6.473177433013916016e+00 2.281993776559829712e-01 4.922510981559753418e-01 2.161351442337036133e-01 3.109955489635467529e-01
2.748000000000000000e+03 1.784859085083007812e+01 1.006181526184082031e+01 1.770192384719848633e-01 2.917689681053161621e-01 1.406364589929580688e-01 2.188161462545394897e-01
2.749000000000000000e+03 7.513833618164062500e+01 3.637892532348632812e+01 4.532657265663146973e-01 6.669339656829833984e+00 2.136781692504882812e+00 -4.407675743103027344e+00
2.750000000000000000e+03 1.470209693908691406e+01 5.930469512939453125e+00 2.134086787700653076e-01 5.971380472183227539e-01 2.431640177965164185e-01 3.419145345687866211e-01
2.751000000000000000e+03 1.556643199920654297e+01 7.541954040527343750e+00 1.863439381122589111e-01 4.265520274639129639e-01 1.838687956333160400e-01 2.624255716800689697e-01
2.752000000000000000e+03 1.513235855102539062e+01 6.966836929321289062e+00 1.913983970880508423e-01 4.842982292175292969e-01 2.027089893817901611e-01 2.735704183578491211e-01
2.753000000000000000e+03 2.168694877624511719e+01 4.407829344272613525e-01 -1.782050609588623047e+00 -1.765580922365188599e-01 -5.875825881958007812e-01 -2.320221662521362305e+00
2.754000000000000000e+03 1.286861515045166016e+01 3.950907707214355469e+00 4.294787049293518066e-01 1.169119954109191895e+00 4.795796275138854980e-01 -3.107521831989288330e-01
2.755000000000000000e+03 1.298599243164062500e+01 4.711266517639160156e+00 2.322820425033569336e-01 1.033559203147888184e+00 3.797523975372314453e-01 -1.230812519788742065e-01
2.756000000000000000e+03 2.941783905029296875e+01 4.255758762359619141e+00 -1.750247240066528320e+00 -8.974846005439758301e-01 -7.943195700645446777e-01 -7.344740033149719238e-01
2.757000000000000000e+03 1.412953376770019531e+01 5.431206703186035156e+00 1.677922755479812622e-01 8.138424754142761230e-01 2.944904267787933350e-01 3.005656898021697998e-01
2.758000000000000000e+03 1.125131225585937500e+01 4.253550052642822266e+00 5.108198523521423340e-01 7.529546320438385010e-02 1.758345961570739746e-01 -1.531005501747131348e-01
2.759000000000000000e+03 5.428062057495117188e+01 3.209614562988281250e+01 -1.206465005874633789e+00 2.541375905275344849e-02 -3.543153703212738037e-01 -6.977521181106567383e-01
2.760000000000000000e+03 7.557151031494140625e+01 3.038763046264648438e+01 -1.307288169860839844e+00 9.250694274902343750e+00 2.383021831512451172e+00 3.508283615112304688e+00
2.761000000000000000e+03 3.159198188781738281e+01 8.301914215087890625e+00 -1.186700224876403809e+00 -1.168316602706909180e+00 -7.065050601959228516e-01 -1.057962059974670410e+00
2.762000000000000000e+03 3.232542037963867188e+01 1.070589065551757812e+01 -1.315591573715209961e+00 -1.271422386169433594e+00 -7.761042118072509766e-01 -1.205535888671875000e+00
2.763000000000000000e+03 7.067514801025390625e+01 3.046433067321777344e+01 -1.698683977127075195e+00 5.510856509208679199e-01 -3.442794978618621826e-01 3.097556531429290771e-01
2.764000000000000000e+03 7.177657318115234375e+01 3.049387931823730469e+01 -1.331174254417419434e+00 1.123319387435913086e+00 -6.235642731189727783e-02 8.767093420028686523e-01
2.765000000000000000e+03 7.225132751464843750e+01 3.049051856994628906e+01 -1.109128355979919434e+00 1.485421180725097656e+00 1.128878518939018250e-01 1.211364626884460449e+00
2.766000000000000000e+03 7.343775177001953125e+01 3.764267730712890625e+01 8.316366076469421387e-01 3.446045398712158203e+00 1.283304572105407715e+00 -1.116557240486145020e+00
2.767000000000000000e+03 1.133544254302978516e+01 3.754785776138305664e+00 5.573158860206604004e-01 3.264120221138000488e-02 1.769871264696121216e-01 -1.378563940525054932e-01
2.768000000000000000e+03 3.225051879882812500e+01 6.087547779083251953e+00 -1.233056187629699707e+00 -8.596667647361755371e-01 -6.278168559074401855e-01 -8.380200266838073730e-01
2.769000000000000000e+03 6.602457523345947266e+00 -8.332260131835937500e+00 -1.331029683351516724e-01 -2.499673068523406982e-01 -1.149210855364799500e-01 -3.204121291637420654e-01
2.770000000000000000e+03 8.382156372070312500e+00 -6.027642250061035156e+00 -2.591867744922637939e-01 -1.412564516067504883e-01 -1.201329678297042847e-01 -3.124161660671234131e-01
2.771000000000000000e+03 1.495424365997314453e+01 6.199029445648193359e+00 2.278269231319427490e-01 5.542390942573547363e-01 2.346198111772537231e-01 3.203111290931701660e-01
2.772000000000000000e+03 3.184599113464355469e+01 7.133285045623779297e+00 -1.221105694770812988e+00 -1.033238053321838379e+00 -6.763031482696533203e-01 -1.010168671607971191e+00
2.773000000000000000e+03 3.172430419921875000e+01 6.168849945068359375e+00 -1.314249277114868164e+00 -8.918180465698242188e-01 -6.618202328681945801e-01 -9.197669029235839844e-01
2.774000000000000000e+03 2.679487037658691406e+01 -1.861191630363464355e+00 7.838024497032165527e-01 2.324697747826576233e-02 2.421148270368576050e-01 -2.766219675540924072e-01
2.775000000000000000e+03 7.844287109375000000e+01 3.157194137573242188e+01 -1.347103357315063477e+00 1.592770767211914062e+01 4.374181270599365234e+00 -2.166787862777709961e+00
2.776000000000000000e+03 3.992933034896850586e+00 4.425177574157714844e+00 -1.468671718612313271e-03 -1.293778270483016968e-01 -3.925395011901855469e-02 1.541384011507034302e-01
2.777000000000000000e+03 4.591804981231689453e+00 4.207627296447753906e+00 -4.687119740992784500e-03 -1.314391195774078369e-01 -4.083787277340888977e-02 1.762082725763320923e-01
2.778000000000000000e+03 6.592942237854003906e+00 3.991869688034057617e+00 2.757549472153186798e-02 -1.767435818910598755e-01 -4.475042596459388733e-02 2.365976125001907349e-01
2.779000000000000000e+03 5.298945426940917969e+00 5.546638488769531250e+00 6.984271854162216187e-02 -1.681815832853317261e-01 -2.950165793299674988e-02 1.574799865484237671e-01
2.780000000000000000e+03 2.484799385070800781e+01 -1.026368141174316406e+00 5.452573299407958984e-01 2.646664679050445557e-01 2.429771423339843750e-01 -5.625005960464477539e-01
2.781000000000000000e+03 2.542870521545410156e+01 -1.476178526878356934e+00 7.429137825965881348e-01 1.565830558538436890e-01 2.698490619659423828e-01 -5.321655869483947754e-01
2.782000000000000000e+03 9.178390502929687500e+00 3.641206979751586914e+00 2.487906068563461304e-01 -2.955671846866607666e-01 -1.403297297656536102e-02 2.256260365247726440e-01
2.783000000000000000e+03 6.006618499755859375e+00 4.801555633544921875e+00 6.662169098854064941e-02 -1.718121021986007690e-01 -3.155712410807609558e-02 1.925290375947952271e-01
2.784000000000000000e+03 1.012484836578369141e+01 3.979628801345825195e+00 4.016047120094299316e-01 -2.304588109254837036e-01 5.134377256035804749e-02 7.274410873651504517e-02
2.785000000000000000e+03 7.125021362304687500e+01 3.048579216003417969e+01 -1.504287362098693848e+00 7.999033331871032715e-01 -2.113152146339416504e-01 5.765032172203063965e-01
2.786000000000000000e+03 2.933277702331542969e+01 -3.090660572052001953e+00 7.144250869750976562e-01 -3.321617543697357178e-01 1.146789863705635071e-01 -1.827636361122131348e-01
2.787000000000000000e+03 5.892647552490234375e+01 3.091306686401367188e+01 -1.839725255966186523e+00 1.693275421857833862e-01 -5.011193156242370605e-01 -8.035948872566223145e-01
2.788000000000000000e+03 6.028516006469726562e+01 3.000012779235839844e+01 -1.790278553962707520e+00 1.505160927772521973e-01 -4.919287264347076416e-01 -8.747886419296264648e-01
2.789000000000000000e+03 3.977347946166992188e+01 3.223136520385742188e+01 9.941106289625167847e-02 9.230908751487731934e-02 5.751604586839675903e-02 8.982967585325241089e-02
2.790000000000000000e+03 1.185679721832275391e+01 -5.293847560882568359e+00 -4.930770099163055420e-01 -1.936558037996292114e-01 -2.060198485851287842e-01 -4.926075041294097900e-01
2.791000000000000000e+03 1.248670005798339844e+01 4.434681415557861328e+00 4.019011557102203369e-01 7.762463688850402832e-01 3.534442484378814697e-01 -3.008541762828826904e-01
2.792000000000000000e+03 6.272939300537109375e+01 3.049564361572265625e+01 -2.192568778991699219e+00 6.574898213148117065e-02 -6.380459070205688477e-01 -7.554975748062133789e-01
2.793000000000000000e+03 6.334114074707031250e+01 2.981071090698242188e+01 -1.915697336196899414e+00 7.975299656391143799e-02 -5.507832765579223633e-01 -7.766448259353637695e-01
2.794000000000000000e+03 6.639601898193359375e+01 2.962542724609375000e+01 -1.768526673316955566e+00 1.025599315762519836e-01 -4.997900426387786865e-01 -5.347790718078613281e-01
2.795000000000000000e+03 6.501567840576171875e+01 3.034832763671875000e+01 -2.280749797821044922e+00 2.347815595567226410e-02 -6.771814823150634766e-01 -6.659141182899475098e-01
2.796000000000000000e+03 8.133581161499023438e+00 -4.402023792266845703e+00 -2.563843429088592529e-01 -6.644115597009658813e-02 -9.684764593839645386e-02 -2.150387465953826904e-01
2.797000000000000000e+03 8.966176986694335938e+00 -5.169125080108642578e+00 -3.080803155899047852e-01 -1.020520254969596863e-01 -1.230397000908851624e-01 -2.963934838771820068e-01
2.798000000000000000e+03 6.258732604980468750e+01 2.985967063903808594e+01 -1.900968074798583984e+00 9.467834979295730591e-02 -5.418869256973266602e-01 -8.090959191322326660e-01
2.799000000000000000e+03 6.561967468261718750e+01 2.965414047241210938e+01 -1.833725810050964355e+00 7.595465332269668579e-02 -5.273313522338867188e-01 -6.174191832542419434e-01
2.800000000000000000e+03 6.803918457031250000e+01 3.031959152221679688e+01 -2.158682584762573242e+00 9.373238682746887207e-02 -6.194850206375122070e-01 -3.688396215438842773e-01
2.801000000000000000e+03 3.881478881835937500e+01 3.140641975402832031e+01 9.642181545495986938e-02 9.950701147317886353e-02 5.877864733338356018e-02 9.148731827735900879e-02
2.802000000000000000e+03 6.409623718261718750e+01 2.975494766235351562e+01 -1.907222509384155273e+00 6.805704534053802490e-02 -5.517496466636657715e-01 -7.347120642662048340e-01
2.803000000000000000e+03 6.785385131835937500e+01 2.894831657409667969e+01 -1.123322010040283203e+00 3.550351262092590332e-01 -2.304860800504684448e-01 -1.829265803098678589e-01
2.804000000000000000e+03 5.852693939208984375e+01 2.953263664245605469e+01 -1.570009112358093262e+00 1.959532648324966431e-01 -4.122167229652404785e-01 -9.357924461364746094e-01
2.805000000000000000e+03 6.106409835815429688e+01 2.994109344482421875e+01 -1.829302549362182617e+00 1.292173415422439575e-01 -5.100255608558654785e-01 -8.563690185546875000e-01
2.806000000000000000e+03 6.183122253417968750e+01 2.989988708496093750e+01 -1.870208024978637695e+00 1.098711490631103516e-01 -5.281010270118713379e-01 -8.383049964904785156e-01
2.807000000000000000e+03 5.950509643554687500e+01 3.009506034851074219e+01 -1.746421217918395996e+00 1.692964434623718262e-01 -4.731374382972717285e-01 -8.827021121978759766e-01
2.808000000000000000e+03 6.717238616943359375e+01 2.962260246276855469e+01 -1.690880179405212402e+00 1.530039012432098389e-01 -4.613628685474395752e-01 -4.212695658206939697e-01
2.809000000000000000e+03 6.791866302490234375e+01 2.966150474548339844e+01 -1.636311411857604980e+00 1.919448822736740112e-01 -4.333099722862243652e-01 -2.964939475059509277e-01
2.810000000000000000e+03 2.426026535034179688e+01 1.069996595382690430e+00 -1.729108929634094238e+00 -1.134627163410186768e-01 -5.527715086936950684e-01 -8.133324384689331055e-01
2.811000000000000000e+03 7.612521648406982422e+00 5.423840045928955078e+00 1.887841969728469849e-01 -1.910539269447326660e-01 -6.809179903939366341e-04 1.354349106550216675e-01
2.812000000000000000e+03 7.006045532226562500e+01 3.043744277954101562e+01 -1.855936169624328613e+00 3.754043877124786377e-01 -4.441595375537872314e-01 9.133042395114898682e-02
2.813000000000000000e+03 6.940828704833984375e+01 3.040755081176757812e+01 -2.006469488143920898e+00 2.555921673774719238e-01 -5.252631902694702148e-01 -9.840736538171768188e-02
2.814000000000000000e+03 3.641513347625732422e+00 -6.878996849060058594e+00 -6.177235022187232971e-02 -1.443472802639007568e-01 -6.183588504791259766e-02 -1.394528299570083618e-01
2.815000000000000000e+03 5.211768150329589844e+00 -5.628668308258056641e+00 -1.119517907500267029e-01 -1.185923367738723755e-01 -6.916324049234390259e-02 -1.584987342357635498e-01
2.816000000000000000e+03 5.991240978240966797e+00 -5.483703136444091797e+00 -1.487900614738464355e-01 -1.093656346201896667e-01 -7.744670659303665161e-02 -1.843121051788330078e-01
2.817000000000000000e+03 6.192939758300781250e+00 -6.344807624816894531e+00 -1.444065123796463013e-01 -1.586035639047622681e-01 -9.090302139520645142e-02 -2.279715389013290405e-01
2.818000000000000000e+03 7.517160892486572266e+00 -5.274308681488037109e+00 -2.230410277843475342e-01 -1.029897779226303101e-01 -9.780924022197723389e-02 -2.382814735174179077e-01
2.819000000000000000e+03 8.250182151794433594e+00 -5.213943481445312500e+00 -2.567956447601318359e-01 -1.219998523592948914e-01 -1.136386469006538391e-01 -2.704666852951049805e-01
2.820000000000000000e+03 1.188786506652832031e+01 4.286559104919433594e+00 5.172831416130065918e-01 3.840924203395843506e-01 2.704126536846160889e-01 -2.903354465961456299e-01
2.821000000000000000e+03 1.104019546508789062e+01 5.261489868164062500e+00 3.606124222278594971e-01 1.609058827161788940e-01 1.564554870128631592e-01 -1.461342275142669678e-01
2.822000000000000000e+03 5.543550109863281250e+01 3.177680206298828125e+01 -1.397349953651428223e+00 1.371278315782546997e-01 -3.780666291713714600e-01 -7.356472611427307129e-01
2.823000000000000000e+03 5.727134704589843750e+01 3.064439582824707031e+01 -1.615011572837829590e+00 1.957564949989318848e-01 -4.257765114307403564e-01 -8.597131371498107910e-01
2.824000000000000000e+03 5.594282531738281250e+01 4.029015731811523438e+01 3.388063013553619385e-01 -1.506032198667526245e-01 5.646092817187309265e-02 1.675425656139850616e-02
2.825000000000000000e+03 5.480611419677734375e+01 4.120151519775390625e+01 3.331207633018493652e-01 -2.327796258032321930e-02 9.295284003019332886e-02 -3.865377511829137802e-03
2.826000000000000000e+03 5.307143783569335938e+01 3.061733055114746094e+01 -1.280317425727844238e+00 -1.924829035997390747e-01 -4.418401122093200684e-01 -8.368047475814819336e-01
2.827000000000000000e+03 5.658996582031250000e+01 3.086218643188476562e+01 -1.556120991706848145e+00 1.853837519884109497e-01 -4.112211763858795166e-01 -8.382949233055114746e-01
2.828000000000000000e+03 8.722298622131347656e+00 4.687850475311279297e+00 2.549805045127868652e-01 -2.158053666353225708e-01 1.175254024565219879e-02 1.363634616136550903e-01
2.829000000000000000e+03 9.696488380432128906e+00 3.751983404159545898e+00 2.932202816009521484e-01 -2.946627736091613770e-01 -4.327549540903419256e-04 1.859190613031387329e-01
2.830000000000000000e+03 5.145639038085937500e+01 4.045862579345703125e+01 3.377327024936676025e-01 9.322308003902435303e-02 1.292867362499237061e-01 -4.546578973531723022e-03
2.831000000000000000e+03 5.000122451782226562e+01 4.010768127441406250e+01 3.157207965850830078e-01 3.942869976162910461e-02 1.065448448061943054e-01 3.979374840855598450e-02
2.832000000000000000e+03 4.860367965698242188e+01 4.027151107788085938e+01 2.848041951656341553e-01 3.718397021293640137e-02 9.659644961357116699e-02 3.994841501116752625e-02
2.833000000000000000e+03 3.198368453979492188e+01 7.626885890960693359e+00 -1.195635795593261719e+00 -1.068170905113220215e+00 -6.791419982910156250e-01 -1.028458118438720703e+00
2.834000000000000000e+03 6.963684844970703125e+01 3.936704254150390625e+01 1.238922119140625000e+00 5.437721610069274902e-01 5.348082780838012695e-01 5.935391187667846680e-01
2.835000000000000000e+03 1.429062461853027344e+01 -5.729906082153320312e+00 -5.634043812751770020e-01 -5.815036892890930176e-01 -3.434724211692810059e-01 -7.495708465576171875e-01
2.836000000000000000e+03 4.242413711547851562e+01 3.799987030029296875e+01 1.568309068679809570e-01 6.235941126942634583e-02 6.575709581375122070e-02 6.383422017097473145e-02
2.837000000000000000e+03 4.296104431152343750e+01 3.556235122680664062e+01 1.318861693143844604e-01 6.968612968921661377e-02 6.047169119119644165e-02 8.551403880119323730e-02
2.838000000000000000e+03 1.429601192474365234e+01 -4.825115680694580078e+00 -7.000225186347961426e-01 -4.269061982631683350e-01 -3.380786180496215820e-01 -7.148202657699584961e-01
2.839000000000000000e+03 7.676512908935546875e+01 2.798465919494628906e+01 -4.694086313247680664e-01 1.077350139617919922e+01 3.091228008270263672e+00 1.859649062156677246e+00
2.840000000000000000e+03 7.804485321044921875e+01 3.074139404296875000e+01 -1.864132761955261230e+00 1.562855339050292969e+01 4.129326343536376953e+00 -6.110412478446960449e-01
2.841000000000000000e+03 3.867329788208007812e+01 -1.336652183532714844e+01 3.213222324848175049e-01 -3.691417276859283447e-01 -1.434584613889455795e-02 5.083355586975812912e-03
2.842000000000000000e+03 3.420118331909179688e+01 -8.031630516052246094e+00 5.613160729408264160e-01 -4.621207118034362793e-01 2.975860983133316040e-02 -1.299072951078414917e-01
2.843000000000000000e+03 3.494084930419921875e+01 -9.032689094543457031e+00 5.413072109222412109e-01 -4.561678767204284668e-01 2.554179169237613678e-02 -1.106019020080566406e-01
2.844000000000000000e+03 2.072208213806152344e+01 -2.086238288879394531e+01 2.052663862705230713e-01 2.389661222696304321e-02 6.874889880418777466e-02 -2.582377791404724121e-01
2.845000000000000000e+03 7.872732543945312500e+01 3.069936370849609375e+01 -1.025900006294250488e+00 1.492697429656982422e+01 4.170322418212890625e+00 -1.293376803398132324e+00
2.846000000000000000e+03 1.619546318054199219e+01 -5.898289203643798828e+00 -4.686422944068908691e-01 -1.081046581268310547e+00 -4.649066627025604248e-01 -8.384646177291870117e-01
2.847000000000000000e+03 1.519703578948974609e+01 -4.870855808258056641e+00 -7.507464885711669922e-01 -7.084137797355651855e-01 -4.377480745315551758e-01 -8.190264701843261719e-01
2.848000000000000000e+03 4.470502853393554688e+01 3.806306076049804688e+01 1.838876754045486450e-01 5.697949230670928955e-02 7.226014882326126099e-02 6.969944387674331665e-02
2.849000000000000000e+03 4.614119338989257812e+01 3.873030090332031250e+01 2.208729237318038940e-01 5.438132211565971375e-02 8.257627487182617188e-02 6.370066851377487183e-02
2.850000000000000000e+03 2.801970720291137695e+00 6.579917430877685547e+00 2.648848481476306915e-02 -1.816562861204147339e-01 -4.655034095048904419e-02 9.625356644392013550e-02
2.851000000000000000e+03 1.986904335021972656e+01 -1.669042396545410156e+01 2.069885730743408203e-01 -1.044482141733169556e-01 3.076210618019104004e-02 -2.295061498880386353e-01
2.852000000000000000e+03 4.549180221557617188e+01 -2.591783332824707031e+01 -1.043578162789344788e-01 1.334430575370788574e-01 8.725574240088462830e-03 1.522366255521774292e-01
2.853000000000000000e+03 4.405090713500976562e+01 -2.451809692382812500e+01 -8.356601744890213013e-02 -6.834730505943298340e-02 -4.557399824261665344e-02 1.693367362022399902e-01
2.854000000000000000e+03 2.233690834045410156e+01 -2.533194160461425781e+01 2.148040533065795898e-01 1.396231651306152344e-01 1.063281670212745667e-01 -2.791771888732910156e-01
2.855000000000000000e+03 5.751046752929687500e+01 4.069658660888671875e+01 3.323233425617218018e-01 -1.555680334568023682e-01 5.302659049630165100e-02 5.806001275777816772e-02
2.856000000000000000e+03 4.151583099365234375e+01 -2.175362586975097656e+01 -4.155449569225311279e-02 -3.002552092075347900e-01 -1.025429144501686096e-01 1.861224919557571411e-01
2.857000000000000000e+03 4.026455307006835938e+01 -1.930630683898925781e+01 2.054501511156558990e-02 -3.441636562347412109e-01 -9.708558768033981323e-02 1.480792313814163208e-01
2.858000000000000000e+03 4.421110534667968750e+01 -1.863952064514160156e+01 1.382839977741241455e-01 4.795292764902114868e-02 5.587107688188552856e-02 7.695277035236358643e-02
2.859000000000000000e+03 3.296011352539062500e+01 -5.937387943267822266e+00 6.573214530944824219e-01 -4.874994158744812012e-01 5.094661191105842590e-02 -1.167434155941009521e-01
2.860000000000000000e+03 4.363081359863281250e+01 -2.350467491149902344e+01 -4.879970476031303406e-02 -7.745136320590972900e-02 -3.787532076239585876e-02 1.719277650117874146e-01
2.861000000000000000e+03 2.334643936157226562e+01 -2.343808364868164062e+01 2.009163647890090942e-01 2.291882634162902832e-01 1.290313899517059326e-01 -2.760150432586669922e-01
2.862000000000000000e+03 3.824127578735351562e+01 -1.548708724975585938e+01 1.800083070993423462e-01 -3.960372805595397949e-01 -6.480869650840759277e-02 6.822419911623001099e-02
2.863000000000000000e+03 4.317829895019531250e+01 -2.237175178527832031e+01 -1.709645800292491913e-02 -1.205201372504234314e-01 -4.128497838973999023e-02 1.558577418327331543e-01
2.864000000000000000e+03 4.003887176513671875e+01 -1.612967872619628906e+01 1.920623630285263062e-01 -3.030401170253753662e-01 -3.329332172870635986e-02 6.552090495824813843e-02
2.865000000000000000e+03 7.511593627929687500e+01 -2.687906837463378906e+01 9.370827116072177887e-03 4.305233001708984375e+00 1.294381141662597656e+00 8.922331780195236206e-02
2.866000000000000000e+03 7.528813171386718750e+01 -1.991095733642578125e+01 9.542938321828842163e-03 4.457382678985595703e+00 1.340077757835388184e+00 1.062378212809562683e-01
2.867000000000000000e+03 7.387614440917968750e+01 -2.140830230712890625e+01 1.298874057829380035e-02 4.240314960479736328e+00 1.275991082191467285e+00 1.255197227001190186e-01
2.868000000000000000e+03 7.400475311279296875e+01 2.121417808532714844e+01 5.299544334411621094e-01 6.109776496887207031e+00 1.991919279098510742e+00 1.627358675003051758e+00
2.869000000000000000e+03 7.489263916015625000e+01 1.253290462493896484e+01 1.857218891382217407e-01 6.016084671020507812e+00 1.860542058944702148e+00 8.150951862335205078e-01
2.870000000000000000e+03 7.384358978271484375e+01 -8.846441268920898438e+00 4.820344597101211548e-02 4.520392894744873047e+00 1.370578885078430176e+00 2.382234036922454834e-01
2.871000000000000000e+03 7.533448028564453125e+01 -1.290469932556152344e+01 2.176184765994548798e-02 4.633856296539306641e+00 1.396685481071472168e+00 1.486202031373977661e-01
2.872000000000000000e+03 7.405698394775390625e+01 -1.439101123809814453e+01 2.774985693395137787e-02 4.406473636627197266e+00 1.330267071723937988e+00 1.704844236373901367e-01
2.873000000000000000e+03 7.393164062500000000e+01 -1.455612063407897949e+00 7.553867250680923462e-02 4.814451694488525391e+00 1.466997146606445312e+00 3.661978244781494141e-01
2.874000000000000000e+03 7.435733795166015625e+01 5.920616149902343750e+00 1.167439147830009460e-01 5.319839477539062500e+00 1.630975008010864258e+00 5.517176985740661621e-01
2.875000000000000000e+03 7.512393188476562500e+01 -5.792561054229736328e+00 3.811006620526313782e-02 4.849711894989013672e+00 1.466346502304077148e+00 2.339686602354049683e-01
2.876000000000000000e+03 7.451257324218750000e+01 7.268065452575683594e+00 1.243721991777420044e-01 5.456089973449707031e+00 1.674138665199279785e+00 5.908225774765014648e-01
2.877000000000000000e+03 7.400507354736328125e+01 -2.887888908386230469e+00 6.986410170793533325e-02 4.773090362548828125e+00 1.452886343002319336e+00 3.336998224258422852e-01
2.878000000000000000e+03 7.529512023925781250e+01 2.949807167053222656e+00 6.356844305992126465e-02 5.343570709228515625e+00 1.622141718864440918e+00 3.957861065864562988e-01
2.879000000000000000e+03 7.391814422607421875e+01 -4.314144134521484375e+00 6.114352121949195862e-02 4.697079658508300781e+00 1.427466988563537598e+00 3.118153512477874756e-01
2.880000000000000000e+03 7.394593048095703125e+01 -1.026320075988769531e+01 4.089524224400520325e-02 4.498181343078613281e+00 1.361723065376281738e+00 2.162580043077468872e-01
2.881000000000000000e+03 7.399037170410156250e+01 -1.163472175598144531e+01 3.790378570556640625e-02 4.467784881591796875e+00 1.351706624031066895e+00 1.986666619777679443e-01
2.882000000000000000e+03 7.407028961181640625e+01 -1.718314361572265625e+01 2.056965231895446777e-02 4.343440532684326172e+00 1.309203147888183594e+00 1.481888890266418457e-01
2.883000000000000000e+03 7.402009582519531250e+01 -1.858047485351562500e+01 1.863027922809123993e-02 4.308687686920166016e+00 1.298195481300354004e+00 1.377307027578353882e-01
2.884000000000000000e+03 7.506883239746093750e+01 2.018051147460937500e+01 3.809171319007873535e-01 6.898140430450439453e+00 2.183717250823974609e+00 1.453123331069946289e+00
2.885000000000000000e+03 7.613433074951171875e+01 1.646286010742187500e+01 1.787635833024978638e-01 7.066891193389892578e+00 2.173696279525756836e+00 9.357088804244995117e-01
2.886000000000000000e+03 7.383419799804687500e+01 -2.422319412231445312e+01 1.305615063756704330e-02 4.198751926422119141e+00 1.263542413711547852e+00 1.170665249228477478e-01
2.887000000000000000e+03 7.589530181884765625e+01 9.831522941589355469e+00 9.744139760732650757e-02 6.093220710754394531e+00 1.857198596000671387e+00 5.737294554710388184e-01
2.888000000000000000e+03 7.381323242187500000e+01 -2.687803649902343750e+01 1.785328052937984467e-02 4.145710945129394531e+00 1.249069333076477051e+00 1.075163558125495911e-01
2.889000000000000000e+03 7.519674682617187500e+01 -2.548137474060058594e+01 8.740700781345367432e-03 4.344436168670654297e+00 1.305953145027160645e+00 9.101776778697967529e-02
2.890000000000000000e+03 7.463873291015625000e+01 8.597676277160644531e+00 1.364702135324478149e-01 5.591713428497314453e+00 1.718455076217651367e+00 6.358568072319030762e-01
2.891000000000000000e+03 7.369622802734375000e+01 1.615560889244079590e+00 9.906799346208572388e-02 4.906104564666748047e+00 1.501551747322082520e+00 4.551549851894378662e-01
2.892000000000000000e+03 7.417003631591796875e+01 4.545809268951416016e+00 1.091533824801445007e-01 5.185503005981445312e+00 1.588396906852722168e+00 5.169794559478759766e-01
2.893000000000000000e+03 7.394816589355468750e+01 3.123805046081542969e+00 1.037620231509208679e-01 5.047316074371337891e+00 1.545323491096496582e+00 4.875281751155853271e-01
2.894000000000000000e+03 7.369165039062500000e+01 -5.803933143615722656e+00 6.108975782990455627e-02 4.594711303710937500e+00 1.396740198135375977e+00 2.944924235343933105e-01
2.895000000000000000e+03 7.402121734619140625e+01 -1.300620841979980469e+01 3.277494385838508606e-02 4.438329696655273438e+00 1.341331362724304199e+00 1.833204030990600586e-01
2.896000000000000000e+03 7.482662963867187500e+01 1.122909069061279297e+01 1.670399308204650879e-01 5.872842311859130859e+00 1.811964750289916992e+00 7.471343278884887695e-01
2.897000000000000000e+03 7.474277496337890625e+01 9.917657852172851562e+00 1.486143469810485840e-01 5.731124877929687500e+00 1.763921737670898438e+00 6.872785091400146484e-01
2.898000000000000000e+03 7.394752502441406250e+01 -1.998779296875000000e+01 1.510000880807638168e-02 4.274980545043945312e+00 1.287024140357971191e+00 1.312979608774185181e-01
2.899000000000000000e+03 7.482936096191406250e+01 2.479490089416503906e+01 4.004754424095153809e-01 6.945106983184814453e+00 2.203674793243408203e+00 2.032266139984130859e+00
2.900000000000000000e+03 7.605338287353515625e+01 2.280040168762207031e+01 3.141202628612518311e-01 8.122817039489746094e+00 2.531081438064575195e+00 1.646138429641723633e+00
2.901000000000000000e+03 7.504724884033203125e+01 1.642289924621582031e+01 2.700222134590148926e-01 6.485463142395019531e+00 2.026645660400390625e+00 1.081110596656799316e+00
2.902000000000000000e+03 7.507893371582031250e+01 1.894913864135742188e+01 3.454507291316986084e-01 6.779290676116943359e+00 2.137422561645507812e+00 1.318192720413208008e+00
2.903000000000000000e+03 7.330685424804687500e+01 -3.166933822631835938e+01 1.257563102990388870e-02 3.987715244293212891e+00 1.200087189674377441e+00 8.766518533229827881e-02
2.904000000000000000e+03 6.221296310424804688e+00 -2.963942337036132812e+01 4.757428914308547974e-02 -9.295109510421752930e-01 -2.645809948444366455e-01 -1.535461246967315674e-01
2.905000000000000000e+03 4.502655506134033203e+00 2.731246948242187500e+01 -4.085133317857980728e-03 -1.378707438707351685e-01 -4.258676245808601379e-02 -1.785306632518768311e-02
2.906000000000000000e+03 4.486330509185791016e+00 -2.674476051330566406e+01 2.640786580741405487e-02 -9.647099971771240234e-01 -2.814906537532806396e-01 -1.481930613517761230e-01
2.907000000000000000e+03 5.095310211181640625e+00 -1.058099937438964844e+01 -4.452722147107124329e-02 -3.359124362468719482e-01 -1.141318976879119873e-01 -2.864336669445037842e-01
2.908000000000000000e+03 7.498812866210937500e+01 2.255761337280273438e+01 4.408850669860839844e-01 7.014725685119628906e+00 2.236683130264282227e+00 1.738384246826171875e+00
2.909000000000000000e+03 5.370209217071533203e+00 2.321378707885742188e+01 -5.209498573094606400e-03 -1.203172728419303894e-01 -3.765803202986717224e-02 -2.387311309576034546e-02
2.910000000000000000e+03 5.910327911376953125e+00 -2.250104141235351562e+01 4.799551144242286682e-02 -7.785259485244750977e-01 -2.191591262817382812e-01 -2.381711304187774658e-01
2.911000000000000000e+03 7.438903808593750000e+01 -3.320613098144531250e+01 1.811785064637660980e-02 4.151190757751464844e+00 1.250792503356933594e+00 7.060848921537399292e-02
2.912000000000000000e+03 5.290889739990234375e+00 -1.571817970275878906e+01 2.600083313882350922e-02 -5.679591298103332520e-01 -1.625874936580657959e-01 -2.999463081359863281e-01
2.913000000000000000e+03 5.528989791870117188e+00 -1.834535217285156250e+01 4.300827533006668091e-02 -6.608672142028808594e-01 -1.853576898574829102e-01 -2.815272510051727295e-01
2.914000000000000000e+03 7.465670776367187500e+01 2.653529357910156250e+01 2.437476366758346558e-01 6.802465438842773438e+00 2.113863945007324219e+00 2.269521236419677734e+00
2.915000000000000000e+03 7.535477447509765625e+01 2.688032722473144531e+01 8.429894596338272095e-02 7.924245357513427734e+00 2.402563333511352539e+00 2.285124778747558594e+00
2.916000000000000000e+03 4.404662132263183594e+00 -1.993446731567382812e+01 3.150308504700660706e-02 -7.499200105667114258e-01 -2.155250757932662964e-01 -2.213181406259536743e-01
2.917000000000000000e+03 5.148172378540039062e+00 1.645403480529785156e+01 7.211219519376754761e-03 -1.275008618831634521e-01 -3.608689084649085999e-02 -2.457681484520435333e-02
2.918000000000000000e+03 5.196067333221435547e+00 1.781272506713867188e+01 2.476609311997890472e-03 -1.255676299333572388e-01 -3.692730516195297241e-02 -2.703445963561534882e-02
2.919000000000000000e+03 4.006934642791748047e+00 1.642850303649902344e+01 5.268781445920467377e-03 -1.719228774309158325e-01 -4.999623075127601624e-02 -2.389433607459068298e-02
2.920000000000000000e+03 5.887115478515625000e+00 -2.530732727050781250e+01 4.654362052679061890e-02 -8.480372428894042969e-01 -2.404480874538421631e-01 -2.016580700874328613e-01
2.921000000000000000e+03 5.103361129760742188e+00 1.508241844177246094e+01 1.507769897580146790e-02 -1.291554272174835205e-01 -3.422332182526588440e-02 -2.116960287094116211e-02
2.922000000000000000e+03 3.980955839157104492e+00 1.504586029052734375e+01 1.078540459275245667e-02 -1.756183058023452759e-01 -4.944986850023269653e-02 -1.931527815759181976e-02
2.923000000000000000e+03 5.600846290588378906e+00 -2.779356956481933594e+01 4.232016950845718384e-02 -9.168691039085388184e-01 -2.623646855354309082e-01 -1.633682399988174438e-01
2.924000000000000000e+03 5.457403182983398438e+00 2.455082321166992188e+01 -5.589014384895563126e-03 -1.184972748160362244e-01 -3.722588717937469482e-02 -2.184486016631126404e-02
2.925000000000000000e+03 5.111839294433593750e+00 -1.187079048156738281e+01 -2.790209278464317322e-02 -4.024811685085296631e-01 -1.291149854660034180e-01 -3.044544160366058350e-01
2.926000000000000000e+03 6.686161994934082031e+00 2.965380477905273438e+01 -7.388023659586906433e-03 -9.315416961908340454e-02 -3.016265854239463806e-02 -1.496172975748777390e-02
2.927000000000000000e+03 5.259043693542480469e+00 2.051694488525390625e+01 -2.674502786248922348e-03 -1.236823648214340210e-01 -3.790706023573875427e-02 -2.693000063300132751e-02
2.928000000000000000e+03 1.174140930175781250e+01 -3.205204391479492188e+01 1.205756068229675293e-01 -5.796208381652832031e-01 -1.377135813236236572e-01 -1.719344854354858398e-01
2.929000000000000000e+03 7.674084186553955078e+00 -3.366653060913085938e+01 6.438925117254257202e-02 -8.833544254302978516e-01 -2.456895560026168823e-01 -1.165907829999923706e-01
2.930000000000000000e+03 5.807893753051757812e+00 -2.110049819946289062e+01 5.068543925881385803e-02 -7.388151884078979492e-01 -2.064389139413833618e-01 -2.525039017200469971e-01
2.931000000000000000e+03 5.668949127197265625e+00 -1.970840454101562500e+01 4.350907728075981140e-02 -7.066952586174011230e-01 -1.989558488130569458e-01 -2.700530588626861572e-01
2.932000000000000000e+03 3.937448501586914062e+01 -1.479587459564208984e+01 2.287525236606597900e-01 -3.352036476135253906e-01 -3.193533420562744141e-02 3.337328881025314331e-02
2.933000000000000000e+03 5.732137680053710938e+00 -2.873088645935058594e+01 4.447088018059730530e-02 -9.331079125404357910e-01 -2.665911018848419189e-01 -1.526526957750320435e-01
2.934000000000000000e+03 5.650142192840576172e+00 2.712921333312988281e+01 -7.075518369674682617e-03 -1.152291297912597656e-01 -3.669139370322227478e-02 -1.912471838295459747e-02
2.935000000000000000e+03 3.828590869903564453e+00 9.525644302368164062e+00 4.888113960623741150e-02 -1.903917044401168823e-01 -4.245316982269287109e-02 4.343316331505775452e-02
2.936000000000000000e+03 4.895277023315429688e+00 9.572331428527832031e+00 7.113268971443176270e-02 -1.568613648414611816e-01 -2.571860142052173615e-02 3.905537724494934082e-02
2.937000000000000000e+03 5.203250885009765625e+00 -1.443248271942138672e+01 6.593520753085613251e-03 -5.187231302261352539e-01 -1.536388844251632690e-01 -3.082813620567321777e-01
2.938000000000000000e+03 4.059816837310791016e+00 -1.455376911163330078e+01 8.679845370352268219e-03 -5.227611064910888672e-01 -1.542243808507919312e-01 -2.521910071372985840e-01
2.939000000000000000e+03 4.865843296051025391e+00 8.346120834350585938e+00 8.155442774295806885e-02 -1.668167263269424438e-01 -2.557868883013725281e-02 6.984235346317291260e-02
2.940000000000000000e+03 4.589890956878662109e+00 -6.804435253143310547e+00 -8.715967833995819092e-02 -1.567925661802291870e-01 -7.318567484617233276e-02 -1.752253025770187378e-01
2.941000000000000000e+03 4.888818264007568359e+00 -7.975794792175292969e+00 -8.755215257406234741e-02 -2.078421264886856079e-01 -8.861828595399856567e-02 -2.248623818159103394e-01
2.942000000000000000e+03 5.823522567749023438e+00 -7.605722904205322266e+00 -1.120079755783081055e-01 -2.081963270902633667e-01 -9.606128931045532227e-02 -2.539804577827453613e-01
2.943000000000000000e+03 3.774192428588867188e+01 -1.207594299316406250e+01 3.504539728164672852e-01 -4.058822393417358398e-01 -1.662847399711608887e-02 -2.825805172324180603e-02
2.944000000000000000e+03 3.668552780151367188e+01 -1.102788829803466797e+01 4.290749132633209229e-01 -4.336195588111877441e-01 -1.363398972898721695e-03 -5.050541087985038757e-02
2.945000000000000000e+03 4.544038009643554688e+01 4.085405349731445312e+01 2.263827174901962280e-01 5.154657736420631409e-02 8.337878435850143433e-02 2.754216641187667847e-02
2.946000000000000000e+03 3.110382461547851562e+01 -5.512308597564697266e+00 7.287333011627197266e-01 -3.458181023597717285e-01 1.148745492100715637e-01 -2.133123129606246948e-01
2.947000000000000000e+03 1.659657478332519531e+01 -1.605420112609863281e+01 2.178803086280822754e-01 -3.900026977062225342e-01 -5.163671448826789856e-02 -3.370456695556640625e-01
2.948000000000000000e+03 1.494975757598876953e+01 -1.261117935180664062e+01 1.345410048961639404e-01 -5.756602883338928223e-01 -1.323357820510864258e-01 -4.625739157199859619e-01
2.949000000000000000e+03 1.676066207885742188e+01 -1.231719112396240234e+01 1.772028952836990356e-01 -5.637682080268859863e-01 -1.159695982933044434e-01 -3.826539218425750732e-01
2.950000000000000000e+03 1.595578384399414062e+01 -8.352697372436523438e+00 -6.754541397094726562e-02 -9.099923968315124512e-01 -2.932613492012023926e-01 -6.465095877647399902e-01
2.951000000000000000e+03 1.392706203460693359e+01 -1.006362247467041016e+01 1.328985526924952865e-04 -6.438146233558654785e-01 -1.931045204401016235e-01 -5.875696539878845215e-01
2.952000000000000000e+03 1.486614608764648438e+01 -1.072754383087158203e+01 4.374941810965538025e-02 -6.566492319107055664e-01 -1.838699430227279663e-01 -5.400516390800476074e-01
2.953000000000000000e+03 1.582964229583740234e+01 -1.145865821838378906e+01 1.491220444440841675e-01 -6.503344178199768066e-01 -1.503637135028839111e-01 -4.584390223026275635e-01
2.954000000000000000e+03 2.810611152648925781e+01 -3.603000640869140625e+01 4.510090649127960205e-01 3.511077165603637695e-01 2.406350374221801758e-01 -2.751591205596923828e-01
2.955000000000000000e+03 2.687952041625976562e+01 -3.132290649414062500e+01 3.327889144420623779e-01 3.989953398704528809e-01 2.195352762937545776e-01 -3.191095292568206787e-01
2.956000000000000000e+03 3.044466400146484375e+01 -3.409999847412109375e+00 6.570035815238952637e-01 -4.117297232151031494e-01 7.358215749263763428e-02 -1.170551255345344543e-01
2.957000000000000000e+03 2.624368667602539062e+01 -2.669293975830078125e+01 2.264399230480194092e-01 4.377022981643676758e-01 1.992426663637161255e-01 -3.176957964897155762e-01
2.958000000000000000e+03 7.218439483642578125e+01 3.967536926269531250e+01 1.589260697364807129e+00 2.768402099609375000e+00 1.307298898696899414e+00 -6.327879428863525391e-01
2.959000000000000000e+03 2.445056152343750000e+01 -2.973764610290527344e+01 2.678936719894409180e-01 2.487185895442962646e-01 1.549836695194244385e-01 -2.938223481178283691e-01
2.960000000000000000e+03 2.841443824768066406e+01 4.349384784698486328e+00 -2.047489166259765625e+00 -1.017786383628845215e+00 -9.195826649665832520e-01 -9.844965338706970215e-01
2.961000000000000000e+03 2.884352111816406250e+01 -1.663949251174926758e+00 3.876226842403411865e-01 -4.099083244800567627e-01 -6.685691419988870621e-03 -1.095289960503578186e-01
2.962000000000000000e+03 2.816154670715332031e+01 4.358710289001464844e+00 -2.146441936492919922e+00 -9.902946949005126953e-01 -9.410210251808166504e-01 -1.045659422874450684e+00
2.963000000000000000e+03 2.688988304138183594e+01 3.237008810043334961e+00 -2.254245996475219727e+00 -6.915750503540039062e-01 -8.837462663650512695e-01 -9.452732205390930176e-01
2.964000000000000000e+03 2.710643386840820312e+01 3.427435159683227539e+00 -2.256969690322875977e+00 -7.556770443916320801e-01 -9.037939906120300293e-01 -9.951716065406799316e-01
2.965000000000000000e+03 2.797214126586914062e+01 3.460684061050415039e+00 -1.926575064659118652e+00 -7.858448624610900879e-01 -8.137260079383850098e-01 -8.047836422920227051e-01
2.966000000000000000e+03 2.670984458923339844e+01 2.591815233230590820e+00 -2.031748294830322266e+00 -5.577157139778137207e-01 -7.768391966819763184e-01 -7.512306571006774902e-01
2.967000000000000000e+03 2.611482810974121094e+01 2.918536186218261719e+00 -2.428686857223510742e+00 -5.831605792045593262e-01 -9.035542607307434082e-01 -1.006746172904968262e+00
2.968000000000000000e+03 2.521881484985351562e+01 2.546675920486450195e+00 -2.579750776290893555e+00 -4.692699313163757324e-01 -9.147062301635742188e-01 -1.061773300170898438e+00
2.969000000000000000e+03 2.495011520385742188e+01 -7.741897553205490112e-02 -2.461119592189788818e-01 1.913622915744781494e-01 -1.642489992082118988e-02 -2.717243731021881104e-01
2.970000000000000000e+03 2.488203811645507812e+01 2.369272232055664062e+00 -2.592799186706542969e+00 -4.673287272453308105e-01 -9.180383682250976562e-01 -1.089757204055786133e+00
2.971000000000000000e+03 2.814582252502441406e+01 3.152838706970214844e+00 -1.805251359939575195e+00 -7.452273964881896973e-01 -7.651436328887939453e-01 -6.841932535171508789e-01
2.972000000000000000e+03 7.495799255371093750e+01 3.156864547729492188e+01 -9.339554905891418457e-01 5.983559608459472656e+00 1.514881134033203125e+00 4.255551815032958984e+00
2.973000000000000000e+03 2.869477272033691406e+01 4.349660396575927734e+00 -1.946911811828613281e+00 -9.709481000900268555e-01 -8.753579854965209961e-01 -9.004905819892883301e-01
2.974000000000000000e+03 7.332010650634765625e+01 3.131616210937500000e+01 -1.384271740913391113e+00 1.911417245864868164e+00 1.581436544656753540e-01 1.830633282661437988e+00
2.975000000000000000e+03 7.382914733886718750e+01 3.185726165771484375e+01 -1.451207637786865234e+00 1.981623530387878418e+00 1.591247469186782837e-01 2.147839546203613281e+00
2.976000000000000000e+03 7.316728210449218750e+01 2.970302772521972656e+01 -3.891139924526214600e-01 3.262644767761230469e+00 8.620592355728149414e-01 2.142243623733520508e+00
2.977000000000000000e+03 2.319115447998046875e+01 4.652447998523712158e-01 -1.284571051597595215e+00 2.553610503673553467e-01 -3.087629973888397217e-01 -1.064536213874816895e+00
2.978000000000000000e+03 1.892026901245117188e+01 1.164077091217041016e+01 1.592658162117004395e-01 2.514522075653076172e-01 1.232154071331024170e-01 2.004023641347885132e-01
2.979000000000000000e+03 4.103555297851562500e+01 2.004871177673339844e+01 -1.071882367134094238e+00 -1.171535968780517578e+00 -6.730254888534545898e-01 -1.222609519958496094e+00
2.980000000000000000e+03 4.037372207641601562e+01 1.922054100036621094e+01 -1.056172013282775879e+00 -1.162656068801879883e+00 -6.656484007835388184e-01 -1.218791365623474121e+00
2.981000000000000000e+03 1.568264007568359375e+01 8.666049003601074219e+00 1.518073976039886475e-01 3.795605599880218506e-01 1.594103872776031494e-01 2.198650538921356201e-01
2.982000000000000000e+03 3.942531967163085938e+01 1.823167037963867188e+01 -1.086585760116577148e+00 -1.211421489715576172e+00 -6.894021630287170410e-01 -1.203614950180053711e+00
2.983000000000000000e+03 1.608614921569824219e+01 8.539103507995605469e+00 1.748446375131607056e-01 3.690926432609558105e-01 1.631811857223510742e-01 2.357162088155746460e-01
2.984000000000000000e+03 1.443016147613525391e+01 6.165590286254882812e+00 1.725817769765853882e-01 6.506529450416564941e-01 2.469704151153564453e-01 2.787753641605377197e-01
2.985000000000000000e+03 3.304866790771484375e+01 2.539525222778320312e+01 8.584176003932952881e-02 1.243569701910018921e-01 6.305962055921554565e-02 1.047438085079193115e-01
2.986000000000000000e+03 7.444160461425781250e+01 3.094414710998535156e+01 -7.492651939392089844e-01 4.873313903808593750e+00 1.237214684486389160e+00 3.398628950119018555e+00
2.987000000000000000e+03 2.359373855590820312e+01 1.692116928100585938e+01 1.221191287040710449e-01 1.823538392782211304e-01 9.134189039468765259e-02 1.515927612781524658e-01
2.988000000000000000e+03 2.404026031494140625e+01 1.672584533691406250e+01 1.308685839176177979e-01 1.794624924659729004e-01 9.309931844472885132e-02 1.566862016916275024e-01
2.989000000000000000e+03 3.557630157470703125e+01 2.821422958374023438e+01 8.907501399517059326e-02 1.187402009963989258e-01 6.234456226229667664e-02 9.806515276432037354e-02
2.990000000000000000e+03 3.480632400512695312e+01 2.786737442016601562e+01 8.583080023527145386e-02 1.200613006949424744e-01 6.176763027906417847e-02 9.841607511043548584e-02
2.991000000000000000e+03 4.693657684326171875e+01 2.569045448303222656e+01 -1.288070678710937500e+00 -1.045338511466979980e+00 -7.000227570533752441e-01 -1.217642664909362793e+00
2.992000000000000000e+03 3.882852554321289062e+01 1.769949340820312500e+01 -1.111465573310852051e+00 -1.268080949783325195e+00 -7.138639092445373535e-01 -1.195961952209472656e+00
2.993000000000000000e+03 3.972417831420898438e+01 1.849517059326171875e+01 -1.078727126121520996e+00 -1.191290855407714844e+00 -6.810053586959838867e-01 -1.209145784378051758e+00
2.994000000000000000e+03 1.593139839172363281e+01 8.187651634216308594e+00 1.765457093715667725e-01 3.849608600139617920e-01 1.684519797563552856e-01 2.489431798458099365e-01
2.995000000000000000e+03 3.350806808471679688e+01 1.152010631561279297e+01 -1.248065233230590820e+00 -1.260008931159973145e+00 -7.524222731590270996e-01 -1.200040817260742188e+00
2.996000000000000000e+03 4.665276336669921875e+01 2.482885551452636719e+01 -1.271326780319213867e+00 -1.020230293273925781e+00 -6.874671578407287598e-01 -1.177910804748535156e+00
2.997000000000000000e+03 4.747030258178710938e+01 2.564563941955566406e+01 -1.255114436149597168e+00 -9.769657850265502930e-01 -6.696240901947021484e-01 -1.170413732528686523e+00
2.998000000000000000e+03 3.546012115478515625e+01 1.354967212677001953e+01 -1.170513868331909180e+00 -1.302431225776672363e+00 -7.418835163116455078e-01 -1.195258021354675293e+00
2.999000000000000000e+03 1.748061561584472656e+01 9.939959526062011719e+00 1.722465604543685913e-01 2.965380549430847168e-01 1.406353861093521118e-01 2.169418334960937500e-01
3.000000000000000000e+03 1.619651031494140625e+01 8.914072990417480469e+00 1.629832088947296143e-01 3.526986837387084961e-01 1.547045707702636719e-01 2.267396450042724609e-01
3.001000000000000000e+03 2.455179405212402344e+01 1.699504280090332031e+01 1.328214257955551147e-01 1.737171709537506104e-01 9.196157753467559814e-02 1.539715975522994995e-01
3.002000000000000000e+03 3.410521316528320312e+01 2.652548599243164062e+01 8.493611961603164673e-02 1.238005459308624268e-01 6.262100487947463989e-02 1.019263863563537598e-01
3.003000000000000000e+03 3.384466934204101562e+01 2.624082946777343750e+01 8.540213853120803833e-02 1.238985955715179443e-01 6.279021501541137695e-02 1.022528484463691711e-01
3.004000000000000000e+03 3.272896575927734375e+01 2.567010307312011719e+01 8.388238400220870972e-02 1.245003566145896912e-01 6.251481920480728149e-02 1.037076041102409363e-01
3.005000000000000000e+03 2.366849708557128906e+01 1.342290401458740234e+00 -2.334758043289184570e+00 -2.343910783529281616e-01 -7.707448005676269531e-01 -1.118301987648010254e+00
3.006000000000000000e+03 2.183334541320800781e+01 1.392078018188476562e+01 1.595641970634460449e-01 2.090167552232742310e-01 1.105742827057838440e-01 1.785744130611419678e-01
3.007000000000000000e+03 2.094332695007324219e+01 1.367503547668457031e+01 1.505041867494583130e-01 2.170164883136749268e-01 1.102562025189399719e-01 1.774109452962875366e-01
3.008000000000000000e+03 3.108963584899902344e+01 2.285622215270996094e+01 9.249789267778396606e-02 1.267306804656982422e-01 6.576856970787048340e-02 1.160114333033561707e-01
3.009000000000000000e+03 2.917500495910644531e+01 2.144650268554687500e+01 1.027591675519943237e-01 1.388055831193923950e-01 7.246942818164825439e-02 1.221002042293548584e-01
3.010000000000000000e+03 4.775051879882812500e+01 2.591850280761718750e+01 -1.252177119255065918e+00 -9.631528854370117188e-01 -6.645990014076232910e-01 -1.165925264358520508e+00
3.011000000000000000e+03 4.834933853149414062e+01 2.705712890625000000e+01 -1.284097433090209961e+00 -9.748013019561767578e-01 -6.776696443557739258e-01 -1.158805727958679199e+00
3.012000000000000000e+03 4.397037887573242188e+01 2.253549575805664062e+01 -1.228223085403442383e+00 -1.169049024581909180e+00 -7.191815972328186035e-01 -1.205678701400756836e+00
3.013000000000000000e+03 3.914056396484375000e+01 1.855274772644042969e+01 -1.100794672966003418e+00 -1.253863453865051270e+00 -7.063974738121032715e-01 -1.224116086959838867e+00
3.014000000000000000e+03 4.260956573486328125e+01 2.172915649414062500e+01 -1.225047349929809570e+00 -1.187463164329528809e+00 -7.237531542778015137e-01 -1.219727635383605957e+00
3.015000000000000000e+03 4.369116973876953125e+01 2.227178001403808594e+01 -1.217789411544799805e+00 -1.166571021080017090e+00 -7.153081297874450684e-01 -1.205396652221679688e+00
3.016000000000000000e+03 4.233266830444335938e+01 2.145978164672851562e+01 -1.199472427368164062e+00 -1.191246032714843750e+00 -7.172155380249023438e-01 -1.212992906570434570e+00
3.017000000000000000e+03 3.596105575561523438e+01 1.408582592010498047e+01 -1.149484038352966309e+00 -1.306354641914367676e+00 -7.367516160011291504e-01 -1.198815584182739258e+00
3.018000000000000000e+03 3.199826812744140625e+01 9.240058898925781250e+00 -1.247254014015197754e+00 -1.180232763290405273e+00 -7.282460331916809082e-01 -1.094399809837341309e+00
3.019000000000000000e+03 4.579384231567382812e+01 2.462853050231933594e+01 -1.324991464614868164e+00 -1.123738646507263184e+00 -7.346190214157104492e-01 -1.217613339424133301e+00
3.020000000000000000e+03 4.635073089599609375e+01 2.456981277465820312e+01 -1.275279998779296875e+00 -1.040678620338439941e+00 -6.947876214981079102e-01 -1.176413178443908691e+00
3.021000000000000000e+03 3.620635604858398438e+01 1.437972640991210938e+01 -1.136074185371398926e+00 -1.312747716903686523e+00 -7.346466183662414551e-01 -1.200369000434875488e+00
3.022000000000000000e+03 3.617419815063476562e+01 1.490824699401855469e+01 -1.152750492095947266e+00 -1.360537528991699219e+00 -7.539863586425781250e-01 -1.240696787834167480e+00
3.023000000000000000e+03 3.498202896118164062e+01 1.293835353851318359e+01 -1.173265337944030762e+00 -1.291313409805297852e+00 -7.393736243247985840e-01 -1.179560422897338867e+00
3.024000000000000000e+03 3.502348709106445312e+01 1.326602840423583984e+01 -1.189090967178344727e+00 -1.314417958259582520e+00 -7.510526776313781738e-01 -1.204370498657226562e+00
3.025000000000000000e+03 2.863091087341308594e+01 2.080597877502441406e+01 1.081889346241950989e-01 1.426611840724945068e-01 7.525503635406494141e-02 1.268942356109619141e-01
3.026000000000000000e+03 2.027340698242187500e+01 1.222638225555419922e+01 1.679423600435256958e-01 2.304306626319885254e-01 1.195119097828865051e-01 1.967269629240036011e-01
3.027000000000000000e+03 4.831198883056640625e+01 2.648292160034179688e+01 -1.255178570747375488e+00 -9.304084181785583496e-01 -6.556761264801025391e-01 -1.141627788543701172e+00
3.028000000000000000e+03 4.863262176513671875e+01 2.733447074890136719e+01 -1.290534973144531250e+00 -9.569338560104370117e-01 -6.742406487464904785e-01 -1.142561912536621094e+00
3.029000000000000000e+03 4.313966751098632812e+01 2.174323081970214844e+01 -1.190694808959960938e+00 -1.164022445678710938e+00 -7.064151763916015625e-01 -1.197723984718322754e+00
3.030000000000000000e+03 2.211012077331542969e+01 1.418728542327880859e+01 1.583222001791000366e-01 2.072889655828475952e-01 1.096833497285842896e-01 1.748001873493194580e-01
3.031000000000000000e+03 2.060172080993652344e+01 1.344475841522216797e+01 1.489607840776443481e-01 2.196132987737655640e-01 1.105722263455390930e-01 1.797711700201034546e-01
3.032000000000000000e+03 2.736725997924804688e+01 1.976265335083007812e+01 1.140576526522636414e-01 1.530689746141433716e-01 8.013799041509628296e-02 1.334920376539230347e-01
3.033000000000000000e+03 2.789603996276855469e+01 1.988984680175781250e+01 1.163000240921974182e-01 1.484823971986770630e-01 7.943473011255264282e-02 1.332498490810394287e-01
3.034000000000000000e+03 2.720026397705078125e+01 1.944505500793457031e+01 1.172248572111129761e-01 1.551886647939682007e-01 8.172405511140823364e-02 1.357496082782745361e-01
3.035000000000000000e+03 2.730995941162109375e+01 1.901572036743164062e+01 1.258453577756881714e-01 1.548855453729629517e-01 8.421927690505981445e-02 1.396329402923583984e-01
3.036000000000000000e+03 2.385708618164062500e+01 1.641372108459472656e+01 1.329632550477981567e-01 1.823184937238693237e-01 9.458452463150024414e-02 1.587597429752349854e-01
3.037000000000000000e+03 2.305381011962890625e+01 1.523111629486083984e+01 1.452653855085372925e-01 1.971647143363952637e-01 1.027290299534797668e-01 1.669490784406661987e-01
3.038000000000000000e+03 3.854698562622070312e+01 1.743037986755371094e+01 -1.119848966598510742e+00 -1.297249555587768555e+00 -7.251295447349548340e-01 -1.194352149963378906e+00
3.039000000000000000e+03 3.780109786987304688e+01 3.176539421081542969e+01 9.147907048463821411e-02 1.038909852504730225e-01 5.861101672053337097e-02 8.741921186447143555e-02
3.040000000000000000e+03 3.913465881347656250e+01 3.190452194213867188e+01 9.737572073936462402e-02 9.652502834796905518e-02 5.817022174596786499e-02 8.975596725940704346e-02
3.041000000000000000e+03 1.672506713867187500e+01 9.274827003479003906e+00 1.726946681737899780e-01 3.276360332965850830e-01 1.500992029905319214e-01 2.255742251873016357e-01
3.042000000000000000e+03 1.815510177612304688e+01 1.016310214996337891e+01 1.788026243448257446e-01 2.806034982204437256e-01 1.378218382596969604e-01 2.203944325447082520e-01
3.043000000000000000e+03 3.577548217773437500e+01 2.853072357177734375e+01 8.927585184574127197e-02 1.181614622473716736e-01 6.223119422793388367e-02 9.641480445861816406e-02
3.044000000000000000e+03 3.504828643798828125e+01 2.812484359741210938e+01 8.644576370716094971e-02 1.194481924176216125e-01 6.176818534731864929e-02 9.782019257545471191e-02
3.045000000000000000e+03 1.951575660705566406e+01 1.202645397186279297e+01 1.603546440601348877e-01 2.403160780668258667e-01 1.202012151479721069e-01 1.957665532827377319e-01
3.046000000000000000e+03 2.649427032470703125e+01 1.839903259277343750e+01 1.295645684003829956e-01 1.624925732612609863e-01 8.761714398860931396e-02 1.427821218967437744e-01
3.047000000000000000e+03 5.003550720214843750e+01 2.871391296386718750e+01 -1.300509452819824219e+00 -8.148292303085327148e-01 -6.346015930175781250e-01 -1.059710741043090820e+00
3.048000000000000000e+03 4.425138854980468750e+01 2.279967689514160156e+01 -1.238335132598876953e+00 -1.169744968414306641e+00 -7.224240303039550781e-01 -1.203641653060913086e+00
3.049000000000000000e+03 3.644768524169921875e+01 1.467616081237792969e+01 -1.129743099212646484e+00 -1.320181846618652344e+00 -7.349774837493896484e-01 -1.200768947601318359e+00
3.050000000000000000e+03 5.031134033203125000e+01 2.898083877563476562e+01 -1.292718410491943359e+00 -7.792000770568847656e-01 -6.215755343437194824e-01 -1.040906310081481934e+00
3.051000000000000000e+03 5.059006500244140625e+01 2.924061965942382812e+01 -1.281601309776306152e+00 -7.364462614059448242e-01 -6.054142713546752930e-01 -1.020073294639587402e+00
3.052000000000000000e+03 5.139331817626953125e+01 2.939019775390625000e+01 -1.278470396995544434e+00 -5.521138906478881836e-01 -5.491752624511718750e-01 -9.534191489219665527e-01
3.053000000000000000e+03 3.395570373535156250e+01 1.150509738922119141e+01 -1.198136329650878906e+00 -1.244117856025695801e+00 -7.326762676239013672e-01 -1.159610152244567871e+00
3.054000000000000000e+03 3.668939971923828125e+01 1.496966552734375000e+01 -1.120828986167907715e+00 -1.324858069419860840e+00 -7.337061166763305664e-01 -1.200565457344055176e+00
3.055000000000000000e+03 3.693477630615234375e+01 1.525612926483154297e+01 -1.117459058761596680e+00 -1.328736305236816406e+00 -7.338586449623107910e-01 -1.196777343750000000e+00
3.056000000000000000e+03 3.718569946289062500e+01 1.553433895111083984e+01 -1.112084269523620605e+00 -1.328805088996887207e+00 -7.322668433189392090e-01 -1.193422794342041016e+00
3.057000000000000000e+03 4.071875000000000000e+01 3.394119644165039062e+01 1.109667718410491943e-01 8.433586359024047852e-02 5.859079211950302124e-02 8.703327178955078125e-02
3.058000000000000000e+03 4.887202072143554688e+01 2.704385948181152344e+01 -1.266605734825134277e+00 -8.925200104713439941e-01 -6.477377414703369141e-01 -1.113211154937744141e+00
3.059000000000000000e+03 2.369694519042968750e+01 1.731840133666992188e+01 1.174749881029129028e-01 1.798606961965560913e-01 8.920070528984069824e-02 1.475359201431274414e-01
3.060000000000000000e+03 3.314570617675781250e+01 1.103554916381835938e+01 -1.260815620422363281e+00 -1.244100213050842285e+00 -7.514747381210327148e-01 -1.178886175155639648e+00
3.061000000000000000e+03 3.800077056884765625e+01 1.688632202148437500e+01 -1.128330588340759277e+00 -1.343371033668518066e+00 -7.415105104446411133e-01 -1.200769543647766113e+00
3.062000000000000000e+03 4.975708007812500000e+01 2.844179725646972656e+01 -1.304402589797973633e+00 -8.497965931892395020e-01 -6.462597250938415527e-01 -1.077186942100524902e+00
3.063000000000000000e+03 4.127984237670898438e+01 2.034366226196289062e+01 -1.087273955345153809e+00 -1.179762363433837891e+00 -6.801108717918395996e-01 -1.218841791152954102e+00
3.064000000000000000e+03 4.549057769775390625e+01 2.437096405029296875e+01 -1.327558040618896484e+00 -1.151249527931213379e+00 -7.436422705650329590e-01 -1.217053771018981934e+00
3.065000000000000000e+03 2.995538330078125000e+01 2.220877838134765625e+01 9.593859314918518066e-02 1.348600387573242188e-01 6.923958659172058105e-02 1.180273145437240601e-01
3.066000000000000000e+03 4.453412246704101562e+01 2.306184959411621094e+01 -1.249268889427185059e+00 -1.167262792587280273e+00 -7.249594926834106445e-01 -1.198603630065917969e+00
3.067000000000000000e+03 2.672033119201660156e+01 1.810219573974609375e+01 1.371068805456161499e-01 1.620123237371444702e-01 8.973576128482818604e-02 1.463396400213241577e-01
3.068000000000000000e+03 3.827283859252929688e+01 1.715908813476562500e+01 -1.124147415161132812e+00 -1.322064399719238281e+00 -7.338635921478271484e-01 -1.196875095367431641e+00
3.069000000000000000e+03 4.001227188110351562e+01 1.875580024719238281e+01 -1.067771315574645996e+00 -1.173382282257080078e+00 -6.723461151123046875e-01 -1.212667346000671387e+00
3.070000000000000000e+03 3.325969314575195312e+01 2.621788597106933594e+01 8.370547741651535034e-02 1.239411234855651855e-01 6.229398027062416077e-02 1.019493192434310913e-01
3.071000000000000000e+03 7.684756469726562500e+01 3.074058914184570312e+01 -2.485327720642089844e+00 1.429465866088867188e+01 3.542799234390258789e+00 1.982921004295349121e+00
3.072000000000000000e+03 7.643697357177734375e+01 3.114611053466796875e+01 -2.585242033004760742e+00 1.380730342864990234e+01 3.366618394851684570e+00 3.268389940261840820e+00
3.073000000000000000e+03 4.915163040161132812e+01 2.732366752624511719e+01 -1.274257779121398926e+00 -8.691542148590087891e-01 -6.430235505104064941e-01 -1.097077608108520508e+00
3.074000000000000000e+03 4.891517639160156250e+01 2.761242866516113281e+01 -1.296082854270935059e+00 -9.351738095283508301e-01 -6.693770289421081543e-01 -1.126964926719665527e+00
3.075000000000000000e+03 3.455348205566406250e+01 2.760635566711425781e+01 8.479095250368118286e-02 1.211572811007499695e-01 6.178446859121322632e-02 9.934969991445541382e-02
3.076000000000000000e+03 2.707663154602050781e+01 1.883238601684570312e+01 1.267295926809310913e-01 1.574684232473373413e-01 8.525940775871276855e-02 1.405108571052551270e-01
3.077000000000000000e+03 5.173051834106445312e+01 2.958998298645019531e+01 -1.280462741851806641e+00 -4.812003970146179199e-01 -5.284989476203918457e-01 -9.295699000358581543e-01
3.078000000000000000e+03 4.286707305908203125e+01 2.147407913208007812e+01 -1.171325206756591797e+00 -1.165309190750122070e+00 -7.009903192520141602e-01 -1.192730665206909180e+00
3.079000000000000000e+03 2.237089157104492188e+01 1.445611000061035156e+01 1.552247703075408936e-01 2.043252587318420410e-01 1.078650057315826416e-01 1.727404147386550903e-01
3.080000000000000000e+03 2.154794311523437500e+01 1.416129589080810547e+01 1.502305120229721069e-01 2.103363424539566040e-01 1.081700548529624939e-01 1.727152466773986816e-01
3.081000000000000000e+03 2.567171669006347656e+01 1.770760345458984375e+01 1.341547667980194092e-01 1.668763309717178345e-01 9.030932933092117310e-02 1.476840823888778687e-01
3.082000000000000000e+03 4.024113464355468750e+01 3.389943695068359375e+01 1.086292192339897156e-01 8.531215041875839233e-02 5.818241089582443237e-02 8.415927737951278687e-02
3.083000000000000000e+03 3.744397354125976562e+01 1.580727672576904297e+01 -1.110225677490234375e+00 -1.325832962989807129e+00 -7.308176159858703613e-01 -1.186312794685363770e+00
3.084000000000000000e+03 2.029946136474609375e+01 1.294461822509765625e+01 1.538560688495635986e-01 2.254156172275543213e-01 1.137815043330192566e-01 1.848872005939483643e-01
3.085000000000000000e+03 3.138042831420898438e+01 2.314779853820800781e+01 9.156049042940139771e-02 1.245975941419601440e-01 6.484742462635040283e-02 1.146353706717491150e-01
3.086000000000000000e+03 3.100324058532714844e+01 2.346034049987792969e+01 8.844638615846633911e-02 1.278304904699325562e-01 6.488306075334548950e-02 1.138699278235435486e-01
3.087000000000000000e+03 5.207168197631835938e+01 2.980794525146484375e+01 -1.282707929611206055e+00 -4.086602926254272461e-01 -5.074104666709899902e-01 -9.037937521934509277e-01
3.088000000000000000e+03 2.705158615112304688e+01 1.913013267517089844e+01 1.214730218052864075e-01 1.569881141185760498e-01 8.353833854198455811e-02 1.380815804004669189e-01
3.089000000000000000e+03 2.593642807006835938e+01 1.792875671386718750e+01 1.330343186855316162e-01 1.659487187862396240e-01 8.969490975141525269e-02 1.459036022424697876e-01
3.090000000000000000e+03 3.770967102050781250e+01 1.607723045349121094e+01 -1.106215834617614746e+00 -1.318315029144287109e+00 -7.273592948913574219e-01 -1.181084394454956055e+00
3.091000000000000000e+03 3.798089981079101562e+01 1.634420776367187500e+01 -1.104975104331970215e+00 -1.306214809417724609e+00 -7.233569622039794922e-01 -1.173744440078735352e+00
3.092000000000000000e+03 3.179595947265625000e+01 8.785449981689453125e+00 -1.230934858322143555e+00 -1.175054788589477539e+00 -7.217969298362731934e-01 -1.069110035896301270e+00
3.093000000000000000e+03 4.180764770507812500e+01 2.039995574951171875e+01 -1.078408837318420410e+00 -1.166216850280761719e+00 -6.733877062797546387e-01 -1.195632338523864746e+00
3.094000000000000000e+03 4.232270431518554688e+01 2.093252563476562500e+01 -1.125222921371459961e+00 -1.171469688415527344e+00 -6.890078186988830566e-01 -1.190266609191894531e+00
3.095000000000000000e+03 2.099799346923828125e+01 1.417220020294189453e+01 1.412871032953262329e-01 2.137161642313003540e-01 1.065009832382202148e-01 1.697337925434112549e-01
3.096000000000000000e+03 3.937808609008789062e+01 1.764908027648925781e+01 -1.081230401992797852e+00 -1.197273731231689453e+00 -6.835512518882751465e-01 -1.173136115074157715e+00
3.097000000000000000e+03 3.462517547607421875e+01 1.300210952758789062e+01 -1.209752440452575684e+00 -1.328574776649475098e+00 -7.614981532096862793e-01 -1.216759085655212402e+00
3.098000000000000000e+03 3.625861740112304688e+01 1.384098625183105469e+01 -1.114161968231201172e+00 -1.264622330665588379e+00 -7.136352658271789551e-01 -1.155637741088867188e+00
3.099000000000000000e+03 1.554545497894287109e+01 8.341758728027343750e+00 1.586588621139526367e-01 4.020476937294006348e-01 1.682119667530059814e-01 2.238279432058334351e-01
3.100000000000000000e+03 3.035505485534667969e+01 5.207649707794189453e+00 -1.700043320655822754e+00 -8.550308942794799805e-01 -7.665222883224487305e-01 -8.602191209793090820e-01
3.101000000000000000e+03 3.173807525634765625e+01 5.689904212951660156e+00 -1.336176633834838867e+00 -8.316775560379028320e-01 -6.503562331199645996e-01 -8.328238129615783691e-01
3.102000000000000000e+03 3.441141510009765625e+01 1.189342880249023438e+01 -1.171687483787536621e+00 -1.249451398849487305e+00 -7.263416647911071777e-01 -1.152141571044921875e+00
3.103000000000000000e+03 3.647825241088867188e+01 2.994157218933105469e+01 8.732650429010391235e-02 1.140347197651863098e-01 6.040836870670318604e-02 9.240562468767166138e-02
3.104000000000000000e+03 3.595747756958007812e+01 2.887120628356933594e+01 8.861594647169113159e-02 1.175024956464767456e-01 6.183553487062454224e-02 9.517002850770950317e-02
3.105000000000000000e+03 1.538629436492919922e+01 8.021312713623046875e+00 1.597770601511001587e-01 4.181605279445648193e-01 1.733812689781188965e-01 2.336233556270599365e-01
3.106000000000000000e+03 1.536283016204833984e+01 7.241785049438476562e+00 1.925127208232879639e-01 4.612495601177215576e-01 1.961286813020706177e-01 2.612033784389495850e-01
3.107000000000000000e+03 2.541773796081542969e+01 1.750578117370605469e+01 1.350209712982177734e-01 1.685595661401748657e-01 9.107416123151779175e-02 1.496103852987289429e-01
3.108000000000000000e+03 2.559164237976074219e+01 1.719635009765625000e+01 1.422298401594161987e-01 1.674287915229797363e-01 9.289758652448654175e-02 1.529871374368667603e-01
3.109000000000000000e+03 5.377675628662109375e+01 3.111312294006347656e+01 -1.286064386367797852e+00 -5.312283337116241455e-02 -4.017561674118041992e-01 -7.976046800613403320e-01
3.110000000000000000e+03 4.481996536254882812e+01 2.332117843627929688e+01 -1.260156393051147461e+00 -1.159016728401184082e+00 -7.257519364356994629e-01 -1.192599296569824219e+00
3.111000000000000000e+03 4.511103439331054688e+01 2.357677841186523438e+01 -1.270320892333984375e+00 -1.144901394844055176e+00 -7.245666980743408203e-01 -1.186130762100219727e+00
3.112000000000000000e+03 3.216988372802734375e+01 2.513902664184570312e+01 8.407548815011978149e-02 1.251168996095657349e-01 6.275771558284759521e-02 1.057615131139755249e-01
3.113000000000000000e+03 3.187609863281250000e+01 2.487738609313964844e+01 8.413998037576675415e-02 1.255842298269271851e-01 6.291726231575012207e-02 1.071053668856620789e-01
3.114000000000000000e+03 5.240916061401367188e+01 3.005602264404296875e+01 -1.282472610473632812e+00 -3.367148041725158691e-01 -4.857562482357025146e-01 -8.804720640182495117e-01
3.115000000000000000e+03 5.274237823486328125e+01 3.033237266540527344e+01 -1.282977104187011719e+00 -2.650977671146392822e-01 -4.644224643707275391e-01 -8.588654994964599609e-01
3.116000000000000000e+03 3.574374771118164062e+01 2.942386627197265625e+01 8.574084192514419556e-02 1.166334599256515503e-01 6.071228906512260437e-02 9.242234379053115845e-02
3.117000000000000000e+03 2.276566696166992188e+01 1.547297573089599609e+01 1.371499449014663696e-01 1.966458261013031006e-01 1.001387313008308411e-01 1.629933267831802368e-01
3.118000000000000000e+03 2.253205871582031250e+01 1.521658897399902344e+01 1.398829519748687744e-01 2.002988457679748535e-01 1.020545363426208496e-01 1.637543886899948120e-01
3.119000000000000000e+03 2.001085281372070312e+01 1.243780326843261719e+01 1.602307409048080444e-01 2.319053858518600464e-01 1.176408380270004272e-01 1.911071091890335083e-01
3.120000000000000000e+03 3.429724121093750000e+01 2.733854293823242188e+01 8.429855853319168091e-02 1.218276321887969971e-01 6.183785945177078247e-02 9.970623999834060669e-02
3.121000000000000000e+03 3.403960037231445312e+01 2.706262016296386719e+01 8.355894684791564941e-02 1.228154003620147705e-01 6.191230565309524536e-02 1.002646982669830322e-01
3.122000000000000000e+03 3.472985076904296875e+01 1.330528450012207031e+01 -1.212902545928955078e+00 -1.343060851097106934e+00 -7.667890191078186035e-01 -1.230735063552856445e+00
3.123000000000000000e+03 5.362886428833007812e+01 3.054830932617187500e+01 -1.321083307266235352e+00 -8.390893787145614624e-02 -4.214976727962493896e-01 -8.385274410247802734e-01
3.124000000000000000e+03 3.291989517211914062e+01 1.049441051483154297e+01 -1.248888254165649414e+00 -1.222187161445617676e+00 -7.413226366043090820e-01 -1.144641041755676270e+00
3.125000000000000000e+03 3.233334732055664062e+01 8.596133232116699219e+00 -1.182152032852172852e+00 -1.129747867584228516e+00 -6.935699582099914551e-01 -1.034473657608032227e+00
3.126000000000000000e+03 3.558724212646484375e+01 2.902511405944824219e+01 8.681948482990264893e-02 1.175004914402961731e-01 6.129599362611770630e-02 9.386533498764038086e-02
3.127000000000000000e+03 1.852468872070312500e+01 1.053552532196044922e+01 1.763527244329452515e-01 2.695636451244354248e-01 1.337749063968658447e-01 2.185283452272415161e-01
3.128000000000000000e+03 1.707095336914062500e+01 9.824792861938476562e+00 1.639437824487686157e-01 3.104753792285919189e-01 1.423257589340209961e-01 2.125611007213592529e-01
3.129000000000000000e+03 1.396294975280761719e+01 6.132327556610107422e+00 1.338273882865905762e-01 7.165693044662475586e-01 2.551190257072448730e-01 2.050822079181671143e-01
3.130000000000000000e+03 1.390362644195556641e+01 5.703937530517578125e+00 1.359893977642059326e-01 8.119384646415710449e-01 2.843783497810363770e-01 2.151070833206176758e-01
3.131000000000000000e+03 1.810281753540039062e+01 1.047790718078613281e+01 1.677282601594924927e-01 2.788490951061248779e-01 1.339732110500335693e-01 2.138124853372573853e-01
3.132000000000000000e+03 1.774975204467773438e+01 1.048278236389160156e+01 1.609154045581817627e-01 2.840686440467834473e-01 1.334952116012573242e-01 2.075184285640716553e-01
3.133000000000000000e+03 7.625276184082031250e+01 3.075459861755371094e+01 -2.152064323425292969e+00 1.243560123443603516e+01 3.085061073303222656e+00 3.167002201080322266e+00
3.134000000000000000e+03 1.506494617462158203e+01 7.420612812042236328e+00 1.703442037105560303e-01 4.603426754474639893e-01 1.892060637474060059e-01 2.462128251791000366e-01
3.135000000000000000e+03 2.431204032897949219e+01 7.824859619140625000e-01 -1.561757087707519531e+00 -6.906042806804180145e-03 -4.705989360809326172e-01 -7.179290652275085449e-01
3.136000000000000000e+03 1.465760040283203125e+01 6.434264183044433594e+00 1.856762468814849854e-01 5.635256767272949219e-01 2.247605770826339722e-01 2.843474447727203369e-01
3.137000000000000000e+03 7.403629302978515625e+01 3.088123512268066406e+01 -7.538288831710815430e-01 3.933932065963745117e+00 9.540309906005859375e-01 2.888939142227172852e+00
3.138000000000000000e+03 1.299794197082519531e+01 5.769176959991455078e+00 1.491754949092864990e-01 7.329027652740478516e-01 2.646234929561614990e-01 -2.041475288569927216e-02
3.139000000000000000e+03 7.213187408447265625e+01 2.995737457275390625e+01 -7.534514069557189941e-01 1.798746943473815918e+00 3.135886788368225098e-01 1.323749661445617676e+00
3.140000000000000000e+03 7.747957611083984375e+01 3.093563652038574219e+01 -2.485940933227539062e+00 1.562377738952636719e+01 3.941351175308227539e+00 5.768402814865112305e-01
3.141000000000000000e+03 7.107156372070312500e+01 2.990044593811035156e+01 -1.055108308792114258e+00 1.016780138015747070e+00 -1.149846799671649933e-02 6.952303051948547363e-01
3.142000000000000000e+03 7.341399383544921875e+01 3.037399101257324219e+01 -6.247485280036926270e-01 3.145887136459350586e+00 7.563415765762329102e-01 2.323888540267944336e+00
3.143000000000000000e+03 7.268243408203125000e+01 3.048514747619628906e+01 -9.782029986381530762e-01 1.904458999633789062e+00 2.778767943382263184e-01 1.579899549484252930e+00
3.144000000000000000e+03 1.317939281463623047e+01 5.345188617706298828e+00 1.511994451284408569e-01 8.841245770454406738e-01 3.105972111225128174e-01 6.597689818590879440e-03
3.145000000000000000e+03 1.062518119812011719e+01 4.187181949615478516e+00 4.618010520935058594e-01 -9.320062398910522461e-02 1.105801239609718323e-01 -5.638685822486877441e-02
3.146000000000000000e+03 2.747948455810546875e+01 -1.240574717521667480e+00 3.827673196792602539e-01 -2.065756916999816895e-01 5.285748466849327087e-02 -1.103978008031845093e-01
3.147000000000000000e+03 7.049437713623046875e+01 2.987393188476562500e+01 -1.208666086196899414e+00 7.375632524490356445e-01 -1.413308531045913696e-01 4.240286052227020264e-01
3.148000000000000000e+03 3.578915786743164062e+01 2.991786193847656250e+01 8.516178280115127563e-02 1.156308874487876892e-01 6.023779883980751038e-02 9.057666361331939697e-02
3.149000000000000000e+03 3.915130615234375000e+01 3.140120124816894531e+01 9.797135740518569946e-02 9.666045010089874268e-02 5.838954076170921326e-02 9.154707193374633789e-02
3.150000000000000000e+03 7.636523437500000000e+01 3.643813705444335938e+01 -1.959214448928833008e+00 1.513719749450683594e+01 3.953394889831542969e+00 -3.507130861282348633e+00
3.151000000000000000e+03 2.593128204345703125e+01 -3.568766415119171143e-01 -1.041848957538604736e-01 -9.290543943643569946e-02 -5.912709981203079224e-02 -2.696715891361236572e-01
3.152000000000000000e+03 3.030968284606933594e+01 2.350113868713378906e+01 8.542025834321975708e-02 1.322054415941238403e-01 6.528770923614501953e-02 1.137445345520973206e-01
3.153000000000000000e+03 3.939932250976562500e+01 3.156093978881835938e+01 9.824278205633163452e-02 9.656520187854766846e-02 5.844239518046379089e-02 9.145689010620117188e-02
3.154000000000000000e+03 3.958470916748046875e+01 3.409096908569335938e+01 1.067645996809005737e-01 8.922051638364791870e-02 5.879553407430648804e-02 8.247188478708267212e-02
3.155000000000000000e+03 5.126076221466064453e+00 6.334540367126464844e+00 8.181095123291015625e-02 -1.714255660772323608e-01 -2.688438445329666138e-02 1.296362876892089844e-01
3.156000000000000000e+03 3.951607131958007812e+01 3.274543762207031250e+01 1.006679460406303406e-01 9.338649362325668335e-02 5.821633338928222656e-02 8.703099191188812256e-02
3.157000000000000000e+03 4.665276527404785156e+00 5.399471282958984375e+00 4.518425092101097107e-02 -1.600040793418884277e-01 -3.444594889879226685e-02 1.566227376461029053e-01
3.158000000000000000e+03 5.420916748046875000e+01 3.130757331848144531e+01 -1.303125619888305664e+00 1.589699834585189819e-02 -3.861685991287231445e-01 -7.807164788246154785e-01
3.159000000000000000e+03 8.096193313598632812e+00 4.528636455535888672e+00 1.891084760427474976e-01 -2.339734733104705811e-01 -1.345949992537498474e-02 1.953258663415908813e-01
3.160000000000000000e+03 6.034005165100097656e+00 5.605728626251220703e+00 9.951506555080413818e-02 -1.760178506374359131e-01 -2.295083738863468170e-02 1.577890366315841675e-01
3.161000000000000000e+03 3.157288551330566406e+01 2.461340522766113281e+01 8.438977599143981934e-02 1.261628121137619019e-01 6.316577643156051636e-02 1.083273142576217651e-01
3.162000000000000000e+03 9.668560028076171875e+00 4.261788845062255859e+00 3.538039922714233398e-01 -2.207920402288436890e-01 3.990358486771583557e-02 8.927518129348754883e-02
3.163000000000000000e+03 6.835017204284667969e+00 5.606534004211425781e+00 1.460835337638854980e-01 -1.811140030622482300e-01 -1.050914265215396881e-02 1.448406577110290527e-01
3.164000000000000000e+03 3.228791427612304688e+01 6.544383525848388672e+00 -1.210746765136718750e+00 -9.178547263145446777e-01 -6.385804414749145508e-01 -8.921349644660949707e-01
3.165000000000000000e+03 8.260870933532714844e+00 5.110099792480468750e+00 2.274676859378814697e-01 -1.858891397714614868e-01 1.247356366366147995e-02 1.193238943815231323e-01
3.166000000000000000e+03 7.755006408691406250e+01 3.139214324951171875e+01 -2.641300678253173828e+00 1.699889755249023438e+01 4.307279109954833984e+00 -1.835446357727050781e-01
3.167000000000000000e+03 6.094953918457031250e+01 2.926387977600097656e+01 -1.613224387168884277e+00 1.514450162649154663e-01 -4.385338127613067627e-01 -8.964521884918212891e-01
3.168000000000000000e+03 6.014832687377929688e+01 2.929397773742675781e+01 -1.592484474182128906e+00 1.734829694032669067e-01 -4.257004559040069580e-01 -9.166685938835144043e-01
3.169000000000000000e+03 5.873904800415039062e+01 3.023976707458496094e+01 -1.708199620246887207e+00 1.845272481441497803e-01 -4.571017026901245117e-01 -8.833087086677551270e-01
3.170000000000000000e+03 6.319574356079101562e+01 2.917982292175292969e+01 -1.624214172363281250e+00 1.185404285788536072e-01 -4.517021179199218750e-01 -7.943188548088073730e-01
3.171000000000000000e+03 6.485407257080078125e+01 2.969996643066406250e+01 -1.883013725280761719e+00 6.568452715873718262e-02 -5.451987385749816895e-01 -6.862687468528747559e-01
3.172000000000000000e+03 6.623776245117187500e+01 2.894464302062988281e+01 -1.354783177375793457e+00 1.861365586519241333e-01 -3.505939841270446777e-01 -4.848716557025909424e-01
3.173000000000000000e+03 6.246141815185546875e+01 2.922766494750976562e+01 -1.638668656349182129e+00 1.277997642755508423e-01 -4.532606601715087891e-01 -8.393566608428955078e-01
3.174000000000000000e+03 6.704208374023437500e+01 2.892873382568359375e+01 -1.240430712699890137e+00 2.603217065334320068e-01 -2.940326929092407227e-01 -3.525611758232116699e-01
3.175000000000000000e+03 6.393107604980468750e+01 2.910879516601562500e+01 -1.585798501968383789e+00 1.135507971048355103e-01 -4.416743218898773193e-01 -7.434419393539428711e-01
3.176000000000000000e+03 6.544776916503906250e+01 2.898170089721679688e+01 -1.452379345893859863e+00 1.457697600126266479e-01 -3.919828534126281738e-01 -5.982291102409362793e-01
3.177000000000000000e+03 5.932853317260742188e+01 2.936870956420898438e+01 -1.581288933753967285e+00 1.863410621881484985e-01 -4.184843897819519043e-01 -9.340659976005554199e-01
3.178000000000000000e+03 5.430990695953369141e+00 -6.600413322448730469e+00 -1.198137253522872925e-01 -1.513959169387817383e-01 -8.136289566755294800e-02 -2.026849389076232910e-01
3.179000000000000000e+03 2.628122520446777344e+01 -1.094243645668029785e+00 4.039843976497650146e-01 -3.760894760489463806e-02 1.099126338958740234e-01 -2.979759573936462402e-01
3.180000000000000000e+03 3.707994842529296875e+01 3.058677482604980469e+01 8.850576728582382202e-02 1.100382059812545776e-01 5.956318974494934082e-02 9.133429080247879028e-02
3.181000000000000000e+03 8.521680831909179688e+00 -6.874784946441650391e+00 -2.366470098495483398e-01 -2.094086259603500366e-01 -1.338166892528533936e-01 -3.706209361553192139e-01
3.182000000000000000e+03 5.776507186889648438e+01 2.977385330200195312e+01 -1.561648249626159668e+00 2.012414485216140747e-01 -4.081220626831054688e-01 -9.276480674743652344e-01
3.183000000000000000e+03 6.931915283203125000e+00 -6.168733119964599609e+00 -1.873749345541000366e-01 -1.429596394300460815e-01 -9.910037368535995483e-02 -2.577995359897613525e-01
3.184000000000000000e+03 6.762804031372070312e+00 -5.359441757202148438e+00 -1.791795343160629272e-01 -1.185659542679786682e-01 -8.932364732027053833e-02 -2.111943066120147705e-01
3.185000000000000000e+03 7.161801147460937500e+01 2.992812156677246094e+01 -8.755368590354919434e-01 1.351842522621154785e+00 1.428917050361633301e-01 9.876949787139892578e-01
3.186000000000000000e+03 6.856726074218750000e+01 2.911976051330566406e+01 -1.102038025856018066e+00 4.565947949886322021e-01 -1.936329603195190430e-01 -4.041883721947669983e-02
3.187000000000000000e+03 3.215384674072265625e+01 8.116969108581542969e+00 -1.172905087471008301e+00 -1.119717001914978027e+00 -6.877866387367248535e-01 -1.031676769256591797e+00
3.188000000000000000e+03 3.254601669311523438e+01 1.026587963104248047e+01 -1.277789711952209473e+00 -1.227600336074829102e+00 -7.516170144081115723e-01 -1.145240545272827148e+00
3.189000000000000000e+03 1.225960350036621094e+01 4.969768047332763672e+00 3.132163584232330322e-01 5.793176293373107910e-01 2.677601873874664307e-01 -2.062782794237136841e-01
3.190000000000000000e+03 2.830630302429199219e+01 -2.581010580062866211e+00 7.299099564552307129e-01 -2.515482306480407715e-01 1.435085088014602661e-01 -2.686241269111633301e-01
3.191000000000000000e+03 6.989322662353515625e+01 2.985200119018554688e+01 -1.357406616210937500e+00 5.225458145141601562e-01 -2.504582405090332031e-01 1.962394565343856812e-01
3.192000000000000000e+03 6.926190948486328125e+01 2.982158660888671875e+01 -1.476429700851440430e+00 4.004018604755401611e-01 -3.228083550930023193e-01 1.327528804540634155e-02
3.193000000000000000e+03 7.664235115051269531e+00 -6.087049007415771484e+00 -2.198417782783508301e-01 -1.544267833232879639e-01 -1.122805625200271606e-01 -2.885567545890808105e-01
3.194000000000000000e+03 5.594948959350585938e+01 3.106719207763671875e+01 -1.493247270584106445e+00 1.639059931039810181e-01 -3.988023698329925537e-01 -8.168836832046508789e-01
3.195000000000000000e+03 5.704825210571289062e+01 3.003426551818847656e+01 -1.544457435607910156e+00 1.921997219324111938e-01 -4.056773185729980469e-01 -9.097916483879089355e-01
3.196000000000000000e+03 3.283647155761718750e+01 9.866369247436523438e+00 -1.214189529418945312e+00 -1.183051347732543945e+00 -7.191722393035888672e-01 -1.090632915496826172e+00
3.197000000000000000e+03 4.259722518920898438e+01 3.661339950561523438e+01 1.432413309812545776e-01 6.854207068681716919e-02 6.353501975536346436e-02 7.869911938905715942e-02
3.198000000000000000e+03 9.026543617248535156e+00 4.161108016967773438e+00 2.589141726493835449e-01 -2.418864071369171143e-01 5.108330864459276199e-03 1.639834046363830566e-01
3.199000000000000000e+03 2.355143356323242188e+01 -6.059671044349670410e-01 1.139419078826904297e-01 6.343725323677062988e-01 2.244943231344223022e-01 -6.059166789054870605e-01
3.200000000000000000e+03 1.172627258300781250e+01 4.835945129394531250e+00 3.933759033679962158e-01 3.793950378894805908e-01 2.318312823772430420e-01 -2.207605540752410889e-01
3.201000000000000000e+03 1.114211750030517578e+01 6.893175125122070312e+00 2.078820168972015381e-01 2.469427883625030518e-01 1.364474445581436157e-01 -8.408335596323013306e-02
3.202000000000000000e+03 1.181993293762207031e+01 -6.019718170166015625e+00 -4.378022551536560059e-01 -3.000577390193939209e-01 -2.213579863309860229e-01 -5.515337586402893066e-01
3.203000000000000000e+03 5.534029769897460938e+01 3.124273109436035156e+01 -1.422818303108215332e+00 1.327404975891113281e-01 -3.870233595371246338e-01 -7.946549057960510254e-01
3.204000000000000000e+03 5.638512802124023438e+01 3.028739547729492188e+01 -1.517608284950256348e+00 1.771485656499862671e-01 -4.021379053592681885e-01 -8.880156278610229492e-01
3.205000000000000000e+03 7.786749267578125000e+01 3.001845359802246094e+01 -1.552417159080505371e+00 1.427279567718505859e+01 3.816113471984863281e+00 2.019867002964019775e-01
3.206000000000000000e+03 5.204043960571289062e+01 4.174005889892578125e+01 3.050808906555175781e-01 8.882942050695419312e-02 1.181730926036834717e-01 -1.513776718638837337e-03
3.207000000000000000e+03 3.004230690002441406e+01 -2.733242750167846680e+00 5.432329177856445312e-01 -4.162067472934722900e-01 3.810784965753555298e-02 -9.985650330781936646e-02
3.208000000000000000e+03 1.332653427124023438e+01 -6.430117607116699219e+00 -4.486692547798156738e-01 -4.823274314403533936e-01 -2.792989909648895264e-01 -6.866551041603088379e-01
3.209000000000000000e+03 1.261900997161865234e+01 -5.424568653106689453e+00 -5.354200005531311035e-01 -3.191139698028564453e-01 -2.563601732254028320e-01 -5.826792716979980469e-01
3.210000000000000000e+03 7.610692596435546875e+01 2.959642601013183594e+01 -1.337143778800964355e+00 1.047479724884033203e+01 2.741295814514160156e+00 2.752822637557983398e+00
3.211000000000000000e+03 3.098835945129394531e+01 -4.085505962371826172e+00 6.693199872970581055e-01 -4.386537671089172363e-01 6.919987499713897705e-02 -1.335206627845764160e-01
3.212000000000000000e+03 4.803105926513671875e+01 4.171166610717773438e+01 2.729594707489013672e-01 4.868632182478904724e-02 9.649373590946197510e-02 1.038266718387603760e-02
3.213000000000000000e+03 1.342551994323730469e+01 -5.577924251556396484e+00 -5.502130389213562012e-01 -3.672159016132354736e-01 -2.752286791801452637e-01 -6.527037620544433594e-01
3.214000000000000000e+03 7.233773040771484375e+01 4.153701400756835938e+01 1.768921375274658203e+00 3.372445821762084961e+00 1.542410135269165039e+00 -2.739925086498260498e-01
3.215000000000000000e+03 7.480104827880859375e+01 2.574623107910156250e+01 3.290843665599822998e-01 6.999306678771972656e+00 2.198517322540283203e+00 2.163063287734985352e+00
3.216000000000000000e+03 4.234646987915039062e+01 3.967712020874023438e+01 1.711663007736206055e-01 5.973405763506889343e-02 6.927010416984558105e-02 4.294411838054656982e-02
3.217000000000000000e+03 9.674716949462890625e+00 -5.145124435424804688e+00 -3.396746814250946045e-01 -1.452114582061767578e-01 -1.454658359289169312e-01 -3.399711251258850098e-01
3.218000000000000000e+03 3.929558038711547852e+00 6.964364528656005859e+00 5.465723574161529541e-02 -1.782226562500000000e-01 -3.706962615251541138e-02 1.074988618493080139e-01
3.219000000000000000e+03 3.576216506958007812e+01 -1.002601528167724609e+01 4.437068402767181396e-01 -4.484915733337402344e-01 -1.435415353626012802e-03 -8.696817606687545776e-02
3.220000000000000000e+03 3.573043060302734375e+01 -8.318340301513671875e+00 5.356864929199218750e-01 -4.961214065551757812e-01 1.186952367424964905e-02 -8.171824365854263306e-02
3.221000000000000000e+03 1.111803245544433594e+01 -5.201219081878662109e+00 -4.417975246906280518e-01 -1.978046298027038574e-01 -1.918806433677673340e-01 -4.412087202072143555e-01
3.222000000000000000e+03 3.996646118164062500e+01 -1.280069446563720703e+01 3.513325154781341553e-01 -3.116004765033721924e-01 1.191961020231246948e-02 3.979702014476060867e-03
3.223000000000000000e+03 3.854424667358398438e+01 -1.091205883026123047e+01 4.420928657054901123e-01 -3.930160105228424072e-01 1.472306251525878906e-02 -2.376955561339855194e-02
3.224000000000000000e+03 3.645474624633789062e+01 -7.612196922302246094e+00 5.735437273979187012e-01 -5.131679177284240723e-01 1.811274699866771698e-02 -5.431095138192176819e-02
3.225000000000000000e+03 3.353647232055664062e+01 -7.004706859588623047e+00 6.588557362556457520e-01 -4.720387756824493408e-01 5.604508891701698303e-02 -1.441578269004821777e-01
3.226000000000000000e+03 1.946209144592285156e+01 -2.497014045715332031e+01 2.116622775793075562e-01 -9.044551104307174683e-02 3.636503219604492188e-02 -2.784837484359741211e-01
3.227000000000000000e+03 4.732076644897460938e+01 -2.546969604492187500e+01 -6.702011078596115112e-02 4.514326751232147217e-01 1.153237670660018921e-01 1.282181590795516968e-01
3.228000000000000000e+03 4.502139282226562500e+01 -2.423490905761718750e+01 -5.086468160152435303e-02 1.075355485081672668e-01 1.700126193463802338e-02 1.400684565305709839e-01
3.229000000000000000e+03 1.746766662597656250e+01 -1.525433254241943359e+01 2.230543792247772217e-01 -4.045125842094421387e-01 -5.443746224045753479e-02 -3.095892071723937988e-01
3.230000000000000000e+03 1.448926258087158203e+01 -9.058041572570800781e+00 -1.034241840243339539e-01 -6.971142888069152832e-01 -2.401615381240844727e-01 -6.544221639633178711e-01
3.231000000000000000e+03 2.277149963378906250e+01 -2.687442779541015625e+01 2.260351181030273438e-01 1.560040712356567383e-01 1.146117523312568665e-01 -2.885997295379638672e-01
3.232000000000000000e+03 4.557938385009765625e+01 -2.223450088500976562e+01 2.286664023995399475e-02 2.069850265979766846e-01 6.895550340414047241e-02 1.092382371425628662e-01
3.233000000000000000e+03 7.074705505371093750e+01 -2.456792640686035156e+01 2.303265407681465149e-02 3.779241800308227539e+00 1.140682339668273926e+00 1.549983918666839600e-01
3.234000000000000000e+03 7.053081512451171875e+01 -3.047443008422851562e+01 3.676087409257888794e-02 3.692205905914306641e+00 1.118690013885498047e+00 1.331971585750579834e-01
3.235000000000000000e+03 7.187954711914062500e+01 -3.123860740661621094e+01 3.076043911278247833e-02 3.826636791229248047e+00 1.157219171524047852e+00 1.165680810809135437e-01
3.236000000000000000e+03 4.203789520263671875e+01 -1.991876220703125000e+01 4.556929320096969604e-02 -1.900064796209335327e-01 -4.333115741610527039e-02 1.261050105094909668e-01
3.237000000000000000e+03 6.739620208740234375e+00 2.725794219970703125e+01 -7.719392422586679459e-03 -8.959596604108810425e-02 -2.919460833072662354e-02 -1.819825172424316406e-02
3.238000000000000000e+03 1.015420436859130859e+01 3.019391822814941406e+01 -9.887399151921272278e-03 -2.790676057338714600e-02 -1.133824791759252548e-02 -6.318808533251285553e-03
3.239000000000000000e+03 7.238545989990234375e+01 -2.294095993041992188e+01 1.638150587677955627e-02 4.014769554138183594e+00 1.209345340728759766e+00 1.425020396709442139e-01
3.240000000000000000e+03 7.402242279052734375e+01 2.005564117431640625e+01 4.951343834400177002e-01 6.106188297271728516e+00 1.980396747589111328e+00 1.511369228363037109e+00
3.241000000000000000e+03 7.283876800537109375e+01 -1.587438488006591797e+01 3.402730077505111694e-02 4.189737796783447266e+00 1.267129540443420410e+00 1.847812235355377197e-01
3.242000000000000000e+03 7.281922912597656250e+01 -1.724413490295410156e+01 3.122009523212909698e-02 4.163159847259521484e+00 1.258314013481140137e+00 1.697979122400283813e-01
3.243000000000000000e+03 7.378197479248046875e+01 1.259298133850097656e+01 2.565883696079254150e-01 5.581558704376220703e+00 1.751444101333618164e+00 9.076017141342163086e-01
3.244000000000000000e+03 7.385460662841796875e+01 1.386956882476806641e+01 2.849380373954772949e-01 5.692432403564453125e+00 1.793211102485656738e+00 9.854819178581237793e-01
3.245000000000000000e+03 7.257064056396484375e+01 -9.087857246398925781e+00 6.720194220542907715e-02 4.311468601226806641e+00 1.313601136207580566e+00 2.729117274284362793e-01
3.246000000000000000e+03 7.267095184326171875e+01 -1.041264057159423828e+01 5.629060417413711548e-02 4.291750907897949219e+00 1.304412484169006348e+00 2.465551495552062988e-01
3.247000000000000000e+03 7.278616333007812500e+01 -1.612747073173522949e+00 1.018277555704116821e-01 4.602149963378906250e+00 1.411193370819091797e+00 4.103481471538543701e-01
3.248000000000000000e+03 7.289761352539062500e+01 -2.895366430282592773e+00 8.814688771963119507e-02 4.568471431732177734e+00 1.396985411643981934e+00 3.762994408607482910e-01
3.249000000000000000e+03 7.094975280761718750e+01 2.669466018676757812e+00 1.883530169725418091e-01 4.304650306701660156e+00 1.347900986671447754e+00 5.902715921401977539e-01
3.250000000000000000e+03 7.315765380859375000e+01 6.134751319885253906e+00 1.624420583248138428e-01 5.012204170227050781e+00 1.552393794059753418e+00 6.285353899002075195e-01
3.251000000000000000e+03 7.333798980712890625e+01 7.444790363311767578e+00 1.744660735130310059e-01 5.129971027374267578e+00 1.591331124305725098e+00 6.719085574150085449e-01
3.252000000000000000e+03 7.264078521728515625e+01 3.439118146896362305e+00 1.460383385419845581e-01 4.762148857116699219e+00 1.472456216812133789e+00 5.556626319885253906e-01
3.253000000000000000e+03 7.348366546630859375e+01 8.741815567016601562e+00 1.885138750076293945e-01 5.245904922485351562e+00 1.630325555801391602e+00 7.199887037277221680e-01
3.254000000000000000e+03 7.360373687744140625e+01 1.003224945068359375e+01 2.075457423925399780e-01 5.359407424926757812e+00 1.670085906982421875e+00 7.753443121910095215e-01
3.255000000000000000e+03 7.171386718750000000e+01 -2.643299865722656250e+01 2.570078335702419281e-02 3.887271165847778320e+00 1.173891544342041016e+00 1.427325457334518433e-01
3.256000000000000000e+03 6.449022769927978516e+00 2.184519004821777344e+01 -5.933199543505907059e-03 -8.842057734727859497e-02 -2.830613404512405396e-02 -2.415073849260807037e-02
3.257000000000000000e+03 6.533612728118896484e+00 2.316963386535644531e+01 -6.541164126247167587e-03 -8.920843899250030518e-02 -2.872487902641296387e-02 -2.267069183290004730e-02
3.258000000000000000e+03 7.400408935546875000e+01 1.764226722717285156e+01 4.027445018291473389e-01 5.995043754577636719e+00 1.919336438179016113e+00 1.278092145919799805e+00
3.259000000000000000e+03 7.507129669189453125e+01 1.769567680358886719e+01 3.026794493198394775e-01 6.636834621429443359e+00 2.081854104995727539e+00 1.192494750022888184e+00
3.260000000000000000e+03 1.489658737182617188e+01 -7.994094371795654297e+00 -1.637075841426849365e-01 -7.335499525070190430e-01 -2.691772580146789551e-01 -6.781985163688659668e-01
3.261000000000000000e+03 1.356443405151367188e+01 -8.565469741821289062e+00 -1.557428836822509766e-01 -5.920345187187194824e-01 -2.243332117795944214e-01 -6.436349749565124512e-01
3.262000000000000000e+03 7.278740882873535156e+00 3.350143432617187500e+01 -7.362571544945240021e-03 -8.454751968383789062e-02 -2.757302671670913696e-02 -1.011869870126247406e-02
3.263000000000000000e+03 7.500454711914062500e+01 1.513370513916015625e+01 2.361015975475311279e-01 6.325367927551269531e+00 1.968440890312194824e+00 9.809280037879943848e-01
3.264000000000000000e+03 6.261667251586914062e+00 -1.307723522186279297e+01 -1.054858509451150894e-02 -4.656129777431488037e-01 -1.428484618663787842e-01 -3.580033481121063232e-01
3.265000000000000000e+03 6.236757755279541016e+00 -1.061554527282714844e+01 -6.413515657186508179e-02 -3.568177521228790283e-01 -1.262858659029006958e-01 -3.464815914630889893e-01
3.266000000000000000e+03 7.882833480834960938e+00 -1.782373809814453125e+01 7.557007670402526855e-02 -6.015137434005737305e-01 -1.577830910682678223e-01 -3.530008196830749512e-01
3.267000000000000000e+03 6.724608421325683594e+00 -1.810154533386230469e+01 5.047593265771865845e-02 -6.335994005203247070e-01 -1.749370396137237549e-01 -3.240018188953399658e-01
3.268000000000000000e+03 6.581195354461669922e+00 -2.802414321899414062e+01 5.475971847772598267e-02 -8.562580943107604980e-01 -2.404495030641555786e-01 -1.813210695981979370e-01
3.269000000000000000e+03 6.297793865203857422e+00 -9.380690574645996094e+00 -8.930406719446182251e-02 -2.892649769783020020e-01 -1.135707125067710876e-01 -3.201476931571960449e-01
3.270000000000000000e+03 5.083782196044921875e+00 -9.264302253723144531e+00 -7.158010452985763550e-02 -2.769651114940643311e-01 -1.045635640621185303e-01 -2.683509588241577148e-01
3.271000000000000000e+03 6.191750526428222656e+00 1.511469268798828125e+01 1.763158664107322693e-02 -8.589639514684677124e-02 -2.047944255173206329e-02 -2.067990228533744812e-02
3.272000000000000000e+03 6.271324157714843750e+00 1.646740913391113281e+01 1.008366048336029053e-02 -8.396580070257186890e-02 -2.216464094817638397e-02 -2.428201586008071899e-02
3.273000000000000000e+03 6.161356925964355469e+00 1.374440383911132812e+01 3.138406574726104736e-02 -8.721627295017242432e-02 -1.674966141581535339e-02 -1.675053499639034271e-02
3.274000000000000000e+03 5.064245700836181641e+00 1.228126430511474609e+01 4.016701504588127136e-02 -1.381445378065109253e-01 -2.939325571060180664e-02 -2.290674950927495956e-03
3.275000000000000000e+03 5.230622291564941406e+00 1.916350173950195312e+01 -1.217764336615800858e-03 -1.243558749556541443e-01 -3.767209127545356750e-02 -2.702759765088558197e-02
3.276000000000000000e+03 4.053211212158203125e+01 -1.422726345062255859e+01 2.995116114616394043e-01 -2.673359811305999756e-01 9.652690961956977844e-03 2.220203354954719543e-02
3.277000000000000000e+03 4.069928359985351562e+01 -1.741403770446777344e+01 1.220065951347351074e-01 -2.698919177055358887e-01 -4.436559230089187622e-02 8.518476039171218872e-02
3.278000000000000000e+03 9.920540809631347656e+00 -3.214593887329101562e+01 9.296068549156188965e-02 -6.925116181373596191e-01 -1.798652857542037964e-01 -1.627759337425231934e-01
3.279000000000000000e+03 6.406386375427246094e+00 2.051058769226074219e+01 -3.845678875222802162e-03 -8.642867207527160645e-02 -2.708230540156364441e-02 -2.594874612987041473e-02
3.280000000000000000e+03 7.226765155792236328e+00 1.513351726531982422e+01 2.131791599094867706e-02 -4.560931399464607239e-02 -7.287419401109218597e-03 -2.037492394447326660e-02
3.281000000000000000e+03 6.400347232818603516e+00 1.917030906677246094e+01 -3.748243034351617098e-04 -8.544511348009109497e-02 -2.574598044157028198e-02 -2.631057053804397583e-02
3.282000000000000000e+03 6.748821258544921875e+00 2.585531234741210938e+01 -7.024217862635850906e-03 -8.693187683820724487e-02 -2.818682789802551270e-02 -1.901287958025932312e-02
3.283000000000000000e+03 5.555584430694580078e+00 2.587171554565429688e+01 -5.466637201607227325e-03 -1.168669834733009338e-01 -3.670008480548858643e-02 -2.071806415915489197e-02
3.284000000000000000e+03 6.972042083740234375e+01 2.923937606811523438e+01 -9.542778134346008301e-01 6.920316219329833984e-01 -7.867384701967239380e-02 2.903792858123779297e-01
3.285000000000000000e+03 7.400577545166015625e+01 2.631256103515625000e+01 3.693429827690124512e-01 5.892616271972656250e+00 1.878587722778320312e+00 2.188354730606079102e+00
3.286000000000000000e+03 7.355568695068359375e+01 2.419636917114257812e+01 5.815005302429199219e-01 5.590128898620605469e+00 1.851488828659057617e+00 1.931915879249572754e+00
3.287000000000000000e+03 7.487905120849609375e+01 2.370295524597167969e+01 4.408061206340789795e-01 6.965982437133789062e+00 2.222036600112915039e+00 1.887923479080200195e+00
3.288000000000000000e+03 6.192675113677978516e+00 1.229752445220947266e+01 4.985128343105316162e-02 -9.020385146141052246e-02 -1.210577040910720825e-02 -6.840286776423454285e-03
3.289000000000000000e+03 5.962602615356445312e+00 6.451529502868652344e+00 1.178375557065010071e-01 -1.705839484930038452e-01 -1.582391932606697083e-02 1.211244538426399231e-01
3.290000000000000000e+03 5.829493045806884766e+00 8.395470619201660156e+00 1.075969114899635315e-01 -1.434960365295410156e-01 -1.076973974704742432e-02 5.661507695913314819e-02
3.291000000000000000e+03 2.067440986633300781e+01 -2.412856292724609375e+01 2.137810438871383667e-01 9.678641334176063538e-03 6.703791022300720215e-02 -2.742603421211242676e-01
3.292000000000000000e+03 7.396060180664062500e+01 2.232864189147949219e+01 5.629200935363769531e-01 6.080091476440429688e+00 1.992903470993041992e+00 1.749024391174316406e+00
3.293000000000000000e+03 1.000795269012451172e+01 3.264738082885742188e+01 -8.092034608125686646e-03 -3.953829780220985413e-02 -1.428909972310066223e-02 -4.806620534509420395e-03
3.294000000000000000e+03 5.144765377044677734e+00 -1.315226650238037109e+01 -2.283707493916153908e-03 -4.585498869419097900e-01 -1.382500827312469482e-01 -3.047654032707214355e-01
3.295000000000000000e+03 5.033280944824218750e+01 3.941016769409179688e+01 3.356636762619018555e-01 4.376818984746932983e-02 1.138295605778694153e-01 5.561150610446929932e-02
3.296000000000000000e+03 4.266719436645507812e+01 -2.116004371643066406e+01 1.708569191396236420e-02 -1.450468152761459351e-01 -3.838833793997764587e-02 1.449109762907028198e-01
3.297000000000000000e+03 4.245444107055664062e+01 -1.805398750305175781e+01 1.313670724630355835e-01 -1.233475282788276672e-01 2.405864419415593147e-03 7.972978055477142334e-02
3.298000000000000000e+03 1.772553634643554688e+01 -2.057939529418945312e+01 2.090131193399429321e-01 -2.305087596178054810e-01 -6.448691710829734802e-03 -3.011542856693267822e-01
3.299000000000000000e+03 1.837613296508789062e+01 -1.940010452270507812e+01 2.052868604660034180e-01 -2.148723602294921875e-01 -2.875647973269224167e-03 -2.872637510299682617e-01
3.300000000000000000e+03 4.645831298828125000e+01 -2.675159454345703125e+01 -9.841236472129821777e-02 2.828235924243927002e-01 5.532336607575416565e-02 1.570987701416015625e-01
3.301000000000000000e+03 1.843763160705566406e+01 -1.440375137329101562e+01 2.144875377416610718e-01 -3.197630345821380615e-01 -3.158264607191085815e-02 -2.530692517757415771e-01
3.302000000000000000e+03 1.719260787963867188e+01 -1.704978179931640625e+01 2.087815850973129272e-01 -3.597871363162994385e-01 -4.530166089534759521e-02 -3.156292736530303955e-01
3.303000000000000000e+03 3.745125198364257812e+01 -1.008477306365966797e+01 4.542663097381591797e-01 -4.462937116622924805e-01 2.391774440184235573e-03 -5.186409875750541687e-02
3.304000000000000000e+03 4.437441635131835938e+01 -2.192432212829589844e+01 3.013976477086544037e-02 5.816400051116943359e-02 2.649112977087497711e-02 1.269687861204147339e-01
3.305000000000000000e+03 4.393099975585937500e+01 -2.061013984680175781e+01 5.139893665909767151e-02 1.442981418222188950e-02 1.974862441420555115e-02 1.092460229992866516e-01
3.306000000000000000e+03 4.237915420532226562e+01 4.154978561401367188e+01 1.835134625434875488e-01 5.166711658239364624e-02 7.055417448282241821e-02 1.226218789815902710e-02
3.307000000000000000e+03 2.320184898376464844e+01 -3.104394149780273438e+01 2.779355943202972412e-01 1.501981914043426514e-01 1.284401416778564453e-01 -2.590518593788146973e-01
3.308000000000000000e+03 1.666772842407226562e+01 -1.431815338134765625e+01 2.028695940971374512e-01 -4.601013958454132080e-01 -7.716953754425048828e-02 -3.529189825057983398e-01
3.309000000000000000e+03 1.581256580352783203e+01 -1.346792030334472656e+01 1.831478178501129150e-01 -5.492057204246520996e-01 -1.098173633217811584e-01 -4.058607816696166992e-01
3.310000000000000000e+03 7.248309326171875000e+01 -2.146425628662109375e+01 1.926004141569137573e-02 4.051039218902587891e+00 1.221089839935302734e+00 1.473072767257690430e-01
3.311000000000000000e+03 7.277587127685546875e+01 -1.449283504486083984e+01 3.891989588737487793e-02 4.212706089019775391e+00 1.275487780570983887e+00 1.994017362594604492e-01
3.312000000000000000e+03 7.225995635986328125e+01 -7.723533630371093750e+00 7.704542577266693115e-02 4.302676200866699219e+00 1.313916444778442383e+00 3.091302514076232910e-01
3.313000000000000000e+03 8.474224090576171875e+00 -2.860680961608886719e+01 7.962935417890548706e-02 -7.546769976615905762e-01 -2.025142908096313477e-01 -1.998706459999084473e-01
3.314000000000000000e+03 7.201674461364746094e+00 -2.892010879516601562e+01 6.106358766555786133e-02 -8.205429911613464355e-01 -2.278438061475753784e-01 -1.795389056205749512e-01
3.315000000000000000e+03 2.693942260742187500e+01 -6.435292959213256836e-01 9.180226922035217285e-02 -2.052377015352249146e-01 -3.403063118457794189e-02 -1.621000319719314575e-01
3.316000000000000000e+03 2.755536651611328125e+01 2.846793889999389648e+00 -1.862326741218566895e+00 -6.696371436119079590e-01 -7.595891952514648438e-01 -6.985809803009033203e-01
3.317000000000000000e+03 2.765434646606445312e+01 3.322634458541870117e+00 -2.023327827453613281e+00 -7.586714029312133789e-01 -8.345997929573059082e-01 -8.339052200317382812e-01
3.318000000000000000e+03 2.639357376098632812e+01 2.756770610809326172e+00 -2.200695514678955078e+00 -5.654797554016113281e-01 -8.298525214195251465e-01 -8.675606250762939453e-01
3.319000000000000000e+03 2.539865112304687500e+01 2.617499828338623047e+00 -2.562051296234130859e+00 -5.363699197769165039e-01 -9.295263886451721191e-01 -1.051851153373718262e+00
3.320000000000000000e+03 2.515578079223632812e+01 2.243246078491210938e+00 -2.401018142700195312e+00 -3.464392721652984619e-01 -8.242372274398803711e-01 -9.633497595787048340e-01
3.321000000000000000e+03 2.492824745178222656e+01 1.615816354751586914e+00 -2.066087245941162109e+00 -2.686026692390441895e-01 -7.004070281982421875e-01 -8.197361230850219727e-01
3.322000000000000000e+03 2.481200027465820312e+01 8.918879032135009766e-01 -1.358831286430358887e+00 -7.220014184713363647e-02 -4.293094277381896973e-01 -5.659211874008178711e-01
3.323000000000000000e+03 3.079092216491699219e+01 5.253141403198242188e+00 -1.547025799751281738e+00 -8.187503814697265625e-01 -7.097328305244445801e-01 -8.308207988739013672e-01
3.324000000000000000e+03 2.429813194274902344e+01 1.365318536758422852e+00 -2.060138702392578125e+00 -1.843537092208862305e-01 -6.733477115631103516e-01 -8.556889891624450684e-01
3.325000000000000000e+03 2.399978828430175781e+01 7.866831421852111816e-01 -1.460856556892395020e+00 4.806808382272720337e-02 -4.238365590572357178e-01 -8.445477485656738281e-01
3.326000000000000000e+03 1.916198730468750000e+01 1.134815883636474609e+01 1.673511564731597900e-01 2.472062259912490845e-01 1.243672147393226624e-01 2.064441591501235962e-01
3.327000000000000000e+03 1.867880630493164062e+01 1.194023513793945312e+01 1.439811438322067261e-01 2.513767182826995850e-01 1.186073571443557739e-01 1.906790137290954590e-01
3.328000000000000000e+03 4.078576278686523438e+01 1.976692962646484375e+01 -1.064858913421630859e+00 -1.169510364532470703e+00 -6.703107953071594238e-01 -1.225457191467285156e+00
3.329000000000000000e+03 4.076351547241210938e+01 1.921377944946289062e+01 -1.040104389190673828e+00 -1.145612835884094238e+00 -6.557151675224304199e-01 -1.204225778579711914e+00
3.330000000000000000e+03 7.593210601806640625e+01 3.106053733825683594e+01 -1.928674578666687012e+00 1.121995639801025391e+01 2.787384510040283203e+00 3.971496820449829102e+00
3.331000000000000000e+03 7.548239898681640625e+01 3.143709754943847656e+01 -1.445322513580322266e+00 9.220957756042480469e+00 2.332690477371215820e+00 4.797511577606201172e+00
3.332000000000000000e+03 4.136211395263671875e+01 1.976450538635253906e+01 -1.045765399932861328e+00 -1.152662038803100586e+00 -6.595282554626464844e-01 -1.200500130653381348e+00
3.333000000000000000e+03 4.158796310424804688e+01 2.008905792236328125e+01 -1.060356497764587402e+00 -1.159135937690734863e+00 -6.658477187156677246e-01 -1.199388623237609863e+00
3.334000000000000000e+03 1.530546379089355469e+01 8.797990798950195312e+00 1.372542977333068848e-01 3.906800448894500732e-01 1.583803147077560425e-01 1.966492086648941040e-01
3.335000000000000000e+03 3.397506713867187500e+01 1.105678844451904297e+01 -1.184452056884765625e+00 -1.203162908554077148e+00 -7.162845134735107422e-01 -1.118864893913269043e+00
3.336000000000000000e+03 3.268005752563476562e+01 2.621384620666503906e+01 8.164603263139724731e-02 1.244188472628593445e-01 6.181946396827697754e-02 1.016795188188552856e-01
3.337000000000000000e+03 4.036745834350585938e+01 1.883755493164062500e+01 -1.050581932067871094e+00 -1.152615785598754883e+00 -6.609593033790588379e-01 -1.205993533134460449e+00
3.338000000000000000e+03 1.577412128448486328e+01 9.000762939453125000e+00 1.488843560218811035e-01 3.665160834789276123e-01 1.546201258897781372e-01 2.087361663579940796e-01
3.339000000000000000e+03 3.487754440307617188e+01 1.223304462432861328e+01 -1.149735450744628906e+00 -1.245334625244140625e+00 -7.185210585594177246e-01 -1.137911796569824219e+00
3.340000000000000000e+03 4.692489242553710938e+01 2.510395050048828125e+01 -1.266434192657470703e+00 -1.003002762794494629e+00 -6.808310747146606445e-01 -1.180680155754089355e+00
3.341000000000000000e+03 4.799675369262695312e+01 2.496135711669921875e+01 -1.191579103469848633e+00 -8.533456921577453613e-01 -6.134774088859558105e-01 -1.095244050025939941e+00
3.342000000000000000e+03 2.314544677734375000e+01 1.621149635314941406e+01 1.278171986341476440e-01 1.900641322135925293e-01 9.536439925432205200e-02 1.570425629615783691e-01
3.343000000000000000e+03 1.622417640686035156e+01 9.320174217224121094e+00 1.560789644718170166e-01 3.402600884437561035e-01 1.489017158746719360e-01 2.122242450714111328e-01
3.344000000000000000e+03 4.259465789794921875e+01 2.120116043090820312e+01 -1.147947907447814941e+00 -1.167390704154968262e+00 -6.946015954017639160e-01 -1.190415382385253906e+00
3.345000000000000000e+03 4.205490493774414062e+01 2.067547607421875000e+01 -1.101782679557800293e+00 -1.171565532684326172e+00 -6.820044517517089844e-01 -1.193810820579528809e+00
3.346000000000000000e+03 2.350568962097167969e+01 1.658323478698730469e+01 1.262949109077453613e-01 1.843566447496414185e-01 9.319546818733215332e-02 1.551146507263183594e-01
3.347000000000000000e+03 3.526719284057617188e+01 2.839029312133789062e+01 8.704043179750442505e-02 1.186544299125671387e-01 6.170845776796340942e-02 9.642498195171356201e-02
3.348000000000000000e+03 3.476612472534179688e+01 2.835479927062988281e+01 8.459644764661788940e-02 1.192156150937080383e-01 6.114361807703971863e-02 9.580640494823455811e-02
3.349000000000000000e+03 1.978412437438964844e+01 1.222220039367675781e+01 1.602118313312530518e-01 2.341158241033554077e-01 1.182982921600341797e-01 1.942027062177658081e-01
3.350000000000000000e+03 1.900201606750488281e+01 1.213804244995117188e+01 1.476212739944458008e-01 2.459385842084884644e-01 1.180679574608802795e-01 1.897345185279846191e-01
3.351000000000000000e+03 4.801055145263671875e+01 2.560617065429687500e+01 -1.226083159446716309e+00 -8.998296260833740234e-01 -6.377738118171691895e-01 -1.130269646644592285e+00
3.352000000000000000e+03 2.020161819458007812e+01 1.328354263305664062e+01 1.462088972330093384e-01 2.252246886491775513e-01 1.114300787448883057e-01 1.792142689228057861e-01
3.353000000000000000e+03 4.005294799804687500e+01 1.813842773437500000e+01 -1.050744891166687012e+00 -1.149882078170776367e+00 -6.601880788803100586e-01 -1.178008913993835449e+00
3.354000000000000000e+03 4.603375244140625000e+01 2.432088851928710938e+01 -1.279819130897521973e+00 -1.068224668502807617e+00 -7.044131159782409668e-01 -1.176769733428955078e+00
3.355000000000000000e+03 4.696966552734375000e+01 2.448467636108398438e+01 -1.225650787353515625e+00 -9.542807340621948242e-01 -6.539794802665710449e-01 -1.130571126937866211e+00
3.356000000000000000e+03 2.413331222534179688e+01 1.713788986206054688e+01 1.262406855821609497e-01 1.765044927597045898e-01 9.082355350255966187e-02 1.515641659498214722e-01
3.357000000000000000e+03 4.421070480346679688e+01 2.228113746643066406e+01 -1.181281089782714844e+00 -1.133675217628479004e+00 -6.944868564605712891e-01 -1.169955253601074219e+00
3.358000000000000000e+03 4.341429901123046875e+01 2.200866699218750000e+01 -1.206087708473205566e+00 -1.164700031280517578e+00 -7.112362980842590332e-01 -1.202073216438293457e+00
3.359000000000000000e+03 3.214307022094726562e+01 1.008070182800292969e+01 -1.280544996261596680e+00 -1.231222271919250488e+00 -7.535302042961120605e-01 -1.161189079284667969e+00
3.360000000000000000e+03 3.355187606811523438e+01 1.107953929901123047e+01 -1.218725085258483887e+00 -1.226946353912353516e+00 -7.337014675140380859e-01 -1.148725152015686035e+00
3.361000000000000000e+03 2.887803077697753906e+01 2.114250373840332031e+01 1.050108000636100769e-01 1.405690610408782959e-01 7.367395609617233276e-02 1.239725500345230103e-01
3.362000000000000000e+03 3.649735260009765625e+01 1.414857101440429688e+01 -1.111017465591430664e+00 -1.272647857666015625e+00 -7.150995731353759766e-01 -1.159146547317504883e+00
3.363000000000000000e+03 3.570967864990234375e+01 1.380562019348144531e+01 -1.158772826194763184e+00 -1.306784868240356445e+00 -7.396672964096069336e-01 -1.198596715927124023e+00
3.364000000000000000e+03 4.859165191650390625e+01 2.676379585266113281e+01 -1.260120272636413574e+00 -9.135633111000061035e-01 -6.521050930023193359e-01 -1.127555251121520996e+00
3.365000000000000000e+03 2.830766677856445312e+01 2.103490829467773438e+01 1.033302173018455505e-01 1.443863660097122192e-01 7.431497424840927124e-02 1.249055713415145874e-01
3.366000000000000000e+03 3.568802642822265625e+01 1.330144309997558594e+01 -1.133984923362731934e+00 -1.264391660690307617e+00 -7.195129990577697754e-01 -1.155767798423767090e+00
3.367000000000000000e+03 2.125658798217773438e+01 1.391306304931640625e+01 1.504056304693222046e-01 2.123150229454040527e-01 1.088161990046501160e-01 1.760212481021881104e-01
3.368000000000000000e+03 1.734920120239257812e+01 1.036930370330810547e+01 1.540728360414505005e-01 2.960020899772644043e-01 1.350224763154983521e-01 2.036453187465667725e-01
3.369000000000000000e+03 3.439852523803710938e+01 1.147260856628417969e+01 -1.162104129791259766e+00 -1.214851737022399902e+00 -7.130867838859558105e-01 -1.121096372604370117e+00
3.370000000000000000e+03 3.492745590209960938e+01 1.259593105316162109e+01 -1.167299509048461914e+00 -1.271352767944335938e+00 -7.315956950187683105e-01 -1.162868857383728027e+00
3.371000000000000000e+03 4.366630935668945312e+01 2.176060104370117188e+01 -1.157590627670288086e+00 -1.136108994483947754e+00 -6.881099343299865723e-01 -1.170190691947937012e+00
3.372000000000000000e+03 3.970273971557617188e+01 1.789359283447265625e+01 -1.068049192428588867e+00 -1.171578168869018555e+00 -6.718882322311401367e-01 -1.174586415290832520e+00
3.373000000000000000e+03 4.854685974121093750e+01 2.562770080566406250e+01 -1.202970981597900391e+00 -8.300549983978271484e-01 -6.099078059196472168e-01 -1.089862942695617676e+00
3.374000000000000000e+03 3.352185058593750000e+01 2.649973106384277344e+01 8.338244259357452393e-02 1.237903311848640442e-01 6.215183064341545105e-02 1.012807264924049377e-01
3.375000000000000000e+03 2.800248908996582031e+01 2.077861213684082031e+01 1.042172610759735107e-01 1.469251066446304321e-01 7.534270733594894409e-02 1.266988515853881836e-01
3.376000000000000000e+03 2.836336326599121094e+01 2.050435638427734375e+01 1.111496612429618835e-01 1.445087492465972900e-01 7.669752091169357300e-02 1.291097104549407959e-01
3.377000000000000000e+03 3.378171539306640625e+01 2.678236007690429688e+01 8.360785245895385742e-02 1.232100501656532288e-01 6.204536929726600647e-02 1.006531938910484314e-01
3.378000000000000000e+03 2.773258590698242188e+01 2.045642662048339844e+01 1.066844388842582703e-01 1.491120010614395142e-01 7.673893123865127563e-02 1.286510378122329712e-01
3.379000000000000000e+03 4.448580551147460938e+01 2.254217147827148438e+01 -1.192664861679077148e+00 -1.130387902259826660e+00 -6.969158053398132324e-01 -1.167374134063720703e+00
3.380000000000000000e+03 2.716556739807128906e+01 2.025110054016113281e+01 1.055655404925346375e-01 1.533030420541763306e-01 7.766057550907135010e-02 1.294169872999191284e-01
3.381000000000000000e+03 2.754278755187988281e+01 2.009689903259277344e+01 1.103046834468841553e-01 1.512902379035949707e-01 7.847847789525985718e-02 1.313015818595886230e-01
3.382000000000000000e+03 5.100919342041015625e+01 2.868760681152343750e+01 -1.285559177398681641e+00 -5.966688990592956543e-01 -5.646684169769287109e-01 -9.854283332824707031e-01
3.383000000000000000e+03 5.079364776611328125e+01 2.895204734802246094e+01 -1.286296010017395020e+00 -6.664693951606750488e-01 -5.858296155929565430e-01 -1.001550316810607910e+00
3.384000000000000000e+03 2.543769454956054688e+01 1.800382423400878906e+01 1.266579180955886841e-01 1.676663160324096680e-01 8.829727023839950562e-02 1.442516297101974487e-01
3.385000000000000000e+03 4.856310653686523438e+01 2.619430732727050781e+01 -1.232002258300781250e+00 -8.711699843406677246e-01 -6.309516429901123047e-01 -1.110400676727294922e+00
3.386000000000000000e+03 3.672561645507812500e+01 1.445183658599853516e+01 -1.101173758506774902e+00 -1.278456807136535645e+00 -7.138891816139221191e-01 -1.162474989891052246e+00
3.387000000000000000e+03 3.037473678588867188e+01 2.285275077819824219e+01 9.049084037542343140e-02 1.321358829736709595e-01 6.678801774978637695e-02 1.160117462277412415e-01
3.388000000000000000e+03 3.214213562011718750e+01 2.569455909729003906e+01 8.154807239770889282e-02 1.253261864185333252e-01 6.206227838993072510e-02 1.036394983530044556e-01
3.389000000000000000e+03 4.571827316284179688e+01 2.407544708251953125e+01 -1.281431913375854492e+00 -1.097391843795776367e+00 -7.136471271514892578e-01 -1.178073644638061523e+00
3.390000000000000000e+03 4.660734939575195312e+01 2.423436164855957031e+01 -1.231012225151062012e+00 -9.843531847000122070e-01 -6.646096110343933105e-01 -1.135731935501098633e+00
3.391000000000000000e+03 3.217639160156250000e+01 9.672011375427246094e+00 -1.263870716094970703e+00 -1.201360225677490234e+00 -7.395692467689514160e-01 -1.116304397583007812e+00
3.392000000000000000e+03 3.534939575195312500e+01 1.292094612121582031e+01 -1.152631163597106934e+00 -1.265016436576843262e+00 -7.252942919731140137e-01 -1.155588865280151367e+00
3.393000000000000000e+03 2.520211791992187500e+01 1.777876472473144531e+01 1.276842951774597168e-01 1.687528640031814575e-01 8.893115073442459106e-02 1.460506618022918701e-01
3.394000000000000000e+03 2.439066505432128906e+01 1.793817520141601562e+01 1.166590154170989990e-01 1.726556569337844849e-01 8.679440617561340332e-02 1.425822228193283081e-01
3.395000000000000000e+03 1.516660404205322266e+01 8.493697166442871094e+00 1.377119719982147217e-01 4.033972620964050293e-01 1.623327732086181641e-01 2.037044614553451538e-01
3.396000000000000000e+03 1.522175312042236328e+01 7.709527969360351562e+00 1.666034162044525146e-01 4.492166638374328613e-01 1.847460269927978516e-01 2.364334613084793091e-01
3.397000000000000000e+03 2.891399002075195312e+01 2.184507751464843750e+01 9.579484909772872925e-02 1.407723128795623779e-01 7.097014784812927246e-02 1.198739409446716309e-01
3.398000000000000000e+03 3.695355606079101562e+01 1.474632453918457031e+01 -1.097680449485778809e+00 -1.284479379653930664e+00 -7.146479487419128418e-01 -1.163074374198913574e+00
3.399000000000000000e+03 2.656669998168945312e+01 1.968452072143554688e+01 1.092656999826431274e-01 1.584217995405197144e-01 8.030625432729721069e-02 1.323630809783935547e-01
3.400000000000000000e+03 3.718860626220703125e+01 1.502599716186523438e+01 -1.091629862785339355e+00 -1.286118388175964355e+00 -7.133244872093200684e-01 -1.162653088569641113e+00
3.401000000000000000e+03 2.181823539733886719e+01 1.441917610168457031e+01 1.483460515737533569e-01 2.068742066621780396e-01 1.065660789608955383e-01 1.708468645811080933e-01
3.402000000000000000e+03 2.068904495239257812e+01 1.396659278869628906e+01 1.401747018098831177e-01 2.157521694898605347e-01 1.067780628800392151e-01 1.718056201934814453e-01
3.403000000000000000e+03 4.947669219970703125e+01 2.816605567932128906e+01 -1.304235935211181641e+00 -8.812043070793151855e-01 -6.556320786476135254e-01 -1.094084501266479492e+00
3.404000000000000000e+03 5.254842758178710938e+01 2.888051795959472656e+01 -1.311281919479370117e+00 -2.727321982383728027e-01 -4.752042293548583984e-01 -9.215961098670959473e-01
3.405000000000000000e+03 3.743254852294921875e+01 1.529225540161132812e+01 -1.089086055755615234e+00 -1.285229086875915527e+00 -7.122945189476013184e-01 -1.157682895660400391e+00
3.406000000000000000e+03 3.852954101562500000e+01 1.687178993225097656e+01 -1.101050257682800293e+00 -1.269636392593383789e+00 -7.112060189247131348e-01 -1.166726112365722656e+00
3.407000000000000000e+03 2.020150566101074219e+01 1.266925334930419922e+01 1.589057147502899170e-01 2.283191978931427002e-01 1.161674708127975464e-01 1.896881908178329468e-01
3.408000000000000000e+03 4.339760589599609375e+01 2.149800109863281250e+01 -1.142451167106628418e+00 -1.137562751770019531e+00 -6.840041875839233398e-01 -1.168368697166442871e+00
3.409000000000000000e+03 4.476307296752929688e+01 2.280047035217285156e+01 -1.204163074493408203e+00 -1.123521447181701660e+00 -6.983053684234619141e-01 -1.163255929946899414e+00
3.410000000000000000e+03 2.230405235290527344e+01 1.495145702362060547e+01 1.427882164716720581e-01 2.022154927253723145e-01 1.035011112689971924e-01 1.661022752523422241e-01
3.411000000000000000e+03 3.768724060058593750e+01 1.555385780334472656e+01 -1.084451317787170410e+00 -1.280288100242614746e+00 -7.094218134880065918e-01 -1.154050230979919434e+00
3.412000000000000000e+03 5.025963592529296875e+01 2.842902755737304688e+01 -1.291900277137756348e+00 -7.421231269836425781e-01 -6.102070212364196777e-01 -1.033810138702392578e+00
3.413000000000000000e+03 2.500608444213867188e+01 1.755924797058105469e+01 1.293108314275741577e-01 1.701887696981430054e-01 8.984988182783126831e-02 1.481742858886718750e-01
3.414000000000000000e+03 2.621149253845214844e+01 1.815995407104492188e+01 1.312084496021270752e-01 1.642964631319046021e-01 8.865147083997726440e-02 1.443005651235580444e-01
3.415000000000000000e+03 5.473301696777343750e+01 3.087345314025878906e+01 -1.387668967247009277e+00 7.439818233251571655e-02 -3.939812183380126953e-01 -8.284549117088317871e-01
3.416000000000000000e+03 4.911647415161132812e+01 2.675864028930664062e+01 -1.244233489036560059e+00 -8.300490975379943848e-01 -6.222847700119018555e-01 -1.085285305976867676e+00
3.417000000000000000e+03 4.942893981933593750e+01 2.760296058654785156e+01 -1.280176281929016113e+00 -8.422819972038269043e-01 -6.367375254631042480e-01 -1.082402467727661133e+00
3.418000000000000000e+03 4.970511627197265625e+01 2.788148117065429688e+01 -1.287575244903564453e+00 -8.117309808731079102e-01 -6.297918558120727539e-01 -1.067005872726440430e+00
3.419000000000000000e+03 2.654253387451171875e+01 1.892987442016601562e+01 1.208337098360061646e-01 1.604793667793273926e-01 8.439392596483230591e-02 1.382942050695419312e-01
3.420000000000000000e+03 3.825528717041015625e+01 1.660844993591308594e+01 -1.101694583892822266e+00 -1.289402008056640625e+00 -7.173290252685546875e-01 -1.170132517814636230e+00
3.421000000000000000e+03 5.156115722656250000e+01 2.903094100952148438e+01 -1.289974451065063477e+00 -4.942256808280944824e-01 -5.352600216865539551e-01 -9.511893987655639648e-01
3.422000000000000000e+03 1.930847740173339844e+01 1.230285453796386719e+01 1.501710861921310425e-01 2.386704683303833008e-01 1.166524663567543030e-01 1.895234733819961548e-01
3.423000000000000000e+03 1.922386169433593750e+01 1.183856201171875000e+01 1.589952707290649414e-01 2.431812286376953125e-01 1.206529513001441956e-01 1.983081698417663574e-01
3.424000000000000000e+03 4.541019821166992188e+01 2.382820129394531250e+01 -1.277535557746887207e+00 -1.123570322990417480e+00 -7.203317880630493164e-01 -1.181495547294616699e+00
3.425000000000000000e+03 4.031710052490234375e+01 1.844875144958496094e+01 -1.044222950935363770e+00 -1.143203616142272949e+00 -6.562280058860778809e-01 -1.186106443405151367e+00
3.426000000000000000e+03 2.626147651672363281e+01 1.868722724914550781e+01 1.224482282996177673e-01 1.628201752901077271e-01 8.558052033185958862e-02 1.397564262151718140e-01
3.427000000000000000e+03 2.934773826599121094e+01 2.199175834655761719e+01 9.618332982063293457e-02 1.378771662712097168e-01 7.021815329790115356e-02 1.190540120005607605e-01
3.428000000000000000e+03 2.206891059875488281e+01 1.468404102325439453e+01 1.461281776428222656e-01 2.052582800388336182e-01 1.054159328341484070e-01 1.676581501960754395e-01
3.429000000000000000e+03 2.153866004943847656e+01 1.464806842803955078e+01 1.397175937891006470e-01 2.079303413629531860e-01 1.042943820357322693e-01 1.655568182468414307e-01
3.430000000000000000e+03 3.633208465576171875e+01 1.328049755096435547e+01 -1.085307717323303223e+00 -1.218701601028442383e+00 -6.912028193473815918e-01 -1.109059214591979980e+00
3.431000000000000000e+03 3.534855270385742188e+01 1.326120281219482422e+01 -1.161057829856872559e+00 -1.289319396018981934e+00 -7.351131439208984375e-01 -1.179112911224365234e+00
3.432000000000000000e+03 4.393736648559570312e+01 2.202038764953613281e+01 -1.170150279998779297e+00 -1.135189890861511230e+00 -6.916020512580871582e-01 -1.170442342758178711e+00
3.433000000000000000e+03 3.795315551757812500e+01 1.581254577636718750e+01 -1.082472324371337891e+00 -1.270387053489685059e+00 -7.058578133583068848e-01 -1.147364258766174316e+00
3.434000000000000000e+03 2.569835281372070312e+01 1.823224639892578125e+01 1.251312047243118286e-01 1.659820675849914551e-01 8.733398467302322388e-02 1.424770057201385498e-01
3.435000000000000000e+03 1.808549690246582031e+01 1.112460803985595703e+01 1.513458192348480225e-01 2.696565091609954834e-01 1.263007074594497681e-01 1.991996020078659058e-01
3.436000000000000000e+03 3.324601745605468750e+01 1.066593742370605469e+01 -1.237268686294555664e+00 -1.215501308441162109e+00 -7.358310222625732422e-01 -1.131832003593444824e+00
3.437000000000000000e+03 3.320282363891601562e+01 2.676478767395019531e+01 8.166423439979553223e-02 1.235241964459419250e-01 6.155652925372123718e-02 1.000245586037635803e-01
3.438000000000000000e+03 3.294186019897460938e+01 2.648419570922851562e+01 8.143630623817443848e-02 1.241332292556762695e-01 6.167086213827133179e-02 1.008799895644187927e-01
3.439000000000000000e+03 3.994059371948242188e+01 1.753587722778320312e+01 -1.044368863105773926e+00 -1.141813874244689941e+00 -6.558548212051391602e-01 -1.146559476852416992e+00
3.440000000000000000e+03 3.906385040283203125e+01 1.682575607299804688e+01 -1.070425748825073242e+00 -1.202450394630432129e+00 -6.818628907203674316e-01 -1.138502955436706543e+00
3.441000000000000000e+03 3.185515594482421875e+01 2.544367408752441406e+01 8.137910068035125732e-02 1.259320378303527832e-01 6.219334155321121216e-02 1.048413217067718506e-01
3.442000000000000000e+03 3.126193618774414062e+01 2.434505844116210938e+01 8.438645303249359131e-02 1.272033005952835083e-01 6.347692757844924927e-02 1.099321246147155762e-01
3.443000000000000000e+03 3.424063110351562500e+01 2.787470436096191406e+01 8.313135802745819092e-02 1.207172274589538574e-01 6.115457415580749512e-02 9.721942245960235596e-02
3.444000000000000000e+03 3.371653366088867188e+01 2.733059501647949219e+01 8.206728845834732056e-02 1.223070025444030762e-01 6.131228804588317871e-02 9.857203066349029541e-02
3.445000000000000000e+03 3.822778320312500000e+01 1.606693077087402344e+01 -1.078440189361572266e+00 -1.256971955299377441e+00 -7.006236314773559570e-01 -1.142730712890625000e+00
3.446000000000000000e+03 3.850844573974609375e+01 1.631859779357910156e+01 -1.075552701950073242e+00 -1.240345597267150879e+00 -6.947695016860961914e-01 -1.137946248054504395e+00
3.447000000000000000e+03 4.207661437988281250e+01 2.020579147338867188e+01 -1.056362271308898926e+00 -1.148518681526184082e+00 -6.614642739295959473e-01 -1.178598999977111816e+00
3.448000000000000000e+03 4.259048080444335938e+01 2.065791702270507812e+01 -1.080737471580505371e+00 -1.143025398254394531e+00 -6.671288609504699707e-01 -1.167103171348571777e+00
3.449000000000000000e+03 1.978188896179199219e+01 1.315610599517822266e+01 1.412155181169509888e-01 2.281818836927413940e-01 1.108192205429077148e-01 1.785690337419509888e-01
3.450000000000000000e+03 3.094709205627441406e+01 2.407136154174804688e+01 8.471842110157012939e-02 1.284949481487274170e-01 6.396400928497314453e-02 1.112593933939933777e-01
3.451000000000000000e+03 4.504387283325195312e+01 2.305460548400878906e+01 -1.215501904487609863e+00 -1.112910151481628418e+00 -6.985235810279846191e-01 -1.157664895057678223e+00
3.452000000000000000e+03 3.433218002319335938e+01 2.899362945556640625e+01 8.046634495258331299e-02 1.186516880989074707e-01 5.973540991544723511e-02 9.168558567762374878e-02
3.453000000000000000e+03 3.518458557128906250e+01 2.910341262817382812e+01 8.440112322568893433e-02 1.175091639161109924e-01 6.057308614253997803e-02 9.279842674732208252e-02
3.454000000000000000e+03 1.373314476013183594e+01 5.974756717681884766e+00 1.303953826427459717e-01 7.393457293510437012e-01 2.609223425388336182e-01 1.605166941881179810e-01
3.455000000000000000e+03 5.474208450317382812e+01 3.136238098144531250e+01 -1.352849245071411133e+00 7.627863436937332153e-02 -3.829711675643920898e-01 -7.817053198814392090e-01
3.456000000000000000e+03 5.340664672851562500e+01 3.088684844970703125e+01 -1.282239794731140137e+00 -1.205879896879196167e-01 -4.208483397960662842e-01 -8.178726434707641602e-01
3.457000000000000000e+03 1.957839393615722656e+01 1.245366096496582031e+01 1.521332114934921265e-01 2.367980331182479858e-01 1.166793778538703918e-01 1.884447634220123291e-01
3.458000000000000000e+03 2.276294517517089844e+01 1.602461433410644531e+01 1.268793195486068726e-01 1.932359635829925537e-01 9.603458642959594727e-02 1.569334566593170166e-01
3.459000000000000000e+03 5.302614974975585938e+01 2.994729614257812500e+01 -1.318694353103637695e+00 -1.939385682344436646e-01 -4.537898898124694824e-01 -8.770353794097900391e-01
3.460000000000000000e+03 3.483372116088867188e+01 1.144919681549072266e+01 -1.123379826545715332e+00 -1.185248494148254395e+00 -6.925885081291198730e-01 -1.082202672958374023e+00
3.461000000000000000e+03 3.484344100952148438e+01 1.185058307647705078e+01 -1.139948606491088867e+00 -1.217270970344543457e+00 -7.071658968925476074e-01 -1.113211154937744141e+00
3.462000000000000000e+03 2.213502502441406250e+01 1.598813343048095703e+01 1.209467500448226929e-01 1.972175985574722290e-01 9.544930607080459595e-02 1.534948050975799561e-01
3.463000000000000000e+03 4.533013534545898438e+01 2.330286216735839844e+01 -1.225503921508789062e+00 -1.096691966056823730e+00 -6.966587305068969727e-01 -1.152479410171508789e+00
3.464000000000000000e+03 4.562573242187500000e+01 2.354391670227050781e+01 -1.232878208160400391e+00 -1.075665473937988281e+00 -6.925631165504455566e-01 -1.147470831871032715e+00
3.465000000000000000e+03 3.248036193847656250e+01 9.068620681762695312e+00 -1.204706072807312012e+00 -1.150545477867126465e+00 -7.065754532814025879e-01 -1.053120732307434082e+00
3.466000000000000000e+03 3.318623352050781250e+01 1.012191009521484375e+01 -1.212607264518737793e+00 -1.180006027221679688e+00 -7.177839875221252441e-01 -1.089295983314514160e+00
3.467000000000000000e+03 1.662614822387695312e+01 9.761520385742187500e+00 1.555375754833221436e-01 3.171237111091613770e-01 1.417983770370483398e-01 2.070677727460861206e-01
3.468000000000000000e+03 7.661177825927734375e+01 3.036952590942382812e+01 -1.952418327331542969e+00 1.287754154205322266e+01 3.277536869049072266e+00 2.250416278839111328e+00
3.469000000000000000e+03 3.475848770141601562e+01 2.910774612426757812e+01 8.250892162322998047e-02 1.180741786956787109e-01 6.017493084073066711e-02 9.215687960386276245e-02
3.470000000000000000e+03 3.003508758544921875e+01 4.782812595367431641e+00 -1.721938371658325195e+00 -8.744287490844726562e-01 -7.789101004600524902e-01 -7.847668528556823730e-01
3.471000000000000000e+03 1.827472114562988281e+01 1.073856449127197266e+01 1.642531603574752808e-01 2.767482101917266846e-01 1.323004066944122314e-01 2.107865214347839355e-01
3.472000000000000000e+03 1.761980438232421875e+01 1.096049404144287109e+01 1.452373415231704712e-01 2.827663719654083252e-01 1.284011155366897583e-01 1.963779926300048828e-01
3.473000000000000000e+03 1.721475410461425781e+01 1.077495956420898438e+01 1.408286839723587036e-01 2.883448600769042969e-01 1.287520676851272583e-01 1.928755640983581543e-01
3.474000000000000000e+03 1.694034194946289062e+01 1.026648426055908203e+01 1.481508612632751465e-01 3.018145561218261719e-01 1.349896192550659180e-01 1.991761773824691772e-01
3.475000000000000000e+03 1.464642047882080078e+01 8.315363883972167969e+00 1.234384700655937195e-01 4.262541830539703369e-01 1.649077981710433960e-01 1.783230900764465332e-01
3.476000000000000000e+03 7.307682800292968750e+01 3.048000907897949219e+01 -8.107058405876159668e-01 2.378893136978149414e+00 4.704562127590179443e-01 1.922831654548645020e+00
3.477000000000000000e+03 1.456265926361083984e+01 6.964692592620849609e+00 1.552635729312896729e-01 5.305355191230773926e-01 2.057397216558456421e-01 2.330983132123947144e-01
3.478000000000000000e+03 1.433699703216552734e+01 6.663468360900878906e+00 1.499823480844497681e-01 5.992275476455688477e-01 2.247629761695861816e-01 2.271220237016677856e-01
3.479000000000000000e+03 1.369894981384277344e+01 6.250484943389892578e+00 1.244738101959228516e-01 6.852008104324340820e-01 2.429023832082748413e-01 1.474488675594329834e-01
3.480000000000000000e+03 7.579830932617187500e+01 3.727936935424804688e+01 -9.360997080802917480e-01 1.113663768768310547e+01 3.060161352157592773e+00 -2.791712522506713867e+00
3.481000000000000000e+03 1.435190010070800781e+01 7.574622154235839844e+00 1.290600895881652832e-01 4.894935488700866699e-01 1.855660825967788696e-01 1.838836967945098877e-01
3.482000000000000000e+03 1.483784580230712891e+01 7.201293945312500000e+00 1.648617684841156006e-01 5.035229921340942383e-01 2.005154192447662354e-01 2.365640252828598022e-01
3.483000000000000000e+03 3.274273681640625000e+01 6.013557910919189453e+00 -1.151712417602539062e+00 -8.302315473556518555e-01 -5.945831537246704102e-01 -7.633076310157775879e-01
3.484000000000000000e+03 2.994679260253906250e+01 2.385730552673339844e+01 8.122926950454711914e-02 1.339662075042724609e-01 6.455864012241363525e-02 1.119153797626495361e-01
3.485000000000000000e+03 3.238022232055664062e+01 6.999615192413330078e+00 -1.192101001739501953e+00 -9.616065621376037598e-01 -6.461122632026672363e-01 -9.371842145919799805e-01
3.486000000000000000e+03 1.274224853515625000e+01 5.153959751129150391e+00 2.243584692478179932e-01 7.870595455169677734e-01 3.034254014492034912e-01 -1.415529698133468628e-01
3.487000000000000000e+03 1.255125331878662109e+01 5.624386310577392578e+00 2.018974721431732178e-01 6.266156435012817383e-01 2.485539466142654419e-01 -1.016723513603210449e-01
3.488000000000000000e+03 3.044879150390625000e+01 4.799955368041992188e+00 -1.581408381462097168e+00 -8.033682107925415039e-01 -7.154330015182495117e-01 -7.390275597572326660e-01
3.489000000000000000e+03 7.261653900146484375e+01 3.000303077697753906e+01 -6.013597249984741211e-01 2.260812044143676758e+00 4.978356957435607910e-01 1.682656764984130859e+00
3.490000000000000000e+03 3.127186584472656250e+01 5.251135826110839844e+00 -1.452158451080322266e+00 -7.973812818527221680e-01 -6.748619079589843750e-01 -7.752765417098999023e-01
3.491000000000000000e+03 3.225981140136718750e+01 5.625198364257812500e+00 -1.231820583343505859e+00 -7.988535761833190918e-01 -6.092022657394409180e-01 -7.545856237411499023e-01
3.492000000000000000e+03 7.734136199951171875e+01 3.040301895141601562e+01 -2.298418045043945312e+00 1.456435489654541016e+01 3.679781198501586914e+00 1.130651235580444336e+00
3.493000000000000000e+03 3.124237442016601562e+01 2.494356155395507812e+01 8.111821860074996948e-02 1.276048421859741211e-01 6.261691451072692871e-02 1.072586625814437866e-01
3.494000000000000000e+03 3.091666412353515625e+01 2.468462371826171875e+01 8.108377456665039062e-02 1.287810355424880981e-01 6.295944750308990479e-02 1.083567589521408081e-01
3.495000000000000000e+03 3.270439147949218750e+01 7.932068347930908203e+00 -1.151515126228332520e+00 -1.038957118988037109e+00 -6.571416854858398438e-01 -9.688823223114013672e-01
3.496000000000000000e+03 7.091745758056640625e+01 2.929425048828125000e+01 -6.555101871490478516e-01 1.233976364135742188e+00 1.735398620367050171e-01 7.971749901771545410e-01
3.497000000000000000e+03 7.560674285888671875e+01 2.808663177490234375e+01 -3.355610072612762451e-01 8.639806747436523438e+00 2.491273641586303711e+00 2.414925575256347656e+00
3.498000000000000000e+03 4.149682998657226562e+01 3.545556259155273438e+01 1.263242065906524658e-01 7.648409157991409302e-02 6.084249168634414673e-02 8.237150311470031738e-02
3.499000000000000000e+03 2.371166992187500000e+01 5.948938801884651184e-02 -6.982745528221130371e-01 3.825041055679321289e-01 -9.473112970590591431e-02 -7.715766429901123047e-01
3.500000000000000000e+03 2.435966110229492188e+01 -1.243165731430053711e-01 -4.523662924766540527e-01 3.345353901386260986e-01 -3.534926846623420715e-02 -4.612747132778167725e-01
3.501000000000000000e+03 3.522143554687500000e+01 2.986369895935058594e+01 8.215939253568649292e-02 1.161069273948669434e-01 5.947989597916603088e-02 8.923526853322982788e-02
3.502000000000000000e+03 3.780949401855468750e+01 3.114969635009765625e+01 9.181646257638931274e-02 1.046017482876777649e-01 5.892546474933624268e-02 9.076602756977081299e-02
3.503000000000000000e+03 3.763924789428710938e+01 3.044568824768066406e+01 9.186272323131561279e-02 1.077014952898025513e-01 5.986926332116127014e-02 9.385247528553009033e-02
3.504000000000000000e+03 7.205337524414062500e+01 2.941745758056640625e+01 -4.209933280944824219e-01 2.063620805740356445e+00 4.927882552146911621e-01 1.409276008605957031e+00
3.505000000000000000e+03 7.261671447753906250e+01 2.949751853942871094e+01 -3.690739870071411133e-01 2.689789772033691406e+00 6.962147355079650879e-01 1.808088660240173340e+00
3.506000000000000000e+03 2.519294929504394531e+01 -5.537555217742919922e-01 2.018709778785705566e-01 4.848598688840866089e-02 7.510709017515182495e-02 -3.929017484188079834e-01
3.507000000000000000e+03 3.252137374877929688e+01 7.460511207580566406e+00 -1.161183714866638184e+00 -1.018206357955932617e+00 -6.538170576095581055e-01 -9.549772143363952637e-01
3.508000000000000000e+03 5.859908580780029297e+00 7.369974613189697266e+00 1.173718795180320740e-01 -1.591969728469848633e-01 -1.254752650856971741e-02 8.805841952562332153e-02
3.509000000000000000e+03 2.745668601989746094e+01 -6.654938459396362305e-01 -4.701426625251770020e-02 -3.036768138408660889e-01 -1.052073240280151367e-01 -1.782321035861968994e-01
3.510000000000000000e+03 2.687362289428710938e+01 -1.213049650192260742e+00 2.706521451473236084e-01 -1.469501703977584839e-01 3.711058571934700012e-02 -2.526764869689941406e-01
3.511000000000000000e+03 6.805721282958984375e+00 6.497334480285644531e+00 1.532773673534393311e-01 -1.616850197315216064e-01 -2.522298833355307579e-03 1.038868352770805359e-01
3.512000000000000000e+03 7.442740631103515625e+01 2.720211029052734375e+01 1.664645671844482422e-01 6.395606040954589844e+00 1.968621253967285156e+00 2.353009700775146484e+00
3.513000000000000000e+03 3.069150352478027344e+01 2.316591644287109375e+01 8.895487338304519653e-02 1.298703253269195557e-01 6.564755737781524658e-02 1.150935292243957520e-01
3.514000000000000000e+03 7.032034301757812500e+01 2.925250053405761719e+01 -7.993648648262023926e-01 9.378945827484130859e-01 4.155891388654708862e-02 5.362663865089416504e-01
3.515000000000000000e+03 5.268106842041015625e+01 2.963403892517089844e+01 -1.313839554786682129e+00 -2.662646174430847168e-01 -4.740312397480010986e-01 -8.940241336822509766e-01
3.516000000000000000e+03 3.104817008972167969e+01 -2.951897382736206055e+00 5.117166638374328613e-01 -5.066053271293640137e-01 1.533412141725420952e-03 -4.951122030615806580e-02
3.517000000000000000e+03 6.914824676513671875e+01 2.925597000122070312e+01 -1.087396144866943359e+00 5.218369364738464355e-01 -1.696677654981613159e-01 1.062849983572959900e-01
3.518000000000000000e+03 2.544938468933105469e+01 -1.210994422435760498e-01 -3.591008484363555908e-01 -7.763420045375823975e-02 -1.310205161571502686e-01 -3.154135346412658691e-01
3.519000000000000000e+03 3.613229370117187500e+01 3.202936935424804688e+01 8.445611596107482910e-02 1.090143248438835144e-01 5.804112926125526428e-02 8.241269737482070923e-02
3.520000000000000000e+03 3.635202026367187500e+01 3.058436203002929688e+01 8.593402057886123657e-02 1.124532967805862427e-01 5.951619520783424377e-02 8.909808844327926636e-02
3.521000000000000000e+03 9.825311660766601562e+00 4.830513477325439453e+00 3.512744605541229248e-01 -1.380643844604492188e-01 6.396301835775375366e-02 2.162165194749832153e-02
3.522000000000000000e+03 8.640675544738769531e+00 5.644175529479980469e+00 2.506880462169647217e-01 -1.531148254871368408e-01 2.927196770906448364e-02 7.364802062511444092e-02
3.523000000000000000e+03 6.005892181396484375e+01 2.857481765747070312e+01 -1.405228495597839355e+00 1.952350139617919922e-01 -3.629980385303497314e-01 -9.380390644073486328e-01
3.524000000000000000e+03 6.230626296997070312e+01 2.802055740356445312e+01 -1.210689306259155273e+00 1.919287294149398804e-01 -3.056281805038452148e-01 -8.273504972457885742e-01
3.525000000000000000e+03 6.347371292114257812e+01 2.775078392028808594e+01 -1.036064147949218750e+00 2.267684787511825562e-01 -2.427886873483657837e-01 -7.164590954780578613e-01
3.526000000000000000e+03 6.171850585937500000e+01 2.924913024902343750e+01 -1.630546689033508301e+00 1.336422264575958252e-01 -4.490713179111480713e-01 -8.702943325042724609e-01
3.527000000000000000e+03 6.467817687988281250e+01 2.903749847412109375e+01 -1.524137735366821289e+00 1.173479855060577393e-01 -4.220369458198547363e-01 -6.803680062294006348e-01
3.528000000000000000e+03 6.304602813720703125e+01 2.855631637573242188e+01 -1.365105390548706055e+00 1.685138940811157227e-01 -3.589774668216705322e-01 -7.933506369590759277e-01
3.529000000000000000e+03 4.117372894287109375e+01 3.407013320922851562e+01 1.123191043734550476e-01 8.050549030303955078e-02 5.784737691283226013e-02 8.608680218458175659e-02
3.530000000000000000e+03 4.154740142822265625e+01 3.474050521850585938e+01 1.175630390644073486e-01 7.807510346174240112e-02 5.869144201278686523e-02 8.487422019243240356e-02
3.531000000000000000e+03 4.006709671020507812e+01 3.321003341674804688e+01 1.049830168485641479e-01 8.880786597728729248e-02 5.813726782798767090e-02 8.759305626153945923e-02
3.532000000000000000e+03 3.942293167114257812e+01 3.338446807861328125e+01 1.026158034801483154e-01 9.077677130699157715e-02 5.801777169108390808e-02 8.435220271348953247e-02
3.533000000000000000e+03 9.202751159667968750e+00 5.196281433105468750e+00 3.007161319255828857e-01 -1.608404815196990967e-01 4.196269810199737549e-02 5.533807724714279175e-02
3.534000000000000000e+03 8.034273147583007812e+00 6.095684528350830078e+00 2.078312784433364868e-01 -1.438665091991424561e-01 1.918943226337432861e-02 7.660938054323196411e-02
3.535000000000000000e+03 6.373728179931640625e+01 2.844597053527832031e+01 -1.293880939483642578e+00 1.629321426153182983e-01 -3.392846584320068359e-01 -7.342105507850646973e-01
3.536000000000000000e+03 5.827262878417968750e+01 2.878010177612304688e+01 -1.425008177757263184e+00 2.037925720214843750e-01 -3.663646876811981201e-01 -9.636256694793701172e-01
3.537000000000000000e+03 6.088232421875000000e+01 2.858232498168945312e+01 -1.414155125617980957e+00 1.766608357429504395e-01 -3.712483048439025879e-01 -9.082796573638916016e-01
3.538000000000000000e+03 2.437634468078613281e+01 4.068902432918548584e-01 -9.642093181610107422e-01 1.521039754152297974e-01 -2.436316013336181641e-01 -5.765906572341918945e-01
3.539000000000000000e+03 7.086269378662109375e+00 -6.907173633575439453e+00 -1.808097660541534424e-01 -1.858126521110534668e-01 -1.099867224693298340e-01 -2.948088645935058594e-01
3.540000000000000000e+03 4.045893478393554688e+01 3.431879425048828125e+01 1.125475913286209106e-01 8.288197219371795654e-02 5.862886831164360046e-02 8.361948281526565552e-02
3.541000000000000000e+03 5.647199249267578125e+01 2.886643981933593750e+01 -1.404886841773986816e+00 1.679446995258331299e-01 -3.710826337337493896e-01 -9.558774828910827637e-01
3.542000000000000000e+03 6.688040161132812500e+01 2.820958709716796875e+01 -8.813981413841247559e-01 3.697657883167266846e-01 -1.534897089004516602e-01 -2.783201634883880615e-01
3.543000000000000000e+03 6.824574279785156250e+01 2.722723388671875000e+01 -2.004543095827102661e-01 9.046702980995178223e-01 2.112648040056228638e-01 2.375766038894653320e-01
3.544000000000000000e+03 7.780901908874511719e+00 -7.755169868469238281e+00 -1.797284036874771118e-01 -2.437048405408859253e-01 -1.270299702882766724e-01 -3.628948330879211426e-01
3.545000000000000000e+03 9.073689460754394531e+00 -5.957859992980957031e+00 -2.848769724369049072e-01 -1.760016083717346191e-01 -1.382635682821273804e-01 -3.551452457904815674e-01
3.546000000000000000e+03 5.678221893310546875e+01 2.943880844116210938e+01 -1.476439714431762695e+00 1.823505163192749023e-01 -3.882267773151397705e-01 -9.397335052490234375e-01
3.547000000000000000e+03 3.880258560180664062e+01 3.226380920410156250e+01 9.585895389318466187e-02 9.865402430295944214e-02 5.835389345884323120e-02 8.803134411573410034e-02
3.548000000000000000e+03 6.745931243896484375e+01 2.737019729614257812e+01 -3.812293410301208496e-01 6.713637113571166992e-01 8.704031258821487427e-02 3.793546697124838829e-03
3.549000000000000000e+03 1.051289844512939453e+01 4.716299533843994141e+00 4.219481050968170166e-01 -5.306593701243400574e-02 1.106646507978439331e-01 -6.534381955862045288e-02
3.550000000000000000e+03 7.446958541870117188e+00 7.396182060241699219e+00 1.643824726343154907e-01 -1.162332817912101746e-01 1.444475911557674408e-02 5.050625279545783997e-02
3.551000000000000000e+03 1.114497280120849609e+01 4.756749153137207031e+00 4.419200718402862549e-01 1.345121413469314575e-01 1.729296743869781494e-01 -1.754026859998703003e-01
3.552000000000000000e+03 1.332799434661865234e+01 6.290177345275878906e+00 1.222972944378852844e-01 6.708123683929443359e-01 2.379328906536102295e-01 6.954883038997650146e-02
3.553000000000000000e+03 7.149510955810546875e+01 2.935112380981445312e+01 -5.479353070259094238e-01 1.610050559043884277e+00 3.186345994472503662e-01 1.098768353462219238e+00
3.554000000000000000e+03 7.355362415313720703e+00 -1.070411396026611328e+01 -6.233089417219161987e-02 -3.721600472927093506e-01 -1.303472816944122314e-01 -3.915579020977020264e-01
3.555000000000000000e+03 5.577606201171875000e+01 3.052441787719726562e+01 -1.477682232856750488e+00 1.529818475246429443e-01 -3.974100947380065918e-01 -8.655052781105041504e-01
3.556000000000000000e+03 5.613412857055664062e+01 2.972468948364257812e+01 -1.469389677047729492e+00 1.621917933225631714e-01 -3.921593427658081055e-01 -9.205272793769836426e-01
3.557000000000000000e+03 1.040429019927978516e+01 5.641845226287841797e+00 3.260215222835540771e-01 5.174325034022331238e-02 1.133294329047203064e-01 -8.478556573390960693e-02
3.558000000000000000e+03 7.626585960388183594e+00 -8.643239021301269531e+00 -1.366778761148452759e-01 -2.773593962192535400e-01 -1.242111846804618835e-01 -3.671495318412780762e-01
3.559000000000000000e+03 7.299689483642578125e+01 2.107496643066406250e+01 6.258025765419006348e-01 5.323627471923828125e+00 1.784829020500183105e+00 1.596858620643615723e+00
3.560000000000000000e+03 7.197406768798828125e+01 1.875946807861328125e+01 6.073510050773620605e-01 4.778125762939453125e+00 1.615643024444580078e+00 1.366885304450988770e+00
3.561000000000000000e+03 7.551224231719970703e+00 2.182329750061035156e+01 -6.514765322208404541e-03 -5.882319435477256775e-02 -1.960138790309429169e-02 -2.116939984261989594e-02
3.562000000000000000e+03 4.126274108886718750e+01 -1.250860881805419922e+01 3.858318030834197998e-01 -2.266231030225753784e-01 4.776261374354362488e-02 1.290197297930717468e-02
3.563000000000000000e+03 7.504531383514404297e+00 2.053323936462402344e+01 -4.912878852337598801e-03 -5.397475883364677429e-02 -1.766629144549369812e-02 -2.160530723631381989e-02
3.564000000000000000e+03 7.666402816772460938e+00 2.311361503601074219e+01 -7.258547935634851456e-03 -5.876730009913444519e-02 -1.980775408446788788e-02 -2.072223462164402008e-02
3.565000000000000000e+03 2.972690582275390625e+01 -2.069785118103027344e+00 4.460620284080505371e-01 -4.586139023303985596e-01 -3.765568835660815239e-03 -6.096244975924491882e-02
3.566000000000000000e+03 2.905514717102050781e+01 -2.356460571289062500e+00 5.491283535957336426e-01 -3.037108778953552246e-01 7.362524420022964478e-02 -1.311805099248886108e-01
3.567000000000000000e+03 1.237146949768066406e+01 -6.951967716217041016e+00 -3.758762180805206299e-01 -4.093651771545410156e-01 -2.355724126100540161e-01 -6.295412182807922363e-01
3.568000000000000000e+03 1.043162250518798828e+01 -5.864356517791748047e+00 -3.636911809444427490e-01 -2.145359963178634644e-01 -1.734681576490402222e-01 -4.367339611053466797e-01
3.569000000000000000e+03 7.005458354949951172e+00 -7.578622341156005859e+00 -1.542312204837799072e-01 -2.090171873569488525e-01 -1.089745163917541504e-01 -3.068414926528930664e-01
3.570000000000000000e+03 1.112195491790771484e+01 -5.904836177825927734e+00 -4.096990525722503662e-01 -2.017270177602767944e-01 -1.834278255701065063e-01 -4.715685844421386719e-01
3.571000000000000000e+03 7.616931152343750000e+01 2.859619712829589844e+01 -7.772302031517028809e-01 9.989551544189453125e+00 2.763696432113647461e+00 2.313926696777343750e+00
3.572000000000000000e+03 7.658727264404296875e+01 2.919239997863769531e+01 -1.268696904182434082e+00 1.128856563568115234e+01 3.005960464477539062e+00 2.154413461685180664e+00
3.573000000000000000e+03 3.781616592407226562e+01 -7.549427032470703125e+00 5.509650707244873047e-01 -4.846179485321044922e-01 1.990413106977939606e-02 -2.350983023643493652e-02
3.574000000000000000e+03 2.818204307556152344e+01 -1.835943579673767090e+00 5.027517080307006836e-01 -2.252124994993209839e-01 8.326177299022674561e-02 -1.312707066535949707e-01
3.575000000000000000e+03 3.271196365356445312e+01 -4.886939525604248047e+00 6.493575572967529297e-01 -5.275475978851318359e-01 3.654299303889274597e-02 -9.919901192188262939e-02
3.576000000000000000e+03 3.206931304931640625e+01 -3.939975500106811523e+00 5.736659765243530273e-01 -5.382880568504333496e-01 1.061336789280176163e-02 -5.607605352997779846e-02
3.577000000000000000e+03 7.191917896270751953e+00 1.384617519378662109e+01 3.266309201717376709e-02 -4.612719640135765076e-02 -4.039231222122907639e-03 -1.651202142238616943e-02
3.578000000000000000e+03 7.405292510986328125e+01 2.560816001892089844e+01 4.462392330169677734e-01 6.027603626251220703e+00 1.942152857780456543e+00 2.100472211837768555e+00
3.579000000000000000e+03 1.580352783203125000e+01 -1.540745353698730469e+01 2.080966830253601074e-01 -4.694679081439971924e-01 -7.841136306524276733e-02 -3.722686171531677246e-01
3.580000000000000000e+03 1.817370605468750000e+01 -1.633475875854492188e+01 2.185027599334716797e-01 -2.706384956836700439e-01 -1.564072258770465851e-02 -2.775300443172454834e-01
3.581000000000000000e+03 8.662319183349609375e+00 1.756094169616699219e+01 5.183010362088680267e-03 -4.586465656757354736e-03 1.789633533917367458e-04 -1.568460091948509216e-02
3.582000000000000000e+03 1.486878967285156250e+01 -1.470238876342773438e+01 1.797710508108139038e-01 -5.056207180023193359e-01 -9.775489568710327148e-02 -4.146324694156646729e-01
3.583000000000000000e+03 4.945476055145263672e+00 7.251980304718017578e+00 8.842677623033523560e-02 -1.723691523075103760e-01 -2.518271282315254211e-02 9.997030347585678101e-02
3.584000000000000000e+03 2.007916450500488281e+01 -1.977911376953125000e+01 1.949686110019683838e-01 -6.132203713059425354e-02 4.009397327899932861e-02 -2.707719802856445312e-01
3.585000000000000000e+03 2.068234443664550781e+01 -2.274776077270507812e+01 1.989400088787078857e-01 8.930421434342861176e-03 6.236112862825393677e-02 -2.789253294467926025e-01
3.586000000000000000e+03 2.349297332763671875e+01 -2.838858032226562500e+01 2.532439231872558594e-01 2.029037922620773315e-01 1.368443220853805542e-01 -2.891279160976409912e-01
3.587000000000000000e+03 2.078085899353027344e+01 -2.569808578491210938e+01 2.000459134578704834e-01 6.270110141485929489e-03 6.189480796456336975e-02 -2.847507596015930176e-01
3.588000000000000000e+03 1.892436599731445312e+01 -2.059894180297851562e+01 2.080659717321395874e-01 -1.298965364694595337e-01 2.345083281397819519e-02 -2.750435769557952881e-01
3.589000000000000000e+03 3.980197143554687500e+01 -1.132960319519042969e+01 4.183069765567779541e-01 -3.388213813304901123e-01 2.384567819535732269e-02 -1.478264294564723969e-02
3.590000000000000000e+03 3.902635192871093750e+01 -9.665954589843750000e+00 4.751777052879333496e-01 -3.952404558658599854e-01 2.398117445409297943e-02 -2.056053839623928070e-02
3.591000000000000000e+03 4.170009994506835938e+01 -1.376337909698486328e+01 3.240204751491546631e-01 -1.865946054458618164e-01 4.122776165604591370e-02 2.286803163588047028e-02
3.592000000000000000e+03 4.104290390014648438e+01 -1.128344631195068359e+01 4.180672168731689453e-01 -2.556073963642120361e-01 4.873793944716453552e-02 7.976043038070201874e-03
3.593000000000000000e+03 3.652954101562500000e+01 -9.216124534606933594e+00 5.243140459060668945e-01 -4.707898497581481934e-01 1.605726033449172974e-02 -6.735986471176147461e-02
3.594000000000000000e+03 3.721407699584960938e+01 -8.382697105407714844e+00 5.198006629943847656e-01 -4.860884547233581543e-01 1.011365465819835663e-02 -4.363474994897842407e-02
3.595000000000000000e+03 4.683650970458984375e+01 -2.317368507385253906e+01 3.572142915800213814e-03 3.868867456912994385e-01 1.171376630663871765e-01 1.128260120749473572e-01
3.596000000000000000e+03 4.474173355102539062e+01 -2.309129333496093750e+01 -2.357280254364013672e-02 8.577010780572891235e-02 1.865919306874275208e-02 1.329964399337768555e-01
3.597000000000000000e+03 7.260793304443359375e+01 -2.002257537841796875e+01 2.289064228534698486e-02 4.088104248046875000e+00 1.233298420906066895e+00 1.533988863229751587e-01
3.598000000000000000e+03 6.330569267272949219e+00 -1.430643844604492188e+01 1.962522231042385101e-02 -5.102738738059997559e-01 -1.471945941448211670e-01 -3.500462472438812256e-01
3.599000000000000000e+03 7.239821624755859375e+01 -2.857277095317840576e-01 1.160397082567214966e-01 4.560077190399169922e+00 1.402835130691528320e+00 4.606927037239074707e-01
3.600000000000000000e+03 7.092432403564453125e+01 -3.559780120849609375e+00 1.301249116659164429e-01 4.143871307373046875e+00 1.282198786735534668e+00 4.312482476234436035e-01
3.601000000000000000e+03 7.293173217773437500e+01 4.803420066833496094e+00 1.531107872724533081e-01 4.888051986694335938e+00 1.512348890304565430e+00 5.914279818534851074e-01
3.602000000000000000e+03 7.153347778320312500e+01 8.233150839805603027e-01 1.522498875856399536e-01 4.412974357604980469e+00 1.369567275047302246e+00 5.137552618980407715e-01
3.603000000000000000e+03 7.812425613403320312e+00 2.443811225891113281e+01 -8.471889421343803406e-03 -5.919414013624191284e-02 -2.029980905354022980e-02 -1.886059157550334930e-02
3.604000000000000000e+03 3.710040283203125000e+01 -6.922575473785400391e+00 5.401957631111145020e-01 -5.212569236755371094e-01 5.681654904037714005e-03 -1.908713765442371368e-02
3.605000000000000000e+03 3.444123077392578125e+01 -6.455901622772216797e+00 6.066843867301940918e-01 -5.385609269142150879e-01 2.043704502284526825e-02 -7.717968523502349854e-02
3.606000000000000000e+03 1.322334861755371094e+01 -1.271299552917480469e+01 8.303969353437423706e-02 -5.597820281982421875e-01 -1.430227011442184448e-01 -5.026009678840637207e-01
3.607000000000000000e+03 1.408827304840087891e+01 -1.177395820617675781e+01 9.853415936231613159e-02 -6.126702427864074707e-01 -1.542408317327499390e-01 -5.210992097854614258e-01
3.608000000000000000e+03 4.136701583862304688e+01 -1.867155075073242188e+01 9.749420732259750366e-02 -2.276511192321777344e-01 -3.904707357287406921e-02 1.127084344625473022e-01
3.609000000000000000e+03 7.247898101806640625e+01 1.017305278778076172e+01 2.658350765705108643e-01 4.984614372253417969e+00 1.575134754180908203e+00 8.363062143325805664e-01
3.610000000000000000e+03 7.167067718505859375e+01 -1.596834564208984375e+01 4.498249664902687073e-02 4.018079757690429688e+00 1.218918681144714355e+00 2.001901715993881226e-01
3.611000000000000000e+03 6.994470214843750000e+01 -1.186768245697021484e+01 9.165942668914794922e-02 3.828179597854614258e+00 1.175951719284057617e+00 2.859602570533752441e-01
3.612000000000000000e+03 6.979169464111328125e+01 3.248520612716674805e+00 2.339093238115310669e-01 4.048885822296142578e+00 1.284838557243347168e+00 6.358461380004882812e-01
3.613000000000000000e+03 6.229724407196044922e+00 -1.184788608551025391e+01 -2.591462805867195129e-02 -4.088303148746490479e-01 -1.304234862327575684e-01 -3.493446111679077148e-01
3.614000000000000000e+03 7.128929138183593750e+01 -4.868914127349853516e+00 1.092409044504165649e-01 4.181492328643798828e+00 1.287220001220703125e+00 3.868317604064941406e-01
3.615000000000000000e+03 7.295674896240234375e+01 1.760943603515625000e+01 4.859225153923034668e-01 5.382204055786132812e+00 1.760437846183776855e+00 1.305799961090087891e+00
3.616000000000000000e+03 7.174970245361328125e+01 -3.904211044311523438e+00 1.075886040925979614e-01 4.306887626647949219e+00 1.324342846870422363e+00 3.910581767559051514e-01
3.617000000000000000e+03 7.284878540039062500e+01 1.516715240478515625e+01 3.987615406513214111e-01 5.288932800292968750e+00 1.706308364868164062e+00 1.123167634010314941e+00
3.618000000000000000e+03 7.397250366210937500e+01 1.640036392211914062e+01 3.563742637634277344e-01 5.906836509704589844e+00 1.878963232040405273e+00 1.171373367309570312e+00
3.619000000000000000e+03 7.950158119201660156e+00 2.583942031860351562e+01 -8.438679389655590057e-03 -5.975509807467460632e-02 -2.045813389122486115e-02 -1.757250353693962097e-02
3.620000000000000000e+03 7.269998931884765625e+01 -1.310439205169677734e+01 4.676712676882743835e-02 4.234136581420898438e+00 1.284271121025085449e+00 2.163978815078735352e-01
3.621000000000000000e+03 7.151663208007812500e+01 -1.463637638092041016e+01 5.448134616017341614e-02 4.013442039489746094e+00 1.220377087593078613e+00 2.227204591035842896e-01
3.622000000000000000e+03 7.594632625579833984e+00 1.920923423767089844e+01 -7.874625734984874725e-04 -4.393158853054046631e-02 -1.341571472585201263e-02 -2.259788848459720612e-02
3.623000000000000000e+03 1.324758815765380859e+01 -1.099007511138916016e+01 -3.365325042977929115e-03 -5.779858231544494629e-01 -1.744053512811660767e-01 -5.650079250335693359e-01
3.624000000000000000e+03 1.418753814697265625e+01 -6.675083160400390625e+00 -3.935918509960174561e-01 -5.726407766342163086e-01 -2.898697853088378906e-01 -7.204542756080627441e-01
3.625000000000000000e+03 8.384652137756347656e+00 7.914380550384521484e+00 1.785306781530380249e-01 -5.206358805298805237e-02 3.794012591242790222e-02 5.285905674099922180e-03
3.626000000000000000e+03 7.130045890808105469e+00 -2.084361457824707031e+01 6.630021333694458008e-02 -6.915096044540405273e-01 -1.875628083944320679e-01 -2.918056547641754150e-01
3.627000000000000000e+03 8.827901840209960938e+00 3.098795318603515625e+01 -8.366658352315425873e-03 -5.844231322407722473e-02 -2.004269137978553772e-02 -1.011732127517461777e-02
3.628000000000000000e+03 7.129980468750000000e+01 -1.175467395782470703e+01 7.332710921764373779e-02 4.038033485412597656e+00 1.233408093452453613e+00 2.660618722438812256e-01
3.629000000000000000e+03 7.400939178466796875e+01 2.480162048339843750e+01 4.946922957897186279e-01 6.032258987426757812e+00 1.958085417747497559e+00 1.994823336601257324e+00
3.630000000000000000e+03 7.083207607269287109e+00 1.052059841156005859e+01 8.990056067705154419e-02 -6.739741563796997070e-02 6.750944536179304123e-03 1.211912604048848152e-03
3.631000000000000000e+03 2.204845619201660156e+01 -2.390305137634277344e+01 1.959436386823654175e-01 1.083366423845291138e-01 9.128408133983612061e-02 -2.896762490272521973e-01
3.632000000000000000e+03 6.949188232421875000e+01 -2.934851455688476562e+01 4.114339500665664673e-02 3.569415569305419922e+00 1.083167672157287598e+00 1.421562135219573975e-01
3.633000000000000000e+03 7.146347808837890625e+01 -1.859220886230468750e+01 3.622739389538764954e-02 3.949836969375610352e+00 1.195819377899169922e+00 1.819451898336410522e-01
3.634000000000000000e+03 7.218344879150390625e+01 7.657621860504150391e+00 2.254866808652877808e-01 4.800200462341308594e+00 1.507706046104431152e+00 7.321333289146423340e-01
3.635000000000000000e+03 7.257913208007812500e+01 -2.570621871948242188e+01 1.609023474156856537e-02 4.006761550903320312e+00 1.206855535507202148e+00 1.264823675155639648e-01
3.636000000000000000e+03 4.462771224975585938e+01 -2.527075767517089844e+01 -8.392501622438430786e-02 2.745874598622322083e-02 -1.693988218903541565e-02 1.762450635433197021e-01
3.637000000000000000e+03 7.064892578125000000e+01 -8.011709153652191162e-02 1.636481583118438721e-01 4.174813747406005859e+00 1.301538586616516113e+00 5.101186633110046387e-01
3.638000000000000000e+03 4.507944488525390625e+01 -1.984017562866210938e+01 1.085623800754547119e-01 1.634455770254135132e-01 8.160238713026046753e-02 9.182533621788024902e-02
3.639000000000000000e+03 7.058602142333984375e+01 -5.735116481781005859e+00 1.176591441035270691e-01 4.043074131011962891e+00 1.248219966888427734e+00 3.862006962299346924e-01
3.640000000000000000e+03 7.236872100830078125e+01 -5.478852272033691406e+00 8.132487535476684570e-02 4.379942893981933594e+00 1.338380336761474609e+00 3.417382240295410156e-01
3.641000000000000000e+03 1.214811325073242188e+01 -2.155551719665527344e+01 1.592755615711212158e-01 -5.129311680793762207e-01 -1.060966849327087402e-01 -3.305367827415466309e-01
3.642000000000000000e+03 8.649665832519531250e+00 -2.528466224670410156e+01 8.393273502588272095e-02 -6.989459991455078125e-01 -1.845039725303649902e-01 -2.463866770267486572e-01
3.643000000000000000e+03 3.398213195800781250e+01 -5.502609252929687500e+00 6.157941818237304688e-01 -5.560867190361022949e-01 1.791224256157875061e-02 -6.488028168678283691e-02
3.644000000000000000e+03 7.135425567626953125e+01 -1.321262073516845703e+01 6.134944781661033630e-02 4.015093326568603516e+00 1.222932815551757812e+00 2.420638054609298706e-01
3.645000000000000000e+03 6.908917999267578125e+01 -3.204636001586914062e+01 4.750688374042510986e-02 3.475769519805908203e+00 1.056982994079589844e+00 1.268435567617416382e-01
3.646000000000000000e+03 7.288381958007812500e+01 -3.326004791259765625e+01 2.091741934418678284e-02 3.923324584960937500e+00 1.183272600173950195e+00 8.098122477531433105e-02
3.647000000000000000e+03 6.965045928955078125e+01 -2.133559417724609375e+01 3.896665200591087341e-02 3.655640125274658203e+00 1.108381986618041992e+00 1.851269155740737915e-01
3.648000000000000000e+03 2.471700668334960938e+01 -3.233921432495117188e+01 3.142248988151550293e-01 2.267726361751556396e-01 1.622992604970932007e-01 -2.627365589141845703e-01
3.649000000000000000e+03 2.195776176452636719e+01 -2.947293853759765625e+01 2.411655783653259277e-01 6.950678676366806030e-02 9.320171177387237549e-02 -2.691091299057006836e-01
3.650000000000000000e+03 8.004212379455566406e+00 2.740849113464355469e+01 -8.684537373483181000e-03 -6.442613154649734497e-02 -2.193319983780384064e-02 -1.564745604991912842e-02
3.651000000000000000e+03 6.888545989990234375e+01 -2.622726249694824219e+01 3.078839927911758423e-02 3.508529186248779297e+00 1.061795234680175781e+00 1.685857176780700684e-01
3.652000000000000000e+03 7.134342956542968750e+01 -2.756157302856445312e+01 2.719203196465969086e-02 3.820661544799804688e+00 1.154356002807617188e+00 1.452192217111587524e-01
3.653000000000000000e+03 9.012927055358886719e+00 -3.668594360351562500e+01 7.229355722665786743e-02 -8.022831678390502930e-01 -2.189968675374984741e-01 -8.644896000623703003e-02
3.654000000000000000e+03 9.709794998168945312e+00 -3.426957702636718750e+01 1.037044674158096313e-01 -7.173240780830383301e-01 -1.840858757495880127e-01 -1.330725699663162231e-01
3.655000000000000000e+03 9.940279960632324219e+00 -3.024828720092773438e+01 9.975335747003555298e-02 -6.759058833122253418e-01 -1.728457510471343994e-01 -1.864548474550247192e-01
3.656000000000000000e+03 8.485661506652832031e+00 -3.025151634216308594e+01 7.672180235385894775e-02 -7.657786607742309570e-01 -2.067170590162277222e-01 -1.750245690345764160e-01
3.657000000000000000e+03 7.232221221923828125e+01 -2.796518898010253906e+01 2.270765043795108795e-02 3.946848630905151367e+00 1.190866827964782715e+00 1.267279386520385742e-01
3.658000000000000000e+03 4.179003906250000000e+01 -1.681314468383789062e+01 1.916784644126892090e-01 -1.710897833108901978e-01 6.176606751978397369e-03 6.704690307378768921e-02
3.659000000000000000e+03 1.038795852661132812e+01 -2.396675109863281250e+01 1.198926717042922974e-01 -6.031130552291870117e-01 -1.449661105871200562e-01 -2.876014709472656250e-01
3.660000000000000000e+03 2.727682876586914062e+01 2.643954277038574219e+00 -1.851116061210632324e+00 -5.995692610740661621e-01 -7.352055907249450684e-01 -6.731918454170227051e-01
3.661000000000000000e+03 2.704157257080078125e+01 2.361151695251464844e+00 -1.804138183593750000e+00 -5.415250658988952637e-01 -7.036989331245422363e-01 -6.284224987030029297e-01
3.662000000000000000e+03 2.625761222839355469e+01 2.464376688003540039e+00 -2.115815639495849609e+00 -5.116553902626037598e-01 -7.882413268089294434e-01 -7.942634224891662598e-01
3.663000000000000000e+03 2.654167175292968750e+01 2.249725818634033203e+00 -1.897100687026977539e+00 -4.807930886745452881e-01 -7.133681178092956543e-01 -6.743699908256530762e-01
3.664000000000000000e+03 2.605415916442871094e+01 2.187465429306030273e+00 -2.053187131881713867e+00 -4.527976512908935547e-01 -7.517954111099243164e-01 -7.493829131126403809e-01
3.665000000000000000e+03 2.557225227355957031e+01 2.155067920684814453e+00 -2.210595130920410156e+00 -4.364482164382934570e-01 -7.941130399703979492e-01 -8.457388877868652344e-01
3.666000000000000000e+03 1.802751159667968750e+01 1.165551280975341797e+01 1.381601095199584961e-01 2.654852867126464844e-01 1.210936233401298523e-01 1.892729252576828003e-01
3.667000000000000000e+03 4.082498931884765625e+01 1.878523445129394531e+01 -1.027378201484680176e+00 -1.130296587944030762e+00 -6.473024487495422363e-01 -1.186769247055053711e+00
3.668000000000000000e+03 4.212487030029296875e+01 1.924577903747558594e+01 -9.884387254714965820e-01 -1.087637186050415039e+00 -6.228227615356445312e-01 -1.139093518257141113e+00
3.669000000000000000e+03 4.193177032470703125e+01 1.987438774108886719e+01 -1.033447265625000000e+00 -1.136749982833862305e+00 -6.510591506958007812e-01 -1.174773454666137695e+00
3.670000000000000000e+03 1.513482284545898438e+01 9.237964630126953125e+00 1.216951757669448853e-01 3.767800927162170410e-01 1.495425850152969360e-01 1.756154000759124756e-01
3.671000000000000000e+03 1.947679328918457031e+01 1.270929908752441406e+01 1.450046896934509277e-01 2.340314835309982300e-01 1.137108504772186279e-01 1.823307424783706665e-01
3.672000000000000000e+03 3.450669097900390625e+01 2.812458610534667969e+01 8.371716737747192383e-02 1.201786547899246216e-01 6.116874888539314270e-02 9.682108461856842041e-02
3.673000000000000000e+03 3.441078948974609375e+01 1.103315448760986328e+01 -1.144127130508422852e+00 -1.180661797523498535e+00 -6.974366903305053711e-01 -1.082347035408020020e+00
3.674000000000000000e+03 7.359973144531250000e+01 3.083061790466308594e+01 -8.938248157501220703e-01 3.028954505920410156e+00 6.405388712882995605e-01 2.395549535751342773e+00
3.675000000000000000e+03 4.230287551879882812e+01 2.043010330200195312e+01 -1.067432761192321777e+00 -1.145922422409057617e+00 -6.640065312385559082e-01 -1.172920107841491699e+00
3.676000000000000000e+03 3.357221603393554688e+01 1.069855403900146484e+01 -1.210036396980285645e+00 -1.198024988174438477e+00 -7.224183678627014160e-01 -1.117937088012695312e+00
3.677000000000000000e+03 4.744940185546875000e+01 2.507506179809570312e+01 -1.229800820350646973e+00 -9.380142092704772949e-01 -6.503444910049438477e-01 -1.138876438140869141e+00
3.678000000000000000e+03 3.961152267456054688e+01 1.732643890380859375e+01 -1.057537198066711426e+00 -1.160048723220825195e+00 -6.652758121490478516e-01 -1.144484996795654297e+00
3.679000000000000000e+03 4.077225112915039062e+01 1.829973983764648438e+01 -1.015488862991333008e+00 -1.109373450279235840e+00 -6.374586820602416992e-01 -1.160055279731750488e+00
3.680000000000000000e+03 3.210722732543945312e+01 2.624256896972656250e+01 7.926667481660842896e-02 1.252246201038360596e-01 6.134739145636558533e-02 1.012840345501899719e-01
3.681000000000000000e+03 4.828734588623046875e+01 2.590399551391601562e+01 -1.227905750274658203e+00 -8.858376145362854004e-01 -6.341230273246765137e-01 -1.120875239372253418e+00
3.682000000000000000e+03 1.541237163543701172e+01 9.358260154724121094e+00 1.281360238790512085e-01 3.590067923069000244e-01 1.461428552865982056e-01 1.843014955520629883e-01
3.683000000000000000e+03 3.346039962768554688e+01 2.704871559143066406e+01 8.151125162839889526e-02 1.231960281729698181e-01 6.141218543052673340e-02 9.933140128850936890e-02
3.684000000000000000e+03 2.324579238891601562e+01 1.747918701171875000e+01 1.100919246673583984e-01 1.815053969621658325e-01 8.747919648885726929e-02 1.430588215589523315e-01
3.685000000000000000e+03 1.501452827453613281e+01 8.171345710754394531e+00 1.421273201704025269e-01 4.311330318450927734e-01 1.719781011343002319e-01 2.034258246421813965e-01
3.686000000000000000e+03 2.314528083801269531e+01 1.704628562927246094e+01 1.145784705877304077e-01 1.848167032003402710e-01 8.981855213642120361e-02 1.476931720972061157e-01
3.687000000000000000e+03 2.035469818115234375e+01 1.378821277618408203e+01 1.382520198822021484e-01 2.204523384571075439e-01 1.076113060116767883e-01 1.717110723257064819e-01
3.688000000000000000e+03 3.409896469116210938e+01 2.939303588867187500e+01 7.817095518112182617e-02 1.187593787908554077e-01 5.907909944653511047e-02 8.977651596069335938e-02
3.689000000000000000e+03 3.499706649780273438e+01 2.856286621093750000e+01 8.509900420904159546e-02 1.187994554638862610e-01 6.116953864693641663e-02 9.548575431108474731e-02
3.690000000000000000e+03 4.032481002807617188e+01 1.772231101989746094e+01 -1.025706529617309570e+00 -1.115779399871826172e+00 -6.424458026885986328e-01 -1.144739270210266113e+00
3.691000000000000000e+03 4.147819519042968750e+01 1.913277435302734375e+01 -1.010458946228027344e+00 -1.116621732711791992e+00 -6.381242275238037109e-01 -1.170759320259094238e+00
3.692000000000000000e+03 3.680551147460937500e+01 1.392913055419921875e+01 -1.078304767608642578e+00 -1.230922222137451172e+00 -6.927680969238281250e-01 -1.120485186576843262e+00
3.693000000000000000e+03 3.599728012084960938e+01 1.352885341644287109e+01 -1.125434160232543945e+00 -1.258681893348693848e+00 -7.152348160743713379e-01 -1.150296449661254883e+00
3.694000000000000000e+03 2.810936546325683594e+01 2.130137062072753906e+01 9.785822778940200806e-02 1.456973254680633545e-01 7.306666672229766846e-02 1.230155304074287415e-01
3.695000000000000000e+03 4.418854904174804688e+01 2.177261543273925781e+01 -1.125711798667907715e+00 -1.101383805274963379e+00 -6.681286692619323730e-01 -1.138440132141113281e+00
3.696000000000000000e+03 4.313079071044921875e+01 2.122859954833984375e+01 -1.124197840690612793e+00 -1.139297723770141602e+00 -6.790486574172973633e-01 -1.166759967803955078e+00
3.697000000000000000e+03 2.946635627746582031e+01 -1.423829197883605957e+00 2.438704669475555420e-01 -4.137746989727020264e-01 -5.097126588225364685e-02 -3.303927183151245117e-02
3.698000000000000000e+03 4.827841567993164062e+01 2.531155014038085938e+01 -1.195824503898620605e+00 -8.409888744354248047e-01 -6.110439896583557129e-01 -1.094132542610168457e+00
3.699000000000000000e+03 4.626226425170898438e+01 2.400499916076660156e+01 -1.236201047897338867e+00 -1.018242359161376953e+00 -6.763330101966857910e-01 -1.139745712280273438e+00
3.700000000000000000e+03 4.682557678222656250e+01 2.387312507629394531e+01 -1.188096761703491211e+00 -9.396755695343017578e-01 -6.383317112922668457e-01 -1.100573301315307617e+00
3.701000000000000000e+03 2.473267555236816406e+01 1.773169136047363281e+01 1.234692558646202087e-01 1.711511164903640747e-01 8.838611096143722534e-02 1.457113623619079590e-01
3.702000000000000000e+03 4.445468902587890625e+01 2.203033638000488281e+01 -1.137833356857299805e+00 -1.096578478813171387e+00 -6.703236103057861328e-01 -1.136647462844848633e+00
3.703000000000000000e+03 3.528257751464843750e+01 1.220208644866943359e+01 -1.121224403381347656e+00 -1.213776230812072754e+00 -7.005001902580261230e-01 -1.104100465774536133e+00
3.704000000000000000e+03 3.574920654296875000e+01 1.294164085388183594e+01 -1.116541266441345215e+00 -1.235936999320983887e+00 -7.057434916496276855e-01 -1.124205708503723145e+00
3.705000000000000000e+03 2.128132820129394531e+01 1.440107917785644531e+01 1.409039795398712158e-01 2.096165567636489868e-01 1.051561608910560608e-01 1.684630513191223145e-01
3.706000000000000000e+03 2.729445075988769531e+01 2.062520980834960938e+01 1.011020541191101074e-01 1.517653465270996094e-01 7.586022466421127319e-02 1.266081333160400391e-01
3.707000000000000000e+03 5.129803466796875000e+01 2.858456611633300781e+01 -1.287656068801879883e+00 -5.274631977081298828e-01 -5.445357561111450195e-01 -9.679107069969177246e-01
3.708000000000000000e+03 5.053024291992187500e+01 2.869447517395019531e+01 -1.290464520454406738e+00 -7.059652805328369141e-01 -5.989289283752441406e-01 -1.016882181167602539e+00
3.709000000000000000e+03 2.222477340698242188e+01 1.545549678802490234e+01 1.314368396997451782e-01 1.999210566282272339e-01 9.940736740827560425e-02 1.598970443010330200e-01
3.710000000000000000e+03 2.247090911865234375e+01 1.573759555816650391e+01 1.289479881525039673e-01 1.974814832210540771e-01 9.792884439229965210e-02 1.577567160129547119e-01
3.711000000000000000e+03 1.915273475646972656e+01 1.259627342224121094e+01 1.407218426465988159e-01 2.395619302988052368e-01 1.140851303935050964e-01 1.823308616876602173e-01
3.712000000000000000e+03 4.998269271850585938e+01 2.815773010253906250e+01 -1.290914177894592285e+00 -7.776924967765808105e-01 -6.205819845199584961e-01 -1.050318598747253418e+00
3.713000000000000000e+03 4.883895492553710938e+01 2.647751617431640625e+01 -1.237179994583129883e+00 -8.519188165664672852e-01 -6.267296671867370605e-01 -1.098741292953491211e+00
3.714000000000000000e+03 3.701253509521484375e+01 1.424091529846191406e+01 -1.078631043434143066e+00 -1.238373041152954102e+00 -6.951012611389160156e-01 -1.124516606330871582e+00
3.715000000000000000e+03 2.677593040466308594e+01 2.035247802734375000e+01 1.008337885141372681e-01 1.552909165620803833e-01 7.683741301298141479e-02 1.273073405027389526e-01
3.716000000000000000e+03 2.702919387817382812e+01 1.990457344055175781e+01 1.093175485730171204e-01 1.550433188676834106e-01 7.930826395750045776e-02 1.317290216684341431e-01
3.717000000000000000e+03 7.677751922607421875e+01 2.983469963073730469e+01 -1.682949662208557129e+00 1.243984413146972656e+01 3.227068424224853516e+00 2.041723728179931641e+00
3.718000000000000000e+03 2.492886543273925781e+01 1.802596855163574219e+01 1.210186332464218140e-01 1.697478890419006348e-01 8.722995966672897339e-02 1.429966688156127930e-01
3.719000000000000000e+03 4.286326599121093750e+01 2.094849777221679688e+01 -1.102875113487243652e+00 -1.140899300575256348e+00 -6.731323003768920898e-01 -1.165852665901184082e+00
3.720000000000000000e+03 4.366125106811523438e+01 2.126077079772949219e+01 -1.099620223045349121e+00 -1.107224941253662109e+00 -6.620535254478454590e-01 -1.140307664871215820e+00
3.721000000000000000e+03 3.932767486572265625e+01 1.708370971679687500e+01 -1.065407037734985352e+00 -1.182111024856567383e+00 -6.742554306983947754e-01 -1.143349766731262207e+00
3.722000000000000000e+03 1.616799926757812500e+01 9.749861717224121094e+00 1.400298029184341431e-01 3.326711654663085938e-01 1.418102979660034180e-01 1.971785277128219604e-01
3.723000000000000000e+03 3.721667861938476562e+01 1.453482341766357422e+01 -1.070491909980773926e+00 -1.243845224380493164e+00 -6.943011283874511719e-01 -1.127837538719177246e+00
3.724000000000000000e+03 4.472214889526367188e+01 2.228825187683105469e+01 -1.149325251579284668e+00 -1.090360760688781738e+00 -6.719058156013488770e-01 -1.134086847305297852e+00
3.725000000000000000e+03 3.259007263183593750e+01 9.533550262451171875e+00 -1.222838401794433594e+00 -1.169285416603088379e+00 -7.176371216773986816e-01 -1.084629297256469727e+00
3.726000000000000000e+03 3.483015060424804688e+01 9.704388618469238281e+00 -1.045827031135559082e+00 -1.048044800758361816e+00 -6.281615495681762695e-01 -9.335706233978271484e-01
3.727000000000000000e+03 1.578768444061279297e+01 9.357785224914550781e+00 1.366520971059799194e-01 3.535246253013610840e-01 1.470530182123184204e-01 1.982794255018234253e-01
3.728000000000000000e+03 3.743791580200195312e+01 1.479757022857666016e+01 -1.067816615104675293e+00 -1.245919108390808105e+00 -6.941207051277160645e-01 -1.127781391143798828e+00
3.729000000000000000e+03 3.485196685791015625e+01 1.103474044799804688e+01 -1.109605193138122559e+00 -1.147580027580261230e+00 -6.771555542945861816e-01 -1.047712445259094238e+00
3.730000000000000000e+03 3.531955718994140625e+01 1.256733703613281250e+01 -1.131765246391296387e+00 -1.239686012268066406e+00 -7.114353775978088379e-01 -1.128297328948974609e+00
3.731000000000000000e+03 1.417298603057861328e+01 7.199385166168212891e+00 1.315531134605407715e-01 5.425177216529846191e-01 2.022212594747543335e-01 1.805532127618789673e-01
3.732000000000000000e+03 3.767459869384765625e+01 1.504375553131103516e+01 -1.064068913459777832e+00 -1.243352174758911133e+00 -6.922262907028198242e-01 -1.126134157180786133e+00
3.733000000000000000e+03 2.597640991210937500e+01 1.845993041992187500e+01 1.240483373403549194e-01 1.646129041910171509e-01 8.659837394952774048e-02 1.410319656133651733e-01
3.734000000000000000e+03 5.230895614624023438e+01 2.937686538696289062e+01 -1.304724454879760742e+00 -3.366183638572692871e-01 -4.924028217792510986e-01 -9.110726118087768555e-01
3.735000000000000000e+03 5.432287597656250000e+01 3.011472129821777344e+01 -1.384850978851318359e+00 1.822786964476108551e-02 -4.099869430065155029e-01 -8.753917813301086426e-01
3.736000000000000000e+03 5.049041748046875000e+01 2.814890670776367188e+01 -1.283407926559448242e+00 -6.727690100669860840e-01 -5.868530869483947754e-01 -1.012870311737060547e+00
3.737000000000000000e+03 5.124295806884765625e+01 2.889450454711914062e+01 -1.286946654319763184e+00 -5.568189620971679688e-01 -5.531297326087951660e-01 -9.676433205604553223e-01
3.738000000000000000e+03 3.792307662963867188e+01 1.529455661773681641e+01 -1.061127424240112305e+00 -1.235278964042663574e+00 -6.889219284057617188e-01 -1.120837807655334473e+00
3.739000000000000000e+03 5.192597579956054688e+01 2.918518638610839844e+01 -1.295238137245178223e+00 -4.131329059600830078e-01 -5.125113129615783691e-01 -9.308949112892150879e-01
3.740000000000000000e+03 3.262958908081054688e+01 2.675366592407226562e+01 7.946661114692687988e-02 1.241582557559013367e-01 6.108746305108070374e-02 9.960266947746276855e-02
3.741000000000000000e+03 4.173610305786132812e+01 1.950602149963378906e+01 -1.016285657882690430e+00 -1.125282287597656250e+00 -6.424703598022460938e-01 -1.172751903533935547e+00
3.742000000000000000e+03 2.177449989318847656e+01 1.490831947326660156e+01 1.372229605913162231e-01 2.047136425971984863e-01 1.025809794664382935e-01 1.640243977308273315e-01
3.743000000000000000e+03 2.103471183776855469e+01 1.463330554962158203e+01 1.328114569187164307e-01 2.106303870677947998e-01 1.030325517058372498e-01 1.629798114299774170e-01
3.744000000000000000e+03 4.593520736694335938e+01 2.377729988098144531e+01 -1.236270904541015625e+00 -1.048564672470092773e+00 -6.854506731033325195e-01 -1.143952012062072754e+00
3.745000000000000000e+03 4.762459182739257812e+01 2.471108627319335938e+01 -1.198890924453735352e+00 -8.870122432708740234e-01 -6.257709264755249023e-01 -1.103819251060485840e+00
3.746000000000000000e+03 2.924446678161621094e+01 2.238576507568359375e+01 9.096505492925643921e-02 1.389330178499221802e-01 6.896942108869552612e-02 1.174486503005027771e-01
3.747000000000000000e+03 3.693828582763671875e+01 1.337877941131591797e+01 -1.046959996223449707e+00 -1.178948521614074707e+00 -6.677725315093994141e-01 -1.069054961204528809e+00
3.748000000000000000e+03 3.818803024291992188e+01 1.554036903381347656e+01 -1.056276559829711914e+00 -1.225731611251831055e+00 -6.846024394035339355e-01 -1.116321206092834473e+00
3.749000000000000000e+03 3.879015350341796875e+01 1.657102775573730469e+01 -1.071464300155639648e+00 -1.220647454261779785e+00 -6.876335144042968750e-01 -1.137874484062194824e+00
3.750000000000000000e+03 4.499244689941406250e+01 2.254287528991699219e+01 -1.161103129386901855e+00 -1.081409335136413574e+00 -6.727536916732788086e-01 -1.130810260772705078e+00
3.751000000000000000e+03 2.629802894592285156e+01 1.916235351562500000e+01 1.144449114799499512e-01 1.613496243953704834e-01 8.273836225271224976e-02 1.357580721378326416e-01
3.752000000000000000e+03 5.021236801147460938e+01 2.788055038452148438e+01 -1.278751969337463379e+00 -7.109073996543884277e-01 -5.968977808952331543e-01 -1.029155135154724121e+00
3.753000000000000000e+03 2.996129798889160156e+01 2.320201301574707031e+01 8.636179566383361816e-02 1.345038414001464844e-01 6.625968962907791138e-02 1.148762553930282593e-01
3.754000000000000000e+03 3.184192085266113281e+01 2.599584388732910156e+01 7.879569381475448608e-02 1.259660869836807251e-01 6.142853572964668274e-02 1.023711860179901123e-01
3.755000000000000000e+03 4.340119552612304688e+01 2.099579811096191406e+01 -1.082616329193115234e+00 -1.110390424728393555e+00 -6.579020023345947266e-01 -1.140803933143615723e+00
3.756000000000000000e+03 4.993879699707031250e+01 2.760474395751953125e+01 -1.268471121788024902e+00 -7.452092766761779785e-01 -6.041041016578674316e-01 -1.043829441070556641e+00
3.757000000000000000e+03 2.675230789184570312e+01 1.923331832885742188e+01 1.172571480274200439e-01 1.585294306278228760e-01 8.273597061634063721e-02 1.364193558692932129e-01
3.758000000000000000e+03 2.616515541076660156e+01 1.943446922302246094e+01 1.092011407017707825e-01 1.611930727958679199e-01 8.111826330423355103e-02 1.328910291194915771e-01
3.759000000000000000e+03 4.939455032348632812e+01 2.704040908813476562e+01 -1.253166317939758301e+00 -8.040106892585754395e-01 -6.171531081199645996e-01 -1.071979403495788574e+00
3.760000000000000000e+03 2.199854087829589844e+01 1.517837810516357422e+01 1.345441192388534546e-01 2.030809372663497925e-01 1.012875214219093323e-01 1.612688004970550537e-01
3.761000000000000000e+03 1.959357452392578125e+01 1.350380802154541016e+01 1.314919739961624146e-01 2.282820194959640503e-01 1.079321950674057007e-01 1.707158237695693970e-01
3.762000000000000000e+03 2.460472106933593750e+01 1.828121566772460938e+01 1.134576648473739624e-01 1.705309301614761353e-01 8.519657701253890991e-02 1.395042836666107178e-01
3.763000000000000000e+03 2.985445213317871094e+01 4.271932601928710938e+00 -1.678608298301696777e+00 -8.428078889846801758e-01 -7.564248442649841309e-01 -6.944354772567749023e-01
3.764000000000000000e+03 4.047396850585937500e+01 1.727701377868652344e+01 -9.995678663253784180e-01 -1.084768414497375488e+00 -6.253008842468261719e-01 -1.108113050460815430e+00
3.765000000000000000e+03 3.981358337402343750e+01 1.701512527465820312e+01 -1.032052516937255859e+00 -1.133363842964172363e+00 -6.496248841285705566e-01 -1.120831847190856934e+00
3.766000000000000000e+03 5.334223556518554688e+01 3.026538467407226562e+01 -1.324005603790283203e+00 -1.300344169139862061e-01 -4.362120032310485840e-01 -8.561471700668334961e-01
3.767000000000000000e+03 2.602939605712890625e+01 1.897906684875488281e+01 1.158493161201477051e-01 1.630331426858901978e-01 8.366473764181137085e-02 1.365210860967636108e-01
3.768000000000000000e+03 2.573415565490722656e+01 1.876826095581054688e+01 1.163689047098159790e-01 1.646227985620498657e-01 8.429751545190811157e-02 1.376184672117233276e-01
3.769000000000000000e+03 3.523702239990234375e+01 2.945966148376464844e+01 8.398271352052688599e-02 1.168842092156410217e-01 6.026007607579231262e-02 9.135219454765319824e-02
3.770000000000000000e+03 4.271148300170898438e+01 2.007463073730468750e+01 -1.020381569862365723e+00 -1.102262973785400391e+00 -6.367933154106140137e-01 -1.137222170829772949e+00
3.771000000000000000e+03 2.057294082641601562e+01 1.466796779632568359e+01 1.253604143857955933e-01 2.128421962261199951e-01 1.014607846736907959e-01 1.594691425561904907e-01
3.772000000000000000e+03 3.846614456176757812e+01 1.577766704559326172e+01 -1.052621245384216309e+00 -1.212457060813903809e+00 -6.795235276222229004e-01 -1.111063718795776367e+00
3.773000000000000000e+03 3.875563812255859375e+01 1.601231575012207031e+01 -1.047644615173339844e+00 -1.194222450256347656e+00 -6.725600957870483398e-01 -1.108178615570068359e+00
3.774000000000000000e+03 4.289569473266601562e+01 2.040991210937500000e+01 -1.044150590896606445e+00 -1.111365437507629395e+00 -6.466548442840576172e-01 -1.141447186470031738e+00
3.775000000000000000e+03 2.907636260986328125e+01 2.279128456115722656e+01 8.598469197750091553e-02 1.394804567098617554e-01 6.763954460620880127e-02 1.157180368900299072e-01
3.776000000000000000e+03 5.107604980468750000e+01 2.918560028076171875e+01 -1.282099843025207520e+00 -6.112570166587829590e-01 -5.680070519447326660e-01 -9.788171052932739258e-01
3.777000000000000000e+03 4.011979293823242188e+01 1.716120719909667969e+01 -1.022152304649353027e+00 -1.112703680992126465e+00 -6.404567956924438477e-01 -1.116909742355346680e+00
3.778000000000000000e+03 4.723241043090820312e+01 2.407007598876953125e+01 -1.178640246391296387e+00 -9.011581540107727051e-01 -6.239395141601562500e-01 -1.089892029762268066e+00
3.779000000000000000e+03 3.658061599731445312e+01 1.360935020446777344e+01 -1.087022423744201660e+00 -1.225561618804931641e+00 -6.937751770019531250e-01 -1.114764928817749023e+00
3.780000000000000000e+03 3.025880241394042969e+01 2.414208412170410156e+01 8.117331564426422119e-02 1.321485787630081177e-01 6.399656832218170166e-02 1.108805686235427856e-01
3.781000000000000000e+03 2.259047698974609375e+01 1.671817398071289062e+01 1.138751283288002014e-01 1.901167035102844238e-01 9.119755029678344727e-02 1.483523696660995483e-01
3.782000000000000000e+03 1.541581535339355469e+01 9.076690673828125000e+00 1.328300088644027710e-01 3.718318045139312744e-01 1.513985395431518555e-01 1.943376213312149048e-01
3.783000000000000000e+03 1.996409797668457031e+01 1.286124706268310547e+01 1.495945751667022705e-01 2.301997691392898560e-01 1.139383018016815186e-01 1.837452948093414307e-01
3.784000000000000000e+03 5.366698837280273438e+01 2.996154022216796875e+01 -1.352855920791625977e+00 -7.284396141767501831e-02 -4.277099668979644775e-01 -8.753920197486877441e-01
3.785000000000000000e+03 4.526709365844726562e+01 2.279171943664550781e+01 -1.173345565795898438e+00 -1.068017840385437012e+00 -6.724089980125427246e-01 -1.126384019851684570e+00
3.786000000000000000e+03 4.554650115966796875e+01 2.303202247619628906e+01 -1.183238863945007324e+00 -1.052114248275756836e+00 -6.706059575080871582e-01 -1.121023297309875488e+00
3.787000000000000000e+03 3.288888549804687500e+01 2.703181838989257812e+01 7.929003238677978516e-02 1.237459555268287659e-01 6.091079488396644592e-02 9.867876023054122925e-02
3.788000000000000000e+03 3.338956069946289062e+01 2.761158561706542969e+01 7.974164187908172607e-02 1.224529296159744263e-01 6.065836921334266663e-02 9.701001644134521484e-02
3.789000000000000000e+03 2.168870735168457031e+01 1.539688205718994141e+01 1.264322102069854736e-01 2.024436444044113159e-01 9.866275638341903687e-02 1.575070172548294067e-01
3.790000000000000000e+03 3.381409835815429688e+01 1.019287395477294922e+01 -1.167267084121704102e+00 -1.146129488945007324e+00 -6.940189599990844727e-01 -1.055623412132263184e+00
3.791000000000000000e+03 4.662890243530273438e+01 2.335205650329589844e+01 -1.150611400604248047e+00 -9.343709945678710938e-01 -6.254947185516357422e-01 -1.078605175018310547e+00
3.792000000000000000e+03 2.239704895019531250e+01 1.631863594055175781e+01 1.183837875723838806e-01 1.936539858579635620e-01 9.361132979393005371e-02 1.511513739824295044e-01
3.793000000000000000e+03 1.494835948944091797e+01 8.980378150939941406e+00 1.211452558636665344e-01 3.820404112339019775e-01 1.509556919336318970e-01 1.768471449613571167e-01
3.794000000000000000e+03 1.486388111114501953e+01 7.840168952941894531e+00 1.417955756187438965e-01 4.526265263557434082e-01 1.783266365528106689e-01 2.098831683397293091e-01
3.795000000000000000e+03 3.525722503662109375e+01 1.144029331207275391e+01 -1.091746568679809570e+00 -1.154147148132324219e+00 -6.737681031227111816e-01 -1.047784924507141113e+00
3.796000000000000000e+03 3.525768280029296875e+01 1.182691097259521484e+01 -1.105377435684204102e+00 -1.185115456581115723e+00 -6.871478557586669922e-01 -1.077054977416992188e+00
3.797000000000000000e+03 2.460686492919921875e+01 1.739022827148437500e+01 1.277797073125839233e-01 1.724313050508499146e-01 9.006330370903015137e-02 1.494703590869903564e-01
3.798000000000000000e+03 2.954036712646484375e+01 2.295531272888183594e+01 8.665479719638824463e-02 1.371063888072967529e-01 6.712836027145385742e-02 1.153344810009002686e-01
3.799000000000000000e+03 3.302319717407226562e+01 8.949775695800781250e+00 -1.154157280921936035e+00 -1.102409839630126953e+00 -6.769701242446899414e-01 -1.007381677627563477e+00
3.800000000000000000e+03 3.356732940673828125e+01 9.006741523742675781e+00 -1.123566985130310059e+00 -1.075694799423217773e+00 -6.597785353660583496e-01 -9.726001024246215820e-01
3.801000000000000000e+03 1.682318496704101562e+01 1.066417121887207031e+01 1.336190253496170044e-01 3.003575503826141357e-01 1.301929652690887451e-01 1.876226663589477539e-01
3.802000000000000000e+03 3.443561553955078125e+01 1.056811141967773438e+01 -1.126889824867248535e+00 -1.138489365577697754e+00 -6.796137690544128418e-01 -1.041009664535522461e+00
3.803000000000000000e+03 1.418802547454833984e+01 5.915648460388183594e+00 1.600732803344726562e-01 6.994168758392333984e-01 2.578470408916473389e-01 2.681398987770080566e-01
3.804000000000000000e+03 1.414150047302246094e+01 6.379916667938232422e+00 1.452702730894088745e-01 6.347541809082031250e-01 2.340073287487030029e-01 2.238001376390457153e-01
3.805000000000000000e+03 3.479455566406250000e+01 2.976618576049804688e+01 8.099053800106048584e-02 1.168130412697792053e-01 5.934107676148414612e-02 8.875029534101486206e-02
3.806000000000000000e+03 7.305870056152343750e+01 3.010602951049804688e+01 -5.721226930618286133e-01 2.804529428482055664e+00 6.697220206260681152e-01 2.047391176223754883e+00
3.807000000000000000e+03 1.651423263549804688e+01 1.020750236511230469e+01 1.374883651733398438e-01 3.144169747829437256e-01 1.355715990066528320e-01 1.922029405832290649e-01
3.808000000000000000e+03 1.340033245086669922e+01 5.883182048797607422e+00 1.255073249340057373e-01 7.630533576011657715e-01 2.665681838989257812e-01 8.472750335931777954e-02
3.809000000000000000e+03 9.597628593444824219e+00 5.770552158355712891e+00 3.013959825038909912e-01 -6.667251884937286377e-02 7.041703909635543823e-02 -1.758019253611564636e-02
3.810000000000000000e+03 1.729890251159667969e+01 1.136261653900146484e+01 1.300082951784133911e-01 2.761123776435852051e-01 1.218362003564834595e-01 1.829279363155364990e-01
3.811000000000000000e+03 1.673519134521484375e+01 1.130647087097167969e+01 1.185659766197204590e-01 2.850436866283416748e-01 1.210829019546508789e-01 1.717037707567214966e-01
3.812000000000000000e+03 3.177525329589843750e+01 5.212414741516113281e+00 -1.322134017944335938e+00 -7.651818394660949707e-01 -6.261947751045227051e-01 -7.269721627235412598e-01
3.813000000000000000e+03 3.124769020080566406e+01 2.553745460510253906e+01 7.830054312944412231e-02 1.275175213813781738e-01 6.174542009830474854e-02 1.044818684458732605e-01
3.814000000000000000e+03 2.392187309265136719e+01 4.878182113170623779e-01 -1.242325305938720703e+00 1.128133907914161682e-01 -3.388535678386688232e-01 -7.041738033294677734e-01
3.815000000000000000e+03 2.451250839233398438e+01 9.599012732505798340e-01 -1.597921371459960938e+00 -5.876282230019569397e-02 -4.970052540302276611e-01 -6.826719045639038086e-01
3.816000000000000000e+03 1.449475002288818359e+01 7.957011222839355469e+00 1.289029419422149658e-01 4.587212800979614258e-01 1.762872636318206787e-01 1.767850518226623535e-01
3.817000000000000000e+03 1.474432182312011719e+01 7.500741004943847656e+00 1.483332365751266479e-01 4.899789690971374512e-01 1.914936602115631104e-01 2.155951559543609619e-01
3.818000000000000000e+03 2.913988113403320312e+01 4.098645687103271484e+00 -1.761411428451538086e+00 -8.855425119400024414e-01 -7.940861582756042480e-01 -7.411662340164184570e-01
3.819000000000000000e+03 3.015078353881835938e+01 4.386880874633789062e+00 -1.599120736122131348e+00 -8.010659217834472656e-01 -7.200559973716735840e-01 -6.623816490173339844e-01
3.820000000000000000e+03 3.291741561889648438e+01 8.424983978271484375e+00 -1.141988873481750488e+00 -1.078056216239929199e+00 -6.660135388374328613e-01 -9.837886095046997070e-01
3.821000000000000000e+03 3.489901733398437500e+01 1.062219333648681641e+01 -1.083602428436279297e+00 -1.112854838371276855e+00 -6.589372158050537109e-01 -1.005266308784484863e+00
3.822000000000000000e+03 7.485536956787109375e+01 3.057948684692382812e+01 -9.548841118812561035e-01 6.769718647003173828e+00 1.744450449943542480e+00 3.646617174148559570e+00
3.823000000000000000e+03 7.408434295654296875e+01 3.032648086547851562e+01 -6.092017292976379395e-01 4.609389781951904297e+00 1.200056433677673340e+00 2.935199260711669922e+00
3.824000000000000000e+03 3.319568252563476562e+01 5.978778362274169922e+00 -1.090722084045410156e+00 -8.125114440917968750e-01 -5.709700584411621094e-01 -7.137939929962158203e-01
3.825000000000000000e+03 3.277333450317382812e+01 6.436841011047363281e+00 -1.158587694168090820e+00 -8.741965889930725098e-01 -6.098352670669555664e-01 -8.257924914360046387e-01
3.826000000000000000e+03 7.636791992187500000e+01 3.003757476806640625e+01 -1.700187802314758301e+00 1.151643276214599609e+01 2.944873332977294922e+00 2.675303220748901367e+00
3.827000000000000000e+03 5.395582199096679688e+01 3.176931571960449219e+01 -1.223371624946594238e+00 -1.781124807894229889e-02 -3.723548650741577148e-01 -7.369493246078491211e-01
3.828000000000000000e+03 7.198204040527343750e+01 2.886947631835937500e+01 -2.029041945934295654e-01 2.323561191558837891e+00 6.361970901489257812e-01 1.495051622390747070e+00
3.829000000000000000e+03 3.287411880493164062e+01 6.850556850433349609e+00 -1.137363314628601074e+00 -9.265299439430236816e-01 -6.191679835319519043e-01 -8.582230806350708008e-01
3.830000000000000000e+03 7.254962158203125000e+01 2.894981575012207031e+01 -1.452019363641738892e-01 2.953411817550659180e+00 8.424629569053649902e-01 1.821110606193542480e+00
3.831000000000000000e+03 2.961421203613281250e+01 2.358886528015136719e+01 8.147802948951721191e-02 1.362385302782058716e-01 6.531497091054916382e-02 1.126876771450042725e-01
3.832000000000000000e+03 7.140321350097656250e+01 2.876391220092773438e+01 -2.484946250915527344e-01 1.868991494178771973e+00 4.861490726470947266e-01 1.180624485015869141e+00
3.833000000000000000e+03 6.698773860931396484e+00 7.401526451110839844e+00 1.459712088108062744e-01 -1.380401700735092163e-01 2.379312878474593163e-03 6.812023371458053589e-02
3.834000000000000000e+03 1.381260967254638672e+01 6.544100761413574219e+00 1.240364611148834229e-01 6.490267515182495117e-01 2.319189757108688354e-01 1.539685428142547607e-01
3.835000000000000000e+03 3.092521286010742188e+01 2.529584884643554688e+01 7.790611684322357178e-02 1.285981088876724243e-01 6.195127218961715698e-02 1.053083315491676331e-01
3.836000000000000000e+03 3.058391761779785156e+01 2.504619979858398438e+01 7.729376852512359619e-02 1.301503032445907593e-01 6.223322451114654541e-02 1.066096872091293335e-01
3.837000000000000000e+03 2.593071746826171875e+01 7.200385928153991699e-01 -1.006255626678466797e+00 -2.068496048450469971e-01 -3.639315962791442871e-01 -3.165879845619201660e-01
3.838000000000000000e+03 1.207218456268310547e+01 5.479588508605957031e+00 2.665669023990631104e-01 4.974581897258758545e-01 2.292075306177139282e-01 -1.600602865219116211e-01
3.839000000000000000e+03 4.094442749023437500e+01 3.460813522338867188e+01 1.163887828588485718e-01 8.176352083683013916e-02 5.944569036364555359e-02 8.493326604366302490e-02
3.840000000000000000e+03 5.432647705078125000e+01 3.083074760437011719e+01 -1.361412167549133301e+00 2.633753977715969086e-02 -4.005223810672760010e-01 -8.277965784072875977e-01
3.841000000000000000e+03 3.706695938110351562e+01 3.122429084777832031e+01 8.846908062696456909e-02 1.084481477737426758e-01 5.907516926527023315e-02 8.836592733860015869e-02
3.842000000000000000e+03 3.851747131347656250e+01 3.197613143920898438e+01 9.522023051977157593e-02 9.936322271823883057e-02 5.837503448128700256e-02 8.886249363422393799e-02
3.843000000000000000e+03 3.704632186889648438e+01 3.194965171813964844e+01 8.776392787694931030e-02 1.061656773090362549e-01 5.817888304591178894e-02 8.514183759689331055e-02
3.844000000000000000e+03 3.563619232177734375e+01 3.049817276000976562e+01 8.275793492794036865e-02 1.143030971288681030e-01 5.911830812692642212e-02 8.774542808532714844e-02
3.845000000000000000e+03 3.236662292480468750e+01 2.649326515197753906e+01 7.923208177089691162e-02 1.247914135456085205e-01 6.120704859495162964e-02 1.005341112613677979e-01
3.846000000000000000e+03 1.052401351928710938e+01 5.206383228302001953e+00 3.658425509929656982e-01 2.295901812613010406e-02 1.166404783725738525e-01 -9.488362073898315430e-02
3.847000000000000000e+03 7.560951232910156250e+00 6.684141635894775391e+00 1.865452677011489868e-01 -1.420265436172485352e-01 1.335561554878950119e-02 7.320918142795562744e-02
3.848000000000000000e+03 7.500881195068359375e+01 2.761042404174804688e+01 -3.216039016842842102e-02 7.435276031494140625e+00 2.220934629440307617e+00 2.426910400390625000e+00
3.849000000000000000e+03 3.302529144287109375e+01 7.272085189819335938e+00 -1.129601359367370605e+00 -9.514957666397094727e-01 -6.243291497230529785e-01 -8.875700235366821289e-01
3.850000000000000000e+03 3.322472381591796875e+01 7.709056854248046875e+00 -1.108173727989196777e+00 -9.941703081130981445e-01 -6.307032108306884766e-01 -9.067274332046508789e-01
3.851000000000000000e+03 3.848067092895507812e+01 3.354032135009765625e+01 9.832935780286788940e-02 9.632272273302078247e-02 5.839562416076660156e-02 8.091782778501510620e-02
3.852000000000000000e+03 6.236069869995117188e+01 2.860899734497070312e+01 -1.404770374298095703e+00 1.573004573583602905e-01 -3.742409944534301758e-01 -8.430633544921875000e-01
3.853000000000000000e+03 6.567306518554687500e+01 2.685631561279296875e+01 -4.691882729530334473e-01 4.915460944175720215e-01 6.707350723445415497e-03 -3.142172396183013916e-01
3.854000000000000000e+03 6.164775466918945312e+01 2.860008621215820312e+01 -1.414964556694030762e+00 1.611449718475341797e-01 -3.761458694934844971e-01 -8.767776489257812500e-01
3.855000000000000000e+03 6.164284133911132812e+01 2.794370269775390625e+01 -1.215956449508666992e+00 1.909832209348678589e-01 -3.074919879436492920e-01 -8.613134026527404785e-01
3.856000000000000000e+03 6.606569671630859375e+01 2.825199127197265625e+01 -1.005428552627563477e+00 2.857913970947265625e-01 -2.158911526203155518e-01 -4.315697252750396729e-01
3.857000000000000000e+03 7.176706695556640625e+01 2.446437454223632812e+01 6.863145232200622559e-01 3.887721061706542969e+00 1.372210741043090820e+00 1.619427919387817383e+00
3.858000000000000000e+03 3.159337997436523438e+01 -2.527945280075073242e+00 4.252905547618865967e-01 -5.500736236572265625e-01 -3.743492066860198975e-02 -1.669428893364965916e-03
3.859000000000000000e+03 3.151348495483398438e+01 -3.507890939712524414e+00 5.922762155532836914e-01 -4.989615678787231445e-01 2.799439616501331329e-02 -6.713970750570297241e-02
3.860000000000000000e+03 6.508308410644531250e+01 2.761360740661621094e+01 -8.318029642105102539e-01 3.130283653736114502e-01 -1.556323766708374023e-01 -5.084763169288635254e-01
3.861000000000000000e+03 7.015274047851562500e+01 2.859981536865234375e+01 -4.346764087677001953e-01 1.133719563484191895e+00 2.097129523754119873e-01 6.333109140396118164e-01
3.862000000000000000e+03 5.783131790161132812e+01 2.809472656250000000e+01 -1.308261632919311523e+00 2.017906457185745239e-01 -3.319413065910339355e-01 -9.694274067878723145e-01
3.863000000000000000e+03 5.916065216064453125e+01 2.858545684814453125e+01 -1.399338483810424805e+00 2.016317248344421387e-01 -3.593119978904724121e-01 -9.564629197120666504e-01
3.864000000000000000e+03 5.613390731811523438e+01 2.830559730529785156e+01 -1.343161225318908691e+00 1.457162946462631226e-01 -3.592334687709808350e-01 -9.607793092727661133e-01
3.865000000000000000e+03 7.782526969909667969e+00 -6.905550479888916016e+00 -2.070692777633666992e-01 -1.835474967956542969e-01 -1.171850338578224182e-01 -3.226983547210693359e-01
3.866000000000000000e+03 6.587805938720703125e+01 2.755426597595214844e+01 -7.158711552619934082e-01 3.819059729576110840e-01 -1.001895517110824585e-01 -3.767745792865753174e-01
3.867000000000000000e+03 5.713227081298828125e+01 2.852219200134277344e+01 -1.380533456802368164e+00 1.863048374652862549e-01 -3.582685887813568115e-01 -9.674649834632873535e-01
3.868000000000000000e+03 2.807791709899902344e+01 -1.177472352981567383e+00 2.239055335521697998e-01 -3.702122867107391357e-01 -4.389202967286109924e-02 -1.585272550582885742e-01
3.869000000000000000e+03 1.005427074432373047e+01 5.350159168243408203e+00 3.485385179519653320e-01 -3.907661512494087219e-02 9.283857047557830811e-02 -4.761822149157524109e-02
3.870000000000000000e+03 8.573572158813476562e+00 6.645068645477294922e+00 2.230118662118911743e-01 -9.379950165748596191e-02 3.876370936632156372e-02 2.672523446381092072e-02
3.871000000000000000e+03 7.291607666015625000e+01 2.308783149719238281e+01 6.424258351325988770e-01 5.064000606536865234e+00 1.711928009986877441e+00 1.731946825981140137e+00
3.872000000000000000e+03 6.852561187744140625e+01 2.803571319580078125e+01 -4.908052682876586914e-01 7.536656260490417480e-01 7.885810732841491699e-02 1.640705317258834839e-01
3.873000000000000000e+03 7.450317859649658203e+00 -9.619049072265625000e+00 -1.162608414888381958e-01 -3.293449878692626953e-01 -1.336817592382431030e-01 -3.974499106407165527e-01
3.874000000000000000e+03 9.220301628112792969e+00 -6.760312080383300781e+00 -2.785386443138122559e-01 -1.930453777313232422e-01 -1.414752006530761719e-01 -3.895798623561859131e-01
3.875000000000000000e+03 7.460466766357421875e+01 3.002431869506835938e+01 -6.956603527069091797e-01 6.217306137084960938e+00 1.656493782997131348e+00 3.232530355453491211e+00
3.876000000000000000e+03 7.524077606201171875e+01 2.878288459777832031e+01 -5.717926025390625000e-01 7.978243350982666016e+00 2.221935272216796875e+00 2.717992544174194336e+00
3.877000000000000000e+03 1.176592254638671875e+01 -1.100354194641113281e+01 -4.527770727872848511e-02 -5.097329020500183105e-01 -1.665031909942626953e-01 -5.530766248703002930e-01
3.878000000000000000e+03 3.504999160766601562e+01 3.031492614746093750e+01 8.136166632175445557e-02 1.155626848340034485e-01 5.907730758190155029e-02 8.721674233675003052e-02
3.879000000000000000e+03 5.554866790771484375e+01 3.000203132629394531e+01 -1.452735900878906250e+00 1.327996701002120972e-01 -3.959808647632598877e-01 -8.986785411834716797e-01
3.880000000000000000e+03 1.304623794555664062e+01 -9.450573921203613281e+00 -1.288321018218994141e-01 -5.603587031364440918e-01 -2.067572325468063354e-01 -6.264378428459167480e-01
3.881000000000000000e+03 1.109673881530761719e+01 -6.555339336395263672e+00 -3.655559420585632324e-01 -2.872267067432403564e-01 -1.958348006010055542e-01 -5.245401263236999512e-01
3.882000000000000000e+03 1.089184188842773438e+01 5.767758846282958984e+00 2.974233627319335938e-01 1.612055003643035889e-01 1.375886499881744385e-01 -1.172635331749916077e-01
3.883000000000000000e+03 9.190155029296875000e+00 6.845534324645996094e+00 2.318529486656188965e-01 -3.205626457929611206e-02 5.993900820612907410e-02 -1.557691581547260284e-02
3.884000000000000000e+03 7.258276367187500000e+01 2.472355270385742188e+01 6.415101289749145508e-01 4.500461101531982422e+00 1.542591333389282227e+00 1.812289714813232422e+00
3.885000000000000000e+03 7.338561248779296875e+01 2.621292304992675781e+01 4.439499676227569580e-01 5.030523300170898438e+00 1.642341971397399902e+00 2.051723003387451172e+00
3.886000000000000000e+03 3.124223136901855469e+01 -1.993634939193725586e+00 3.244725763797760010e-01 -5.520663261413574219e-01 -6.827812641859054565e-02 7.320611272007226944e-03
3.887000000000000000e+03 3.066603469848632812e+01 -2.359930038452148438e+00 4.453982412815093994e-01 -5.012938380241394043e-01 -1.676868088543415070e-02 -2.636129595339298248e-02
3.888000000000000000e+03 1.047642898559570312e+01 -6.528640270233154297e+00 -3.424942493438720703e-01 -2.211086750030517578e-01 -1.690808832645416260e-01 -4.606974422931671143e-01
3.889000000000000000e+03 7.180848693847656250e+01 -1.858062028884887695e+00 1.240283623337745667e-01 4.388005256652832031e+00 1.353610038757324219e+00 4.463510811328887939e-01
3.890000000000000000e+03 7.039980316162109375e+01 -4.238533496856689453e+00 1.372675001621246338e-01 4.036883354187011719e+00 1.252245306968688965e+00 4.248878955841064453e-01
3.891000000000000000e+03 4.122237014770507812e+01 3.645594787597656250e+01 1.321646124124526978e-01 7.295379787683486938e-02 6.153552606701850891e-02 7.424887269735336304e-02
3.892000000000000000e+03 4.060332107543945312e+01 3.522640609741210938e+01 1.193989664316177368e-01 7.936352491378784180e-02 5.962874740362167358e-02 7.905506342649459839e-02
3.893000000000000000e+03 7.139894104003906250e+01 3.878741025924682617e+00 1.953285336494445801e-01 4.457880020141601562e+00 1.395962595939636230e+00 6.121859550476074219e-01
3.894000000000000000e+03 3.175251960754394531e+01 -4.702615261077880859e+00 7.090926170349121094e-01 -4.524711668491363525e-01 7.698643952608108521e-02 -1.224368289113044739e-01
3.895000000000000000e+03 3.270779800415039062e+01 -4.007722377777099609e+00 5.778843164443969727e-01 -5.496792197227478027e-01 8.461526595056056976e-03 -2.257271111011505127e-02
3.896000000000000000e+03 7.297477722167968750e+01 2.213469314575195312e+01 6.546697616577148438e-01 5.217286586761474609e+00 1.761587023735046387e+00 1.683707833290100098e+00
3.897000000000000000e+03 7.200344848632812500e+01 1.988951683044433594e+01 6.600522398948669434e-01 4.723615646362304688e+00 1.615100383758544922e+00 1.441798090934753418e+00
3.898000000000000000e+03 7.539021015167236328e+00 -1.537197113037109375e+01 4.763108491897583008e-02 -5.447556972503662109e-01 -1.491373926401138306e-01 -3.793876767158508301e-01
3.899000000000000000e+03 1.248104000091552734e+01 -1.181326389312744141e+01 4.441541805863380432e-02 -5.648058652877807617e-01 -1.561171263456344604e-01 -5.379470586776733398e-01
3.900000000000000000e+03 1.053816890716552734e+01 -7.128787040710449219e+00 -3.154081702232360840e-01 -2.893576323986053467e-01 -1.814297288656234741e-01 -5.105493664741516113e-01
3.901000000000000000e+03 1.171746158599853516e+01 -6.696908473968505859e+00 -3.678336739540100098e-01 -3.004676997661590576e-01 -2.004904150962829590e-01 -5.442003607749938965e-01
3.902000000000000000e+03 7.192418670654296875e+01 2.831305503845214844e+01 4.162326455116271973e-02 2.593852519989013672e+00 7.906427383422851562e-01 1.541667819023132324e+00
3.903000000000000000e+03 6.005959701538085938e+01 2.786004447937011719e+01 -1.231215953826904297e+00 2.113854438066482544e-01 -3.059491813182830811e-01 -9.295771121978759766e-01
3.904000000000000000e+03 6.087889862060546875e+01 2.790014648437500000e+01 -1.218950510025024414e+00 2.108438611030578613e-01 -3.024320006370544434e-01 -9.013950228691101074e-01
3.905000000000000000e+03 6.969444274902343750e+01 -4.966014862060546875e+00 1.436679363250732422e-01 3.881483316421508789e+00 1.207545399665832520e+00 4.221780598163604736e-01
3.906000000000000000e+03 1.303478717803955078e+01 -1.459971332550048828e+01 1.338475942611694336e-01 -5.340862274169921875e-01 -1.200715973973274231e-01 -4.525599181652069092e-01
3.907000000000000000e+03 3.486073303222656250e+01 -5.051496982574462891e+00 5.544155836105346680e-01 -5.831418633460998535e-01 -8.617879822850227356e-03 -2.192256040871143341e-02
3.908000000000000000e+03 1.402114868164062500e+01 -1.368636608123779297e+01 1.431609690189361572e-01 -5.618036985397338867e-01 -1.255928128957748413e-01 -4.634925723075866699e-01
3.909000000000000000e+03 7.142753601074218750e+01 -9.381270408630371094e+00 8.655231446027755737e-02 4.125224590301513672e+00 1.263532996177673340e+00 3.048948347568511963e-01
3.910000000000000000e+03 7.104521179199218750e+01 -8.324744224548339844e+00 9.448962658643722534e-02 4.071106910705566406e+00 1.249678969383239746e+00 3.226251006126403809e-01
3.911000000000000000e+03 7.049401092529296875e+01 -9.931859970092773438e+00 9.541574120521545410e-02 3.936175346374511719e+00 1.209477305412292480e+00 3.073560893535614014e-01
3.912000000000000000e+03 7.198595428466796875e+01 6.398431777954101562e+00 2.120188474655151367e-01 4.698767185211181641e+00 1.473235845565795898e+00 6.883248686790466309e-01
3.913000000000000000e+03 7.024156951904296875e+01 4.350057125091552734e+00 2.396441251039505005e-01 4.175699234008789062e+00 1.324603080749511719e+00 6.606405377388000488e-01
3.914000000000000000e+03 6.936591339111328125e+01 -2.290815544128417969e+01 3.557714819908142090e-02 3.594808101654052734e+00 1.089115619659423828e+00 1.754815429449081421e-01
3.915000000000000000e+03 6.893849182128906250e+01 -2.788704299926757812e+01 3.955417126417160034e-02 3.506710529327392578e+00 1.063879370689392090e+00 1.591501682996749878e-01
3.916000000000000000e+03 7.044842529296875000e+01 -1.719358062744140625e+01 5.197790265083312988e-02 3.825065612792968750e+00 1.163112998008728027e+00 2.112769782543182373e-01
3.917000000000000000e+03 7.021044158935546875e+01 -1.846883392333984375e+01 4.862200841307640076e-02 3.771610975265502930e+00 1.146069884300231934e+00 2.038398832082748413e-01
3.918000000000000000e+03 1.151973342895507812e+01 -8.291749954223632812e+00 -2.504670917987823486e-01 -3.969679474830627441e-01 -1.942305117845535278e-01 -5.775884985923767090e-01
3.919000000000000000e+03 9.479333877563476562e+00 -7.606725215911865234e+00 -2.235748320817947388e-01 -2.856731116771697998e-01 -1.527743935585021973e-01 -4.486679434776306152e-01
3.920000000000000000e+03 7.350653171539306641e+00 1.643674659729003906e+01 1.080439146608114243e-02 -4.362311214208602905e-02 -9.845616295933723450e-03 -2.159050665795803070e-02
3.921000000000000000e+03 8.177927970886230469e+00 1.397787761688232422e+01 3.482858464121818542e-02 -3.679326502606272697e-03 9.344777092337608337e-03 -1.600738614797592163e-02
3.922000000000000000e+03 7.298616027832031250e+01 1.879890632629394531e+01 5.398175120353698730e-01 5.396145343780517578e+00 1.780788779258728027e+00 1.403417587280273438e+00
3.923000000000000000e+03 3.860254669189453125e+01 -8.120021820068359375e+00 5.097138881683349609e-01 -4.442354142665863037e-01 1.964354887604713440e-02 -1.183930691331624985e-02
3.924000000000000000e+03 7.291246032714843750e+01 1.639725112915039062e+01 4.436162114143371582e-01 5.346399307250976562e+00 1.737004637718200684e+00 1.214002966880798340e+00
3.925000000000000000e+03 7.277326202392578125e+01 1.392609214782714844e+01 3.608957231044769287e-01 5.223459720611572266e+00 1.675306677818298340e+00 1.042118787765502930e+00
3.926000000000000000e+03 7.234464263916015625e+01 8.915584564208984375e+00 2.443493753671646118e-01 4.894157886505126953e+00 1.541552186012268066e+00 7.817435860633850098e-01
3.927000000000000000e+03 3.807403945922851562e+01 -9.087931632995605469e+00 5.178354382514953613e-01 -4.447070360183715820e-01 2.193852141499519348e-02 -3.473432734608650208e-02
3.928000000000000000e+03 1.772916984558105469e+01 -1.825109481811523438e+01 2.151385545730590820e-01 -2.533642351627349854e-01 -1.146769989281892776e-02 -2.899596393108367920e-01
3.929000000000000000e+03 7.193183898925781250e+01 1.759640312194824219e+01 5.632590651512145996e-01 4.807087898254394531e+00 1.611104130744934082e+00 1.292350888252258301e+00
3.930000000000000000e+03 1.012487506866455078e+01 2.410974502563476562e+01 -9.501446038484573364e-03 -4.370608832687139511e-03 -4.161616787314414978e-03 -9.036646224558353424e-03
3.931000000000000000e+03 1.079222583770751953e+01 2.685190582275390625e+01 -1.074009202420711517e-02 -3.747817361727356911e-03 -4.346372559666633606e-03 -5.357152782380580902e-03
3.932000000000000000e+03 7.268717193603515625e+01 1.267767620086669922e+01 3.238374590873718262e-01 5.148643493652343750e+00 1.641744256019592285e+00 9.653038382530212402e-01
3.933000000000000000e+03 7.160726165771484375e+01 1.278489780426025391e+01 3.899943530559539795e-01 4.721921443939208984e+00 1.533574819564819336e+00 9.951828718185424805e-01
3.934000000000000000e+03 1.567104911804199219e+01 -1.656476783752441406e+01 1.928517222404479980e-01 -4.497976601123809814e-01 -7.708378136157989502e-02 -3.574829399585723877e-01
3.935000000000000000e+03 1.101584720611572266e+01 3.128400230407714844e+01 -1.065214816480875015e-02 -1.530761551111936569e-02 -7.787928916513919830e-03 -3.450784133747220039e-03
3.936000000000000000e+03 8.228502273559570312e+00 2.914227485656738281e+01 -8.737946860492229462e-03 -6.370519101619720459e-02 -2.173294126987457275e-02 -1.393445767462253571e-02
3.937000000000000000e+03 7.138709259033203125e+01 -8.941110968589782715e-01 1.394507288932800293e-01 4.305756092071533203e+00 1.333562016487121582e+00 4.769531190395355225e-01
3.938000000000000000e+03 7.036608123779296875e+01 1.582949519157409668e+00 1.967375129461288452e-01 4.164556980133056641e+00 1.308388352394104004e+00 5.727683305740356445e-01
3.939000000000000000e+03 7.325654029846191406e+00 -1.185058021545410156e+01 -3.992343693971633911e-02 -4.262260794639587402e-01 -1.398448497056961060e-01 -4.027232825756072998e-01
3.940000000000000000e+03 8.648389816284179688e+00 -8.789851188659667969e+00 -1.747219115495681763e-01 -3.150512576103210449e-01 -1.469319462776184082e-01 -4.482576549053192139e-01
3.941000000000000000e+03 4.316109085083007812e+01 -1.930193138122558594e+01 1.100013703107833862e-01 -5.511593446135520935e-02 1.646563038229942322e-02 1.010665446519851685e-01
3.942000000000000000e+03 4.626736450195312500e+01 -2.087090492248535156e+01 7.423754036426544189e-02 3.101204335689544678e-01 1.153073981404304504e-01 8.950839936733245850e-02
3.943000000000000000e+03 6.429350376129150391e+00 -1.554959583282470703e+01 2.693369239568710327e-02 -5.586991310119628906e-01 -1.595296263694763184e-01 -3.472804427146911621e-01
3.944000000000000000e+03 4.029385757446289062e+01 -8.895958900451660156e+00 4.868061542510986328e-01 -3.406726419925689697e-01 4.384005442261695862e-02 4.804810974746942520e-03
3.945000000000000000e+03 8.803267478942871094e+00 -2.202665710449218750e+01 9.068723022937774658e-02 -6.542130112648010254e-01 -1.690577417612075806e-01 -3.010732233524322510e-01
3.946000000000000000e+03 8.122590065002441406e+00 -1.912346076965332031e+01 7.528007030487060547e-02 -6.284981966018676758e-01 -1.659654378890991211e-01 -3.407725691795349121e-01
3.947000000000000000e+03 7.688460350036621094e+00 -1.658460807800292969e+01 5.240813270211219788e-02 -5.812506079673767090e-01 -1.586527377367019653e-01 -3.714647591114044189e-01
3.948000000000000000e+03 1.442706012725830078e+01 8.829407691955566406e+00 1.077782362699508667e-01 3.978286981582641602e-01 1.516820788383483887e-01 1.510842591524124146e-01
3.949000000000000000e+03 6.835281848907470703e+00 9.386244773864746094e+00 1.106795296072959900e-01 -9.514026343822479248e-02 4.661780782043933868e-03 2.129437588155269623e-02
3.950000000000000000e+03 7.106972503662109375e+01 -2.145015716552734375e+01 2.800473943352699280e-02 3.852151632308959961e+00 1.164046883583068848e+00 1.673887223005294800e-01
3.951000000000000000e+03 1.605431365966796875e+01 -2.128990936279296875e+01 1.921710222959518433e-01 -3.239250183105468750e-01 -3.952620178461074829e-02 -3.155734837055206299e-01
3.952000000000000000e+03 1.957725334167480469e+01 -2.196101951599121094e+01 2.061144560575485229e-01 -8.928395062685012817e-02 3.504915162920951843e-02 -2.788505852222442627e-01
3.953000000000000000e+03 1.485715675354003906e+01 9.548099517822265625e+00 1.075802519917488098e-01 3.573598265647888184e-01 1.394820213317871094e-01 1.547273099422454834e-01
3.954000000000000000e+03 8.774300575256347656e+00 2.301746940612792969e+01 -8.508455008268356323e-03 -3.024577908217906952e-02 -1.162627059966325760e-02 -1.637303642928600311e-02
3.955000000000000000e+03 4.242543792724609375e+01 -1.218487930297851562e+01 3.907077610492706299e-01 -1.428735405206680298e-01 7.435026764869689941e-02 2.424872852861881256e-02
3.956000000000000000e+03 4.936586380004882812e+01 -2.512994384765625000e+01 -3.574796020984649658e-02 7.641384601593017578e-01 2.185171395540237427e-01 1.349829435348510742e-01
3.957000000000000000e+03 4.226160049438476562e+01 -1.501078319549560547e+01 2.845180034637451172e-01 -1.296315193176269531e-01 4.646594077348709106e-02 3.875525295734405518e-02
3.958000000000000000e+03 8.873080253601074219e+00 -2.364965629577636719e+01 9.885496646165847778e-02 -6.637907028198242188e-01 -1.694807261228561401e-01 -2.748601734638214111e-01
3.959000000000000000e+03 8.208965301513671875e+00 1.512640666961669922e+01 2.215434424579143524e-02 -7.322042249143123627e-03 4.449690692126750946e-03 -1.670801080763339996e-02
3.960000000000000000e+03 3.340761947631835938e+01 -3.810537815093994141e+00 5.366900563240051270e-01 -5.846418142318725586e-01 -1.438553538173437119e-02 -2.756022475659847260e-02
3.961000000000000000e+03 9.386381149291992188e+00 2.047159576416015625e+01 -3.822407452389597893e-03 3.352944040670990944e-03 -1.408390235155820847e-04 -1.385108940303325653e-02
3.962000000000000000e+03 7.333403778076171875e+01 2.484370803833007812e+01 5.488280057907104492e-01 5.175997734069824219e+00 1.717447757720947266e+00 1.978415608406066895e+00
3.963000000000000000e+03 1.713231849670410156e+01 -2.208791732788085938e+01 2.018861472606658936e-01 -2.591489255428314209e-01 -1.717883534729480743e-02 -2.901654243469238281e-01
3.964000000000000000e+03 2.102954673767089844e+01 -2.758373832702636719e+01 2.359396666288375854e-01 2.963692694902420044e-02 7.967297732830047607e-02 -2.703463435173034668e-01
3.965000000000000000e+03 6.993991851806640625e+01 -1.985385322570800781e+01 4.302944988012313843e-02 3.710881948471069336e+00 1.126173377037048340e+00 1.935189366340637207e-01
3.966000000000000000e+03 9.189559936523437500e+00 2.569969177246093750e+01 -1.003653369843959808e-02 -3.290296345949172974e-02 -1.288184896111488342e-02 -1.289400178939104080e-02
3.967000000000000000e+03 4.903213882446289062e+01 -2.265492820739746094e+01 3.590990230441093445e-02 7.081838250160217285e-01 2.232281118631362915e-01 1.079908758401870728e-01
3.968000000000000000e+03 6.860369110107421875e+01 7.293250083923339844e+00 3.506400585174560547e-01 3.754083156585693359e+00 1.231416940689086914e+00 7.609692215919494629e-01
3.969000000000000000e+03 2.184241294860839844e+01 -3.263651657104492188e+01 2.758515179157257080e-01 3.474196046590805054e-02 9.317804127931594849e-02 -2.243371009826660156e-01
3.970000000000000000e+03 2.025426483154296875e+01 -3.084878349304199219e+01 2.351446598768234253e-01 -4.683603718876838684e-02 5.649258568882942200e-02 -2.362107038497924805e-01
3.971000000000000000e+03 7.049775695800781250e+01 -2.612446784973144531e+01 2.675234153866767883e-02 3.730137348175048828e+00 1.127066850662231445e+00 1.478233784437179565e-01
3.972000000000000000e+03 6.909545135498046875e+01 -2.454795265197753906e+01 2.837537787854671478e-02 3.540681838989257812e+00 1.070717096328735352e+00 1.663156151771545410e-01
3.973000000000000000e+03 7.149256134033203125e+01 1.156029605865478516e+01 3.542130291461944580e-01 4.667879581451416016e+00 1.506627798080444336e+00 9.307389259338378906e-01
3.974000000000000000e+03 7.136718750000000000e+01 1.033648204803466797e+01 3.246940970420837402e-01 4.608011722564697266e+00 1.479811787605285645e+00 8.738387823104858398e-01
3.975000000000000000e+03 9.914961814880371094e+00 -2.850984001159667969e+01 9.724853187799453735e-02 -6.595153808593750000e-01 -1.686800569295883179e-01 -2.121715247631072998e-01
3.976000000000000000e+03 6.960667133331298828e+00 -3.543129348754882812e+01 4.519473388791084290e-02 -9.543394446372985840e-01 -2.727434039115905762e-01 -8.283986151218414307e-02
3.977000000000000000e+03 7.071173858642578125e+01 -2.847067451477050781e+01 2.957010827958583832e-02 3.734134435653686523e+00 1.129111289978027344e+00 1.447340697050094604e-01
3.978000000000000000e+03 2.362228012084960938e+01 -3.420260620117187500e+01 3.375055193901062012e-01 1.410164684057235718e-01 1.435565948486328125e-01 -2.153293788433074951e-01
3.979000000000000000e+03 8.427113533020019531e+00 -2.051135063171386719e+01 9.470351785421371460e-02 -6.369540095329284668e-01 -1.626751422882080078e-01 -3.203741908073425293e-01
3.980000000000000000e+03 7.316132545471191406e+00 -2.228470039367675781e+01 7.212140411138534546e-02 -7.090728282928466797e-01 -1.910854279994964600e-01 -2.712257504463195801e-01
3.981000000000000000e+03 2.498695564270019531e+01 2.111890792846679688e+00 -2.441183328628540039e+00 -4.138313233852386475e-01 -8.565043807029724121e-01 -9.915430545806884766e-01
3.982000000000000000e+03 2.633648300170898438e+01 1.930189132690429688e+00 -1.786783576011657715e+00 -4.008112549781799316e-01 -6.562784314155578613e-01 -5.665999054908752441e-01
3.983000000000000000e+03 2.565426254272460938e+01 2.395948648452758789e+00 -2.316583633422851562e+00 -4.638430476188659668e-01 -8.341280221939086914e-01 -8.862341642379760742e-01
3.984000000000000000e+03 2.665558242797851562e+01 1.664010882377624512e+00 -1.502574086189270020e+00 -4.174906313419342041e-01 -5.760194063186645508e-01 -4.787046611309051514e-01
3.985000000000000000e+03 2.553625488281250000e+01 1.582615971565246582e+00 -1.792875647544860840e+00 -2.811973392963409424e-01 -6.222218871116638184e-01 -6.328966617584228516e-01
3.986000000000000000e+03 2.488254165649414062e+01 4.576573073863983154e-01 -1.048536658287048340e+00 4.872469604015350342e-02 -2.999435961246490479e-01 -4.490434527397155762e-01
3.987000000000000000e+03 2.792981338500976562e+01 2.336148738861083984e+00 -1.553689241409301758e+00 -5.951881408691406250e-01 -6.446632146835327148e-01 -5.068860054016113281e-01
3.988000000000000000e+03 3.034002494812011719e+01 -1.756188869476318359e+00 3.008206784725189209e-01 -4.877780377864837646e-01 -5.608720704913139343e-02 -1.753449812531471252e-02
3.989000000000000000e+03 1.791039466857910156e+01 1.267992877960205078e+01 1.158418655395507812e-01 2.500950992107391357e-01 1.097810864448547363e-01 1.655837595462799072e-01
3.990000000000000000e+03 4.126702499389648438e+01 1.822768974304199219e+01 -9.843831062316894531e-01 -1.074760317802429199e+00 -6.177430152893066406e-01 -1.132485270500183105e+00
3.991000000000000000e+03 3.457091140747070312e+01 1.010491275787353516e+01 -1.094900131225585938e+00 -1.097175240516662598e+00 -6.576226353645324707e-01 -9.891646504402160645e-01
3.992000000000000000e+03 4.130764770507812500e+01 1.869897079467773438e+01 -1.000904083251953125e+00 -1.099491715431213379e+00 -6.301187276840209961e-01 -1.159206271171569824e+00
3.993000000000000000e+03 8.284728050231933594e+00 1.288269519805908203e+01 5.081680789589881897e-02 6.028214935213327408e-03 1.705350540578365326e-02 -1.360113359987735748e-02
3.994000000000000000e+03 4.305626296997070312e+01 1.990767097473144531e+01 -9.920483231544494629e-01 -1.073047757148742676e+00 -6.195288300514221191e-01 -1.110338449478149414e+00
3.995000000000000000e+03 4.228240585327148438e+01 1.980253601074218750e+01 -1.014304757118225098e+00 -1.110823631286621094e+00 -6.375384926795959473e-01 -1.151372671127319336e+00
3.996000000000000000e+03 3.422262954711914062e+01 2.842491340637207031e+01 8.170852065086364746e-02 1.197183877229690552e-01 6.042807176709175110e-02 9.447181224822998047e-02
3.997000000000000000e+03 1.479503059387207031e+01 8.660867691040039062e+00 1.234258562326431274e-01 4.070012569427490234e-01 1.591281294822692871e-01 1.731838881969451904e-01
3.998000000000000000e+03 7.303469848632812500e+01 2.887962150573730469e+01 -9.000244736671447754e-02 3.592196941375732422e+00 1.050658345222473145e+00 2.123572826385498047e+00
3.999000000000000000e+03 2.520096206665039062e+01 1.844448328018188477e+00 -2.115206956863403320e+00 -2.838310897350311279e-01 -7.197114229202270508e-01 -7.620986700057983398e-01
4.000000000000000000e+03 2.468605422973632812e+01 1.445814013481140137e+00 -1.936443686485290527e+00 -1.825373917818069458e-01 -6.356943249702453613e-01 -7.304150462150573730e-01
4.001000000000000000e+03 2.759730720520019531e+01 2.153057098388671875e+01 9.146189689636230469e-02 1.485618948936462402e-01 7.200713455677032471e-02 1.211029663681983948e-01
4.002000000000000000e+03 2.844631767272949219e+01 2.174008560180664062e+01 9.500426054000854492e-02 1.433448791503906250e-01 7.150474190711975098e-02 1.207422986626625061e-01
4.003000000000000000e+03 1.938858985900878906e+01 1.302165031433105469e+01 1.374872028827667236e-01 2.343644052743911743e-01 1.115554869174957275e-01 1.780266165733337402e-01
4.004000000000000000e+03 1.881519126892089844e+01 1.246787261962890625e+01 1.371590197086334229e-01 2.426726073026657104e-01 1.139494851231575012e-01 1.813198029994964600e-01
4.005000000000000000e+03 4.392393112182617188e+01 2.151729774475097656e+01 -1.113266110420227051e+00 -1.104581475257873535e+00 -6.653543114662170410e-01 -1.139017939567565918e+00
4.006000000000000000e+03 4.087903213500976562e+01 1.731273841857910156e+01 -9.735851287841796875e-01 -1.056095838546752930e+00 -6.089043021202087402e-01 -1.093508005142211914e+00
4.007000000000000000e+03 4.190270996093750000e+01 1.890197181701660156e+01 -9.797523021697998047e-01 -1.080067873001098633e+00 -6.179460287094116211e-01 -1.136266589164733887e+00
4.008000000000000000e+03 1.998659324645996094e+01 1.364019870758056641e+01 1.350307762622833252e-01 2.226798087358474731e-01 1.073131710290908813e-01 1.718710958957672119e-01
4.009000000000000000e+03 2.307078742980957031e+01 1.662019920349121094e+01 1.207908987998962402e-01 1.875956803560256958e-01 9.251597523689270020e-02 1.521614342927932739e-01
4.010000000000000000e+03 4.646412658691406250e+01 2.368149375915527344e+01 -1.192720532417297363e+00 -9.731042981147766113e-01 -6.497474312782287598e-01 -1.107547879219055176e+00
4.011000000000000000e+03 4.881829833984375000e+01 2.591732788085937500e+01 -1.208855271339416504e+00 -8.121721744537353516e-01 -6.063082218170166016e-01 -1.081489682197570801e+00
4.012000000000000000e+03 7.495687103271484375e+01 2.926490783691406250e+01 -6.639277935028076172e-01 7.405589580535888672e+00 2.022498607635498047e+00 3.011980772018432617e+00
4.013000000000000000e+03 2.350972557067871094e+01 1.846561813354492188e+01 9.894892573356628418e-02 1.750476658344268799e-01 8.219897747039794922e-02 1.333500146865844727e-01
4.014000000000000000e+03 1.977391624450683594e+01 1.400066471099853516e+01 1.250852495431900024e-01 2.224390357732772827e-01 1.042572855949401855e-01 1.637979298830032349e-01
4.015000000000000000e+03 2.013831520080566406e+01 1.412139606475830078e+01 1.283291578292846680e-01 2.178849130868911743e-01 1.038642227649688721e-01 1.652020514011383057e-01
4.016000000000000000e+03 2.076805877685546875e+01 1.442764949798583984e+01 1.326017081737518311e-01 2.123233824968338013e-01 1.034775227308273315e-01 1.648807227611541748e-01
4.017000000000000000e+03 2.269347763061523438e+01 1.716162300109863281e+01 1.084917634725570679e-01 1.860626637935638428e-01 8.836632966995239258e-02 1.435260772705078125e-01
4.018000000000000000e+03 3.571042633056640625e+01 1.255347347259521484e+01 -1.103528738021850586e+00 -1.208165407180786133e+00 -6.935082674026489258e-01 -1.096760153770446777e+00
4.019000000000000000e+03 3.616090011596679688e+01 1.290855216979980469e+01 -1.085535883903503418e+00 -1.202349901199340820e+00 -6.863657236099243164e-01 -1.092593073844909668e+00
4.020000000000000000e+03 4.444687271118164062e+01 2.152488708496093750e+01 -1.084228634834289551e+00 -1.064355254173278809e+00 -6.445751786231994629e-01 -1.107167243957519531e+00
4.021000000000000000e+03 2.100590324401855469e+01 1.507034397125244141e+01 1.240018457174301147e-01 2.079013586044311523e-01 9.957095980644226074e-02 1.569357961416244507e-01
4.022000000000000000e+03 3.178870964050292969e+01 2.655045890808105469e+01 7.673034816980361938e-02 1.257642358541488647e-01 6.074837595224380493e-02 1.000839173793792725e-01
4.023000000000000000e+03 2.731606101989746094e+01 2.102906990051269531e+01 9.626437723636627197e-02 1.505744755268096924e-01 7.405165582895278931e-02 1.240393295884132385e-01
4.024000000000000000e+03 5.017924499511718750e+01 2.733842658996582031e+01 -1.253641128540039062e+00 -6.827554106712341309e-01 -5.809189677238464355e-01 -1.023868680000305176e+00
4.025000000000000000e+03 4.470416259765625000e+01 2.178111839294433594e+01 -1.096097946166992188e+00 -1.058396100997924805e+00 -6.463482379913330078e-01 -1.105479121208190918e+00
4.026000000000000000e+03 2.544132423400878906e+01 1.853708839416503906e+01 1.177545413374900818e-01 1.665060967206954956e-01 8.527819067239761353e-02 1.390102654695510864e-01
4.027000000000000000e+03 1.572121047973632812e+01 9.745582580566406250e+00 1.297176033258438110e-01 3.376560807228088379e-01 1.402121037244796753e-01 1.839118897914886475e-01
4.028000000000000000e+03 3.005127525329589844e+01 -1.149456381797790527e+00 1.580125242471694946e-01 -5.273651480674743652e-01 -1.108057871460914612e-01 -2.334521617740392685e-03
4.029000000000000000e+03 3.959114837646484375e+01 1.678439331054687500e+01 -1.034075617790222168e+00 -1.142418265342712402e+00 -6.529482007026672363e-01 -1.112382411956787109e+00
4.030000000000000000e+03 3.714176177978515625e+01 1.372733974456787109e+01 -1.048073291778564453e+00 -1.189905881881713867e+00 -6.713937520980834961e-01 -1.079683303833007812e+00
4.031000000000000000e+03 3.365245437622070312e+01 2.789933204650878906e+01 8.041746169328689575e-02 1.213921606540679932e-01 6.054288521409034729e-02 9.603273123502731323e-02
4.032000000000000000e+03 3.313924789428710938e+01 2.732101821899414062e+01 7.978163659572601318e-02 1.228588819503784180e-01 6.079215556383132935e-02 9.774290025234222412e-02
4.033000000000000000e+03 4.393040084838867188e+01 2.102751350402832031e+01 -1.059341788291931152e+00 -1.074759721755981445e+00 -6.402304768562316895e-01 -1.111609458923339844e+00
4.034000000000000000e+03 2.532496261596679688e+01 6.584466695785522461e-01 -1.012847185134887695e+00 -1.014209724962711334e-02 -3.068968057632446289e-01 -3.646903038024902344e-01
4.035000000000000000e+03 3.447142410278320312e+01 2.960399818420410156e+01 7.938250154256820679e-02 1.174083948135375977e-01 5.903726816177368164e-02 8.898684382438659668e-02
4.036000000000000000e+03 5.169117355346679688e+01 2.822841644287109375e+01 -1.283721327781677246e+00 -4.324828684329986572e-01 -5.148612856864929199e-01 -9.520103931427001953e-01
4.037000000000000000e+03 5.077458953857421875e+01 2.841389274597167969e+01 -1.285670876502990723e+00 -6.324689984321594238e-01 -5.754419565200805664e-01 -9.963786005973815918e-01
4.038000000000000000e+03 2.684937477111816406e+01 2.069521522521972656e+01 9.671980142593383789e-02 1.539951711893081665e-01 7.521449029445648193e-02 1.251077502965927124e-01
4.039000000000000000e+03 2.667606544494628906e+01 2.001258087158203125e+01 1.050016582012176514e-01 1.568136364221572876e-01 7.854458689689636230e-02 1.300267428159713745e-01
4.040000000000000000e+03 2.639528656005859375e+01 2.042662811279296875e+01 9.708496183156967163e-02 1.568970978260040283e-01 7.619462162256240845e-02 1.257995218038558960e-01
4.041000000000000000e+03 2.776935577392578125e+01 2.173869132995605469e+00 -1.508929610252380371e+00 -5.594527721405029297e-01 -6.205147504806518555e-01 -4.536348283290863037e-01
4.042000000000000000e+03 2.381902122497558594e+01 1.775232315063476562e+01 1.127866059541702271e-01 1.764264553785324097e-01 8.676391839981079102e-02 1.426820009946823120e-01
4.043000000000000000e+03 2.516870689392089844e+01 1.829012489318847656e+01 1.188872382044792175e-01 1.680260747671127319e-01 8.607399463653564453e-02 1.407318115234375000e-01
4.044000000000000000e+03 2.586696052551269531e+01 1.313252687454223633e+00 -1.476048946380615234e+00 -2.456077188253402710e-01 -5.164970159530639648e-01 -4.531849920749664307e-01
4.045000000000000000e+03 4.314520263671875000e+01 2.071441459655761719e+01 -1.064446926116943359e+00 -1.112173080444335938e+00 -6.529859900474548340e-01 -1.141009926795959473e+00
4.046000000000000000e+03 4.966906738281250000e+01 2.732331085205078125e+01 -1.262474656105041504e+00 -7.760460972785949707e-01 -6.115562319755554199e-01 -1.056694149971008301e+00
4.047000000000000000e+03 3.732003021240234375e+01 1.405368518829345703e+01 -1.047961354255676270e+00 -1.201462149620056152e+00 -6.748270392417907715e-01 -1.089919924736022949e+00
4.048000000000000000e+03 2.662202835083007812e+01 4.406995773315429688e-01 -7.453922629356384277e-01 -2.816778123378753662e-01 -3.081210255622863770e-01 -2.576330006122589111e-01
4.049000000000000000e+03 2.080661201477050781e+01 1.484926128387451172e+01 1.255958080291748047e-01 2.094077318906784058e-01 1.005010604858398438e-01 1.591118276119232178e-01
4.050000000000000000e+03 2.148316192626953125e+01 1.512390804290771484e+01 1.292529553174972534e-01 2.055264115333557129e-01 1.004338115453720093e-01 1.590847671031951904e-01
4.051000000000000000e+03 5.207521438598632812e+01 2.874020576477050781e+01 -1.297916531562805176e+00 -3.706971108913421631e-01 -5.005840659141540527e-01 -9.357649087905883789e-01
4.052000000000000000e+03 2.828203964233398438e+01 2.218651962280273438e+01 8.819209039211273193e-02 1.442519426345825195e-01 6.973320990800857544e-02 1.178638786077499390e-01
4.053000000000000000e+03 4.613528442382812500e+01 2.347894859313964844e+01 -1.193672060966491699e+00 -1.005622029304504395e+00 -6.597882509231567383e-01 -1.112864136695861816e+00
4.054000000000000000e+03 4.698186874389648438e+01 2.348533630371093750e+01 -1.140934467315673828e+00 -9.002031683921813965e-01 -6.123412847518920898e-01 -1.066171646118164062e+00
4.055000000000000000e+03 3.747351455688476562e+01 1.434625720977783203e+01 -1.052175641059875488e+00 -1.208453536033630371e+00 -6.781887412071228027e-01 -1.097434878349304199e+00
4.056000000000000000e+03 5.124256896972656250e+01 2.787193489074707031e+01 -1.269117593765258789e+00 -5.029691457748413086e-01 -5.316260457038879395e-01 -9.716134667396545410e-01
4.057000000000000000e+03 5.166393661499023438e+01 2.864446258544921875e+01 -1.290834546089172363e+00 -4.496495723724365234e-01 -5.221452713012695312e-01 -9.493435025215148926e-01
4.058000000000000000e+03 5.299812316894531250e+01 2.917520141601562500e+01 -1.326874732971191406e+00 -1.935511678457260132e-01 -4.561277627944946289e-01 -9.085881710052490234e-01
4.059000000000000000e+03 2.190183258056640625e+01 1.568515682220458984e+01 1.237285658717155457e-01 2.004579156637191772e-01 9.725594520568847656e-02 1.549998819828033447e-01
4.060000000000000000e+03 3.767573547363281250e+01 1.455795097351074219e+01 -1.042868256568908691e+00 -1.204299688339233398e+00 -6.741504073143005371e-01 -1.095120668411254883e+00
4.061000000000000000e+03 3.935704421997070312e+01 1.650065040588378906e+01 -1.036312222480773926e+00 -1.153767228126525879e+00 -6.570238471031188965e-01 -1.106511592864990234e+00
4.062000000000000000e+03 4.173683929443359375e+01 1.817096710205078125e+01 -9.517899155616760254e-01 -1.048078179359436035e+00 -5.999603867530822754e-01 -1.103414058685302734e+00
4.063000000000000000e+03 3.791555404663085938e+01 1.477536582946777344e+01 -1.038146018981933594e+00 -1.198684692382812500e+00 -6.710492372512817383e-01 -1.090326547622680664e+00
4.064000000000000000e+03 2.549192428588867188e+01 1.909231948852539062e+01 1.089950799942016602e-01 1.649610549211502075e-01 8.218684047460556030e-02 1.339542567729949951e-01
4.065000000000000000e+03 4.367679214477539062e+01 2.077444648742675781e+01 -1.045545697212219238e+00 -1.077419400215148926e+00 -6.368895173072814941e-01 -1.114367365837097168e+00
4.066000000000000000e+03 4.522180557250976562e+01 2.228992462158203125e+01 -1.120400428771972656e+00 -1.039290189743041992e+00 -6.479071974754333496e-01 -1.099900126457214355e+00
4.067000000000000000e+03 5.335888290405273438e+01 2.958350753784179688e+01 -1.343747973442077637e+00 -1.246514618396759033e-01 -4.405198395252227783e-01 -8.924481868743896484e-01
4.068000000000000000e+03 4.936374282836914062e+01 2.647755622863769531e+01 -1.221952795982360840e+00 -7.684958577156066895e-01 -5.971345901489257812e-01 -1.061081886291503906e+00
4.069000000000000000e+03 3.840916442871093750e+01 1.526038551330566406e+01 -1.031640172004699707e+00 -1.186561822891235352e+00 -6.654606461524963379e-01 -1.085753083229064941e+00
4.070000000000000000e+03 1.920300865173339844e+01 1.335588359832763672e+01 1.264367103576660156e-01 2.309912890195846558e-01 1.072283983230590820e-01 1.696509271860122681e-01
4.071000000000000000e+03 5.072349929809570312e+01 2.786591148376464844e+01 -1.272970080375671387e+00 -6.139382123947143555e-01 -5.660725235939025879e-01 -9.933464527130126953e-01
4.072000000000000000e+03 4.992105102539062500e+01 2.705105400085449219e+01 -1.243829965591430664e+00 -7.120459079742431641e-01 -5.867627859115600586e-01 -1.034427523612976074e+00
4.073000000000000000e+03 3.905363082885742188e+01 1.625083541870117188e+01 -1.042038440704345703e+00 -1.173806905746459961e+00 -6.647536158561706543e-01 -1.105041265487670898e+00
4.074000000000000000e+03 3.567190551757812500e+01 1.218391513824462891e+01 -1.090849518775939941e+00 -1.182302594184875488e+00 -6.819456219673156738e-01 -1.072459101676940918e+00
4.075000000000000000e+03 2.486874580383300781e+01 1.858212852478027344e+01 1.116995140910148621e-01 1.687142252922058105e-01 8.412411808967590332e-02 1.372715681791305542e-01
4.076000000000000000e+03 3.353375244140625000e+01 9.864966392517089844e+00 -1.164754271507263184e+00 -1.141568541526794434e+00 -6.918968558311462402e-01 -1.041947841644287109e+00
4.077000000000000000e+03 3.381937789916992188e+01 9.604495048522949219e+00 -1.132666230201721191e+00 -1.100530147552490234e+00 -6.699588894844055176e-01 -1.000687479972839355e+00
4.078000000000000000e+03 4.238690567016601562e+01 1.951028823852539062e+01 -9.922206997871398926e-01 -1.091041207313537598e+00 -6.249786019325256348e-01 -1.135377645492553711e+00
4.079000000000000000e+03 4.128772735595703125e+01 1.776096534729003906e+01 -9.655911922454833984e-01 -1.053580641746520996e+00 -6.057515740394592285e-01 -1.103942036628723145e+00
4.080000000000000000e+03 4.583316802978515625e+01 2.326161766052246094e+01 -1.190202474594116211e+00 -1.031257390975952148e+00 -6.664379835128784180e-01 -1.117174625396728516e+00
4.081000000000000000e+03 2.888843536376953125e+01 2.316061019897460938e+01 8.208042383193969727e-02 1.398013979196548462e-01 6.656455248594284058e-02 1.137111932039260864e-01
4.082000000000000000e+03 2.875638961791992188e+01 2.227838706970214844e+01 8.965953439474105835e-02 1.416157633066177368e-01 6.938258558511734009e-02 1.179616376757621765e-01
4.083000000000000000e+03 2.582844543457031250e+01 1.931117630004882812e+01 1.081851199269294739e-01 1.628331094980239868e-01 8.130547404289245605e-02 1.330284774303436279e-01
4.084000000000000000e+03 4.343863296508789062e+01 2.050325584411621094e+01 -1.028586506843566895e+00 -1.080017089843750000e+00 -6.325810551643371582e-01 -1.114812016487121582e+00
4.085000000000000000e+03 3.609366607666015625e+01 1.252032947540283203e+01 -1.075787901878356934e+00 -1.177751064300537109e+00 -6.760616898536682129e-01 -1.067167997360229492e+00
4.086000000000000000e+03 3.258166503906250000e+01 2.729413032531738281e+01 7.743758708238601685e-02 1.236338987946510315e-01 6.032144650816917419e-02 9.718389809131622314e-02
4.087000000000000000e+03 2.929984283447265625e+01 2.393983078002929688e+01 7.749640196561813354e-02 1.370843946933746338e-01 6.437423825263977051e-02 1.107293441891670227e-01
4.088000000000000000e+03 2.857790374755859375e+01 2.344981575012207031e+01 7.765176892280578613e-02 1.407445073127746582e-01 6.551887840032577515e-02 1.116033568978309631e-01
4.089000000000000000e+03 3.868960189819335938e+01 1.547251319885253906e+01 -1.025721788406372070e+00 -1.170605063438415527e+00 -6.588980555534362793e-01 -1.082069396972656250e+00
4.090000000000000000e+03 3.331715011596679688e+01 2.821110725402832031e+01 7.781226933002471924e-02 1.216551363468170166e-01 5.984022095799446106e-02 9.433632344007492065e-02
4.091000000000000000e+03 3.266175079345703125e+01 2.821035766601562500e+01 7.471696287393569946e-02 1.227816492319107056e-01 5.924958363175392151e-02 9.343600273132324219e-02
4.092000000000000000e+03 3.022776222229003906e+01 2.478984069824218750e+01 7.709129154682159424e-02 1.317463219165802002e-01 6.265128403902053833e-02 1.074973344802856445e-01
4.093000000000000000e+03 1.672482299804687500e+01 1.100814247131347656e+01 1.259285509586334229e-01 2.913295626640319824e-01 1.251774281263351440e-01 1.789160817861557007e-01
4.094000000000000000e+03 1.938415336608886719e+01 1.387250709533691406e+01 1.206295490264892578e-01 2.246151119470596313e-01 1.035733968019485474e-01 1.625084131956100464e-01
4.095000000000000000e+03 5.342805099487304688e+01 2.880193901062011719e+01 -1.331901192665100098e+00 -1.234945207834243774e-01 -4.366186857223510742e-01 -9.192922711372375488e-01
4.096000000000000000e+03 4.249497985839843750e+01 1.899129867553710938e+01 -9.531695842742919922e-01 -1.049459695816040039e+00 -6.007887721061706543e-01 -1.103035092353820801e+00
4.097000000000000000e+03 3.053967094421386719e+01 4.007592201232910156e+00 -1.426578044891357422e+00 -7.296847701072692871e-01 -6.468788385391235352e-01 -5.408456325531005859e-01
4.098000000000000000e+03 2.963938140869140625e+01 4.473909854888916016e+00 -1.733717679977416992e+00 -8.879591226577758789e-01 -7.865030169486999512e-01 -7.422556877136230469e-01
4.099000000000000000e+03 3.898691940307617188e+01 1.568520355224609375e+01 -1.019399285316467285e+00 -1.151688218116760254e+00 -6.513262391090393066e-01 -1.076494336128234863e+00
4.100000000000000000e+03 7.364727783203125000e+01 3.004969024658203125e+01 -5.084515810012817383e-01 3.901758432388305664e+00 1.017992019653320312e+00 2.591266155242919922e+00
4.101000000000000000e+03 1.853691482543945312e+01 1.160090827941894531e+01 1.515572518110275269e-01 2.558791339397430420e-01 1.222309097647666931e-01 1.958489418029785156e-01
4.102000000000000000e+03 3.301328659057617188e+01 9.457790374755859375e+00 -1.182545900344848633e+00 -1.142599821090698242e+00 -6.975437402725219727e-01 -1.042631387710571289e+00
4.103000000000000000e+03 4.548978424072265625e+01 2.253318214416503906e+01 -1.131019592285156250e+00 -1.026321411132812500e+00 -6.472023129463195801e-01 -1.097056031227111816e+00
4.104000000000000000e+03 2.799060821533203125e+01 2.166206359863281250e+01 9.289484471082687378e-02 1.466773450374603271e-01 7.187166064977645874e-02 1.209085658192634583e-01
4.105000000000000000e+03 1.904080200195312500e+01 1.289761352539062500e+01 1.344103664159774780e-01 2.362793236970901489e-01 1.112069115042686462e-01 1.760335415601730347e-01
4.106000000000000000e+03 1.394479370117187500e+01 7.737558364868164062e+00 1.154200285673141479e-01 4.884113967418670654e-01 1.811494380235671997e-01 1.381107568740844727e-01
4.107000000000000000e+03 2.136319351196289062e+01 1.560067367553710938e+01 1.186740621924400330e-01 2.029564231634140015e-01 9.648914635181427002e-02 1.524874866008758545e-01
4.108000000000000000e+03 4.737635040283203125e+01 2.360217475891113281e+01 -1.125486850738525391e+00 -8.547969460487365723e-01 -5.940851569175720215e-01 -1.051173806190490723e+00
4.109000000000000000e+03 3.565958404541015625e+01 1.144727325439453125e+01 -1.057024717330932617e+00 -1.128473162651062012e+00 -6.556493639945983887e-01 -1.015040159225463867e+00
4.110000000000000000e+03 3.565037918090820312e+01 1.181798934936523438e+01 -1.076755166053771973e+00 -1.157839059829711914e+00 -6.703782677650451660e-01 -1.047427892684936523e+00
4.111000000000000000e+03 3.669389343261718750e+01 1.308073329925537109e+01 -1.050712823867797852e+00 -1.172324061393737793e+00 -6.669110655784606934e-01 -1.064172267913818359e+00
4.112000000000000000e+03 2.213716506958007812e+01 1.688601112365722656e+01 1.059244498610496521e-01 1.908965706825256348e-01 8.904630690813064575e-02 1.427377760410308838e-01
4.113000000000000000e+03 2.196877670288085938e+01 1.653026390075683594e+01 1.094829738140106201e-01 1.940908133983612061e-01 9.107213467359542847e-02 1.458948701620101929e-01
4.114000000000000000e+03 3.280944824218750000e+01 2.759466934204101562e+01 7.725287973880767822e-02 1.231869235634803772e-01 6.013194099068641663e-02 9.618134051561355591e-02
4.115000000000000000e+03 4.576260757446289062e+01 2.276415252685546875e+01 -1.143357396125793457e+00 -1.008528709411621094e+00 -6.455658078193664551e-01 -1.093121767044067383e+00
4.116000000000000000e+03 7.571251678466796875e+01 2.917885208129882812e+01 -9.575543403625488281e-01 9.216416358947753906e+00 2.477658748626708984e+00 2.773692369461059570e+00
4.117000000000000000e+03 7.508700561523437500e+01 3.132622718811035156e+01 -1.141911983489990234e+00 7.063724040985107422e+00 1.776543617248535156e+00 4.191648006439208984e+00
4.118000000000000000e+03 2.175639343261718750e+01 1.621035385131835938e+01 1.132083907723426819e-01 1.971820443868637085e-01 9.311713278293609619e-02 1.479837149381637573e-01
4.119000000000000000e+03 3.333502197265625000e+01 6.669690608978271484e+00 -1.098480939865112305e+00 -8.722395300865173340e-01 -5.912161469459533691e-01 -7.935162186622619629e-01
4.120000000000000000e+03 3.320663452148437500e+01 6.324237346649169922e+00 -1.093884110450744629e+00 -8.578443527221679688e-01 -5.855185389518737793e-01 -7.635209560394287109e-01
4.121000000000000000e+03 3.416397476196289062e+01 9.876508712768554688e+00 -1.113273382186889648e+00 -1.101850152015686035e+00 -6.645370721817016602e-01 -9.999797344207763672e-01
4.122000000000000000e+03 2.423712158203125000e+01 1.755077743530273438e+01 1.206753030419349670e-01 1.747803539037704468e-01 8.863669633865356445e-02 1.468055546283721924e-01
4.123000000000000000e+03 1.641240882873535156e+01 1.062262916564941406e+01 1.273322105407714844e-01 3.029597699642181396e-01 1.290875822305679321e-01 1.801096946001052856e-01
4.124000000000000000e+03 1.607250404357910156e+01 1.018265724182128906e+01 1.294966340065002441e-01 3.182549476623535156e-01 1.343254745006561279e-01 1.825424879789352417e-01
4.125000000000000000e+03 1.190688991546630859e+01 5.977605342864990234e+00 2.246225923299789429e-01 4.204119741916656494e-01 1.935103684663772583e-01 -1.226068660616874695e-01
4.126000000000000000e+03 1.239520168304443359e+01 6.102318763732910156e+00 1.821846663951873779e-01 5.353413224220275879e-01 2.152577936649322510e-01 -8.182840049266815186e-02
4.127000000000000000e+03 9.060626983642578125e+00 6.187908649444580078e+00 2.619208097457885742e-01 -8.169913291931152344e-02 5.406649783253669739e-02 6.265675183385610580e-03
4.128000000000000000e+03 3.095188903808593750e+01 2.592522811889648438e+01 7.492022216320037842e-02 1.281490623950958252e-01 6.092078611254692078e-02 1.021359264850616455e-01
4.129000000000000000e+03 2.643179893493652344e+01 -5.339930057525634766e-01 -7.614979147911071777e-02 -1.635893881320953369e-01 -7.192175835371017456e-02 -2.303685694932937622e-01
4.130000000000000000e+03 2.610810661315917969e+01 1.127459108829498291e-01 -5.304158329963684082e-01 -1.763333231210708618e-01 -2.120247334241867065e-01 -2.592003643512725830e-01
4.131000000000000000e+03 1.685210418701171875e+01 1.161489677429199219e+01 1.143651753664016724e-01 2.788399755954742432e-01 1.179615408182144165e-01 1.666026711463928223e-01
4.132000000000000000e+03 1.528279876708984375e+01 9.699500083923339844e+00 1.148072555661201477e-01 3.505155444145202637e-01 1.395968496799468994e-01 1.686303466558456421e-01
4.133000000000000000e+03 1.429074668884277344e+01 8.454920768737792969e+00 1.136052906513214111e-01 4.268071949481964111e-01 1.621237397193908691e-01 1.478843837976455688e-01
4.134000000000000000e+03 3.087335205078125000e+01 4.803587436676025391e+00 -1.511582255363464355e+00 -7.777532935142517090e-01 -6.868006587028503418e-01 -7.023000121116638184e-01
4.135000000000000000e+03 3.229298400878906250e+01 5.158778190612792969e+00 -1.218659520149230957e+00 -7.580179572105407715e-01 -5.930032730102539062e-01 -6.663261055946350098e-01
4.136000000000000000e+03 3.205235671997070312e+01 2.679064369201660156e+01 7.688517868518829346e-02 1.251448094844818115e-01 6.060899421572685242e-02 9.910807013511657715e-02
4.137000000000000000e+03 1.357214927673339844e+01 7.010133266448974609e+00 1.172678470611572266e-01 5.610495805740356445e-01 2.034952342510223389e-01 1.084668561816215515e-01
4.138000000000000000e+03 1.397610950469970703e+01 6.860125541687011719e+00 1.251944452524185181e-01 5.759636163711547852e-01 2.103474140167236328e-01 1.714826673269271851e-01
4.139000000000000000e+03 3.132966613769531250e+01 4.781305313110351562e+00 -1.380663752555847168e+00 -7.454636693000793457e-01 -6.378381848335266113e-01 -6.677267551422119141e-01
4.140000000000000000e+03 3.870005035400390625e+01 3.447383499145507812e+01 1.036134436726570129e-01 9.104714542627334595e-02 5.839817598462104797e-02 7.609943300485610962e-02
4.141000000000000000e+03 3.799353790283203125e+01 3.240371704101562500e+01 9.327842295169830322e-02 1.009387895464897156e-01 5.826516449451446533e-02 8.482351154088973999e-02
4.142000000000000000e+03 2.797399520874023438e+01 -5.921266078948974609e-01 1.267961412668228149e-02 -3.150140643119812012e-01 -9.070033580064773560e-02 -4.221914708614349365e-02
4.143000000000000000e+03 3.155871391296386719e+01 2.629758834838867188e+01 7.669442892074584961e-02 1.260865479707717896e-01 6.083429604768753052e-02 1.007052809000015259e-01
4.144000000000000000e+03 3.062611007690429688e+01 2.566435050964355469e+01 7.435496896505355835e-02 1.295619755983352661e-01 6.117508187890052795e-02 1.034705787897109985e-01
4.145000000000000000e+03 3.027440834045410156e+01 2.543038177490234375e+01 7.390095293521881104e-02 1.309960484504699707e-01 6.146909669041633606e-02 1.042089760303497314e-01
4.146000000000000000e+03 5.458095169067382812e+01 3.049297523498535156e+01 -1.394064664840698242e+00 5.123794823884963989e-02 -4.028480052947998047e-01 -8.537849783897399902e-01
4.147000000000000000e+03 7.079261779785156250e+01 2.866547012329101562e+01 -3.365000486373901367e-01 1.468341946601867676e+00 3.395525515079498291e-01 8.967600464820861816e-01
4.148000000000000000e+03 7.242927551269531250e+01 2.840654563903808594e+01 3.062570653855800629e-02 3.138200998306274414e+00 9.506480693817138672e-01 1.806743860244750977e+00
4.149000000000000000e+03 2.839290237426757812e+01 2.531964540481567383e+00 -1.504382491111755371e+00 -6.656305789947509766e-01 -6.510039567947387695e-01 -4.970572292804718018e-01
4.150000000000000000e+03 3.370038986206054688e+01 7.446860790252685547e+00 -1.065760970115661621e+00 -9.325392842292785645e-01 -5.994900465011596680e-01 -8.334187865257263184e-01
4.151000000000000000e+03 3.464987945556640625e+01 3.008763694763183594e+01 7.944414019584655762e-02 1.159983575344085693e-01 5.863275006413459778e-02 8.715941011905670166e-02
4.152000000000000000e+03 2.957502365112304688e+01 2.420168876647949219e+01 7.708866894245147705e-02 1.353706121444702148e-01 6.373777985572814941e-02 1.096255481243133545e-01
4.153000000000000000e+03 5.522095489501953125e+01 3.073025131225585938e+01 -1.431861281394958496e+00 1.154119670391082764e-01 -3.949348032474517822e-01 -8.428555727005004883e-01
4.154000000000000000e+03 3.452681732177734375e+01 2.863981056213378906e+01 8.262410014867782593e-02 1.192568466067314148e-01 6.056428328156471252e-02 9.428656846284866333e-02
4.155000000000000000e+03 3.717488479614257812e+01 3.279338836669921875e+01 8.951424807310104370e-02 1.034685447812080383e-01 5.789483711123466492e-02 8.115605264902114868e-02
4.156000000000000000e+03 3.995238494873046875e+01 3.474222946166992188e+01 1.122600734233856201e-01 8.571335673332214355e-02 5.939202755689620972e-02 7.954473793506622314e-02
4.157000000000000000e+03 2.866220092773437500e+01 -1.029634356498718262e+00 1.480581462383270264e-01 -3.451823890209197998e-01 -5.913727357983589172e-02 -4.145816713571548462e-02
4.158000000000000000e+03 5.583126449584960938e+01 2.917116355895996094e+01 -1.419007658958435059e+00 1.378386318683624268e-01 -3.843507170677185059e-01 -9.392123222351074219e-01
4.159000000000000000e+03 7.736103820800781250e+01 2.972637939453125000e+01 -1.442536354064941406e+00 1.327150154113769531e+01 3.548689365386962891e+00 1.062761187553405762e+00
4.160000000000000000e+03 6.666910552978515625e+01 2.747440910339355469e+01 -5.626080632209777832e-01 4.990992248058319092e-01 -1.905264519155025482e-02 -2.086813747882843018e-01
4.161000000000000000e+03 7.206564331054687500e+01 2.295622253417968750e+01 6.891005039215087891e-01 4.384108066558837891e+00 1.521962523460388184e+00 1.602348327636718750e+00
4.162000000000000000e+03 3.622727584838867188e+01 3.126323318481445312e+01 8.411967009305953979e-02 1.107212156057357788e-01 5.845226719975471497e-02 8.588108420372009277e-02
4.163000000000000000e+03 6.950685119628906250e+01 2.859973335266113281e+01 -5.840225219726562500e-01 8.804270625114440918e-01 8.892137557268142700e-02 3.876294791698455811e-01
4.164000000000000000e+03 7.083337402343750000e+01 2.660654640197753906e+01 3.790298700332641602e-01 2.402789115905761719e+00 8.345457315444946289e-01 1.254843115806579590e+00
4.165000000000000000e+03 1.140481376647949219e+01 5.869813442230224609e+00 2.720756232738494873e-01 2.939974963665008545e-01 1.698219329118728638e-01 -1.370134949684143066e-01
4.166000000000000000e+03 7.419561004638671875e+01 2.771437454223632812e+01 1.162863820791244507e-01 5.993152618408203125e+00 1.832831740379333496e+00 2.406625270843505859e+00
4.167000000000000000e+03 6.718443393707275391e+00 8.351093292236328125e+00 1.284838169813156128e-01 -1.174838021397590637e-01 3.300003707408905029e-03 4.422913119196891785e-02
4.168000000000000000e+03 6.888275909423828125e+01 2.871248245239257812e+01 -7.905483841896057129e-01 6.289311051368713379e-01 -4.848518595099449158e-02 1.401900947093963623e-01
4.169000000000000000e+03 3.347991180419921875e+01 8.161616325378417969e+00 -1.101578354835510254e+00 -1.012198209762573242e+00 -6.341329813003540039e-01 -9.175958633422851562e-01
4.170000000000000000e+03 6.543664550781250000e+01 2.615510368347167969e+01 -2.650225758552551270e-01 5.854067802429199219e-01 9.611526131629943848e-02 -2.554415464401245117e-01
4.171000000000000000e+03 6.286520004272460938e+01 2.796417617797851562e+01 -1.147543311119079590e+00 2.089159935712814331e-01 -2.815881967544555664e-01 -7.784790396690368652e-01
4.172000000000000000e+03 6.425264739990234375e+01 2.764047622680664062e+01 -9.294310212135314941e-01 2.578747868537902832e-01 -2.014668732881546021e-01 -6.260826587677001953e-01
4.173000000000000000e+03 6.357605361938476562e+01 2.670241165161132812e+01 -6.731339097023010254e-01 3.366141319274902344e-01 -1.009559258818626404e-01 -6.116526126861572266e-01
4.174000000000000000e+03 6.418048858642578125e+01 2.699290657043457031e+01 -7.136220335960388184e-01 3.416695296764373779e-01 -1.115857511758804321e-01 -5.636354088783264160e-01
4.175000000000000000e+03 8.671072006225585938e+00 -7.806585311889648438e+00 -2.051531672477722168e-01 -2.504576742649078369e-01 -1.366832554340362549e-01 -3.996169865131378174e-01
4.176000000000000000e+03 3.349398422241210938e+01 7.053637027740478516e+00 -1.072988748550415039e+00 -9.124317765235900879e-01 -5.956261754035949707e-01 -8.157818317413330078e-01
4.177000000000000000e+03 6.642446136474609375e+01 2.673969650268554688e+01 -3.120746314525604248e-01 6.175846457481384277e-01 9.165301173925399780e-02 -1.432692557573318481e-01
4.178000000000000000e+03 7.543344879150390625e+01 2.974405860900878906e+01 -1.044110298156738281e+00 8.610477447509765625e+00 2.269910335540771484e+00 3.145110368728637695e+00
4.179000000000000000e+03 7.458210754394531250e+01 2.811148262023925781e+01 -1.078031584620475769e-01 6.710772991180419922e+00 1.980890989303588867e+00 2.534265279769897461e+00
4.180000000000000000e+03 5.680191802978515625e+01 2.709313392639160156e+01 -1.162922501564025879e+00 1.703447252511978149e-01 -2.977733314037322998e-01 -9.513875842094421387e-01
4.181000000000000000e+03 5.575759124755859375e+01 2.773987388610839844e+01 -1.269474148750305176e+00 1.130914539098739624e-01 -3.469147980213165283e-01 -9.587583541870117188e-01
4.182000000000000000e+03 1.011301231384277344e+01 6.148742675781250000e+00 2.768799066543579102e-01 4.305417090654373169e-02 9.598021954298019409e-02 -6.436307728290557861e-02
4.183000000000000000e+03 7.913288593292236328e+00 1.007076835632324219e+01 1.110519468784332275e-01 -2.387229911983013153e-02 2.615389414131641388e-02 -8.013673126697540283e-03
4.184000000000000000e+03 8.089344024658203125e+00 7.168203830718994141e+00 1.960307508707046509e-01 -9.312787652015686035e-02 3.087086044251918793e-02 3.005263209342956543e-02
4.185000000000000000e+03 7.071213531494140625e+01 2.800154113769531250e+01 -4.585761949419975281e-02 1.741406798362731934e+00 5.086647272109985352e-01 1.000565052032470703e+00
4.186000000000000000e+03 5.525834655761718750e+01 2.950601768493652344e+01 -1.417395710945129395e+00 1.029088869690895081e-01 -3.943460583686828613e-01 -9.194234013557434082e-01
4.187000000000000000e+03 5.671568298339843750e+01 2.796710014343261719e+01 -1.294323325157165527e+00 1.691888272762298584e-01 -3.375403285026550293e-01 -9.695562720298767090e-01
4.188000000000000000e+03 3.198647880554199219e+01 -3.023111343383789062e+00 4.582959413528442383e-01 -5.686876773834228516e-01 -3.311752900481224060e-02 -6.675923708826303482e-03
4.189000000000000000e+03 2.945317649841308594e+01 3.318270444869995117e+00 -1.527361035346984863e+00 -7.159614562988281250e-01 -6.729967594146728516e-01 -4.821210503578186035e-01
4.190000000000000000e+03 6.876889038085937500e+01 3.805122137069702148e+00 2.726170718669891357e-01 3.809996366500854492e+00 1.224784016609191895e+00 6.567246913909912109e-01
4.191000000000000000e+03 7.064320373535156250e+01 -1.471095681190490723e+00 1.546839326620101929e-01 4.134100437164306641e+00 1.286635398864746094e+00 4.743106067180633545e-01
4.192000000000000000e+03 1.070633983612060547e+01 6.292595386505126953e+00 2.627876996994018555e-01 1.574644893407821655e-01 1.260756552219390869e-01 -9.700486063957214355e-02
4.193000000000000000e+03 9.174165725708007812e+00 7.640861034393310547e+00 1.981049478054046631e-01 6.346913054585456848e-03 6.133555993437767029e-02 -2.512101642787456512e-02
4.194000000000000000e+03 7.262456512451171875e+01 2.552557373046875000e+01 5.513948798179626465e-01 4.309078216552734375e+00 1.458141922950744629e+00 1.874493360519409180e+00
4.195000000000000000e+03 3.244330596923828125e+01 -3.445535421371459961e+00 5.455198287963867188e-01 -5.779095292091369629e-01 -9.716923348605632782e-03 -3.677328303456306458e-02
4.196000000000000000e+03 3.527636718750000000e+01 -5.945151805877685547e+00 5.884667038917541504e-01 -5.592852234840393066e-01 8.754443377256393433e-03 -4.256732016801834106e-02
4.197000000000000000e+03 1.205384445190429688e+01 -7.662188053131103516e+00 -2.784676849842071533e-01 -4.068352580070495605e-01 -2.055908739566802979e-01 -5.941035747528076172e-01
4.198000000000000000e+03 9.288824081420898438e+00 1.612201309204101562e+01 1.466026809066534042e-02 2.782353945076465607e-02 1.274514198303222656e-02 -1.007698476314544678e-02
4.199000000000000000e+03 6.893213653564453125e+01 -4.173084259033203125e+00 1.729528903961181641e-01 3.742980003356933594e+00 1.174779891967773438e+00 4.533168673515319824e-01
4.200000000000000000e+03 7.049960327148437500e+01 -7.340432167053222656e+00 1.091848388314247131e-01 3.992668151855468750e+00 1.230555891990661621e+00 3.466223180294036865e-01
4.201000000000000000e+03 7.389547729492187500e+01 2.689863014221191406e+01 2.888874113559722900e-01 5.655350685119628906e+00 1.783271431922912598e+00 2.237841129302978516e+00
4.202000000000000000e+03 5.727316284179687500e+01 2.755243110656738281e+01 -1.220488429069519043e+00 1.906899660825729370e-01 -3.089395165443420410e-01 -9.623502492904663086e-01
4.203000000000000000e+03 6.174730300903320312e+01 2.726872634887695312e+01 -9.904860258102416992e-01 2.415997684001922607e-01 -2.246658653020858765e-01 -8.207668662071228027e-01
4.204000000000000000e+03 6.246404647827148438e+01 2.748637580871582031e+01 -1.010933637619018555e+00 2.330112010240554810e-01 -2.333767414093017578e-01 -7.812823057174682617e-01
4.205000000000000000e+03 7.202735137939453125e+01 2.097453308105468750e+01 6.880754232406616211e-01 4.630149364471435547e+00 1.595467448234558105e+00 1.505702733993530273e+00
4.206000000000000000e+03 3.852388000488281250e+01 3.275664901733398438e+01 9.538269042968750000e-02 9.769272059202194214e-02 5.792262405157089233e-02 8.477977663278579712e-02
4.207000000000000000e+03 8.506882667541503906e+00 -9.773460388183593750e+00 -1.027624681591987610e-01 -3.581698238849639893e-01 -1.382796913385391235e-01 -4.347498416900634766e-01
4.208000000000000000e+03 7.334611511230468750e+01 2.554582977294921875e+01 5.365713238716125488e-01 5.124228477478027344e+00 1.698239922523498535e+00 2.005192279815673828e+00
4.209000000000000000e+03 6.013916015625000000e+01 2.716967010498046875e+01 -1.061546087265014648e+00 2.349859476089477539e-01 -2.479680329561233521e-01 -8.990209102630615234e-01
4.210000000000000000e+03 6.092903518676757812e+01 2.722847938537597656e+01 -1.030686974525451660e+00 2.418181598186492920e-01 -2.366606444120407104e-01 -8.678171634674072266e-01
4.211000000000000000e+03 6.946525573730468750e+01 -1.057203102111816406e+01 1.047158762812614441e-01 3.761700868606567383e+00 1.159924983978271484e+00 3.140225112438201904e-01
4.212000000000000000e+03 7.007415008544921875e+01 -1.320439434051513672e+01 7.873187214136123657e-02 3.827940225601196289e+00 1.172001600265502930e+00 2.626181542873382568e-01
4.213000000000000000e+03 3.548984909057617188e+01 3.997649383544921875e+01 9.481398016214370728e-02 9.111692011356353760e-02 5.577927082777023315e-02 2.219688706099987030e-02
4.214000000000000000e+03 7.755679130554199219e+00 9.139399528503417969e+00 1.295948922634124756e-01 -5.323722586035728455e-02 2.290729805827140808e-02 6.132205482572317123e-03
4.215000000000000000e+03 3.833150100708007812e+01 -6.711632251739501953e+00 5.161045789718627930e-01 -4.795718491077423096e-01 1.095982734113931656e-02 7.313512265682220459e-03
4.216000000000000000e+03 3.763764953613281250e+01 -6.272186756134033203e+00 5.454994440078735352e-01 -5.157589316368103027e-01 8.922156877815723419e-03 -3.294058144092559814e-03
4.217000000000000000e+03 8.618514060974121094e+00 8.783539772033691406e+00 1.492969244718551636e-01 -1.627855352126061916e-03 4.430072009563446045e-02 -1.428601611405611038e-02
4.218000000000000000e+03 7.285301685333251953e+00 1.252073001861572266e+01 5.447028204798698425e-02 -4.343904554843902588e-02 3.309370949864387512e-03 -1.256894692778587341e-02
4.219000000000000000e+03 8.237498283386230469e+00 1.074633312225341797e+01 8.905161172151565552e-02 -5.122925154864788055e-03 2.517860755324363708e-02 -7.860408164560794830e-03
4.220000000000000000e+03 6.897000122070312500e+01 -1.822180938720703125e+01 6.099691987037658691e-02 3.584709882736206055e+00 1.093712091445922852e+00 2.201191335916519165e-01
4.221000000000000000e+03 6.862379455566406250e+01 -1.960824012756347656e+01 5.857435613870620728e-02 3.526305198669433594e+00 1.075463891029357910e+00 2.091656029224395752e-01
4.222000000000000000e+03 7.691301822662353516e+00 1.142550563812255859e+01 7.228091359138488770e-02 -2.776036784052848816e-02 1.335616409778594971e-02 -9.234345518052577972e-03
4.223000000000000000e+03 7.429138660430908203e+00 -1.418114376068115234e+01 1.605692319571971893e-02 -5.135769248008728027e-01 -1.492559909820556641e-01 -3.948247432708740234e-01
4.224000000000000000e+03 8.496728897094726562e+00 -1.405710029602050781e+01 3.848063573241233826e-02 -5.103702545166015625e-01 -1.415668725967407227e-01 -4.219507575035095215e-01
4.225000000000000000e+03 1.227314186096191406e+01 -1.351889514923095703e+01 9.080506116151809692e-02 -5.524755716323852539e-01 -1.385011523962020874e-01 -4.922598898410797119e-01
4.226000000000000000e+03 7.109339141845703125e+01 2.091281127929687500e+01 7.386649847030639648e-01 4.050491333007812500e+00 1.436746954917907715e+00 1.402097225189208984e+00
4.227000000000000000e+03 7.187289428710937500e+01 1.641371536254882812e+01 5.153436660766601562e-01 4.811605930328369141e+00 1.598084926605224609e+00 1.210298418998718262e+00
4.228000000000000000e+03 7.179871368408203125e+01 1.521505165100097656e+01 4.716868996620178223e-01 4.798852443695068359e+00 1.581161856651306152e+00 1.136037826538085938e+00
4.229000000000000000e+03 7.352224826812744141e+00 -1.301425552368164062e+01 2.821810543537139893e-03 -4.679402410984039307e-01 -1.395355314016342163e-01 -3.948166072368621826e-01
4.230000000000000000e+03 1.161062049865722656e+01 -1.250451374053955078e+01 3.427042812108993530e-02 -5.229100584983825684e-01 -1.465918868780136108e-01 -5.089129805564880371e-01
4.231000000000000000e+03 7.057991027832031250e+01 5.505227088928222656e+00 2.504563331604003906e-01 4.287546634674072266e+00 1.361400842666625977e+00 6.904962658882141113e-01
4.232000000000000000e+03 7.084086608886718750e+01 6.693461894989013672e+00 2.601754367351531982e-01 4.385810375213623047e+00 1.393795728683471680e+00 7.296171188354492188e-01
4.233000000000000000e+03 6.920606231689453125e+01 2.207833051681518555e+00 2.359258383512496948e-01 3.891714811325073242e+00 1.238292217254638672e+00 6.059415340423583984e-01
4.234000000000000000e+03 6.971056365966796875e+01 5.926852822303771973e-01 2.041099518537521362e-01 4.001447200775146484e+00 1.261667132377624512e+00 5.592041015625000000e-01
4.235000000000000000e+03 9.975934982299804688e+00 -2.536181640625000000e+01 9.613350033760070801e-02 -6.388484239578247070e-01 -1.628144830465316772e-01 -2.584185302257537842e-01
4.236000000000000000e+03 7.038698577880859375e+01 -2.985796451568603516e+00 1.513511836528778076e-01 4.041163444519042969e+00 1.257754445075988770e+00 4.577287435531616211e-01
4.237000000000000000e+03 4.200560760498046875e+01 -1.008662509918212891e+01 4.498431086540222168e-01 -2.047985494136810303e-01 7.351336628198623657e-02 2.445450611412525177e-02
4.238000000000000000e+03 3.811502838134765625e+01 3.608481597900390625e+01 1.082515865564346313e-01 8.767115324735641479e-02 5.877682566642761230e-02 6.310791522264480591e-02
4.239000000000000000e+03 7.201241302490234375e+01 2.203043556213378906e+01 7.142970561981201172e-01 4.499130249023437500e+00 1.564028143882751465e+00 1.555394768714904785e+00
4.240000000000000000e+03 6.784799957275390625e+01 -2.272419929504394531e+01 4.770649969577789307e-02 3.381978034973144531e+00 1.028905391693115234e+00 1.946317851543426514e-01
4.241000000000000000e+03 4.282789993286132812e+01 -1.332314109802246094e+01 3.590749800205230713e-01 -9.153478592634201050e-02 8.026205748319625854e-02 3.143825381994247437e-02
4.242000000000000000e+03 3.717231369018554688e+01 -5.699815273284912109e+00 5.228425860404968262e-01 -5.465165376663208008e-01 -7.102176547050476074e-03 6.818686611950397491e-03
4.243000000000000000e+03 8.503232955932617188e+00 2.061319160461425781e+01 -5.385968368500471115e-03 -2.930199354887008667e-02 -1.040638890117406845e-02 -1.825508475303649902e-02
4.244000000000000000e+03 8.609789848327636719e+00 2.177862358093261719e+01 -6.167804356664419174e-03 -2.876474894583225250e-02 -1.047976594418287277e-02 -1.826598867774009705e-02
4.245000000000000000e+03 6.996123504638671875e+01 -8.886229515075683594e+00 1.123302727937698364e-01 3.868212938308715820e+00 1.194162964820861816e+00 3.301405012607574463e-01
4.246000000000000000e+03 3.980926132202148438e+01 -7.669604778289794922e+00 5.003125667572021484e-01 -3.966161310672760010e-01 3.110892511904239655e-02 1.644283346831798553e-02
4.247000000000000000e+03 3.943644714355468750e+01 -8.593251228332519531e+00 5.164940357208251953e-01 -3.979900777339935303e-01 3.555119782686233521e-02 -6.207348778843879700e-04
4.248000000000000000e+03 8.434988021850585938e+00 -1.079062652587890625e+01 -8.019850403070449829e-02 -4.026506543159484863e-01 -1.448547542095184326e-01 -4.490088820457458496e-01
4.249000000000000000e+03 9.495833396911621094e+00 -1.085248374938964844e+01 -5.910727009177207947e-02 -4.278407990932464600e-01 -1.460844129323959351e-01 -4.806292057037353516e-01
4.250000000000000000e+03 3.908855819702148438e+01 -7.195229530334472656e+00 5.306298136711120605e-01 -4.395205676555633545e-01 2.733276970684528351e-02 5.691679660230875015e-03
4.251000000000000000e+03 7.003323364257812500e+01 1.873417472839355469e+01 6.946873664855957031e-01 3.710578441619873047e+00 1.321579694747924805e+00 1.188463687896728516e+00
4.252000000000000000e+03 7.093280792236328125e+01 1.760098457336425781e+01 6.195726990699768066e-01 4.277226924896240234e+00 1.469039797782897949e+00 1.234335541725158691e+00
4.253000000000000000e+03 1.043445968627929688e+01 2.544113540649414062e+01 -1.011794991791248322e-02 -3.785243025049567223e-03 -4.170957952737808228e-03 -7.606467232108116150e-03
4.254000000000000000e+03 8.974939346313476562e+00 2.431545066833496094e+01 -8.738539181649684906e-03 -3.088744543492794037e-02 -1.188779529184103012e-02 -1.523677911609411240e-02
4.255000000000000000e+03 7.122116088867187500e+01 9.114465713500976562e+00 2.982074916362762451e-01 4.541499137878417969e+00 1.451911926269531250e+00 8.203426599502563477e-01
4.256000000000000000e+03 3.366250991821289062e+01 -4.592240333557128906e+00 5.790945887565612793e-01 -5.650671720504760742e-01 4.208229947835206985e-03 -3.263805061578750610e-02
4.257000000000000000e+03 1.177543354034423828e+01 -1.874101829528808594e+01 1.446630656719207764e-01 -5.319716930389404297e-01 -1.161925792694091797e-01 -3.763349056243896484e-01
4.258000000000000000e+03 9.006514549255371094e+00 -1.750904273986816406e+01 8.145128935575485229e-02 -5.858423709869384766e-01 -1.513173282146453857e-01 -3.836223781108856201e-01
4.259000000000000000e+03 8.791095733642578125e+00 -1.633378601074218750e+01 7.797988504171371460e-02 -5.607557296752929688e-01 -1.448327600955963135e-01 -3.945993185043334961e-01
4.260000000000000000e+03 1.624837493896484375e+01 -1.758506202697753906e+01 2.183822691440582275e-01 -3.756993114948272705e-01 -4.719511047005653381e-02 -3.368612825870513916e-01
4.261000000000000000e+03 9.568502426147460938e+00 1.712110900878906250e+01 9.156304411590099335e-03 3.267470747232437134e-02 1.254930347204208374e-02 -9.651866741478443146e-03
4.262000000000000000e+03 8.355733871459960938e+00 1.631343460083007812e+01 1.349361054599285126e-02 -7.910982705652713776e-03 1.674788305535912514e-03 -1.777716726064682007e-02
4.263000000000000000e+03 6.929953765869140625e+01 -1.693103599548339844e+01 6.755769997835159302e-02 3.650366306304931641e+00 1.115377187728881836e+00 2.310117185115814209e-01
4.264000000000000000e+03 7.102612304687500000e+01 1.985607910156250000e+01 7.068497538566589355e-01 4.123575210571289062e+00 1.449127435684204102e+00 1.348266482353210449e+00
4.265000000000000000e+03 7.098666381835937500e+01 1.874177360534667969e+01 6.633560061454772949e-01 4.208885669708251953e+00 1.461672425270080566e+00 1.297185778617858887e+00
4.266000000000000000e+03 6.975697326660156250e+01 -6.501443386077880859e+00 1.364614218473434448e-01 3.874235153198242188e+00 1.203208923339843750e+00 3.814595639705657959e-01
4.267000000000000000e+03 6.956610870361328125e+01 -7.934059619903564453e+00 1.230990067124366760e-01 3.820886373519897461e+00 1.183195590972900391e+00 3.540984988212585449e-01
4.268000000000000000e+03 8.730906486511230469e+00 1.956589317321777344e+01 -2.068039495497941971e-03 -1.362839248031377792e-02 -4.708929918706417084e-03 -1.577835716307163239e-02
4.269000000000000000e+03 4.763714981079101562e+01 -2.173958396911621094e+01 6.252270191907882690e-02 4.993005394935607910e-01 1.685469746589660645e-01 9.969177842140197754e-02
4.270000000000000000e+03 4.352391052246093750e+01 -1.744169044494628906e+01 1.855928748846054077e-01 -8.843410760164260864e-03 5.302483960986137390e-02 6.852714717388153076e-02
4.271000000000000000e+03 7.063049316406250000e+01 -1.605352020263671875e+01 5.534464120864868164e-02 3.873201131820678711e+00 1.178563714027404785e+00 2.223711162805557251e-01
4.272000000000000000e+03 7.155268096923828125e+01 -6.577270984649658203e+00 9.300678223371505737e-02 4.211563110351562500e+00 1.291370987892150879e+00 3.407731652259826660e-01
4.273000000000000000e+03 7.041222381591796875e+01 1.171441555023193359e+01 4.109877347946166992e-01 4.276177406311035156e+00 1.406149625778198242e+00 9.399973154067993164e-01
4.274000000000000000e+03 7.027041625976562500e+01 1.051856231689453125e+01 3.780096471309661865e-01 4.236577987670898438e+00 1.384376287460327148e+00 8.865727782249450684e-01
4.275000000000000000e+03 9.498783111572265625e+00 -9.888221740722656250e+00 -1.238947585225105286e-01 -3.948578834533691406e-01 -1.556257903575897217e-01 -4.947675764560699463e-01
4.276000000000000000e+03 8.400566101074218750e+00 -1.186187362670898438e+01 -2.435027621686458588e-02 -4.399895071983337402e-01 -1.393019407987594604e-01 -4.379866421222686768e-01
4.277000000000000000e+03 9.357189178466796875e+00 1.866084480285644531e+01 1.692331512458622456e-03 1.129969954490661621e-02 3.897609421983361244e-03 -1.319202687591314316e-02
4.278000000000000000e+03 9.727376937866210938e+00 2.871643638610839844e+01 -9.955744259059429169e-03 -3.364334627985954285e-02 -1.307972706854343414e-02 -8.634147234261035919e-03
4.279000000000000000e+03 9.152372360229492188e+00 1.508665561676025391e+01 2.395459078252315521e-02 3.080905415117740631e-02 1.642909273505210876e-02 -1.194037683308124542e-02
4.280000000000000000e+03 4.813421630859375000e+01 -2.410212135314941406e+01 -1.621353626251220703e-02 5.729956626892089844e-01 1.670346409082412720e-01 1.158871725201606750e-01
4.281000000000000000e+03 1.647311973571777344e+01 -1.998866653442382812e+01 2.078302651643753052e-01 -3.170630335807800293e-01 -3.276983648538589478e-02 -3.076414167881011963e-01
4.282000000000000000e+03 4.980714797973632812e+01 -2.101461601257324219e+01 9.382615238428115845e-02 8.124892115592956543e-01 2.718946039676666260e-01 1.076193824410438538e-01
4.283000000000000000e+03 9.419041633605957031e+00 2.718409156799316406e+01 -9.467574767768383026e-03 -3.262332081794738770e-02 -1.262726821005344391e-02 -1.099647581577301025e-02
4.284000000000000000e+03 4.288246917724609375e+01 -1.623735809326171875e+01 2.209674865007400513e-01 -7.581827789545059204e-02 4.354476183652877808e-02 5.386339873075485229e-02
4.285000000000000000e+03 4.336109924316406250e+01 -1.449148941040039062e+01 3.057204782962799072e-01 -3.518156707286834717e-02 8.116167783737182617e-02 3.928843140602111816e-02
4.286000000000000000e+03 5.293054199218750000e+01 -2.499257850646972656e+01 8.026083000004291534e-03 1.317846179008483887e+00 3.977616727352142334e-01 1.695722043514251709e-01
4.287000000000000000e+03 6.744476318359375000e+01 -2.447184944152832031e+01 4.136306792497634888e-02 3.303989648818969727e+00 1.003605842590332031e+00 1.861570924520492554e-01
4.288000000000000000e+03 1.734497451782226562e+01 -2.920715522766113281e+01 2.135380804538726807e-01 -2.247150093317031860e-01 -3.353079780936241150e-03 -2.400630414485931396e-01
4.289000000000000000e+03 1.858141326904296875e+01 -3.295949935913085938e+01 2.288623303174972534e-01 -1.918010413646697998e-01 1.111838594079017639e-02 -2.024668008089065552e-01
4.290000000000000000e+03 6.990325927734375000e+01 -3.538795852661132812e+01 4.831184819340705872e-02 3.537438631057739258e+00 1.075725197792053223e+00 9.349799156188964844e-02
4.291000000000000000e+03 4.059868240356445312e+01 3.778299331665039062e+01 1.401215344667434692e-01 7.214511185884475708e-02 6.367999315261840820e-02 6.066040694713592529e-02
4.292000000000000000e+03 2.735194587707519531e+01 2.105677127838134766e+00 -1.584737062454223633e+00 -5.223181843757629395e-01 -6.321165561676025391e-01 -4.896669387817382812e-01
4.293000000000000000e+03 2.676383590698242188e+01 1.026808261871337891e+00 -1.086317181587219238e+00 -3.725392520427703857e-01 -4.376569390296936035e-01 -3.476776480674743652e-01
4.294000000000000000e+03 2.566191291809082031e+01 3.339632153511047363e-01 -6.643404364585876465e-01 -1.175522357225418091e-01 -2.345677912235260010e-01 -3.122951686382293701e-01
4.295000000000000000e+03 2.800784492492675781e+01 2.722537517547607422e+00 -1.694409251213073730e+00 -6.710985302925109863e-01 -7.096523046493530273e-01 -5.985316038131713867e-01
4.296000000000000000e+03 2.753291130065917969e+01 2.374737024307250977e+00 -1.652142643928527832e+00 -5.740579366683959961e-01 -6.678602099418640137e-01 -5.546495318412780762e-01
4.297000000000000000e+03 4.228979873657226562e+01 1.866494750976562500e+01 -9.453129172325134277e-01 -1.041523933410644531e+00 -5.960510373115539551e-01 -1.098146200180053711e+00
4.298000000000000000e+03 4.078743743896484375e+01 1.780020904541015625e+01 -1.000997304916381836e+00 -1.085963845252990723e+00 -6.260883808135986328e-01 -1.130615115165710449e+00
4.299000000000000000e+03 4.207821273803710938e+01 1.832598686218261719e+01 -9.411972761154174805e-01 -1.034122228622436523e+00 -5.925958156585693359e-01 -1.093777060508728027e+00
4.300000000000000000e+03 4.057520675659179688e+01 1.688051223754882812e+01 -9.812644124031066895e-01 -1.062610983848571777e+00 -6.131625771522521973e-01 -1.078915119171142578e+00
4.301000000000000000e+03 1.745192337036132812e+01 1.298406982421875000e+01 1.023546606302261353e-01 2.485154271125793457e-01 1.052610278129577637e-01 1.530387550592422485e-01
4.302000000000000000e+03 1.844051361083984375e+01 1.230704689025878906e+01 1.339257657527923584e-01 2.515977025032043457e-01 1.156570389866828918e-01 1.810823082923889160e-01
4.303000000000000000e+03 2.848768997192382812e+01 -4.567901492118835449e-01 -9.408720582723617554e-02 -4.423847198486328125e-01 -1.609415709972381592e-01 -9.552931040525436401e-02
4.304000000000000000e+03 1.370667171478271484e+01 8.986829757690429688e+00 9.400904923677444458e-02 3.822995424270629883e-01 1.428925842046737671e-01 1.040760874748229980e-01
4.305000000000000000e+03 2.710707664489746094e+01 2.175877571105957031e+01 8.564078062772750854e-02 1.499525010585784912e-01 7.067798823118209839e-02 1.185860782861709595e-01
4.306000000000000000e+03 4.400561523437500000e+01 2.015106773376464844e+01 -9.696394205093383789e-01 -1.017374396324157715e+00 -5.961041450500488281e-01 -1.064438343048095703e+00
4.307000000000000000e+03 4.834123611450195312e+01 2.469213676452636719e+01 -1.156696319580078125e+00 -7.954080700874328613e-01 -5.856313109397888184e-01 -1.059822082519531250e+00
4.308000000000000000e+03 4.771929168701171875e+01 2.421766853332519531e+01 -1.158362388610839844e+00 -8.464890122413635254e-01 -6.014554500579833984e-01 -1.072278380393981934e+00
4.309000000000000000e+03 2.875357055664062500e+01 3.467029333114624023e+00 -1.704673290252685547e+00 -8.090953826904296875e-01 -7.541306018829345703e-01 -6.616318225860595703e-01
4.310000000000000000e+03 2.398773765563964844e+01 1.818545341491699219e+01 1.084304749965667725e-01 1.739291101694107056e-01 8.470787853002548218e-02 1.386621892452239990e-01
4.311000000000000000e+03 4.092155456542968750e+01 1.685577583312988281e+01 -9.515247941017150879e-01 -1.031657457351684570e+00 -5.949546694755554199e-01 -1.059364318847656250e+00
4.312000000000000000e+03 4.232921600341796875e+01 1.763235473632812500e+01 -8.955792784690856934e-01 -9.818633794784545898e-01 -5.632327795028686523e-01 -1.040013790130615234e+00
4.313000000000000000e+03 2.904614830017089844e+01 3.206917047500610352e+00 -1.578734159469604492e+00 -7.245305776596069336e-01 -6.909794211387634277e-01 -5.236869454383850098e-01
4.314000000000000000e+03 2.925997161865234375e+01 3.767921686172485352e+00 -1.703089952468872070e+00 -8.298200964927673340e-01 -7.598730325698852539e-01 -6.454931497573852539e-01
4.315000000000000000e+03 2.621001625061035156e+01 1.976178169250488281e+01 1.048332750797271729e-01 1.600547134876251221e-01 7.946639508008956909e-02 1.306715607643127441e-01
4.316000000000000000e+03 3.733713531494140625e+01 1.319245433807373047e+01 -1.012367129325866699e+00 -1.135938048362731934e+00 -6.444915533065795898e-01 -1.027729034423828125e+00
4.317000000000000000e+03 2.278880310058593750e+01 1.760899353027343750e+01 1.029979586601257324e-01 1.832800507545471191e-01 8.588340133428573608e-02 1.393450051546096802e-01
4.318000000000000000e+03 1.201903724670410156e+01 7.401014328002929688e+00 1.432063728570938110e-01 3.642649352550506592e-01 1.522413939237594604e-01 -3.575435653328895569e-02
4.319000000000000000e+03 1.343485927581787109e+01 6.666201114654541016e+00 1.156486347317695618e-01 6.036032438278198242e-01 2.157755643129348755e-01 8.608102053403854370e-02
4.320000000000000000e+03 4.471701812744140625e+01 2.127215385437011719e+01 -1.043316364288330078e+00 -1.026168107986450195e+00 -6.208453178405761719e-01 -1.077999830245971680e+00
4.321000000000000000e+03 4.418876266479492188e+01 2.127435493469238281e+01 -1.072420239448547363e+00 -1.070380330085754395e+00 -6.428402066230773926e-01 -1.109851241111755371e+00
4.322000000000000000e+03 2.687607955932617188e+01 2.104112625122070312e+01 9.286573529243469238e-02 1.534764766693115234e-01 7.390266656875610352e-02 1.227913647890090942e-01
4.323000000000000000e+03 4.631747436523437500e+01 2.318417167663574219e+01 -1.152227878570556641e+00 -9.664330482482910156e-01 -6.355982422828674316e-01 -1.084980964660644531e+00
4.324000000000000000e+03 5.044301986694335938e+01 2.761050987243652344e+01 -1.261643767356872559e+00 -6.433663368225097656e-01 -5.715030431747436523e-01 -1.010231137275695801e+00
4.325000000000000000e+03 5.392946243286132812e+01 2.856275177001953125e+01 -1.329539299011230469e+00 -4.920638352632522583e-02 -4.136237204074859619e-01 -9.286910295486450195e-01
4.326000000000000000e+03 2.741451644897460938e+01 -1.858979165554046631e-01 -1.838891804218292236e-01 -2.895850837230682373e-01 -1.420422792434692383e-01 -8.152651041746139526e-02
4.327000000000000000e+03 4.496333312988281250e+01 2.153288078308105469e+01 -1.057690382003784180e+00 -1.016516089439392090e+00 -6.222619414329528809e-01 -1.076005458831787109e+00
4.328000000000000000e+03 4.496114349365234375e+01 2.203783607482910156e+01 -1.108829855918884277e+00 -1.049981117248535156e+00 -6.476432681083679199e-01 -1.103466153144836426e+00
4.329000000000000000e+03 2.073880767822265625e+01 1.524413871765136719e+01 1.169894114136695862e-01 2.073738873004913330e-01 9.730898588895797729e-02 1.534010618925094604e-01
4.330000000000000000e+03 3.652661132812500000e+01 1.279953384399414062e+01 -1.052813768386840820e+00 -1.165811300277709961e+00 -6.655875444412231445e-01 -1.057241916656494141e+00
4.331000000000000000e+03 2.644467353820800781e+01 2.075481224060058594e+01 9.320458769798278809e-02 1.560071110725402832e-01 7.476351410150527954e-02 1.237027794122695923e-01
4.332000000000000000e+03 5.163552093505859375e+01 2.777608489990234375e+01 -1.265372395515441895e+00 -4.293487071990966797e-01 -5.084163546562194824e-01 -9.568828940391540527e-01
4.333000000000000000e+03 5.130450057983398438e+01 2.823311614990234375e+01 -1.280449271202087402e+00 -5.070188641548156738e-01 -5.362404584884643555e-01 -9.689931273460388184e-01
4.334000000000000000e+03 3.750857543945312500e+01 1.356023788452148438e+01 -1.015284419059753418e+00 -1.149812698364257812e+00 -6.495290994644165039e-01 -1.041800498962402344e+00
4.335000000000000000e+03 4.964390945434570312e+01 2.676299667358398438e+01 -1.232359766960144043e+00 -7.391819357872009277e-01 -5.914624929428100586e-01 -1.047504782676696777e+00
4.336000000000000000e+03 2.646405220031738281e+01 7.833669185638427734e-01 -9.594147801399230957e-01 -2.787559628486633301e-01 -3.714512288570404053e-01 -2.488227039575576782e-01
4.337000000000000000e+03 5.213467025756835938e+01 2.825911903381347656e+01 -1.288500308990478516e+00 -3.473261594772338867e-01 -4.907479584217071533e-01 -9.397279024124145508e-01
4.338000000000000000e+03 4.000728988647460938e+01 1.628197288513183594e+01 -9.845868349075317383e-01 -1.083077073097229004e+00 -6.202991604804992676e-01 -1.063916444778442383e+00
4.339000000000000000e+03 4.322900390625000000e+01 2.021261596679687500e+01 -1.008591055870056152e+00 -1.076881170272827148e+00 -6.256416440010070801e-01 -1.112387537956237793e+00
4.340000000000000000e+03 4.420154571533203125e+01 2.078863334655761719e+01 -1.022879242897033691e+00 -1.038899540901184082e+00 -6.185336112976074219e-01 -1.083432912826538086e+00
4.341000000000000000e+03 2.516931533813476562e+01 1.885102462768554688e+01 1.097629368305206299e-01 1.668017804622650146e-01 8.296941965818405151e-02 1.354857087135314941e-01
4.342000000000000000e+03 3.765704727172851562e+01 1.391330623626708984e+01 -1.019236326217651367e+00 -1.160572052001953125e+00 -6.539425253868103027e-01 -1.054774403572082520e+00
4.343000000000000000e+03 4.520511245727539062e+01 2.179279327392578125e+01 -1.070086121559143066e+00 -1.008649349212646484e+00 -6.236206889152526855e-01 -1.072971701622009277e+00
4.344000000000000000e+03 3.207012176513671875e+01 2.730439376831054688e+01 7.521496713161468506e-02 1.245283037424087524e-01 5.992298200726509094e-02 9.662762284278869629e-02
4.345000000000000000e+03 3.127925682067871094e+01 2.611830329895019531e+01 7.560677826404571533e-02 1.271336823701858521e-01 6.082214042544364929e-02 1.015316918492317200e-01
4.346000000000000000e+03 3.775651931762695312e+01 1.425974750518798828e+01 -1.026591420173645020e+00 -1.176717758178710938e+00 -6.609928011894226074e-01 -1.069038510322570801e+00
4.347000000000000000e+03 3.835205078125000000e+01 1.479525947570800781e+01 -1.015966296195983887e+00 -1.162205815315246582e+00 -6.534516215324401855e-01 -1.063418030738830566e+00
4.348000000000000000e+03 3.814867019653320312e+01 1.503520870208740234e+01 -1.034135222434997559e+00 -1.194742321968078613e+00 -6.686632633209228516e-01 -1.089899063110351562e+00
4.349000000000000000e+03 5.210382461547851562e+01 2.776584053039550781e+01 -1.266585707664489746e+00 -3.360078036785125732e-01 -4.807780385017395020e-01 -9.429831504821777344e-01
4.350000000000000000e+03 2.041349411010742188e+01 1.487408638000488281e+01 1.198926866054534912e-01 2.111788243055343628e-01 9.932145476341247559e-02 1.557661890983581543e-01
4.351000000000000000e+03 2.029543495178222656e+01 1.454137325286865234e+01 1.232161894440650940e-01 2.138208001852035522e-01 1.011110991239547729e-01 1.596173197031021118e-01
4.352000000000000000e+03 1.561675262451171875e+01 1.016290855407714844e+01 1.158090010285377502e-01 3.297941088676452637e-01 1.336809396743774414e-01 1.693880259990692139e-01
4.353000000000000000e+03 1.453184604644775391e+01 1.051167869567871094e+01 8.738561719655990601e-02 3.183052837848663330e-01 1.217072680592536926e-01 1.202075853943824768e-01
4.354000000000000000e+03 3.304687500000000000e+01 2.790408134460449219e+01 7.777871936559677124e-02 1.220961809158325195e-01 5.996247008442878723e-02 9.510137140750885010e-02
4.355000000000000000e+03 3.244344329833984375e+01 2.785845565795898438e+01 7.523097097873687744e-02 1.231148615479469299e-01 5.950375273823738098e-02 9.461322426795959473e-02
4.356000000000000000e+03 3.860593032836914062e+01 1.496473979949951172e+01 -1.007386207580566406e+00 -1.148198962211608887e+00 -6.466755270957946777e-01 -1.058187723159790039e+00
4.357000000000000000e+03 4.270439529418945312e+01 1.929340934753417969e+01 -9.651728868484497070e-01 -1.056213378906250000e+00 -6.064158678054809570e-01 -1.105063796043395996e+00
4.358000000000000000e+03 5.098017883300781250e+01 2.757093238830566406e+01 -1.257051706314086914e+00 -5.417646765708923340e-01 -5.396448969841003418e-01 -9.798039197921752930e-01
4.359000000000000000e+03 3.379016494750976562e+01 3.039468765258789062e+01 7.500985264778137207e-02 1.172225698828697205e-01 5.766972526907920837e-02 8.433469384908676147e-02
4.360000000000000000e+03 3.365700149536132812e+01 2.916508102416992188e+01 7.680063694715499878e-02 1.196126341819763184e-01 5.892398208379745483e-02 9.000633656978607178e-02
4.361000000000000000e+03 4.603600311279296875e+01 2.298218154907226562e+01 -1.150287032127380371e+00 -9.901714920997619629e-01 -6.421375274658203125e-01 -1.087754726409912109e+00
4.362000000000000000e+03 4.823389434814453125e+01 2.422485923767089844e+01 -1.130827307701110840e+00 -7.840653061866760254e-01 -5.744677782058715820e-01 -1.042797565460205078e+00
4.363000000000000000e+03 3.647156524658203125e+01 1.246073150634765625e+01 -1.042868733406066895e+00 -1.150224924087524414e+00 -6.579281091690063477e-01 -1.037275791168212891e+00
4.364000000000000000e+03 3.929946899414062500e+01 1.590126991271972656e+01 -1.011966943740844727e+00 -1.132021784782409668e+00 -6.431966423988342285e-01 -1.073937773704528809e+00
4.365000000000000000e+03 4.179975509643554688e+01 1.771952438354492188e+01 -9.325418472290039062e-01 -1.019792318344116211e+00 -5.857002735137939453e-01 -1.074786424636840820e+00
4.366000000000000000e+03 2.454180526733398438e+01 1.890226936340332031e+01 1.030016466975212097e-01 1.692144274711608887e-01 8.166482299566268921e-02 1.332497000694274902e-01
4.367000000000000000e+03 3.889122009277343750e+01 1.514588737487792969e+01 -9.991829991340637207e-01 -1.130750417709350586e+00 -6.389800310134887695e-01 -1.050434708595275879e+00
4.368000000000000000e+03 2.224242973327636719e+01 1.728708648681640625e+01 1.015648171305656433e-01 1.877627670764923096e-01 8.679828047752380371e-02 1.392961889505386353e-01
4.369000000000000000e+03 2.155143928527832031e+01 1.589926528930664062e+01 1.157262697815895081e-01 1.997563093900680542e-01 9.464477002620697021e-02 1.504768729209899902e-01
4.370000000000000000e+03 4.544974517822265625e+01 2.204460906982421875e+01 -1.081843495368957520e+00 -1.000262260437011719e+00 -6.246317028999328613e-01 -1.071808218955993652e+00
4.371000000000000000e+03 5.374924850463867188e+01 2.927676582336425781e+01 -1.354938507080078125e+00 -6.850466132164001465e-02 -4.270329475402832031e-01 -9.069947004318237305e-01
4.372000000000000000e+03 4.934640502929687500e+01 2.591482734680175781e+01 -1.191800117492675781e+00 -7.351703047752380371e-01 -5.780911445617675781e-01 -1.046849608421325684e+00
4.373000000000000000e+03 2.599974822998046875e+01 2.016831588745117188e+01 9.750112146139144897e-02 1.593402624130249023e-01 7.705241441726684570e-02 1.266749203205108643e-01
4.374000000000000000e+03 2.588628196716308594e+01 1.988920974731445312e+01 1.006895899772644043e-01 1.610030978918075562e-01 7.850780338048934937e-02 1.286687850952148438e-01
4.375000000000000000e+03 5.115770721435546875e+01 2.720780944824218750e+01 -1.240640878677368164e+00 -4.898764193058013916e-01 -5.191552042961120605e-01 -9.703183770179748535e-01
4.376000000000000000e+03 4.989300537109375000e+01 2.649314117431640625e+01 -1.210889697074890137e+00 -6.786155104637145996e-01 -5.668515563011169434e-01 -1.026538014411926270e+00
4.377000000000000000e+03 5.020107650756835938e+01 2.678525924682617188e+01 -1.224681854248046875e+00 -6.437019705772399902e-01 -5.605151653289794922e-01 -1.011915564537048340e+00
4.378000000000000000e+03 2.657265472412109375e+01 -1.908710971474647522e-02 -3.200882971286773682e-01 -2.309686690568923950e-01 -1.653170883655548096e-01 -2.022922933101654053e-01
4.379000000000000000e+03 4.289434432983398438e+01 1.959499168395996094e+01 -9.775453209877014160e-01 -1.066111683845520020e+00 -6.130971312522888184e-01 -1.108651757240295410e+00
4.380000000000000000e+03 4.133106613159179688e+01 1.727688407897949219e+01 -9.448291659355163574e-01 -1.027742624282836914e+00 -5.917715430259704590e-01 -1.070482373237609863e+00
4.381000000000000000e+03 3.990879440307617188e+01 1.668139076232910156e+01 -1.011110782623291016e+00 -1.108665227890014648e+00 -6.359328031539916992e-01 -1.093114376068115234e+00
4.382000000000000000e+03 2.087350273132324219e+01 1.549318122863769531e+01 1.142365857958793640e-01 2.054380178451538086e-01 9.590238332748413086e-02 1.503605842590332031e-01
4.383000000000000000e+03 2.560601234436035156e+01 1.965332031250000000e+01 1.018498167395591736e-01 1.628286540508270264e-01 7.940354198217391968e-02 1.296787410974502563e-01
4.384000000000000000e+03 4.446392059326171875e+01 2.102210998535156250e+01 -1.031350374221801758e+00 -1.032649040222167969e+00 -6.191998124122619629e-01 -1.078819274902343750e+00
4.385000000000000000e+03 2.336191558837890625e+01 1.794786643981933594e+01 1.045815199613571167e-01 1.788208633661270142e-01 8.502071350812911987e-02 1.385424882173538208e-01
4.386000000000000000e+03 2.803104782104492188e+01 2.309782028198242188e+01 7.812196016311645508e-02 1.439550518989562988e-01 6.662309914827346802e-02 1.126458346843719482e-01
4.387000000000000000e+03 2.812313652038574219e+01 2.263328361511230469e+01 8.257862925529479980e-02 1.442117989063262939e-01 6.803712993860244751e-02 1.152808070182800293e-01
4.388000000000000000e+03 3.919509887695312500e+01 1.533684444427490234e+01 -9.899751543998718262e-01 -1.111719489097595215e+00 -6.305084228515625000e-01 -1.045528531074523926e+00
4.389000000000000000e+03 3.951317977905273438e+01 1.552718162536621094e+01 -9.791301488876342773e-01 -1.091040134429931641e+00 -6.210510730743408203e-01 -1.038188934326171875e+00
4.390000000000000000e+03 3.604677200317382812e+01 1.216160202026367188e+01 -1.063115000724792480e+00 -1.157585144042968750e+00 -6.662100553512573242e-01 -1.045150160789489746e+00
4.391000000000000000e+03 4.780851364135742188e+01 2.368814086914062500e+01 -1.110240459442138672e+00 -8.025799989700317383e-01 -5.738461613655090332e-01 -1.034804821014404297e+00
4.392000000000000000e+03 4.039788818359375000e+01 1.639403343200683594e+01 -9.602982997894287109e-01 -1.051781177520751953e+00 -6.036238670349121094e-01 -1.051541447639465332e+00
4.393000000000000000e+03 3.963095092773437500e+01 1.612058448791503906e+01 -1.001679301261901855e+00 -1.109592080116271973e+00 -6.333814263343811035e-01 -1.070262312889099121e+00
4.394000000000000000e+03 2.889628791809082031e+01 2.373779869079589844e+01 7.718394696712493896e-02 1.391295790672302246e-01 6.489405781030654907e-02 1.109727993607521057e-01
4.395000000000000000e+03 2.805665779113769531e+01 2.359078025817871094e+01 7.392058521509170532e-02 1.425190865993499756e-01 6.493189930915832520e-02 1.099127605557441711e-01
4.396000000000000000e+03 1.875591659545898438e+01 1.413120651245117188e+01 1.063770949840545654e-01 2.248812019824981689e-01 9.937749058008193970e-02 1.516904532909393311e-01
4.397000000000000000e+03 2.046903038024902344e+01 1.425809192657470703e+01 1.309764087200164795e-01 2.163128405809402466e-01 1.041867733001708984e-01 1.649712771177291870e-01
4.398000000000000000e+03 3.403372192382812500e+01 9.227134704589843750e+00 -1.090046048164367676e+00 -1.063554644584655762e+00 -6.460801959037780762e-01 -9.575039148330688477e-01
4.399000000000000000e+03 3.295774841308593750e+01 2.854533386230468750e+01 7.509168237447738647e-02 1.214679926633834839e-01 5.896790325641632080e-02 9.197126328945159912e-02
4.400000000000000000e+03 4.570930862426757812e+01 2.228021430969238281e+01 -1.092027783393859863e+00 -9.843159914016723633e-01 -6.229031085968017578e-01 -1.068838596343994141e+00
4.401000000000000000e+03 4.624970626831054688e+01 2.270418167114257812e+01 -1.111222863197326660e+00 -9.501887559890747070e-01 -6.184234619140625000e-01 -1.061320185661315918e+00
4.402000000000000000e+03 2.117366218566894531e+01 1.609576034545898438e+01 1.076335906982421875e-01 2.000740766525268555e-01 9.231229871511459351e-02 1.452575474977493286e-01
4.403000000000000000e+03 2.101461982727050781e+01 1.577882099151611328e+01 1.113354042172431946e-01 2.023543864488601685e-01 9.410694241523742676e-02 1.482240855693817139e-01
4.404000000000000000e+03 1.597738170623779297e+01 1.061325359344482422e+01 1.152684167027473450e-01 3.115015625953674316e-01 1.280309855937957764e-01 1.695723682641983032e-01
4.405000000000000000e+03 3.601897048950195312e+01 1.181651210784912109e+01 -1.046378254890441895e+00 -1.132124423980712891e+00 -6.535508036613464355e-01 -1.018364191055297852e+00
4.406000000000000000e+03 3.686134338378906250e+01 1.278968143463134766e+01 -1.025075316429138184e+00 -1.143165111541748047e+00 -6.504721045494079590e-01 -1.032220005989074707e+00
4.407000000000000000e+03 4.746460342407226562e+01 2.313858985900878906e+01 -1.083031415939331055e+00 -8.177233338356018066e-01 -5.702264308929443359e-01 -1.020998120307922363e+00
4.408000000000000000e+03 4.648882675170898438e+01 2.290554618835449219e+01 -1.116011857986450195e+00 -9.317982792854309082e-01 -6.143430471420288086e-01 -1.060058951377868652e+00
4.409000000000000000e+03 2.137689590454101562e+01 1.703159904479980469e+01 9.532250463962554932e-02 1.924830228090286255e-01 8.634165674448013306e-02 1.357356756925582886e-01
4.410000000000000000e+03 2.985666465759277344e+01 2.451636123657226562e+01 7.655984908342361450e-02 1.337851881980895996e-01 6.310351192951202393e-02 1.085869446396827698e-01
4.411000000000000000e+03 5.447216033935546875e+01 2.943762397766113281e+01 -1.386031985282897949e+00 2.728755958378314972e-02 -4.076233208179473877e-01 -9.096635580062866211e-01
4.412000000000000000e+03 9.112288475036621094e+00 1.055155086517333984e+01 9.815202653408050537e-02 4.716460034251213074e-02 4.359498992562294006e-02 -1.691934466361999512e-02
4.413000000000000000e+03 1.405990695953369141e+01 8.945110321044921875e+00 1.009928584098815918e-01 3.957720994949340820e-01 1.490294784307479858e-01 1.244675740599632263e-01
4.414000000000000000e+03 3.431083297729492188e+01 8.834930419921875000e+00 -1.056196212768554688e+00 -1.018337607383728027e+00 -6.223601698875427246e-01 -9.028517603874206543e-01
4.415000000000000000e+03 7.373788452148437500e+01 2.856636238098144531e+01 -6.557052582502365112e-02 5.013132095336914062e+00 1.484268426895141602e+00 2.486303567886352539e+00
4.416000000000000000e+03 1.748987770080566406e+01 1.174795627593994141e+01 1.262369453907012939e-01 2.699264585971832275e-01 1.188490167260169983e-01 1.773485839366912842e-01
4.417000000000000000e+03 1.634551048278808594e+01 1.101538276672363281e+01 1.161482110619544983e-01 2.969581782817840576e-01 1.239319145679473877e-01 1.700382977724075317e-01
4.418000000000000000e+03 2.506101036071777344e+01 1.304612994194030762e+00 -1.666190266609191895e+00 -1.785415858030319214e-01 -5.534195303916931152e-01 -6.037241816520690918e-01
4.419000000000000000e+03 5.503020095825195312e+01 3.026037216186523438e+01 -1.424073934555053711e+00 9.258610010147094727e-02 -3.994463682174682617e-01 -8.782267570495605469e-01
4.420000000000000000e+03 3.330895614624023438e+01 5.564644336700439453e+00 -1.056773900985717773e+00 -7.650803923606872559e-01 -5.465562939643859863e-01 -6.399503350257873535e-01
4.421000000000000000e+03 3.451878356933593750e+01 6.920270919799804688e+00 -9.695367813110351562e-01 -8.428167104721069336e-01 -5.437060594558715820e-01 -7.077968120574951172e-01
4.422000000000000000e+03 1.287449073791503906e+01 6.239684104919433594e+00 1.431930065155029297e-01 6.096215248107910156e-01 2.258443683385848999e-01 -4.845442716032266617e-03
4.423000000000000000e+03 1.513714790344238281e+01 1.011205101013183594e+01 1.079436615109443665e-01 3.316757977008819580e-01 1.318858414888381958e-01 1.539997607469558716e-01
4.424000000000000000e+03 3.232985687255859375e+01 4.689289569854736328e+00 -1.165766835212707520e+00 -7.099846005439758301e-01 -5.627254247665405273e-01 -5.704124569892883301e-01
4.425000000000000000e+03 3.283478546142578125e+01 5.110877037048339844e+00 -1.109660983085632324e+00 -7.350859642028808594e-01 -5.534241199493408203e-01 -6.074466109275817871e-01
4.426000000000000000e+03 1.634308052062988281e+01 1.138999843597412109e+01 1.097028777003288269e-01 2.867803871631622314e-01 1.189449802041053772e-01 1.611863523721694946e-01
4.427000000000000000e+03 1.551388740539550781e+01 1.060674667358398438e+01 1.072356775403022766e-01 3.119674324989318848e-01 1.257609277963638306e-01 1.553181111812591553e-01
4.428000000000000000e+03 2.742456626892089844e+01 2.365035438537597656e+01 6.949886679649353027e-02 1.446630060672760010e-01 6.424856185913085938e-02 1.076570600271224976e-01
4.429000000000000000e+03 3.023856353759765625e+01 4.049582004547119141e+00 -1.543645381927490234e+00 -7.669963240623474121e-01 -6.931925415992736816e-01 -5.941172838211059570e-01
4.430000000000000000e+03 3.122568702697753906e+01 2.650796699523925781e+01 7.373361289501190186e-02 1.270983219146728516e-01 6.024958193302154541e-02 9.955984354019165039e-02
4.431000000000000000e+03 1.372031593322753906e+01 7.378314971923828125e+00 1.132235750555992126e-01 5.139171481132507324e-01 1.881422251462936401e-01 1.219121441245079041e-01
4.432000000000000000e+03 3.092749595642089844e+01 3.909510612487792969e+00 -1.352205991744995117e+00 -7.108074426651000977e-01 -6.189040541648864746e-01 -4.968557953834533691e-01
4.433000000000000000e+03 3.021916961669921875e+01 2.641011619567871094e+01 6.899761408567428589e-02 1.295994669198989868e-01 5.957912653684616089e-02 9.874008595943450928e-02
4.434000000000000000e+03 3.083260154724121094e+01 -3.862198814749717712e-02 -2.033055871725082397e-01 -5.571655035018920898e-01 -2.281413376331329346e-01 1.626243442296981812e-02
4.435000000000000000e+03 3.092442893981933594e+01 4.362761497497558594e+00 -1.411345124244689941e+00 -7.350758314132690430e-01 -6.439262628555297852e-01 -6.015437841415405273e-01
4.436000000000000000e+03 3.386129760742187500e+01 8.544347763061523438e+00 -1.078541278839111328e+00 -1.026211500167846680e+00 -6.314258575439453125e-01 -9.202466011047363281e-01
4.437000000000000000e+03 3.471549606323242188e+01 9.103027343750000000e+00 -1.030296802520751953e+00 -1.013969659805297852e+00 -6.132799386978149414e-01 -8.978162407875061035e-01
4.438000000000000000e+03 2.832235336303710938e+01 7.419060170650482178e-02 -3.254168033599853516e-01 -4.078951776027679443e-01 -2.199935913085937500e-01 -4.702712967991828918e-02
4.439000000000000000e+03 2.826707077026367188e+01 5.687052011489868164e-01 -6.699588298797607422e-01 -4.494173526763916016e-01 -3.358128666877746582e-01 -1.598572582006454468e-01
4.440000000000000000e+03 1.225078678131103516e+01 6.564500808715820312e+00 1.647920608520507812e-01 4.622532129287719727e-01 1.881135851144790649e-01 -6.106474623084068298e-02
4.441000000000000000e+03 7.380441284179687500e+01 2.763750839233398438e+01 1.928124576807022095e-01 5.395132541656494141e+00 1.676383614540100098e+00 2.323728561401367188e+00
4.442000000000000000e+03 7.193338775634765625e+01 2.777004623413085938e+01 1.976254731416702271e-01 2.881693363189697266e+00 9.237957000732421875e-01 1.591861605644226074e+00
4.443000000000000000e+03 7.449195098876953125e+01 3.046958160400390625e+01 -7.324971556663513184e-01 5.589402675628662109e+00 1.457071661949157715e+00 3.340617179870605469e+00
4.444000000000000000e+03 7.405224609375000000e+01 2.918907165527343750e+01 -2.639692723751068115e-01 5.262599468231201172e+00 1.499589085578918457e+00 2.683881998062133789e+00
4.445000000000000000e+03 2.996210670471191406e+01 3.991802215576171875e+00 -1.542898058891296387e+00 -7.692676186561584473e-01 -6.936497092247009277e-01 -5.766602158546447754e-01
4.446000000000000000e+03 2.949331283569335938e+01 2.495317459106445312e+01 7.257701456546783447e-02 1.346289813518524170e-01 6.216179952025413513e-02 1.058965623378753662e-01
4.447000000000000000e+03 2.914551162719726562e+01 2.430834579467773438e+01 7.460085302591323853e-02 1.369158327579498291e-01 6.345500797033309937e-02 1.084915250539779663e-01
4.448000000000000000e+03 3.466256332397460938e+01 3.079361915588378906e+01 7.824829220771789551e-02 1.147988587617874146e-01 5.791414529085159302e-02 8.377262204885482788e-02
4.449000000000000000e+03 3.297393798828125000e+01 3.107931709289550781e+01 6.971956789493560791e-02 1.165639832615852356e-01 5.588506534695625305e-02 7.899573445320129395e-02
4.450000000000000000e+03 3.378210067749023438e+01 6.429541110992431641e+00 -1.022519826889038086e+00 -8.373136520385742188e-01 -5.579500794410705566e-01 -7.105596065521240234e-01
4.451000000000000000e+03 3.035443878173828125e+01 2.602323341369628906e+01 7.142343372106552124e-02 1.300517469644546509e-01 6.044255197048187256e-02 1.012304574251174927e-01
4.452000000000000000e+03 2.989999580383300781e+01 2.519867515563964844e+01 7.299759238958358765e-02 1.326718032360076904e-01 6.170081719756126404e-02 1.052886769175529480e-01
4.453000000000000000e+03 3.396078491210937500e+01 7.821851730346679688e+00 -1.042901158332824707e+00 -9.579104185104370117e-01 -6.002435088157653809e-01 -8.468728661537170410e-01
4.454000000000000000e+03 7.135330963134765625e+01 2.815974807739257812e+01 6.091337185353040695e-03 2.140395879745483398e+00 6.439461708068847656e-01 1.279266715049743652e+00
4.455000000000000000e+03 3.060501670837402344e+01 -8.661047816276550293e-01 4.498216137290000916e-02 -5.289584994316101074e-01 -1.451929062604904175e-01 1.893723011016845703e-02
4.456000000000000000e+03 7.506608581542968750e+01 2.965724945068359375e+01 -8.443245291709899902e-01 7.634726047515869141e+00 2.037120342254638672e+00 3.164991855621337891e+00
4.457000000000000000e+03 7.495460510253906250e+01 3.013483810424804688e+01 -8.914152383804321289e-01 7.316679954528808594e+00 1.927579402923583984e+00 3.419441223144531250e+00
4.458000000000000000e+03 7.423196411132812500e+01 2.985892868041992188e+01 -5.415254235267639160e-01 5.349059581756591797e+00 1.442260265350341797e+00 2.963968515396118164e+00
4.459000000000000000e+03 1.800425720214843750e+01 1.219057559967041016e+01 1.272897422313690186e-01 2.554865479469299316e-01 1.148328855633735657e-01 1.769924163818359375e-01
4.460000000000000000e+03 3.091430091857910156e+01 -1.436612725257873535e+00 2.101233750581741333e-01 -5.559120774269104004e-01 -1.037366092205047607e-01 1.863264478743076324e-02
4.461000000000000000e+03 1.273264789581298828e+01 6.709763526916503906e+00 1.346460431814193726e-01 5.286495089530944824e-01 1.989886760711669922e-01 -6.941230967640876770e-03
4.462000000000000000e+03 7.137885284423828125e+01 2.754174041748046875e+01 2.262266725301742554e-01 2.440846443176269531e+00 8.001219034194946289e-01 1.380987167358398438e+00
4.463000000000000000e+03 2.923321533203125000e+01 -8.108755350112915039e-01 5.551191419363021851e-02 -4.919433891773223877e-01 -1.309294402599334717e-01 -3.976527974009513855e-02
4.464000000000000000e+03 3.528669357299804688e+01 1.104522800445556641e+01 -1.069223046302795410e+00 -1.121617674827575684e+00 -6.572521924972534180e-01 -1.010614991188049316e+00
4.465000000000000000e+03 3.392538070678710938e+01 6.823948383331298828e+00 -1.026208519935607910e+00 -8.633180260658264160e-01 -5.668579936027526855e-01 -7.473726272583007812e-01
4.466000000000000000e+03 3.533995819091796875e+01 1.064708805084228516e+01 -1.048739433288574219e+00 -1.087062597274780273e+00 -6.407406330108642578e-01 -9.758613109588623047e-01
4.467000000000000000e+03 3.258097457885742188e+01 2.890081787109375000e+01 7.163155823945999146e-02 1.221142485737800598e-01 5.812374129891395569e-02 9.006948769092559814e-02
4.468000000000000000e+03 4.003244781494140625e+01 3.603089523315429688e+01 1.218860372900962830e-01 8.122379332780838013e-02 6.093294546008110046e-02 7.229967415332794189e-02
4.469000000000000000e+03 3.609575271606445312e+01 3.295307540893554688e+01 8.367328345775604248e-02 1.064261645078659058e-01 5.702983587980270386e-02 7.757958769798278809e-02
4.470000000000000000e+03 5.405201721191406250e+01 2.969865608215332031e+01 -1.374937653541564941e+00 -2.009665779769420624e-02 -4.185102880001068115e-01 -8.933891654014587402e-01
4.471000000000000000e+03 3.198501205444335938e+01 2.807895088195800781e+01 7.155618071556091309e-02 1.239569932222366333e-01 5.865395441651344299e-02 9.274321049451828003e-02
4.472000000000000000e+03 3.434417724609375000e+01 3.033088684082031250e+01 7.689841836690902710e-02 1.165014132857322693e-01 5.801995098590850830e-02 8.535362780094146729e-02
4.473000000000000000e+03 7.000447845458984375e+01 2.789061355590820312e+01 -1.338613331317901611e-01 1.352460384368896484e+00 3.655797243118286133e-01 7.128443121910095215e-01
4.474000000000000000e+03 9.968837738037109375e+00 1.064045429229736328e+01 8.742331713438034058e-02 1.027869284152984619e-01 5.706307291984558105e-02 -1.222040690481662750e-02
4.475000000000000000e+03 7.475947570800781250e+01 2.861703109741210938e+01 -3.224758505821228027e-01 7.010603904724121094e+00 2.006438493728637695e+00 2.651278495788574219e+00
4.476000000000000000e+03 7.413630676269531250e+01 2.840953826904296875e+01 -1.070103943347930908e-01 5.670269966125488281e+00 1.668977856636047363e+00 2.573422670364379883e+00
4.477000000000000000e+03 3.500767135620117188e+01 3.292047500610351562e+01 7.906105369329452515e-02 1.094394177198410034e-01 5.655014142394065857e-02 7.503012567758560181e-02
4.478000000000000000e+03 1.368782329559326172e+01 9.341416358947753906e+00 9.072220325469970703e-02 3.585243225097656250e-01 1.347739547491073608e-01 9.355530142784118652e-02
4.479000000000000000e+03 6.492839050292968750e+01 2.695033836364746094e+01 -6.089743971824645996e-01 3.873504698276519775e-01 -6.648717820644378662e-02 -4.517504274845123291e-01
4.480000000000000000e+03 6.717653656005859375e+01 2.660356903076171875e+01 -1.585506498813629150e-01 8.122715353965759277e-01 1.961162537336349487e-01 5.447090044617652893e-02
4.481000000000000000e+03 6.927193450927734375e+01 2.789155578613281250e+01 -2.580832839012145996e-01 1.051140189170837402e+00 2.379170656204223633e-01 4.496404528617858887e-01
4.482000000000000000e+03 6.792755889892578125e+01 2.643727111816406250e+01 1.303773932158946991e-02 1.032049775123596191e+00 3.135262727737426758e-01 2.794247865676879883e-01
4.483000000000000000e+03 1.156595039367675781e+01 5.357318401336669922e+00 3.170893192291259766e-01 3.268678486347198486e-01 1.931871473789215088e-01 -1.712234765291213989e-01
4.484000000000000000e+03 6.299948501586914062e+01 2.707361793518066406e+01 -8.439570069313049316e-01 2.798680663108825684e-01 -1.692266762256622314e-01 -7.037860155105590820e-01
4.485000000000000000e+03 6.319417572021484375e+01 2.609497451782226562e+01 -5.392931699752807617e-01 3.784426450729370117e-01 -4.825514927506446838e-02 -5.881754755973815918e-01
4.486000000000000000e+03 5.918347549438476562e+01 2.778127288818359375e+01 -1.235385417938232422e+00 2.170662432909011841e-01 -3.054957389831542969e-01 -9.510032534599304199e-01
4.487000000000000000e+03 6.448381805419921875e+01 2.563788414001464844e+01 -2.480055987834930420e-01 5.714616179466247559e-01 9.703680872917175293e-02 -3.533992171287536621e-01
4.488000000000000000e+03 3.180007553100585938e+01 -1.651894807815551758e+00 2.373927831649780273e-01 -5.845692157745361328e-01 -1.041529253125190735e-01 2.985496073961257935e-02
4.489000000000000000e+03 9.112868309020996094e+00 1.407483005523681641e+01 3.453888371586799622e-02 3.662094473838806152e-02 2.134794741868972778e-02 -1.040782593190670013e-02
4.490000000000000000e+03 8.575950622558593750e+00 1.191268157958984375e+01 6.472904980182647705e-02 1.835846714675426483e-02 2.492625638842582703e-02 -1.286300364881753922e-02
4.491000000000000000e+03 9.912184715270996094e+00 6.807744503021240234e+00 2.412082552909851074e-01 5.108889192342758179e-02 8.768914639949798584e-02 -5.442883074283599854e-02
4.492000000000000000e+03 5.674067306518554688e+01 2.629388427734375000e+01 -1.052901268005371094e+00 1.677196025848388672e-01 -2.655544877052307129e-01 -9.240704178810119629e-01
4.493000000000000000e+03 5.555958175659179688e+01 2.859939575195312500e+01 -1.361149907112121582e+00 1.153402402997016907e-01 -3.737428784370422363e-01 -9.504487514495849609e-01
4.494000000000000000e+03 5.868695449829101562e+01 2.679929542541503906e+01 -1.048253417015075684e+00 2.305587232112884521e-01 -2.453084141016006470e-01 -9.266163706779479980e-01
4.495000000000000000e+03 5.773217391967773438e+01 2.704216194152832031e+01 -1.132670164108276367e+00 2.042762488126754761e-01 -2.785181701183319092e-01 -9.483760595321655273e-01
4.496000000000000000e+03 7.341844177246093750e+01 2.678364944458007812e+01 3.994523286819458008e-01 4.945340633392333984e+00 1.603437900543212891e+00 2.122346878051757812e+00
4.497000000000000000e+03 1.053516387939453125e+01 7.444569587707519531e+00 1.958274692296981812e-01 1.539746820926666260e-01 1.049406453967094421e-01 -6.294240057468414307e-02
4.498000000000000000e+03 3.212421798706054688e+01 -2.164194583892822266e+00 3.321532309055328369e-01 -5.938544273376464844e-01 -7.851035147905349731e-02 2.697808668017387390e-02
4.499000000000000000e+03 3.113822746276855469e+01 -5.820552110671997070e-01 -3.525006398558616638e-02 -5.831872820854187012e-01 -1.855311989784240723e-01 2.561731450259685516e-02
4.500000000000000000e+03 1.104607963562011719e+01 -7.140297889709472656e+00 -3.185555338859558105e-01 -2.861223220825195312e-01 -1.814033538103103638e-01 -5.056292414665222168e-01
4.501000000000000000e+03 1.089172077178955078e+01 -8.925480842590332031e+00 -1.567142307758331299e-01 -4.188161194324493408e-01 -1.726590991020202637e-01 -5.446519255638122559e-01
4.502000000000000000e+03 1.223778915405273438e+01 -8.872385025024414062e+00 -1.533280164003372192e-01 -4.956234693527221680e-01 -1.946854442358016968e-01 -6.011081933975219727e-01
4.503000000000000000e+03 1.152077579498291016e+01 -7.295711040496826172e+00 -3.266548216342926025e-01 -3.574965596199035645e-01 -2.052454203367233276e-01 -5.786473155021667480e-01
4.504000000000000000e+03 1.028820514678955078e+01 -9.606163024902343750e+00 -1.511360555887222290e-01 -3.977719843387603760e-01 -1.646724045276641846e-01 -5.249412655830383301e-01
4.505000000000000000e+03 6.788315582275390625e+01 4.295709609985351562e+00 3.074193298816680908e-01 3.585975408554077148e+00 1.168018341064453125e+00 6.724470853805541992e-01
4.506000000000000000e+03 6.773524475097656250e+01 1.251057744026184082e+00 2.667401432991027832e-01 3.543519258499145508e+00 1.143077850341796875e+00 5.933242440223693848e-01
4.507000000000000000e+03 5.937949752807617188e+01 2.704100608825683594e+01 -1.061808466911315918e+00 2.385641783475875854e-01 -2.469732761383056641e-01 -9.193280935287475586e-01
4.508000000000000000e+03 5.955429077148437500e+01 2.638795471191406250e+01 -9.188565611839294434e-01 2.596267759799957275e-01 -1.977689266204833984e-01 -8.794659972190856934e-01
4.509000000000000000e+03 7.568676471710205078e+00 8.206376075744628906e+00 1.536747515201568604e-01 -8.782470226287841797e-02 1.975501328706741333e-02 2.628534473478794098e-02
4.510000000000000000e+03 1.008994388580322266e+01 -8.311894416809082031e+00 -2.382847666740417480e-01 -3.214979767799377441e-01 -1.679348200559616089e-01 -5.054438114166259766e-01
4.511000000000000000e+03 6.990641021728515625e+01 2.708083724975585938e+01 1.518890559673309326e-01 1.638909101486206055e+00 5.372394323348999023e-01 8.258841037750244141e-01
4.512000000000000000e+03 7.114015197753906250e+01 2.188810729980468750e+01 7.451155185699462891e-01 3.899764060974121094e+00 1.393463850021362305e+00 1.446099400520324707e+00
4.513000000000000000e+03 9.853515625000000000e+00 2.285127258300781250e+01 -7.852955721318721771e-03 -2.401142381131649017e-03 -3.076229477301239967e-03 -1.092784851789474487e-02
4.514000000000000000e+03 1.005430793762207031e+01 1.797657966613769531e+01 5.086606834083795547e-03 3.954552114009857178e-02 1.338963862508535385e-02 -6.859121844172477722e-03
4.515000000000000000e+03 9.620109558105468750e+00 2.164526557922363281e+01 -7.019219920039176941e-03 -1.356776483589783311e-04 -2.146469196304678917e-03 -1.172553654760122299e-02
4.516000000000000000e+03 6.870814514160156250e+01 -1.219878673553466797e+01 1.079596951603889465e-01 3.612943649291992188e+00 1.116271018981933594e+00 3.001088201999664307e-01
4.517000000000000000e+03 6.897389984130859375e+01 -1.318506240844726562e+01 9.561025351285934448e-02 3.638686418533325195e+00 1.120288968086242676e+00 2.833370566368103027e-01
4.518000000000000000e+03 3.435163879394531250e+01 -2.567550420761108398e+00 3.580721616744995117e-01 -6.074125766754150391e-01 -7.480211555957794189e-02 4.141166061162948608e-02
4.519000000000000000e+03 3.910129547119140625e+01 3.707656097412109375e+01 1.221174597740173340e-01 7.958225160837173462e-02 6.050991266965866089e-02 6.068218871951103210e-02
4.520000000000000000e+03 6.655698394775390625e+01 2.508928108215332031e+01 1.774391531944274902e-01 1.030750155448913574e+00 3.624567687511444092e-01 1.400941163301467896e-01
4.521000000000000000e+03 7.100878906250000000e+01 -2.104568958282470703e+00 1.448644548654556274e-01 4.211645603179931641e+00 1.306952953338623047e+00 4.535222351551055908e-01
4.522000000000000000e+03 7.027280426025390625e+01 -2.181191205978393555e+00 1.595553904771804810e-01 4.038419246673583984e+00 1.259392380714416504e+00 4.704403877258300781e-01
4.523000000000000000e+03 7.011122894287109375e+01 9.329608917236328125e+00 3.501352965831756592e-01 4.189406394958496094e+00 1.361862540245056152e+00 8.389524817466735840e-01
4.524000000000000000e+03 6.810520935058593750e+01 -1.659902191162109375e+01 7.918165624141693115e-02 3.473507404327392578e+00 1.065806746482849121e+00 2.428584843873977661e-01
4.525000000000000000e+03 7.004383087158203125e+01 1.986205673217773438e+01 7.361866235733032227e-01 3.560400485992431641e+00 1.288976073265075684e+00 1.219186544418334961e+00
4.526000000000000000e+03 3.734761810302734375e+01 3.381700897216796875e+01 9.198708087205886841e-02 9.947087615728378296e-02 5.743738636374473572e-02 7.587935030460357666e-02
4.527000000000000000e+03 3.607432937622070312e+01 3.408665847778320312e+01 8.457291126251220703e-02 1.038875579833984375e-01 5.653814226388931274e-02 7.073148339986801147e-02
4.528000000000000000e+03 3.959775543212890625e+01 -6.319020271301269531e+00 4.878537952899932861e-01 -4.214637875556945801e-01 1.991700194776058197e-02 3.431354090571403503e-02
4.529000000000000000e+03 7.201463317871093750e+01 2.370037651062011719e+01 7.119681835174560547e-01 4.234231472015380859e+00 1.483859896659851074e+00 1.658617973327636719e+00
4.530000000000000000e+03 6.624295043945312500e+01 2.433201026916503906e+01 2.671851217746734619e-01 1.128913760185241699e+00 4.188296496868133545e-01 1.704593598842620850e-01
4.531000000000000000e+03 7.104878234863281250e+01 7.898630142211914062e+00 2.776392400264739990e-01 4.466949462890625000e+00 1.423376679420471191e+00 7.726392745971679688e-01
4.532000000000000000e+03 9.482008934020996094e+00 -1.290492725372314453e+01 2.126624993979930878e-02 -4.902272522449493408e-01 -1.406883001327514648e-01 -4.606598019599914551e-01
4.533000000000000000e+03 3.651029968261718750e+01 -6.229357719421386719e+00 5.630078911781311035e-01 -5.439222455024719238e-01 5.725698545575141907e-03 -2.286585047841072083e-02
4.534000000000000000e+03 4.387680816650390625e+01 -1.287401294708251953e+01 3.688101172447204590e-01 -3.080144990235567093e-03 1.097189933061599731e-01 4.176923632621765137e-02
4.535000000000000000e+03 6.827704620361328125e+01 1.869739341735839844e+01 7.156230807304382324e-01 2.915530204772949219e+00 1.089345932006835938e+00 9.633594155311584473e-01
4.536000000000000000e+03 6.826941680908203125e+01 -1.107356929779052734e+01 1.202640533447265625e-01 3.560461044311523438e+00 1.104217529296875000e+00 3.132021129131317139e-01
4.537000000000000000e+03 4.320353317260742188e+01 -1.079658412933349609e+01 4.260842502117156982e-01 -9.288397431373596191e-02 9.996008127927780151e-02 3.753010928630828857e-02
4.538000000000000000e+03 4.102951812744140625e+01 -1.013533687591552734e+01 4.558278620243072510e-01 -2.798770964145660400e-01 5.278523638844490051e-02 4.200946073979139328e-03
4.539000000000000000e+03 6.916731262207031250e+01 4.804249763488769531e+00 2.818090319633483887e-01 3.913531303405761719e+00 1.258602023124694824e+00 6.873110532760620117e-01
4.540000000000000000e+03 4.034111022949218750e+01 -7.018362998962402344e+00 5.115103125572204590e-01 -3.661544919013977051e-01 4.360673949122428894e-02 2.535444125533103943e-02
4.541000000000000000e+03 7.170989990234375000e+01 1.400450801849365234e+01 4.278536140918731689e-01 4.766217708587646484e+00 1.558221340179443359e+00 1.061284899711608887e+00
4.542000000000000000e+03 6.712916564941406250e+01 -2.638739013671875000e+01 3.466807678341865540e-02 3.251414775848388672e+00 9.858248233795166016e-01 1.708747595548629761e-01
4.543000000000000000e+03 1.247548294067382812e+01 -1.650090217590332031e+01 1.533751636743545532e-01 -5.150529146194458008e-01 -1.085033342242240906e-01 -4.178119897842407227e-01
4.544000000000000000e+03 1.659950447082519531e+01 -1.864579582214355469e+01 2.024755179882049561e-01 -3.402279615402221680e-01 -4.132573306560516357e-02 -3.269432187080383301e-01
4.545000000000000000e+03 4.055482482910156250e+01 -7.874083042144775391e+00 5.031283497810363770e-01 -3.383913934230804443e-01 4.942107573151588440e-02 3.296716883778572083e-02
4.546000000000000000e+03 6.881981658935546875e+01 -9.327169418334960938e+00 1.257343888282775879e-01 3.656679630279541016e+00 1.134724259376525879e+00 3.470739126205444336e-01
4.547000000000000000e+03 1.254426765441894531e+01 -6.202103614807128906e+00 -4.439567923545837402e-01 -3.260760307312011719e-01 -2.310098558664321899e-01 -5.947200655937194824e-01
4.548000000000000000e+03 1.310928440093994141e+01 -7.275936603546142578e+00 -3.230245113372802734e-01 -4.722329080104827881e-01 -2.385772317647933960e-01 -6.506344676017761230e-01
4.549000000000000000e+03 7.392089843750000000e+01 1.514076042175292969e+01 3.210559487342834473e-01 5.804628372192382812e+00 1.837705254554748535e+00 1.074844837188720703e+00
4.550000000000000000e+03 1.037845134735107422e+01 -1.829146194458007812e+01 1.141283959150314331e-01 -5.732948780059814453e-01 -1.377499401569366455e-01 -3.863243162631988525e-01
4.551000000000000000e+03 7.071060943603515625e+01 2.730183410644531250e+01 2.134692668914794922e-01 2.069940567016601562e+00 6.850229501724243164e-01 1.126104831695556641e+00
4.552000000000000000e+03 7.013756561279296875e+01 2.296754837036132812e+01 7.492408156394958496e-01 3.077987432479858398e+00 1.148168563842773438e+00 1.256145834922790527e+00
4.553000000000000000e+03 8.618283271789550781e+00 -1.518257713317871094e+01 4.798268154263496399e-02 -5.444731116294860840e-01 -1.489471197128295898e-01 -4.145108461380004883e-01
4.554000000000000000e+03 9.277395248413085938e+00 -1.873430633544921875e+01 1.032784804701805115e-01 -5.900236964225769043e-01 -1.460235565900802612e-01 -3.609310388565063477e-01
4.555000000000000000e+03 1.100903797149658203e+01 1.583938503265380859e+01 1.908795535564422607e-02 9.100157767534255981e-02 3.302685916423797607e-02 7.257389836013317108e-03
4.556000000000000000e+03 1.036718940734863281e+01 1.680185699462890625e+01 1.214365288615226746e-02 5.917990952730178833e-02 2.139706909656524658e-02 -2.076107310131192207e-03
4.557000000000000000e+03 1.097428321838378906e+01 -1.030568981170654297e+01 -7.111641019582748413e-02 -4.726343154907226562e-01 -1.631252169609069824e-01 -5.425107479095458984e-01
4.558000000000000000e+03 6.996525573730468750e+01 1.762266159057617188e+01 6.587526202201843262e-01 3.805684089660644531e+00 1.339331030845642090e+00 1.158234834671020508e+00
4.559000000000000000e+03 1.229452228546142578e+01 2.344910812377929688e+01 -7.096560206264257431e-03 4.557851329445838928e-02 1.154458522796630859e-02 5.962059833109378815e-03
4.560000000000000000e+03 3.832473754882812500e+01 4.139272689819335938e+01 1.228440552949905396e-01 7.690065354108810425e-02 5.992341414093971252e-02 1.020839251577854156e-02
4.561000000000000000e+03 1.019976806640625000e+01 -2.140683555603027344e+01 1.225904971361160278e-01 -5.891798734664916992e-01 -1.399768143892288208e-01 -3.256257474422454834e-01
4.562000000000000000e+03 1.258495616912841797e+01 -2.291181945800781250e+01 1.441671848297119141e-01 -5.052660703659057617e-01 -1.083296611905097961e-01 -3.146977126598358154e-01
4.563000000000000000e+03 4.398545455932617188e+01 -1.566688919067382812e+01 2.704972624778747559e-01 4.071670025587081909e-02 9.336418658494949341e-02 5.105292052030563354e-02
4.564000000000000000e+03 6.824869537353515625e+01 -2.110623741149902344e+01 4.862193763256072998e-02 3.455018758773803711e+00 1.051092267036437988e+00 2.003301084041595459e-01
4.565000000000000000e+03 6.430753326416015625e+01 -2.377251052856445312e+01 5.485555157065391541e-02 2.879919052124023438e+00 8.804323673248291016e-01 2.117224931716918945e-01
4.566000000000000000e+03 5.134527969360351562e+01 -2.151482772827148438e+01 8.769620209932327271e-02 1.039498925209045410e+00 3.381585180759429932e-01 1.234494820237159729e-01
4.567000000000000000e+03 4.798731613159179688e+01 -3.130383872985839844e+01 -1.362267434597015381e-01 5.843919515609741211e-01 1.344495564699172974e-01 2.625872492790222168e-01
4.568000000000000000e+03 4.969682312011718750e+01 -2.764489936828613281e+01 -6.979828327894210815e-02 8.558971285820007324e-01 2.358296513557434082e-01 1.677109897136688232e-01
4.569000000000000000e+03 5.070763015747070312e+01 -2.617682838439941406e+01 -4.354999586939811707e-02 9.915940761566162109e-01 2.844132184982299805e-01 1.627721041440963745e-01
4.570000000000000000e+03 1.143752288818359375e+01 2.989047050476074219e+01 -1.032163389027118683e-02 -3.024124307557940483e-03 -4.003727342933416367e-03 -2.680402481928467751e-03
4.571000000000000000e+03 6.847632598876953125e+01 -1.459692597389221191e+00 2.088585942983627319e-01 3.677541971206665039e+00 1.165920138359069824e+00 5.123408436775207520e-01
4.572000000000000000e+03 6.818525695800781250e+01 2.902643680572509766e+00 2.762073278427124023e-01 3.653510808944702148e+00 1.178915381431579590e+00 6.329018473625183105e-01
4.573000000000000000e+03 6.730899810791015625e+01 2.242134571075439453e+00 2.878994941711425781e-01 3.459547281265258789e+00 1.124234080314636230e+00 6.125681996345520020e-01
4.574000000000000000e+03 9.877692222595214844e+00 -1.605600166320800781e+01 8.226449042558670044e-02 -5.571129322052001953e-01 -1.424545347690582275e-01 -4.181223511695861816e-01
4.575000000000000000e+03 1.064832592010498047e+01 -1.475423336029052734e+01 7.465209811925888062e-02 -5.368446111679077148e-01 -1.386577486991882324e-01 -4.521721005439758301e-01
4.576000000000000000e+03 6.974468231201171875e+01 -1.434951591491699219e+01 7.505152374505996704e-02 3.767457485198974609e+00 1.152752757072448730e+00 2.496476620435714722e-01
4.577000000000000000e+03 2.847031784057617188e+01 3.280679225921630859e+00 -1.719102859497070312e+00 -7.477248311042785645e-01 -7.400482892990112305e-01 -6.429771780967712402e-01
4.578000000000000000e+03 2.815694618225097656e+01 2.436008453369140625e+00 -1.507900238037109375e+00 -6.164470911026000977e-01 -6.373042464256286621e-01 -4.472727179527282715e-01
4.579000000000000000e+03 2.610381698608398438e+01 1.624794721603393555e+00 -1.642169475555419922e+00 -3.534578680992126465e-01 -5.986881852149963379e-01 -5.479264855384826660e-01
4.580000000000000000e+03 2.479853630065917969e+01 1.215463280677795410e+00 -1.833631634712219238e+00 -1.862843036651611328e-01 -6.059747934341430664e-01 -7.405837178230285645e-01
4.581000000000000000e+03 2.534764862060546875e+01 1.244800448417663574e+00 -1.606820225715637207e+00 -1.257990002632141113e-01 -5.197857618331909180e-01 -5.360448360443115234e-01
4.582000000000000000e+03 4.267798233032226562e+01 1.844030570983886719e+01 -9.131007194519042969e-01 -1.007461428642272949e+00 -5.761686563491821289e-01 -1.065136313438415527e+00
4.583000000000000000e+03 2.701116561889648438e+01 -1.441628485918045044e-01 -3.477096557617187500e-01 -2.737235724925994873e-01 -1.864299625158309937e-01 -1.756913959980010986e-01
4.584000000000000000e+03 4.870332717895507812e+01 2.416846466064453125e+01 -1.099145889282226562e+00 -7.161552309989929199e-01 -5.445903539657592773e-01 -1.012573242187500000e+00
4.585000000000000000e+03 1.754067230224609375e+01 1.220521545410156250e+01 1.170285791158676147e-01 2.613517642021179199e-01 1.135141029953956604e-01 1.698328703641891479e-01
4.586000000000000000e+03 9.979852676391601562e+00 1.325997447967529297e+01 4.346411302685737610e-02 8.128130435943603516e-02 3.742362558841705322e-02 -4.517830908298492432e-03
4.587000000000000000e+03 4.475663375854492188e+01 2.074299812316894531e+01 -9.928610920906066895e-01 -9.920207858085632324e-01 -5.954645872116088867e-01 -1.048190474510192871e+00
4.588000000000000000e+03 4.856077575683593750e+01 2.507200431823730469e+01 -1.172065019607543945e+00 -7.917903065681457520e-01 -5.891565680503845215e-01 -1.064190864562988281e+00
4.589000000000000000e+03 4.707630920410156250e+01 2.307600212097167969e+01 -1.097226262092590332e+00 -8.671025633811950684e-01 -5.892986655235290527e-01 -1.036338448524475098e+00
4.590000000000000000e+03 4.826106643676757812e+01 2.372241973876953125e+01 -1.089670538902282715e+00 -7.522456049919128418e-01 -5.525748729705810547e-01 -1.012949943542480469e+00
4.591000000000000000e+03 2.647721862792968750e+01 2.108448600769042969e+01 8.940675854682922363e-02 1.546834111213684082e-01 7.322704792022705078e-02 1.216191202402114868e-01
4.592000000000000000e+03 2.570158004760742188e+01 2.014927101135253906e+01 9.540235251188278198e-02 1.613453775644302368e-01 7.702431827783584595e-02 1.259969621896743774e-01
4.593000000000000000e+03 4.880446624755859375e+01 2.537887763977050781e+01 -1.176469564437866211e+00 -7.753322124481201172e-01 -5.855405330657958984e-01 -1.062469601631164551e+00
4.594000000000000000e+03 5.264915466308593750e+01 2.830849266052246094e+01 -1.297978639602661133e+00 -2.476083785295486450e-01 -4.636760950088500977e-01 -9.302313923835754395e-01
4.595000000000000000e+03 2.626098060607910156e+01 5.057922005653381348e-01 -7.483747005462646484e-01 -2.093365192413330078e-01 -2.873133718967437744e-01 -2.798418998718261719e-01
4.596000000000000000e+03 4.500710678100585938e+01 2.101284980773925781e+01 -1.001298069953918457e+00 -9.792159795761108398e-01 -5.941542387008666992e-01 -1.047267794609069824e+00
4.597000000000000000e+03 2.744314002990722656e+01 1.177679777145385742e+00 -9.776806235313415527e-01 -4.306721687316894531e-01 -4.225058257579803467e-01 -2.515827715396881104e-01
4.598000000000000000e+03 4.075419235229492188e+01 1.654335594177246094e+01 -9.431861639022827148e-01 -1.031138420104980469e+00 -5.922973752021789551e-01 -1.046030282974243164e+00
4.599000000000000000e+03 4.184360885620117188e+01 1.671671295166015625e+01 -8.831741809844970703e-01 -9.605394005775451660e-01 -5.531140565872192383e-01 -1.004930496215820312e+00
4.600000000000000000e+03 2.157680320739746094e+01 1.673157119750976562e+01 1.023422628641128540e-01 1.941923499107360840e-01 8.896038681268692017e-02 1.405945420265197754e-01
4.601000000000000000e+03 2.524588203430175781e+01 1.943248367309570312e+01 1.017792001366615295e-01 1.648382395505905151e-01 7.998523116111755371e-02 1.305163204669952393e-01
4.602000000000000000e+03 1.460828685760498047e+01 1.000508308410644531e+01 9.494189918041229248e-02 3.420614004135131836e-01 1.311009824275970459e-01 1.341611295938491821e-01
4.603000000000000000e+03 4.355533599853515625e+01 2.003452301025390625e+01 -9.811202883720397949e-01 -1.044944405555725098e+00 -6.078193783760070801e-01 -1.086684465408325195e+00
4.604000000000000000e+03 2.232074546813964844e+01 1.771726989746093750e+01 9.687560051679611206e-02 1.839853227138519287e-01 8.425828069448471069e-02 1.351723372936248779e-01
4.605000000000000000e+03 5.441543960571289062e+01 2.837969779968261719e+01 -1.331686019897460938e+00 9.621050208806991577e-03 -3.966194987297058105e-01 -9.364728331565856934e-01
4.606000000000000000e+03 5.417687606811523438e+01 2.902515602111816406e+01 -1.361790180206298828e+00 -1.393618993461132050e-02 -4.127179086208343506e-01 -9.203756451606750488e-01
4.607000000000000000e+03 2.053345680236816406e+01 1.561867618560791016e+01 1.083375141024589539e-01 2.051319032907485962e-01 9.404082596302032471e-02 1.468150317668914795e-01
4.608000000000000000e+03 1.751940536499023438e+01 1.350301361083984375e+01 9.603536128997802734e-02 2.398498356342315674e-01 1.007655560970306396e-01 1.447256952524185181e-01
4.609000000000000000e+03 4.306447982788085938e+01 1.910978507995605469e+01 -9.344317317008972168e-01 -1.024168610572814941e+00 -5.875801444053649902e-01 -1.074856996536254883e+00
4.610000000000000000e+03 3.790005874633789062e+01 1.342163372039794922e+01 -9.818841218948364258e-01 -1.104856967926025391e+00 -6.260223388671875000e-01 -1.004336714744567871e+00
4.611000000000000000e+03 4.523867034912109375e+01 2.129003334045410156e+01 -1.018974900245666504e+00 -9.726192951202392578e-01 -5.974782705307006836e-01 -1.045459508895874023e+00
4.612000000000000000e+03 2.685524559020996094e+01 2.010685920715332031e+00 -1.676345229148864746e+00 -4.590204358100891113e-01 -6.406096816062927246e-01 -5.311665534973144531e-01
4.613000000000000000e+03 2.183906936645507812e+01 1.780799102783203125e+01 8.980671316385269165e-02 1.855259835720062256e-01 8.259981125593185425e-02 1.304761320352554321e-01
4.614000000000000000e+03 5.066099929809570312e+01 2.735297775268554688e+01 -1.249513626098632812e+00 -5.936535000801086426e-01 -5.529501438140869141e-01 -9.939612150192260742e-01
4.615000000000000000e+03 4.674527740478515625e+01 2.302526855468750000e+01 -1.109667658805847168e+00 -9.006918668746948242e-01 -6.031078696250915527e-01 -1.051913619041442871e+00
4.616000000000000000e+03 3.802930068969726562e+01 1.380912685394287109e+01 -9.908640384674072266e-01 -1.121901392936706543e+00 -6.338295936584472656e-01 -1.022368311882019043e+00
4.617000000000000000e+03 3.810236740112304688e+01 1.421055412292480469e+01 -1.004896879196166992e+00 -1.143758416175842285e+00 -6.445965766906738281e-01 -1.044233202934265137e+00
4.618000000000000000e+03 4.933583831787109375e+01 2.534654617309570312e+01 -1.157555580139160156e+00 -6.970414519309997559e-01 -5.563790798187255859e-01 -1.027825355529785156e+00
4.619000000000000000e+03 5.043872833251953125e+01 2.709529304504394531e+01 -1.235988140106201172e+00 -6.175594925880432129e-01 -5.560642480850219727e-01 -1.005137085914611816e+00
4.620000000000000000e+03 3.603666305541992188e+01 1.147408866882324219e+01 -1.029791355133056641e+00 -1.105436563491821289e+00 -6.405683755874633789e-01 -9.908652305603027344e-01
4.621000000000000000e+03 3.684569931030273438e+01 1.241484737396240234e+01 -1.005542278289794922e+00 -1.113382220268249512e+00 -6.356773972511291504e-01 -1.001595854759216309e+00
4.622000000000000000e+03 2.135165023803710938e+01 1.643559074401855469e+01 1.039680987596511841e-01 1.969129294157028198e-01 9.026430547237396240e-02 1.423996388912200928e-01
4.623000000000000000e+03 3.849612045288085938e+01 1.415568161010742188e+01 -9.723293185234069824e-01 -1.101730465888977051e+00 -6.222179532051086426e-01 -1.010927081108093262e+00
4.624000000000000000e+03 3.817776870727539062e+01 1.456416130065917969e+01 -1.012661218643188477e+00 -1.160107135772705078e+00 -6.518304944038391113e-01 -1.061004996299743652e+00
4.625000000000000000e+03 5.488993072509765625e+01 2.913610839843750000e+01 -1.387066483497619629e+00 6.787203997373580933e-02 -3.957583308219909668e-01 -9.281884431838989258e-01
4.626000000000000000e+03 3.984391403198242188e+01 1.570615863800048828e+01 -9.660984277725219727e-01 -1.068483948707580566e+00 -6.103746891021728516e-01 -1.033112525939941406e+00
4.627000000000000000e+03 4.181459808349609375e+01 1.722291755676269531e+01 -9.083012938499450684e-01 -9.903358221054077148e-01 -5.695911049842834473e-01 -1.040895462036132812e+00
4.628000000000000000e+03 2.379897689819335938e+01 1.892712593078613281e+01 9.536882489919662476e-02 1.720753461122512817e-01 8.023324608802795410e-02 1.301522254943847656e-01
4.629000000000000000e+03 1.857268524169921875e+01 1.349500083923339844e+01 1.137468293309211731e-01 2.335612773895263672e-01 1.041924357414245605e-01 1.602646559476852417e-01
4.630000000000000000e+03 3.875756454467773438e+01 1.463457393646240234e+01 -9.834259152412414551e-01 -1.111526846885681152e+00 -6.284857988357543945e-01 -1.026924371719360352e+00
4.631000000000000000e+03 5.259001541137695312e+01 2.773680686950683594e+01 -1.264660000801086426e+00 -2.511343359947204590e-01 -4.547382891178131104e-01 -9.365903139114379883e-01
4.632000000000000000e+03 1.331990051269531250e+01 7.625155925750732422e+00 1.087219938635826111e-01 4.917919039726257324e-01 1.801541745662689209e-01 8.093184977769851685e-02
4.633000000000000000e+03 4.546080780029296875e+01 2.155898666381835938e+01 -1.035050749778747559e+00 -9.713073372840881348e-01 -6.019074320793151855e-01 -1.044605016708374023e+00
4.634000000000000000e+03 3.906537628173828125e+01 1.479826259613037109e+01 -9.716587066650390625e-01 -1.091247200965881348e+00 -6.188718080520629883e-01 -1.018917441368103027e+00
4.635000000000000000e+03 2.025829887390136719e+01 1.602503013610839844e+01 9.686309099197387695e-02 2.027873098850250244e-01 8.989512175321578979e-02 1.387409567832946777e-01
4.636000000000000000e+03 2.958057022094726562e+01 3.746977567672729492e+00 -1.577494382858276367e+00 -7.960444092750549316e-01 -7.120616436004638672e-01 -5.869284272193908691e-01
4.637000000000000000e+03 2.920353507995605469e+01 3.478632926940917969e+00 -1.580184578895568848e+00 -7.987469434738159180e-01 -7.136794924736022949e-01 -6.010283231735229492e-01
4.638000000000000000e+03 5.249808883666992188e+01 2.722073173522949219e+01 -1.235278964042663574e+00 -2.624345719814300537e-01 -4.493140876293182373e-01 -9.379822611808776855e-01
4.639000000000000000e+03 2.617598533630371094e+01 1.048243165016174316e+00 -1.215606808662414551e+00 -2.833063006401062012e-01 -4.496739506721496582e-01 -4.128560721874237061e-01
4.640000000000000000e+03 2.562852096557617188e+01 9.860418438911437988e-01 -1.276292085647583008e+00 -2.050184756517410278e-01 -4.443931877613067627e-01 -4.319554865360260010e-01
4.641000000000000000e+03 3.142454910278320312e+01 2.688681793212890625e+01 7.349130511283874512e-02 1.260931193828582764e-01 5.987532436847686768e-02 9.789875894784927368e-02
4.642000000000000000e+03 4.372877883911132812e+01 2.031128501892089844e+01 -9.942581057548522949e-01 -1.046175837516784668e+00 -6.121301651000976562e-01 -1.088210344314575195e+00
4.643000000000000000e+03 4.908986282348632812e+01 2.619650840759277344e+01 -1.214818716049194336e+00 -7.936964631080627441e-01 -6.025545597076416016e-01 -1.070789933204650879e+00
4.644000000000000000e+03 3.937997436523437500e+01 1.497579097747802734e+01 -9.593161344528198242e-01 -1.072902798652648926e+00 -6.096656918525695801e-01 -1.009830355644226074e+00
4.645000000000000000e+03 5.012112426757812500e+01 2.622907447814941406e+01 -1.191011905670166016e+00 -6.293069720268249512e-01 -5.460956692695617676e-01 -1.007087469100952148e+00
4.646000000000000000e+03 5.044384765625000000e+01 2.648062133789062500e+01 -1.201606631278991699e+00 -5.887148380279541016e-01 -5.370964407920837402e-01 -9.951297640800476074e-01
4.647000000000000000e+03 4.135626220703125000e+01 1.676231002807617188e+01 -9.168559908866882324e-01 -9.989091753959655762e-01 -5.747295618057250977e-01 -1.032766938209533691e+00
4.648000000000000000e+03 4.567365264892578125e+01 2.181564521789550781e+01 -1.046092987060546875e+00 -9.605680704116821289e-01 -6.019983291625976562e-01 -1.046652078628540039e+00
4.649000000000000000e+03 2.664598274230957031e+01 2.258196067810058594e+01 7.447037845849990845e-02 1.497553735971450806e-01 6.726772338151931763e-02 1.121480315923690796e-01
4.650000000000000000e+03 2.744116401672363281e+01 2.307031250000000000e+01 7.491894066333770752e-02 1.460317522287368774e-01 6.628520786762237549e-02 1.114806011319160461e-01
4.651000000000000000e+03 4.509070968627929688e+01 2.041770362854003906e+01 -9.435388445854187012e-01 -9.367214441299438477e-01 -5.640780925750732422e-01 -1.009776711463928223e+00
4.652000000000000000e+03 4.394657897949218750e+01 2.056042098999023438e+01 -1.009998559951782227e+00 -1.044463634490966797e+00 -6.163386702537536621e-01 -1.088180780410766602e+00
4.653000000000000000e+03 2.488769149780273438e+01 1.918636894226074219e+01 1.023011282086372375e-01 1.669245660305023193e-01 8.076771348714828491e-02 1.314134299755096436e-01
4.654000000000000000e+03 2.179422569274902344e+01 1.738985824584960938e+01 9.536157548427581787e-02 1.883163750171661377e-01 8.510338515043258667e-02 1.350033581256866455e-01
4.655000000000000000e+03 3.641955184936523438e+01 1.211743164062500000e+01 -1.031605482101440430e+00 -1.127395510673522949e+00 -6.477002501487731934e-01 -1.012335777282714844e+00
4.656000000000000000e+03 1.996727371215820312e+01 1.446395683288574219e+01 1.192106455564498901e-01 2.171388119459152222e-01 1.009048372507095337e-01 1.580202579498291016e-01
4.657000000000000000e+03 2.460803604125976562e+01 1.955686569213867188e+01 9.447134286165237427e-02 1.664233058691024780e-01 7.826839387416839600e-02 1.272234469652175903e-01
4.658000000000000000e+03 7.473652648925781250e+01 2.960541725158691406e+01 -6.775095462799072266e-01 6.702203750610351562e+00 1.807408332824707031e+00 3.141238212585449219e+00
4.659000000000000000e+03 7.338694763183593750e+01 2.930874824523925781e+01 -2.273505926132202148e-01 3.908226013183593750e+00 1.104262590408325195e+00 2.332313299179077148e+00
4.660000000000000000e+03 4.324338531494140625e+01 1.942850685119628906e+01 -9.501900076866149902e-01 -1.030341982841491699e+00 -5.941596031188964844e-01 -1.078147411346435547e+00
4.661000000000000000e+03 4.340325546264648438e+01 1.973944854736328125e+01 -9.653369784355163574e-01 -1.037917256355285645e+00 -6.009762287139892578e-01 -1.083302736282348633e+00
4.662000000000000000e+03 1.831878852844238281e+01 1.279436492919921875e+01 1.207859441637992859e-01 2.448447942733764648e-01 1.096892207860946655e-01 1.690351068973541260e-01
4.663000000000000000e+03 4.057569885253906250e+01 1.599108695983886719e+01 -9.368769526481628418e-01 -1.020103812217712402e+00 -5.870942473411560059e-01 -1.018534183502197266e+00
4.664000000000000000e+03 4.019657516479492188e+01 1.585849094390869141e+01 -9.530268311500549316e-01 -1.044263720512390137e+00 -5.991871356964111328e-01 -1.025966882705688477e+00
4.665000000000000000e+03 2.537495803833007812e+01 2.000429916381835938e+01 9.471110254526138306e-02 1.624199897050857544e-01 7.713932543992996216e-02 1.261042356491088867e-01
4.666000000000000000e+03 2.500240898132324219e+01 1.980124664306640625e+01 9.471772611141204834e-02 1.643970608711242676e-01 7.773444056510925293e-02 1.263665705919265747e-01
4.667000000000000000e+03 3.970059967041015625e+01 1.514842605590820312e+01 -9.475297331809997559e-01 -1.054247379302978516e+00 -6.005331277847290039e-01 -1.005377769470214844e+00
4.668000000000000000e+03 2.865105056762695312e+01 2.416397476196289062e+01 7.268591225147247314e-02 1.390296518802642822e-01 6.351466476917266846e-02 1.081780120730400085e-01
4.669000000000000000e+03 2.748633766174316406e+01 2.419262695312500000e+01 6.618238240480422974e-02 1.429387181997299194e-01 6.273632496595382690e-02 1.051247641444206238e-01
4.670000000000000000e+03 2.064106750488281250e+01 1.591995811462402344e+01 1.039878502488136292e-01 2.031517475843429565e-01 9.214188158512115479e-02 1.436309218406677246e-01
4.671000000000000000e+03 4.672657394409179688e+01 2.269970130920410156e+01 -1.077438831329345703e+00 -8.870710730552673340e-01 -5.893529653549194336e-01 -1.032305359840393066e+00
4.672000000000000000e+03 4.598184585571289062e+01 2.249680900573730469e+01 -1.099673867225646973e+00 -9.665244221687316895e-01 -6.198594570159912109e-01 -1.064836502075195312e+00
4.673000000000000000e+03 3.330215072631835938e+01 2.964308738708496094e+01 7.372270524501800537e-02 1.194517537951469421e-01 5.795233696699142456e-02 8.725663274526596069e-02
4.674000000000000000e+03 4.788307952880859375e+01 2.319764518737792969e+01 -1.063353300094604492e+00 -7.688550949096679688e-01 -5.496625304222106934e-01 -1.003166913986206055e+00
4.675000000000000000e+03 3.635935592651367188e+01 1.180807304382324219e+01 -1.022527694702148438e+00 -1.111505031585693359e+00 -6.402097940444946289e-01 -9.961324334144592285e-01
4.676000000000000000e+03 2.829876899719238281e+01 2.126915216445922852e+00 -1.372835040092468262e+00 -5.901299118995666504e-01 -5.888894796371459961e-01 -4.112936258316040039e-01
4.677000000000000000e+03 2.978151512145996094e+01 -5.458279252052307129e-01 -6.750123947858810425e-02 -4.786365926265716553e-01 -1.638413518667221069e-01 1.461804262362420559e-03
4.678000000000000000e+03 3.723385620117187500e+01 1.279932022094726562e+01 -9.981992244720458984e-01 -1.114919662475585938e+00 -6.339356899261474609e-01 -1.006645798683166504e+00
4.679000000000000000e+03 2.861169624328613281e+01 2.901500940322875977e+00 -1.590551853179931641e+00 -7.093953490257263184e-01 -6.899841427803039551e-01 -5.380901098251342773e-01
4.680000000000000000e+03 4.619380569458007812e+01 2.222720909118652344e+01 -1.060030102729797363e+00 -9.260957837104797363e-01 -5.958377718925476074e-01 -1.037309527397155762e+00
4.681000000000000000e+03 4.650279235839843750e+01 2.242687797546386719e+01 -1.063811302185058594e+00 -8.992903232574462891e-01 -5.889304876327514648e-01 -1.030241727828979492e+00
4.682000000000000000e+03 2.134880638122558594e+01 1.743020057678222656e+01 8.890586346387863159e-02 1.895023733377456665e-01 8.352246880531311035e-02 1.307514905929565430e-01
4.683000000000000000e+03 3.443882751464843750e+01 9.474290847778320312e+00 -1.070034027099609375e+00 -1.055666685104370117e+00 -6.377102136611938477e-01 -9.418493509292602539e-01
4.684000000000000000e+03 3.439174270629882812e+01 7.511828422546386719e+00 -1.000883340835571289e+00 -9.002628326416015625e-01 -5.703438520431518555e-01 -7.789784073829650879e-01
4.685000000000000000e+03 3.457487869262695312e+01 6.390343666076660156e+00 -9.410270452499389648e-01 -7.908011078834533691e-01 -5.195484757423400879e-01 -6.387096643447875977e-01
4.686000000000000000e+03 1.413217926025390625e+01 8.092366218566894531e+00 1.123137548565864563e-01 4.497888088226318359e-01 1.686307638883590698e-01 1.502199023962020874e-01
4.687000000000000000e+03 2.806177902221679688e+01 2.457757949829101562e+01 6.646096706390380859e-02 1.400336027145385742e-01 6.194837018847465515e-02 1.044964939355850220e-01
4.688000000000000000e+03 1.057043552398681641e+01 6.858137130737304688e+00 2.254572659730911255e-01 1.513203233480453491e-01 1.130332797765731812e-01 -7.837714999914169312e-02
4.689000000000000000e+03 1.700373077392578125e+01 1.194863700866699219e+01 1.106104552745819092e-01 2.698887586593627930e-01 1.141497641801834106e-01 1.645759195089340210e-01
4.690000000000000000e+03 2.784620475769042969e+01 -5.559218302369117737e-02 -3.333446085453033447e-01 -3.968649208545684814e-01 -2.190628498792648315e-01 -1.584823280572891235e-01
4.691000000000000000e+03 1.591311359405517578e+01 1.104400920867919922e+01 1.077351495623588562e-01 2.972952723503112793e-01 1.215091273188591003e-01 1.571616679430007935e-01
4.692000000000000000e+03 1.165062808990478516e+01 6.932831764221191406e+00 1.780953556299209595e-01 3.325598537921905518e-01 1.531965583562850952e-01 -7.425780594348907471e-02
4.693000000000000000e+03 3.181608772277832031e+01 4.739177703857421875e+00 -1.288244485855102539e+00 -7.332465052604675293e-01 -6.064473390579223633e-01 -6.171216368675231934e-01
4.694000000000000000e+03 3.469796371459960938e+01 7.825193881988525391e+00 -9.776113033294677734e-01 -9.166716337203979492e-01 -5.682848691940307617e-01 -7.868785858154296875e-01
4.695000000000000000e+03 1.543824386596679688e+01 1.107735633850097656e+01 9.483630210161209106e-02 3.005775809288024902e-01 1.186241656541824341e-01 1.437865942716598511e-01
4.696000000000000000e+03 2.999397850036621094e+01 2.585212326049804688e+01 7.044189423322677612e-02 1.314474642276763916e-01 6.056680530309677124e-02 1.019554361701011658e-01
4.697000000000000000e+03 1.988097953796386719e+01 1.482233524322509766e+01 1.123257204890251160e-01 2.131024301052093506e-01 9.762844443321228027e-02 1.516599059104919434e-01
4.698000000000000000e+03 9.800731658935546875e+00 1.162575054168701172e+01 6.806435436010360718e-02 8.557733893394470215e-02 4.609251022338867188e-02 -1.068352069705724716e-02
4.699000000000000000e+03 1.359201049804687500e+01 7.932308197021484375e+00 1.045181080698966980e-01 4.568248987197875977e-01 1.684029102325439453e-01 1.055852174758911133e-01
4.700000000000000000e+03 2.808934783935546875e+01 2.409671211242675781e+01 7.041420787572860718e-02 1.414877921342849731e-01 6.357060372829437256e-02 1.073890700936317444e-01
4.701000000000000000e+03 3.392821884155273438e+01 3.106911277770996094e+01 7.402954995632171631e-02 1.155051514506340027e-01 5.686040967702865601e-02 8.124145865440368652e-02
4.702000000000000000e+03 3.218725967407226562e+01 3.009528923034667969e+01 6.737330555915832520e-02 1.199336946010589600e-01 5.619210004806518555e-02 8.299884945154190063e-02
4.703000000000000000e+03 1.502623081207275391e+01 1.057468128204345703e+01 9.507496654987335205e-02 3.214654624462127686e-01 1.249621286988258362e-01 1.403658837080001831e-01
4.704000000000000000e+03 3.173837089538574219e+01 2.714678192138671875e+01 7.397502660751342773e-02 1.254068315029144287e-01 5.981456115841865540e-02 9.716575592756271362e-02
4.705000000000000000e+03 3.570383071899414062e+01 1.106874370574951172e+01 -1.038736820220947266e+00 -1.097329258918762207e+00 -6.408198475837707520e-01 -9.835791587829589844e-01
4.706000000000000000e+03 3.610514450073242188e+01 1.112369632720947266e+01 -1.009363770484924316e+00 -1.075001239776611328e+00 -6.253095269203186035e-01 -9.572414159774780273e-01
4.707000000000000000e+03 5.477215194702148438e+01 2.983450126647949219e+01 -1.410016059875488281e+00 6.465116888284683228e-02 -4.036094546318054199e-01 -8.956235051155090332e-01
4.708000000000000000e+03 2.017367553710937500e+01 1.537472534179687500e+01 1.069998517632484436e-01 2.091489285230636597e-01 9.484463185071945190e-02 1.467791497707366943e-01
4.709000000000000000e+03 2.974292564392089844e+01 2.635837745666503906e+01 6.659911572933197021e-02 1.312574148178100586e-01 5.935695767402648926e-02 9.817264229059219360e-02
4.710000000000000000e+03 3.413195419311523438e+01 7.181261062622070312e+00 -1.009598255157470703e+00 -8.942599296569824219e-01 -5.711574554443359375e-01 -7.704972028732299805e-01
4.711000000000000000e+03 3.465805816650390625e+01 8.467377662658691406e+00 -1.010594844818115234e+00 -9.703142046928405762e-01 -5.942727327346801758e-01 -8.489600419998168945e-01
4.712000000000000000e+03 3.428645324707031250e+01 8.161422729492187500e+00 -1.032890677452087402e+00 -9.609360694885253906e-01 -5.981479883193969727e-01 -8.467747569084167480e-01
4.713000000000000000e+03 5.720488739013671875e+01 2.663829994201660156e+01 -1.084235906600952148e+00 1.906447112560272217e-01 -2.680773735046386719e-01 -9.384062290191650391e-01
4.714000000000000000e+03 2.876922607421875000e+01 2.525405502319335938e+01 6.675537675619125366e-02 1.366295963525772095e-01 6.101549044251441956e-02 1.026907935738563538e-01
4.715000000000000000e+03 2.902345848083496094e+01 2.475979995727539062e+01 7.084927707910537720e-02 1.365887373685836792e-01 6.223140656948089600e-02 1.060376018285751343e-01
4.716000000000000000e+03 6.176457214355468750e+01 2.656549072265625000e+01 -8.014292716979980469e-01 2.935553789138793945e-01 -1.523621678352355957e-01 -7.661834955215454102e-01
4.717000000000000000e+03 2.964693832397460938e+01 3.464816570281982422e+00 -1.545649290084838867e+00 -7.643392682075500488e-01 -6.929965615272521973e-01 -5.429434776306152344e-01
4.718000000000000000e+03 2.878693771362304688e+01 1.903991103172302246e-01 -3.745656311511993408e-01 -4.969874918460845947e-01 -2.614659368991851807e-01 -9.639633446931838989e-02
4.719000000000000000e+03 3.395037841796875000e+01 2.876951026916503906e+01 7.920188456773757935e-02 1.199375167489051819e-01 5.974182114005088806e-02 9.257038682699203491e-02
4.720000000000000000e+03 3.386457061767578125e+01 2.984502410888671875e+01 7.547616958618164062e-02 1.181595176458358765e-01 5.809070542454719543e-02 8.674175292253494263e-02
4.721000000000000000e+03 7.383238983154296875e+01 2.962047958374023438e+01 -3.951421678066253662e-01 4.585701465606689453e+00 1.257167696952819824e+00 2.670702934265136719e+00
4.722000000000000000e+03 1.125285816192626953e+01 6.378685951232910156e+00 2.320373654365539551e-01 2.637047171592712402e-01 1.487226337194442749e-01 -1.067815497517585754e-01
4.723000000000000000e+03 1.176161098480224609e+01 6.461350917816162109e+00 2.037907838821411133e-01 3.699965476989746094e-01 1.721362024545669556e-01 -9.723063558340072632e-02
4.724000000000000000e+03 9.039871215820312500e+00 9.517123222351074219e+00 1.256093531847000122e-01 3.333088755607604980e-02 4.768207296729087830e-02 -1.828091219067573547e-02
4.725000000000000000e+03 7.323749542236328125e+01 2.829727172851562500e+01 9.188023209571838379e-02 4.191596508026123047e+00 1.285043001174926758e+00 2.232498645782470703e+00
4.726000000000000000e+03 3.184818077087402344e+01 4.266293048858642578e+00 -1.203873634338378906e+00 -6.919553279876708984e-01 -5.687487125396728516e-01 -5.174934267997741699e-01
4.727000000000000000e+03 3.136853027343750000e+01 4.317474365234375000e+00 -1.332819581031799316e+00 -7.167032361030578613e-01 -6.148568391799926758e-01 -5.570337176322937012e-01
4.728000000000000000e+03 3.384904098510742188e+01 5.672570705413818359e+00 -9.869572520256042480e-01 -7.755140066146850586e-01 -5.287413597106933594e-01 -6.186952590942382812e-01
4.729000000000000000e+03 4.282667541503906250e+01 1.749787139892578125e+01 -8.566381335258483887e-01 -9.384693503379821777e-01 -5.385322570800781250e-01 -9.997235536575317383e-01
4.730000000000000000e+03 7.360923004150390625e+01 2.723317527770996094e+01 2.761917114257812500e-01 5.167341709136962891e+00 1.633059978485107422e+00 2.247135877609252930e+00
4.731000000000000000e+03 7.273732757568359375e+01 2.763074874877929688e+01 2.718030810356140137e-01 3.864905834197998047e+00 1.241012692451477051e+00 1.984859228134155273e+00
4.732000000000000000e+03 7.328135681152343750e+01 2.743208503723144531e+01 2.677047848701477051e-01 4.626960277557373047e+00 1.468399643898010254e+00 2.161989688873291016e+00
4.733000000000000000e+03 3.498814773559570312e+01 1.023802947998046875e+01 -1.065430998802185059e+00 -1.083928704261779785e+00 -6.448078751564025879e-01 -9.732379913330078125e-01
4.734000000000000000e+03 3.131590080261230469e+01 2.982443046569824219e+01 6.289100646972656250e-02 1.216338798403739929e-01 5.535746738314628601e-02 8.196888118982315063e-02
4.735000000000000000e+03 1.412849998474121094e+01 9.370298385620117188e+00 9.518784284591674805e-02 3.669049143791198730e-01 1.386278271675109863e-01 1.244934424757957458e-01
4.736000000000000000e+03 1.380325603485107422e+01 8.239122390747070312e+00 1.057031899690628052e-01 4.431745707988739014e-01 1.646633297204971313e-01 1.170921325683593750e-01
4.737000000000000000e+03 1.296046352386474609e+01 7.341736316680908203e+00 1.133430227637290955e-01 4.845275878906250000e-01 1.793611794710159302e-01 3.495289757847785950e-02
4.738000000000000000e+03 2.722722816467285156e+01 2.142027091979980469e+01 9.047154337167739868e-02 1.503839939832687378e-01 7.225666195154190063e-02 1.208269670605659485e-01
4.739000000000000000e+03 2.741555786132812500e+01 2.192202186584472656e+01 8.640120923519134521e-02 1.486728936433792114e-01 7.052222639322280884e-02 1.181549802422523499e-01
4.740000000000000000e+03 2.949689483642578125e+01 5.135527253150939941e-02 -2.807417213916778564e-01 -5.387160181999206543e-01 -2.458373159170150757e-01 -3.040686249732971191e-02
4.741000000000000000e+03 7.462978363037109375e+01 2.905310249328613281e+01 -4.161566495895385742e-01 6.752511024475097656e+00 1.900906324386596680e+00 2.815225124359130859e+00
4.742000000000000000e+03 5.459115982055664062e+01 2.880870628356933594e+01 -1.358840227127075195e+00 2.649110369384288788e-02 -3.997047245502471924e-01 -9.262434840202331543e-01
4.743000000000000000e+03 5.600870513916015625e+01 2.694726753234863281e+01 -1.164143681526184082e+00 1.261015236377716064e-01 -3.114126324653625488e-01 -9.467259049415588379e-01
4.744000000000000000e+03 7.345493316650390625e+01 2.779444885253906250e+01 2.050175517797470093e-01 4.771245479583740234e+00 1.492878913879394531e+00 2.250115394592285156e+00
4.745000000000000000e+03 6.868215179443359375e+01 2.621272659301757812e+01 2.067381888628005981e-01 1.381659269332885742e+00 4.765192270278930664e-01 5.532404184341430664e-01
4.746000000000000000e+03 6.687124633789062500e+01 2.584760665893554688e+01 3.442539274692535400e-02 9.174799919128417969e-01 2.855716049671173096e-01 9.251503646373748779e-02
4.747000000000000000e+03 2.781550598144531250e+01 2.208015060424804688e+01 8.710481971502304077e-02 1.467579156160354614e-01 7.015881687402725220e-02 1.180821135640144348e-01
4.748000000000000000e+03 2.685011863708496094e+01 2.364768600463867188e+01 6.670445948839187622e-02 1.454629898071289062e-01 6.365023553371429443e-02 1.061930283904075623e-01
4.749000000000000000e+03 3.404657363891601562e+01 3.188845252990722656e+01 7.480605691671371460e-02 1.135926917195320129e-01 5.651962384581565857e-02 7.756935060024261475e-02
4.750000000000000000e+03 3.312207412719726562e+01 3.291974258422851562e+01 6.908723711967468262e-02 1.122778505086898804e-01 5.440952628850936890e-02 6.930668652057647705e-02
4.751000000000000000e+03 2.897857856750488281e+01 2.850347280502319336e+00 -1.446785211563110352e+00 -6.816565394401550293e-01 -6.385325193405151367e-01 -4.643732309341430664e-01
4.752000000000000000e+03 2.900287437438964844e+01 -2.574084103107452393e-01 -1.832574158906936646e-01 -4.292340278625488281e-01 -1.837474405765533447e-01 -2.004693821072578430e-02
4.753000000000000000e+03 7.302433013916015625e+01 2.758612823486328125e+01 2.619496881961822510e-01 4.145024299621582031e+00 1.322092175483703613e+00 2.109894514083862305e+00
4.754000000000000000e+03 7.224712371826171875e+01 2.635856819152832031e+01 4.877976477146148682e-01 3.774119377136230469e+00 1.278575062751770020e+00 1.804791092872619629e+00
4.755000000000000000e+03 6.516350555419921875e+01 2.545481872558593750e+01 -1.086464002728462219e-01 6.826584339141845703e-01 1.722036153078079224e-01 -2.093442231416702271e-01
4.756000000000000000e+03 6.474078369140625000e+01 2.629491806030273438e+01 -3.990520834922790527e-01 4.846163690090179443e-01 2.566928975284099579e-02 -3.987686336040496826e-01
4.757000000000000000e+03 7.264512634277343750e+01 2.732309913635253906e+01 3.428553938865661621e-01 3.862558603286743164e+00 1.261624217033386230e+00 1.922736406326293945e+00
4.758000000000000000e+03 2.962162208557128906e+01 3.075486421585083008e+00 -1.408917665481567383e+00 -7.281047701835632324e-01 -6.411067247390747070e-01 -4.649614393711090088e-01
4.759000000000000000e+03 1.006018543243408203e+01 1.502690982818603516e+01 2.444002404808998108e-02 6.773767620325088501e-02 2.765331044793128967e-02 -2.390497596934437752e-03
4.760000000000000000e+03 3.242366027832031250e+01 -2.638070821762084961e+00 4.119639694690704346e-01 -5.847436189651489258e-01 -5.183388665318489075e-02 1.220092084258794785e-02
4.761000000000000000e+03 3.146461296081542969e+01 -1.122132301330566406e+00 1.142702400684356689e-01 -5.763813257217407227e-01 -1.386333256959915161e-01 3.201759234070777893e-02
4.762000000000000000e+03 1.211667728424072266e+01 6.998415470123291016e+00 1.560351550579071045e-01 4.068407118320465088e-01 1.688627600669860840e-01 -4.833785444498062134e-02
4.763000000000000000e+03 6.382500076293945312e+01 2.584040832519531250e+01 -3.917400240898132324e-01 4.689182937145233154e-01 2.315347641706466675e-02 -4.705334603786468506e-01
4.764000000000000000e+03 6.253605651855468750e+01 2.639231109619140625e+01 -6.883028745651245117e-01 3.335068523883819580e-01 -1.064388006925582886e-01 -6.869333386421203613e-01
4.765000000000000000e+03 6.409363555908203125e+01 2.642850685119628906e+01 -5.103675723075866699e-01 4.230485558509826660e-01 -2.619570493698120117e-02 -5.108111500740051270e-01
4.766000000000000000e+03 6.260705947875976562e+01 2.480676841735839844e+01 -2.954527735710144043e-01 5.005325675010681152e-01 6.152393668889999390e-02 -5.046446919441223145e-01
4.767000000000000000e+03 3.402166748046875000e+01 3.279015731811523438e+01 7.387161999940872192e-02 1.111083552241325378e-01 5.549399182200431824e-02 7.284872233867645264e-02
4.768000000000000000e+03 3.534249114990234375e+01 3.115350723266601562e+01 8.109308034181594849e-02 1.132811754941940308e-01 5.831227824091911316e-02 8.411163091659545898e-02
4.769000000000000000e+03 7.279415130615234375e+01 2.622847938537597656e+01 5.074080228805541992e-01 4.342571735382080078e+00 1.454993963241577148e+00 1.939169645309448242e+00
4.770000000000000000e+03 3.158544731140136719e+01 2.757817649841308594e+01 7.206422090530395508e-02 1.252483725547790527e-01 5.919377878308296204e-02 9.505632519721984863e-02
4.771000000000000000e+03 5.631255722045898438e+01 2.745046615600585938e+01 -1.226081371307373047e+00 1.464452296495437622e-01 -3.238908350467681885e-01 -9.570612311363220215e-01
4.772000000000000000e+03 5.630570220947265625e+01 2.603441429138183594e+01 -1.024345040321350098e+00 1.430807113647460938e-01 -2.643792927265167236e-01 -9.139792919158935547e-01
4.773000000000000000e+03 5.528968811035156250e+01 2.805547714233398438e+01 -1.304135322570800781e+00 8.691214025020599365e-02 -3.651669621467590332e-01 -9.517207741737365723e-01
4.774000000000000000e+03 5.204287338256835938e+01 2.729132461547851562e+01 -1.238126754760742188e+00 -3.344569802284240723e-01 -4.717751443386077881e-01 -9.450433850288391113e-01
4.775000000000000000e+03 7.107040405273437500e+01 2.592096519470214844e+01 5.089752078056335449e-01 2.801064252853393555e+00 9.930118918418884277e-01 1.403391718864440918e+00
4.776000000000000000e+03 6.905185699462890625e+01 2.706109428405761719e+01 6.253004539757966995e-03 1.250089883804321289e+00 3.769028782844543457e-01 5.358464121818542480e-01
4.777000000000000000e+03 9.359467506408691406e+00 8.413836479187011719e+00 1.608309000730514526e-01 4.378837719559669495e-02 6.138578429818153381e-02 -2.616083621978759766e-02
4.778000000000000000e+03 9.900950431823730469e+00 7.513548374176025391e+00 1.982613354921340942e-01 7.515064626932144165e-02 8.202359825372695923e-02 -4.691651836037635803e-02
4.779000000000000000e+03 7.201262664794921875e+01 2.574866867065429688e+01 5.517804026603698730e-01 3.756187677383422852e+00 1.292390465736389160e+00 1.703456163406372070e+00
4.780000000000000000e+03 3.566578674316406250e+01 -4.667934894561767578e+00 5.200712680816650391e-01 -5.873798131942749023e-01 -2.019256167113780975e-02 2.612353302538394928e-03
4.781000000000000000e+03 3.450446701049804688e+01 -4.119791030883789062e+00 5.132228732109069824e-01 -6.000134348869323730e-01 -2.603716962039470673e-02 2.505806740373373032e-03
4.782000000000000000e+03 9.597462654113769531e+00 -9.031865119934082031e+00 -1.502167284488677979e-01 -3.535127043724060059e-01 -1.511188298463821411e-01 -4.750570356845855713e-01
4.783000000000000000e+03 6.586050415039062500e+01 2.527387619018554688e+01 3.123235888779163361e-02 8.352084159851074219e-01 2.599322199821472168e-01 -4.567077010869979858e-02
4.784000000000000000e+03 6.615383911132812500e+01 2.600641059875488281e+01 -1.197773888707160950e-01 7.385790348052978516e-01 1.856404840946197510e-01 -9.018776565790176392e-02
4.785000000000000000e+03 1.395026206970214844e+01 -7.630425930023193359e+00 -2.880103290081024170e-01 -6.263031959533691406e-01 -2.742940485477447510e-01 -7.138167023658752441e-01
4.786000000000000000e+03 1.274535751342773438e+01 -8.100432395935058594e+00 -2.634969651699066162e-01 -4.973827600479125977e-01 -2.282639145851135254e-01 -6.505206227302551270e-01
4.787000000000000000e+03 3.757762527465820312e+01 3.496179199218750000e+01 9.840704500675201416e-02 9.530460089445114136e-02 5.811349302530288696e-02 6.904615461826324463e-02
4.788000000000000000e+03 6.821450805664062500e+01 2.545320701599121094e+01 3.258566260337829590e-01 1.444549322128295898e+00 5.311217904090881348e-01 5.173749923706054688e-01
4.789000000000000000e+03 6.928790283203125000e+01 2.576964378356933594e+01 3.838938474655151367e-01 1.763458251953125000e+00 6.442056298255920410e-01 7.851117849349975586e-01
4.790000000000000000e+03 6.838870239257812500e+01 -3.361363410949707031e+00 1.910880953073501587e-01 3.659923553466796875e+00 1.155303478240966797e+00 4.667028486728668213e-01
4.791000000000000000e+03 9.170660972595214844e+00 1.312843513488769531e+01 4.680239036679267883e-02 4.318403825163841248e-02 2.699592895805835724e-02 -1.187022961676120758e-02
4.792000000000000000e+03 1.000595188140869141e+01 1.410795497894287109e+01 3.424815088510513306e-02 7.374659180641174316e-02 3.239842131733894348e-02 -5.001771729439496994e-03
4.793000000000000000e+03 8.591204643249511719e+00 1.012563133239746094e+01 1.103091463446617126e-01 1.387934572994709015e-02 3.725654631853103638e-02 -1.362860109657049179e-02
4.794000000000000000e+03 1.130977439880371094e+01 2.019076156616210938e+01 -4.177768132649362087e-04 5.241991579532623291e-02 1.560064218938350677e-02 2.151833381503820419e-03
4.795000000000000000e+03 6.096674728393554688e+01 2.657804489135742188e+01 -8.722653985023498535e-01 2.710262238979339600e-01 -1.803717464208602905e-01 -8.253756165504455566e-01
4.796000000000000000e+03 6.095069122314453125e+01 2.595361900329589844e+01 -7.163026928901672363e-01 3.093839287757873535e-01 -1.220756247639656067e-01 -7.766615152359008789e-01
4.797000000000000000e+03 6.811212158203125000e+01 -6.609222888946533203e+00 1.690373271703720093e-01 3.586807727813720703e+00 1.126753568649291992e+00 4.052743613719940186e-01
4.798000000000000000e+03 6.969463348388671875e+01 -3.487221479415893555e+00 1.619164943695068359e-01 3.907413244247436523e+00 1.220798850059509277e+00 4.564850926399230957e-01
4.799000000000000000e+03 6.874031829833984375e+01 2.517459297180175781e+01 4.270563423633575439e-01 1.691790819168090820e+00 6.356541514396667480e-01 6.926891207695007324e-01
4.800000000000000000e+03 3.873012542724609375e+01 -5.838781833648681641e+00 5.098480582237243652e-01 -4.756682217121124268e-01 1.025395002216100693e-02 2.704068645834922791e-02
4.801000000000000000e+03 3.403240966796875000e+01 -3.391825914382934570e+00 4.467757344245910645e-01 -6.081951856613159180e-01 -4.842582717537879944e-02 1.706902682781219482e-02
4.802000000000000000e+03 1.286268997192382812e+01 -2.477503013610839844e+01 1.628143340349197388e-01 -4.826057851314544678e-01 -9.593743085861206055e-02 -2.823824286460876465e-01
4.803000000000000000e+03 4.439794921875000000e+01 -1.396669960021972656e+01 3.366089761257171631e-01 6.858212500810623169e-02 1.215573325753211975e-01 4.829295352101325989e-02
4.804000000000000000e+03 4.349618911743164062e+01 -1.181105995178222656e+01 4.058269262313842773e-01 -4.966023936867713928e-02 1.068500056862831116e-01 4.119050502777099609e-02
4.805000000000000000e+03 1.017136859893798828e+01 1.594702911376953125e+01 1.703382655978202820e-02 6.308328360319137573e-02 2.403513155877590179e-02 -3.212590003386139870e-03
4.806000000000000000e+03 7.016798400878906250e+01 2.095266723632812500e+01 7.612915039062500000e-01 3.447595119476318359e+00 1.262665987014770508e+00 1.246049761772155762e+00
4.807000000000000000e+03 6.912741851806640625e+01 1.871024703979492188e+01 7.174078226089477539e-01 3.292989969253540039e+00 1.203119277954101562e+00 1.091087460517883301e+00
4.808000000000000000e+03 6.919214630126953125e+01 1.071445941925048828e+01 4.251178503036499023e-01 3.876565217971801758e+00 1.290504932403564453e+00 8.798782229423522949e-01
4.809000000000000000e+03 6.901769256591796875e+01 9.555486679077148438e+00 3.958022892475128174e-01 3.844150543212890625e+00 1.271985888481140137e+00 8.368506431579589844e-01
4.810000000000000000e+03 3.603884506225585938e+01 -5.482404708862304688e+00 5.407357215881347656e-01 -5.717985630035400391e-01 -9.318856522440910339e-03 -7.782110944390296936e-03
4.811000000000000000e+03 6.742758941650390625e+01 3.643203258514404297e+00 3.073225021362304688e-01 3.458001613616943359e+00 1.129597187042236328e+00 6.510466337203979492e-01
4.812000000000000000e+03 3.476424026489257812e+01 3.408211517333984375e+01 7.703766971826553345e-02 1.069714650511741638e-01 5.520274117588996887e-02 6.803403794765472412e-02
4.813000000000000000e+03 1.000863361358642578e+01 8.170533180236816406e+00 1.699348390102386475e-01 1.002989187836647034e-01 8.107012510299682617e-02 -4.261162132024765015e-02
4.814000000000000000e+03 1.163999557495117188e+01 -9.596112251281738281e+00 -1.507418006658554077e-01 -4.648447632789611816e-01 -1.846759617328643799e-01 -5.831781029701232910e-01
4.815000000000000000e+03 7.076461029052734375e+01 1.528241062164306641e+01 5.308400988578796387e-01 4.330044269561767578e+00 1.458265304565429688e+00 1.113016128540039062e+00
4.816000000000000000e+03 7.085557556152343750e+01 1.644824600219726562e+01 5.757923722267150879e-01 4.316659450531005859e+00 1.467735528945922852e+00 1.176550865173339844e+00
4.817000000000000000e+03 9.547044754028320312e+00 -1.393018341064453125e+01 3.272655978798866272e-02 -5.203293561935424805e-01 -1.462808400392532349e-01 -4.574527740478515625e-01
4.818000000000000000e+03 6.961566925048828125e+01 1.422020339965820312e+01 5.357243418693542480e-01 3.902524709701538086e+00 1.331474781036376953e+00 1.017156720161437988e+00
4.819000000000000000e+03 4.216843795776367188e+01 -8.438334465026855469e+00 4.871287345886230469e-01 -2.157389670610427856e-01 8.141692727804183960e-02 4.473943635821342468e-02
4.820000000000000000e+03 4.194597625732421875e+01 -9.187815666198730469e+00 4.692855477333068848e-01 -2.270616888999938965e-01 7.266715914011001587e-02 2.864715084433555603e-02
4.821000000000000000e+03 1.057596969604492188e+01 -1.284562778472900391e+01 2.002288028597831726e-02 -5.164481997489929199e-01 -1.489275991916656494e-01 -4.939290285110473633e-01
4.822000000000000000e+03 7.054114532470703125e+01 1.291185760498046875e+01 4.466926157474517822e-01 4.306087970733642578e+00 1.425834059715270996e+00 9.938283562660217285e-01
4.823000000000000000e+03 6.934779357910156250e+01 1.188271141052246094e+01 4.584173262119293213e-01 3.896175622940063477e+00 1.306377887725830078e+00 9.231068491935729980e-01
4.824000000000000000e+03 4.303192138671875000e+01 -5.376915931701660156e+00 4.542172253131866455e-01 -1.837244778871536255e-01 8.114782720804214478e-02 8.130713552236557007e-02
4.825000000000000000e+03 1.006084823608398438e+01 9.677174568176269531e+00 1.107482686638832092e-01 1.120520830154418945e-01 6.684010475873947144e-02 -2.030357159674167633e-02
4.826000000000000000e+03 6.815940856933593750e+01 1.777411842346191406e+01 6.961802840232849121e-01 3.000430583953857422e+00 1.108983278274536133e+00 9.609449505805969238e-01
4.827000000000000000e+03 1.089157867431640625e+01 2.261445236206054688e+01 -7.642426993697881699e-03 2.252016216516494751e-02 4.463320598006248474e-03 -3.337780246511101723e-03
4.828000000000000000e+03 6.688581848144531250e+01 -2.076189231872558594e+01 6.738247722387313843e-02 3.263056039810180664e+00 9.991315007209777832e-01 2.144440710544586182e-01
4.829000000000000000e+03 6.909053802490234375e+01 -1.524178886413574219e+01 7.555198669433593750e-02 3.640311241149902344e+00 1.114758968353271484e+00 2.411722987890243530e-01
4.830000000000000000e+03 9.655681610107421875e+00 -2.002799797058105469e+01 1.039037704467773438e-01 -6.050031185150146484e-01 -1.503298133611679077e-01 -3.473876714706420898e-01
4.831000000000000000e+03 1.550248527526855469e+01 -1.834593200683593750e+01 2.020787745714187622e-01 -4.086284637451171875e-01 -6.196490675210952759e-02 -3.430799841880798340e-01
4.832000000000000000e+03 1.059605121612548828e+01 2.144875717163085938e+01 -5.537817254662513733e-03 2.435394190251827240e-02 5.644837394356727600e-03 -5.109658464789390564e-03
4.833000000000000000e+03 1.123690128326416016e+01 2.381911087036132812e+01 -8.286269381642341614e-03 2.226498164236545563e-02 4.193613771349191666e-03 -2.293191617354750633e-03
4.834000000000000000e+03 1.163856983184814453e+01 2.508082771301269531e+01 -9.678718633949756622e-03 2.144807204604148865e-02 3.530806163325905800e-03 -7.431561825796961784e-04
4.835000000000000000e+03 9.666481971740722656e+00 -1.497868824005126953e+01 7.869525253772735596e-02 -5.372514724731445312e-01 -1.375668644905090332e-01 -4.339637160301208496e-01
4.836000000000000000e+03 1.519491195678710938e+01 -1.964896965026855469e+01 1.867795139551162720e-01 -4.103160798549652100e-01 -6.706096976995468140e-02 -3.454490005970001221e-01
4.837000000000000000e+03 4.462200164794921875e+01 -1.683933639526367188e+01 2.110930979251861572e-01 9.838011115789413452e-02 9.284196048974990845e-02 5.837263166904449463e-02
4.838000000000000000e+03 3.613197708129882812e+01 3.543123245239257812e+01 8.799237012863159180e-02 9.878818690776824951e-02 5.603416636586189270e-02 6.110765039920806885e-02
4.839000000000000000e+03 1.030086994171142578e+01 1.925314521789550781e+01 -1.174597768113017082e-03 3.058045729994773865e-02 8.821757510304450989e-03 -4.778329282999038696e-03
4.840000000000000000e+03 1.375924015045166016e+01 -1.587086200714111328e+01 1.639265269041061401e-01 -5.213953256607055664e-01 -1.072406396269798279e-01 -4.151940345764160156e-01
4.841000000000000000e+03 1.455178451538085938e+01 -1.730041694641113281e+01 1.935626119375228882e-01 -4.533393979072570801e-01 -7.793302834033966064e-02 -3.779889345169067383e-01
4.842000000000000000e+03 6.738142395019531250e+01 -1.342172026634216309e+00 2.354051023721694946e-01 3.475388288497924805e+00 1.113237977027893066e+00 5.282824635505676270e-01
4.843000000000000000e+03 7.065940093994140625e+01 1.410296058654785156e+01 4.885716438293457031e-01 4.326208591461181641e+00 1.444434046745300293e+00 1.053876042366027832e+00
4.844000000000000000e+03 6.899737548828125000e+01 -3.899488151073455811e-01 2.091950923204421997e-01 3.799484729766845703e+00 1.202603936195373535e+00 5.341242551803588867e-01
4.845000000000000000e+03 6.812633514404296875e+01 5.197738170623779297e+00 3.210027217864990234e-01 3.650130510330200195e+00 1.191339969635009766e+00 6.942761540412902832e-01
4.846000000000000000e+03 1.277083015441894531e+01 3.027695655822753906e+01 -1.112445071339607239e-02 1.524321921169757843e-02 1.235630712471902370e-03 5.832202732563018799e-04
4.847000000000000000e+03 1.241552257537841797e+01 3.197944831848144531e+01 -1.095910836011171341e-02 3.501535393297672272e-03 -2.237271983176469803e-03 1.811922411434352398e-04
4.848000000000000000e+03 6.859177398681640625e+01 -8.152853965759277344e+00 1.429127156734466553e-01 3.630444049835205078e+00 1.132007002830505371e+00 3.647415041923522949e-01
4.849000000000000000e+03 6.500080108642578125e+01 -2.195102882385253906e+01 7.018794119358062744e-02 2.990393400192260742e+00 9.181743860244750977e-01 2.139590829610824585e-01
4.850000000000000000e+03 6.369131469726562500e+01 -2.136167335510253906e+01 8.501370996236801147e-02 2.800988912582397461e+00 8.658007979393005371e-01 2.224038392305374146e-01
4.851000000000000000e+03 4.847556686401367188e+01 -2.891090011596679688e+01 -1.011634021997451782e-01 6.638913154602050781e-01 1.688183695077896118e-01 1.883801370859146118e-01
4.852000000000000000e+03 5.138027191162109375e+01 -2.463250160217285156e+01 5.148532334715127945e-03 1.074985861778259277e+00 3.240402936935424805e-01 1.391773372888565063e-01
4.853000000000000000e+03 5.221836853027343750e+01 -1.824996566772460938e+01 1.799234598875045776e-01 1.106321692466735840e+00 3.858735263347625732e-01 1.362698078155517578e-01
4.854000000000000000e+03 4.895583343505859375e+01 -1.866117668151855469e+01 1.726340204477310181e-01 6.703239083290100098e-01 2.528873682022094727e-01 9.408807754516601562e-02
4.855000000000000000e+03 6.888440704345703125e+01 -5.725086212158203125e+00 1.589635908603668213e-01 3.715483188629150391e+00 1.162333965301513672e+00 4.147371053695678711e-01
4.856000000000000000e+03 6.798354339599609375e+01 -4.850600242614746094e+00 1.844716817140579224e-01 3.556780815124511719e+00 1.122375726699829102e+00 4.422143697738647461e-01
4.857000000000000000e+03 5.288501739501953125e+01 -2.318405723571777344e+01 5.661223828792572021e-02 1.293080449104309082e+00 4.049077928066253662e-01 1.571028679609298706e-01
4.858000000000000000e+03 5.021748352050781250e+01 -2.376385307312011719e+01 1.908772252500057220e-02 8.881402611732482910e-01 2.721683979034423828e-01 1.288141310214996338e-01
4.859000000000000000e+03 6.946891784667968750e+01 5.874579429626464844e+00 2.928553521633148193e-01 3.997413635253906250e+00 1.287080645561218262e+00 7.186056375503540039e-01
4.860000000000000000e+03 6.992858886718750000e+01 8.152748107910156250e+00 3.266120254993438721e-01 4.133709430694580078e+00 1.338096499443054199e+00 7.938028573989868164e-01
4.861000000000000000e+03 1.144599723815917969e+01 -1.425947856903076172e+01 8.513469249010086060e-02 -5.347180366516113281e-01 -1.348749995231628418e-01 -4.706982374191284180e-01
4.862000000000000000e+03 1.122047901153564453e+01 2.835068321228027344e+01 -1.055032853037118912e-02 -2.818605280481278896e-04 -3.249656641855835915e-03 -3.166686277836561203e-03
4.863000000000000000e+03 6.732611083984375000e+01 -1.925417518615722656e+01 6.729135662317276001e-02 3.339236736297607422e+00 1.021958470344543457e+00 2.256134450435638428e-01
4.864000000000000000e+03 2.766144752502441406e+01 1.913729786872863770e+00 -1.363890528678894043e+00 -5.285264849662780762e-01 -5.677251219749450684e-01 -4.074310660362243652e-01
4.865000000000000000e+03 4.309013366699218750e+01 1.825570297241210938e+01 -8.833597302436828613e-01 -9.675042033195495605e-01 -5.552591681480407715e-01 -1.029831767082214355e+00
4.866000000000000000e+03 2.642561340332031250e+01 1.346530199050903320e+00 -1.381447315216064453e+00 -3.305319845676422119e-01 -5.135937929153442383e-01 -3.811176419258117676e-01
4.867000000000000000e+03 2.724089813232421875e+01 1.842297464609146118e-01 -4.724118113517761230e-01 -3.434954285621643066e-01 -2.447721809148788452e-01 -2.256345897912979126e-01
4.868000000000000000e+03 4.875116729736328125e+01 2.457066917419433594e+01 -1.127899289131164551e+00 -7.336354255676269531e-01 -5.584604144096374512e-01 -1.028971672058105469e+00
4.869000000000000000e+03 3.774821090698242188e+01 1.305337715148925781e+01 -9.740869998931884766e-01 -1.092805027961730957e+00 -6.200675964355468750e-01 -9.870913028717041016e-01
4.870000000000000000e+03 4.097545623779296875e+01 1.614152526855468750e+01 -9.153437018394470215e-01 -9.952736496925354004e-01 -5.731852054595947266e-01 -1.009970784187316895e+00
4.871000000000000000e+03 5.320514678955078125e+01 2.823937416076660156e+01 -1.300448060035705566e+00 -1.574991345405578613e-01 -4.373841583728790283e-01 -9.290795326232910156e-01
4.872000000000000000e+03 5.159182739257812500e+01 2.731143951416015625e+01 -1.241031169891357422e+00 -4.226608872413635254e-01 -4.991076290607452393e-01 -9.578420519828796387e-01
4.873000000000000000e+03 4.287491607666015625e+01 1.878382492065429688e+01 -9.227839112281799316e-01 -1.015102863311767578e+00 -5.813660025596618652e-01 -1.070162773132324219e+00
4.874000000000000000e+03 4.468950653076171875e+01 2.018251609802246094e+01 -9.380158782005310059e-01 -9.550294876098632812e-01 -5.679135918617248535e-01 -1.023256063461303711e+00
4.875000000000000000e+03 2.610588073730468750e+01 2.115555000305175781e+01 8.526834845542907715e-02 1.564043760299682617e-01 7.250181585550308228e-02 1.196148842573165894e-01
4.876000000000000000e+03 2.574246597290039062e+01 2.121268081665039062e+01 8.264380693435668945e-02 1.573149859905242920e-01 7.198763638734817505e-02 1.183996871113777161e-01
4.877000000000000000e+03 4.884862136840820312e+01 2.490895080566406250e+01 -1.150132179260253906e+00 -7.410881519317626953e-01 -5.673660635948181152e-01 -1.039561152458190918e+00
4.878000000000000000e+03 4.533403015136718750e+01 2.076714324951171875e+01 -9.589062929153442383e-01 -9.300565123558044434e-01 -5.666888356208801270e-01 -1.014834642410278320e+00
4.879000000000000000e+03 4.430458450317382812e+01 2.010201072692871094e+01 -9.499142169952392578e-01 -9.862645268440246582e-01 -5.808536410331726074e-01 -1.044307112693786621e+00
4.880000000000000000e+03 5.484454727172851562e+01 2.781909179687500000e+01 -1.280033588409423828e+00 4.694169387221336365e-02 -3.699275553226470947e-01 -9.480385780334472656e-01
4.881000000000000000e+03 1.590353107452392578e+01 1.146455097198486328e+01 9.817419201135635376e-02 2.869206964969635010e-01 1.155284717679023743e-01 1.491522341966629028e-01
4.882000000000000000e+03 1.815513038635253906e+01 1.327923297882080078e+01 1.111681833863258362e-01 2.405811250209808350e-01 1.055247932672500610e-01 1.587356328964233398e-01
4.883000000000000000e+03 4.389826583862304688e+01 1.988736534118652344e+01 -9.544770717620849609e-01 -1.008862853050231934e+00 -5.890019536018371582e-01 -1.059560537338256836e+00
4.884000000000000000e+03 4.446500778198242188e+01 2.052009582519531250e+01 -9.839364886283874512e-01 -1.000776767730712891e+00 -5.954139828681945801e-01 -1.054865121841430664e+00
4.885000000000000000e+03 4.709106063842773438e+01 2.264256477355957031e+01 -1.055804133415222168e+00 -8.400893807411193848e-01 -5.687680244445800781e-01 -1.011904835700988770e+00
4.886000000000000000e+03 4.831840896606445312e+01 2.323994064331054688e+01 -1.043867945671081543e+00 -7.183179259300231934e-01 -5.286557674407958984e-01 -9.840366244316101074e-01
4.887000000000000000e+03 4.961124420166015625e+01 2.620318603515625000e+01 -1.200637102127075195e+00 -7.084712982177734375e-01 -5.727325081825256348e-01 -1.037000179290771484e+00
4.888000000000000000e+03 4.985802841186523438e+01 2.594857025146484375e+01 -1.177506566047668457e+00 -6.532962322235107422e-01 -5.492408275604248047e-01 -1.016155958175659180e+00
4.889000000000000000e+03 4.553466796875000000e+01 2.106113243103027344e+01 -9.842664599418640137e-01 -9.334794282913208008e-01 -5.753237605094909668e-01 -1.015318036079406738e+00
4.890000000000000000e+03 3.638047790527343750e+01 1.153065490722656250e+01 -1.003917694091796875e+00 -1.084188580513000488e+00 -6.264318823814392090e-01 -9.670581817626953125e-01
4.891000000000000000e+03 3.721819686889648438e+01 1.239934444427490234e+01 -9.825755357742309570e-01 -1.086274862289428711e+00 -6.206551194190979004e-01 -9.775454998016357422e-01
4.892000000000000000e+03 4.112534332275390625e+01 1.565939998626708984e+01 -8.787063956260681152e-01 -9.601711034774780273e-01 -5.516632199287414551e-01 -9.684789776802062988e-01
4.893000000000000000e+03 1.764422035217285156e+01 1.422626018524169922e+01 8.730933070182800293e-02 2.283518463373184204e-01 9.469835460186004639e-02 1.350288242101669312e-01
4.894000000000000000e+03 5.076425552368164062e+01 2.704742050170898438e+01 -1.232773900032043457e+00 -5.617839694023132324e-01 -5.383673310279846191e-01 -9.881320595741271973e-01
4.895000000000000000e+03 5.160725021362304688e+01 2.689529037475585938e+01 -1.218686223030090332e+00 -4.045272767543792725e-01 -4.869640469551086426e-01 -9.535502195358276367e-01
4.896000000000000000e+03 3.829916763305664062e+01 1.328198051452636719e+01 -9.425616860389709473e-01 -1.061542510986328125e+00 -6.012312173843383789e-01 -9.662561416625976562e-01
4.897000000000000000e+03 5.082904434204101562e+01 2.666879463195800781e+01 -1.207261443138122559e+00 -5.313125252723693848e-01 -5.215722322463989258e-01 -9.805936217308044434e-01
4.898000000000000000e+03 2.520655059814453125e+01 2.041341018676757812e+01 8.830141276121139526e-02 1.617747396230697632e-01 7.502284646034240723e-02 1.222915798425674438e-01
4.899000000000000000e+03 4.473642730712890625e+01 1.977015113830566406e+01 -9.037140607833862305e-01 -9.270893931388854980e-01 -5.492410063743591309e-01 -1.002125859260559082e+00
4.900000000000000000e+03 2.238911247253417969e+01 1.817082786560058594e+01 9.128212183713912964e-02 1.809762567281723022e-01 8.167751133441925049e-02 1.305284202098846436e-01
4.901000000000000000e+03 2.189278411865234375e+01 1.826041984558105469e+01 8.443254232406616211e-02 1.815517544746398926e-01 7.979529350996017456e-02 1.258283406496047974e-01
4.902000000000000000e+03 3.844370269775390625e+01 1.371630382537841797e+01 -9.603141546249389648e-01 -1.079366803169250488e+00 -6.119043231010437012e-01 -9.878353476524353027e-01
4.903000000000000000e+03 4.574931335449218750e+01 2.134270668029785156e+01 -9.976468086242675781e-01 -9.290667176246643066e-01 -5.780140757560729980e-01 -1.017970919609069824e+00
4.904000000000000000e+03 5.314335632324218750e+01 2.601311874389648438e+01 -1.121928334236145020e+00 -1.584058403968811035e-01 -3.841002583503723145e-01 -9.204742312431335449e-01
4.905000000000000000e+03 3.887888717651367188e+01 1.425421142578125000e+01 -9.537702798843383789e-01 -1.075542092323303223e+00 -6.087937355041503906e-01 -9.941400289535522461e-01
4.906000000000000000e+03 4.345164108276367188e+01 1.894040870666503906e+01 -9.052680730819702148e-01 -9.852405190467834473e-01 -5.671525597572326660e-01 -1.041908860206604004e+00
4.907000000000000000e+03 4.377548599243164062e+01 1.958804321289062500e+01 -9.376232028007507324e-01 -1.001350164413452148e+00 -5.816920399665832520e-01 -1.053787112236022949e+00
4.908000000000000000e+03 2.263782310485839844e+01 1.977066993713378906e+01 7.449624687433242798e-02 1.707523614168167114e-01 7.357458025217056274e-02 1.160508021712303162e-01
4.909000000000000000e+03 3.922221374511718750e+01 1.444335460662841797e+01 -9.390960335731506348e-01 -1.055644750595092773e+00 -5.984222292900085449e-01 -9.840444326400756836e-01
4.910000000000000000e+03 1.410215568542480469e+01 1.066656303405761719e+01 7.951318472623825073e-02 3.031373918056488037e-01 1.147951707243919373e-01 1.022185683250427246e-01
4.911000000000000000e+03 4.751480484008789062e+01 2.268268775939941406e+01 -1.034999847412109375e+00 -7.874946594238281250e-01 -5.467483401298522949e-01 -9.920315146446228027e-01
4.912000000000000000e+03 4.002943801879882812e+01 1.530653762817382812e+01 -9.357264041900634766e-01 -1.031955838203430176e+00 -5.903046727180480957e-01 -9.987913966178894043e-01
4.913000000000000000e+03 2.090806388854980469e+01 1.661897468566894531e+01 9.608837962150573730e-02 1.963876932859420776e-01 8.774282783269882202e-02 1.367482393980026245e-01
4.914000000000000000e+03 2.098068046569824219e+01 1.700353813171386719e+01 9.226290881633758545e-02 1.937088966369628906e-01 8.579154312610626221e-02 1.333919316530227661e-01
4.915000000000000000e+03 5.419360351562500000e+01 2.736655044555664062e+01 -1.242026090621948242e+00 -2.863320149481296539e-02 -3.811977803707122803e-01 -9.359351396560668945e-01
4.916000000000000000e+03 3.680352783203125000e+01 1.202840137481689453e+01 -9.970171451568603516e-01 -1.089551448822021484e+00 -6.259705424308776855e-01 -9.753035306930541992e-01
4.917000000000000000e+03 3.954804229736328125e+01 1.461402130126953125e+01 -9.297933578491210938e-01 -1.040863752365112305e+00 -5.911971330642700195e-01 -9.796257615089416504e-01
4.918000000000000000e+03 4.589217376708984375e+01 2.162590980529785156e+01 -1.018010258674621582e+00 -9.266226291656494141e-01 -5.833898782730102539e-01 -1.024902105331420898e+00
4.919000000000000000e+03 5.488468551635742188e+01 2.826623535156250000e+01 -1.327632665634155273e+00 5.317884683609008789e-02 -3.823361694812774658e-01 -9.423345923423767090e-01
4.920000000000000000e+03 5.375093078613281250e+01 2.805457496643066406e+01 -1.296494841575622559e+00 -7.618995010852813721e-02 -4.118054509162902832e-01 -9.332675933837890625e-01
4.921000000000000000e+03 4.428270339965820312e+01 1.979867172241210938e+01 -9.300840497016906738e-01 -9.743805527687072754e-01 -5.713393688201904297e-01 -1.032387614250183105e+00
4.922000000000000000e+03 4.418427658081054688e+01 2.034831428527832031e+01 -9.754239916801452637e-01 -1.011167526245117188e+00 -5.959774255752563477e-01 -1.064265131950378418e+00
4.923000000000000000e+03 2.231241035461425781e+01 1.906564712524414062e+01 7.903882116079330444e-02 1.763342618942260742e-01 7.661192864179611206e-02 1.208906024694442749e-01
4.924000000000000000e+03 5.030893707275390625e+01 2.597428321838378906e+01 -1.170920372009277344e+00 -5.859211087226867676e-01 -5.270524621009826660e-01 -9.916684031486511230e-01
4.925000000000000000e+03 1.952112007141113281e+01 1.535600662231445312e+01 9.828259795904159546e-02 2.107871919870376587e-01 9.272093325853347778e-02 1.410602927207946777e-01
4.926000000000000000e+03 1.898809814453125000e+01 1.477847671508789062e+01 9.915747493505477905e-02 2.167311608791351318e-01 9.476659446954727173e-02 1.439015418291091919e-01
4.927000000000000000e+03 1.720708656311035156e+01 1.550923156738281250e+01 6.500376015901565552e-02 2.093974351882934570e-01 8.232035487890243530e-02 1.110175922513008118e-01
4.928000000000000000e+03 4.907638549804687500e+01 2.564424133300781250e+01 -1.185459494590759277e+00 -7.582916021347045898e-01 -5.831253528594970703e-01 -1.053722620010375977e+00
4.929000000000000000e+03 5.132835388183593750e+01 2.641476058959960938e+01 -1.183754563331604004e+00 -4.319427907466888428e-01 -4.847092032432556152e-01 -9.589478373527526855e-01
4.930000000000000000e+03 5.060566711425781250e+01 2.613190650939941406e+01 -1.175394892692565918e+00 -5.425843596458435059e-01 -5.153937339782714844e-01 -9.809303283691406250e-01
4.931000000000000000e+03 5.095341491699218750e+01 2.627982521057128906e+01 -1.179952621459960938e+00 -4.912205636501312256e-01 -5.013519525527954102e-01 -9.702551960945129395e-01
4.932000000000000000e+03 2.243999290466308594e+01 1.862705230712890625e+01 8.620899170637130737e-02 1.781031340360641479e-01 7.929363846778869629e-02 1.260282546281814575e-01
4.933000000000000000e+03 2.562863922119140625e+01 2.050644683837890625e+01 9.015955030918121338e-02 1.600297987461090088e-01 7.505679875612258911e-02 1.229658648371696472e-01
4.934000000000000000e+03 1.998801994323730469e+01 1.645515823364257812e+01 8.648519963026046753e-02 1.989503502845764160e-01 8.563067018985748291e-02 1.303285062313079834e-01
4.935000000000000000e+03 4.362505722045898438e+01 1.926900482177734375e+01 -9.192275404930114746e-01 -9.939059019088745117e-01 -5.739400386810302734e-01 -1.048291087150573730e+00
4.936000000000000000e+03 4.141950607299804688e+01 1.622507095336914062e+01 -8.896105885505676270e-01 -9.679477214813232422e-01 -5.572674870491027832e-01 -9.948254823684692383e-01
4.937000000000000000e+03 3.025215911865234375e+01 2.690136337280273438e+01 6.710150837898254395e-02 1.289289146661758423e-01 5.880912393331527710e-02 9.630221873521804810e-02
4.938000000000000000e+03 3.219260787963867188e+01 2.854689025878906250e+01 7.172174006700515747e-02 1.227628067135810852e-01 5.834536254405975342e-02 9.107380360364913940e-02
4.939000000000000000e+03 4.591422653198242188e+01 2.203708267211914062e+01 -1.056924343109130859e+00 -9.469435811042785645e-01 -6.011604070663452148e-01 -1.042891025543212891e+00
4.940000000000000000e+03 2.478147125244140625e+01 2.020367240905761719e+01 8.735232800245285034e-02 1.633468866348266602e-01 7.520976662635803223e-02 1.224185153841972351e-01
4.941000000000000000e+03 3.986915969848632812e+01 1.477682495117187500e+01 -9.180819392204284668e-01 -1.018994450569152832e+00 -5.811229348182678223e-01 -9.724246263504028320e-01
4.942000000000000000e+03 4.019311523437500000e+01 1.491980361938476562e+01 -9.031962752342224121e-01 -9.997894763946533203e-01 -5.708957314491271973e-01 -9.655206203460693359e-01
4.943000000000000000e+03 4.871561813354492188e+01 2.372793579101562500e+01 -1.066869854927062988e+00 -6.931605339050292969e-01 -5.280091166496276855e-01 -9.892513751983642578e-01
4.944000000000000000e+03 4.037302780151367188e+01 1.544467735290527344e+01 -9.200124740600585938e-01 -1.010772943496704102e+00 -5.792356133460998535e-01 -9.918918609619140625e-01
4.945000000000000000e+03 2.077178192138671875e+01 1.625720024108886719e+01 9.985722601413726807e-02 1.996683478355407715e-01 8.985767513513565063e-02 1.402707695960998535e-01
4.946000000000000000e+03 3.761005020141601562e+01 1.272403144836425781e+01 -9.694506525993347168e-01 -1.083942294120788574e+00 -6.160178780555725098e-01 -9.764120578765869141e-01
4.947000000000000000e+03 2.434926605224609375e+01 1.996551895141601562e+01 8.704667538404464722e-02 1.659269779920578003e-01 7.589209824800491333e-02 1.225159615278244019e-01
4.948000000000000000e+03 2.420576286315917969e+01 1.927048110961914062e+01 9.476506710052490234e-02 1.689769178628921509e-01 7.912259548902511597e-02 1.280815005302429199e-01
4.949000000000000000e+03 4.608127593994140625e+01 2.180800437927246094e+01 -1.027261376380920410e+00 -9.161995649337768555e-01 -5.830382704734802246e-01 -1.022574663162231445e+00
4.950000000000000000e+03 4.636028671264648438e+01 2.193565559387207031e+01 -1.026697993278503418e+00 -8.929554820060729980e-01 -5.758960247039794922e-01 -1.014214873313903809e+00
4.951000000000000000e+03 2.036912918090820312e+01 1.637574386596679688e+01 9.285882860422134399e-02 1.992692351341247559e-01 8.763841539621353149e-02 1.349237263202667236e-01
4.952000000000000000e+03 1.917823219299316406e+01 1.428898525238037109e+01 1.110997572541236877e-01 2.227098792791366577e-01 1.001428961753845215e-01 1.539971083402633667e-01
4.953000000000000000e+03 2.019317436218261719e+01 1.480156803131103516e+01 1.174742206931114197e-01 2.135119140148162842e-01 9.929583966732025146e-02 1.551998406648635864e-01
4.954000000000000000e+03 3.721733093261718750e+01 1.199291229248046875e+01 -9.637595415115356445e-01 -1.057165861129760742e+00 -6.062776446342468262e-01 -9.455460309982299805e-01
4.955000000000000000e+03 4.794335174560546875e+01 2.272922706604003906e+01 -1.017745614051818848e+00 -7.383980751037597656e-01 -5.268431305885314941e-01 -9.742994904518127441e-01
4.956000000000000000e+03 2.982398796081542969e+01 3.603352785110473633e+00 -1.524616837501525879e+00 -7.500228285789489746e-01 -6.823918819427490234e-01 -5.416645407676696777e-01
4.957000000000000000e+03 2.134006309509277344e+01 1.786151504516601562e+01 8.391153067350387573e-02 1.856105625629425049e-01 8.085662871599197388e-02 1.261189430952072144e-01
4.958000000000000000e+03 2.089107894897460938e+01 1.739448547363281250e+01 8.447437733411788940e-02 1.899552941322326660e-01 8.232890069484710693e-02 1.277354806661605835e-01
4.959000000000000000e+03 1.254645442962646484e+01 7.131375789642333984e+00 1.323577761650085449e-01 4.591597020626068115e-01 1.774552464485168457e-01 -5.531297065317630768e-03
4.960000000000000000e+03 2.701841163635253906e+01 1.375136017799377441e+00 -1.265598416328430176e+00 -3.901781737804412842e-01 -4.967329800128936768e-01 -3.410289287567138672e-01
4.961000000000000000e+03 1.395662784576416016e+01 8.575508117675781250e+00 1.024840325117111206e-01 4.144181013107299805e-01 1.550706326961517334e-01 1.281304061412811279e-01
4.962000000000000000e+03 3.510135269165039062e+01 9.355488777160644531e+00 -1.016775488853454590e+00 -1.008542180061340332e+00 -6.075953245162963867e-01 -8.876041173934936523e-01
4.963000000000000000e+03 4.246398162841796875e+01 1.806613540649414062e+01 -9.072394967079162598e-01 -9.992815256118774414e-01 -5.719563364982604980e-01 -1.057106375694274902e+00
4.964000000000000000e+03 4.326960754394531250e+01 1.860408592224121094e+01 -8.921630382537841797e-01 -9.778290987014770508e-01 -5.609976649284362793e-01 -1.037331819534301758e+00
4.965000000000000000e+03 2.755302238464355469e+01 1.579599857330322266e+00 -1.301582098007202148e+00 -4.646812081336975098e-01 -5.298789739608764648e-01 -3.439801335334777832e-01
4.966000000000000000e+03 3.538739776611328125e+01 1.024591541290283203e+01 -1.024538636207580566e+00 -1.054119825363159180e+00 -6.235975623130798340e-01 -9.382078051567077637e-01
4.967000000000000000e+03 2.853419685363769531e+01 2.463306236267089844e+01 6.876992434263229370e-02 1.388749629259109497e-01 6.229346245527267456e-02 1.055790707468986511e-01
4.968000000000000000e+03 3.287946319580078125e+01 4.642175197601318359e+00 -1.070626139640808105e+00 -7.101666331291198730e-01 -5.342378616333007812e-01 -5.294447541236877441e-01
4.969000000000000000e+03 1.364640903472900391e+01 8.666466712951660156e+00 9.667467325925827026e-02 4.109043478965759277e-01 1.522736996412277222e-01 1.011219099164009094e-01
4.970000000000000000e+03 1.677938652038574219e+01 1.242238044738769531e+01 9.752505272626876831e-02 2.632936537265777588e-01 1.082456186413764954e-01 1.522516161203384399e-01
4.971000000000000000e+03 1.752070999145507812e+01 1.262612628936767578e+01 1.103628724813461304e-01 2.524417936801910400e-01 1.088414043188095093e-01 1.605548858642578125e-01
4.972000000000000000e+03 2.886662292480468750e+01 2.058784484863281250e+00 -1.163379192352294922e+00 -6.152934432029724121e-01 -5.336018204689025879e-01 -2.994756400585174561e-01
4.973000000000000000e+03 1.639281272888183594e+01 1.174844074249267578e+01 1.032571569085121155e-01 2.781842947006225586e-01 1.144324392080307007e-01 1.556804925203323364e-01
4.974000000000000000e+03 1.543024444580078125e+01 1.155509376525878906e+01 8.860687166452407837e-02 2.861768603324890137e-01 1.124351173639297485e-01 1.327145695686340332e-01
4.975000000000000000e+03 2.288155746459960938e+01 1.808615493774414062e+01 9.829669445753097534e-02 1.799360960721969604e-01 8.346983790397644043e-02 1.346427351236343384e-01
4.976000000000000000e+03 1.405849933624267578e+01 9.865070343017578125e+00 8.954275399446487427e-02 3.382802903652191162e-01 1.283469200134277344e-01 1.102066114544868469e-01
4.977000000000000000e+03 3.342267227172851562e+01 5.092506408691406250e+00 -1.015885472297668457e+00 -7.361875176429748535e-01 -5.256218910217285156e-01 -5.635460615158081055e-01
4.978000000000000000e+03 1.711931610107421875e+01 1.229967498779296875e+01 1.084710806608200073e-01 2.618072628974914551e-01 1.110835075378417969e-01 1.591521948575973511e-01
4.979000000000000000e+03 1.491238498687744141e+01 1.109670066833496094e+01 8.536498993635177612e-02 2.966201901435852051e-01 1.145955547690391541e-01 1.234136447310447693e-01
4.980000000000000000e+03 3.521648406982421875e+01 9.927305221557617188e+00 -1.030497312545776367e+00 -1.042208790779113770e+00 -6.218118667602539062e-01 -9.233373403549194336e-01
4.981000000000000000e+03 2.701652336120605469e+01 5.956638455390930176e-01 -7.363978028297424316e-01 -3.092051744461059570e-01 -3.136808872222900391e-01 -1.713917106389999390e-01
4.982000000000000000e+03 3.038446998596191406e+01 2.748701858520507812e+01 6.557882577180862427e-02 1.274247467517852783e-01 5.790106952190399170e-02 9.330116212368011475e-02
4.983000000000000000e+03 3.095840263366699219e+01 2.720611572265625000e+01 6.992051005363464355e-02 1.266964077949523926e-01 5.898507684469223022e-02 9.572502225637435913e-02
4.984000000000000000e+03 5.503148651123046875e+01 2.872311401367187500e+01 -1.365897536277770996e+00 7.132904976606369019e-02 -3.883705437183380127e-01 -9.386636614799499512e-01
4.985000000000000000e+03 2.960814094543457031e+01 2.565192604064941406e+01 6.931462883949279785e-02 1.328740715980529785e-01 6.065661087632179260e-02 1.020658090710639954e-01
4.986000000000000000e+03 2.838216209411621094e+01 2.507954788208007812e+01 6.545782089233398438e-02 1.374979764223098755e-01 6.088674068450927734e-02 1.026287227869033813e-01
4.987000000000000000e+03 7.286042022705078125e+01 2.839524078369140625e+01 5.811548978090286255e-02 3.613202095031738281e+00 1.101395249366760254e+00 2.009995937347412109e+00
4.988000000000000000e+03 7.238824462890625000e+01 2.793171691894531250e+01 1.850177049636840820e-01 3.324230909347534180e+00 1.052774548530578613e+00 1.790624260902404785e+00
4.989000000000000000e+03 3.138512992858886719e+01 3.850722551345825195e+00 -1.219907045364379883e+00 -6.815122365951538086e-01 -5.704257488250732422e-01 -4.597746729850769043e-01
4.990000000000000000e+03 2.932438468933105469e+01 2.614028358459472656e+01 6.502329558134078979e-02 1.326692849397659302e-01 5.930777266621589661e-02 9.857867658138275146e-02
4.991000000000000000e+03 1.112131977081298828e+01 7.939198493957519531e+00 1.556350886821746826e-01 2.320958077907562256e-01 1.163192689418792725e-01 -4.679807648062705994e-02
4.992000000000000000e+03 1.331691646575927734e+01 9.247932434082031250e+00 8.681680262088775635e-02 3.588826954364776611e-01 1.337098479270935059e-01 7.723975181579589844e-02
4.993000000000000000e+03 2.685563850402832031e+01 2.138583374023437500e+01 8.849360048770904541e-02 1.522518396377563477e-01 7.222363352775573730e-02 1.204702183604240417e-01
4.994000000000000000e+03 2.686758613586425781e+01 2.199822425842285156e+01 8.167763054370880127e-02 1.503975689411163330e-01 6.962256133556365967e-02 1.161242201924324036e-01
4.995000000000000000e+03 2.872926902770996094e+01 1.712515115737915039e+00 -1.149476647377014160e+00 -5.359088182449340820e-01 -5.056155920028686523e-01 -2.674526572227478027e-01
4.996000000000000000e+03 7.440954589843750000e+01 2.943128204345703125e+01 -4.945050179958343506e-01 6.065266132354736328e+00 1.671228289604187012e+00 2.910085916519165039e+00
4.997000000000000000e+03 7.367488861083984375e+01 2.895574951171875000e+01 -1.434029489755630493e-01 4.717165470123291016e+00 1.372128725051879883e+00 2.487102508544921875e+00
4.998000000000000000e+03 2.760592079162597656e+01 2.463195610046386719e+01 6.375764310359954834e-02 1.415388733148574829e-01 6.158895418047904968e-02 1.029435917735099792e-01
4.999000000000000000e+03 3.478446578979492188e+01 7.212685108184814453e+00 -9.451254010200500488e-01 -8.622896075248718262e-01 -5.422245264053344727e-01 -7.190664410591125488e-01
5.000000000000000000e+03 3.577339172363281250e+01 1.067373847961425781e+01 -1.014511108398437500e+00 -1.066565155982971191e+00 -6.243228912353515625e-01 -9.460283517837524414e-01
5.001000000000000000e+03 2.681489372253417969e+01 2.309893798828125000e+01 7.105950266122817993e-02 1.477570086717605591e-01 6.564494967460632324e-02 1.093974262475967407e-01
5.002000000000000000e+03 2.712463760375976562e+01 2.230982208251953125e+01 8.014426380395889282e-02 1.488279104232788086e-01 6.869164854288101196e-02 1.150882169604301453e-01
5.003000000000000000e+03 2.920030212402343750e+01 2.544149017333984375e+01 6.743255257606506348e-02 1.347095966339111328e-01 6.064264476299285889e-02 1.024706289172172546e-01
5.004000000000000000e+03 1.300315856933593750e+01 7.974479675292968750e+00 1.039235293865203857e-01 4.247321188449859619e-01 1.585966944694519043e-01 4.519554600119590759e-02
5.005000000000000000e+03 2.887169647216796875e+01 2.641405296325683594e+01 6.193934381008148193e-02 1.330569386482238770e-01 5.849888548254966736e-02 9.624343365430831909e-02
5.006000000000000000e+03 3.298960876464843750e+01 3.196822357177734375e+01 6.750131398439407349e-02 1.145222708582878113e-01 5.460707843303680420e-02 7.411389797925949097e-02
5.007000000000000000e+03 3.572004318237304688e+01 9.263323783874511719e+00 -9.570550322532653809e-01 -9.709102511405944824e-01 -5.783895850181579590e-01 -8.373464345932006836e-01
5.008000000000000000e+03 3.502941131591796875e+01 8.752575874328613281e+00 -9.934877157211303711e-01 -9.687479734420776367e-01 -5.886707305908203125e-01 -8.430650830268859863e-01
5.009000000000000000e+03 3.053867530822753906e+01 3.418316602706909180e+00 -1.329274177551269531e+00 -6.962813735008239746e-01 -6.076666712760925293e-01 -4.310472905635833740e-01
5.010000000000000000e+03 3.237269592285156250e+01 3.233365535736083984e+00 -9.426410794258117676e-01 -6.483214497566223145e-01 -4.772887527942657471e-01 -3.095188140869140625e-01
5.011000000000000000e+03 3.196273994445800781e+01 2.763407897949218750e+01 7.345030456781387329e-02 1.245723739266395569e-01 5.940680578351020813e-02 9.540713578462600708e-02
5.012000000000000000e+03 3.148883819580078125e+01 2.805861091613769531e+01 6.953522562980651855e-02 1.246111765503883362e-01 5.824391916394233704e-02 9.226885437965393066e-02
5.013000000000000000e+03 7.393276214599609375e+01 2.801504516601562500e+01 6.776815652847290039e-02 5.537107467651367188e+00 1.681462764739990234e+00 2.423054933547973633e+00
5.014000000000000000e+03 4.230850219726562500e+01 1.715346527099609375e+01 -8.743804693222045898e-01 -9.539139866828918457e-01 -5.484883189201354980e-01 -1.009118914604187012e+00
5.015000000000000000e+03 2.014762496948242188e+01 1.567754459381103516e+01 1.014200672507286072e-01 2.066478878259658813e-01 9.242039173841476440e-02 1.424933224916458130e-01
5.016000000000000000e+03 7.312470245361328125e+01 2.791939163208007812e+01 2.127563357353210449e-01 4.188970565795898438e+00 1.320518016815185547e+00 2.136198759078979492e+00
5.017000000000000000e+03 7.244157409667968750e+01 2.754575920104980469e+01 3.017743527889251709e-01 3.559760093688964844e+00 1.158460378646850586e+00 1.849211573600769043e+00
5.018000000000000000e+03 2.680876350402832031e+01 2.170714759826660156e+01 8.404088020324707031e-02 1.519464552402496338e-01 7.079619914293289185e-02 1.178589835762977600e-01
5.019000000000000000e+03 7.242060852050781250e+01 2.692062759399414062e+01 4.176795482635498047e-01 3.733404874801635742e+00 1.245325326919555664e+00 1.829101324081420898e+00
5.020000000000000000e+03 1.716086387634277344e+01 1.298549270629882812e+01 9.787929803133010864e-02 2.501131892204284668e-01 1.043977513909339905e-01 1.478231698274612427e-01
5.021000000000000000e+03 5.836514282226562500e+01 2.587948608398437500e+01 -8.963693380355834961e-01 2.419804483652114868e-01 -1.963166743516921997e-01 -8.824812769889831543e-01
5.022000000000000000e+03 5.807860946655273438e+01 2.646739006042480469e+01 -1.020852565765380859e+00 2.199399471282958984e-01 -2.402737736701965332e-01 -9.228234887123107910e-01
5.023000000000000000e+03 2.937079429626464844e+01 2.313051223754882812e+00 -1.174744486808776855e+00 -6.291265487670898438e-01 -5.411612987518310547e-01 -2.986516952514648438e-01
5.024000000000000000e+03 6.023364639282226562e+01 2.652358245849609375e+01 -9.022889137268066406e-01 2.672337889671325684e-01 -1.905165463685989380e-01 -8.585448861122131348e-01
5.025000000000000000e+03 6.161629486083984375e+01 2.587562179565429688e+01 -6.351674199104309082e-01 3.501791954040527344e-01 -8.549647778272628784e-02 -7.137620449066162109e-01
5.026000000000000000e+03 7.434773254394531250e+01 2.880986785888671875e+01 -2.091242820024490356e-01 5.988255977630615234e+00 1.733739495277404785e+00 2.667514801025390625e+00
5.027000000000000000e+03 5.544890975952148438e+01 2.711800193786621094e+01 -1.200103878974914551e+00 8.716537058353424072e-02 -3.338815569877624512e-01 -9.452785849571228027e-01
5.028000000000000000e+03 2.984357452392578125e+01 3.210345029830932617e+00 -1.396564960479736328e+00 -6.863906979560852051e-01 -6.248866915702819824e-01 -4.143337011337280273e-01
5.029000000000000000e+03 5.893400955200195312e+01 2.616712570190429688e+01 -9.136554598808288574e-01 2.554981708526611328e-01 -1.974471956491470337e-01 -8.845592141151428223e-01
5.030000000000000000e+03 5.970697784423828125e+01 2.580224037170410156e+01 -7.863861322402954102e-01 2.877987623214721680e-01 -1.495762020349502563e-01 -8.302831649780273438e-01
5.031000000000000000e+03 3.483166122436523438e+01 6.036626815795898438e+00 -8.793446421623229980e-01 -7.733710408210754395e-01 -4.958147108554840088e-01 -5.855617523193359375e-01
5.032000000000000000e+03 6.419052124023437500e+01 2.497697257995605469e+01 -1.330658942461013794e-01 6.347315311431884766e-01 1.504996865987777710e-01 -3.048797845840454102e-01
5.033000000000000000e+03 6.030821609497070312e+01 2.592772674560546875e+01 -7.695545554161071777e-01 2.964715957641601562e-01 -1.419249027967453003e-01 -8.139935135841369629e-01
5.034000000000000000e+03 3.055988883972167969e+01 3.049054384231567383e+00 -1.170253157615661621e+00 -6.778190135955810547e-01 -5.544216632843017578e-01 -3.470650613307952881e-01
5.035000000000000000e+03 6.226857757568359375e+01 2.569655227661132812e+01 -5.362518429756164551e-01 3.878330588340759277e-01 -4.452563077211380005e-02 -6.418653130531311035e-01
5.036000000000000000e+03 6.353674697875976562e+01 2.520876121520996094e+01 -2.685427367687225342e-01 5.247175097465515137e-01 7.685244083404541016e-02 -4.336137771606445312e-01
5.037000000000000000e+03 8.841888427734375000e+00 1.113226222991943359e+01 8.111170679330825806e-02 3.002426959574222565e-02 3.334079310297966003e-02 -1.375823747366666794e-02
5.038000000000000000e+03 1.059069252014160156e+01 8.014074325561523438e+00 1.627929955720901489e-01 1.620780378580093384e-01 9.746130555868148804e-02 -4.765000566840171814e-02
5.039000000000000000e+03 3.268432617187500000e+01 -1.885124087333679199e+00 2.619388401508331299e-01 -6.021288037300109863e-01 -1.020569950342178345e-01 3.516209498047828674e-02
5.040000000000000000e+03 3.198984718322753906e+01 -8.167672753334045410e-01 3.056337870657444000e-02 -6.027182340621948242e-01 -1.716464608907699585e-01 3.550887107849121094e-02
5.041000000000000000e+03 3.537130737304687500e+01 -3.748979330062866211e+00 4.539873301982879639e-01 -6.030730605125427246e-01 -4.472571238875389099e-02 2.558235451579093933e-02
5.042000000000000000e+03 3.206242370605468750e+01 3.333498382568359375e+01 6.014634668827056885e-02 1.127542108297348022e-01 5.187016725540161133e-02 6.438066065311431885e-02
5.043000000000000000e+03 3.288994598388671875e+01 2.927511978149414062e+01 7.260179519653320312e-02 1.203197538852691650e-01 5.787646397948265076e-02 8.791965246200561523e-02
5.044000000000000000e+03 7.138706970214843750e+01 2.325881576538085938e+01 7.381112575531005859e-01 3.800701856613159180e+00 1.361643910408020020e+00 1.509440660476684570e+00
5.045000000000000000e+03 6.757038116455078125e+01 2.566847610473632812e+01 1.938812136650085449e-01 1.169214248657226562e+00 4.089286327362060547e-01 3.078190386295318604e-01
5.046000000000000000e+03 7.004042053222656250e+01 2.627441215515136719e+01 3.481935262680053711e-01 2.008870363235473633e+00 7.071191668510437012e-01 9.823026657104492188e-01
5.047000000000000000e+03 3.353969573974609375e+01 -2.385365009307861328e+00 3.145689070224761963e-01 -6.204338073730468750e-01 -9.175945818424224854e-02 3.150285407900810242e-02
5.048000000000000000e+03 7.152232360839843750e+01 2.691680145263671875e+01 3.831389248371124268e-01 2.862591028213500977e+00 9.737189412117004395e-01 1.496041893959045410e+00
5.049000000000000000e+03 3.086782836914062500e+01 2.552283525466918945e+00 -9.840446710586547852e-01 -6.290153264999389648e-01 -4.839180111885070801e-01 -2.281362563371658325e-01
5.050000000000000000e+03 3.030996131896972656e+01 -2.830293476581573486e-01 -1.319419145584106445e-01 -5.626769065856933594e-01 -2.083856463432312012e-01 1.821046927943825722e-03
5.051000000000000000e+03 1.159471321105957031e+01 7.406705379486083984e+00 1.628610789775848389e-01 3.111401498317718506e-01 1.422003656625747681e-01 -5.500197783112525940e-02
5.052000000000000000e+03 5.654093170166015625e+01 2.553805541992187500e+01 -9.448635578155517578e-01 1.606074869632720947e-01 -2.352768182754516602e-01 -8.930654525756835938e-01
5.053000000000000000e+03 3.720906066894531250e+01 -4.416034221649169922e+00 4.565061330795288086e-01 -5.585904121398925781e-01 -3.062529675662517548e-02 3.639347106218338013e-02
5.054000000000000000e+03 3.525841903686523438e+01 -2.775071620941162109e+00 3.558898866176605225e-01 -6.199333667755126953e-01 -7.921304553747177124e-02 3.898479789495468140e-02
5.055000000000000000e+03 7.068740081787109375e+01 2.480262374877929688e+01 6.623780727386474609e-01 2.929267168045043945e+00 1.077493548393249512e+00 1.315659403800964355e+00
5.056000000000000000e+03 9.554936408996582031e+00 1.009050273895263672e+01 1.070546880364418030e-01 7.630432397127151489e-02 5.500770360231399536e-02 -1.938279718160629272e-02
5.057000000000000000e+03 9.664680480957031250e+00 9.086738586425781250e+00 1.388860344886779785e-01 7.927769422531127930e-02 6.544911861419677734e-02 -2.842704206705093384e-02
5.058000000000000000e+03 3.172337150573730469e+01 2.906571388244628906e+01 6.727553158998489380e-02 1.228093057870864868e-01 5.702545121312141418e-02 8.770692348480224609e-02
5.059000000000000000e+03 1.091981887817382812e+01 1.497458457946777344e+01 2.607277967035770416e-02 9.979841113090515137e-02 3.776135668158531189e-02 6.595365237444639206e-03
5.060000000000000000e+03 1.196717262268066406e+01 1.905614852905273438e+01 3.343582386150956154e-03 7.700323313474655151e-02 2.410404384136199951e-02 1.088561769574880600e-02
5.061000000000000000e+03 7.142923736572265625e+01 2.522974205017089844e+01 6.202679276466369629e-01 3.395654439926147461e+00 1.204776644706726074e+00 1.533220410346984863e+00
5.062000000000000000e+03 6.666230010986328125e+01 3.160448789596557617e+00 3.205677866935729980e-01 3.315233707427978516e+00 1.090740442276000977e+00 6.378980278968811035e-01
5.063000000000000000e+03 1.076437950134277344e+01 1.321555805206298828e+01 4.348564893007278442e-02 1.190434917807579041e-01 4.875874146819114685e-02 3.967218101024627686e-03
5.064000000000000000e+03 3.367643356323242188e+01 3.369758224487304688e+01 7.273744791746139526e-02 1.096445694565773010e-01 5.471460521221160889e-02 6.731198728084564209e-02
5.065000000000000000e+03 6.967381286621093750e+01 2.511002159118652344e+01 5.476346611976623535e-01 2.234926939010620117e+00 8.347685337066650391e-01 9.967524409294128418e-01
5.066000000000000000e+03 1.377290534973144531e+01 1.033384990692138672e+01 7.870862632989883423e-02 3.153745234012603760e-01 1.182249486446380615e-01 9.149093925952911377e-02
5.067000000000000000e+03 9.371612548828125000e+00 1.227419757843017578e+01 5.957657098770141602e-02 5.950921028852462769e-02 3.572573512792587280e-02 -1.161971036344766617e-02
5.068000000000000000e+03 1.059801387786865234e+01 -1.383943176269531250e+01 7.171588391065597534e-02 -5.266421437263488770e-01 -1.364778727293014526e-01 -4.689022898674011230e-01
5.069000000000000000e+03 6.788119506835937500e+01 2.471619415283203125e+01 4.129836857318878174e-01 1.534880280494689941e+00 5.843592286109924316e-01 5.152660608291625977e-01
5.070000000000000000e+03 1.088413047790527344e+01 1.406700325012207031e+01 3.330499306321144104e-02 1.118906438350677490e-01 4.355869069695472717e-02 8.107350207865238190e-03
5.071000000000000000e+03 6.932060241699218750e+01 2.127560424804687500e+01 7.407010197639465332e-01 2.973405599594116211e+00 1.114232063293457031e+00 1.100133419036865234e+00
5.072000000000000000e+03 6.910182952880859375e+01 1.973754310607910156e+01 7.359380722045898438e-01 3.118309974670410156e+00 1.156274437904357910e+00 1.081270694732666016e+00
5.073000000000000000e+03 3.788541030883789062e+01 -5.572848320007324219e+00 4.957721531391143799e-01 -5.219079852104187012e-01 -7.840744219720363617e-03 2.382308244705200195e-02
5.074000000000000000e+03 4.451073837280273438e+01 -1.141059112548828125e+01 4.056801795959472656e-01 3.873429074883460999e-02 1.333243399858474731e-01 5.225963518023490906e-02
5.075000000000000000e+03 9.431475639343261719e+00 -1.187815761566162109e+01 -3.161781653761863708e-02 -4.677225351333618164e-01 -1.498021036386489868e-01 -4.815594851970672607e-01
5.076000000000000000e+03 6.627801513671875000e+01 -2.553768873214721680e+00 2.477788925170898438e-01 3.260864734649658203e+00 1.052593111991882324e+00 5.073683857917785645e-01
5.077000000000000000e+03 6.749648284912109375e+01 -7.716676235198974609e+00 1.661043912172317505e-01 3.452109813690185547e+00 1.085464239120483398e+00 3.896687030792236328e-01
5.078000000000000000e+03 6.813413238525390625e+01 1.091844463348388672e+01 4.626396596431732178e-01 3.529447317123413086e+00 1.197626113891601562e+00 8.527998328208923340e-01
5.079000000000000000e+03 6.703111267089843750e+01 2.226108932495117188e+01 5.990607738494873047e-01 1.812051773071289062e+00 7.233337759971618652e-01 5.706357955932617188e-01
5.080000000000000000e+03 3.800107192993164062e+01 -4.740373611450195312e+00 4.770660102367401123e-01 -5.205835103988647461e-01 -1.305525284260511398e-02 2.758277393877506256e-02
5.081000000000000000e+03 6.971730041503906250e+01 6.996803283691406250e+00 3.075605034828186035e-01 4.068370819091796875e+00 1.312779426574707031e+00 7.527979612350463867e-01
5.082000000000000000e+03 6.836893463134765625e+01 6.215426445007324219e+00 3.323380053043365479e-01 3.699104309082031250e+00 1.209432721138000488e+00 7.265909910202026367e-01
5.083000000000000000e+03 1.114080715179443359e+01 1.925474929809570312e+01 -1.222572318511083722e-04 5.666040629148483276e-02 1.696144416928291321e-02 3.207534784451127052e-03
5.084000000000000000e+03 6.944764709472656250e+01 -1.892824888229370117e+00 1.792267262935638428e-01 3.888912916183471680e+00 1.220441818237304688e+00 4.909152686595916748e-01
5.085000000000000000e+03 3.767511367797851562e+01 3.836546707153320312e+01 1.155572757124900818e-01 8.198912441730499268e-02 5.926392227411270142e-02 4.282511770725250244e-02
5.086000000000000000e+03 3.429452514648437500e+01 3.557490158081054688e+01 7.547929883003234863e-02 1.044200882315635681e-01 5.396981537342071533e-02 5.611120536923408508e-02
5.087000000000000000e+03 6.985693359375000000e+01 1.650519561767578125e+01 6.190747022628784180e-01 3.853975534439086914e+00 1.341915130615234375e+00 1.111288547515869141e+00
5.088000000000000000e+03 1.188813304901123047e+01 2.232081413269042969e+01 -5.782223772257566452e-03 4.658165201544761658e-02 1.223982870578765869e-02 3.946297802031040192e-03
5.089000000000000000e+03 6.903532409667968750e+01 1.766998481750488281e+01 6.786603331565856934e-01 3.371452093124389648e+00 1.215033769607543945e+00 1.054305553436279297e+00
5.090000000000000000e+03 8.423459053039550781e+00 -1.295815467834472656e+01 -4.634349606931209564e-03 -4.828320741653442383e-01 -1.462399363517761230e-01 -4.386160373687744141e-01
5.091000000000000000e+03 6.825917816162109375e+01 1.954839515686035156e+01 7.030176520347595215e-01 2.745835542678833008e+00 1.034655928611755371e+00 9.226378202438354492e-01
5.092000000000000000e+03 1.032421302795410156e+01 2.027395820617675781e+01 -2.691932721063494682e-03 2.622919343411922455e-02 7.061178330332040787e-03 -5.585154984146356583e-03
5.093000000000000000e+03 1.565497207641601562e+01 2.411039161682128906e+01 4.957300261594355106e-04 9.401660412549972534e-02 2.835370041429996490e-02 3.116421960294246674e-02
5.094000000000000000e+03 1.309730625152587891e+01 -2.059879112243652344e+01 1.659223139286041260e-01 -4.967373907566070557e-01 -9.924452751874923706e-02 -3.426820635795593262e-01
5.095000000000000000e+03 1.401299667358398438e+01 -2.107540893554687500e+01 1.631754487752914429e-01 -4.407486915588378906e-01 -8.327197283506393433e-02 -3.364398181438446045e-01
5.096000000000000000e+03 6.899557495117187500e+01 -7.235479354858398438e+00 1.420447826385498047e-01 3.710510730743408203e+00 1.155766606330871582e+00 3.794634342193603516e-01
5.097000000000000000e+03 4.189121627807617188e+01 -7.114195823669433594e+00 4.964981377124786377e-01 -2.601734995841979980e-01 7.089739292860031128e-02 5.210350826382637024e-02
5.098000000000000000e+03 4.103809738159179688e+01 -6.403473377227783203e+00 4.752218127250671387e-01 -3.277162313461303711e-01 4.425167292356491089e-02 5.037608370184898376e-02
5.099000000000000000e+03 6.882141876220703125e+01 8.411606788635253906e+00 3.713219165802001953e-01 3.802591562271118164e+00 1.252174019813537598e+00 7.973982691764831543e-01
5.100000000000000000e+03 1.210103416442871094e+01 2.640214538574218750e+01 -1.038857828825712204e-02 2.326344139873981476e-02 3.862458979710936546e-03 8.390131406486034393e-04
5.101000000000000000e+03 1.156059932708740234e+01 2.123158264160156250e+01 -4.433627240359783173e-03 4.793535917997360229e-02 1.305051986128091812e-02 3.251978894695639610e-03
5.102000000000000000e+03 4.517353820800781250e+01 -1.796607017517089844e+01 1.816380470991134644e-01 1.652922183275222778e-01 1.040790751576423645e-01 6.735107302665710449e-02
5.103000000000000000e+03 4.583161544799804688e+01 -1.629721069335937500e+01 2.498056441545486450e-01 2.564523518085479736e-01 1.518774032592773438e-01 5.917484685778617859e-02
5.104000000000000000e+03 4.216006088256835938e+01 -1.109888267517089844e+01 4.289704561233520508e-01 -1.769121587276458740e-01 7.561749219894409180e-02 2.483056299388408661e-02
5.105000000000000000e+03 4.337612533569335938e+01 -8.547225952148437500e+00 4.718329310417175293e-01 -1.075323820114135742e-01 1.092901676893234253e-01 6.045955792069435120e-02
5.106000000000000000e+03 1.914006614685058594e+01 -2.860255241394042969e+01 2.145414948463439941e-01 -1.237328574061393738e-01 2.724258974194526672e-02 -2.587190866470336914e-01
5.107000000000000000e+03 1.202052497863769531e+01 -1.526514434814453125e+01 1.177430301904678345e-01 -5.445148944854736328e-01 -1.280315667390823364e-01 -4.487840831279754639e-01
5.108000000000000000e+03 6.974007415771484375e+01 -1.583471107482910156e+01 6.568788737058639526e-02 3.715853452682495117e+00 1.134462356567382812e+00 2.369211912155151367e-01
5.109000000000000000e+03 6.647782135009765625e+01 -1.741390228271484375e+01 8.982063829898834229e-02 3.228858709335327148e+00 9.956037998199462891e-01 2.510253489017486572e-01
5.110000000000000000e+03 6.690621185302734375e+01 -1.617982292175292969e+01 9.820631146430969238e-02 3.305933952331542969e+00 1.021242022514343262e+00 2.542966902256011963e-01
5.111000000000000000e+03 1.394255065917968750e+01 2.709413719177246094e+01 -8.128280751407146454e-03 4.931983351707458496e-02 1.235746499150991440e-02 1.055399142205715179e-02
5.112000000000000000e+03 1.264739799499511719e+01 2.782367897033691406e+01 -1.039107330143451691e-02 2.450703084468841553e-02 4.234787076711654663e-03 2.508965553715825081e-03
5.113000000000000000e+03 6.604779815673828125e+01 -1.880716133117675781e+01 8.672925829887390137e-02 3.154705762863159180e+00 9.724305272102355957e-01 2.374062538146972656e-01
5.114000000000000000e+03 6.772798919677734375e+01 -1.786995124816894531e+01 7.845938950777053833e-02 3.414681911468505859e+00 1.047942399978637695e+00 2.306733876466751099e-01
5.115000000000000000e+03 6.807942199707031250e+01 -1.358592700958251953e+01 1.098919883370399475e-01 3.491765737533569336e+00 1.080497264862060547e+00 2.897726595401763916e-01
5.116000000000000000e+03 1.141842365264892578e+01 -1.786372375488281250e+01 1.342121809720993042e-01 -5.375410914421081543e-01 -1.209986805915832520e-01 -3.926592767238616943e-01
5.117000000000000000e+03 1.137329578399658203e+01 -2.050779533386230469e+01 1.357618719339370728e-01 -5.457097291946411133e-01 -1.229843646287918091e-01 -3.483828604221343994e-01
5.118000000000000000e+03 6.826119232177734375e+01 -2.496183872222900391e+00 1.984701901674270630e-01 3.627913951873779297e+00 1.147915244102478027e+00 4.862869679927825928e-01
5.119000000000000000e+03 6.948757934570312500e+01 1.305409717559814453e+01 4.959544539451599121e-01 3.905345678329467773e+00 1.320390105247497559e+00 9.718215465545654297e-01
5.120000000000000000e+03 6.829936981201171875e+01 1.205860137939453125e+01 4.960722625255584717e-01 3.535416603088378906e+00 1.209446668624877930e+00 8.893288969993591309e-01
5.121000000000000000e+03 1.297099018096923828e+01 -2.671873283386230469e+01 1.422278881072998047e-01 -4.858280420303344727e-01 -1.030800491571426392e-01 -2.586467564105987549e-01
5.122000000000000000e+03 1.402122783660888672e+01 -1.975334930419921875e+01 1.861048936843872070e-01 -4.435942471027374268e-01 -7.724680751562118530e-02 -3.443890213966369629e-01
5.123000000000000000e+03 6.794536590576171875e+01 9.788456916809082031e+00 4.339682757854461670e-01 3.512278079986572266e+00 1.183873891830444336e+00 8.184670805931091309e-01
5.124000000000000000e+03 6.630654907226562500e+01 1.784734010696411133e+00 3.011773228645324707e-01 3.234213113784790039e+00 1.060617089271545410e+00 6.013876199722290039e-01
5.125000000000000000e+03 5.279817581176757812e+01 -2.174469757080078125e+01 7.887257635593414307e-02 1.247504472732543945e+00 3.979131281375885010e-01 1.534407138824462891e-01
5.126000000000000000e+03 5.139214324951171875e+01 -2.314652061462402344e+01 3.645684197545051575e-02 1.059994578361511230e+00 3.289354145526885986e-01 1.318987011909484863e-01
5.127000000000000000e+03 6.742261505126953125e+01 -3.736696958541870117e+00 2.061960399150848389e-01 3.464863300323486328e+00 1.101317763328552246e+00 4.667229950428009033e-01
5.128000000000000000e+03 4.483716964721679688e+01 -1.242727661132812500e+01 3.866398632526397705e-01 9.021038562059402466e-02 1.430550664663314819e-01 5.771832913160324097e-02
5.129000000000000000e+03 6.556998443603515625e+01 -2.031502914428710938e+01 7.689921557903289795e-02 3.073090314865112305e+00 9.449968338012695312e-01 2.278840988874435425e-01
5.130000000000000000e+03 2.761961555480957031e+01 3.646121323108673096e-01 -5.473964214324951172e-01 -3.602925539016723633e-01 -2.723066806793212891e-01 -8.327163755893707275e-02
5.131000000000000000e+03 2.801319122314453125e+01 2.094343662261962891e+00 -1.344204902648925781e+00 -5.639497041702270508e-01 -5.724464058876037598e-01 -3.827806115150451660e-01
5.132000000000000000e+03 2.719061088562011719e+01 1.768156528472900391e+00 -1.416535615921020508e+00 -4.776223599910736084e-01 -5.682473778724670410e-01 -4.350548684597015381e-01
5.133000000000000000e+03 4.915957260131835938e+01 2.374205398559570312e+01 -1.044966578483581543e+00 -6.336941123008728027e-01 -5.035982131958007812e-01 -9.680445790290832520e-01
5.134000000000000000e+03 4.913704681396484375e+01 2.415501213073730469e+01 -1.077517747879028320e+00 -6.587190628051757812e-01 -5.208710432052612305e-01 -9.876713752746582031e-01
5.135000000000000000e+03 3.790424728393554688e+01 1.254384613037109375e+01 -9.378083944320678711e-01 -1.042506337165832520e+00 -5.940943956375122070e-01 -9.385139942169189453e-01
5.136000000000000000e+03 4.993403625488281250e+01 2.422228622436523438e+01 -1.054672718048095703e+00 -5.550776720046997070e-01 -4.829251468181610107e-01 -9.519876837730407715e-01
5.137000000000000000e+03 4.914250183105468750e+01 2.453988456726074219e+01 -1.105983614921569824e+00 -6.781922578811645508e-01 -5.352527499198913574e-01 -1.004352331161499023e+00
5.138000000000000000e+03 3.665927886962890625e+01 1.169946956634521484e+01 -9.909753203392028809e-01 -1.076393008232116699e+00 -6.202105283737182617e-01 -9.616864919662475586e-01
5.139000000000000000e+03 3.758221817016601562e+01 1.241162776947021484e+01 -9.556145071983337402e-01 -1.059689760208129883e+00 -6.045913100242614746e-01 -9.515843987464904785e-01
5.140000000000000000e+03 3.813692092895507812e+01 1.286693763732910156e+01 -9.374369978904724121e-01 -1.048106074333190918e+00 -5.956628918647766113e-01 -9.466957449913024902e-01
5.141000000000000000e+03 4.962317657470703125e+01 2.562439727783203125e+01 -1.165411949157714844e+00 -6.731521487236022949e-01 -5.515692234039306641e-01 -1.018821954727172852e+00
5.142000000000000000e+03 4.570849227905273438e+01 2.075116729736328125e+01 -9.455487132072448730e-01 -8.964966535568237305e-01 -5.526136159896850586e-01 -9.916175603866577148e-01
5.143000000000000000e+03 4.350237274169921875e+01 1.809799003601074219e+01 -8.497861623764038086e-01 -9.268783926963806152e-01 -5.329993367195129395e-01 -9.941713809967041016e-01
5.144000000000000000e+03 2.501909065246582031e+01 2.085000610351562500e+01 8.163383603096008301e-02 1.601012796163558960e-01 7.252053171396255493e-02 1.183775290846824646e-01
5.145000000000000000e+03 4.989751434326171875e+01 2.460933303833007812e+01 -1.078437328338623047e+00 -5.774489045143127441e-01 -4.967658519744873047e-01 -9.678239822387695312e-01
5.146000000000000000e+03 4.609224319458007812e+01 2.089580154418945312e+01 -9.411547183990478516e-01 -8.643432259559631348e-01 -5.416494011878967285e-01 -9.769169092178344727e-01
5.147000000000000000e+03 4.711681747436523438e+01 2.219380760192871094e+01 -1.011414647102355957e+00 -8.142945170402526855e-01 -5.477127432823181152e-01 -9.874112010002136230e-01
5.148000000000000000e+03 4.876458358764648438e+01 2.327149963378906250e+01 -1.023982524871826172e+00 -6.644268035888671875e-01 -5.065227746963500977e-01 -9.633269309997558594e-01
5.149000000000000000e+03 2.137414360046386719e+01 1.833987808227539062e+01 7.843481749296188354e-02 1.831208318471908569e-01 7.846669852733612061e-02 1.220436021685600281e-01
5.150000000000000000e+03 3.869474029541015625e+01 1.313401222229003906e+01 -9.118874073028564453e-01 -1.023417234420776367e+00 -5.805913805961608887e-01 -9.324886798858642578e-01
5.151000000000000000e+03 1.666181373596191406e+01 1.217731857299804688e+01 1.013686507940292358e-01 2.702692449092864990e-01 1.114913672208786011e-01 1.527681797742843628e-01
5.152000000000000000e+03 1.788776397705078125e+01 1.374582004547119141e+01 9.707506000995635986e-02 2.339319586753845215e-01 9.930210560560226440e-02 1.463662385940551758e-01
5.153000000000000000e+03 3.186593627929687500e+01 3.789314508438110352e+00 -1.140778660774230957e+00 -6.741079688072204590e-01 -5.444659590721130371e-01 -4.259673357009887695e-01
5.154000000000000000e+03 4.073917007446289062e+01 1.556297969818115234e+01 -9.010595083236694336e-01 -9.875481724739074707e-01 -5.665823221206665039e-01 -9.816941022872924805e-01
5.155000000000000000e+03 3.649434661865234375e+01 1.122847747802734375e+01 -9.880107641220092773e-01 -1.055988073348999023e+00 -6.131996512413024902e-01 -9.411374330520629883e-01
5.156000000000000000e+03 3.885583877563476562e+01 1.356281089782714844e+01 -9.228197932243347168e-01 -1.037531256675720215e+00 -5.881053209304809570e-01 -9.531840085983276367e-01
5.157000000000000000e+03 1.989552688598632812e+01 1.614131164550781250e+01 9.109910577535629272e-02 2.026135623455047607e-01 8.811379969120025635e-02 1.343524605035781860e-01
5.158000000000000000e+03 5.429024124145507812e+01 2.789822769165039062e+01 -1.282770395278930664e+00 -1.197673566639423370e-02 -3.884241282939910889e-01 -9.415243864059448242e-01
5.159000000000000000e+03 3.907823181152343750e+01 1.391556644439697266e+01 -9.295674562454223633e-01 -1.040131688117980957e+00 -5.909097790718078613e-01 -9.621086120605468750e-01
5.160000000000000000e+03 1.235738945007324219e+01 7.501635551452636719e+00 1.264121234416961670e-01 4.073328971862792969e-01 1.601235121488571167e-01 -1.014308445155620575e-02
5.161000000000000000e+03 1.267271232604980469e+01 7.723608493804931641e+00 1.187344416975975037e-01 4.224471151828765869e-01 1.623544692993164062e-01 2.077932655811309814e-02
5.162000000000000000e+03 4.613968658447265625e+01 2.155878067016601562e+01 -1.001394629478454590e+00 -8.957278728485107422e-01 -5.691367387771606445e-01 -1.008225560188293457e+00
5.163000000000000000e+03 1.809490585327148438e+01 1.441087818145751953e+01 9.127219021320343018e-02 2.241904139518737793e-01 9.463877975940704346e-02 1.392616480588912964e-01
5.164000000000000000e+03 1.853765487670898438e+01 1.458987522125244141e+01 9.487257897853851318e-02 2.218519598245620728e-01 9.501735866069793701e-02 1.413663923740386963e-01
5.165000000000000000e+03 5.195921707153320312e+01 2.684782981872558594e+01 -1.211062073707580566e+00 -3.424373269081115723e-01 -4.660498201847076416e-01 -9.446197748184204102e-01
5.166000000000000000e+03 3.971128463745117188e+01 1.425035285949707031e+01 -9.011825323104858398e-01 -1.006313800811767578e+00 -5.722488760948181152e-01 -9.461542367935180664e-01
5.167000000000000000e+03 2.287509155273437500e+01 1.920224571228027344e+01 8.295747637748718262e-02 1.734413802623748779e-01 7.691965997219085693e-02 1.231404244899749756e-01
5.168000000000000000e+03 4.336270523071289062e+01 1.775074577331542969e+01 -8.381001949310302734e-01 -9.161958694458007812e-01 -5.262888073921203613e-01 -9.829418659210205078e-01
5.169000000000000000e+03 5.038943862915039062e+01 2.569228744506835938e+01 -1.149502038955688477e+00 -5.544201135635375977e-01 -5.111766457557678223e-01 -9.796814918518066406e-01
5.170000000000000000e+03 4.367335510253906250e+01 1.843832015991210938e+01 -8.626456260681152344e-01 -9.361101388931274414e-01 -5.396267175674438477e-01 -1.002392768859863281e+00
5.171000000000000000e+03 4.418222427368164062e+01 1.946249198913574219e+01 -9.062778353691101074e-01 -9.613694548606872559e-01 -5.602942109107971191e-01 -1.022155284881591797e+00
5.172000000000000000e+03 4.002758407592773438e+01 1.442150592803955078e+01 -8.866419196128845215e-01 -9.877087473869323730e-01 -5.623052120208740234e-01 -9.415228366851806641e-01
5.173000000000000000e+03 4.903557205200195312e+01 2.515015983581542969e+01 -1.156969785690307617e+00 -7.311468720436096191e-01 -5.664350390434265137e-01 -1.038706660270690918e+00
5.174000000000000000e+03 4.670587539672851562e+01 2.208618354797363281e+01 -1.024016022682189941e+00 -8.576300740242004395e-01 -5.644938349723815918e-01 -1.003417968750000000e+00
5.175000000000000000e+03 4.882884216308593750e+01 2.281133460998535156e+01 -9.802443385124206543e-01 -6.339851617813110352e-01 -4.842688441276550293e-01 -9.374235272407531738e-01
5.176000000000000000e+03 5.071141433715820312e+01 2.576871490478515625e+01 -1.148119688034057617e+00 -5.094611644744873047e-01 -4.972742497920989990e-01 -9.698331952095031738e-01
5.177000000000000000e+03 5.106155776977539062e+01 2.589525413513183594e+01 -1.150051236152648926e+00 -4.568820893764495850e-01 -4.820799827575683594e-01 -9.591116309165954590e-01
5.178000000000000000e+03 5.171249389648437500e+01 2.655741691589355469e+01 -1.188484072685241699e+00 -3.712847828865051270e-01 -4.679306447505950928e-01 -9.497458338737487793e-01
5.179000000000000000e+03 2.058167457580566406e+01 1.715183639526367188e+01 8.497913181781768799e-02 1.922088116407394409e-01 8.315638452768325806e-02 1.274958401918411255e-01
5.180000000000000000e+03 1.832454872131347656e+01 1.394322872161865234e+01 1.020088568329811096e-01 2.304686754941940308e-01 9.974326193332672119e-02 1.488743871450424194e-01
5.181000000000000000e+03 2.913856506347656250e+01 4.642602801322937012e-01 -5.181930065155029297e-01 -4.962688684463500977e-01 -3.043385744094848633e-01 -9.072192758321762085e-02
5.182000000000000000e+03 3.620220947265625000e+01 1.075038146972656250e+01 -9.876093864440917969e-01 -1.041293621063232422e+00 -6.086708903312683105e-01 -9.253868460655212402e-01
5.183000000000000000e+03 2.390206718444824219e+01 1.970144271850585938e+01 8.657643944025039673e-02 1.680975109338760376e-01 7.640217989683151245e-02 1.234469115734100342e-01
5.184000000000000000e+03 4.385684204101562500e+01 1.877745437622070312e+01 -8.737473487854003906e-01 -9.444358944892883301e-01 -5.454549789428710938e-01 -1.009011626243591309e+00
5.185000000000000000e+03 4.547481918334960938e+01 2.008329963684082031e+01 -8.961818218231201172e-01 -8.825507760047912598e-01 -5.336197614669799805e-01 -9.751325249671936035e-01
5.186000000000000000e+03 4.052698135375976562e+01 1.504092884063720703e+01 -8.877164721488952637e-01 -9.785790443420410156e-01 -5.598886609077453613e-01 -9.568409323692321777e-01
5.187000000000000000e+03 4.153607177734375000e+01 1.571306800842285156e+01 -8.538680076599121094e-01 -9.319399595260620117e-01 -5.357424020767211914e-01 -9.516223669052124023e-01
5.188000000000000000e+03 1.405966854095458984e+01 1.139889717102050781e+01 6.926876306533813477e-02 2.777827680110931396e-01 1.041154637932777405e-01 9.337826818227767944e-02
5.189000000000000000e+03 4.034046173095703125e+01 1.454764652252197266e+01 -8.751372098922729492e-01 -9.694046974182128906e-01 -5.533625483512878418e-01 -9.337711930274963379e-01
5.190000000000000000e+03 2.001893424987792969e+01 1.684444046020507812e+01 8.300612121820449829e-02 1.956793814897537231e-01 8.360564708709716797e-02 1.268146038055419922e-01
5.191000000000000000e+03 2.644304847717285156e+01 2.171760559082031250e+01 8.175314217805862427e-02 1.531711518764495850e-01 7.047728449106216431e-02 1.171299591660499573e-01
5.192000000000000000e+03 2.457357025146484375e+01 2.062515640258789062e+01 8.073914051055908203e-02 1.627731025218963623e-01 7.305367290973663330e-02 1.180912852287292480e-01
5.193000000000000000e+03 4.838075637817382812e+01 2.277119827270507812e+01 -9.987080693244934082e-01 -6.872563362121582031e-01 -5.057893395423889160e-01 -9.560465812683105469e-01
5.194000000000000000e+03 4.755695724487304688e+01 2.223795127868652344e+01 -9.925756454467773438e-01 -7.619372606277465820e-01 -5.263538360595703125e-01 -9.674368500709533691e-01
5.195000000000000000e+03 3.764840698242187500e+01 1.206230258941650391e+01 -9.361997246742248535e-01 -1.031301856040954590e+00 -5.902504920959472656e-01 -9.228967428207397461e-01
5.196000000000000000e+03 3.701538848876953125e+01 1.102950572967529297e+01 -9.336462020874023438e-01 -1.007619500160217285e+00 -5.823796987533569336e-01 -8.866990208625793457e-01
5.197000000000000000e+03 4.190015029907226562e+01 1.620881652832031250e+01 -8.529787063598632812e-01 -9.314461350440979004e-01 -5.353274345397949219e-01 -9.680342674255371094e-01
5.198000000000000000e+03 1.306261920928955078e+01 1.050293827056884766e+01 7.259172946214675903e-02 2.846523523330688477e-01 1.071732267737388611e-01 5.898173153400421143e-02
5.199000000000000000e+03 2.079573822021484375e+01 1.784812164306640625e+01 7.825800031423568726e-02 1.872329860925674438e-01 7.964729517698287964e-02 1.223538145422935486e-01
5.200000000000000000e+03 4.799479293823242188e+01 2.227611541748046875e+01 -9.730191826820373535e-01 -7.102621197700500488e-01 -5.049843788146972656e-01 -9.485971927642822266e-01
5.201000000000000000e+03 3.093289947509765625e+01 2.986957311630249023e+00 -1.145534873008728027e+00 -6.492121815681457520e-01 -5.384241342544555664e-01 -3.228039741516113281e-01
5.202000000000000000e+03 3.003370857238769531e+01 3.417350769042968750e+00 -1.397848963737487793e+00 -7.144412398338317871e-01 -6.336870789527893066e-01 -4.525494277477264404e-01
5.203000000000000000e+03 5.309742736816406250e+01 2.765132713317871094e+01 -1.262992978096008301e+00 -1.758848726749420166e-01 -4.316633641719818115e-01 -9.350433945655822754e-01
5.204000000000000000e+03 5.236700439453125000e+01 2.672898864746093750e+01 -1.196524500846862793e+00 -2.779243290424346924e-01 -4.423346519470214844e-01 -9.364308714866638184e-01
5.205000000000000000e+03 1.238571548461914062e+01 1.197247409820556641e+01 5.453856661915779114e-02 2.089155912399291992e-01 7.903625071048736572e-02 3.628814965486526489e-02
5.206000000000000000e+03 2.635805702209472656e+01 2.372085762023925781e+01 6.295866519212722778e-02 1.469312310218811035e-01 6.296697258949279785e-02 1.041138097643852234e-01
5.207000000000000000e+03 4.293138504028320312e+01 1.789022636413574219e+01 -8.704319596290588379e-01 -9.533432126045227051e-01 -5.471325516700744629e-01 -1.017524719238281250e+00
5.208000000000000000e+03 3.001688003540039062e+01 3.326854109764099121e-01 -3.681090176105499268e-01 -5.195177793502807617e-01 -2.662880420684814453e-01 -1.273892261087894440e-02
5.209000000000000000e+03 3.093397712707519531e+01 3.442925691604614258e+00 -1.223052978515625000e+00 -6.799602508544921875e-01 -5.709039568901062012e-01 -4.080042541027069092e-01
5.210000000000000000e+03 3.584856033325195312e+01 1.024029254913330078e+01 -9.923925995826721191e-01 -1.029865264892578125e+00 -6.066773533821105957e-01 -9.077917337417602539e-01
5.211000000000000000e+03 3.538200378417968750e+01 9.022474288940429688e+00 -9.705410599708557129e-01 -9.732894897460937500e-01 -5.831491351127624512e-01 -8.425199985504150391e-01
5.212000000000000000e+03 3.235868453979492188e+01 4.212826251983642578e+00 -1.114775657653808594e+00 -6.893352270126342773e-01 -5.412332415580749512e-01 -4.808115959167480469e-01
5.213000000000000000e+03 2.692535400390625000e+01 2.537059211730957031e+01 5.605362728238105774e-02 1.398566812276840210e-01 5.877309292554855347e-02 9.671438485383987427e-02
5.214000000000000000e+03 2.509992408752441406e+01 2.362804222106933594e+01 5.655519664287567139e-02 1.483282297849655151e-01 6.146502867341041565e-02 9.957893192768096924e-02
5.215000000000000000e+03 1.142478561401367188e+01 9.314065933227539062e+00 1.053293347358703613e-01 2.297919541597366333e-01 1.005363836884498596e-01 -8.302059955894947052e-03
5.216000000000000000e+03 1.352726078033447266e+01 8.384336471557617188e+00 1.012769266963005066e-01 4.197388589382171631e-01 1.563047319650650024e-01 9.937737882137298584e-02
5.217000000000000000e+03 2.936593246459960938e+01 2.739244937896728516e+00 -1.360093832015991211e+00 -6.795939207077026367e-01 -6.119063496589660645e-01 -3.962806761264801025e-01
5.218000000000000000e+03 2.896682739257812500e+01 2.442628383636474609e+00 -1.345749616622924805e+00 -6.361370086669921875e-01 -5.945659875869750977e-01 -3.722904324531555176e-01
5.219000000000000000e+03 3.186808204650878906e+01 3.308472871780395508e+00 -1.022630095481872559e+00 -6.448174715042114258e-01 -5.002342462539672852e-01 -3.330332040786743164e-01
5.220000000000000000e+03 1.594905662536621094e+01 1.185556507110595703e+01 9.304160624742507935e-02 2.774704992771148682e-01 1.111536249518394470e-01 1.416462212800979614e-01
5.221000000000000000e+03 1.490172863006591797e+01 1.165512371063232422e+01 7.688915729522705078e-02 2.798855900764465332e-01 1.070324182510375977e-01 1.157618463039398193e-01
5.222000000000000000e+03 1.971779823303222656e+01 1.579397964477539062e+01 9.452523291110992432e-02 2.057489156723022461e-01 9.008224308490753174e-02 1.372594088315963745e-01
5.223000000000000000e+03 1.831754493713378906e+01 1.506229019165039062e+01 8.549986779689788818e-02 2.151332348585128784e-01 9.018992632627487183e-02 1.320555359125137329e-01
5.224000000000000000e+03 3.675943374633789062e+01 1.048452281951904297e+01 -9.256669282913208008e-01 -9.852420091629028320e-01 -5.732727050781250000e-01 -8.609011173248291016e-01
5.225000000000000000e+03 1.727128028869628906e+01 1.324667358398437500e+01 9.445616602897644043e-02 2.448663264513015747e-01 1.017967462539672852e-01 1.458417624235153198e-01
5.226000000000000000e+03 2.871691703796386719e+01 5.740398764610290527e-01 -5.567783117294311523e-01 -4.708492159843444824e-01 -3.082882463932037354e-01 -5.822730064392089844e-02
5.227000000000000000e+03 1.357149887084960938e+01 9.722341537475585938e+00 8.238984644412994385e-02 3.409093618392944336e-01 1.269897669553756714e-01 8.684492111206054688e-02
5.228000000000000000e+03 2.964463806152343750e+01 2.698361778259277344e+01 6.366471946239471436e-02 1.303332895040512085e-01 5.819940194487571716e-02 9.497098624706268311e-02
5.229000000000000000e+03 1.442446708679199219e+01 1.098384094238281250e+01 8.051642030477523804e-02 2.974272966384887695e-01 1.133831143379211426e-01 1.095691248774528503e-01
5.230000000000000000e+03 2.198585510253906250e+01 1.873793983459472656e+01 7.953025400638580322e-02 1.785436719655990601e-01 7.742217928171157837e-02 1.220144629478454590e-01
5.231000000000000000e+03 3.430175399780273438e+01 6.628797054290771484e+00 -9.788370728492736816e-01 -8.399106264114379883e-01 -5.456243157386779785e-01 -6.990028023719787598e-01
5.232000000000000000e+03 2.742753219604492188e+01 7.426809072494506836e-01 -8.652305006980895996e-01 -4.030177295207977295e-01 -3.804744780063629150e-01 -2.442309260368347168e-01
5.233000000000000000e+03 6.144176483154296875e+01 2.524731063842773438e+01 -5.162480473518371582e-01 3.917564153671264648e-01 -3.734749555587768555e-02 -6.681477427482604980e-01
5.234000000000000000e+03 3.550867462158203125e+01 9.608234405517578125e+00 -9.915788173675537109e-01 -1.003294706344604492e+00 -5.984620451927185059e-01 -8.804910778999328613e-01
5.235000000000000000e+03 3.571234512329101562e+01 8.719838142395019531e+00 -9.300431013107299805e-01 -9.259605407714843750e-01 -5.568010807037353516e-01 -7.863929867744445801e-01
5.236000000000000000e+03 3.064255332946777344e+01 2.810093307495117188e+01 6.485018879175186157e-02 1.261162757873535156e-01 5.728993937373161316e-02 9.052434563636779785e-02
5.237000000000000000e+03 2.973526382446289062e+01 2.771363449096679688e+01 6.058294326066970825e-02 1.289606541395187378e-01 5.686308071017265320e-02 9.090343117713928223e-02
5.238000000000000000e+03 3.421714782714843750e+01 6.285900115966796875e+00 -9.786245226860046387e-01 -8.071729540824890137e-01 -5.357392430305480957e-01 -6.664318442344665527e-01
5.239000000000000000e+03 2.893583106994628906e+01 2.591927146911621094e+01 6.366098672151565552e-02 1.344976872205734253e-01 5.944760516285896301e-02 9.893002361059188843e-02
5.240000000000000000e+03 2.759734344482421875e+01 2.504335212707519531e+01 6.137793138623237610e-02 1.401502341032028198e-01 6.045844778418540955e-02 1.009399518370628357e-01
5.241000000000000000e+03 2.806277656555175781e+01 2.545394897460937500e+01 6.121065095067024231e-02 1.372228860855102539e-01 5.953006073832511902e-02 9.927775710821151733e-02
5.242000000000000000e+03 5.298191833496093750e+01 2.711477851867675781e+01 -1.222439885139465332e+00 -1.899485141038894653e-01 -4.237165153026580811e-01 -9.338625669479370117e-01
5.243000000000000000e+03 1.331185436248779297e+01 8.178936004638671875e+00 1.015524640679359436e-01 4.342836141586303711e-01 1.607508212327957153e-01 7.932674139738082886e-02
5.244000000000000000e+03 2.661456680297851562e+01 2.410646629333496094e+01 6.208176910877227783e-02 1.446350812911987305e-01 6.201505661010742188e-02 1.027097031474113464e-01
5.245000000000000000e+03 2.800967025756835938e+01 2.502195930480957031e+01 6.315892189741134644e-02 1.390811055898666382e-01 6.067200750112533569e-02 1.015335693955421448e-01
5.246000000000000000e+03 2.842983818054199219e+01 2.576730155944824219e+01 6.145079806447029114e-02 1.359596550464630127e-01 5.922313779592514038e-02 9.882690757513046265e-02
5.247000000000000000e+03 2.584907150268554688e+01 2.396092605590820312e+01 5.876157060265541077e-02 1.461863666772842407e-01 6.148438155651092529e-02 1.006422117352485657e-01
5.248000000000000000e+03 2.574990844726562500e+01 2.165518569946289062e+01 7.804849743843078613e-02 1.559290587902069092e-01 7.019326835870742798e-02 1.151309385895729065e-01
5.249000000000000000e+03 3.533914947509765625e+01 -1.892530441284179688e+00 2.536832392215728760e-01 -6.060739159584045410e-01 -1.057172045111656189e-01 5.365617945790290833e-02
5.250000000000000000e+03 3.385441589355468750e+01 -1.221850633621215820e+00 1.445654630661010742e-01 -6.142353415489196777e-01 -1.409009695053100586e-01 3.995768353343009949e-02
5.251000000000000000e+03 3.437406539916992188e+01 5.837558269500732422e+00 -9.333156943321228027e-01 -7.645763158798217773e-01 -5.093675851821899414e-01 -5.941051840782165527e-01
5.252000000000000000e+03 3.116149902343750000e+01 2.769953536987304688e+01 6.948816776275634766e-02 1.254285722970962524e-01 5.847502127289772034e-02 9.358090162277221680e-02
5.253000000000000000e+03 3.290388488769531250e+01 4.160432338714599609e+00 -9.953038096427917480e-01 -6.747375130653381348e-01 -5.010123848915100098e-01 -4.391491711139678955e-01
5.254000000000000000e+03 3.470308685302734375e+01 5.321873188018798828e+00 -8.472251892089843750e-01 -7.276374697685241699e-01 -4.724588096141815186e-01 -5.054810047149658203e-01
5.255000000000000000e+03 3.509258270263671875e+01 7.504441738128662109e+00 -9.315515160560607910e-01 -8.634545207023620605e-01 -5.385017991065979004e-01 -7.207202315330505371e-01
5.256000000000000000e+03 1.206753349304199219e+01 7.774775028228759766e+00 1.319269388914108276e-01 3.515287935733795166e-01 1.450367271900177002e-01 -1.766929402947425842e-02
5.257000000000000000e+03 2.606173515319824219e+01 2.081086158752441406e+01 8.999114483594894409e-02 1.574939638376235962e-01 7.424552738666534424e-02 1.223688051104545593e-01
5.258000000000000000e+03 1.945792961120605469e+01 1.486417770385742188e+01 1.047883629798889160e-01 2.155548632144927979e-01 9.610296785831451416e-02 1.472641378641128540e-01
5.259000000000000000e+03 3.503880691528320312e+01 8.127044677734375000e+00 -9.643428325653076172e-01 -9.175612926483154297e-01 -5.645712614059448242e-01 -7.846328616142272949e-01
5.260000000000000000e+03 3.164825248718261719e+01 -2.963663637638092041e-01 -1.063969507813453674e-01 -5.890218019485473633e-01 -2.086256295442581177e-01 2.804532833397388458e-02
5.261000000000000000e+03 3.107209396362304688e+01 6.983252763748168945e-01 -4.195777773857116699e-01 -5.757338404655456543e-01 -2.985934913158416748e-01 -2.524118497967720032e-02
5.262000000000000000e+03 5.753473281860351562e+01 2.611860656738281250e+01 -9.884737133979797363e-01 2.073751837015151978e-01 -2.343295514583587646e-01 -9.126372933387756348e-01
5.263000000000000000e+03 5.362886428833007812e+01 2.751164436340332031e+01 -1.253644824028015137e+00 -9.700367599725723267e-02 -4.051945209503173828e-01 -9.339567422866821289e-01
5.264000000000000000e+03 5.603846359252929688e+01 2.648099517822265625e+01 -1.105191826820373535e+00 1.237039938569068909e-01 -2.944463491439819336e-01 -9.295291304588317871e-01
5.265000000000000000e+03 3.287243652343750000e+01 -1.040580272674560547e+00 8.443888276815414429e-02 -6.140816211700439453e-01 -1.588928103446960449e-01 3.660289570689201355e-02
5.266000000000000000e+03 3.235009384155273438e+01 -1.342627882957458496e+00 1.640098541975021362e-01 -6.074691414833068848e-01 -1.330377906560897827e-01 4.315385594964027405e-02
5.267000000000000000e+03 7.298257446289062500e+01 2.726100158691406250e+01 3.418643176555633545e-01 4.282550334930419922e+00 1.387324452400207520e+00 2.047585248947143555e+00
5.268000000000000000e+03 3.237364196777343750e+01 3.727028131484985352e+00 -1.017985343933105469e+00 -6.572437882423400879e-01 -5.025687813758850098e-01 -3.877031803131103516e-01
5.269000000000000000e+03 6.387216186523437500e+01 2.430722618103027344e+01 -3.502906858921051025e-02 6.951302886009216309e-01 1.980303525924682617e-01 -2.701145112514495850e-01
5.270000000000000000e+03 6.201286697387695312e+01 2.504567146301269531e+01 -4.125746488571166992e-01 4.402156770229339600e-01 8.292304351925849915e-03 -5.969744324684143066e-01
5.271000000000000000e+03 6.228716278076171875e+01 2.416399955749511719e+01 -2.034139931201934814e-01 5.554061532020568848e-01 1.055976524949073792e-01 -4.605363011360168457e-01
5.272000000000000000e+03 3.138818740844726562e+01 3.381542444229125977e+00 -1.152733683586120605e+00 -6.634443402290344238e-01 -5.448533892631530762e-01 -3.732839226722717285e-01
5.273000000000000000e+03 1.065659427642822266e+01 1.752894592285156250e+01 8.862700313329696655e-03 5.908491462469100952e-02 2.038428559899330139e-02 -6.149952532723546028e-04
5.274000000000000000e+03 5.782762908935546875e+01 2.556044006347656250e+01 -8.758031725883483887e-01 2.283385545015335083e-01 -1.942393779754638672e-01 -8.751468062400817871e-01
5.275000000000000000e+03 6.454004669189453125e+01 2.406348991394042969e+01 9.278187900781631470e-02 8.357160687446594238e-01 2.785493731498718262e-01 -1.279840171337127686e-01
5.276000000000000000e+03 6.486315155029296875e+01 2.475787353515625000e+01 5.769691430032253265e-03 7.682379484176635742e-01 2.322022914886474609e-01 -1.679255813360214233e-01
5.277000000000000000e+03 3.629189300537109375e+01 -3.593921661376953125e+00 4.189905822277069092e-01 -5.927253365516662598e-01 -5.212042853236198425e-02 3.809630498290061951e-02
5.278000000000000000e+03 1.022859764099121094e+01 8.772229194641113281e+00 1.388048231601715088e-01 1.267289072275161743e-01 7.966011762619018555e-02 -3.239264339208602905e-02
5.279000000000000000e+03 3.455485153198242188e+01 -1.668075680732727051e+00 1.975571513175964355e-01 -6.238614916801452637e-01 -1.278913021087646484e-01 5.039756745100021362e-02
5.280000000000000000e+03 5.937883377075195312e+01 2.507030677795410156e+01 -6.714663505554199219e-01 3.117694854736328125e-01 -1.079090535640716553e-01 -7.886691689491271973e-01
5.281000000000000000e+03 5.915387344360351562e+01 2.558962440490722656e+01 -7.876790165901184082e-01 2.792800068855285645e-01 -1.525197029113769531e-01 -8.387927412986755371e-01
5.282000000000000000e+03 7.036733245849609375e+01 2.553504753112792969e+01 5.428770184516906738e-01 2.517381668090820312e+00 9.180776476860046387e-01 1.175561428070068359e+00
5.283000000000000000e+03 7.098288726806640625e+01 2.401357269287109375e+01 7.039058208465576172e-01 3.328272581100463867e+00 1.209653496742248535e+00 1.404379487037658691e+00
5.284000000000000000e+03 1.171407604217529297e+01 1.495900630950927734e+01 2.659090980887413025e-02 1.265325844287872314e-01 4.593705013394355774e-02 1.836121454834938049e-02
5.285000000000000000e+03 1.071535301208496094e+01 8.532426834106445312e+00 1.423898935317993164e-01 1.742125451564788818e-01 9.498073160648345947e-02 -3.847310319542884827e-02
5.286000000000000000e+03 1.162439823150634766e+01 7.900172233581542969e+00 1.385906338691711426e-01 2.918377816677093506e-01 1.291285157203674316e-01 -3.491800278425216675e-02
5.287000000000000000e+03 6.693746185302734375e+01 2.412450790405273438e+01 3.861920535564422607e-01 1.360542654991149902e+00 5.240203738212585449e-01 3.559875488281250000e-01
5.288000000000000000e+03 1.001549339294433594e+01 1.255335235595703125e+01 5.374633148312568665e-02 9.081319719552993774e-02 4.336785897612571716e-02 -5.762709770351648331e-03
5.289000000000000000e+03 1.034261608123779297e+01 1.117078399658203125e+01 7.589014619588851929e-02 1.237278878688812256e-01 5.988540872931480408e-02 -8.622032590210437775e-03
5.290000000000000000e+03 1.112057209014892578e+01 1.664037132263183594e+01 1.456826552748680115e-02 8.540982007980346680e-02 2.999342419207096100e-02 6.747087463736534119e-03
5.291000000000000000e+03 7.023521423339843750e+01 2.369367790222167969e+01 6.992918252944946289e-01 2.947091102600097656e+00 1.093914866447448730e+00 1.241915822029113770e+00
5.292000000000000000e+03 1.872390174865722656e+01 1.524801254272460938e+01 8.934965729713439941e-02 2.132013738155364990e-01 9.076530486345291138e-02 1.345558166503906250e-01
5.293000000000000000e+03 3.234822082519531250e+01 2.938151931762695312e+01 6.958010792732238770e-02 1.209975183010101318e-01 5.717328935861587524e-02 8.642371743917465210e-02
5.294000000000000000e+03 3.199093055725097656e+01 3.099496459960937500e+01 6.372583657503128052e-02 1.182378232479095459e-01 5.458910018205642700e-02 7.696054875850677490e-02
5.295000000000000000e+03 3.617362213134765625e+01 -2.741998910903930664e+00 3.488676846027374268e-01 -5.903999805450439453e-01 -7.245969772338867188e-02 4.206275194883346558e-02
5.296000000000000000e+03 3.643679809570312500e+01 -4.398777008056640625e+00 4.770958423614501953e-01 -5.806733369827270508e-01 -3.107326105237007141e-02 2.405726723372936249e-02
5.297000000000000000e+03 6.596335601806640625e+01 5.719561100006103516e+00 3.769710063934326172e-01 3.090088844299316406e+00 1.040117979049682617e+00 6.771014928817749023e-01
5.298000000000000000e+03 6.592388916015625000e+01 2.357794380187988281e+01 3.391286134719848633e-01 1.212310910224914551e+00 4.654318392276763916e-01 1.931735724210739136e-01
5.299000000000000000e+03 6.555052185058593750e+01 2.454445075988769531e+01 1.432957798242568970e-01 9.281339645385742188e-01 3.214289247989654541e-01 -5.738873500376939774e-03
5.300000000000000000e+03 1.171599674224853516e+01 1.411286735534667969e+01 3.440912067890167236e-02 1.392249017953872681e-01 5.209020897746086121e-02 1.842749491333961487e-02
5.301000000000000000e+03 6.898552703857421875e+01 2.258407211303710938e+01 7.199496626853942871e-01 2.506196022033691406e+00 9.678437113761901855e-01 9.709761142730712891e-01
5.302000000000000000e+03 6.953692626953125000e+01 2.332897949218750000e+01 6.832744479179382324e-01 2.592038393020629883e+00 9.825938940048217773e-01 1.060848593711853027e+00
5.303000000000000000e+03 7.041091918945312500e+01 2.188462448120117188e+01 7.452118992805480957e-01 3.410931348800659180e+00 1.246842980384826660e+00 1.275654435157775879e+00
5.304000000000000000e+03 6.971061706542968750e+01 2.217515563964843750e+01 7.591611742973327637e-01 3.046562194824218750e+00 1.141717076301574707e+00 1.171261072158813477e+00
5.305000000000000000e+03 4.024409103393554688e+01 -5.584265232086181641e+00 4.844549000263214111e-01 -3.980013728141784668e-01 2.593605965375900269e-02 4.303869977593421936e-02
5.306000000000000000e+03 1.056320190429687500e+01 9.307022094726562500e+00 1.199581101536750793e-01 1.574410200119018555e-01 8.321973681449890137e-02 -2.491584606468677521e-02
5.307000000000000000e+03 1.189039802551269531e+01 1.012707233428955078e+01 8.153443038463592529e-02 2.363371551036834717e-01 9.536147862672805786e-02 1.370477303862571716e-02
5.308000000000000000e+03 6.618560028076171875e+01 -4.372608959674835205e-01 2.773422598838806152e-01 3.217207908630371094e+00 1.048364996910095215e+00 5.503231883049011230e-01
5.309000000000000000e+03 6.088889694213867188e+01 2.537502861022949219e+01 -5.953078269958496094e-01 3.573162555694580078e-01 -7.139746844768524170e-02 -7.245712280273437500e-01
5.310000000000000000e+03 6.171914672851562500e+01 2.442751502990722656e+01 -3.246253728866577148e-01 4.827387034893035889e-01 4.743399843573570251e-02 -5.550245046615600586e-01
5.311000000000000000e+03 6.855869293212890625e+01 2.171335411071777344e+01 7.119937539100646973e-01 2.482488155364990234e+00 9.583445787429809570e-01 9.284956455230712891e-01
5.312000000000000000e+03 6.812365722656250000e+01 2.029215621948242188e+01 7.299578785896301270e-01 2.620146274566650391e+00 1.005031228065490723e+00 9.052215814590454102e-01
5.313000000000000000e+03 1.044849681854248047e+01 -1.105679035186767578e+01 -7.111433893442153931e-02 -4.627174437046051025e-01 -1.601495444774627686e-01 -5.230662226676940918e-01
5.314000000000000000e+03 4.504414367675781250e+01 -7.350442886352539062e+00 4.609180986881256104e-01 3.690744563937187195e-02 1.493476629257202148e-01 9.338245540857315063e-02
5.315000000000000000e+03 6.886933898925781250e+01 1.659881401062011719e+01 6.461472511291503906e-01 3.430554628372192383e+00 1.223010540008544922e+00 1.028249382972717285e+00
5.316000000000000000e+03 1.283711242675781250e+01 2.197757530212402344e+01 -4.022730048745870590e-03 6.767612695693969727e-02 1.909601874649524689e-02 1.271835621446371078e-02
5.317000000000000000e+03 2.994270896911621094e+01 2.857029151916503906e+01 5.936458334326744080e-02 1.262736022472381592e-01 5.569145455956459045e-02 8.648864924907684326e-02
5.318000000000000000e+03 6.973662567138671875e+01 1.537218761444091797e+01 5.793511867523193359e-01 3.886433839797973633e+00 1.339735507965087891e+00 1.065768361091613770e+00
5.319000000000000000e+03 6.677075958251953125e+01 8.441794514656066895e-01 2.836492657661437988e-01 3.338749408721923828e+00 1.086719632148742676e+00 5.862303972244262695e-01
5.320000000000000000e+03 1.385778617858886719e+01 2.403363227844238281e+01 -4.557618871331214905e-03 6.940566003322601318e-02 1.945441216230392456e-02 1.686356775462627411e-02
5.321000000000000000e+03 4.532763671875000000e+01 -1.341762351989746094e+01 3.471296727657318115e-01 1.593137830495834351e-01 1.519330441951751709e-01 6.132812798023223877e-02
5.322000000000000000e+03 6.709114074707031250e+01 -5.796123027801513672e+00 1.948749274015426636e-01 3.392798662185668945e+00 1.076302051544189453e+00 4.250543415546417236e-01
5.323000000000000000e+03 6.709905242919921875e+01 1.112618541717529297e+01 4.916658103466033936e-01 3.202263116836547852e+00 1.108178734779357910e+00 8.123154044151306152e-01
5.324000000000000000e+03 1.508051872253417969e+01 -2.099899482727050781e+01 1.954929381608963013e-01 -3.916237950325012207e-01 -5.883925780653953552e-02 -3.163706064224243164e-01
5.325000000000000000e+03 1.240960407257080078e+01 -1.958796882629394531e+01 1.546367406845092773e-01 -5.083509683609008789e-01 -1.061142683029174805e-01 -3.626230061054229736e-01
5.326000000000000000e+03 6.530388641357421875e+01 -5.858156085014343262e-01 2.929049730300903320e-01 3.050402402877807617e+00 1.002992153167724609e+00 5.462128520011901855e-01
5.327000000000000000e+03 4.385129165649414062e+01 -9.446187019348144531e+00 4.470555484294891357e-01 -5.067966505885124207e-02 1.189127638936042786e-01 5.657390877604484558e-02
5.328000000000000000e+03 4.265800094604492188e+01 -9.019368171691894531e+00 4.618544280529022217e-01 -1.653359532356262207e-01 8.895554393529891968e-02 4.073772951960563660e-02
5.329000000000000000e+03 7.081767272949218750e+01 2.261545753479003906e+01 7.461401820182800293e-01 3.565727233886718750e+00 1.293560266494750977e+00 1.382622957229614258e+00
5.330000000000000000e+03 6.905120849609375000e+01 2.470552825927734375e+01 5.399348735809326172e-01 1.959540367126464844e+00 7.498425841331481934e-01 8.375735878944396973e-01
5.331000000000000000e+03 6.678462219238281250e+01 -8.805580139160156250e+00 1.699476689100265503e-01 3.320047140121459961e+00 1.046998381614685059e+00 3.727718591690063477e-01
5.332000000000000000e+03 3.274863433837890625e+01 3.477254867553710938e+01 6.617323309183120728e-02 1.081939339637756348e-01 5.231015011668205261e-02 5.712620168924331665e-02
5.333000000000000000e+03 1.124542427062988281e+01 -1.679965782165527344e+01 1.185442358255386353e-01 -5.542905926704406738e-01 -1.307239085435867310e-01 -4.147981107234954834e-01
5.334000000000000000e+03 4.554572296142578125e+01 -1.104803276062011719e+01 4.118726551532745361e-01 1.387471407651901245e-01 1.651859432458877563e-01 7.366023957729339600e-02
5.335000000000000000e+03 4.506350326538085938e+01 -1.508406066894531250e+01 2.902756333351135254e-01 1.485029906034469604e-01 1.316335946321487427e-01 5.576368421316146851e-02
5.336000000000000000e+03 4.603351974487304688e+01 -1.439863014221191406e+01 3.172046244144439697e-01 2.472480386495590210e-01 1.693357974290847778e-01 6.112395599484443665e-02
5.337000000000000000e+03 3.656271362304687500e+01 3.691963195800781250e+01 9.876105189323425293e-02 9.272398799657821655e-02 5.744551494717597961e-02 5.081028118729591370e-02
5.338000000000000000e+03 4.703553390502929688e+01 -1.948515701293945312e+01 1.345420926809310913e-01 4.087387323379516602e-01 1.629842370748519897e-01 8.387929201126098633e-02
5.339000000000000000e+03 4.624824905395507812e+01 -1.762602615356445312e+01 1.996834427118301392e-01 3.107767403125762939e-01 1.531380563974380493e-01 7.218566536903381348e-02
5.340000000000000000e+03 6.287060928344726562e+01 -2.304600906372070312e+01 6.516481190919876099e-02 2.690668821334838867e+00 8.267500996589660645e-01 2.135806828737258911e-01
5.341000000000000000e+03 6.531836700439453125e+01 -6.293917655944824219e+00 2.247962504625320435e-01 3.062531709671020508e+00 9.861983656883239746e-01 4.222652316093444824e-01
5.342000000000000000e+03 6.591886138916015625e+01 -5.111176967620849609e+00 2.247198373079299927e-01 3.179559230804443359e+00 1.021283745765686035e+00 4.483669102191925049e-01
5.343000000000000000e+03 1.834743309020996094e+01 -2.335084152221679688e+01 2.044456303119659424e-01 -1.584057509899139404e-01 1.381196267902851105e-02 -2.846891880035400391e-01
5.344000000000000000e+03 1.245253467559814453e+01 -1.778380775451660156e+01 1.517432481050491333e-01 -5.212654471397399902e-01 -1.108566671609878540e-01 -3.941763639450073242e-01
5.345000000000000000e+03 1.403189468383789062e+01 -2.256151390075683594e+01 1.825679093599319458e-01 -4.273143708705902100e-01 -7.342394441366195679e-02 -3.079571425914764404e-01
5.346000000000000000e+03 9.929834365844726562e+00 -2.687740707397460938e+01 1.014640703797340393e-01 -6.562223434448242188e-01 -1.664274781942367554e-01 -2.386853396892547607e-01
5.347000000000000000e+03 1.133492851257324219e+01 -2.840713691711425781e+01 1.147458702325820923e-01 -5.802438259124755859e-01 -1.396493911743164062e-01 -2.209402769804000854e-01
5.348000000000000000e+03 1.463227367401123047e+01 2.511995506286621094e+01 -4.458235111087560654e-03 7.286977767944335938e-02 2.052346244454383850e-02 2.007227763533592224e-02
5.349000000000000000e+03 1.336215782165527344e+01 2.581761550903320312e+01 -8.538443595170974731e-03 4.701921343803405762e-02 1.154423132538795471e-02 9.312492795288562775e-03
5.350000000000000000e+03 6.354610824584960938e+01 -1.778435325622558594e+01 1.140918508172035217e-01 2.783971548080444336e+00 8.694190382957458496e-01 2.472782135009765625e-01
5.351000000000000000e+03 5.176392364501953125e+01 -1.982738494873046875e+01 1.260899156332015991e-01 1.067020773887634277e+00 3.579331934452056885e-01 1.349932253360748291e-01
5.352000000000000000e+03 4.755815124511718750e+01 -1.795693016052246094e+01 1.918649077415466309e-01 4.681775569915771484e-01 1.980127394199371338e-01 8.004757016897201538e-02
5.353000000000000000e+03 6.749692535400390625e+01 7.579184532165527344e+00 3.880210816860198975e-01 3.441726207733154297e+00 1.148924231529235840e+00 7.517786622047424316e-01
5.354000000000000000e+03 5.319444274902343750e+01 -2.026378059387207031e+01 1.176604032516479492e-01 1.266986727714538574e+00 4.153941273689270020e-01 1.478450298309326172e-01
5.355000000000000000e+03 5.891355514526367188e+01 -2.516049766540527344e+01 5.545242875814437866e-02 2.117467403411865234e+00 6.518759131431579590e-01 2.115227580070495605e-01
5.356000000000000000e+03 3.969483184814453125e+01 3.939918136596679688e+01 1.390445232391357422e-01 7.004978507757186890e-02 6.272829324007034302e-02 3.979175910353660583e-02
5.357000000000000000e+03 3.126854324340820312e+01 3.799731445312500000e+01 5.875235050916671753e-02 1.036861538887023926e-01 4.873155057430267334e-02 3.421402350068092346e-02
5.358000000000000000e+03 4.921237945556640625e+01 2.330799865722656250e+01 -1.006307125091552734e+00 -6.073446273803710938e-01 -4.840955436229705811e-01 -9.451555609703063965e-01
5.359000000000000000e+03 2.830218505859375000e+01 1.006567955017089844e+00 -7.805655002593994141e-01 -4.789184331893920898e-01 -3.778451979160308838e-01 -1.408861577510833740e-01
5.360000000000000000e+03 3.897475433349609375e+01 1.257414913177490234e+01 -8.607572913169860840e-01 -9.630854725837707520e-01 -5.471528172492980957e-01 -8.720132112503051758e-01
5.361000000000000000e+03 3.806681060791015625e+01 1.219286727905273438e+01 -9.096452593803405762e-01 -1.012401580810546875e+00 -5.766140222549438477e-01 -9.046963453292846680e-01
5.362000000000000000e+03 3.687203979492187500e+01 1.141026687622070312e+01 -9.655251502990722656e-01 -1.044445157051086426e+00 -6.029911041259765625e-01 -9.266977906227111816e-01
5.363000000000000000e+03 4.996699523925781250e+01 2.541769981384277344e+01 -1.141426205635070801e+00 -6.124407649040222168e-01 -5.261600613594055176e-01 -9.946168661117553711e-01
5.364000000000000000e+03 4.988786315917968750e+01 2.501776695251464844e+01 -1.115891218185424805e+00 -6.025696396827697754e-01 -5.155382752418518066e-01 -9.863721132278442383e-01
5.365000000000000000e+03 4.584731292724609375e+01 1.978311538696289062e+01 -8.521305918693542480e-01 -8.202280998229980469e-01 -5.017076134681701660e-01 -9.376438856124877930e-01
5.366000000000000000e+03 3.846983337402343750e+01 1.228379344940185547e+01 -8.892917633056640625e-01 -9.893629550933837891e-01 -5.635964274406433105e-01 -8.885053992271423340e-01
5.367000000000000000e+03 3.854586791992187500e+01 1.270271205902099609e+01 -9.005675315856933594e-01 -1.006654739379882812e+00 -5.721666812896728516e-01 -9.106253385543823242e-01
5.368000000000000000e+03 4.626375198364257812e+01 2.060485839843750000e+01 -9.027415513992309570e-01 -8.267350792884826660e-01 -5.188429951667785645e-01 -9.528270959854125977e-01
5.369000000000000000e+03 2.982960510253906250e+01 2.247807979583740234e+00 -1.129013776779174805e+00 -6.341575384140014648e-01 -5.289514064788818359e-01 -2.809120416641235352e-01
5.370000000000000000e+03 2.854960441589355469e+01 2.270448207855224609e+00 -1.367496728897094727e+00 -5.754835605621337891e-01 -5.828940868377685547e-01 -3.486852943897247314e-01
5.371000000000000000e+03 5.025808715820312500e+01 2.463286209106445312e+01 -1.071731925010681152e+00 -5.288755297660827637e-01 -4.801822304725646973e-01 -9.540569186210632324e-01
5.372000000000000000e+03 4.375674057006835938e+01 1.762669372558593750e+01 -8.082920312881469727e-01 -8.776097893714904785e-01 -5.057705640792846680e-01 -9.524381160736083984e-01
5.373000000000000000e+03 2.457097053527832031e+01 2.165986633300781250e+01 6.961145251989364624e-02 1.581847965717315674e-01 6.833887100219726562e-02 1.107619926333427429e-01
5.374000000000000000e+03 2.539912605285644531e+01 2.109561157226562500e+01 8.221595734357833862e-02 1.590440720319747925e-01 7.237800955772399902e-02 1.181513369083404541e-01
5.375000000000000000e+03 4.616922760009765625e+01 2.004979705810546875e+01 -8.628379702568054199e-01 -8.064339756965637207e-01 -5.007815957069396973e-01 -9.323069453239440918e-01
5.376000000000000000e+03 3.907974624633789062e+01 1.298876571655273438e+01 -8.754020929336547852e-01 -9.805167317390441895e-01 -5.567756295204162598e-01 -8.960529565811157227e-01
5.377000000000000000e+03 4.407699203491210938e+01 1.826814079284667969e+01 -8.290109038352966309e-01 -8.941584229469299316e-01 -5.169507861137390137e-01 -9.676935076713562012e-01
5.378000000000000000e+03 4.609402084350585938e+01 2.124475669860839844e+01 -9.716225266456604004e-01 -8.821505904197692871e-01 -5.561318993568420410e-01 -9.948304891586303711e-01
5.379000000000000000e+03 5.143525314331054688e+01 2.603598594665527344e+01 -1.154205679893493652e+00 -4.047732353210449219e-01 -4.676936864852905273e-01 -9.496125578880310059e-01
5.380000000000000000e+03 2.081438255310058594e+01 1.837527084350585938e+01 7.205658406019210815e-02 1.819729208946228027e-01 7.620885223150253296e-02 1.166055127978324890e-01
5.381000000000000000e+03 3.923773956298828125e+01 1.337289714813232422e+01 -8.840599656105041504e-01 -9.907619357109069824e-01 -5.624465346336364746e-01 -9.148169159889221191e-01
5.382000000000000000e+03 4.403342437744140625e+01 1.911853027343750000e+01 -8.885113000869750977e-01 -9.508246183395385742e-01 -5.518007874488830566e-01 -1.014213323593139648e+00
5.383000000000000000e+03 3.938286972045898438e+01 1.409987163543701172e+01 -9.156493544578552246e-01 -1.025024414062500000e+00 -5.822021365165710449e-01 -9.559334516525268555e-01
5.384000000000000000e+03 1.339806079864501953e+01 8.971364021301269531e+00 9.154546260833740234e-02 3.732644319534301758e-01 1.394429653882980347e-01 7.868866622447967529e-02
5.385000000000000000e+03 1.317279815673828125e+01 9.563698768615722656e+00 8.398287743330001831e-02 3.322610855102539062e-01 1.248731911182403564e-01 6.516063213348388672e-02
5.386000000000000000e+03 5.184328842163085938e+01 2.618865585327148438e+01 -1.161194801330566406e+00 -3.438915908336639404e-01 -4.515258967876434326e-01 -9.410166740417480469e-01
5.387000000000000000e+03 4.718589401245117188e+01 2.175674057006835938e+01 -9.655021429061889648e-01 -7.830973267555236816e-01 -5.245798230171203613e-01 -9.610627889633178711e-01
5.388000000000000000e+03 4.760451126098632812e+01 2.180171012878417969e+01 -9.495447278022766113e-01 -7.351267337799072266e-01 -5.054014325141906738e-01 -9.426552057266235352e-01
5.389000000000000000e+03 1.430586338043212891e+01 1.481754207611083984e+01 4.138871282339096069e-02 1.907422542572021484e-01 6.963928788900375366e-02 6.655919551849365234e-02
5.390000000000000000e+03 4.087846755981445312e+01 1.513887596130371094e+01 -8.693300485610961914e-01 -9.539267420768737793e-01 -5.469770431518554688e-01 -9.455667138099670410e-01
5.391000000000000000e+03 5.029146194458007812e+01 2.496698951721191406e+01 -1.094090104103088379e+00 -5.364946722984313965e-01 -4.891754388809204102e-01 -9.637418389320373535e-01
5.392000000000000000e+03 1.715641021728515625e+01 1.375383567810058594e+01 8.612912148237228394e-02 2.361719757318496704e-01 9.669032692909240723e-02 1.353935897350311279e-01
5.393000000000000000e+03 1.719099807739257812e+01 1.412446784973144531e+01 8.124213665723800659e-02 2.294055670499801636e-01 9.319431334733963013e-02 1.299812495708465576e-01
5.394000000000000000e+03 2.011861228942871094e+01 1.731842994689941406e+01 7.729934155941009521e-02 1.919746994972229004e-01 8.078221231698989868e-02 1.224632784724235535e-01
5.395000000000000000e+03 3.727914047241210938e+01 1.157834148406982422e+01 -9.431143999099731445e-01 -1.027457952499389648e+00 -5.911716818809509277e-01 -9.129231572151184082e-01
5.396000000000000000e+03 4.462062072753906250e+01 1.934843826293945312e+01 -8.758141994476318359e-01 -9.121610522270202637e-01 -5.363925695419311523e-01 -9.887166619300842285e-01
5.397000000000000000e+03 4.520796585083007812e+01 1.966918373107910156e+01 -8.759787678718566895e-01 -8.851582407951354980e-01 -5.283411145210266113e-01 -9.693595767021179199e-01
5.398000000000000000e+03 5.227819824218750000e+01 2.626011466979980469e+01 -1.162058234214782715e+00 -2.839977741241455078e-01 -4.338167905807495117e-01 -9.330103397369384766e-01
5.399000000000000000e+03 1.783314323425292969e+01 1.574360561370849609e+01 7.065391540527343750e-02 2.073964476585388184e-01 8.341510593891143799e-02 1.170012950897216797e-01
5.400000000000000000e+03 2.480267906188964844e+01 2.127421569824218750e+01 7.483072578907012939e-02 1.594017446041107178e-01 7.026974111795425415e-02 1.139064058661460876e-01
5.401000000000000000e+03 2.411941146850585938e+01 2.040577507019042969e+01 7.959175109863281250e-02 1.645445972681045532e-01 7.324089854955673218e-02 1.183461546897888184e-01
5.402000000000000000e+03 5.037301254272460938e+01 2.533241653442382812e+01 -1.121081352233886719e+00 -5.395647287368774414e-01 -4.981938302516937256e-01 -9.707520008087158203e-01
5.403000000000000000e+03 1.953824234008789062e+01 1.683696556091308594e+01 7.725490629673004150e-02 1.961209923028945923e-01 8.201277256011962891e-02 1.223802119493484497e-01
5.404000000000000000e+03 4.066047286987304688e+01 1.465453433990478516e+01 -8.587924242019653320e-01 -9.468805193901062012e-01 -5.417018532752990723e-01 -9.241831898689270020e-01
5.405000000000000000e+03 4.949003219604492188e+01 2.497824096679687500e+01 -1.125779509544372559e+00 -6.547107100486755371e-01 -5.341470837593078613e-01 -1.003865242004394531e+00
5.406000000000000000e+03 4.427286911010742188e+01 1.860732078552246094e+01 -8.415085077285766602e-01 -8.980723619461059570e-01 -5.218742489814758301e-01 -9.740342497825622559e-01
5.407000000000000000e+03 5.521429443359375000e+01 2.647991371154785156e+01 -1.123649001121520996e+00 6.601998955011367798e-02 -3.172886967658996582e-01 -9.300265312194824219e-01
5.408000000000000000e+03 5.115843200683593750e+01 2.550401878356933594e+01 -1.114109158515930176e+00 -4.280608296394348145e-01 -4.626509845256805420e-01 -9.468441009521484375e-01
5.409000000000000000e+03 5.152872848510742188e+01 2.564490890502929688e+01 -1.118044257164001465e+00 -3.774074018001556396e-01 -4.486355185508728027e-01 -9.379404187202453613e-01
5.410000000000000000e+03 5.350375747680664062e+01 2.696363639831542969e+01 -1.205374240875244141e+00 -1.159034818410873413e-01 -3.963833153247833252e-01 -9.321777224540710449e-01
5.411000000000000000e+03 5.334582138061523438e+01 2.644673347473144531e+01 -1.160336136817932129e+00 -1.371948868036270142e-01 -3.892593085765838623e-01 -9.256557226181030273e-01
5.412000000000000000e+03 4.077841567993164062e+01 1.429147815704345703e+01 -8.294287919998168945e-01 -9.181712865829467773e-01 -5.242800116539001465e-01 -8.923514485359191895e-01
5.413000000000000000e+03 4.389885711669921875e+01 1.794442558288574219e+01 -8.205245137214660645e-01 -8.874322772026062012e-01 -5.123870372772216797e-01 -9.609303474426269531e-01
5.414000000000000000e+03 4.327183151245117188e+01 1.738687515258789062e+01 -8.235193490982055664e-01 -8.997628688812255859e-01 -5.169846415519714355e-01 -9.675555825233459473e-01
5.415000000000000000e+03 4.722737884521484375e+01 2.134609413146972656e+01 -9.240766167640686035e-01 -7.565981149673461914e-01 -5.042024254798889160e-01 -9.387659430503845215e-01
5.416000000000000000e+03 4.017386627197265625e+01 1.408762645721435547e+01 -8.639422655105590820e-01 -9.563075304031372070e-01 -5.460749268531799316e-01 -9.102514982223510742e-01
5.417000000000000000e+03 4.047476577758789062e+01 1.417914676666259766e+01 -8.465395569801330566e-01 -9.383711814880371094e-01 -5.354732275009155273e-01 -9.011009335517883301e-01
5.418000000000000000e+03 2.437554550170898438e+01 2.105222892761230469e+01 7.426732778549194336e-02 1.610464602708816528e-01 7.059413939714431763e-02 1.141850873827934265e-01
5.419000000000000000e+03 3.661940765380859375e+01 1.087292480468750000e+01 -9.587571620941162109e-01 -1.023637175559997559e+00 -5.947183370590209961e-01 -9.022137522697448730e-01
5.420000000000000000e+03 2.975678062438964844e+01 2.727302312850952148e+00 -1.235938668251037598e+00 -6.537290215492248535e-01 -5.669003129005432129e-01 -3.293231129646301270e-01
5.421000000000000000e+03 3.137292671203613281e+01 2.913656234741210938e+00 -1.011694669723510742e+00 -6.372224688529968262e-01 -4.946751594543457031e-01 -2.786470651626586914e-01
5.422000000000000000e+03 2.783473968505859375e+01 6.650268435478210449e-01 -6.658234000205993652e-01 -4.207914471626281738e-01 -3.259844481945037842e-01 -1.499258726835250854e-01
5.423000000000000000e+03 1.156765937805175781e+01 1.187061691284179688e+01 5.669993534684181213e-02 1.732342988252639771e-01 6.898026913404464722e-02 1.772267557680606842e-02
5.424000000000000000e+03 5.284497070312500000e+01 2.662548446655273438e+01 -1.184168219566345215e+00 -2.046754658222198486e-01 -4.166530966758728027e-01 -9.307397603988647461e-01
5.425000000000000000e+03 4.679679870605468750e+01 2.168635368347167969e+01 -9.766079783439636230e-01 -8.231926560401916504e-01 -5.399401783943176270e-01 -9.752243161201477051e-01
5.426000000000000000e+03 4.646223449707031250e+01 2.125958442687988281e+01 -9.508634805679321289e-01 -8.360252380371093750e-01 -5.360665917396545410e-01 -9.712105989456176758e-01
5.427000000000000000e+03 2.241332054138183594e+01 2.033792877197265625e+01 6.555896252393722534e-02 1.675924658775329590e-01 6.994543224573135376e-02 1.099464520812034607e-01
5.428000000000000000e+03 2.365032386779785156e+01 2.018491744995117188e+01 7.832729816436767578e-02 1.672278493642807007e-01 7.366654276847839355e-02 1.178643554449081421e-01
5.429000000000000000e+03 3.632171630859375000e+01 1.035213565826416016e+01 -9.559587240219116211e-01 -1.004194259643554688e+00 -5.880458950996398926e-01 -8.810558319091796875e-01
5.430000000000000000e+03 3.779139328002929688e+01 1.130674743652343750e+01 -8.908660411834716797e-01 -9.738491773605346680e-01 -5.594145655632019043e-01 -8.577167391777038574e-01
5.431000000000000000e+03 1.343720340728759766e+01 1.688481330871582031e+01 1.930171251296997070e-02 1.380649358034133911e-01 4.720999300479888916e-02 3.898623585700988770e-02
5.432000000000000000e+03 1.047076702117919922e+01 1.022348976135253906e+01 9.566453844308853149e-02 1.406948864459991455e-01 7.090782374143600464e-02 -1.386681944131851196e-02
5.433000000000000000e+03 1.334259033203125000e+01 1.010827732086181641e+01 7.903847098350524902e-02 3.115637302398681641e-01 1.171806603670120239e-01 7.364130020141601562e-02
5.434000000000000000e+03 3.817304992675781250e+01 1.176922607421875000e+01 -8.799032568931579590e-01 -9.716799855232238770e-01 -5.554749965667724609e-01 -8.636180162429809570e-01
5.435000000000000000e+03 1.268897914886474609e+01 8.336677551269531250e+00 1.064256355166435242e-01 3.788820207118988037e-01 1.455923020839691162e-01 3.330417722463607788e-02
5.436000000000000000e+03 1.233813095092773438e+01 8.084435462951660156e+00 1.135634034872055054e-01 3.597251176834106445e-01 1.419865638017654419e-01 1.346557401120662689e-03
5.437000000000000000e+03 1.295603179931640625e+01 8.605746269226074219e+00 9.854799509048461914e-02 3.714468777179718018e-01 1.409984678030014038e-01 4.985342547297477722e-02
5.438000000000000000e+03 1.315878295898437500e+01 8.850815773010253906e+00 9.144446253776550293e-02 3.747419118881225586e-01 1.398559063673019409e-01 6.795074790716171265e-02
5.439000000000000000e+03 3.133911895751953125e+01 2.093998044729232788e-01 -2.707858979701995850e-01 -5.971242785453796387e-01 -2.603730559349060059e-01 6.449302192777395248e-03
5.440000000000000000e+03 3.247226333618164062e+01 -5.167474746704101562e-01 -3.099773079156875610e-02 -6.095522046089172363e-01 -1.921649873256683350e-01 4.034904018044471741e-02
5.441000000000000000e+03 2.019952201843261719e+01 1.785379028320312500e+01 7.204038649797439575e-02 1.863832622766494751e-01 7.752709090709686279e-02 1.170938685536384583e-01
5.442000000000000000e+03 3.716736221313476562e+01 1.063862609863281250e+01 -9.034937024116516113e-01 -9.739172458648681641e-01 -5.632233023643493652e-01 -8.456919789314270020e-01
5.443000000000000000e+03 3.620943069458007812e+01 7.056611537933349609e+00 -7.916476726531982422e-01 -7.864117622375488281e-01 -4.734178185462951660e-01 -5.951847434043884277e-01
5.444000000000000000e+03 2.644133186340332031e+01 2.211022186279296875e+01 7.833476364612579346e-02 1.522449553012847900e-01 6.917391717433929443e-02 1.146753355860710144e-01
5.445000000000000000e+03 2.622315406799316406e+01 2.324647712707519531e+01 6.575148552656173706e-02 1.483407169580459595e-01 6.422766298055648804e-02 1.061622723937034607e-01
5.446000000000000000e+03 1.550877571105957031e+01 1.202175521850585938e+01 8.112937211990356445e-02 2.723776698112487793e-01 1.060521155595779419e-01 1.276088356971740723e-01
5.447000000000000000e+03 1.371775245666503906e+01 1.102864742279052734e+01 7.103369385004043579e-02 2.892007231712341309e-01 1.080703288316726685e-01 8.175183087587356567e-02
5.448000000000000000e+03 1.384941768646240234e+01 1.213909339904785156e+01 5.882515758275985718e-02 2.481412589550018311e-01 9.208992123603820801e-02 7.745556533336639404e-02
5.449000000000000000e+03 3.599003982543945312e+01 9.016942977905273438e+00 -9.136793613433837891e-01 -9.316366314888000488e-01 -5.535947680473327637e-01 -7.914862632751464844e-01
5.450000000000000000e+03 3.538627624511718750e+01 8.423633575439453125e+00 -9.426656365394592285e-01 -9.254308342933654785e-01 -5.604289770126342773e-01 -7.868332266807556152e-01
5.451000000000000000e+03 4.238499450683593750e+01 1.617316055297851562e+01 -8.198857307434082031e-01 -8.937658667564392090e-01 -5.140954852104187012e-01 -9.402319192886352539e-01
5.452000000000000000e+03 2.870753669738769531e+01 1.370546579360961914e+00 -8.628283739089965820e-01 -5.200964212417602539e-01 -4.148774445056915283e-01 -1.853369176387786865e-01
5.453000000000000000e+03 3.600568389892578125e+01 9.782223701477050781e+00 -9.578741192817687988e-01 -9.859387874603271484e-01 -5.831438899040222168e-01 -8.563401699066162109e-01
5.454000000000000000e+03 4.198292922973632812e+01 1.571596908569335938e+01 -8.257124423980712891e-01 -8.997924327850341797e-01 -5.176514387130737305e-01 -9.297811985015869141e-01
5.455000000000000000e+03 2.342361068725585938e+01 1.940840148925781250e+01 8.605788648128509521e-02 1.713481247425079346e-01 7.722180336713790894e-02 1.238058358430862427e-01
5.456000000000000000e+03 1.568302726745605469e+01 1.247024631500244141e+01 7.974257320165634155e-02 2.613564431667327881e-01 1.023297086358070374e-01 1.233881041407585144e-01
5.457000000000000000e+03 1.650258827209472656e+01 1.245467853546142578e+01 9.139342606067657471e-02 2.616278529167175293e-01 1.059063822031021118e-01 1.428228765726089478e-01
5.458000000000000000e+03 2.694816970825195312e+01 2.449357795715332031e+01 6.135885044932365417e-02 1.429430097341537476e-01 6.129056215286254883e-02 1.019065007567405701e-01
5.459000000000000000e+03 2.481866645812988281e+01 2.271339225769042969e+01 6.113013997673988342e-02 1.533957868814468384e-01 6.435777992010116577e-02 1.040900722146034241e-01
5.460000000000000000e+03 3.611985397338867188e+01 9.359913825988769531e+00 -9.250723123550415039e-01 -9.496142268180847168e-01 -5.624059438705444336e-01 -8.160526752471923828e-01
5.461000000000000000e+03 3.648265838623046875e+01 9.940819740295410156e+00 -9.262732863426208496e-01 -9.673967361450195312e-01 -5.681009888648986816e-01 -8.383933305740356445e-01
5.462000000000000000e+03 2.929996681213378906e+01 1.827327847480773926e+00 -1.046602845191955566e+00 -5.765702724456787109e-01 -4.869519174098968506e-01 -2.295409888029098511e-01
5.463000000000000000e+03 2.146148300170898438e+01 1.887310218811035156e+01 7.286397367715835571e-02 1.782680749893188477e-01 7.533961534500122070e-02 1.168747022747993469e-01
5.464000000000000000e+03 2.296202278137207031e+01 1.862350845336914062e+01 9.155610948801040649e-02 1.767463088035583496e-01 8.049072325229644775e-02 1.292492151260375977e-01
5.465000000000000000e+03 2.551073646545410156e+01 2.292424964904785156e+01 6.403616815805435181e-02 1.509404182434082031e-01 6.449297815561294556e-02 1.056052669882774353e-01
5.466000000000000000e+03 4.278882217407226562e+01 1.706952285766601562e+01 -8.380892872810363770e-01 -9.171918630599975586e-01 -5.265843272209167480e-01 -9.760254025459289551e-01
5.467000000000000000e+03 4.232969665527343750e+01 1.666489791870117188e+01 -8.470301628112792969e-01 -9.251561164855957031e-01 -5.316558480262756348e-01 -9.757372140884399414e-01
5.468000000000000000e+03 3.543147659301757812e+01 7.799141883850097656e+00 -9.084216952323913574e-01 -8.750692605972290039e-01 -5.350472927093505859e-01 -7.255136966705322266e-01
5.469000000000000000e+03 2.895671081542968750e+01 2.704003524780273438e+01 5.974480882287025452e-02 1.316969394683837891e-01 5.743252485990524292e-02 9.311269968748092651e-02
5.470000000000000000e+03 3.111468696594238281e+01 2.862962722778320312e+01 6.630606204271316528e-02 1.242030858993530273e-01 5.715274438261985779e-02 8.885405957698822021e-02
5.471000000000000000e+03 1.700107383728027344e+01 1.455645942687988281e+01 7.416810095310211182e-02 2.246513962745666504e-01 8.964584767818450928e-02 1.210051849484443665e-01
5.472000000000000000e+03 1.657522773742675781e+01 1.438007164001464844e+01 7.000571489334106445e-02 2.250161767005920410e-01 8.850657194852828979e-02 1.166964769363403320e-01
5.473000000000000000e+03 2.595026588439941406e+01 2.545427131652832031e+01 4.903027787804603577e-02 1.402334719896316528e-01 5.677912756800651550e-02 9.199611842632293701e-02
5.474000000000000000e+03 3.557893753051757812e+01 5.986305236816406250e+00 -7.871838808059692383e-01 -7.502824068069458008e-01 -4.612398743629455566e-01 -5.290185213088989258e-01
5.475000000000000000e+03 3.042475891113281250e+01 2.664775848388671875e+00 -1.155158996582031250e+00 -6.390138268470764160e-01 -5.382518768310546875e-01 -2.979247570037841797e-01
5.476000000000000000e+03 2.819530105590820312e+01 2.711516571044921875e+01 5.520396679639816284e-02 1.327844560146331787e-01 5.639652535319328308e-02 9.094741940498352051e-02
5.477000000000000000e+03 2.830943679809570312e+01 2.783061218261718750e+01 5.332943424582481384e-02 1.304325014352798462e-01 5.512858182191848755e-02 8.694584667682647705e-02
5.478000000000000000e+03 2.902567481994628906e+01 2.781665420532226562e+01 5.727109685540199280e-02 1.299457103013992310e-01 5.616504326462745667e-02 8.954701572656631470e-02
5.479000000000000000e+03 2.818966674804687500e+01 2.639054298400878906e+01 5.803007632493972778e-02 1.343489289283752441e-01 5.771370232105255127e-02 9.431908279657363892e-02
5.480000000000000000e+03 2.750806236267089844e+01 2.558042716979980469e+01 5.817736312747001648e-02 1.383886188268661499e-01 5.896979197859764099e-02 9.733289480209350586e-02
5.481000000000000000e+03 2.611482238769531250e+01 2.447216415405273438e+01 5.637127906084060669e-02 1.439209580421447754e-01 6.008766964077949524e-02 9.863657504320144653e-02
5.482000000000000000e+03 2.723898124694824219e+01 2.487948226928710938e+01 6.084831431508064270e-02 1.411984562873840332e-01 6.061403080821037292e-02 1.006849333643913269e-01
5.483000000000000000e+03 3.514176177978515625e+01 6.905010223388671875e+00 -8.966461420059204102e-01 -8.122755289077758789e-01 -5.126764774322509766e-01 -6.517511606216430664e-01
5.484000000000000000e+03 3.185154914855957031e+01 2.824984073638916016e+00 -9.355211257934570312e-01 -6.389222741127014160e-01 -4.723330140113830566e-01 -2.600089311599731445e-01
5.485000000000000000e+03 3.182314491271972656e+01 4.792255759239196777e-01 -3.183161616325378418e-01 -5.944455862045288086e-01 -2.738285362720489502e-01 -9.371360763907432556e-03
5.486000000000000000e+03 2.981736946105957031e+01 1.008493304252624512e+00 -6.508479118347167969e-01 -5.847793817520141602e-01 -3.706881701946258545e-01 -1.112214028835296631e-01
5.487000000000000000e+03 3.212543869018554688e+01 -1.025568880140781403e-02 -1.733194589614868164e-01 -6.138094067573547363e-01 -2.361386567354202271e-01 1.868410781025886536e-02
5.488000000000000000e+03 3.347227478027343750e+01 3.595000267028808594e+00 -8.171910047531127930e-01 -6.482108831405639648e-01 -4.396205842494964600e-01 -3.224415779113769531e-01
5.489000000000000000e+03 3.348191070556640625e+01 4.604874134063720703e+00 -9.575507640838623047e-01 -6.963992118835449219e-01 -4.961850047111511230e-01 -4.791080355644226074e-01
5.490000000000000000e+03 1.240147209167480469e+01 8.708858489990234375e+00 1.007520332932472229e-01 3.321016430854797363e-01 1.298561096191406250e-01 1.565160043537616730e-02
5.491000000000000000e+03 3.546577453613281250e+01 7.174204826354980469e+00 -8.709439635276794434e-01 -8.276446461677551270e-01 -5.095766186714172363e-01 -6.612495183944702148e-01
5.492000000000000000e+03 5.481428527832031250e+01 2.726744842529296875e+01 -1.225061893463134766e+00 3.640982881188392639e-02 -3.565956056118011475e-01 -9.424986839294433594e-01
5.493000000000000000e+03 1.929940223693847656e+01 1.608735275268554688e+01 8.431553095579147339e-02 2.042834013700485229e-01 8.657968044281005859e-02 1.291599720716476440e-01
5.494000000000000000e+03 5.676966094970703125e+01 2.497885704040527344e+01 -8.506289124488830566e-01 1.811330020427703857e-01 -2.008487731218338013e-01 -8.595799803733825684e-01
5.495000000000000000e+03 5.702888488769531250e+01 2.579862976074218750e+01 -9.596244692802429199e-01 1.861138194799423218e-01 -2.320532053709030151e-01 -9.004744887351989746e-01
5.496000000000000000e+03 3.419680404663085938e+01 -6.166858673095703125e-01 2.009144052863121033e-02 -6.289690732955932617e-01 -1.826632916927337646e-01 4.159112647175788879e-02
5.497000000000000000e+03 3.056537246704101562e+01 5.139822363853454590e-01 -4.118533134460449219e-01 -5.900861024856567383e-01 -3.005818128585815430e-01 -2.930553816258907318e-02
5.498000000000000000e+03 3.031937217712402344e+01 2.194792270660400391e+00 -9.742960929870605469e-01 -6.171500682830810547e-01 -4.774338304996490479e-01 -2.008916735649108887e-01
5.499000000000000000e+03 3.720397567749023438e+01 -3.520812988281250000e+00 4.099125862121582031e-01 -5.598827004432678223e-01 -4.499104246497154236e-02 3.929876163601875305e-02
5.500000000000000000e+03 3.703320693969726562e+01 -2.639925718307495117e+00 3.248849809169769287e-01 -5.742408037185668945e-01 -7.480675727128982544e-02 4.705802723765373230e-02
5.501000000000000000e+03 6.353183364868164062e+01 2.363327789306640625e+01 3.869163244962692261e-02 7.520999312400817871e-01 2.372374683618545532e-01 -2.353767752647399902e-01
5.502000000000000000e+03 6.289311599731445312e+01 2.389677238464355469e+01 -8.144529908895492554e-02 6.380749344825744629e-01 1.669888943433761597e-01 -3.567892611026763916e-01
5.503000000000000000e+03 3.331440353393554688e+01 -1.648663878440856934e+00 2.204005569219589233e-01 -6.202794313430786133e-01 -1.199636682868003845e-01 5.103724822402000427e-02
5.504000000000000000e+03 6.419784545898437500e+01 2.337403869628906250e+01 1.585209816694259644e-01 8.944970369338989258e-01 3.159054219722747803e-01 -1.015409603714942932e-01
5.505000000000000000e+03 1.099589633941650391e+01 8.929265975952148438e+00 1.197028234601020813e-01 1.990718245506286621e-01 9.563239663839340210e-02 -2.399639040231704712e-02
5.506000000000000000e+03 6.077217483520507812e+01 2.487135887145996094e+01 -5.047429800033569336e-01 3.914159238338470459e-01 -3.399810940027236938e-02 -6.850374341011047363e-01
5.507000000000000000e+03 1.109853458404541016e+01 7.416434764862060547e+00 1.767222434282302856e-01 2.355931699275970459e-01 1.236946210265159607e-01 -6.344710290431976318e-02
5.508000000000000000e+03 1.216473484039306641e+01 9.135866165161132812e+00 9.709078818559646606e-02 2.917445302009582520e-01 1.166505962610244751e-01 1.267046295106410980e-02
5.509000000000000000e+03 3.190614700317382812e+01 3.205968475341796875e+01 6.239432841539382935e-02 1.159040406346321106e-01 5.348950996994972229e-02 7.158091664314270020e-02
5.510000000000000000e+03 2.906490898132324219e+01 2.875086593627929688e+01 5.404329299926757812e-02 1.270593255758285522e-01 5.433078482747077942e-02 8.319634944200515747e-02
5.511000000000000000e+03 1.186829566955566406e+01 1.661323547363281250e+01 1.620062068104743958e-02 1.076350063085556030e-01 3.715068846940994263e-02 1.670925319194793701e-02
5.512000000000000000e+03 6.857505035400390625e+01 1.435198879241943359e+01 5.718783140182495117e-01 3.495438575744628906e+00 1.220195055007934570e+00 9.612633585929870605e-01
5.513000000000000000e+03 1.249615764617919922e+01 2.096620178222656250e+01 -8.923723944462835789e-04 7.043537497520446777e-02 2.086289972066879272e-02 1.159300282597541809e-02
5.514000000000000000e+03 1.221250152587890625e+01 1.999516105651855469e+01 1.044914126396179199e-03 7.305376231670379639e-02 2.222960256040096283e-02 1.174707058817148209e-02
5.515000000000000000e+03 6.507869720458984375e+01 -1.056794834136962891e+01 1.845964342355728149e-01 3.028424501419067383e+00 9.639062881469726562e-01 3.521524667739868164e-01
5.516000000000000000e+03 6.766046142578125000e+01 -9.868420600891113281e+00 1.459887772798538208e-01 3.459759950637817383e+00 1.081724643707275391e+00 3.436183929443359375e-01
5.517000000000000000e+03 6.819303894042968750e+01 2.291129875183105469e+01 6.405302286148071289e-01 2.076096534729003906e+00 8.149880170822143555e-01 7.745538353919982910e-01
5.518000000000000000e+03 1.142403316497802734e+01 1.287867450714111328e+01 4.575794935226440430e-02 1.478038728237152100e-01 5.806854739785194397e-02 1.552748680114746094e-02
5.519000000000000000e+03 1.194402503967285156e+01 1.337194347381591797e+01 4.046835005283355713e-02 1.609993278980255127e-01 6.044030562043190002e-02 2.371189929544925690e-02
5.520000000000000000e+03 6.488307952880859375e+01 2.310929679870605469e+01 2.753491401672363281e-01 1.068648219108581543e+00 4.031991958618164062e-01 5.041854083538055420e-02
5.521000000000000000e+03 6.522589111328125000e+01 2.382054519653320312e+01 2.194396257400512695e-01 1.007191181182861328e+00 3.679892420768737793e-01 2.536157332360744476e-02
5.522000000000000000e+03 1.185453414916992188e+01 1.738374137878417969e+01 1.128135994076728821e-02 9.445003420114517212e-02 3.171941637992858887e-02 1.473746635019779205e-02
5.523000000000000000e+03 1.679290199279785156e+01 1.398696708679199219e+01 7.633054256439208984e-02 2.330161035060882568e-01 9.280399978160858154e-02 1.242174208164215088e-01
5.524000000000000000e+03 6.764547729492187500e+01 2.393603324890136719e+01 4.887118935585021973e-01 1.630921244621276855e+00 6.358899474143981934e-01 5.373476743698120117e-01
5.525000000000000000e+03 5.863425064086914062e+01 2.530920410156250000e+01 -7.757037878036499023e-01 2.705474495887756348e-01 -1.515469104051589966e-01 -8.359091877937316895e-01
5.526000000000000000e+03 1.285190296173095703e+01 9.378635406494140625e+00 8.458508551120758057e-02 3.349383771419525146e-01 1.258570402860641479e-01 5.171803012490272522e-02
5.527000000000000000e+03 5.984710311889648438e+01 2.528131675720214844e+01 -6.738911271095275879e-01 3.165164291858673096e-01 -1.072124093770980835e-01 -7.815201878547668457e-01
5.528000000000000000e+03 6.921546936035156250e+01 2.399864006042480469e+01 6.387907862663269043e-01 2.287718296051025391e+00 8.779526948928833008e-01 9.560242295265197754e-01
5.529000000000000000e+03 1.182132530212402344e+01 1.580095291137695312e+01 2.131468616425991058e-02 1.169005930423736572e-01 4.146458208560943604e-02 1.762356422841548920e-02
5.530000000000000000e+03 1.302001667022705078e+01 1.494792079925537109e+01 3.016856871545314789e-02 1.641851961612701416e-01 5.830613151192665100e-02 4.137637466192245483e-02
5.531000000000000000e+03 6.536982727050781250e+01 1.334374308586120605e+00 3.200066089630126953e-01 3.038363695144653320e+00 1.007511138916015625e+00 5.850411057472229004e-01
5.532000000000000000e+03 6.528263854980468750e+01 -1.441591262817382812e+00 2.831994295120239258e-01 3.051913499832153320e+00 1.000533938407897949e+00 5.241479277610778809e-01
5.533000000000000000e+03 3.806998062133789062e+01 -3.341589212417602539e+00 3.813416659832000732e-01 -5.285223722457885742e-01 -4.415420815348625183e-02 4.665304347872734070e-02
5.534000000000000000e+03 6.612270355224609375e+01 4.095201015472412109e+00 3.465405106544494629e-01 3.165895700454711914e+00 1.053730845451354980e+00 6.505718827247619629e-01
5.535000000000000000e+03 6.468632507324218750e+01 4.371141433715820312e+00 3.783301413059234619e-01 2.840046882629394531e+00 9.655130505561828613e-01 6.295181512832641602e-01
5.536000000000000000e+03 3.920780181884765625e+01 -3.824963092803955078e+00 4.068257808685302734e-01 -4.739377200603485107e-01 -2.013358473777770996e-02 5.065776407718658447e-02
5.537000000000000000e+03 3.882289505004882812e+01 -4.936219692230224609e+00 4.647544026374816895e-01 -4.755956232547760010e-01 -3.252362599596381187e-03 3.486993908882141113e-02
5.538000000000000000e+03 6.819999694824218750e+01 2.096314430236816406e+01 7.296783328056335449e-01 2.529695272445678711e+00 9.778121113777160645e-01 8.971201181411743164e-01
5.539000000000000000e+03 6.733705139160156250e+01 2.022763061523437500e+01 6.898542046546936035e-01 2.317643404006958008e+00 9.022492766380310059e-01 7.626037001609802246e-01
5.540000000000000000e+03 1.472011280059814453e+01 2.329657745361328125e+01 -1.204415224492549896e-03 8.864836394786834717e-02 2.623318322002887726e-02 2.561963349580764771e-02
5.541000000000000000e+03 6.751767730712890625e+01 1.945818519592285156e+01 6.924546360969543457e-01 2.517909526824951172e+00 9.631092548370361328e-01 8.225640654563903809e-01
5.542000000000000000e+03 6.690599060058593750e+01 1.914420700073242188e+01 6.768419742584228516e-01 2.356212377548217773e+00 9.099163413047790527e-01 7.356548905372619629e-01
5.543000000000000000e+03 4.479301071166992188e+01 -8.943294525146484375e+00 4.533252716064453125e-01 3.994192928075790405e-02 1.479801535606384277e-01 7.748903334140777588e-02
5.544000000000000000e+03 4.421160888671875000e+01 -1.040717506408691406e+01 4.323194324970245361e-01 -7.779921870678663254e-04 1.294624209403991699e-01 5.903007835149765015e-02
5.545000000000000000e+03 6.519525909423828125e+01 -2.445759057998657227e+00 2.732837796211242676e-01 3.040552377700805664e+00 9.941508173942565918e-01 5.018912553787231445e-01
5.546000000000000000e+03 6.704032135009765625e+01 5.449837684631347656e+00 3.538412451744079590e-01 3.356634140014648438e+00 1.113142609596252441e+00 6.964182853698730469e-01
5.547000000000000000e+03 6.702011108398437500e+01 4.447885990142822266e+00 3.354957997798919678e-01 3.353289127349853516e+00 1.106635570526123047e+00 6.744030117988586426e-01
5.548000000000000000e+03 6.844475555419921875e+01 1.320475578308105469e+01 5.327456593513488770e-01 3.522613286972045898e+00 1.216607689857482910e+00 9.230681061744689941e-01
5.549000000000000000e+03 6.727097320556640625e+01 1.223575878143310547e+01 5.211927890777587891e-01 3.192294120788574219e+00 1.114046096801757812e+00 8.380829691886901855e-01
5.550000000000000000e+03 1.283907222747802734e+01 1.162344455718994141e+01 6.148328259587287903e-02 2.365459650754928589e-01 8.940877765417098999e-02 4.889835044741630554e-02
5.551000000000000000e+03 1.072626018524169922e+01 1.168949604034423828e+01 6.263934820890426636e-02 1.334631145000457764e-01 5.883073806762695312e-02 1.095046263799304143e-05
5.552000000000000000e+03 6.748521423339843750e+01 1.875224685668945312e+01 6.826314330101013184e-01 2.604561328887939453e+00 9.861578345298767090e-01 8.241072297096252441e-01
5.553000000000000000e+03 6.708893585205078125e+01 1.717388153076171875e+01 6.579617857933044434e-01 2.697626352310180664e+00 1.006676435470581055e+00 8.254817128181457520e-01
5.554000000000000000e+03 6.847697448730468750e+01 2.457743453979492188e+01 5.013437867164611816e-01 1.774899721145629883e+00 6.828730106353759766e-01 6.820773482322692871e-01
5.555000000000000000e+03 6.629811096191406250e+01 2.254281806945800781e+01 4.982328712940216064e-01 1.527156472206115723e+00 6.076167821884155273e-01 3.819649815559387207e-01
5.556000000000000000e+03 6.773149108886718750e+01 8.673319816589355469e+00 4.086508452892303467e-01 3.481545448303222656e+00 1.167058944702148438e+00 7.846255898475646973e-01
5.557000000000000000e+03 6.623301696777343750e+01 -3.813699960708618164e+00 2.313344925642013550e-01 3.246748447418212891e+00 1.043424844741821289e+00 4.728739559650421143e-01
5.558000000000000000e+03 6.576473236083984375e+01 -1.124815082550048828e+01 1.595210731029510498e-01 3.120521783828735352e+00 9.840128421783447266e-01 3.325358331203460693e-01
5.559000000000000000e+03 4.571511077880859375e+01 -1.204301929473876953e+01 3.877224922180175781e-01 1.792552620172500610e-01 1.700933277606964111e-01 7.091039419174194336e-02
5.560000000000000000e+03 1.374437427520751953e+01 2.161266899108886719e+01 5.274328868836164474e-04 8.718308806419372559e-02 2.631315588951110840e-02 2.170203998684883118e-02
5.561000000000000000e+03 1.411100101470947266e+01 2.255190849304199219e+01 -2.177433809265494347e-03 8.454345166683197021e-02 2.470980584621429443e-02 2.212768048048019409e-02
5.562000000000000000e+03 6.725929260253906250e+01 6.512760639190673828e+00 3.696090281009674072e-01 3.401745080947875977e+00 1.131406307220458984e+00 7.216862440109252930e-01
5.563000000000000000e+03 4.344219589233398438e+01 -7.044174194335937500e+00 4.747322797775268555e-01 -1.274895519018173218e-01 1.041728183627128601e-01 7.167708873748779297e-02
5.564000000000000000e+03 4.152809143066406250e+01 -4.332265853881835938e+00 4.265285432338714600e-01 -3.164106607437133789e-01 3.303536400198936462e-02 6.851483881473541260e-02
5.565000000000000000e+03 3.433050537109375000e+01 3.759136581420898438e+01 7.842204719781875610e-02 9.946721792221069336e-02 5.336678028106689453e-02 4.145875945687294006e-02
5.566000000000000000e+03 6.488519287109375000e+01 1.053162670135498047e+01 4.928477406501770020e-01 2.616015672683715820e+00 9.326590299606323242e-01 6.822270750999450684e-01
5.567000000000000000e+03 1.342657279968261719e+01 -1.849867630004882812e+01 1.688012331724166870e-01 -4.923743307590484619e-01 -9.707193076610565186e-02 -3.709660470485687256e-01
5.568000000000000000e+03 4.417882156372070312e+01 -7.973954200744628906e+00 4.592727124691009521e-01 -3.919181972742080688e-02 1.260242611169815063e-01 7.541713863611221313e-02
5.569000000000000000e+03 4.272568893432617188e+01 -7.761190891265869141e+00 4.693520665168762207e-01 -1.811039149761199951e-01 8.647444844245910645e-02 5.327341705560684204e-02
5.570000000000000000e+03 1.525374889373779297e+01 2.642560577392578125e+01 -4.596975632011890411e-03 7.131494581699371338e-02 2.001539058983325958e-02 2.078346163034439087e-02
5.571000000000000000e+03 1.586299705505371094e+01 -2.853224372863769531e+01 1.888301074504852295e-01 -3.233896791934967041e-01 -4.036787152290344238e-02 -2.512762248516082764e-01
5.572000000000000000e+03 8.477902412414550781e+00 -2.693353652954101562e+01 7.655069231986999512e-02 -7.287358045578002930e-01 -1.956555396318435669e-01 -2.204255908727645874e-01
5.573000000000000000e+03 6.578244018554687500e+01 -1.547863006591796875e+01 1.197541058063507080e-01 3.126774549484252930e+00 9.739585518836975098e-01 2.763225734233856201e-01
5.574000000000000000e+03 5.536464691162109375e+01 -1.747583198547363281e+01 1.865031421184539795e-01 1.555650115013122559e+00 5.226459503173828125e-01 1.819099634885787964e-01
5.575000000000000000e+03 6.472103881835937500e+01 -4.673436164855957031e+00 2.557645440101623535e-01 2.942858695983886719e+00 9.595869779586791992e-01 4.589713215827941895e-01
5.576000000000000000e+03 6.424045562744140625e+01 -5.766717433929443359e+00 2.545409798622131348e-01 2.863049030303955078e+00 9.352770447731018066e-01 4.339207112789154053e-01
5.577000000000000000e+03 6.573738098144531250e+01 -8.010231971740722656e+00 1.973172575235366821e-01 3.135725021362304688e+00 9.999126791954040527e-01 3.914353251457214355e-01
5.578000000000000000e+03 4.591028976440429688e+01 -1.882091712951660156e+01 1.495276987552642822e-01 2.785717844963073730e-01 1.284298449754714966e-01 7.768014073371887207e-02
5.579000000000000000e+03 5.007004165649414062e+01 -1.572805976867675781e+01 2.601388394832611084e-01 7.771937847137451172e-01 3.111997842788696289e-01 1.180879995226860046e-01
5.580000000000000000e+03 6.614874267578125000e+01 -1.208889484405517578e+01 1.447234749794006348e-01 3.182544946670532227e+00 9.981805682182312012e-01 3.186369538307189941e-01
5.581000000000000000e+03 6.629543304443359375e+01 -1.328352355957031250e+01 1.328264325857162476e-01 3.211517095565795898e+00 1.003303050994873047e+00 2.987416684627532959e-01
5.582000000000000000e+03 5.228829956054687500e+01 -2.721710586547851562e+01 -1.530917268246412277e-02 1.247615456581115723e+00 3.696918785572052002e-01 1.919086426496505737e-01
5.583000000000000000e+03 1.415975856781005859e+01 3.054639434814453125e+01 -9.440991096198558807e-03 3.318636491894721985e-02 7.123612333089113235e-03 7.440348155796527863e-03
5.584000000000000000e+03 2.835184097290039062e+01 1.775303244590759277e+00 -1.115894556045532227e+00 -5.554509758949279785e-01 -5.014036893844604492e-01 -2.680427730083465576e-01
5.585000000000000000e+03 2.832419776916503906e+01 1.398842692375183105e+00 -1.027291059494018555e+00 -5.154445767402648926e-01 -4.628206789493560791e-01 -2.510254085063934326e-01
5.586000000000000000e+03 4.765775680541992188e+01 2.098034095764160156e+01 -8.675891757011413574e-01 -6.879525780677795410e-01 -4.666625261306762695e-01 -8.993250727653503418e-01
5.587000000000000000e+03 4.958393859863281250e+01 2.377868080139160156e+01 -1.028318881988525391e+00 -5.812636017799377441e-01 -4.828747510910034180e-01 -9.505155086517333984e-01
5.588000000000000000e+03 4.587337112426757812e+01 2.037984848022460938e+01 -9.022811651229858398e-01 -8.583602309226989746e-01 -5.281924009323120117e-01 -9.645808935165405273e-01
5.589000000000000000e+03 3.883466339111328125e+01 1.218808555603027344e+01 -8.525677919387817383e-01 -9.506055116653442383e-01 -5.409519672393798828e-01 -8.543139696121215820e-01
5.590000000000000000e+03 5.037222671508789062e+01 2.391604423522949219e+01 -1.015395641326904297e+00 -4.901369512081146240e-01 -4.516597688198089600e-01 -9.237746596336364746e-01
5.591000000000000000e+03 4.559702682495117188e+01 1.949270820617675781e+01 -8.411853313446044922e-01 -8.335645198822021484e-01 -5.024249553680419922e-01 -9.382979869842529297e-01
5.592000000000000000e+03 4.645045089721679688e+01 2.090046119689941406e+01 -9.214717149734497070e-01 -8.192380666732788086e-01 -5.222129225730895996e-01 -9.563734531402587891e-01
5.593000000000000000e+03 3.982147979736328125e+01 1.250241947174072266e+01 -7.971442937850952148e-01 -8.959107398986816406e-01 -5.079165101051330566e-01 -8.194534182548522949e-01
5.594000000000000000e+03 5.077783966064453125e+01 2.536862945556640625e+01 -1.113446950912475586e+00 -4.805569946765899658e-01 -4.782011806964874268e-01 -9.557887315750122070e-01
5.595000000000000000e+03 5.271403884887695312e+01 2.619557380676269531e+01 -1.148049592971801758e+00 -2.189873456954956055e-01 -4.101110994815826416e-01 -9.260556697845458984e-01
5.596000000000000000e+03 5.190495300292968750e+01 2.576598167419433594e+01 -1.119339346885681152e+00 -3.236913681030273438e-01 -4.329092204570770264e-01 -9.320508241653442383e-01
5.597000000000000000e+03 3.943207931518554688e+01 1.287365818023681641e+01 -8.467099070549011230e-01 -9.479333162307739258e-01 -5.383929610252380371e-01 -8.678151369094848633e-01
5.598000000000000000e+03 3.940109252929687500e+01 1.374438858032226562e+01 -8.947121500968933105e-01 -1.000728487968444824e+00 -5.686321854591369629e-01 -9.278538823127746582e-01
5.599000000000000000e+03 4.367457962036132812e+01 1.729738998413085938e+01 -7.949619293212890625e-01 -8.643330335617065430e-01 -4.977884888648986816e-01 -9.367057681083679199e-01
5.600000000000000000e+03 4.446340942382812500e+01 1.896438026428222656e+01 -8.570333719253540039e-01 -9.047130346298217773e-01 -5.285239219665527344e-01 -9.803652167320251465e-01
5.601000000000000000e+03 3.785519409179687500e+01 1.097374725341796875e+01 -8.640411496162414551e-01 -9.464878439903259277e-01 -5.431587100028991699e-01 -8.254401683807373047e-01
5.602000000000000000e+03 3.846971130371093750e+01 1.088559627532958984e+01 -8.137385845184326172e-01 -8.997508883476257324e-01 -5.140468478202819824e-01 -7.820812463760375977e-01
5.603000000000000000e+03 4.508423233032226562e+01 1.920813941955566406e+01 -8.421849012374877930e-01 -8.620533943176269531e-01 -5.112714767456054688e-01 -9.533577561378479004e-01
5.604000000000000000e+03 1.744115829467773438e+01 1.469887161254882812e+01 7.642074674367904663e-02 2.199447154998779297e-01 8.890964090824127197e-02 1.249824166297912598e-01
5.605000000000000000e+03 1.787467765808105469e+01 1.490299510955810547e+01 8.113129436969757080e-02 2.187702655792236328e-01 8.997046947479248047e-02 1.282245665788650513e-01
5.606000000000000000e+03 2.420966720581054688e+01 2.147510719299316406e+01 6.836749613285064697e-02 1.597253084182739258e-01 6.842783838510513306e-02 1.100129485130310059e-01
5.607000000000000000e+03 2.523836517333984375e+01 2.154275703430175781e+01 7.548160851001739502e-02 1.570186614990234375e-01 6.975008547306060791e-02 1.139115393161773682e-01
5.608000000000000000e+03 1.493942070007324219e+01 2.233405494689941406e+01 2.748533617705106735e-03 9.977590292692184448e-02 3.075733035802841187e-02 3.162126988172531128e-02
5.609000000000000000e+03 1.962376213073730469e+01 1.639220619201660156e+01 8.315319567918777466e-02 1.999522596597671509e-01 8.493163436651229858e-02 1.282031834125518799e-01
5.610000000000000000e+03 4.323839187622070312e+01 1.699522018432617188e+01 -8.065531253814697266e-01 -8.792712688446044922e-01 -5.057473182678222656e-01 -9.449031352996826172e-01
5.611000000000000000e+03 4.410432052612304688e+01 1.749964141845703125e+01 -7.820244431495666504e-01 -8.441030383110046387e-01 -4.878382682800292969e-01 -9.239550828933715820e-01
5.612000000000000000e+03 5.551047515869140625e+01 2.578873443603515625e+01 -1.025980710983276367e+00 8.571604639291763306e-02 -2.820793986320495605e-01 -9.055247306823730469e-01
5.613000000000000000e+03 4.427650451660156250e+01 1.776464843750000000e+01 -7.895755767822265625e-01 -8.473483920097351074e-01 -4.910771846771240234e-01 -9.291635155677795410e-01
5.614000000000000000e+03 3.030946540832519531e+01 1.648876905441284180e+00 -8.222734332084655762e-01 -6.081263422966003418e-01 -4.291199445724487305e-01 -1.568664163351058960e-01
5.615000000000000000e+03 4.163936233520507812e+01 1.524654006958007812e+01 -8.239614963531494141e-01 -9.010015726089477539e-01 -5.174888968467712402e-01 -9.151115417480468750e-01
5.616000000000000000e+03 5.197712707519531250e+01 2.536579132080078125e+01 -1.079516649246215820e+00 -3.043751120567321777e-01 -4.151675105094909668e-01 -9.194999933242797852e-01
5.617000000000000000e+03 4.803968429565429688e+01 2.183039665222167969e+01 -9.301321506500244141e-01 -6.839126944541931152e-01 -4.842134416103363037e-01 -9.232801795005798340e-01
5.618000000000000000e+03 5.357200622558593750e+01 2.568510246276855469e+01 -1.073525428771972656e+00 -9.921812266111373901e-02 -3.518230617046356201e-01 -9.094072580337524414e-01
5.619000000000000000e+03 5.262173461914062500e+01 2.583471298217773438e+01 -1.113786339759826660e+00 -2.299449443817138672e-01 -4.031193852424621582e-01 -9.214681386947631836e-01
5.620000000000000000e+03 4.954439163208007812e+01 2.417908668518066406e+01 -1.062737107276916504e+00 -6.021456122398376465e-01 -4.994648098945617676e-01 -9.688249826431274414e-01
5.621000000000000000e+03 5.110026550292968750e+01 2.451249122619628906e+01 -1.029820442199707031e+00 -4.019550979137420654e-01 -4.295326769351959229e-01 -9.185964465141296387e-01
5.622000000000000000e+03 5.162927627563476562e+01 2.524689483642578125e+01 -1.079242825508117676e+00 -3.521365821361541748e-01 -4.294138252735137939e-01 -9.245222806930541992e-01
5.623000000000000000e+03 4.447491836547851562e+01 1.807121467590332031e+01 -7.973270416259765625e-01 -8.469235301017761230e-01 -4.932751655578613281e-01 -9.333571791648864746e-01
5.624000000000000000e+03 3.955849456787109375e+01 1.317286300659179688e+01 -8.525504469871520996e-01 -9.561835527420043945e-01 -5.426201820373535156e-01 -8.851023912429809570e-01
5.625000000000000000e+03 4.099654006958007812e+01 1.473576736450195312e+01 -8.398492932319641113e-01 -9.236195683479309082e-01 -5.290406346321105957e-01 -9.118559360504150391e-01
5.626000000000000000e+03 2.022776222229003906e+01 1.840984153747558594e+01 6.556504964828491211e-02 1.820972561836242676e-01 7.429869472980499268e-02 1.114535108208656311e-01
5.627000000000000000e+03 1.956892204284667969e+01 1.736527824401855469e+01 7.035230845212936401e-02 1.901889592409133911e-01 7.816237956285476685e-02 1.162917092442512512e-01
5.628000000000000000e+03 4.206488800048828125e+01 1.524633884429931641e+01 -7.934265732765197754e-01 -8.694358468055725098e-01 -4.988587200641632080e-01 -8.934122323989868164e-01
5.629000000000000000e+03 4.124837112426757812e+01 1.520928287506103516e+01 -8.480254411697387695e-01 -9.280160069465637207e-01 -5.328124165534973145e-01 -9.314610362052917480e-01
5.630000000000000000e+03 2.375970458984375000e+01 2.137990379333496094e+01 6.635790318250656128e-02 1.610091775655746460e-01 6.821012496948242188e-02 1.089164316654205322e-01
5.631000000000000000e+03 2.391880226135253906e+01 2.087306785583496094e+01 7.262323796749114990e-02 1.633816659450531006e-01 7.080147415399551392e-02 1.132859289646148682e-01
5.632000000000000000e+03 2.979454421997070312e+01 1.670129418373107910e+00 -8.541672825813293457e-01 -5.845907330513000488e-01 -4.316274225711822510e-01 -1.398813724517822266e-01
5.633000000000000000e+03 4.848683166503906250e+01 2.185378837585449219e+01 -9.092905521392822266e-01 -6.324078440666198730e-01 -4.625095129013061523e-01 -9.046120643615722656e-01
5.634000000000000000e+03 4.764158630371093750e+01 2.137911415100097656e+01 -9.064682722091674805e-01 -7.093025445938110352e-01 -4.847312569618225098e-01 -9.191727638244628906e-01
5.635000000000000000e+03 3.772925567626953125e+01 1.048415088653564453e+01 -8.492833375930786133e-01 -9.206684231758117676e-01 -5.309855341911315918e-01 -7.939392924308776855e-01
5.636000000000000000e+03 1.959656143188476562e+01 1.790325927734375000e+01 6.433192640542984009e-02 1.863010823726654053e-01 7.518990337848663330e-02 1.109142303466796875e-01
5.637000000000000000e+03 1.962697410583496094e+01 1.846411323547363281e+01 5.912503600120544434e-02 1.802785396575927734e-01 7.182107120752334595e-02 1.053232997655868530e-01
5.638000000000000000e+03 1.342722797393798828e+01 1.070121669769287109e+01 7.234352827072143555e-02 2.872165441513061523e-01 1.078680232167243958e-01 7.477087527513504028e-02
5.639000000000000000e+03 2.207209587097167969e+01 1.957435798645019531e+01 7.145866006612777710e-02 1.726494431495666504e-01 7.323243468999862671e-02 1.146038472652435303e-01
5.640000000000000000e+03 1.435204601287841797e+01 1.185794162750244141e+01 6.993752717971801758e-02 2.683773040771484375e-01 1.014944463968276978e-01 9.638423472642898560e-02
5.641000000000000000e+03 1.310392379760742188e+01 1.271023178100585938e+01 5.036320164799690247e-02 2.104454189538955688e-01 7.824258506298065186e-02 5.243704468011856079e-02
5.642000000000000000e+03 3.736140823364257812e+01 1.022027111053466797e+01 -8.664135336875915527e-01 -9.320487976074218750e-01 -5.395386815071105957e-01 -8.015196919441223145e-01
5.643000000000000000e+03 3.821399307250976562e+01 1.135848331451416016e+01 -8.564723730087280273e-01 -9.446758031845092773e-01 -5.403444766998291016e-01 -8.331723213195800781e-01
5.644000000000000000e+03 3.753107452392578125e+01 1.081888961791992188e+01 -8.833472132682800293e-01 -9.593548774719238281e-01 -5.528106093406677246e-01 -8.376693129539489746e-01
5.645000000000000000e+03 1.257378292083740234e+01 1.361490154266357422e+01 4.006689041852951050e-02 1.738675087690353394e-01 6.418032199144363403e-02 3.593697771430015564e-02
5.646000000000000000e+03 3.638887405395507812e+01 8.805664062500000000e+00 -8.797531127929687500e-01 -8.914854526519775391e-01 -5.313715338706970215e-01 -7.481597065925598145e-01
5.647000000000000000e+03 3.660957717895507812e+01 9.227448463439941406e+00 -8.768662810325622559e-01 -9.125845432281494141e-01 -5.368352532386779785e-01 -7.699838876724243164e-01
5.648000000000000000e+03 2.316127014160156250e+01 1.996601676940917969e+01 7.605508714914321899e-02 1.687676310539245605e-01 7.344681769609451294e-02 1.173573061823844910e-01
5.649000000000000000e+03 3.485743331909179688e+01 6.632519721984863281e+00 -9.154965281486511230e-01 -8.106630444526672363e-01 -5.178478956222534180e-01 -6.467530727386474609e-01
5.650000000000000000e+03 4.280599212646484375e+01 1.661140060424804688e+01 -8.146104216575622559e-01 -8.887853622436523438e-01 -5.110187530517578125e-01 -9.455500245094299316e-01
5.651000000000000000e+03 4.436186218261718750e+01 1.728531646728515625e+01 -7.544673681259155273e-01 -8.066038489341735840e-01 -4.683213829994201660e-01 -8.937237262725830078e-01
5.652000000000000000e+03 1.503646945953369141e+01 1.220057010650634766e+01 7.410472631454467773e-02 2.645366489887237549e-01 1.015924140810966492e-01 1.110471189022064209e-01
5.653000000000000000e+03 4.246057128906250000e+01 1.568652153015136719e+01 -7.889705300331115723e-01 -8.628233075141906738e-01 -4.955381453037261963e-01 -9.029127955436706543e-01
5.654000000000000000e+03 1.637949371337890625e+01 1.207819843292236328e+01 9.782794117927551270e-02 2.711795270442962646e-01 1.107022464275360107e-01 1.492591500282287598e-01
5.655000000000000000e+03 1.682920837402343750e+01 1.309538936614990234e+01 8.945216238498687744e-02 2.487392276525497437e-01 1.014574170112609863e-01 1.409715712070465088e-01
5.656000000000000000e+03 1.358668041229248047e+01 1.172376060485839844e+01 6.338095664978027344e-02 2.571015059947967529e-01 9.614473581314086914e-02 7.109360396862030029e-02
5.657000000000000000e+03 2.906965255737304688e+01 1.467632889747619629e+00 -8.958306312561035156e-01 -5.884944200515747070e-01 -4.452975094318389893e-01 -2.066948562860488892e-01
5.658000000000000000e+03 1.677177047729492188e+01 1.503309917449951172e+01 6.384687870740890503e-02 2.134888470172882080e-01 8.320071548223495483e-02 1.101322993636131287e-01
5.659000000000000000e+03 2.293795204162597656e+01 2.051957130432128906e+01 6.864260137081146240e-02 1.661083996295928955e-01 7.042530179023742676e-02 1.112960502505302429e-01
5.660000000000000000e+03 2.343829727172851562e+01 2.070049285888671875e+01 7.039318978786468506e-02 1.646986901760101318e-01 7.052756845951080322e-02 1.126270666718482971e-01
5.661000000000000000e+03 1.642676734924316406e+01 1.279391288757324219e+01 8.624000102281570435e-02 2.547477185726165771e-01 1.022963151335716248e-01 1.362803131341934204e-01
5.662000000000000000e+03 1.558432769775390625e+01 1.459152317047119141e+01 5.528828874230384827e-02 2.134704738855361938e-01 8.062762767076492310e-02 9.390536695718765259e-02
5.663000000000000000e+03 3.691564559936523438e+01 1.006959724426269531e+01 -8.883452415466308594e-01 -9.487412571907043457e-01 -5.511259436607360840e-01 -8.154048323631286621e-01
5.664000000000000000e+03 4.652423477172851562e+01 2.031737136840820312e+01 -8.688306212425231934e-01 -7.836984395980834961e-01 -4.957587122917175293e-01 -9.248201251029968262e-01
5.665000000000000000e+03 4.725405883789062500e+01 2.096596527099609375e+01 -8.868753314018249512e-01 -7.344166636466979980e-01 -4.863875806331634521e-01 -9.176771640777587891e-01
5.666000000000000000e+03 2.529253768920898438e+01 2.241623115539550781e+01 6.714547425508499146e-02 1.540811657905578613e-01 6.636799126863479614e-02 1.083591356873512268e-01
5.667000000000000000e+03 2.187276458740234375e+01 2.016437911987304688e+01 6.306833773851394653e-02 1.691469699144363403e-01 6.966459006071090698e-02 1.077468022704124451e-01
5.668000000000000000e+03 1.116774845123291016e+01 8.463416099548339844e+00 1.325933635234832764e-01 2.246465086936950684e-01 1.071719601750373840e-01 -3.133970126509666443e-02
5.669000000000000000e+03 5.406249237060546875e+01 2.678794860839843750e+01 -1.183170676231384277e+00 -4.386926442384719849e-02 -3.681119978427886963e-01 -9.317618012428283691e-01
5.670000000000000000e+03 3.577666854858398438e+01 8.108397483825683594e+00 -8.961605429649353027e-01 -8.772130012512207031e-01 -5.320120453834533691e-01 -7.271836996078491211e-01
5.671000000000000000e+03 3.345266723632812500e+01 3.080162048339843750e+00 -7.557483315467834473e-01 -6.393888592720031738e-01 -4.185411632061004639e-01 -2.560441493988037109e-01
5.672000000000000000e+03 3.079994010925292969e+01 2.115310668945312500e+00 -9.083007574081420898e-01 -6.271123290061950684e-01 -4.606239199638366699e-01 -2.007015794515609741e-01
5.673000000000000000e+03 3.291019058227539062e+01 3.663505792617797852e+00 -9.328008294105529785e-01 -6.611241102218627930e-01 -4.781774878501892090e-01 -3.607380986213684082e-01
5.674000000000000000e+03 5.812031936645507812e+01 2.498877525329589844e+01 -7.587630748748779297e-01 2.553042769432067871e-01 -1.510376334190368652e-01 -8.287532329559326172e-01
5.675000000000000000e+03 5.893043136596679688e+01 2.476926422119140625e+01 -6.548327803611755371e-01 3.003419637680053711e-01 -1.063472479581832886e-01 -7.828710079193115234e-01
5.676000000000000000e+03 1.206022930145263672e+01 8.481424331665039062e+00 1.154175028204917908e-01 3.175010085105895996e-01 1.298755556344985962e-01 -9.145053336396813393e-04
5.677000000000000000e+03 2.653030014038085938e+01 2.605187225341796875e+01 4.977991059422492981e-02 1.376647949218750000e-01 5.623341351747512817e-02 9.077534079551696777e-02
5.678000000000000000e+03 3.408333969116210938e+01 5.131522655487060547e+00 -9.080681204795837402e-01 -7.187994122505187988e-01 -4.880602657794952393e-01 -5.134279727935791016e-01
5.679000000000000000e+03 3.636305618286132812e+01 6.169417858123779297e+00 -7.228233218193054199e-01 -7.278652787208557129e-01 -4.352065920829772949e-01 -5.016102790832519531e-01
5.680000000000000000e+03 2.734562492370605469e+01 2.634091186523437500e+01 5.279431492090225220e-02 1.358022391796112061e-01 5.657896399497985840e-02 9.223707765340805054e-02
5.681000000000000000e+03 3.256635284423828125e+01 2.591847181320190430e-01 -2.188924252986907959e-01 -6.047437191009521484e-01 -2.470908313989639282e-01 5.335410125553607941e-03
5.682000000000000000e+03 3.230204772949218750e+01 7.806583046913146973e-01 -3.674871325492858887e-01 -6.198711991310119629e-01 -2.962074875831604004e-01 -1.976607926189899445e-02
5.683000000000000000e+03 3.483435821533203125e+01 -9.115164279937744141e-01 9.823596477508544922e-02 -6.144554615020751953e-01 -1.548658460378646851e-01 3.690380603075027466e-02
5.684000000000000000e+03 3.180774497985839844e+01 2.349440097808837891e+00 -7.988429069519042969e-01 -6.133512854576110840e-01 -4.236582517623901367e-01 -1.789810806512832642e-01
5.685000000000000000e+03 3.235512924194335938e+01 2.730575084686279297e+00 -8.179538846015930176e-01 -6.249985098838806152e-01 -4.328857064247131348e-01 -2.260817587375640869e-01
5.686000000000000000e+03 2.086101150512695312e+01 1.890488243103027344e+01 6.654920428991317749e-02 1.782159358263015747e-01 7.342953979969024658e-02 1.119287386536598206e-01
5.687000000000000000e+03 3.048660087585449219e+01 2.934125709533691406e+01 5.946421995759010315e-02 1.243345588445663452e-01 5.513963475823402405e-02 8.348173648118972778e-02
5.688000000000000000e+03 1.902788162231445312e+01 1.563722610473632812e+01 8.779864758253097534e-02 2.084210067987442017e-01 8.886589109897613525e-02 1.329589635133743286e-01
5.689000000000000000e+03 2.647216796875000000e+01 2.495751762390136719e+01 5.550588667392730713e-02 1.416940838098526001e-01 5.915999412536621094e-02 9.709379076957702637e-02
5.690000000000000000e+03 3.038064384460449219e+01 1.081481933593750000e+00 -5.911474823951721191e-01 -5.613158941268920898e-01 -3.457390069961547852e-01 -6.405435502529144287e-02
5.691000000000000000e+03 3.287993240356445312e+01 2.643411397933959961e+00 -7.469635009765625000e-01 -6.335942149162292480e-01 -4.141672849655151367e-01 -2.111230045557022095e-01
5.692000000000000000e+03 2.134562492370605469e+01 2.001697158813476562e+01 5.996945127844810486e-02 1.696748584508895874e-01 6.889329105615615845e-02 1.052071303129196167e-01
5.693000000000000000e+03 4.998790359497070312e+01 2.383891677856445312e+01 -1.016502618789672852e+00 -5.301715135574340820e-01 -4.640022516250610352e-01 -9.377603530883789062e-01
5.694000000000000000e+03 2.733856964111328125e+01 2.723497009277343750e+01 4.936443269252777100e-02 1.329165995121002197e-01 5.468430742621421814e-02 8.685636520385742188e-02
5.695000000000000000e+03 1.831298828125000000e+01 1.552828025817871094e+01 7.839680463075637817e-02 2.094297111034393311e-01 8.634795993566513062e-02 1.249415948987007141e-01
5.696000000000000000e+03 5.566134262084960938e+01 2.622740364074707031e+01 -1.081001758575439453e+00 1.002996712923049927e-01 -2.942106127738952637e-01 -9.234172701835632324e-01
5.697000000000000000e+03 4.889336395263671875e+01 2.234883499145507812e+01 -9.347199201583862305e-01 -6.055564880371093750e-01 -4.620829224586486816e-01 -9.115686416625976562e-01
5.698000000000000000e+03 6.316986083984375000e+01 2.295558166503906250e+01 9.442978352308273315e-02 8.012785911560058594e-01 2.687125205993652344e-01 -2.068354040384292603e-01
5.699000000000000000e+03 1.746881103515625000e+01 1.649771499633789062e+01 5.600234121084213257e-02 1.954514980316162109e-01 7.543615251779556274e-02 1.021690070629119873e-01
5.700000000000000000e+03 3.496109771728515625e+01 -2.527771890163421631e-01 -2.059022337198257446e-02 -6.138755083084106445e-01 -1.903397142887115479e-01 2.278744429349899292e-02
5.701000000000000000e+03 3.409640502929687500e+01 4.032653331756591797e+00 -7.924688458442687988e-01 -6.613388657569885254e-01 -4.361423254013061523e-01 -3.584956824779510498e-01
5.702000000000000000e+03 3.331874465942382812e+01 -6.887390613555908203e-01 1.854228042066097260e-02 -6.207728385925292969e-01 -1.806691735982894897e-01 4.547695070505142212e-02
5.703000000000000000e+03 2.586695480346679688e+01 2.220101547241210938e+01 7.345960289239883423e-02 1.530588716268539429e-01 6.795553863048553467e-02 1.119848936796188354e-01
5.704000000000000000e+03 3.284287261962890625e+01 9.647069573402404785e-01 -3.683980703353881836e-01 -6.002280116081237793e-01 -2.905878126621246338e-01 -3.990545123815536499e-02
5.705000000000000000e+03 6.279371261596679688e+01 2.226605987548828125e+01 1.382070928812026978e-01 8.499172329902648926e-01 2.964372932910919189e-01 -1.759680658578872681e-01
5.706000000000000000e+03 6.384297180175781250e+01 2.268960380554199219e+01 2.060039639472961426e-01 9.448224902153015137e-01 3.452479243278503418e-01 -7.450325787067413330e-02
5.707000000000000000e+03 6.322787857055664062e+01 2.455606079101562500e+01 -1.660455763339996338e-01 5.860818028450012207e-01 1.260108649730682373e-01 -3.928067386150360107e-01
5.708000000000000000e+03 5.702478790283203125e+01 2.435579490661621094e+01 -7.407625317573547363e-01 2.128736078739166260e-01 -1.583666652441024780e-01 -8.133710622787475586e-01
5.709000000000000000e+03 5.730086135864257812e+01 2.524827384948730469e+01 -8.598146438598632812e-01 2.094800174236297607e-01 -1.951003819704055786e-01 -8.678507804870605469e-01
5.710000000000000000e+03 6.038142013549804688e+01 2.491567230224609375e+01 -5.612142682075500488e-01 3.518160581588745117e-01 -6.281946599483489990e-02 -7.207078933715820312e-01
5.711000000000000000e+03 5.998439025878906250e+01 2.483175086975097656e+01 -5.755092501640319824e-01 3.404337465763092041e-01 -7.052264362573623657e-02 -7.345882654190063477e-01
5.712000000000000000e+03 1.137433719635009766e+01 1.037839698791503906e+01 8.466441184282302856e-02 2.000368535518646240e-01 8.541037887334823608e-02 3.116490552201867104e-03
5.713000000000000000e+03 1.312510204315185547e+01 1.440568733215332031e+01 3.650806099176406860e-02 1.747985035181045532e-01 6.339196860790252686e-02 4.467016085982322693e-02
5.714000000000000000e+03 1.247073936462402344e+01 1.424464035034179688e+01 3.380990400910377502e-02 1.636357903480529785e-01 5.923371016979217529e-02 3.360074013471603394e-02
5.715000000000000000e+03 1.308280658721923828e+01 1.973881149291992188e+01 4.017252475023269653e-03 9.514905512332916260e-02 2.974989265203475952e-02 2.108143083751201630e-02
5.716000000000000000e+03 1.252927207946777344e+01 1.678749656677246094e+01 1.698845066130161285e-02 1.197024658322334290e-01 4.100727662444114685e-02 2.540868893265724182e-02
5.717000000000000000e+03 1.085313987731933594e+01 1.076490116119384766e+01 7.885885238647460938e-02 1.549148857593536377e-01 7.013212144374847412e-02 -3.251854097470641136e-03
5.718000000000000000e+03 1.098347949981689453e+01 9.811300277709960938e+00 9.592781960964202881e-02 1.818950921297073364e-01 8.334687352180480957e-02 -9.375420399010181427e-03
5.719000000000000000e+03 6.738123321533203125e+01 2.311279106140136719e+01 5.426414608955383301e-01 1.720616459846496582e+00 6.789773702621459961e-01 5.637409687042236328e-01
5.720000000000000000e+03 6.482174682617187500e+01 2.171463966369628906e+00 3.396613597869873047e-01 2.907886028289794922e+00 9.742642641067504883e-01 5.934112071990966797e-01
5.721000000000000000e+03 6.320064544677734375e+01 -9.145837426185607910e-01 3.290041983127593994e-01 2.614212989807128906e+00 8.829651474952697754e-01 5.134199261665344238e-01
5.722000000000000000e+03 6.452494049072265625e+01 2.241881752014160156e+01 3.173817098140716553e-01 1.117866516113281250e+00 4.305744767189025879e-01 6.698451936244964600e-02
5.723000000000000000e+03 2.527133750915527344e+01 2.421533393859863281e+01 5.291813239455223083e-02 1.463018953800201416e-01 5.976600572466850281e-02 9.681361168622970581e-02
5.724000000000000000e+03 3.688343048095703125e+01 -1.833111882209777832e+00 2.477758675813674927e-01 -5.740568041801452637e-01 -9.788428992033004761e-02 4.764670878648757935e-02
5.725000000000000000e+03 6.663713836669921875e+01 2.333872604370117188e+01 4.446460008621215820e-01 1.454989790916442871e+00 5.698907375335693359e-01 3.754286170005798340e-01
5.726000000000000000e+03 6.996619415283203125e+01 2.440897560119628906e+01 6.576222181320190430e-01 2.630355596542358398e+00 9.863933324813842773e-01 1.151621818542480469e+00
5.727000000000000000e+03 6.612210083007812500e+01 6.793876647949218750e+00 4.019305706024169922e-01 3.106069803237915039e+00 1.052400112152099609e+00 7.029233574867248535e-01
5.728000000000000000e+03 6.554019927978515625e+01 4.901170730590820312e+00 3.715069890022277832e-01 3.031143426895141602e+00 1.020795106887817383e+00 6.559079885482788086e-01
5.729000000000000000e+03 1.178760242462158203e+01 8.865503311157226562e+00 1.060566678643226624e-01 2.686482667922973633e-01 1.124114766716957092e-01 -6.237434223294258118e-03
5.730000000000000000e+03 1.694786071777343750e+01 1.343442630767822266e+01 8.921558409929275513e-02 2.426555752754211426e-01 9.956134855747222900e-02 1.373152732849121094e-01
5.731000000000000000e+03 1.314376068115234375e+01 1.544476318359375000e+01 2.918594703078269958e-02 1.584464460611343384e-01 5.628971755504608154e-02 4.052071273326873779e-02
5.732000000000000000e+03 1.295291519165039062e+01 1.631248092651367188e+01 2.140925079584121704e-02 1.369993239641189575e-01 4.752257466316223145e-02 3.257347270846366882e-02
5.733000000000000000e+03 1.340147876739501953e+01 2.065679168701171875e+01 2.648298395797610283e-03 9.058509021997451782e-02 2.797001786530017853e-02 2.225591056048870087e-02
5.734000000000000000e+03 6.192879867553710938e+01 2.353971862792968750e+01 -1.303150057792663574e-01 5.894294381141662598e-01 1.377343237400054932e-01 -4.278006851673126221e-01
5.735000000000000000e+03 6.741755676269531250e+01 2.111153030395507812e+01 6.794903278350830078e-01 2.178970813751220703e+00 8.575383424758911133e-01 7.244392037391662598e-01
5.736000000000000000e+03 3.884059524536132812e+01 -3.028332471847534180e+00 3.568973839282989502e-01 -4.955891370773315430e-01 -4.160752892494201660e-02 5.723396316170692444e-02
5.737000000000000000e+03 6.585591888427734375e+01 4.834309816360473633e-01 2.954320907592773438e-01 3.149347305297851562e+00 1.033433794975280762e+00 5.686880350112915039e-01
5.738000000000000000e+03 6.521494293212890625e+01 3.544190883636474609e+00 3.531342446804046631e-01 2.969140291213989258e+00 9.966823458671569824e-01 6.220979690551757812e-01
5.739000000000000000e+03 6.741458129882812500e+01 1.335450744628906250e+01 5.563595890998840332e-01 3.169524908065795898e+00 1.117765307426452637e+00 8.624592423439025879e-01
5.740000000000000000e+03 6.481175231933593750e+01 2.144683837890625000e+01 4.441927373409271240e-01 1.354616403579711914e+00 5.396427512168884277e-01 2.280771136283874512e-01
5.741000000000000000e+03 6.385639572143554688e+01 2.110248374938964844e+01 3.708336651325225830e-01 1.203256011009216309e+00 4.722269177436828613e-01 1.017474830150604248e-01
5.742000000000000000e+03 6.764904785156250000e+01 1.564328289031982422e+01 6.306666135787963867e-01 3.048030376434326172e+00 1.103609085083007812e+00 8.973485231399536133e-01
5.743000000000000000e+03 6.870544433593750000e+01 1.548979091644287109e+01 6.127302646636962891e-01 3.462953329086303711e+00 1.222705125808715820e+00 9.946131706237792969e-01
5.744000000000000000e+03 3.556507110595703125e+01 -1.341380625963211060e-01 -6.819288711994886398e-03 -6.060020923614501953e-01 -1.838464140892028809e-01 1.991370320320129395e-02
5.745000000000000000e+03 6.753821563720703125e+01 1.448289966583251953e+01 5.900084972381591797e-01 3.120011568069458008e+00 1.113005995750427246e+00 8.782526254653930664e-01
5.746000000000000000e+03 2.894448280334472656e+01 3.331571960449218750e+01 4.566851630806922913e-02 1.147777736186981201e-01 4.813388735055923462e-02 5.761735513806343079e-02
5.747000000000000000e+03 2.989123153686523438e+01 3.035558891296386719e+01 5.466622114181518555e-02 1.222234144806861877e-01 5.306689068675041199e-02 7.643908262252807617e-02
5.748000000000000000e+03 6.735301971435546875e+01 1.796613693237304688e+01 6.812518239021301270e-01 2.684279441833496094e+00 1.009659409523010254e+00 8.370050191879272461e-01
5.749000000000000000e+03 6.413003540039062500e+01 -2.227395296096801758e+00 2.967647910118103027e-01 2.813057661056518555e+00 9.329466819763183594e-01 5.050356388092041016e-01
5.750000000000000000e+03 6.503470611572265625e+01 -3.551400661468505859e+00 2.618277966976165771e-01 2.998268127441406250e+00 9.780287146568298340e-01 4.822041392326354980e-01
5.751000000000000000e+03 4.845660781860351562e+01 -1.306928157806396484e+01 3.405059874057769775e-01 5.246907472610473633e-01 2.595590054988861084e-01 1.087054833769798279e-01
5.752000000000000000e+03 6.639784240722656250e+01 1.349210739135742188e+01 5.642212033271789551e-01 2.832212686538696289e+00 1.018930196762084961e+00 7.873849868774414062e-01
5.753000000000000000e+03 6.626432800292968750e+01 1.240806579589843750e+01 5.375072360038757324e-01 2.875802993774414062e+00 1.023993015289306641e+00 7.762107253074645996e-01
5.754000000000000000e+03 4.746304702758789062e+01 -1.242975044250488281e+01 3.705292344093322754e-01 3.931333124637603760e-01 2.290987521409988403e-01 9.085832536220550537e-02
5.755000000000000000e+03 2.765731430053710938e+01 2.803352355957031250e+01 4.790592938661575317e-02 1.302912384271621704e-01 5.345914885401725769e-02 8.325660973787307739e-02
5.756000000000000000e+03 6.459633636474609375e+01 9.535042762756347656e+00 4.722009301185607910e-01 2.601137161254882812e+00 9.220014214515686035e-01 6.653578281402587891e-01
5.757000000000000000e+03 6.666159820556640625e+01 8.941232681274414062e+00 4.374993145465850830e-01 3.174910068511962891e+00 1.083722829818725586e+00 7.565811872482299805e-01
5.758000000000000000e+03 4.694087982177734375e+01 -1.548022270202636719e+01 2.724804580211639404e-01 3.690802156925201416e-01 1.924681961536407471e-01 7.379776239395141602e-02
5.759000000000000000e+03 6.470348358154296875e+01 -7.374025821685791016e+00 2.218705564737319946e-01 2.949405193328857422e+00 9.513826966285705566e-01 4.004275798797607422e-01
5.760000000000000000e+03 4.221390914916992188e+01 -4.889468193054199219e+00 4.313564896583557129e-01 -2.606666386127471924e-01 5.120696127414703369e-02 7.531985640525817871e-02
5.761000000000000000e+03 4.094008255004882812e+01 -4.960550785064697266e+00 4.416078627109527588e-01 -3.569638133049011230e-01 2.539321035146713257e-02 6.431524455547332764e-02
5.762000000000000000e+03 5.502355575561523438e+01 -1.912409019470214844e+01 1.476391553878784180e-01 1.522436738014221191e+00 5.010227560997009277e-01 1.724325120449066162e-01
5.763000000000000000e+03 5.399530410766601562e+01 -1.711595916748046875e+01 2.031995058059692383e-01 1.344082713127136230e+00 4.641846716403961182e-01 1.656155586242675781e-01
5.764000000000000000e+03 3.070323562622070312e+01 3.201673889160156250e+01 5.526346340775489807e-02 1.176664680242538452e-01 5.187897756695747375e-02 6.876157224178314209e-02
5.765000000000000000e+03 3.095787429809570312e+01 3.078558540344238281e+01 5.921801924705505371e-02 1.202207803726196289e-01 5.383164063096046448e-02 7.685451209545135498e-02
5.766000000000000000e+03 1.071699237823486328e+01 1.858751296997070312e+01 2.728780033066868782e-03 5.020826682448387146e-02 1.588111370801925659e-02 -1.800550126063171774e-05
5.767000000000000000e+03 1.122884368896484375e+01 1.736121749877929688e+01 1.059634424746036530e-02 8.031362295150756836e-02 2.727298997342586517e-02 7.215953432023525238e-03
5.768000000000000000e+03 6.395886230468750000e+01 -3.256626844406127930e+00 2.866966128349304199e-01 2.788686513900756836e+00 9.226149916648864746e-01 4.827482700347900391e-01
5.769000000000000000e+03 4.430130004882812500e+01 -6.419328689575195312e+00 4.507447779178619385e-01 -5.989548563957214355e-02 1.172547936439514160e-01 9.252715855836868286e-02
5.770000000000000000e+03 1.903384208679199219e+01 1.736434555053710938e+01 6.397033482789993286e-02 1.907400041818618774e-01 7.641310244798660278e-02 1.112029254436492920e-01
5.771000000000000000e+03 1.462622642517089844e+01 2.129204940795898438e+01 5.840001162141561508e-03 1.063054278492927551e-01 3.364362940192222595e-02 3.319232165813446045e-02
5.772000000000000000e+03 4.950639343261718750e+01 -1.715665435791015625e+01 2.146041989326477051e-01 7.271172404289245605e-01 2.825164198875427246e-01 1.016642227768898010e-01
5.773000000000000000e+03 6.591225433349609375e+01 -9.706682205200195312e+00 1.809779554605484009e-01 3.163999080657958984e+00 1.003493070602416992e+00 3.595821559429168701e-01
5.774000000000000000e+03 6.664308929443359375e+01 -1.059011459350585938e+01 1.573795676231384277e-01 3.266636371612548828e+00 1.027204751968383789e+00 3.405884802341461182e-01
5.775000000000000000e+03 6.663634490966796875e+01 -1.448962402343750000e+01 1.207849457859992981e-01 3.257523536682128906e+00 1.013492584228515625e+00 2.788349390029907227e-01
5.776000000000000000e+03 4.457001113891601562e+01 -5.148455619812011719e+00 4.300088882446289062e-01 -4.599611088633537292e-02 1.152038350701332092e-01 1.004836410284042358e-01
5.777000000000000000e+03 4.256371688842773438e+01 -6.281761169433593750e+00 4.581226408481597900e-01 -2.112832814455032349e-01 7.405180484056472778e-02 6.897152960300445557e-02
5.778000000000000000e+03 6.399410629272460938e+01 -1.631674385070800781e+01 1.295457780361175537e-01 2.842308521270751953e+00 8.915562629699707031e-01 2.618377208709716797e-01
5.779000000000000000e+03 6.524559020996093750e+01 -1.686337471008300781e+01 1.081839948892593384e-01 3.035645961761474609e+00 9.431489706039428711e-01 2.611544430255889893e-01
5.780000000000000000e+03 6.845893096923828125e+01 -1.475836372375488281e+01 8.887773752212524414e-02 3.563060045242309570e+00 1.095581293106079102e+00 2.714405953884124756e-01
5.781000000000000000e+03 3.088350677490234375e+01 3.551101684570312500e+01 5.371123924851417542e-02 1.087070554494857788e-01 4.872548580169677734e-02 4.931651055812835693e-02
5.782000000000000000e+03 1.143262672424316406e+01 -3.012001800537109375e+01 1.171034723520278931e-01 -5.847644209861755371e-01 -1.402982920408248901e-01 -2.033273428678512573e-01
5.783000000000000000e+03 1.457676887512207031e+01 -2.427863693237304688e+01 1.699818968772888184e-01 -4.043475389480590820e-01 -7.030969113111495972e-02 -2.940225899219512939e-01
5.784000000000000000e+03 5.085844421386718750e+01 -1.775254058837890625e+01 1.957143843173980713e-01 9.164917469024658203e-01 3.336618244647979736e-01 1.247106939554214478e-01
5.785000000000000000e+03 4.813785552978515625e+01 -1.644699096679687500e+01 2.471445798873901367e-01 5.289314985275268555e-01 2.328228205442428589e-01 8.654977381229400635e-02
5.786000000000000000e+03 5.101463699340820312e+01 -2.902043342590332031e+01 -5.138567835092544556e-02 1.090885639190673828e+00 3.118499815464019775e-01 2.240955382585525513e-01
5.787000000000000000e+03 6.322738647460937500e+01 -5.298328399658203125e+00 2.792145609855651855e-01 2.673208713531494141e+00 8.857269883155822754e-01 4.356561601161956787e-01
5.788000000000000000e+03 5.607580947875976562e+01 -2.135158157348632812e+01 1.029736325144767761e-01 1.691951632499694824e+00 5.384775400161743164e-01 1.866112202405929565e-01
5.789000000000000000e+03 6.348146438598632812e+01 -2.588583183288574219e+01 6.226692348718643188e-02 2.785770416259765625e+00 8.544111847877502441e-01 2.044705450534820557e-01
5.790000000000000000e+03 6.527319335937500000e+01 -2.636042976379394531e+01 4.687964916229248047e-02 2.985008478164672852e+00 9.095664024353027344e-01 1.953945606946945190e-01
5.791000000000000000e+03 6.430194091796875000e+01 -1.979205322265625000e+01 9.149121493101119995e-02 2.897843837738037109e+00 8.968005180358886719e-01 2.335788011550903320e-01
5.792000000000000000e+03 6.159904861450195312e+01 -2.209607124328613281e+01 8.751648664474487305e-02 2.507463693618774414e+00 7.784940004348754883e-01 2.081385850906372070e-01
5.793000000000000000e+03 6.505125427246093750e+01 -8.979545593261718750e+00 1.988246887922286987e-01 3.024782896041870117e+00 9.670822620391845703e-01 3.738425672054290771e-01
5.794000000000000000e+03 6.519055175781250000e+01 -1.206710243225097656e+01 1.594021022319793701e-01 3.032579183578491211e+00 9.575943946838378906e-01 3.183624744415283203e-01
5.795000000000000000e+03 4.635402679443359375e+01 1.909502601623535156e+01 -7.701895833015441895e-01 -7.317955493927001953e-01 -4.505955576896667480e-01 -8.739230632781982422e-01
5.796000000000000000e+03 4.492300796508789062e+01 1.878089523315429688e+01 -8.219969272613525391e-01 -8.506939411163330078e-01 -5.018072724342346191e-01 -9.427709579467773438e-01
5.797000000000000000e+03 4.616320800781250000e+01 1.946910667419433594e+01 -8.075541257858276367e-01 -7.693332433700561523e-01 -4.730662107467651367e-01 -9.023186564445495605e-01
5.798000000000000000e+03 4.691387176513671875e+01 2.052709579467773438e+01 -8.672056794166564941e-01 -7.521604299545288086e-01 -4.858098328113555908e-01 -9.158197641372680664e-01
5.799000000000000000e+03 5.057242965698242188e+01 2.475160789489746094e+01 -1.071552157402038574e+00 -4.876457154750823975e-01 -4.677593708038330078e-01 -9.441403746604919434e-01
5.800000000000000000e+03 5.049061965942382812e+01 2.359169960021972656e+01 -9.641445279121398926e-01 -4.524742066860198975e-01 -4.249856173992156982e-01 -9.036134481430053711e-01
5.801000000000000000e+03 5.291724395751953125e+01 2.569111633300781250e+01 -1.090026617050170898e+00 -1.838026791810989380e-01 -3.821487724781036377e-01 -9.157636761665344238e-01
5.802000000000000000e+03 4.001263809204101562e+01 1.353584003448486328e+01 -8.379686474800109863e-01 -9.380145072937011719e-01 -5.327949523925781250e-01 -8.815744519233703613e-01
5.803000000000000000e+03 4.551425552368164062e+01 1.914778327941894531e+01 -8.216153979301452637e-01 -8.229355216026306152e-01 -4.933652579784393311e-01 -9.235412478446960449e-01
5.804000000000000000e+03 4.134990692138671875e+01 1.478750228881835938e+01 -8.186493515968322754e-01 -8.998224735260009766e-01 -5.155415534973144531e-01 -8.980551958084106445e-01
5.805000000000000000e+03 4.064458465576171875e+01 1.385234451293945312e+01 -8.181338906288146973e-01 -9.084252715110778809e-01 -5.179677605628967285e-01 -8.698088526725769043e-01
5.806000000000000000e+03 5.073656082153320312e+01 2.434280014038085938e+01 -1.030937314033508301e+00 -4.466937482357025146e-01 -4.432893097400665283e-01 -9.233748316764831543e-01
5.807000000000000000e+03 5.127817916870117188e+01 2.510096359252929688e+01 -1.078674793243408203e+00 -3.952753543853759766e-01 -4.421850442886352539e-01 -9.314072132110595703e-01
5.808000000000000000e+03 4.894769668579101562e+01 2.188134193420410156e+01 -8.898534774780273438e-01 -5.788308978080749512e-01 -4.406053423881530762e-01 -8.859868645668029785e-01
5.809000000000000000e+03 4.463260650634765625e+01 1.751589012145996094e+01 -7.526510953903198242e-01 -7.995544075965881348e-01 -4.656616449356079102e-01 -8.917391896247863770e-01
5.810000000000000000e+03 4.405740737915039062e+01 1.692246246337890625e+01 -7.562190890312194824e-01 -8.139588832855224609e-01 -4.710533916950225830e-01 -8.943697214126586914e-01
5.811000000000000000e+03 4.469201660156250000e+01 1.840975379943847656e+01 -8.058759570121765137e-01 -8.479009270668029785e-01 -4.961330592632293701e-01 -9.377487301826477051e-01
5.812000000000000000e+03 1.261724185943603516e+01 9.613595962524414062e+00 8.312401175498962402e-02 2.999046444892883301e-01 1.149085909128189087e-01 3.832203522324562073e-02
5.813000000000000000e+03 4.535517501831054688e+01 1.851251220703125000e+01 -7.801937460899353027e-01 -7.987354993820190430e-01 -4.736787676811218262e-01 -9.045466780662536621e-01
5.814000000000000000e+03 1.906106948852539062e+01 1.684893035888671875e+01 7.233400642871856689e-02 1.956811547279357910e-01 8.040454983711242676e-02 1.179429441690444946e-01
5.815000000000000000e+03 3.885854721069335938e+01 1.160935783386230469e+01 -8.277289867401123047e-01 -9.220456480979919434e-01 -5.249323844909667969e-01 -8.153982162475585938e-01
5.816000000000000000e+03 1.907022857666015625e+01 1.913830566406250000e+01 4.697841405868530273e-02 1.724414676427841187e-01 6.582596898078918457e-02 9.338528662919998169e-02
5.817000000000000000e+03 4.485932922363281250e+01 1.783718109130859375e+01 -7.594353556632995605e-01 -7.989433407783508301e-01 -4.675135910511016846e-01 -8.971658945083618164e-01
5.818000000000000000e+03 4.601829910278320312e+01 1.898177337646484375e+01 -7.860308289527893066e-01 -7.664534449577331543e-01 -4.657453000545501709e-01 -8.901445865631103516e-01
5.819000000000000000e+03 2.367464256286621094e+01 2.195431327819824219e+01 5.985810980200767517e-02 1.575870960950851440e-01 6.523355841636657715e-02 1.034418717026710510e-01
5.820000000000000000e+03 4.965181350708007812e+01 2.336366271972656250e+01 -9.901382923126220703e-01 -5.539814829826354980e-01 -4.632359147071838379e-01 -9.280288219451904297e-01
5.821000000000000000e+03 4.109468841552734375e+01 1.435635566711425781e+01 -8.122054934501647949e-01 -8.980423808097839355e-01 -5.130743384361267090e-01 -8.820527195930480957e-01
5.822000000000000000e+03 4.212786102294921875e+01 1.480046653747558594e+01 -7.676520347595214844e-01 -8.420380353927612305e-01 -4.829069972038269043e-01 -8.597002625465393066e-01
5.823000000000000000e+03 4.446290969848632812e+01 1.695372200012207031e+01 -7.297368645668029785e-01 -7.818571329116821289e-01 -4.534781873226165771e-01 -8.704895973205566406e-01
5.824000000000000000e+03 5.410165023803710938e+01 2.403542327880859375e+01 -8.621987700462341309e-01 -2.519612200558185577e-02 -2.662184834480285645e-01 -8.382834196090698242e-01
5.825000000000000000e+03 5.264897537231445312e+01 2.551718902587890625e+01 -1.074234485626220703e+00 -2.233174890279769897e-01 -3.892655670642852783e-01 -9.132367968559265137e-01
5.826000000000000000e+03 5.144506835937500000e+01 2.468351554870605469e+01 -1.032037615776062012e+00 -3.563327193260192871e-01 -4.165110886096954346e-01 -9.120503664016723633e-01
5.827000000000000000e+03 5.176968765258789062e+01 2.484401893615722656e+01 -1.037942886352539062e+00 -3.246074318885803223e-01 -4.087650775909423828e-01 -9.090531468391418457e-01
5.828000000000000000e+03 4.683776855468750000e+01 2.089992904663085938e+01 -9.030170440673828125e-01 -7.806971669197082520e-01 -5.051142573356628418e-01 -9.354800581932067871e-01
5.829000000000000000e+03 4.807141113281250000e+01 2.138950157165527344e+01 -8.864400386810302734e-01 -6.604563593864440918e-01 -4.640689194202423096e-01 -8.996807336807250977e-01
5.830000000000000000e+03 4.683304977416992188e+01 2.129555511474609375e+01 -9.394111037254333496e-01 -8.024098873138427734e-01 -5.225462913513183594e-01 -9.552237391471862793e-01
5.831000000000000000e+03 3.800851440429687500e+01 1.072675609588623047e+01 -8.392658233642578125e-01 -9.193186163902282715e-01 -5.275753140449523926e-01 -7.965059876441955566e-01
5.832000000000000000e+03 1.329306888580322266e+01 1.133250331878662109e+01 6.370220333337783813e-02 2.596024870872497559e-01 9.699140489101409912e-02 6.495514512062072754e-02
5.833000000000000000e+03 1.540371227264404297e+01 1.724135017395019531e+01 2.993575856089591980e-02 1.661974042654037476e-01 5.883994698524475098e-02 6.674586236476898193e-02
5.834000000000000000e+03 1.886825561523437500e+01 1.642252159118652344e+01 7.445156574249267578e-02 1.998293548822402954e-01 8.228427916765213013e-02 1.203740537166595459e-01
5.835000000000000000e+03 2.220108985900878906e+01 2.092304992675781250e+01 5.796742811799049377e-02 1.639252007007598877e-01 6.656778603792190552e-02 1.033288389444351196e-01
5.836000000000000000e+03 3.132643318176269531e+01 2.462448596954345703e+00 -9.237298965454101562e-01 -6.343494653701782227e-01 -4.674237966537475586e-01 -2.244213223457336426e-01
5.837000000000000000e+03 1.341288852691650391e+01 1.238463687896728516e+01 5.616636201739311218e-02 2.323831170797348022e-01 8.656484633684158325e-02 6.205967068672180176e-02
5.838000000000000000e+03 4.648104858398437500e+01 1.972022438049316406e+01 -8.137063980102539062e-01 -7.560454010963439941e-01 -4.709255397319793701e-01 -8.971300125122070312e-01
5.839000000000000000e+03 4.763245010375976562e+01 2.061329078674316406e+01 -8.379342555999755859e-01 -6.729558110237121582e-01 -4.532670080661773682e-01 -8.824606537818908691e-01
5.840000000000000000e+03 4.286737442016601562e+01 1.613539123535156250e+01 -7.855856418609619141e-01 -8.568725585937500000e-01 -4.927374422550201416e-01 -9.109651446342468262e-01
5.841000000000000000e+03 4.253167343139648438e+01 1.521142196655273438e+01 -7.618203759193420410e-01 -8.326095342636108398e-01 -4.783289432525634766e-01 -8.663406372070312500e-01
5.842000000000000000e+03 3.661597824096679688e+01 7.431847572326660156e+00 -7.732721567153930664e-01 -7.925509214401245117e-01 -4.697469174861907959e-01 -6.075731515884399414e-01
5.843000000000000000e+03 3.684443664550781250e+01 8.541455268859863281e+00 -8.213356733322143555e-01 -8.550662994384765625e-01 -5.029205679893493652e-01 -6.961367130279541016e-01
5.844000000000000000e+03 3.769185256958007812e+01 9.849661827087402344e+00 -8.262032270431518555e-01 -8.869200348854064941e-01 -5.139369964599609375e-01 -7.510973811149597168e-01
5.845000000000000000e+03 3.828086471557617188e+01 1.053987312316894531e+01 -8.158085942268371582e-01 -8.909568190574645996e-01 -5.120296478271484375e-01 -7.671264410018920898e-01
5.846000000000000000e+03 3.737335205078125000e+01 9.427366256713867188e+00 -8.247157335281372070e-01 -8.776521682739257812e-01 -5.107103586196899414e-01 -7.370695471763610840e-01
5.847000000000000000e+03 1.854793548583984375e+01 1.600456809997558594e+01 7.514500617980957031e-02 2.046847641468048096e-01 8.394893258810043335e-02 1.217933744192123413e-01
5.848000000000000000e+03 4.403528976440429688e+01 1.723496055603027344e+01 -7.694031000137329102e-01 -8.306627273559570312e-01 -4.800197482109069824e-01 -9.116589426994323730e-01
5.849000000000000000e+03 4.365668487548828125e+01 1.694316291809082031e+01 -7.778018116950988770e-01 -8.444079160690307617e-01 -4.866629242897033691e-01 -9.176629781723022461e-01
5.850000000000000000e+03 1.759458351135253906e+01 1.531672954559326172e+01 7.257188856601715088e-02 2.112624496221542358e-01 8.515030145645141602e-02 1.190765798091888428e-01
5.851000000000000000e+03 2.326004028320312500e+01 2.125076675415039062e+01 6.380096077919006348e-02 1.617798507213592529e-01 6.767424196004867554e-02 1.069241017103195190e-01
5.852000000000000000e+03 3.546277999877929688e+01 6.593983173370361328e+00 -8.484711647033691406e-01 -7.872669100761413574e-01 -4.907214343547821045e-01 -5.974225401878356934e-01
5.853000000000000000e+03 3.653614044189453125e+01 8.144378662109375000e+00 -8.296907544136047363e-01 -8.403376936912536621e-01 -5.010085105895996094e-01 -6.792647838592529297e-01
5.854000000000000000e+03 1.453736114501953125e+01 1.239262294769287109e+01 6.394153833389282227e-02 2.537413537502288818e-01 9.530486911535263062e-02 9.661784768104553223e-02
5.855000000000000000e+03 1.363805007934570312e+01 1.325272750854492188e+01 4.896797984838485718e-02 2.140261679887771606e-01 7.889824360609054565e-02 6.303805857896804810e-02
5.856000000000000000e+03 4.326079940795898438e+01 1.657114219665527344e+01 -7.830085754394531250e-01 -8.536485433578491211e-01 -4.909971356391906738e-01 -9.170331954956054688e-01
5.857000000000000000e+03 4.928485107421875000e+01 2.285905647277832031e+01 -9.614256024360656738e-01 -5.796935558319091797e-01 -4.623357355594635010e-01 -9.197350144386291504e-01
5.858000000000000000e+03 1.714920616149902344e+01 1.265976047515869141e+01 1.011054664850234985e-01 2.562709450721740723e-01 1.072129234671592712e-01 1.544486582279205322e-01
5.859000000000000000e+03 1.679521369934082031e+01 1.274440193176269531e+01 9.460559487342834473e-02 2.554322779178619385e-01 1.050113588571548462e-01 1.448083370923995972e-01
5.860000000000000000e+03 3.610264968872070312e+01 8.439601898193359375e+00 -8.807208538055419922e-01 -8.839348554611206055e-01 -5.293967127799987793e-01 -7.362037301063537598e-01
5.861000000000000000e+03 1.602243041992187500e+01 1.383011150360107422e+01 6.775623559951782227e-02 2.313223183155059814e-01 8.972356468439102173e-02 1.116732060909271240e-01
5.862000000000000000e+03 2.027381896972656250e+01 1.895493507385253906e+01 6.036823242902755737e-02 1.768203228712081909e-01 7.115656882524490356e-02 1.062034815549850464e-01
5.863000000000000000e+03 1.968312454223632812e+01 1.903814697265625000e+01 5.366437509655952454e-02 1.759366095066070557e-01 6.888029724359512329e-02 1.005257666110992432e-01
5.864000000000000000e+03 2.274171257019042969e+01 2.109154891967773438e+01 6.042835488915443420e-02 1.629493981599807739e-01 6.701332330703735352e-02 1.053653210401535034e-01
5.865000000000000000e+03 4.807746887207031250e+01 2.095356750488281250e+01 -8.462558984756469727e-01 -6.405193805694580078e-01 -4.460325837135314941e-01 -8.785275816917419434e-01
5.866000000000000000e+03 2.793753623962402344e+01 1.462421178817749023e+00 -1.044766187667846680e+00 -5.013108849525451660e-01 -4.638231098651885986e-01 -2.494684010744094849e-01
5.867000000000000000e+03 1.522297286987304688e+01 1.274511718750000000e+01 6.843298673629760742e-02 2.515980005264282227e-01 9.600929915904998779e-02 1.097978278994560242e-01
5.868000000000000000e+03 3.711394500732421875e+01 8.971246719360351562e+00 -8.246110081672668457e-01 -8.653994202613830566e-01 -5.070031285285949707e-01 -7.140268087387084961e-01
5.869000000000000000e+03 1.294610404968261719e+01 9.894123077392578125e+00 7.987245917320251465e-02 3.107040822505950928e-01 1.171729639172554016e-01 5.496967956423759460e-02
5.870000000000000000e+03 1.303557968139648438e+01 1.092220401763916016e+01 6.876398622989654541e-02 2.690856754779815674e-01 1.013548970222473145e-01 5.671234428882598877e-02
5.871000000000000000e+03 3.153664588928222656e+01 9.214864373207092285e-01 -4.539054632186889648e-01 -6.066094636917114258e-01 -3.181544840335845947e-01 -3.486507385969161987e-02
5.872000000000000000e+03 3.608559799194335938e+01 5.652744293212890625e+00 -7.201474905014038086e-01 -7.058688998222351074e-01 -4.278049170970916748e-01 -4.661226570606231689e-01
5.873000000000000000e+03 3.289294433593750000e+01 -2.191709429025650024e-01 -8.362387120723724365e-02 -6.171744465827941895e-01 -2.102394849061965942e-01 2.481884136795997620e-02
5.874000000000000000e+03 3.341653060913085938e+01 4.612932205200195312e-01 -2.166033834218978882e-01 -6.057243347167968750e-01 -2.466983050107955933e-01 -1.100492291152477264e-02
5.875000000000000000e+03 5.464438247680664062e+01 2.663351440429687500e+01 -1.158750057220458984e+00 1.491139270365238190e-02 -3.431515991687774658e-01 -9.318198561668395996e-01
5.876000000000000000e+03 1.163969039916992188e+01 8.429515838623046875e+00 1.247711628675460815e-01 2.769309282302856445e-01 1.205106303095817566e-01 -1.991689577698707581e-02
5.877000000000000000e+03 1.121661949157714844e+01 1.131792449951171875e+01 6.806863099336624146e-02 1.707998067140579224e-01 7.166053354740142822e-02 5.499887280166149139e-03
5.878000000000000000e+03 2.088982582092285156e+01 1.942431640625000000e+01 6.167042627930641174e-02 1.737765520811080933e-01 7.063408941030502319e-02 1.071642488241195679e-01
5.879000000000000000e+03 2.372043037414550781e+01 2.387593841552734375e+01 4.526631906628608704e-02 1.474689096212387085e-01 5.782056972384452820e-02 9.125537425279617310e-02
5.880000000000000000e+03 2.554906082153320312e+01 2.482945823669433594e+01 5.048476159572601318e-02 1.431690454483032227e-01 5.809614434838294983e-02 9.399554878473281860e-02
5.881000000000000000e+03 3.990697097778320312e+01 1.395575237274169922e+01 -8.793597817420959473e-01 -9.744807481765747070e-01 -5.561521649360656738e-01 -9.181274175643920898e-01
5.882000000000000000e+03 1.356214427947998047e+01 1.859753227233886719e+01 1.126845460385084152e-02 1.189796850085258484e-01 3.907443955540657043e-02 3.194703906774520874e-02
5.883000000000000000e+03 5.388454437255859375e+01 2.617864036560058594e+01 -1.117940902709960938e+00 -6.629031151533126831e-02 -3.552693724632263184e-01 -9.187532067298889160e-01
5.884000000000000000e+03 5.316874694824218750e+01 2.537397384643554688e+01 -1.049066305160522461e+00 -1.497439295053482056e-01 -3.596430420875549316e-01 -9.020628333091735840e-01
5.885000000000000000e+03 3.348652648925781250e+01 4.107171058654785156e+00 -9.053282737731933594e-01 -6.767271161079406738e-01 -4.746166169643402100e-01 -4.089082777500152588e-01
5.886000000000000000e+03 3.470145797729492188e+01 3.877425909042358398e+00 -7.198391556739807129e-01 -6.509336829185485840e-01 -4.112318456172943115e-01 -3.247734606266021729e-01
5.887000000000000000e+03 3.519261550903320312e+01 5.639808654785156250e+00 -8.126630187034606934e-01 -7.293921113014221191e-01 -4.626165330410003662e-01 -5.129598379135131836e-01
5.888000000000000000e+03 6.137487411499023438e+01 2.385292816162109375e+01 -2.490861862897872925e-01 5.231410264968872070e-01 8.221644908189773560e-02 -5.152279734611511230e-01
5.889000000000000000e+03 6.252500534057617188e+01 2.323712730407714844e+01 -1.920522376894950867e-02 6.863248348236083984e-01 2.001358866691589355e-01 -3.257404267787933350e-01
5.890000000000000000e+03 5.007717895507812500e+01 2.345068740844726562e+01 -9.751375913619995117e-01 -5.034700036048889160e-01 -4.435822665691375732e-01 -9.143283963203430176e-01
5.891000000000000000e+03 5.590514755249023438e+01 2.584074783325195312e+01 -1.014408588409423828e+00 1.206495687365531921e-01 -2.681277096271514893e-01 -9.096726179122924805e-01
5.892000000000000000e+03 5.337203979492187500e+01 2.494439125061035156e+01 -1.002923607826232910e+00 -1.224610209465026855e-01 -3.376154005527496338e-01 -8.851103186607360840e-01
5.893000000000000000e+03 2.147470855712890625e+01 1.944369125366210938e+01 6.753244996070861816e-02 1.746748238801956177e-01 7.266218215227127075e-02 1.119153723120689392e-01
5.894000000000000000e+03 2.164490127563476562e+01 2.075993347167968750e+01 5.452564731240272522e-02 1.643686592578887939e-01 6.566829234361648560e-02 1.009481400251388550e-01
5.895000000000000000e+03 3.078628349304199219e+01 1.652932763099670410e+00 -7.393302917480468750e-01 -5.918365716934204102e-01 -3.993500769138336182e-01 -1.088548600673675537e-01
5.896000000000000000e+03 2.585891723632812500e+01 2.674092483520507812e+01 4.258272796869277954e-02 1.351461261510848999e-01 5.331865698099136353e-02 8.439292013645172119e-02
5.897000000000000000e+03 2.529603958129882812e+01 2.593864631652832031e+01 4.296807944774627686e-02 1.384114772081375122e-01 5.441386625170707703e-02 8.654394745826721191e-02
5.898000000000000000e+03 2.494285392761230469e+01 2.198406791687011719e+01 6.953589618206024170e-02 1.564026772975921631e-01 6.778157502412796021e-02 1.098151504993438721e-01
5.899000000000000000e+03 3.857061767578125000e+01 1.191231250762939453e+01 -8.595696091651916504e-01 -9.539617300033569336e-01 -5.440593957901000977e-01 -8.493093252182006836e-01
5.900000000000000000e+03 5.845542144775390625e+01 2.442010879516601562e+01 -6.386082172393798828e-01 2.927019894123077393e-01 -1.037718653678894043e-01 -7.713456749916076660e-01
5.901000000000000000e+03 3.392468261718750000e+01 2.674649655818939209e-01 -1.581270992755889893e-01 -6.252191662788391113e-01 -2.350038886070251465e-01 1.091158110648393631e-02
5.902000000000000000e+03 3.404146575927734375e+01 3.516093492507934570e+00 -7.477414011955261230e-01 -6.455973386764526367e-01 -4.180016219615936279e-01 -3.018313050270080566e-01
5.903000000000000000e+03 3.547503280639648438e+01 -1.161571145057678223e+00 1.272785067558288574e-01 -6.124306917190551758e-01 -1.455456614494323730e-01 4.302939400076866150e-02
5.904000000000000000e+03 3.607183456420898438e+01 -1.248996138572692871e+00 1.701862812042236328e-01 -5.897209644317626953e-01 -1.258604079484939575e-01 5.047343298792839050e-02
5.905000000000000000e+03 3.087419128417968750e+01 1.176854968070983887e+00 -5.900120139122009277e-01 -6.125959753990173340e-01 -3.607823848724365234e-01 -8.117048442363739014e-02
5.906000000000000000e+03 3.195859909057617188e+01 1.232735037803649902e+00 -5.085019469261169434e-01 -6.099466085433959961e-01 -3.355345726013183594e-01 -6.744422763586044312e-02
5.907000000000000000e+03 3.290110397338867188e+01 3.158386945724487305e+00 -8.284121155738830566e-01 -6.357840299606323242e-01 -4.392588436603546143e-01 -2.761800289154052734e-01
5.908000000000000000e+03 3.231386184692382812e+01 2.216547250747680664e+00 -7.189727425575256348e-01 -6.307595968246459961e-01 -4.049196839332580566e-01 -1.651909798383712769e-01
5.909000000000000000e+03 1.264157199859619141e+01 1.027107620239257812e+01 7.578787952661514282e-02 2.756283879280090332e-01 1.054248809814453125e-01 4.332749545574188232e-02
5.910000000000000000e+03 1.817620658874511719e+01 1.689707565307617188e+01 6.057428941130638123e-02 1.925229281187057495e-01 7.592916488647460938e-02 1.064090654253959656e-01
5.911000000000000000e+03 6.376149749755859375e+01 3.895514249801635742e+00 3.821375668048858643e-01 2.637058019638061523e+00 9.057586789131164551e-01 5.902371406555175781e-01
5.912000000000000000e+03 6.084628677368164062e+01 2.415271186828613281e+01 -3.751521110534667969e-01 4.483186006546020508e-01 2.194993942975997925e-02 -6.083325743675231934e-01
5.913000000000000000e+03 6.048900604248046875e+01 2.449658012390136719e+01 -4.589412510395050049e-01 3.940624892711639404e-01 -1.946363598108291626e-02 -6.674315333366394043e-01
5.914000000000000000e+03 1.254760837554931641e+01 1.114548778533935547e+01 6.440556049346923828e-02 2.392152100801467896e-01 9.108623117208480835e-02 4.150042310357093811e-02
5.915000000000000000e+03 1.192844676971435547e+01 1.239099121093750000e+01 5.106588453054428101e-02 1.834137588739395142e-01 7.034388929605484009e-02 2.394950203597545624e-02
5.916000000000000000e+03 6.841534423828125000e+01 2.381309700012207031e+01 5.832365155220031738e-01 1.954555869102478027e+00 7.613376975059509277e-01 7.482348680496215820e-01
5.917000000000000000e+03 1.295743370056152344e+01 1.723778152465820312e+01 1.535330899059772491e-02 1.259816735982894897e-01 4.240049421787261963e-02 3.021961450576782227e-02
5.918000000000000000e+03 1.352230834960937500e+01 1.592533397674560547e+01 2.615714259445667267e-02 1.563368141651153564e-01 5.474818497896194458e-02 4.467234015464782715e-02
5.919000000000000000e+03 3.782724761962890625e+01 -2.463505506515502930e+00 3.117645084857940674e-01 -5.419815778732299805e-01 -6.906511634588241577e-02 5.145154520869255066e-02
5.920000000000000000e+03 3.762282562255859375e+01 -1.644618749618530273e+00 2.331029474735260010e-01 -5.580574274063110352e-01 -9.748633950948715210e-02 4.474293440580368042e-02
5.921000000000000000e+03 6.317104339599609375e+01 2.127902412414550781e+01 2.894057631492614746e-01 1.043710827827453613e+00 3.999350070953369141e-01 -1.453129574656486511e-02
5.922000000000000000e+03 2.737131500244140625e+01 3.257709884643554688e+01 3.715312853455543518e-02 1.160435304045677185e-01 4.595899581909179688e-02 5.705919861793518066e-02
5.923000000000000000e+03 2.776543617248535156e+01 2.935176277160644531e+01 4.516395553946495056e-02 1.262258291244506836e-01 5.141693726181983948e-02 7.636716216802597046e-02
5.924000000000000000e+03 6.542935943603515625e+01 2.104464149475097656e+01 5.390224456787109375e-01 1.564214706420898438e+00 6.309711337089538574e-01 3.708496391773223877e-01
5.925000000000000000e+03 6.558319854736328125e+01 2.283128166198730469e+01 3.913084864616394043e-01 1.276191353797912598e+00 5.002499818801879883e-01 2.127192318439483643e-01
5.926000000000000000e+03 2.642107582092285156e+01 2.765223121643066406e+01 4.252297431230545044e-02 1.318361908197402954e-01 5.230775102972984314e-02 8.148910105228424072e-02
5.927000000000000000e+03 2.566916084289550781e+01 2.343943977355957031e+01 6.068603321909904480e-02 1.490145921707153320e-01 6.291018426418304443e-02 1.029943823814392090e-01
5.928000000000000000e+03 2.822095489501953125e+01 2.853342056274414062e+01 4.937022551894187927e-02 1.284471452236175537e-01 5.334521085023880005e-02 8.201460540294647217e-02
5.929000000000000000e+03 2.697958564758300781e+01 2.859379196166992188e+01 4.240914434194564819e-02 1.284425854682922363e-01 5.125552043318748474e-02 7.795317471027374268e-02
5.930000000000000000e+03 5.643170547485351562e+01 2.411872863769531250e+01 -7.494782805442810059e-01 1.718867570161819458e-01 -1.732774525880813599e-01 -8.109203577041625977e-01
5.931000000000000000e+03 5.758850479125976562e+01 2.465999412536621094e+01 -7.441846132278442383e-01 2.397585511207580566e-01 -1.513278186321258545e-01 -8.188471794128417969e-01
5.932000000000000000e+03 6.661963653564453125e+01 2.136921691894531250e+01 6.191809773445129395e-01 1.864040017127990723e+00 7.449663281440734863e-01 5.623727440834045410e-01
5.933000000000000000e+03 3.576766586303710938e+01 4.435708522796630859e+00 -6.351135373115539551e-01 -6.604782938957214355e-01 -3.886775374412536621e-01 -3.445763587951660156e-01
5.934000000000000000e+03 6.208396530151367188e+01 -1.935589790344238281e+00 3.335417509078979492e-01 2.430182218551635742e+00 8.291171789169311523e-01 4.766575396060943604e-01
5.935000000000000000e+03 6.604607391357421875e+01 2.055802154541015625e+01 6.095914840698242188e-01 1.836259245872497559e+00 7.337552309036254883e-01 5.206055641174316406e-01
5.936000000000000000e+03 6.590311431884765625e+01 2.176048660278320312e+01 5.265141129493713379e-01 1.561965107917785645e+00 6.265437602996826172e-01 3.867405056953430176e-01
5.937000000000000000e+03 1.370345115661621094e+01 1.462308979034423828e+01 3.687040507793426514e-02 1.858963519334793091e-01 6.683002412319183350e-02 5.674359947443008423e-02
5.938000000000000000e+03 3.856987380981445312e+01 -2.231432437896728516e+00 2.957246601581573486e-01 -5.147949457168579102e-01 -6.572107970714569092e-02 4.904057830572128296e-02
5.939000000000000000e+03 1.259000301361083984e+01 1.809071922302246094e+01 9.111574850976467133e-03 1.038020402193069458e-01 3.387408331036567688e-02 2.138041146099567413e-02
5.940000000000000000e+03 1.280127525329589844e+01 1.887753105163574219e+01 6.494156550616025925e-03 9.905937314033508301e-02 3.166605904698371887e-02 2.133725024759769440e-02
5.941000000000000000e+03 6.367229843139648438e+01 -6.842563152313232422e+00 2.510670423507690430e-01 2.765695095062255859e+00 9.050287008285522461e-01 4.090329706668853760e-01
5.942000000000000000e+03 6.504527282714843750e+01 1.224935576319694519e-01 3.049159944057464600e-01 2.977725744247436523e+00 9.847925305366516113e-01 5.561768412590026855e-01
5.943000000000000000e+03 6.422141265869140625e+01 5.166048049926757812e+00 3.985786736011505127e-01 2.689326524734497070e+00 9.263715744018554688e-01 6.198788285255432129e-01
5.944000000000000000e+03 4.669915771484375000e+01 -1.084266948699951172e+01 4.053104519844055176e-01 2.778595387935638428e-01 2.049510031938552856e-01 9.130612760782241821e-02
5.945000000000000000e+03 4.526194763183593750e+01 -9.975617408752441406e+00 4.280935823917388916e-01 9.505429118871688843e-02 1.569443643093109131e-01 7.171764969825744629e-02
5.946000000000000000e+03 6.531492614746093750e+01 8.196701049804687500e+00 4.357079267501831055e-01 2.856401205062866211e+00 9.876326918601989746e-01 6.917381286621093750e-01
5.947000000000000000e+03 6.779064178466796875e+01 2.200745201110839844e+01 6.667822599411010742e-01 2.128243446350097656e+00 8.385077118873596191e-01 7.510474920272827148e-01
5.948000000000000000e+03 6.451608276367187500e+01 -4.299566149711608887e-01 3.107329607009887695e-01 2.879948139190673828e+00 9.572042822837829590e-01 5.351105332374572754e-01
5.949000000000000000e+03 3.952725219726562500e+01 -2.742620706558227539e+00 3.396130204200744629e-01 -4.612432420253753662e-01 -3.648907318711280823e-02 5.471843481063842773e-02
5.950000000000000000e+03 1.758412361145019531e+01 1.715335273742675781e+01 5.105682834982872009e-02 1.879184544086456299e-01 7.169258594512939453e-02 9.685362130403518677e-02
5.951000000000000000e+03 3.062293243408203125e+01 3.356628799438476562e+01 5.319299921393394470e-02 1.142003387212753296e-01 5.021800100803375244e-02 6.097558140754699707e-02
5.952000000000000000e+03 6.627521514892578125e+01 1.863077926635742188e+01 6.453568339347839355e-01 2.202372789382934570e+00 8.543188571929931641e-01 6.700091958045959473e-01
5.953000000000000000e+03 6.609066772460937500e+01 1.133512210845947266e+01 5.081018209457397461e-01 2.894627332687377930e+00 1.020818710327148438e+00 7.574594616889953613e-01
5.954000000000000000e+03 2.941881370544433594e+01 3.170727348327636719e+01 4.864723980426788330e-02 1.196425408124923706e-01 5.048693343997001648e-02 6.802904605865478516e-02
5.955000000000000000e+03 6.273905563354492188e+01 -3.919272422790527344e+00 3.008438944816589355e-01 2.568897962570190430e+00 8.609225153923034668e-01 4.559313058853149414e-01
5.956000000000000000e+03 6.561315155029296875e+01 9.226904869079589844e+00 4.580988287925720215e-01 2.878783941268920898e+00 1.001064896583557129e+00 7.148918509483337402e-01
5.957000000000000000e+03 1.582871437072753906e+01 2.209886550903320312e+01 7.474611513316631317e-03 1.139432713389396667e-01 3.642536327242851257e-02 4.087597876787185669e-02
5.958000000000000000e+03 1.667764282226562500e+01 2.619703292846679688e+01 -2.673392882570624352e-04 9.129297733306884766e-02 2.730769105255603790e-02 3.258847072720527649e-02
5.959000000000000000e+03 4.886348342895507812e+01 -1.507358264923095703e+01 2.850516140460968018e-01 6.072713732719421387e-01 2.676968872547149658e-01 1.034132167696952820e-01
5.960000000000000000e+03 5.101760101318359375e+01 -1.313092231750488281e+01 3.229413628578186035e-01 8.758518099784851074e-01 3.596379458904266357e-01 1.467807590961456299e-01
5.961000000000000000e+03 4.948402404785156250e+01 -1.376449680328369141e+01 3.223960995674133301e-01 6.667732000350952148e-01 2.967507839202880859e-01 1.211458742618560791e-01
5.962000000000000000e+03 6.427323913574218750e+01 3.027733564376831055e+00 3.617334365844726562e-01 2.779382467269897461e+00 9.423347711563110352e-01 5.964902639389038086e-01
5.963000000000000000e+03 6.385640716552734375e+01 1.604811429977416992e+00 3.497655093669891357e-01 2.723477125167846680e+00 9.219727516174316406e-01 5.646046996116638184e-01
5.964000000000000000e+03 1.671716690063476562e+01 2.757877159118652344e+01 -2.472976921126246452e-03 8.225645869970321655e-02 2.393504418432712555e-02 2.747559174895286560e-02
5.965000000000000000e+03 1.631077957153320312e+01 2.068272018432617188e+01 1.524625066667795181e-02 1.345690041780471802e-01 4.494457319378852844e-02 5.333992838859558105e-02
5.966000000000000000e+03 2.878929710388183594e+01 2.987359237670898438e+01 4.927439615130424500e-02 1.245691180229187012e-01 5.215305462479591370e-02 7.659010589122772217e-02
5.967000000000000000e+03 4.777920913696289062e+01 -1.430369091033935547e+01 3.166052103042602539e-01 4.626260995864868164e-01 2.337694019079208374e-01 8.569484204053878784e-02
5.968000000000000000e+03 6.421240997314453125e+01 -1.149422168731689453e+01 1.856117546558380127e-01 2.866357803344726562e+00 9.155908823013305664e-01 3.247103095054626465e-01
5.969000000000000000e+03 4.149106216430664062e+01 -3.204886674880981445e+00 3.699921667575836182e-01 -3.275785744190216064e-01 1.272406987845897675e-02 6.997283548116683960e-02
5.970000000000000000e+03 6.491291046142578125e+01 -1.330520343780517578e+01 1.539748609066009521e-01 2.992577552795410156e+00 9.439656734466552734e-01 2.979839146137237549e-01
5.971000000000000000e+03 6.231133651733398438e+01 -4.826748371124267578e+00 3.016816973686218262e-01 2.509131431579589844e+00 8.432439565658569336e-01 4.346077740192413330e-01
5.972000000000000000e+03 6.366559219360351562e+01 -4.282417774200439453e+00 2.816671133041381836e-01 2.742909431457519531e+00 9.073730111122131348e-01 4.597011804580688477e-01
5.973000000000000000e+03 5.265173339843750000e+01 -1.671772766113281250e+01 2.193208634853363037e-01 1.151237368583679199e+00 4.111674726009368896e-01 1.488304883241653442e-01
5.974000000000000000e+03 5.058731842041015625e+01 -1.437018585205078125e+01 2.958845198154449463e-01 8.326311707496643066e-01 3.385547101497650146e-01 1.329348683357238770e-01
5.975000000000000000e+03 5.785156631469726562e+01 -1.978698158264160156e+01 1.343481689691543579e-01 1.943354368209838867e+00 6.233107447624206543e-01 2.065113931894302368e-01
5.976000000000000000e+03 5.134427642822265625e+01 -1.626727294921875000e+01 2.372998893260955811e-01 9.615646004676818848e-01 3.596593439579010010e-01 1.311509907245635986e-01
5.977000000000000000e+03 1.560838794708251953e+01 -2.588548851013183594e+01 1.909040063619613647e-01 -3.286256194114685059e-01 -4.131648316979408264e-02 -2.765586376190185547e-01
5.978000000000000000e+03 1.526583385467529297e+01 -2.213602066040039062e+01 1.836041361093521118e-01 -3.725602328777313232e-01 -5.668682977557182312e-02 -3.156136572360992432e-01
5.979000000000000000e+03 4.644709777832031250e+01 -9.522593498229980469e+00 4.276061654090881348e-01 2.274767011404037476e-01 1.965248584747314453e-01 9.818937629461288452e-02
5.980000000000000000e+03 5.540443801879882812e+01 -2.325472640991210938e+01 5.853406712412834167e-02 1.616740703582763672e+00 5.025824308395385742e-01 1.887305676937103271e-01
5.981000000000000000e+03 5.936916732788085938e+01 -2.170503997802734375e+01 9.435024112462997437e-02 2.165190935134887695e+00 6.778623461723327637e-01 2.062694132328033447e-01
5.982000000000000000e+03 6.182339096069335938e+01 -2.488004302978515625e+01 6.527982652187347412e-02 2.538255214691162109e+00 7.810605168342590332e-01 1.947008222341537476e-01
5.983000000000000000e+03 4.900529098510742188e+01 2.091867256164550781e+01 -7.986130118370056152e-01 -5.295584201812744141e-01 -3.984514176845550537e-01 -8.353264331817626953e-01
5.984000000000000000e+03 4.851963806152343750e+01 2.139377212524414062e+01 -8.657650947570800781e-01 -6.082958579063415527e-01 -4.422182738780975342e-01 -8.802971839904785156e-01
5.985000000000000000e+03 4.677524566650390625e+01 2.000189971923828125e+01 -8.258676528930664062e-01 -7.370615005493164062e-01 -4.688787460327148438e-01 -8.953789472579956055e-01
5.986000000000000000e+03 4.509463119506835938e+01 1.816988945007324219e+01 -7.709423303604125977e-01 -8.008072972297668457e-01 -4.715248942375183105e-01 -9.010044336318969727e-01
5.987000000000000000e+03 4.568413925170898438e+01 1.878495979309082031e+01 -7.860444188117980957e-01 -7.871298789978027344e-01 -4.719522893428802490e-01 -8.994628787040710449e-01
5.988000000000000000e+03 3.982108688354492188e+01 1.163325214385986328e+01 -7.583453059196472168e-01 -8.496833443641662598e-01 -4.824085831642150879e-01 -7.598762512207031250e-01
5.989000000000000000e+03 4.182222747802734375e+01 1.397168445587158203e+01 -7.405627965927124023e-01 -8.211904168128967285e-01 -4.685259759426116943e-01 -8.154001832008361816e-01
5.990000000000000000e+03 4.142956924438476562e+01 1.438688564300537109e+01 -7.918736934661865234e-01 -8.724370002746582031e-01 -4.992932081222534180e-01 -8.668170571327209473e-01
5.991000000000000000e+03 5.206571578979492188e+01 2.499188995361328125e+01 -1.042182803153991699e+00 -2.874972224235534668e-01 -3.989039957523345947e-01 -9.075818061828613281e-01
5.992000000000000000e+03 5.278364944458007812e+01 2.517143821716308594e+01 -1.044134974479675293e+00 -1.985677033662796021e-01 -3.728108108043670654e-01 -9.010996818542480469e-01
5.993000000000000000e+03 5.240914154052734375e+01 2.505670738220214844e+01 -1.042301177978515625e+00 -2.474409043788909912e-01 -3.869226276874542236e-01 -9.050621986389160156e-01
5.994000000000000000e+03 4.257516098022460938e+01 1.475720119476318359e+01 -7.327226400375366211e-01 -8.055114150047302246e-01 -4.614702165126800537e-01 -8.339108228683471680e-01
5.995000000000000000e+03 4.172334289550781250e+01 1.480973911285400391e+01 -7.939580678939819336e-01 -8.722732663154602051e-01 -4.998694062232971191e-01 -8.806519508361816406e-01
5.996000000000000000e+03 5.144972991943359375e+01 2.422126007080078125e+01 -9.934236407279968262e-01 -3.485337495803833008e-01 -4.025872051715850830e-01 -8.954834938049316406e-01
5.997000000000000000e+03 3.975246810913085938e+01 1.288268566131591797e+01 -8.196775913238525391e-01 -9.201310276985168457e-01 -5.219425559043884277e-01 -8.477289080619812012e-01
5.998000000000000000e+03 4.523694229125976562e+01 1.759139060974121094e+01 -7.245234251022338867e-01 -7.536564469337463379e-01 -4.434539675712585449e-01 -8.603960275650024414e-01
5.999000000000000000e+03 4.088454055786132812e+01 1.396512889862060547e+01 -8.069384694099426270e-01 -8.953284025192260742e-01 -5.106800794601440430e-01 -8.660190701484680176e-01
6.000000000000000000e+03 4.898577117919921875e+01 2.140522766113281250e+01 -8.437262773513793945e-01 -5.537995100021362305e-01 -4.192577302455902100e-01 -8.610661625862121582e-01
6.001000000000000000e+03 4.729138565063476562e+01 2.063801574707031250e+01 -8.606445789337158203e-01 -7.180765867233276367e-01 -4.736163318157196045e-01 -9.005637764930725098e-01
6.002000000000000000e+03 4.673706054687500000e+01 1.910558891296386719e+01 -7.537052035331726074e-01 -6.965776085853576660e-01 -4.350848495960235596e-01 -8.550655841827392578e-01
6.003000000000000000e+03 4.627776336669921875e+01 1.875412940979003906e+01 -7.504519820213317871e-01 -7.224307060241699219e-01 -4.418647885322570801e-01 -8.601539731025695801e-01
6.004000000000000000e+03 4.601000976562500000e+01 1.848416137695312500e+01 -7.405709028244018555e-01 -7.327494621276855469e-01 -4.419960975646972656e-01 -8.613469004631042480e-01
6.005000000000000000e+03 5.401450347900390625e+01 2.457848548889160156e+01 -9.277460575103759766e-01 -4.184218123555183411e-02 -2.908764779567718506e-01 -8.644977211952209473e-01
6.006000000000000000e+03 4.501768875122070312e+01 1.726299476623535156e+01 -7.157681584358215332e-01 -7.525953054428100586e-01 -4.405090510845184326e-01 -8.564186096191406250e-01
6.007000000000000000e+03 4.295560836791992188e+01 1.564757442474365234e+01 -7.537081241607666016e-01 -8.223412036895751953e-01 -4.728147983551025391e-01 -8.738411068916320801e-01
6.008000000000000000e+03 4.045452117919921875e+01 1.360361671447753906e+01 -8.167668581008911133e-01 -9.126634001731872559e-01 -5.188290476799011230e-01 -8.642763495445251465e-01
6.009000000000000000e+03 5.205773544311523438e+01 2.462177848815917969e+01 -1.016305446624755859e+00 -2.846699655055999756e-01 -3.902926146984100342e-01 -8.958364129066467285e-01
6.010000000000000000e+03 1.862917137145996094e+01 1.681187248229980469e+01 6.664529442787170410e-02 1.974401772022247314e-01 7.922563701868057251e-02 1.136618927121162415e-01
6.011000000000000000e+03 5.412881469726562500e+01 2.354723167419433594e+01 -8.030732870101928711e-01 -1.405842695385217667e-02 -2.451395094394683838e-01 -8.135952949523925781e-01
6.012000000000000000e+03 3.815862655639648438e+01 1.099977588653564453e+01 -8.422474265098571777e-01 -9.265802502632141113e-01 -5.306482911109924316e-01 -8.078388571739196777e-01
6.013000000000000000e+03 3.925189971923828125e+01 1.134223556518554688e+01 -7.807683944702148438e-01 -8.721969723701477051e-01 -4.958896040916442871e-01 -7.677718400955200195e-01
6.014000000000000000e+03 4.216656112670898438e+01 1.437016868591308594e+01 -7.393233776092529297e-01 -8.168678879737854004e-01 -4.668573737144470215e-01 -8.276150822639465332e-01
6.015000000000000000e+03 4.116703796386718750e+01 1.399475765228271484e+01 -7.902193069458007812e-01 -8.747340440750122070e-01 -4.994859993457794189e-01 -8.549841046333312988e-01
6.016000000000000000e+03 4.974325561523437500e+01 2.292780494689941406e+01 -9.470978379249572754e-01 -5.223004817962646484e-01 -4.408195018768310547e-01 -9.044448137283325195e-01
6.017000000000000000e+03 4.936069869995117188e+01 2.239603042602539062e+01 -9.171010851860046387e-01 -5.500878691673278809e-01 -4.401566982269287109e-01 -8.936920762062072754e-01
6.018000000000000000e+03 1.313955211639404297e+01 1.202620887756347656e+01 5.621982365846633911e-02 2.326764315366744995e-01 8.666887879371643066e-02 5.748799443244934082e-02
6.019000000000000000e+03 3.787675476074218750e+01 9.153576850891113281e+00 -7.678185105323791504e-01 -8.317501544952392578e-01 -4.798706173896789551e-01 -6.812160611152648926e-01
6.020000000000000000e+03 4.483397293090820312e+01 1.659491729736328125e+01 -6.892948150634765625e-01 -7.271193861961364746e-01 -4.249242544174194336e-01 -8.274164795875549316e-01
6.021000000000000000e+03 2.256446266174316406e+01 2.168022537231445312e+01 5.433897674083709717e-02 1.592949032783508301e-01 6.409016251564025879e-02 9.963347017765045166e-02
6.022000000000000000e+03 2.420488166809082031e+01 2.191779708862304688e+01 6.403093785047531128e-02 1.570145040750503540e-01 6.631363183259963989e-02 1.065602451562881470e-01
6.023000000000000000e+03 3.802333068847656250e+01 1.020584011077880859e+01 -8.142070174217224121e-01 -8.889919519424438477e-01 -5.109596848487854004e-01 -7.608277201652526855e-01
6.024000000000000000e+03 3.840340042114257812e+01 9.985280990600585938e+00 -7.774938344955444336e-01 -8.517834544181823730e-01 -4.887832105159759521e-01 -7.193225622177124023e-01
6.025000000000000000e+03 1.280503749847412109e+01 1.312564945220947266e+01 4.468603059649467468e-02 1.951247155666351318e-01 7.194322347640991211e-02 4.297572374343872070e-02
6.026000000000000000e+03 4.333552932739257812e+01 1.611656379699707031e+01 -7.554642558097839355e-01 -8.223674297332763672e-01 -4.733495116233825684e-01 -8.837501406669616699e-01
6.027000000000000000e+03 1.768527412414550781e+01 1.932592582702636719e+01 3.453214839100837708e-02 1.623927056789398193e-01 5.907745659351348877e-02 7.786990702152252197e-02
6.028000000000000000e+03 4.369028472900390625e+01 1.655487632751464844e+01 -7.565783858299255371e-01 -8.206989765167236328e-01 -4.731832146644592285e-01 -8.929876685142517090e-01
6.029000000000000000e+03 4.719397354125976562e+01 1.930201721191406250e+01 -7.378810048103332520e-01 -6.489307284355163574e-01 -4.160435199737548828e-01 -8.361980915069580078e-01
6.030000000000000000e+03 4.757492065429687500e+01 2.010389900207519531e+01 -8.006078600883483887e-01 -6.601464748382568359e-01 -4.382263123989105225e-01 -8.598222136497497559e-01
6.031000000000000000e+03 3.700433731079101562e+01 7.817041873931884766e+00 -7.661392688751220703e-01 -8.018099069595336914e-01 -4.703847467899322510e-01 -6.240609884262084961e-01
6.032000000000000000e+03 3.814269256591796875e+01 9.583816528320312500e+00 -7.699041962623596191e-01 -8.414794206619262695e-01 -4.834150671958923340e-01 -7.009146213531494141e-01
6.033000000000000000e+03 2.310544395446777344e+01 2.184183883666992188e+01 5.645383894443511963e-02 1.588771939277648926e-01 6.459931284189224243e-02 1.015135347843170166e-01
6.034000000000000000e+03 3.126099586486816406e+01 2.042001962661743164e+00 -7.900267243385314941e-01 -6.063696742057800293e-01 -4.189189374446868896e-01 -1.425678282976150513e-01
6.035000000000000000e+03 3.584417724609375000e+01 6.384355545043945312e+00 -7.951980233192443848e-01 -7.580335736274719238e-01 -4.659694731235504150e-01 -5.554672479629516602e-01
6.036000000000000000e+03 5.444683074951171875e+01 2.528729438781738281e+01 -1.002572059631347656e+00 -5.011943634599447250e-03 -3.022752106189727783e-01 -8.903242945671081543e-01
6.037000000000000000e+03 1.253964805603027344e+01 9.263528823852539062e+00 9.005950391292572021e-02 3.085499107837677002e-01 1.195828244090080261e-01 3.118925914168357849e-02
6.038000000000000000e+03 1.642160987854003906e+01 1.320444297790527344e+01 8.282672613859176636e-02 2.454971671104431152e-01 9.849716722965240479e-02 1.298356205224990845e-01
6.039000000000000000e+03 1.612103080749511719e+01 1.437005901336669922e+01 6.294490396976470947e-02 2.219294607639312744e-01 8.546230942010879517e-02 1.076167076826095581e-01
6.040000000000000000e+03 3.942095947265625000e+01 1.172556304931640625e+01 -7.857758998870849609e-01 -8.799105286598205566e-01 -4.997059404850006104e-01 -7.861745953559875488e-01
6.041000000000000000e+03 3.984165573120117188e+01 1.207868957519531250e+01 -7.753602862358093262e-01 -8.717416524887084961e-01 -4.941305816173553467e-01 -7.900690436363220215e-01
6.042000000000000000e+03 4.984154891967773438e+01 2.246251869201660156e+01 -8.992632031440734863e-01 -4.933322966098785400e-01 -4.177786409854888916e-01 -8.787298798561096191e-01
6.043000000000000000e+03 1.670539665222167969e+01 1.556977558135986328e+01 5.845497548580169678e-02 2.052169889211654663e-01 7.910159230232238770e-02 1.023908406496047974e-01
6.044000000000000000e+03 3.298255920410156250e+01 4.598927497863769531e-01 -2.426616847515106201e-01 -6.235739588737487793e-01 -2.598707079887390137e-01 -8.791005820967257023e-04
6.045000000000000000e+03 3.343064117431640625e+01 9.512532353401184082e-01 -3.282786905765533447e-01 -6.272777915000915527e-01 -2.866669595241546631e-01 -3.351229801774024963e-02
6.046000000000000000e+03 3.618969726562500000e+01 7.781884193420410156e+00 -8.385975360870361328e-01 -8.342482447624206543e-01 -5.018537044525146484e-01 -6.705030798912048340e-01
6.047000000000000000e+03 1.383075237274169922e+01 1.414180850982666016e+01 4.291886091232299805e-02 1.938894689083099365e-01 7.104250043630599976e-02 6.191635131835937500e-02
6.048000000000000000e+03 1.403804969787597656e+01 1.260156726837158203e+01 5.806750431656837463e-02 2.397689521312713623e-01 8.935093134641647339e-02 7.887069135904312134e-02
6.049000000000000000e+03 1.221900844573974609e+01 1.063904190063476562e+01 7.317527383565902710e-02 2.421753555536270142e-01 9.460518509149551392e-02 2.840690873563289642e-02
6.050000000000000000e+03 3.280271148681640625e+01 1.540465354919433594e+00 -5.065615177154541016e-01 -6.287093162536621094e-01 -3.405812680721282959e-01 -8.493526279926300049e-02
6.051000000000000000e+03 3.862967681884765625e+01 1.125593757629394531e+01 -8.224414587020874023e-01 -9.144286513328552246e-01 -5.210610628128051758e-01 -8.026397228240966797e-01
6.052000000000000000e+03 3.878812408447265625e+01 1.072959423065185547e+01 -7.895744442939758301e-01 -8.723691701889038086e-01 -4.985831081867218018e-01 -7.531751394271850586e-01
6.053000000000000000e+03 5.045209884643554688e+01 2.149517440795898438e+01 -7.750982642173767090e-01 -3.820568025112152100e-01 -3.471465110778808594e-01 -8.069382905960083008e-01
6.054000000000000000e+03 3.396945953369140625e+01 2.486820459365844727e+00 -5.894914865493774414e-01 -6.247146129608154297e-01 -3.642618358135223389e-01 -1.746274679899215698e-01
6.055000000000000000e+03 2.033665084838867188e+01 1.948221015930175781e+01 5.566912889480590820e-02 1.728974133729934692e-01 6.856996566057205200e-02 1.020889431238174438e-01
6.056000000000000000e+03 4.683413696289062500e+01 1.946369171142578125e+01 -7.774652838706970215e-01 -7.039573788642883301e-01 -4.444268047809600830e-01 -8.679237365722656250e-01
6.057000000000000000e+03 3.585587692260742188e+01 -6.968702077865600586e-01 7.728540152311325073e-02 -6.011558175086975098e-01 -1.571611315011978149e-01 2.725071646273136139e-02
6.058000000000000000e+03 3.366783142089843750e+01 -2.492713779211044312e-01 -4.627296701073646545e-02 -6.076211929321289062e-01 -1.961682438850402832e-01 2.410430647432804108e-02
6.059000000000000000e+03 3.120775413513183594e+01 1.656731128692626953e+00 -7.144256234169006348e-01 -6.210541725158691406e-01 -4.006439447402954102e-01 -1.321564167737960815e-01
6.060000000000000000e+03 3.172227859497070312e+01 1.906598329544067383e+00 -7.123994827270507812e-01 -6.260240077972412109e-01 -4.015270471572875977e-01 -1.428439170122146606e-01
6.061000000000000000e+03 1.802232933044433594e+01 1.629970550537109375e+01 6.489198654890060425e-02 1.993818134069442749e-01 7.928214222192764282e-02 1.120147481560707092e-01
6.062000000000000000e+03 3.485777282714843750e+01 4.390790939331054688e+00 -7.391053438186645508e-01 -6.699115037918090820e-01 -4.227050542831420898e-01 -3.773418664932250977e-01
6.063000000000000000e+03 3.566828536987304688e+01 5.237777709960937500e+00 -7.280607223510742188e-01 -7.032917737960815430e-01 -4.294057488441467285e-01 -4.442646503448486328e-01
6.064000000000000000e+03 5.462135314941406250e+01 2.402770805358886719e+01 -8.326746821403503418e-01 2.353359200060367584e-02 -2.427423298358917236e-01 -8.308174610137939453e-01
6.065000000000000000e+03 1.229822731018066406e+01 9.884516716003417969e+00 8.322188258171081543e-02 2.764455378055572510e-01 1.079002246260643005e-01 2.734204940497875214e-02
6.066000000000000000e+03 2.111388397216796875e+01 2.058336067199707031e+01 5.254259705543518066e-02 1.658835411071777344e-01 6.552784144878387451e-02 9.881628304719924927e-02
6.067000000000000000e+03 6.211093902587890625e+01 2.256749343872070312e+01 2.280541881918907166e-02 7.153590321540832520e-01 2.214493304491043091e-01 -2.983332276344299316e-01
6.068000000000000000e+03 3.222191238403320312e+01 1.687266230583190918e+00 -5.834408998489379883e-01 -6.030654311180114746e-01 -3.559519052505493164e-01 -9.632382541894912720e-02
6.069000000000000000e+03 5.387326812744140625e+01 2.517334747314453125e+01 -1.009481430053710938e+00 -6.181113794445991516e-02 -3.213877677917480469e-01 -8.899991512298583984e-01
6.070000000000000000e+03 5.605772781372070312e+01 2.535363578796386719e+01 -9.436829090118408203e-01 1.317154467105865479e-01 -2.435902506113052368e-01 -8.859090805053710938e-01
6.071000000000000000e+03 3.416415405273437500e+01 4.570824623107910156e+00 -8.578096628189086914e-01 -6.930490732192993164e-01 -4.652576148509979248e-01 -4.422683715820312500e-01
6.072000000000000000e+03 3.340657424926757812e+01 2.038174390792846680e+00 -5.548474192619323730e-01 -6.232740283012390137e-01 -3.534364402294158936e-01 -1.267285197973251343e-01
6.073000000000000000e+03 3.157234954833984375e+01 1.533632397651672363e+00 -6.197385787963867188e-01 -6.094062924385070801e-01 -3.687434792518615723e-01 -8.721402287483215332e-02
6.074000000000000000e+03 2.489475440979003906e+01 2.517287254333496094e+01 4.443165287375450134e-02 1.419022381305694580e-01 5.590016767382621765e-02 8.903276175260543823e-02
6.075000000000000000e+03 2.547984886169433594e+01 2.831589508056640625e+01 3.439190983772277832e-02 1.283800154924392700e-01 4.883157461881637573e-02 7.385727018117904663e-02
6.076000000000000000e+03 1.514764976501464844e+01 1.994659996032714844e+01 1.266707293689250946e-02 1.289270967245101929e-01 4.247825220227241516e-02 4.532378911972045898e-02
6.077000000000000000e+03 1.734208106994628906e+01 1.595731163024902344e+01 6.079919263720512390e-02 2.024634331464767456e-01 7.897879183292388916e-02 1.067509576678276062e-01
6.078000000000000000e+03 6.100886535644531250e+01 2.332858657836914062e+01 -1.998912990093231201e-01 5.442135334014892578e-01 1.032966747879981995e-01 -4.983623921871185303e-01
6.079000000000000000e+03 6.150574874877929688e+01 2.293172264099121094e+01 -9.049433469772338867e-02 6.216457486152648926e-01 1.593454331159591675e-01 -4.029486477375030518e-01
6.080000000000000000e+03 2.494834518432617188e+01 2.730374526977539062e+01 3.510601818561553955e-02 1.314708739519119263e-01 4.997306689620018005e-02 7.698664814233779907e-02
6.081000000000000000e+03 5.792837142944335938e+01 2.405587577819824219e+01 -6.240833997726440430e-01 2.768409848213195801e-01 -1.041727289557456970e-01 -7.632603645324707031e-01
6.082000000000000000e+03 3.671470642089843750e+01 -1.092480897903442383e+00 1.516077816486358643e-01 -5.838969349861145020e-01 -1.296867430210113525e-01 3.663386404514312744e-02
6.083000000000000000e+03 1.205200576782226562e+01 1.149247550964355469e+01 6.211550906300544739e-02 2.089517563581466675e-01 8.132018148899078369e-02 2.568191476166248322e-02
6.084000000000000000e+03 1.380405521392822266e+01 1.370661735534667969e+01 4.549530893564224243e-02 2.069358378648757935e-01 7.572934031486511230e-02 6.531682610511779785e-02
6.085000000000000000e+03 1.311544799804687500e+01 1.351544094085693359e+01 4.219538718461990356e-02 1.928602457046508789e-01 7.051669061183929443e-02 5.049623548984527588e-02
6.086000000000000000e+03 1.234219932556152344e+01 1.281585407257080078e+01 4.680307582020759583e-02 1.870209723711013794e-01 7.014721632003784180e-02 3.367343172430992126e-02
6.087000000000000000e+03 2.445598983764648438e+01 2.374343681335449219e+01 5.110677331686019897e-02 1.491299122571945190e-01 6.007100641727447510e-02 9.573565423488616943e-02
6.088000000000000000e+03 5.964485931396484375e+01 2.463403701782226562e+01 -5.588442087173461914e-01 3.484149873256683350e-01 -6.312876194715499878e-02 -7.377690076828002930e-01
6.089000000000000000e+03 6.003704071044921875e+01 2.439659500122070312e+01 -4.754730761051177979e-01 3.793043494224548340e-01 -2.885061874985694885e-02 -6.856541037559509277e-01
6.090000000000000000e+03 1.351088428497314453e+01 1.510544490814208984e+01 3.319127485156059265e-02 1.726818680763244629e-01 6.176194176077842712e-02 4.961447790265083313e-02
6.091000000000000000e+03 6.297530364990234375e+01 5.635857582092285156e+00 4.122184514999389648e-01 2.424401044845581055e+00 8.509858846664428711e-01 5.867717862129211426e-01
6.092000000000000000e+03 5.887391662597656250e+01 2.386447906494140625e+01 -5.163215994834899902e-01 3.396121561527252197e-01 -5.301282182335853577e-02 -7.087591886520385742e-01
6.093000000000000000e+03 7.169813537597656250e+01 2.628205680847167969e+01 4.888339638710021973e-01 3.232376813888549805e+00 1.116363167762756348e+00 1.569493532180786133e+00
6.094000000000000000e+03 5.567630386352539062e+01 2.467423820495605469e+01 -8.686479330062866211e-01 1.084316819906234741e-01 -2.280648797750473022e-01 -8.532285094261169434e-01
6.095000000000000000e+03 5.668233108520507812e+01 2.334323120117187500e+01 -6.128360033035278320e-01 2.119631320238113403e-01 -1.202618628740310669e-01 -7.453016638755798340e-01
6.096000000000000000e+03 2.500732421875000000e+01 2.310913658142089844e+01 5.887543782591819763e-02 1.513514816761016846e-01 6.306807696819305420e-02 1.020320132374763489e-01
6.097000000000000000e+03 6.164340972900390625e+01 2.186059570312500000e+01 6.206777691841125488e-02 7.451367378234863281e-01 2.421613633632659912e-01 -2.666046619415283203e-01
6.098000000000000000e+03 1.402893447875976562e+01 1.544458770751953125e+01 3.384096547961235046e-02 1.776998192071914673e-01 6.346223503351211548e-02 5.750210955739021301e-02
6.099000000000000000e+03 6.382469940185546875e+01 5.923026084899902344e+00 4.055298268795013428e-01 2.585985183715820312e+00 8.974545598030090332e-01 6.040663123130798340e-01
6.100000000000000000e+03 6.416584014892578125e+01 2.175393867492675781e+01 3.408583998680114746e-01 1.153024673461914062e+00 4.481649100780487061e-01 7.797680795192718506e-02
6.101000000000000000e+03 1.720280838012695312e+01 1.824472427368164062e+01 3.755458444356918335e-02 1.704082041978836060e-01 6.238883733749389648e-02 8.160427957773208618e-02
6.102000000000000000e+03 1.899963188171386719e+01 1.791653442382812500e+01 5.825678631663322449e-02 1.838924586772918701e-01 7.264477759599685669e-02 1.048038974404335022e-01
6.103000000000000000e+03 3.537347030639648438e+01 2.702342033386230469e+00 -4.702847599983215332e-01 -6.242417693138122559e-01 -3.283579647541046143e-01 -1.817504167556762695e-01
6.104000000000000000e+03 3.480122375488281250e+01 2.881329655647277832e-01 -1.102519556879997253e-01 -6.175827383995056152e-01 -2.183504104614257812e-01 3.067512996494770050e-03
6.105000000000000000e+03 6.650614166259765625e+01 1.457929134368896484e+01 5.995801091194152832e-01 2.786251783370971680e+00 1.015749573707580566e+00 7.999365925788879395e-01
6.106000000000000000e+03 6.528205871582031250e+01 1.256821727752685547e+01 5.400705337524414062e-01 2.581884384155273438e+00 9.365864992141723633e-01 7.024900317192077637e-01
6.107000000000000000e+03 6.521096801757812500e+01 2.211281967163085938e+01 4.238751232624053955e-01 1.321444869041442871e+00 5.235959887504577637e-01 2.230295389890670776e-01
6.108000000000000000e+03 5.985177612304687500e+01 2.385138511657714844e+01 -4.099774062633514404e-01 4.003813862800598145e-01 -2.878800500184297562e-03 -6.433079838752746582e-01
6.109000000000000000e+03 1.484446334838867188e+01 1.775169181823730469e+01 2.283898368477821350e-02 1.518480479717254639e-01 5.240610986948013306e-02 5.390814319252967834e-02
6.110000000000000000e+03 1.324662876129150391e+01 1.786609649658203125e+01 1.270456425845623016e-02 1.219001933932304382e-01 4.038142785429954529e-02 3.168201074004173279e-02
6.111000000000000000e+03 1.171441745758056641e+01 1.096305942535400391e+01 6.927134096622467041e-02 2.015780061483383179e-01 8.125480264425277710e-02 1.742750592529773712e-02
6.112000000000000000e+03 6.310171127319335938e+01 -1.998401522636413574e+00 3.174312710762023926e-01 2.608501911163330078e+00 8.777799606323242188e-01 4.933511018753051758e-01
6.113000000000000000e+03 6.195253372192382812e+01 -3.559361457824707031e+00 3.174250423908233643e-01 2.423851966857910156e+00 8.223831057548522949e-01 4.498910307884216309e-01
6.114000000000000000e+03 6.284298706054687500e+01 2.058699989318847656e+01 3.132172226905822754e-01 1.080447554588317871e+00 4.180994629859924316e-01 8.407776243984699249e-03
6.115000000000000000e+03 6.653369140625000000e+01 1.989018630981445312e+01 6.521293520927429199e-01 2.088078260421752930e+00 8.220623135566711426e-01 6.345394849777221680e-01
6.116000000000000000e+03 1.391995334625244141e+01 1.941557884216308594e+01 8.889903314411640167e-03 1.144447624683380127e-01 3.700039908289909363e-02 3.294743224978446960e-02
6.117000000000000000e+03 6.505235290527343750e+01 5.645643234252929688e+00 3.946697115898132324e-01 2.874403715133666992e+00 9.807220101356506348e-01 6.622135639190673828e-01
6.118000000000000000e+03 3.928326797485351562e+01 -2.002581119537353516e+00 2.796456515789031982e-01 -4.766024053096771240e-01 -5.908703058958053589e-02 5.438811704516410828e-02
6.119000000000000000e+03 4.589161682128906250e+01 -6.628067493438720703e+00 4.409356415271759033e-01 1.078548729419708252e-01 1.646371483802795410e-01 1.159448176622390747e-01
6.120000000000000000e+03 2.449530982971191406e+01 2.636181831359863281e+01 3.650575131177902222e-02 1.355906128883361816e-01 5.162890627980232239e-02 8.023810386657714844e-02
6.121000000000000000e+03 6.511397552490234375e+01 1.154291629791259766e+01 5.160626769065856934e-01 2.612949371337890625e+00 9.387035965919494629e-01 6.969859600067138672e-01
6.122000000000000000e+03 1.688374519348144531e+01 2.479393577575683594e+01 3.642524359747767448e-03 1.031216308474540710e-01 3.202924504876136780e-02 3.808677941560745239e-02
6.123000000000000000e+03 1.638167953491210938e+01 2.310019111633300781e+01 6.003551650792360306e-03 1.123487353324890137e-01 3.550568595528602600e-02 4.118813574314117432e-02
6.124000000000000000e+03 6.394401168823242188e+01 1.079726314544677734e+01 4.945326149463653564e-01 2.362152814865112305e+00 8.570056557655334473e-01 6.225246787071228027e-01
6.125000000000000000e+03 6.365353775024414062e+01 8.346727490425109863e-02 3.334718942642211914e-01 2.689799308776855469e+00 9.069813489913940430e-01 5.340994596481323242e-01
6.126000000000000000e+03 6.658762359619140625e+01 1.567598628997802734e+01 6.234265565872192383e-01 2.701591014862060547e+00 9.975053071975708008e-01 7.922012209892272949e-01
6.127000000000000000e+03 6.664755249023437500e+01 1.787205314636230469e+01 6.589285135269165039e-01 2.407538652420043945e+00 9.199401736259460449e-01 7.381617426872253418e-01
6.128000000000000000e+03 2.413735198974609375e+01 2.548723983764648438e+01 3.846280276775360107e-02 1.393770724534988403e-01 5.335196107625961304e-02 8.356866240501403809e-02
6.129000000000000000e+03 2.461708259582519531e+01 2.444986724853515625e+01 4.698818549513816833e-02 1.450487822294235229e-01 5.761109292507171631e-02 9.203724563121795654e-02
6.130000000000000000e+03 5.010461044311523438e+01 -1.254438400268554688e+01 3.468962609767913818e-01 7.315208911895751953e-01 3.235251605510711670e-01 1.412393301725387573e-01
6.131000000000000000e+03 2.816843605041503906e+01 3.113978004455566406e+01 4.408329352736473083e-02 1.207885965704917908e-01 4.946156591176986694e-02 6.761462241411209106e-02
6.132000000000000000e+03 2.287555313110351562e+01 2.819332313537597656e+01 2.158474735915660858e-02 1.209437251091003418e-01 4.275854304432868958e-02 6.197904422879219055e-02
6.133000000000000000e+03 6.308584594726562500e+01 -7.949507236480712891e+00 2.488318234682083130e-01 2.662321329116821289e+00 8.733459711074829102e-01 3.856351077556610107e-01
6.134000000000000000e+03 6.268296813964843750e+01 -1.583792304992675781e+01 1.517295688390731812e-01 2.641515016555786133e+00 8.379733562469482422e-01 2.631101608276367188e-01
6.135000000000000000e+03 1.547946548461914062e+01 2.099238204956054688e+01 1.013130415230989456e-02 1.216394603252410889e-01 3.953123092651367188e-02 4.294907674193382263e-02
6.136000000000000000e+03 1.471874809265136719e+01 1.900886726379394531e+01 1.502306386828422546e-02 1.341507136821746826e-01 4.475213214755058289e-02 4.478215053677558899e-02
6.137000000000000000e+03 6.545353698730468750e+01 1.466491985321044922e+01 5.891205072402954102e-01 2.436328887939453125e+00 9.076347947120666504e-01 6.906346082687377930e-01
6.138000000000000000e+03 6.438694000244140625e+01 -9.882140159606933594e+00 2.003392428159713745e-01 2.927266597747802734e+00 9.382817745208740234e-01 3.506640195846557617e-01
6.139000000000000000e+03 6.641355133056640625e+01 1.666574478149414062e+01 6.435256600379943848e-01 2.536492824554443359e+00 9.540055394172668457e-01 7.631695270538330078e-01
6.140000000000000000e+03 6.148355865478515625e+01 -4.272820949554443359e+00 3.181501626968383789e-01 2.359689235687255859e+00 8.033518791198730469e-01 4.324916601181030273e-01
6.141000000000000000e+03 1.636113548278808594e+01 2.876045036315917969e+01 -4.390855319797992706e-03 7.146079838275909424e-02 2.012098208069801331e-02 2.356171049177646637e-02
6.142000000000000000e+03 1.459056949615478516e+01 2.842126846313476562e+01 -8.707781322300434113e-03 4.945708438754081726e-02 1.222479157149791718e-02 1.143486332148313522e-02
6.143000000000000000e+03 4.513777542114257812e+01 -5.823301792144775391e+00 4.438134431838989258e-01 2.234247140586376190e-02 1.398467719554901123e-01 1.072635725140571594e-01
6.144000000000000000e+03 4.333348464965820312e+01 -4.468950748443603516e+00 4.131326675415039062e-01 -1.679651588201522827e-01 7.355025410652160645e-02 9.094476699829101562e-02
6.145000000000000000e+03 4.096033096313476562e+01 -3.719546079635620117e+00 3.924401700496673584e-01 -3.682446777820587158e-01 7.258644793182611465e-03 6.881869584321975708e-02
6.146000000000000000e+03 4.579058837890625000e+01 -8.346004486083984375e+00 4.460664093494415283e-01 1.322462558746337891e-01 1.734938025474548340e-01 9.909063577651977539e-02
6.147000000000000000e+03 6.410217285156250000e+01 -8.409179687500000000e+00 2.224267423152923584e-01 2.848196029663085938e+00 9.211868643760681152e-01 3.759852647781372070e-01
6.148000000000000000e+03 5.567941284179687500e+01 -1.586773204803466797e+01 2.186833769083023071e-01 1.575701713562011719e+00 5.383155345916748047e-01 2.002394944429397583e-01
6.149000000000000000e+03 5.434432601928710938e+01 -1.555602455139160156e+01 2.381020784378051758e-01 1.375770330429077148e+00 4.841617047786712646e-01 1.819624453783035278e-01
6.150000000000000000e+03 6.227688598632812500e+01 -1.731692886352539062e+01 1.325108557939529419e-01 2.582849979400634766e+00 8.146082162857055664e-01 2.425584793090820312e-01
6.151000000000000000e+03 5.213444137573242188e+01 -1.341786193847656250e+01 3.077601790428161621e-01 1.017348885536193848e+00 3.975327312946319580e-01 1.610520184040069580e-01
6.152000000000000000e+03 6.187896347045898438e+01 -1.873684120178222656e+01 1.154492720961570740e-01 2.537995576858520508e+00 7.960334420204162598e-01 2.303481698036193848e-01
6.153000000000000000e+03 6.285550689697265625e+01 9.200279712677001953e-01 3.545401096343994141e-01 2.520264625549316406e+00 8.624414205551147461e-01 5.313491225242614746e-01
6.154000000000000000e+03 5.303915786743164062e+01 -1.521142673492431641e+01 2.571132183074951172e-01 1.177462697029113770e+00 4.303727746009826660e-01 1.627821922302246094e-01
6.155000000000000000e+03 5.673020553588867188e+01 -1.778322601318359375e+01 1.697717010974884033e-01 1.759485125541687012e+00 5.787770152091979980e-01 2.006349712610244751e-01
6.156000000000000000e+03 5.702006912231445312e+01 -1.614672660827636719e+01 2.018650472164154053e-01 1.778472304344177246e+00 5.941011905670166016e-01 2.171450704336166382e-01
6.157000000000000000e+03 5.937074279785156250e+01 -1.820825004577636719e+01 1.511393487453460693e-01 2.138966798782348633e+00 6.870318651199340820e-01 2.254137545824050903e-01
6.158000000000000000e+03 6.068395996093750000e+01 -2.100704383850097656e+01 1.014150753617286682e-01 2.363960981369018555e+00 7.396128773689270020e-01 2.106816321611404419e-01
6.159000000000000000e+03 6.308217239379882812e+01 -1.923983573913574219e+01 1.078975275158882141e-01 2.716068983078002930e+00 8.471899628639221191e-01 2.347202599048614502e-01
6.160000000000000000e+03 5.106143569946289062e+01 -1.193070220947265625e+01 3.512294590473175049e-01 8.496859073638916016e-01 3.602746129035949707e-01 1.570994704961776733e-01
6.161000000000000000e+03 3.195467948913574219e+01 4.094983673095703125e+01 6.845375895500183105e-02 9.813715517520904541e-02 4.997727274894714355e-02 1.156381797045469284e-02
6.162000000000000000e+03 1.819318962097167969e+01 -2.636039352416992188e+01 2.058915644884109497e-01 -1.666482090950012207e-01 1.177300605922937393e-02 -2.630940377712249756e-01
6.163000000000000000e+03 1.680573272705078125e+01 -2.733893013000488281e+01 1.929755359888076782e-01 -2.574884295463562012e-01 -1.935386843979358673e-02 -2.666083872318267822e-01
6.164000000000000000e+03 1.265863990783691406e+01 -2.835832786560058594e+01 1.433345824480056763e-01 -5.178128480911254883e-01 -1.123434826731681824e-01 -2.298017740249633789e-01
6.165000000000000000e+03 6.451590728759765625e+01 -1.480928802490234375e+01 1.393360048532485962e-01 2.929870843887329102e+00 9.207620620727539062e-01 2.823677659034729004e-01
6.166000000000000000e+03 4.790663909912109375e+01 -1.114655971527099609e+01 3.899036645889282227e-01 4.190010428428649902e-01 2.426714003086090088e-01 1.136502847075462341e-01
6.167000000000000000e+03 4.709425354003906250e+01 1.901365089416503906e+01 -7.269985675811767578e-01 -6.506441235542297363e-01 -4.132927954196929932e-01 -8.306981325149536133e-01
6.168000000000000000e+03 4.258434677124023438e+01 1.432110118865966797e+01 -7.106485962867736816e-01 -7.839009165763854980e-01 -4.483648538589477539e-01 -8.044400811195373535e-01
6.169000000000000000e+03 4.709338760375976562e+01 2.022069549560546875e+01 -8.304207921028137207e-01 -7.148078083992004395e-01 -4.635685682296752930e-01 -8.882452845573425293e-01
6.170000000000000000e+03 4.663814544677734375e+01 1.851599884033203125e+01 -7.148535847663879395e-01 -6.694642901420593262e-01 -4.152953624725341797e-01 -8.307577967643737793e-01
6.171000000000000000e+03 4.852952957153320312e+01 2.092866516113281250e+01 -8.225330114364624023e-01 -5.864717364311218262e-01 -4.227014183998107910e-01 -8.573635220527648926e-01
6.172000000000000000e+03 5.075503158569335938e+01 2.389978790283203125e+01 -9.899007678031921387e-01 -4.298381507396697998e-01 -4.259216785430908203e-01 -9.066845178604125977e-01
6.173000000000000000e+03 4.573037719726562500e+01 1.820851325988769531e+01 -7.365621924400329590e-01 -7.426527738571166992e-01 -4.437644779682159424e-01 -8.628890514373779297e-01
6.174000000000000000e+03 4.636148834228515625e+01 1.821749305725097656e+01 -7.060166597366333008e-01 -6.826496124267578125e-01 -4.165998697280883789e-01 -8.277833461761474609e-01
6.175000000000000000e+03 5.291424942016601562e+01 2.476025390625000000e+01 -9.972264170646667480e-01 -1.738075762987136841e-01 -3.513101935386657715e-01 -8.846532702445983887e-01
6.176000000000000000e+03 5.247594070434570312e+01 2.464201736450195312e+01 -1.001981973648071289e+00 -2.281122207641601562e-01 -3.690282404422760010e-01 -8.886765837669372559e-01
6.177000000000000000e+03 4.178563690185546875e+01 1.439013862609863281e+01 -7.687615752220153809e-01 -8.459252715110778809e-01 -4.844060540199279785e-01 -8.484893441200256348e-01
6.178000000000000000e+03 4.547363662719726562e+01 1.790849304199218750e+01 -7.302749156951904297e-01 -7.510358095169067383e-01 -4.443932175636291504e-01 -8.634960651397705078e-01
6.179000000000000000e+03 4.671308517456054688e+01 1.793599510192871094e+01 -6.674853563308715820e-01 -6.305081248283386230e-01 -3.893980383872985840e-01 -7.945936918258666992e-01
6.180000000000000000e+03 5.109385681152343750e+01 2.330777359008789062e+01 -9.265236258506774902e-01 -3.693675100803375244e-01 -3.887673318386077881e-01 -8.699969649314880371e-01
6.181000000000000000e+03 4.487963867187500000e+01 1.691728782653808594e+01 -7.053761482238769531e-01 -7.457493543624877930e-01 -4.353376626968383789e-01 -8.444216847419738770e-01
6.182000000000000000e+03 4.303851699829101562e+01 1.515547084808349609e+01 -7.224628329277038574e-01 -7.906168699264526367e-01 -4.539239108562469482e-01 -8.359639048576354980e-01
6.183000000000000000e+03 4.560910415649414062e+01 1.735661697387695312e+01 -6.879283785820007324e-01 -7.035899758338928223e-01 -4.174554944038391113e-01 -8.243924379348754883e-01
6.184000000000000000e+03 4.409912490844726562e+01 1.656477928161621094e+01 -7.283971905708312988e-01 -7.896365523338317871e-01 -4.554101228713989258e-01 -8.693947792053222656e-01
6.185000000000000000e+03 4.946550750732421875e+01 2.142932701110839844e+01 -8.225750327110290527e-01 -4.982906579971313477e-01 -3.962596952915191650e-01 -8.425637483596801758e-01
6.186000000000000000e+03 4.942330932617187500e+01 2.191933631896972656e+01 -8.700627088546752930e-01 -5.229467749595642090e-01 -4.179028272628784180e-01 -8.686910867691040039e-01
6.187000000000000000e+03 4.608890151977539062e+01 1.793745040893554688e+01 -6.994218230247497559e-01 -6.924400925636291504e-01 -4.175585806369781494e-01 -8.285022974014282227e-01
6.188000000000000000e+03 3.761695861816406250e+01 8.696301460266113281e+00 -7.624233961105346680e-01 -8.190976381301879883e-01 -4.744563102722167969e-01 -6.603507399559020996e-01
6.189000000000000000e+03 3.836980056762695312e+01 8.929015159606933594e+00 -7.134681344032287598e-01 -7.912539839744567871e-01 -4.514166414737701416e-01 -6.359389424324035645e-01
6.190000000000000000e+03 4.583634567260742188e+01 1.765420150756835938e+01 -6.952688097953796387e-01 -6.988392472267150879e-01 -4.182324111461639404e-01 -8.268325328826904297e-01
6.191000000000000000e+03 3.902693939208984375e+01 1.023842239379882812e+01 -7.398678064346313477e-01 -8.271570801734924316e-01 -4.701074659824371338e-01 -7.013937234878540039e-01
6.192000000000000000e+03 3.971617889404296875e+01 1.115401840209960938e+01 -7.367411851882934570e-01 -8.304801583290100098e-01 -4.701664149761199951e-01 -7.312495112419128418e-01
6.193000000000000000e+03 4.418277740478515625e+01 1.617740440368652344e+01 -7.030573487281799316e-01 -7.592171430587768555e-01 -4.386823475360870361e-01 -8.396948575973510742e-01
6.194000000000000000e+03 4.541771316528320312e+01 1.704915618896484375e+01 -6.781841516494750977e-01 -7.010914087295532227e-01 -4.137826561927795410e-01 -8.166459798812866211e-01
6.195000000000000000e+03 4.003530502319335938e+01 1.306167602539062500e+01 -8.123104572296142578e-01 -9.112328290939331055e-01 -5.170629620552062988e-01 -8.458359837532043457e-01
6.196000000000000000e+03 4.803422164916992188e+01 2.051483345031738281e+01 -8.092178702354431152e-01 -6.271779537200927734e-01 -4.309187531471252441e-01 -8.589507341384887695e-01
6.197000000000000000e+03 5.447274017333984375e+01 2.597349548339843750e+01 -1.079880833625793457e+00 -4.413313698023557663e-03 -3.252882361412048340e-01 -9.135502576828002930e-01
6.198000000000000000e+03 5.198693847656250000e+01 2.413143539428710938e+01 -9.670392870903015137e-01 -2.784197032451629639e-01 -3.736376762390136719e-01 -8.814710974693298340e-01
6.199000000000000000e+03 5.252525329589843750e+01 2.416680717468261719e+01 -9.484102129936218262e-01 -2.099990993738174438e-01 -3.475227952003479004e-01 -8.690864443778991699e-01
6.200000000000000000e+03 4.090619277954101562e+01 1.365315723419189453e+01 -7.850450873374938965e-01 -8.756521344184875488e-01 -4.982091784477233887e-01 -8.396029472351074219e-01
6.201000000000000000e+03 3.733153152465820312e+01 5.928119182586669922e+00 -5.976253747940063477e-01 -6.838922500610351562e-01 -3.844552934169769287e-01 -4.291558563709259033e-01
6.202000000000000000e+03 3.733824157714843750e+01 8.238917350769042969e+00 -7.658114433288574219e-01 -8.073251247406005859e-01 -4.719409942626953125e-01 -6.375932097434997559e-01
6.203000000000000000e+03 4.345417785644531250e+01 1.563228034973144531e+01 -7.200366854667663574e-01 -7.861577272415161133e-01 -4.518583118915557861e-01 -8.450316786766052246e-01
6.204000000000000000e+03 4.307088470458984375e+01 1.468251705169677734e+01 -6.976122260093688965e-01 -7.659621834754943848e-01 -4.390723407268524170e-01 -8.039914965629577637e-01
6.205000000000000000e+03 2.086808013916015625e+01 1.991483306884765625e+01 5.708720535039901733e-02 1.709503233432769775e-01 6.841126084327697754e-02 1.030026376247406006e-01
6.206000000000000000e+03 2.200712394714355469e+01 2.151687622070312500e+01 5.052261799573898315e-02 1.594639420509338379e-01 6.299597024917602539e-02 9.698284417390823364e-02
6.207000000000000000e+03 4.448612976074218750e+01 1.659208869934082031e+01 -7.073987722396850586e-01 -7.567219734191894531e-01 -4.392362236976623535e-01 -8.471475243568420410e-01
6.208000000000000000e+03 4.024434661865234375e+01 1.106578636169433594e+01 -6.939738392829895020e-01 -7.867111563682556152e-01 -4.442054927349090576e-01 -6.951091885566711426e-01
6.209000000000000000e+03 4.377453994750976562e+01 1.613162422180175781e+01 -7.259402275085449219e-01 -7.907260060310363770e-01 -4.549998641014099121e-01 -8.598479628562927246e-01
6.210000000000000000e+03 3.860724639892578125e+01 9.379236221313476562e+00 -7.235943675041198730e-01 -8.034031987190246582e-01 -4.580992758274078369e-01 -6.579976677894592285e-01
6.211000000000000000e+03 3.883402252197265625e+01 9.810894012451171875e+00 -7.288737297058105469e-01 -8.149637579917907715e-01 -4.631512463092803955e-01 -6.786936521530151367e-01
6.212000000000000000e+03 3.862497711181640625e+01 1.036855316162109375e+01 -7.783640027046203613e-01 -8.635596632957458496e-01 -4.925771057605743408e-01 -7.385234832763671875e-01
6.213000000000000000e+03 4.998089218139648438e+01 2.095335197448730469e+01 -7.506862878799438477e-01 -4.173439443111419678e-01 -3.504090607166290283e-01 -7.967708706855773926e-01
6.214000000000000000e+03 3.914382553100585938e+01 1.067155361175537109e+01 -7.531287670135498047e-01 -8.451912403106689453e-01 -4.794960021972656250e-01 -7.269705533981323242e-01
6.215000000000000000e+03 3.900041198730468750e+01 1.102030277252197266e+01 -7.792452573776245117e-01 -8.723861575126647949e-01 -4.954894185066223145e-01 -7.620507478713989258e-01
6.216000000000000000e+03 1.496018314361572266e+01 1.480989933013916016e+01 4.560461267828941345e-02 2.017704397439956665e-01 7.421251386404037476e-02 7.986196130514144897e-02
6.217000000000000000e+03 5.064560699462890625e+01 2.320694923400878906e+01 -9.339877367019653320e-01 -4.164696633815765381e-01 -4.051372408866882324e-01 -8.821192979812622070e-01
6.218000000000000000e+03 1.653202819824218750e+01 1.364236545562744141e+01 7.720789313316345215e-02 2.373617887496948242e-01 9.437090158462524414e-02 1.257503479719161987e-01
6.219000000000000000e+03 1.632923316955566406e+01 1.481068801879882812e+01 6.185839325189590454e-02 2.148052901029586792e-01 8.299910277128219604e-02 1.047336459159851074e-01
6.220000000000000000e+03 1.601614761352539062e+01 1.274398803710937500e+01 8.029233664274215698e-02 2.541190385818481445e-01 1.003234088420867920e-01 1.283348947763442993e-01
6.221000000000000000e+03 1.354489707946777344e+01 1.278231716156005859e+01 5.009599402546882629e-02 2.224297225475311279e-01 8.175771683454513550e-02 6.463919579982757568e-02
6.222000000000000000e+03 1.685682106018066406e+01 1.608026313781738281e+01 5.331194773316383362e-02 1.995277404785156250e-01 7.585190981626510620e-02 9.892421960830688477e-02
6.223000000000000000e+03 1.469765853881835938e+01 1.292922019958496094e+01 6.208148226141929626e-02 2.404044568538665771e-01 9.074578434228897095e-02 9.289373457431793213e-02
6.224000000000000000e+03 1.592701530456542969e+01 1.325650405883789062e+01 7.306297868490219116e-02 2.444317489862442017e-01 9.524841606616973877e-02 1.185452044010162354e-01
6.225000000000000000e+03 3.813230133056640625e+01 8.442692756652832031e+00 -7.054332494735717773e-01 -7.760831713676452637e-01 -4.444549083709716797e-01 -6.075479984283447266e-01
6.226000000000000000e+03 3.663127517700195312e+01 6.682513236999511719e+00 -7.377836704254150391e-01 -7.477875947952270508e-01 -4.456714093685150146e-01 -5.378297567367553711e-01
6.227000000000000000e+03 3.519631576538085938e+01 4.852787971496582031e+00 -7.538757324218750000e-01 -6.858180761337280273e-01 -4.319081306457519531e-01 -4.214536249637603760e-01
6.228000000000000000e+03 3.705310821533203125e+01 5.595194816589355469e+00 -6.150342226028442383e-01 -6.795262098312377930e-01 -3.883681297302246094e-01 -4.125044345855712891e-01
6.229000000000000000e+03 3.285002136230468750e+01 2.107843160629272461e+00 -6.205453276634216309e-01 -6.143224239349365234e-01 -3.704603314399719238e-01 -1.422674357891082764e-01
6.230000000000000000e+03 1.978058052062988281e+01 1.961388587951660156e+01 4.937952384352684021e-02 1.706154048442840576e-01 6.599847972393035889e-02 9.574038535356521606e-02
6.231000000000000000e+03 1.603405189514160156e+01 1.969365310668945312e+01 1.926668547093868256e-02 1.427453607320785522e-01 4.860361292958259583e-02 5.603691563010215759e-02
6.232000000000000000e+03 1.190050888061523438e+01 9.611776351928710938e+00 9.126807749271392822e-02 2.514594793319702148e-01 1.028182730078697205e-01 1.140222884714603424e-02
6.233000000000000000e+03 2.450409889221191406e+01 2.312455749511718750e+01 5.564503371715545654e-02 1.512121260166168213e-01 6.205714866518974304e-02 9.983279556035995483e-02
6.234000000000000000e+03 4.743253326416015625e+01 2.037482833862304688e+01 -8.263765573501586914e-01 -6.847070455551147461e-01 -4.533250927925109863e-01 -8.790221214294433594e-01
6.235000000000000000e+03 5.504216384887695312e+01 2.587470245361328125e+01 -1.049293160438537598e+00 5.199129879474639893e-02 -2.991905510425567627e-01 -9.095488190650939941e-01
6.236000000000000000e+03 3.129127502441406250e+01 1.300277709960937500e+00 -5.803094506263732910e-01 -5.934627652168273926e-01 -3.521316647529602051e-01 -7.443021237850189209e-02
6.237000000000000000e+03 6.445381927490234375e+01 1.822695159912109375e+01 5.534676313400268555e-01 1.756205439567565918e+00 6.929019093513488770e-01 4.275276660919189453e-01
6.238000000000000000e+03 3.457584381103515625e+01 3.423619985580444336e+00 -6.605311632156372070e-01 -6.403831243515014648e-01 -3.902742862701416016e-01 -2.745175659656524658e-01
6.239000000000000000e+03 5.019559097290039062e+01 2.303557395935058594e+01 -9.388397932052612305e-01 -4.738179445266723633e-01 -4.237973093986511230e-01 -8.906903862953186035e-01
6.240000000000000000e+03 2.076813888549804688e+01 2.119072151184082031e+01 4.361834377050399780e-02 1.596475839614868164e-01 6.097977980971336365e-02 9.107692539691925049e-02
6.241000000000000000e+03 2.067542076110839844e+01 2.034564590454101562e+01 5.111902207136154175e-02 1.663492769002914429e-01 6.524048745632171631e-02 9.737378358840942383e-02
6.242000000000000000e+03 1.900972747802734375e+01 1.851609611511230469e+01 5.204927176237106323e-02 1.790870577096939087e-01 6.934089958667755127e-02 9.909317642450332642e-02
6.243000000000000000e+03 1.675593948364257812e+01 1.777524375915527344e+01 3.779017552733421326e-02 1.728468388319015503e-01 6.319110840559005737e-02 7.950752973556518555e-02
6.244000000000000000e+03 5.622967910766601562e+01 2.478166770935058594e+01 -8.530721068382263184e-01 1.469364315271377563e-01 -2.118407040834426880e-01 -8.545257449150085449e-01
6.245000000000000000e+03 5.555990219116210938e+01 2.526646041870117188e+01 -9.545107483863830566e-01 9.329220652580261230e-02 -2.583655714988708496e-01 -8.847377896308898926e-01
6.246000000000000000e+03 6.377154541015625000e+01 1.763092231750488281e+01 5.197702050209045410e-01 1.654116511344909668e+00 6.521660089492797852e-01 3.739800155162811279e-01
6.247000000000000000e+03 6.348944473266601562e+01 2.200333213806152344e+01 2.513937354087829590e-01 9.910118579864501953e-01 3.727216720581054688e-01 -4.719336703419685364e-02
6.248000000000000000e+03 3.342190933227539062e+01 2.566864967346191406e+00 -6.492950320243835449e-01 -6.230574846267700195e-01 -3.817057609558105469e-01 -1.900776624679565430e-01
6.249000000000000000e+03 1.429798984527587891e+01 1.361000919342041016e+01 5.072416737675666809e-02 2.183938473463058472e-01 8.073540031909942627e-02 7.659349590539932251e-02
6.250000000000000000e+03 3.402037811279296875e+01 8.493647575378417969e-01 -2.492487877607345581e-01 -6.072840690612792969e-01 -2.569598555564880371e-01 -3.706813976168632507e-02
6.251000000000000000e+03 1.555185413360595703e+01 1.616502189636230469e+01 3.919089958071708679e-02 1.847408711910247803e-01 6.717953085899353027e-02 7.776803523302078247e-02
6.252000000000000000e+03 3.403322601318359375e+01 2.986437320709228516e+00 -6.444099545478820801e-01 -6.278644800186157227e-01 -3.816823065280914307e-01 -2.257077991962432861e-01
6.253000000000000000e+03 3.673712921142578125e+01 4.144558012485504150e-01 -3.106680512428283691e-02 -5.761317014694213867e-01 -1.821595430374145508e-01 -6.333842175081372261e-04
6.254000000000000000e+03 3.834817504882812500e+01 -1.428942441940307617e+00 2.162949442863464355e-01 -5.199950933456420898e-01 -9.111005067825317383e-02 4.621796682476997375e-02
6.255000000000000000e+03 3.740019226074218750e+01 -8.613437414169311523e-01 1.353388428688049316e-01 -5.606907010078430176e-01 -1.276055574417114258e-01 3.427083790302276611e-02
6.256000000000000000e+03 5.454796218872070312e+01 2.463545799255371094e+01 -9.120979905128479004e-01 1.168752461671829224e-02 -2.701231241226196289e-01 -8.630559444427490234e-01
6.257000000000000000e+03 1.383983707427978516e+01 1.751880645751953125e+01 1.817082054913043976e-02 1.386391520500183105e-01 4.704299196600914001e-02 4.094243049621582031e-02
6.258000000000000000e+03 1.440609264373779297e+01 1.708842086791992188e+01 2.346499264240264893e-02 1.543363183736801147e-01 5.334039404988288879e-02 5.227177962660789490e-02
6.259000000000000000e+03 6.097181320190429688e+01 2.234617614746093750e+01 -7.340285927057266235e-02 6.309846043586730957e-01 1.672745198011398315e-01 -3.868748843669891357e-01
6.260000000000000000e+03 1.919488525390625000e+01 2.820789718627929688e+01 4.968327935785055161e-03 1.020034849643707275e-01 3.209154307842254639e-02 4.098239168524742126e-02
6.261000000000000000e+03 2.396001243591308594e+01 2.779181480407714844e+01 2.762450650334358215e-02 1.274824291467666626e-01 4.653207957744598389e-02 6.948715448379516602e-02
6.262000000000000000e+03 1.517733097076416016e+01 1.551770973205566406e+01 4.232746362686157227e-02 1.915006786584854126e-01 7.014844566583633423e-02 7.613057643175125122e-02
6.263000000000000000e+03 6.469335174560546875e+01 1.935794258117675781e+01 5.415524840354919434e-01 1.654725551605224609e+00 6.588833928108215332e-01 3.870587050914764404e-01
6.264000000000000000e+03 6.541458129882812500e+01 1.710841751098632812e+01 6.133453845977783203e-01 2.173197507858276367e+00 8.359628915786743164e-01 6.142102479934692383e-01
6.265000000000000000e+03 6.440955352783203125e+01 2.086645698547363281e+01 4.581997096538543701e-01 1.359713912010192871e+00 5.453740954399108887e-01 2.195876985788345337e-01
6.266000000000000000e+03 2.446744155883789062e+01 2.235084915161132812e+01 6.192801520228385925e-02 1.553132086992263794e-01 6.517236679792404175e-02 1.049369573593139648e-01
6.267000000000000000e+03 1.850021553039550781e+01 1.728243827819824219e+01 5.899973958730697632e-02 1.893721818923950195e-01 7.451158016920089722e-02 1.057118922472000122e-01
6.268000000000000000e+03 1.837543487548828125e+01 1.786008453369140625e+01 5.233898013830184937e-02 1.835047453641891479e-01 7.075311988592147827e-02 9.892078489065170288e-02
6.269000000000000000e+03 3.443594360351562500e+01 -4.532783851027488708e-02 -6.898514181375503540e-02 -6.073028445243835449e-01 -2.028863877058029175e-01 1.010957919061183929e-02
6.270000000000000000e+03 1.424312686920166016e+01 1.822110748291015625e+01 1.607748121023178101e-02 1.361004710197448730e-01 4.565338417887687683e-02 4.333018884062767029e-02
6.271000000000000000e+03 6.277737426757812500e+01 3.441579818725585938e+00 3.842828571796417236e-01 2.437178611755371094e+00 8.464384078979492188e-01 5.554769039154052734e-01
6.272000000000000000e+03 6.539306640625000000e+01 1.360826492309570312e+01 5.619103312492370605e-01 2.528892517089843750e+00 9.272408485412597656e-01 7.041849493980407715e-01
6.273000000000000000e+03 6.441639709472656250e+01 1.368321609497070312e+01 5.529408454895019531e-01 2.254467725753784180e+00 8.422226309776306152e-01 6.178903579711914062e-01
6.274000000000000000e+03 5.834328079223632812e+01 2.346177864074707031e+01 -4.907784759998321533e-01 3.265567123889923096e-01 -4.926653206348419189e-02 -6.969510316848754883e-01
6.275000000000000000e+03 4.578200912475585938e+01 -5.067693233489990234e+00 4.253512322902679443e-01 7.326178997755050659e-02 1.495839059352874756e-01 1.214412003755569458e-01
6.276000000000000000e+03 5.881085968017578125e+01 2.289219856262207031e+01 -3.649592697620391846e-01 3.963616788387298584e-01 9.420716203749179840e-03 -6.163587570190429688e-01
6.277000000000000000e+03 5.931225967407226562e+01 2.427228546142578125e+01 -5.410717129707336426e-01 3.428024351596832275e-01 -5.948078259825706482e-02 -7.180348038673400879e-01
6.278000000000000000e+03 2.355811691284179688e+01 2.256166267395019531e+01 5.353743955492973328e-02 1.545224040746688843e-01 6.241795048117637634e-02 9.905550628900527954e-02
6.279000000000000000e+03 2.185559082031250000e+01 2.209448242187500000e+01 4.500831663608551025e-02 1.564759463071823120e-01 6.044527888298034668e-02 9.193886071443557739e-02
6.280000000000000000e+03 6.535920715332031250e+01 1.991475105285644531e+01 5.746196508407592773e-01 1.742362022399902344e+00 6.950945258140563965e-01 4.508612155914306641e-01
6.281000000000000000e+03 4.264674377441406250e+01 -4.120444774627685547e+00 4.158250689506530762e-01 -2.275778502225875854e-01 5.647416412830352783e-02 7.962357997894287109e-02
6.282000000000000000e+03 4.389213943481445312e+01 -5.525742530822753906e+00 4.443771541118621826e-01 -1.098003461956977844e-01 1.003730371594429016e-01 8.690217137336730957e-02
6.283000000000000000e+03 6.328983306884765625e+01 2.499585866928100586e+00 3.666876852512359619e-01 2.574880838394165039e+00 8.824705481529235840e-01 5.603928565979003906e-01
6.284000000000000000e+03 4.765634918212890625e+01 -8.790398597717285156e+00 4.258524477481842041e-01 3.501042127609252930e-01 2.327869981527328491e-01 1.254989504814147949e-01
6.285000000000000000e+03 4.848631286621093750e+01 -9.971481323242187500e+00 4.055145978927612305e-01 4.745801687240600586e-01 2.640284299850463867e-01 1.264322251081466675e-01
6.286000000000000000e+03 6.267594146728515625e+01 -6.336516857147216797e+00 2.766276597976684570e-01 2.584437847137451172e+00 8.583196401596069336e-01 4.125366508960723877e-01
6.287000000000000000e+03 6.257654571533203125e+01 -9.184000968933105469e+00 2.414442747831344604e-01 2.593797206878662109e+00 8.505724072456359863e-01 3.625190258026123047e-01
6.288000000000000000e+03 4.401212310791015625e+01 -4.739197254180908203e+00 4.292497932910919189e-01 -1.166926175355911255e-01 9.376715123653411865e-02 9.805580973625183105e-02
6.289000000000000000e+03 4.239862823486328125e+01 -3.091905355453491211e+00 3.730789124965667725e-01 -2.572705447673797607e-01 3.474250808358192444e-02 7.779185473918914795e-02
6.290000000000000000e+03 6.452634429931640625e+01 6.377840042114257812e+00 4.074440896511077881e-01 2.737073183059692383e+00 9.433551430702209473e-01 6.499087810516357422e-01
6.291000000000000000e+03 6.324723052978515625e+01 8.944773674011230469e+00 4.609006941318511963e-01 2.304391145706176758e+00 8.295875787734985352e-01 5.951766967773437500e-01
6.292000000000000000e+03 1.600255393981933594e+01 1.883336830139160156e+01 2.381316199898719788e-02 1.523800492286682129e-01 5.285796150565147400e-02 6.145174056291580200e-02
6.293000000000000000e+03 5.987372207641601562e+01 2.267676162719726562e+01 -2.428185939788818359e-01 4.873528480529785156e-01 7.336027920246124268e-02 -5.294581651687622070e-01
6.294000000000000000e+03 6.047783279418945312e+01 2.359532737731933594e+01 -3.148963749408721924e-01 4.663988351821899414e-01 4.545073956251144409e-02 -5.795410275459289551e-01
6.295000000000000000e+03 6.417594909667968750e+01 1.174680519104003906e+01 5.143995285034179688e-01 2.351577043533325195e+00 8.597930073738098145e-01 6.282390356063842773e-01
6.296000000000000000e+03 6.558122253417968750e+01 1.815352630615234375e+01 6.102828383445739746e-01 2.053007364273071289e+00 7.989870309829711914e-01 5.843407511711120605e-01
6.297000000000000000e+03 6.557244873046875000e+01 1.566207695007324219e+01 6.033233404159545898e-01 2.363378763198852539e+00 8.900105953216552734e-01 6.825448274612426758e-01
6.298000000000000000e+03 1.634436035156250000e+01 1.734160804748535156e+01 3.680749982595443726e-02 1.764988452196121216e-01 6.399190425872802734e-02 7.846885919570922852e-02
6.299000000000000000e+03 5.875322341918945312e+01 -2.053462982177734375e+00 3.713377714157104492e-01 1.824264526367187500e+00 6.586806774139404297e-01 4.097949564456939697e-01
6.300000000000000000e+03 6.092568588256835938e+01 -5.093514919281005859e+00 3.168718516826629639e-01 2.281675815582275391e+00 7.795643210411071777e-01 4.147206544876098633e-01
6.301000000000000000e+03 6.424884033203125000e+01 8.557852745056152344e+00 4.528692066669464111e-01 2.558595180511474609e+00 9.034392833709716797e-01 6.409963369369506836e-01
6.302000000000000000e+03 6.199989318847656250e+01 -8.313601613044738770e-01 3.461239933967590332e-01 2.396061420440673828e+00 8.226555585861206055e-01 4.929037094116210938e-01
6.303000000000000000e+03 2.705068778991699219e+01 3.034523010253906250e+01 3.886145353317260742e-02 1.226581856608390808e-01 4.845589026808738708e-02 6.853550672531127930e-02
6.304000000000000000e+03 2.512763977050781250e+01 3.021509552001953125e+01 2.807190455496311188e-02 1.199045702815055847e-01 4.439294338226318359e-02 6.239793822169303894e-02
6.305000000000000000e+03 2.839708518981933594e+01 3.529553985595703125e+01 4.096807166934013367e-02 1.092806011438369751e-01 4.507460072636604309e-02 4.513848572969436646e-02
6.306000000000000000e+03 2.629649543762207031e+01 3.423940658569335938e+01 3.160934150218963623e-02 1.096188277006149292e-01 4.236844927072525024e-02 4.486539214849472046e-02
6.307000000000000000e+03 1.668047332763671875e+01 2.165396881103515625e+01 1.424509659409523010e-02 1.304832100868225098e-01 4.341849312186241150e-02 5.216844752430915833e-02
6.308000000000000000e+03 1.717513275146484375e+01 2.258712196350097656e+01 1.275698654353618622e-02 1.264291256666183472e-01 4.175583273172378540e-02 5.139559134840965271e-02
6.309000000000000000e+03 1.964731407165527344e+01 2.522064399719238281e+01 1.513908524066209793e-02 1.251419782638549805e-01 4.208431765437126160e-02 5.714277923107147217e-02
6.310000000000000000e+03 3.999985885620117188e+01 -1.843725442886352539e+00 2.731679379940032959e-01 -4.412289261817932129e-01 -5.041829869151115417e-02 4.987414181232452393e-02
6.311000000000000000e+03 4.050325012207031250e+01 -3.084465026855468750e+00 3.610823452472686768e-01 -4.006575345993041992e-01 -1.187255978584289551e-02 6.134308502078056335e-02
6.312000000000000000e+03 6.353941345214843750e+01 -1.276403522491455078e+01 1.793706417083740234e-01 2.760019302368164062e+00 8.818169832229614258e-01 3.054637610912322998e-01
6.313000000000000000e+03 5.232553100585937500e+01 -1.200545978546142578e+01 3.354208767414093018e-01 1.019254446029663086e+00 4.064025878906250000e-01 1.841112375259399414e-01
6.314000000000000000e+03 4.957337951660156250e+01 -1.052771091461181641e+01 3.837928771972656250e-01 6.242933869361877441e-01 3.024258613586425781e-01 1.416688263416290283e-01
6.315000000000000000e+03 4.680846786499023438e+01 -7.553470611572265625e+00 4.443984031677246094e-01 2.348121553659439087e-01 2.037631720304489136e-01 1.215324997901916504e-01
6.316000000000000000e+03 6.175130462646484375e+01 -5.774502277374267578e+00 2.973402738571166992e-01 2.422825813293457031e+00 8.160498142242431641e-01 4.159666895866394043e-01
6.317000000000000000e+03 4.910517883300781250e+01 -1.179554557800292969e+01 3.724554479122161865e-01 5.997878909111022949e-01 2.916730046272277832e-01 1.275852620601654053e-01
6.318000000000000000e+03 1.791665840148925781e+01 2.787444114685058594e+01 9.218071354553103447e-04 9.347210824489593506e-02 2.831817418336868286e-02 3.454531729221343994e-02
6.319000000000000000e+03 6.640052032470703125e+01 7.867840766906738281e+00 4.168100059032440186e-01 3.142306327819824219e+00 1.067734837532043457e+00 7.315187454223632812e-01
6.320000000000000000e+03 6.385760116577148438e+01 7.607277393341064453e+00 4.319382011890411377e-01 2.503962755203247070e+00 8.807702660560607910e-01 6.239877343177795410e-01
6.321000000000000000e+03 6.499036407470703125e+01 7.193642139434814453e+00 4.233289659023284912e-01 2.819673299789428711e+00 9.729006886482238770e-01 6.689597368240356445e-01
6.322000000000000000e+03 2.190921783447265625e+01 2.996998405456542969e+01 1.251221634447574615e-02 1.078372448682785034e-01 3.610483929514884949e-02 4.870286211371421814e-02
6.323000000000000000e+03 6.139527893066406250e+01 -8.764031410217285156e+00 2.683957815170288086e-01 2.392541170120239258e+00 7.982810735702514648e-01 3.599448502063751221e-01
6.324000000000000000e+03 6.354688644409179688e+01 -1.054357051849365234e+01 2.085549980401992798e-01 2.756791114807128906e+00 8.896038532257080078e-01 3.390554189682006836e-01
6.325000000000000000e+03 2.358070373535156250e+01 2.672649192810058594e+01 2.974567934870719910e-02 1.316469609737396240e-01 4.841779172420501709e-02 7.366890460252761841e-02
6.326000000000000000e+03 2.388047599792480469e+01 2.467368698120117188e+01 4.135497659444808960e-02 1.436715126037597656e-01 5.550794675946235657e-02 8.673630654811859131e-02
6.327000000000000000e+03 6.233547973632812500e+01 -1.064388656616210938e+01 2.283423244953155518e-01 2.572464704513549805e+00 8.402420878410339355e-01 3.338772356510162354e-01
6.328000000000000000e+03 6.175355911254882812e+01 2.994832277297973633e+00 3.868018984794616699e-01 2.243041992187500000e+00 7.889531850814819336e-01 5.240807533264160156e-01
6.329000000000000000e+03 6.170891952514648438e+01 3.514119088649749756e-01 3.609466850757598877e-01 2.316856384277343750e+00 8.033409118652343750e-01 5.014767050743103027e-01
6.330000000000000000e+03 4.299922561645507812e+01 -3.341066837310791016e+00 3.733069896697998047e-01 -2.091037780046463013e-01 4.926096275448799133e-02 8.679231256246566772e-02
6.331000000000000000e+03 4.013843154907226562e+01 -2.473376989364624023e+00 3.224183320999145508e-01 -4.285497367382049561e-01 -3.183941543102264404e-02 6.041044741868972778e-02
6.332000000000000000e+03 6.145085144042968750e+01 -2.003666496276855469e+01 1.064260378479957581e-01 2.485468387603759766e+00 7.775683403015136719e-01 2.181760221719741821e-01
6.333000000000000000e+03 5.178544616699218750e+01 -1.483026504516601562e+01 2.750507295131683350e-01 1.001844763755798340e+00 3.830686509609222412e-01 1.451564580202102661e-01
6.334000000000000000e+03 5.336389923095703125e+01 -1.371997451782226562e+01 2.890553176403045654e-01 1.200613498687744141e+00 4.469006359577178955e-01 1.830473542213439941e-01
6.335000000000000000e+03 5.806881332397460938e+01 -1.802496147155761719e+01 1.553051173686981201e-01 1.952854871749877930e+00 6.324480175971984863e-01 2.162411808967590332e-01
6.336000000000000000e+03 5.630945968627929688e+01 -2.584273719787597656e+01 2.566232345998287201e-02 1.767360687255859375e+00 5.379068851470947266e-01 2.097307294607162476e-01
6.337000000000000000e+03 5.771477890014648438e+01 -2.183078575134277344e+01 9.100615233182907104e-02 1.936116456985473633e+00 6.081367731094360352e-01 1.963527649641036987e-01
6.338000000000000000e+03 1.452231693267822266e+01 -2.734850311279296875e+01 1.694634407758712769e-01 -4.164885282516479492e-01 -7.410752028226852417e-02 -2.524298429489135742e-01
6.339000000000000000e+03 1.280076313018798828e+01 -2.978026580810546875e+01 1.194588765501976013e-01 -5.123252272605895996e-01 -1.178599074482917786e-01 -2.103287875652313232e-01
6.340000000000000000e+03 1.353049945831298828e+01 -3.143922805786132812e+01 1.513162851333618164e-01 -4.735178947448730469e-01 -9.666047990322113037e-02 -1.917690187692642212e-01
6.341000000000000000e+03 6.233731842041015625e+01 4.124883270263671875e+01 6.580259799957275391e-01 -4.604247808456420898e-01 5.928036198019981384e-02 1.245645135641098022e-01
6.342000000000000000e+03 7.245632171630859375e+01 -4.114833450317382812e+01 5.683105438947677612e-02 3.855973482131958008e+00 1.173841357231140137e+00 1.520073879510164261e-02
6.343000000000000000e+03 5.419048309326171875e+01 -3.057937049865722656e+01 3.260284662246704102e-02 1.506757736206054688e+00 4.618081748485565186e-01 2.625246345996856689e-01
6.344000000000000000e+03 5.189295578002929688e+01 -3.107688713073730469e+01 -4.937114659696817398e-03 1.211749672889709473e+00 3.620437681674957275e-01 2.594603896141052246e-01
6.345000000000000000e+03 2.730129241943359375e+01 4.084622955322265625e+01 3.288064524531364441e-02 9.967175126075744629e-02 3.976571932435035706e-02 9.273294359445571899e-03
6.346000000000000000e+03 4.710731124877929688e+01 1.708520507812500000e+01 -5.868839025497436523e-01 -5.471546649932861328e-01 -3.402115702629089355e-01 -7.265563011169433594e-01
6.347000000000000000e+03 4.851057815551757812e+01 2.045985412597656250e+01 -7.814201116561889648e-01 -5.659149885177612305e-01 -4.042005240917205811e-01 -8.350920081138610840e-01
6.348000000000000000e+03 3.341500473022460938e+01 1.493068218231201172e+00 -4.299481809139251709e-01 -6.009518504142761230e-01 -3.092699944972991943e-01 -7.786715775728225708e-02
6.349000000000000000e+03 4.026092910766601562e+01 1.207201671600341797e+01 -7.513664960861206055e-01 -8.404812216758728027e-01 -4.775542914867401123e-01 -7.667618393898010254e-01
6.350000000000000000e+03 5.120977020263671875e+01 2.375102615356445312e+01 -9.551224708557128906e-01 -3.627019822597503662e-01 -3.953473269939422607e-01 -8.885717391967773438e-01
6.351000000000000000e+03 4.054043197631835938e+01 1.254254150390625000e+01 -7.483215928077697754e-01 -8.459280133247375488e-01 -4.782748818397521973e-01 -7.837319374084472656e-01
6.352000000000000000e+03 4.731002426147460938e+01 1.851206588745117188e+01 -6.791267395019531250e-01 -6.009280681610107422e-01 -3.840164542198181152e-01 -7.915198206901550293e-01
6.353000000000000000e+03 4.949126815795898438e+01 2.092765617370605469e+01 -7.733013033866882324e-01 -4.743283987045288086e-01 -3.742888867855072021e-01 -8.148146867752075195e-01
6.354000000000000000e+03 4.304193878173828125e+01 1.423310661315917969e+01 -6.693279743194580078e-01 -7.427484989166259766e-01 -4.236229360103607178e-01 -7.731576561927795410e-01
6.355000000000000000e+03 3.885899734497070312e+01 8.752357482910156250e+00 -6.687609553337097168e-01 -7.521998286247253418e-01 -4.262882471084594727e-01 -5.942685604095458984e-01
6.356000000000000000e+03 4.218297958374023438e+01 1.393782806396484375e+01 -7.163727879524230957e-01 -7.959511876106262207e-01 -4.536971747875213623e-01 -7.977781891822814941e-01
6.357000000000000000e+03 4.218949890136718750e+01 1.347744941711425781e+01 -6.896975040435791016e-01 -7.731297016143798828e-01 -4.388481676578521729e-01 -7.647979855537414551e-01
6.358000000000000000e+03 5.351244354248046875e+01 2.445145225524902344e+01 -9.376296401023864746e-01 -9.791468828916549683e-02 -3.106632828712463379e-01 -8.633797168731689453e-01
6.359000000000000000e+03 5.302303314208984375e+01 2.429658317565917969e+01 -9.420706629753112793e-01 -1.538101434707641602e-01 -3.287642598152160645e-01 -8.652158975601196289e-01
6.360000000000000000e+03 4.617738723754882812e+01 1.740723609924316406e+01 -6.584156155586242676e-01 -6.549627184867858887e-01 -3.940134942531585693e-01 -7.945020198822021484e-01
6.361000000000000000e+03 5.510995864868164062e+01 2.464337348937988281e+01 -8.933325409889221191e-01 6.114141270518302917e-02 -2.496573477983474731e-01 -8.564569950103759766e-01
6.362000000000000000e+03 5.152860260009765625e+01 2.340278053283691406e+01 -9.122920632362365723e-01 -3.160882592201232910e-01 -3.685140907764434814e-01 -8.617431521415710449e-01
6.363000000000000000e+03 5.205276870727539062e+01 2.350276756286621094e+01 -8.974239230155944824e-01 -2.524127662181854248e-01 -3.449510037899017334e-01 -8.551138639450073242e-01
6.364000000000000000e+03 4.456602096557617188e+01 1.623906135559082031e+01 -6.809841394424438477e-01 -7.264106273651123047e-01 -4.222184419631958008e-01 -8.206060528755187988e-01
6.365000000000000000e+03 4.360311126708984375e+01 1.510435390472412109e+01 -6.812016963958740234e-01 -7.421720623970031738e-01 -4.270121455192565918e-01 -8.002055883407592773e-01
6.366000000000000000e+03 4.643326187133789062e+01 1.766623878479003906e+01 -6.640202999114990234e-01 -6.454109549522399902e-01 -3.928293883800506592e-01 -7.953266501426696777e-01
6.367000000000000000e+03 4.595592117309570312e+01 1.713490295410156250e+01 -6.527354717254638672e-01 -6.566954255104064941e-01 -3.928292691707611084e-01 -7.886137962341308594e-01
6.368000000000000000e+03 4.526562881469726562e+01 1.674406814575195312e+01 -6.700430512428283691e-01 -6.962716579437255859e-01 -4.098944067955017090e-01 -8.097563385963439941e-01
6.369000000000000000e+03 4.119850158691406250e+01 1.363406467437744141e+01 -7.685826420783996582e-01 -8.527331948280334473e-01 -4.863947331905364990e-01 -8.277367949485778809e-01
6.370000000000000000e+03 4.339994049072265625e+01 1.364087104797363281e+01 -6.114779114723205566e-01 -6.826831698417663574e-01 -3.882483243942260742e-01 -7.124057412147521973e-01
6.371000000000000000e+03 5.263537597656250000e+01 2.361301422119140625e+01 -8.864057660102844238e-01 -1.855051368474960327e-01 -3.215732574462890625e-01 -8.456326723098754883e-01
6.372000000000000000e+03 4.490317535400390625e+01 1.631195640563964844e+01 -6.666023135185241699e-01 -7.054911851882934570e-01 -4.116280376911163330e-01 -8.064838647842407227e-01
6.373000000000000000e+03 4.055160903930664062e+01 1.306723880767822266e+01 -7.797344326972961426e-01 -8.764524459838867188e-01 -4.968560636043548584e-01 -8.216361403465270996e-01
6.374000000000000000e+03 4.132487106323242188e+01 1.112706565856933594e+01 -6.220764517784118652e-01 -7.138339281082153320e-01 -4.007731080055236816e-01 -6.427740454673767090e-01
6.375000000000000000e+03 4.391439819335937500e+01 1.567779159545898438e+01 -6.969978809356689453e-01 -7.535582780838012695e-01 -4.351668357849121094e-01 -8.242475986480712891e-01
6.376000000000000000e+03 4.432128524780273438e+01 1.577718639373779297e+01 -6.750752329826354980e-01 -7.219876646995544434e-01 -4.191188812255859375e-01 -8.055095672607421875e-01
6.377000000000000000e+03 4.148497009277343750e+01 1.362856388092041016e+01 -7.412262558937072754e-01 -8.252112269401550293e-01 -4.699312448501586914e-01 -8.100116252899169922e-01
6.378000000000000000e+03 4.148010253906250000e+01 1.399870300292968750e+01 -7.683272957801818848e-01 -8.452750444412231445e-01 -4.840807020664215088e-01 -8.371915817260742188e-01
6.379000000000000000e+03 3.395565795898437500e+01 2.003157615661621094e+00 -4.806117117404937744e-01 -6.104890108108520508e-01 -3.273302316665649414e-01 -1.186176910996437073e-01
6.380000000000000000e+03 3.929493331909179688e+01 9.663290023803710938e+00 -6.874842643737792969e-01 -7.760816216468811035e-01 -4.390697479248046875e-01 -6.421965360641479492e-01
6.381000000000000000e+03 4.028238677978515625e+01 1.159076595306396484e+01 -7.211760282516479492e-01 -8.121597170829772949e-01 -4.600007236003875732e-01 -7.328733801841735840e-01
6.382000000000000000e+03 3.978182220458984375e+01 9.510669708251953125e+00 -6.379349827766418457e-01 -7.361317276954650879e-01 -4.122200310230255127e-01 -6.036396026611328125e-01
6.383000000000000000e+03 3.907896804809570312e+01 9.210284233093261719e+00 -6.744660139083862305e-01 -7.655159235000610352e-01 -4.319945871829986572e-01 -6.181244850158691406e-01
6.384000000000000000e+03 5.033802413940429688e+01 2.256218910217285156e+01 -8.869846463203430176e-01 -4.334809780120849609e-01 -3.961396813392639160e-01 -8.636333942413330078e-01
6.385000000000000000e+03 4.991579437255859375e+01 2.197048377990722656e+01 -8.515529632568359375e-01 -4.668568074703216553e-01 -3.955229222774505615e-01 -8.517954945564270020e-01
6.386000000000000000e+03 3.703592300415039062e+01 7.074498653411865234e+00 -7.165088057518005371e-01 -7.517034411430358887e-01 -4.404636621475219727e-01 -5.512202382087707520e-01
6.387000000000000000e+03 3.750693130493164062e+01 7.437268257141113281e+00 -6.953657865524291992e-01 -7.513498067855834961e-01 -4.340146780014038086e-01 -5.556033849716186523e-01
6.388000000000000000e+03 3.459208679199218750e+01 2.976018905639648438e+00 -5.851782560348510742e-01 -6.296866536140441895e-01 -3.644594848155975342e-01 -2.128759920597076416e-01
6.389000000000000000e+03 1.613263893127441406e+01 1.577850723266601562e+01 4.962361603975296021e-02 1.970425248146057129e-01 7.399984449148178101e-02 9.055936336517333984e-02
6.390000000000000000e+03 1.537352657318115234e+01 1.334492492675781250e+01 6.602001190185546875e-02 2.376375347375869751e-01 9.109725803136825562e-02 1.045392453670501709e-01
6.391000000000000000e+03 2.140564918518066406e+01 2.137535095214843750e+01 4.713313654065132141e-02 1.600388735532760620e-01 6.215160340070724487e-02 9.410881996154785156e-02
6.392000000000000000e+03 4.734566116333007812e+01 1.957219314575195312e+01 -7.590132355690002441e-01 -6.511215567588806152e-01 -4.230404496192932129e-01 -8.429526686668395996e-01
6.393000000000000000e+03 4.728308486938476562e+01 1.997736740112304688e+01 -8.045881986618041992e-01 -6.850399971008300781e-01 -4.468884468078613281e-01 -8.693504929542541504e-01
6.394000000000000000e+03 3.948190307617187500e+01 1.013301658630371094e+01 -6.983787417411804199e-01 -7.892593741416931152e-01 -4.462914466857910156e-01 -6.676010489463806152e-01
6.395000000000000000e+03 4.676166534423828125e+01 1.736369895935058594e+01 -6.233056783676147461e-01 -5.954298377037048340e-01 -3.656206429004669189e-01 -7.608957886695861816e-01
6.396000000000000000e+03 4.781023025512695312e+01 1.921454429626464844e+01 -7.112196087837219238e-01 -5.906622409820556641e-01 -3.905645608901977539e-01 -8.054416775703430176e-01
6.397000000000000000e+03 3.960461807250976562e+01 1.064070892333984375e+01 -7.211973071098327637e-01 -8.094070553779602051e-01 -4.591813087463378906e-01 -7.014419436454772949e-01
6.398000000000000000e+03 1.919158554077148438e+01 1.977084922790527344e+01 4.330835118889808655e-02 1.674466133117675781e-01 6.322649121284484863e-02 8.948697149753570557e-02
6.399000000000000000e+03 1.690429496765136719e+01 1.658064079284667969e+01 4.988489672541618347e-02 1.906276941299438477e-01 7.215377688407897949e-02 9.318079799413681030e-02
6.400000000000000000e+03 1.417965793609619141e+01 1.309292602539062500e+01 5.327284336090087891e-02 2.302963882684707642e-01 8.507077395915985107e-02 7.951009273529052734e-02
6.401000000000000000e+03 1.434849739074707031e+01 1.417426681518554688e+01 4.567248374223709106e-02 2.074635326862335205e-01 7.594080269336700439e-02 7.372472435235977173e-02
6.402000000000000000e+03 3.529183578491210938e+01 3.604369878768920898e+00 -5.933871269226074219e-01 -6.392410397529602051e-01 -3.697884678840637207e-01 -2.688874304294586182e-01
6.403000000000000000e+03 6.243075180053710938e+01 2.155431175231933594e+01 1.840562373399734497e-01 8.891318440437316895e-01 3.219564259052276611e-01 -1.407215446233749390e-01
6.404000000000000000e+03 6.040548324584960938e+01 2.038339042663574219e+01 9.605415910482406616e-02 7.506110072135925293e-01 2.539995610713958740e-01 -2.388879656791687012e-01
6.405000000000000000e+03 1.482255458831787109e+01 1.349652004241943359e+01 5.544402077794075012e-02 2.297076731920242310e-01 8.554551005363464355e-02 9.053335338830947876e-02
6.406000000000000000e+03 3.616570663452148438e+01 1.351587176322937012e-01 -2.927698008716106415e-02 -5.956037640571594238e-01 -1.874642223119735718e-01 -6.662457599304616451e-04
6.407000000000000000e+03 1.793030738830566406e+01 2.211564064025878906e+01 1.882040500640869141e-02 1.367018669843673706e-01 4.665667936205863953e-02 6.034168228507041931e-02
6.408000000000000000e+03 5.502895355224609375e+01 2.526479339599609375e+01 -9.763507246971130371e-01 5.129727721214294434e-02 -2.775160372257232666e-01 -8.869901895523071289e-01
6.409000000000000000e+03 4.030743026733398438e+01 1.280992698669433594e+01 -7.834528684616088867e-01 -8.790854811668395996e-01 -4.987615048885345459e-01 -8.156219124794006348e-01
6.410000000000000000e+03 4.070225906372070312e+01 1.213577556610107422e+01 -7.212693691253662109e-01 -8.111657500267028809e-01 -4.597305357456207275e-01 -7.458378672599792480e-01
6.411000000000000000e+03 4.691428375244140625e+01 1.877029800415039062e+01 -7.257218956947326660e-01 -6.629095077514648438e-01 -4.165894389152526855e-01 -8.286145925521850586e-01
6.412000000000000000e+03 4.437526321411132812e+01 -4.008753776550292969e+00 3.995875418186187744e-01 -8.682741224765777588e-02 9.382803738117218018e-02 1.013130620121955872e-01
6.413000000000000000e+03 4.399738693237304688e+01 -2.832197189331054688e+00 3.560043275356292725e-01 -1.341153979301452637e-01 6.656667590141296387e-02 9.676066786050796509e-02
6.414000000000000000e+03 3.534169387817382812e+01 4.444806575775146484e-01 -1.339085102081298828e-01 -6.065820455551147461e-01 -2.221471816301345825e-01 -1.050110347568988800e-02
6.415000000000000000e+03 3.646626663208007812e+01 -4.429748654365539551e-01 5.896236374974250793e-02 -5.827733278274536133e-01 -1.571432799100875854e-01 3.286075964570045471e-02
6.416000000000000000e+03 5.880422592163085938e+01 2.192033958435058594e+01 -2.375399619340896606e-01 4.496741294860839844e-01 6.364025175571441650e-02 -5.198580622673034668e-01
6.417000000000000000e+03 5.734171676635742188e+01 2.369174003601074219e+01 -6.083425879478454590e-01 2.542159855365753174e-01 -1.062379777431488037e-01 -7.540287971496582031e-01
6.418000000000000000e+03 1.691773986816406250e+01 1.718717956542968750e+01 4.409955814480781555e-02 1.814299225807189941e-01 6.765884160995483398e-02 8.748054504394531250e-02
6.419000000000000000e+03 3.401524734497070312e+01 1.452783226966857910e+00 -3.927360475063323975e-01 -6.242792606353759766e-01 -3.051045835018157959e-01 -7.495519518852233887e-02
6.420000000000000000e+03 3.810737991333007812e+01 -6.012712717056274414e-01 1.322140842676162720e-01 -5.385683178901672363e-01 -1.219062656164169312e-01 2.617225423455238342e-02
6.421000000000000000e+03 1.397226333618164062e+01 1.646835899353027344e+01 2.467094548046588898e-02 1.565511673688888550e-01 5.436663329601287842e-02 4.839677363634109497e-02
6.422000000000000000e+03 6.331216812133789062e+01 2.014871025085449219e+01 3.905747830867767334e-01 1.246876358985900879e+00 4.912353157997131348e-01 1.261179149150848389e-01
6.423000000000000000e+03 2.025009918212890625e+01 2.078273200988769531e+01 4.364006593823432922e-02 1.615761369466781616e-01 6.156486272811889648e-02 9.001267701387405396e-02
6.424000000000000000e+03 1.995036506652832031e+01 2.019504737854003906e+01 4.581312835216522217e-02 1.661828607320785522e-01 6.359879672527313232e-02 9.228438884019851685e-02
6.425000000000000000e+03 1.454154109954833984e+01 1.596492290496826172e+01 3.305272758007049561e-02 1.747270971536636353e-01 6.233394518494606018e-02 6.316171586513519287e-02
6.426000000000000000e+03 3.460385894775390625e+01 8.211704492568969727e-01 -2.293915599584579468e-01 -6.179677248001098633e-01 -2.542077898979187012e-01 -2.818394638597965240e-02
6.427000000000000000e+03 2.292008781433105469e+01 2.249813270568847656e+01 5.025888234376907349e-02 1.548285037279129028e-01 6.152621656656265259e-02 9.563902020454406738e-02
6.428000000000000000e+03 2.283969306945800781e+01 2.324923324584960938e+01 4.349276423454284668e-02 1.499750912189483643e-01 5.804035440087318420e-02 9.017566591501235962e-02
6.429000000000000000e+03 6.328137588500976562e+01 1.194538402557373047e+01 5.022274255752563477e-01 2.118651390075683594e+00 7.862636446952819824e-01 5.586684346199035645e-01
6.430000000000000000e+03 6.203587722778320312e+01 5.369742393493652344e+00 4.151970148086547852e-01 2.215100526809692383e+00 7.890892624855041504e-01 5.425311923027038574e-01
6.431000000000000000e+03 4.755999755859375000e+01 -6.419198989868164062e+00 4.295157194137573242e-01 3.029571771621704102e-01 2.197418808937072754e-01 1.424229741096496582e-01
6.432000000000000000e+03 4.551274871826171875e+01 -3.704445362091064453e+00 3.930153250694274902e-01 2.470539510250091553e-02 1.253162175416946411e-01 1.162938475608825684e-01
6.433000000000000000e+03 6.363570785522460938e+01 9.863197326660156250e+00 4.764772057533264160e-01 2.343252658843994141e+00 8.459189534187316895e-01 6.086031794548034668e-01
6.434000000000000000e+03 6.214770889282226562e+01 7.199748039245605469e+00 4.259026646614074707e-01 2.156246423721313477e+00 7.746447324752807617e-01 5.406378507614135742e-01
6.435000000000000000e+03 5.776136779785156250e+01 2.304517555236816406e+01 -4.856789410114288330e-01 3.047637045383453369e-01 -5.427457019686698914e-02 -6.847974658012390137e-01
6.436000000000000000e+03 1.854767608642578125e+01 1.994055175781250000e+01 3.674705699086189270e-02 1.622282415628433228e-01 5.969259142875671387e-02 8.222436159849166870e-02
6.437000000000000000e+03 1.668281936645507812e+01 1.873376274108886719e+01 2.999992668628692627e-02 1.598782837390899658e-01 5.696346238255500793e-02 7.085926085710525513e-02
6.438000000000000000e+03 6.410388946533203125e+01 1.632241821289062500e+01 5.473044514656066895e-01 1.877519965171813965e+00 7.274473309516906738e-01 4.834106564521789551e-01
6.439000000000000000e+03 6.494661712646484375e+01 1.765138435363769531e+01 5.813418626785278320e-01 1.957829833030700684e+00 7.617515325546264648e-01 5.198537111282348633e-01
6.440000000000000000e+03 6.024764633178710938e+01 2.193560791015625000e+01 -8.949289470911026001e-02 6.021326184272766113e-01 1.537919044494628906e-01 -4.067099988460540771e-01
6.441000000000000000e+03 6.051812362670898438e+01 2.297128486633300781e+01 -2.204843908548355103e-01 5.166438817977905273e-01 8.884785324335098267e-02 -5.081135034561157227e-01
6.442000000000000000e+03 6.390135574340820312e+01 2.048796463012695312e+01 4.270413517951965332e-01 1.300782322883605957e+00 5.183470845222473145e-01 1.730080544948577881e-01
6.443000000000000000e+03 6.268178939819335938e+01 1.989122200012207031e+01 3.376140892505645752e-01 1.148366332054138184e+00 4.457941353321075439e-01 5.678723752498626709e-02
6.444000000000000000e+03 1.535482692718505859e+01 1.842892837524414062e+01 2.221684902906417847e-02 1.488516181707382202e-01 5.132054165005683899e-02 5.668851360678672791e-02
6.445000000000000000e+03 3.909145355224609375e+01 -1.233864068984985352e+00 2.112155407667160034e-01 -4.936782717704772949e-01 -8.473882079124450684e-02 3.957735002040863037e-02
6.446000000000000000e+03 1.596815013885498047e+01 1.676992416381835938e+01 3.850398585200309753e-02 1.812389791011810303e-01 6.592288613319396973e-02 7.818245142698287964e-02
6.447000000000000000e+03 1.841315650939941406e+01 1.924174690246582031e+01 4.111935943365097046e-02 1.681173592805862427e-01 6.277101486921310425e-02 8.625122904777526855e-02
6.448000000000000000e+03 4.367398834228515625e+01 -3.644281148910522461e+00 3.971208333969116211e-01 -1.572784632444381714e-01 7.195271551609039307e-02 9.493799507617950439e-02
6.449000000000000000e+03 6.332090377807617188e+01 4.762565612792968750e+00 3.978533148765563965e-01 2.517057657241821289e+00 8.744733333587646484e-01 5.813009142875671387e-01
6.450000000000000000e+03 6.305818939208984375e+01 1.106661796569824219e+01 4.885338544845581055e-01 2.128454208374023438e+00 7.850964665412902832e-01 5.577198863029479980e-01
6.451000000000000000e+03 6.274690628051757812e+01 1.020677280426025391e+01 4.721015989780426025e-01 2.116159200668334961e+00 7.764782309532165527e-01 5.518307685852050781e-01
6.452000000000000000e+03 6.441950988769531250e+01 1.466680049896240234e+01 5.562405586242675781e-01 2.155985832214355469e+00 8.136679530143737793e-01 5.867160558700561523e-01
6.453000000000000000e+03 5.939149475097656250e+01 2.331608963012695312e+01 -3.697045147418975830e-01 4.062734246253967285e-01 1.097067724913358688e-02 -6.202999353408813477e-01
6.454000000000000000e+03 1.876132774353027344e+01 2.062300872802734375e+01 3.381024301052093506e-02 1.571473181247711182e-01 5.728726834058761597e-02 7.873647660017013550e-02
6.455000000000000000e+03 6.342230987548828125e+01 1.283589649200439453e+01 5.175505876541137695e-01 2.077232122421264648e+00 7.784348130226135254e-01 5.498999953269958496e-01
6.456000000000000000e+03 1.743998527526855469e+01 2.125961303710937500e+01 1.931727118790149689e-02 1.407386958599090576e-01 4.801679030060768127e-02 6.078463047742843628e-02
6.457000000000000000e+03 4.322916030883789062e+01 -2.509829521179199219e+00 3.457863032817840576e-01 -2.068953514099121094e-01 4.166728630661964417e-02 8.344048261642456055e-02
6.458000000000000000e+03 6.439619445800781250e+01 1.705714035034179688e+01 5.593899488449096680e-01 1.881904006004333496e+00 7.323881983757019043e-01 4.783791005611419678e-01
6.459000000000000000e+03 6.433287811279296875e+01 1.270950317382812500e+01 5.312656164169311523e-01 2.319499492645263672e+00 8.552294969558715820e-01 6.282916069030761719e-01
6.460000000000000000e+03 6.348786544799804688e+01 1.373096370697021484e+01 5.254422426223754883e-01 2.010480880737304688e+00 7.607769370079040527e-01 5.275382399559020996e-01
6.461000000000000000e+03 5.465422058105468750e+01 -1.402216243743896484e+01 2.687412500381469727e-01 1.394098043441772461e+00 4.988517761230468750e-01 2.019695788621902466e-01
6.462000000000000000e+03 6.080281066894531250e+01 -1.121834158897399902e+00 3.588697314262390137e-01 2.162869691848754883e+00 7.565218210220336914e-01 4.648899734020233154e-01
6.463000000000000000e+03 6.214617919921875000e+01 -2.834790468215942383e+00 3.209853768348693848e-01 2.450756311416625977e+00 8.315225243568420410e-01 4.653863310813903809e-01
6.464000000000000000e+03 6.018378067016601562e+01 -4.367665767669677734e+00 3.384594321250915527e-01 2.112993240356445312e+00 7.354357838630676270e-01 4.102224707603454590e-01
6.465000000000000000e+03 6.071855545043945312e+01 2.534478902816772461e+00 3.892296254634857178e-01 2.060385704040527344e+00 7.348845601081848145e-01 4.914692342281341553e-01
6.466000000000000000e+03 6.227227401733398438e+01 1.962231636047363281e+00 3.725752830505371094e-01 2.373594284057617188e+00 8.238508701324462891e-01 5.281207561492919922e-01
6.467000000000000000e+03 1.729248619079589844e+01 2.358388137817382812e+01 8.313180878758430481e-03 1.182512417435646057e-01 3.796932473778724670e-02 4.705689474940299988e-02
6.468000000000000000e+03 2.126025581359863281e+01 2.345865631103515625e+01 3.240539878606796265e-02 1.459255516529083252e-01 5.349928513169288635e-02 7.868322730064392090e-02
6.469000000000000000e+03 1.810336303710937500e+01 2.641680526733398438e+01 5.030920729041099548e-03 1.057099401950836182e-01 3.322225809097290039e-02 4.135156050324440002e-02
6.470000000000000000e+03 2.327359390258789062e+01 2.576727485656738281e+01 3.249367699027061462e-02 1.363819986581802368e-01 5.066270381212234497e-02 7.711693644523620605e-02
6.471000000000000000e+03 2.259151840209960938e+01 2.702309608459472656e+01 2.271892316639423370e-02 1.272094398736953735e-01 4.497851058840751648e-02 6.574042886495590210e-02
6.472000000000000000e+03 6.029181671142578125e+01 -2.348476028442382812e+01 7.583637535572052002e-02 2.290661573410034180e+00 7.099493741989135742e-01 2.053094357252120972e-01
6.473000000000000000e+03 1.545092201232910156e+01 2.988190841674804688e+01 -6.689358968287706375e-03 5.085828527808189392e-02 1.325067877769470215e-02 1.552234776318073273e-02
6.474000000000000000e+03 6.310507965087890625e+01 -1.431469345092773438e+01 1.634232401847839355e-01 2.690613508224487305e+00 8.562110066413879395e-01 2.853989005088806152e-01
6.475000000000000000e+03 6.134416198730468750e+01 -1.543822383880615234e+01 1.701434552669525146e-01 2.425470590591430664e+00 7.786842584609985352e-01 2.585310935974121094e-01
6.476000000000000000e+03 6.097700881958007812e+01 -1.694062614440917969e+01 1.547258943319320679e-01 2.379304885864257812e+00 7.602092027664184570e-01 2.422426193952560425e-01
6.477000000000000000e+03 6.041752624511718750e+01 -1.977542304992675781e+01 1.112881153821945190e-01 2.305418729782104492e+00 7.250120639801025391e-01 2.114070504903793335e-01
6.478000000000000000e+03 6.120896148681640625e+01 1.474451661109924316e+00 3.760927915573120117e-01 2.185358762741088867e+00 7.684354186058044434e-01 4.996693730354309082e-01
6.479000000000000000e+03 6.049146652221679688e+01 -1.984312385320663452e-02 3.694539666175842285e-01 2.082425594329833984e+00 7.355638742446899414e-01 4.651148021221160889e-01
6.480000000000000000e+03 5.866027832031250000e+01 -1.483199691772460938e+01 2.115234583616256714e-01 2.008427381515502930e+00 6.659852266311645508e-01 2.473064512014389038e-01
6.481000000000000000e+03 4.659182357788085938e+01 -5.732487201690673828e+00 4.355266988277435303e-01 1.715760529041290283e-01 1.821308284997940063e-01 1.281514465808868408e-01
6.482000000000000000e+03 2.609135246276855469e+01 3.147781181335449219e+01 3.184597566723823547e-02 1.179304122924804688e-01 4.493291676044464111e-02 5.902391672134399414e-02
6.483000000000000000e+03 2.326266479492187500e+01 2.953679275512695312e+01 1.976940222084522247e-02 1.167339533567428589e-01 4.095100611448287964e-02 5.762815475463867188e-02
6.484000000000000000e+03 6.205302047729492188e+01 -7.459651470184326172e+00 2.711141705513000488e-01 2.492629528045654297e+00 8.291231393814086914e-01 3.910824954509735107e-01
6.485000000000000000e+03 5.920795440673828125e+01 -1.984686279296875000e+01 1.176105365157127380e-01 2.116939783096313477e+00 6.703650951385498047e-01 2.090188711881637573e-01
6.486000000000000000e+03 5.076823806762695312e+01 2.275156974792480469e+01 -8.842045664787292480e-01 -3.870791196823120117e-01 -3.813850879669189453e-01 -8.602424263954162598e-01
6.487000000000000000e+03 4.900653457641601562e+01 2.042184638977050781e+01 -7.516504526138305664e-01 -5.059199333190917969e-01 -3.772711157798767090e-01 -8.087691068649291992e-01
6.488000000000000000e+03 4.736607360839843750e+01 1.790379524230957031e+01 -6.321055889129638672e-01 -5.646107196807861328e-01 -3.590148687362670898e-01 -7.566175460815429688e-01
6.489000000000000000e+03 4.353165054321289062e+01 1.409467029571533203e+01 -6.298339962959289551e-01 -6.938574910163879395e-01 -3.971074521541595459e-01 -7.369371652603149414e-01
6.490000000000000000e+03 5.095222473144531250e+01 2.202596473693847656e+01 -8.041226267814636230e-01 -3.424654603004455566e-01 -3.439764380455017090e-01 -8.193264007568359375e-01
6.491000000000000000e+03 5.398040390014648438e+01 2.314757347106933594e+01 -7.673650979995727539e-01 -2.662888541817665100e-02 -2.381981909275054932e-01 -7.937048673629760742e-01
6.492000000000000000e+03 4.363710021972656250e+01 1.457679080963134766e+01 -6.491600275039672852e-01 -7.125599980354309082e-01 -4.085160195827484131e-01 -7.654690146446228027e-01
6.493000000000000000e+03 4.287083816528320312e+01 1.339407825469970703e+01 -6.333557367324829102e-01 -7.042123079299926758e-01 -4.012704193592071533e-01 -7.190485596656799316e-01
6.494000000000000000e+03 5.362336349487304688e+01 2.396240997314453125e+01 -8.758654594421386719e-01 -8.125948905944824219e-02 -2.871374785900115967e-01 -8.411406874656677246e-01
6.495000000000000000e+03 5.314865493774414062e+01 2.381138420104980469e+01 -8.814598917961120605e-01 -1.289295107126235962e-01 -3.031168282032012939e-01 -8.412622213363647461e-01
6.496000000000000000e+03 4.626358032226562500e+01 1.693691825866699219e+01 -6.292861700057983398e-01 -6.242593526840209961e-01 -3.760636448860168457e-01 -7.627433538436889648e-01
6.497000000000000000e+03 4.256635284423828125e+01 1.389280509948730469e+01 -6.849909424781799316e-01 -7.625150084495544434e-01 -4.342517852783203125e-01 -7.753784060478210449e-01
6.498000000000000000e+03 4.486892700195312500e+01 1.555952167510986328e+01 -6.277204155921936035e-01 -6.716992259025573730e-01 -3.898258805274963379e-01 -7.641455531120300293e-01
6.499000000000000000e+03 4.412833404541015625e+01 1.518293285369873047e+01 -6.520504355430603027e-01 -7.063087224960327148e-01 -4.075077474117279053e-01 -7.781788110733032227e-01
6.500000000000000000e+03 4.612550735473632812e+01 1.665087699890136719e+01 -6.152845025062561035e-01 -6.171442866325378418e-01 -3.697286546230316162e-01 -7.558229565620422363e-01
6.501000000000000000e+03 5.207635879516601562e+01 2.287887382507324219e+01 -8.356869220733642578e-01 -2.308850884437561035e-01 -3.199716210365295410e-01 -8.252661228179931641e-01
6.502000000000000000e+03 5.291245651245117188e+01 2.309962463378906250e+01 -8.180832266807556152e-01 -1.439635455608367920e-01 -2.886140346527099609e-01 -8.136948943138122559e-01
6.503000000000000000e+03 4.577738952636718750e+01 1.683666801452636719e+01 -6.467015147209167480e-01 -6.567936539649963379e-01 -3.910485506057739258e-01 -7.850242257118225098e-01
6.504000000000000000e+03 4.486794281005859375e+01 1.502541351318359375e+01 -5.935470461845397949e-01 -6.415625214576721191e-01 -3.705328702926635742e-01 -7.286597490310668945e-01
6.505000000000000000e+03 5.327705764770507812e+01 2.272140312194824219e+01 -7.614539265632629395e-01 -9.354133903980255127e-02 -2.564985752105712891e-01 -7.827413082122802734e-01
6.506000000000000000e+03 4.510605239868164062e+01 1.599780368804931641e+01 -6.327714323997497559e-01 -6.691690087318420410e-01 -3.905821442604064941e-01 -7.736482620239257812e-01
6.507000000000000000e+03 4.470756912231445312e+01 1.588958740234375000e+01 -6.541112065315246582e-01 -6.956111788749694824e-01 -4.049167037010192871e-01 -7.895071506500244141e-01
6.508000000000000000e+03 4.453339004516601562e+01 1.537934017181396484e+01 -6.358658075332641602e-01 -6.841818094253540039e-01 -3.960142731666564941e-01 -7.691420912742614746e-01
6.509000000000000000e+03 4.747781372070312500e+01 1.885577392578125000e+01 -6.973152756690979004e-01 -6.009261608123779297e-01 -3.894724249839782715e-01 -8.022636175155639648e-01
6.510000000000000000e+03 5.043103790283203125e+01 2.203272247314453125e+01 -8.308540582656860352e-01 -4.035954773426055908e-01 -3.703348636627197266e-01 -8.368011116981506348e-01
6.511000000000000000e+03 4.995597457885742188e+01 2.146343421936035156e+01 -7.995536923408508301e-01 -4.410409331321716309e-01 -3.721783757209777832e-01 -8.242283463478088379e-01
6.512000000000000000e+03 4.003538131713867188e+01 8.861518859863281250e+00 -5.816795229911804199e-01 -6.855217814445495605e-01 -3.801603913307189941e-01 -5.421296358108520508e-01
6.513000000000000000e+03 3.934052276611328125e+01 8.603906631469726562e+00 -6.198927164077758789e-01 -7.163638472557067871e-01 -4.008769690990447998e-01 -5.572764277458190918e-01
6.514000000000000000e+03 3.955633926391601562e+01 9.048755645751953125e+00 -6.330148577690124512e-01 -7.251090407371520996e-01 -4.074371755123138428e-01 -5.801234841346740723e-01
6.515000000000000000e+03 4.770997238159179688e+01 1.819434165954589844e+01 -6.336136460304260254e-01 -5.478832721710205078e-01 -3.544490635395050049e-01 -7.557012438774108887e-01
6.516000000000000000e+03 4.701120758056640625e+01 1.821550941467285156e+01 -6.692953109741210938e-01 -6.157224178314208984e-01 -3.855053186416625977e-01 -7.920755743980407715e-01
6.517000000000000000e+03 4.704691314697265625e+01 1.763779449462890625e+01 -6.275049448013305664e-01 -5.797385573387145996e-01 -3.621730506420135498e-01 -7.602331042289733887e-01
6.518000000000000000e+03 3.438900375366210938e+01 2.200333833694458008e+00 -4.827400147914886475e-01 -6.180055141448974609e-01 -3.302236497402191162e-01 -1.312958151102066040e-01
6.519000000000000000e+03 4.052822113037109375e+01 9.839492797851562500e+00 -6.002891063690185547e-01 -7.019851207733154297e-01 -3.906822800636291504e-01 -5.884299278259277344e-01
6.520000000000000000e+03 2.119512748718261719e+01 2.274952697753906250e+01 3.598102554678916931e-02 1.497264653444290161e-01 5.571224540472030640e-02 8.273341506719589233e-02
6.521000000000000000e+03 3.865906143188476562e+01 8.261902809143066406e+00 -6.523931026458740234e-01 -7.392181158065795898e-01 -4.174833595752716064e-01 -5.682376027107238770e-01
6.522000000000000000e+03 4.014902877807617188e+01 1.053130722045898438e+01 -6.708673238754272461e-01 -7.673286795616149902e-01 -4.314588010311126709e-01 -6.622201800346374512e-01
6.523000000000000000e+03 3.664772415161132812e+01 5.236643314361572266e+00 -6.213710904121398926e-01 -6.761196255683898926e-01 -3.892472088336944580e-01 -3.970806002616882324e-01
6.524000000000000000e+03 3.736240768432617188e+01 6.718130111694335938e+00 -6.748159527778625488e-01 -7.163508534431457520e-01 -4.173500239849090576e-01 -5.012621879577636719e-01
6.525000000000000000e+03 1.583317661285400391e+01 1.518113803863525391e+01 5.208727717399597168e-02 2.051206827163696289e-01 7.716238498687744141e-02 9.313553571701049805e-02
6.526000000000000000e+03 3.723628234863281250e+01 4.822251796722412109e+00 -5.336818099021911621e-01 -6.357559561729431152e-01 -3.508313298225402832e-01 -3.292995095252990723e-01
6.527000000000000000e+03 3.704497528076171875e+01 6.433553695678710938e+00 -6.841340065002441406e-01 -7.128282785415649414e-01 -4.190886914730072021e-01 -4.907235801219940186e-01
6.528000000000000000e+03 4.846528625488281250e+01 1.999230575561523438e+01 -7.442528009414672852e-01 -5.528806447982788086e-01 -3.891400396823883057e-01 -8.126997947692871094e-01
6.529000000000000000e+03 4.797954940795898438e+01 2.006908798217773438e+01 -7.763278484344482422e-01 -6.110855340957641602e-01 -4.162240028381347656e-01 -8.389472365379333496e-01
6.530000000000000000e+03 1.546154117584228516e+01 1.397704696655273438e+01 5.800965800881385803e-02 2.240331470966339111e-01 8.461283892393112183e-02 9.888066351413726807e-02
6.531000000000000000e+03 2.043068313598632812e+01 1.997224807739257812e+01 5.229026079177856445e-02 1.683482378721237183e-01 6.619154661893844604e-02 9.833466261625289917e-02
6.532000000000000000e+03 1.938547134399414062e+01 2.041781044006347656e+01 4.001068323850631714e-02 1.627029478549957275e-01 6.081408634781837463e-02 8.619606494903564453e-02
6.533000000000000000e+03 5.581525039672851562e+01 2.400061798095703125e+01 -7.685178518295288086e-01 1.278659105300903320e-01 -1.921955794095993042e-01 -8.137063980102539062e-01
6.534000000000000000e+03 1.772946739196777344e+01 1.786507987976074219e+01 4.636291787028312683e-02 1.802926808595657349e-01 6.799668073654174805e-02 9.192436933517456055e-02
6.535000000000000000e+03 1.643792152404785156e+01 1.633937263488769531e+01 4.714531078934669495e-02 1.890318691730499268e-01 7.085315138101577759e-02 8.915437012910842896e-02
6.536000000000000000e+03 4.181869888305664062e+01 1.353639793395996094e+01 -7.161596417427062988e-01 -7.971822023391723633e-01 -4.540025591850280762e-01 -7.872037887573242188e-01
6.537000000000000000e+03 5.157626342773437500e+01 2.289705085754394531e+01 -8.663005232810974121e-01 -2.995901703834533691e-01 -3.497672080993652344e-01 -8.390290737152099609e-01
6.538000000000000000e+03 1.771740150451660156e+01 1.856030082702636719e+01 3.921401873230934143e-02 1.707099974155426025e-01 6.297720223665237427e-02 8.408954739570617676e-02
6.539000000000000000e+03 6.213012695312500000e+01 2.081282234191894531e+01 2.280090451240539551e-01 9.334567189216613770e-01 3.484397232532501221e-01 -9.941332042217254639e-02
6.540000000000000000e+03 6.328292083740234375e+01 1.834541511535644531e+01 4.694495797157287598e-01 1.469031810760498047e+00 5.815443992614746094e-01 2.724858522415161133e-01
6.541000000000000000e+03 3.597029113769531250e+01 2.823300123214721680e+00 -4.255133271217346191e-01 -6.090668439865112305e-01 -3.103740513324737549e-01 -1.776209473609924316e-01
6.542000000000000000e+03 3.544433593750000000e+01 4.084195137023925781e+00 -6.434792876243591309e-01 -6.512604355812072754e-01 -3.884219229221343994e-01 -3.213112354278564453e-01
6.543000000000000000e+03 1.964396286010742188e+01 2.110799407958984375e+01 3.682041913270950317e-02 1.572198569774627686e-01 5.821208283305168152e-02 8.255391567945480347e-02
6.544000000000000000e+03 2.123262023925781250e+01 2.204110908508300781e+01 4.142678156495094299e-02 1.547525376081466675e-01 5.885379761457443237e-02 8.861887454986572266e-02
6.545000000000000000e+03 3.512701034545898438e+01 9.053864479064941406e-01 -1.907651275396347046e-01 -6.109336018562316895e-01 -2.405096292495727539e-01 -3.586348891258239746e-02
6.546000000000000000e+03 1.497477722167968750e+01 1.661285781860351562e+01 3.164884448051452637e-02 1.711852550506591797e-01 6.085022911429405212e-02 6.432257592678070068e-02
6.547000000000000000e+03 3.622864151000976562e+01 4.789246082305908203e+00 -6.355351805686950684e-01 -6.608142852783203125e-01 -3.889048397541046143e-01 -3.660119771957397461e-01
6.548000000000000000e+03 6.131474304199218750e+01 2.106602096557617188e+01 1.158283576369285583e-01 7.920857071876525879e-01 2.723742425441741943e-01 -2.240579277276992798e-01
6.549000000000000000e+03 4.868989562988281250e+01 -6.743138313293457031e+00 4.267046153545379639e-01 4.428639709949493408e-01 2.608705759048461914e-01 1.611715853214263916e-01
6.550000000000000000e+03 6.234219741821289062e+01 4.399018764495849609e+00 4.005663692951202393e-01 2.322910070419311523e+00 8.170428872108459473e-01 5.548145174980163574e-01
6.551000000000000000e+03 6.185041427612304688e+01 6.344841003417968750e+00 4.192883074283599854e-01 2.118970155715942383e+00 7.614775300025939941e-01 5.269920825958251953e-01
6.552000000000000000e+03 5.924924850463867188e+01 2.234073448181152344e+01 -2.495273947715759277e-01 4.607689380645751953e-01 6.337246298789978027e-02 -5.361856818199157715e-01
6.553000000000000000e+03 3.507966995239257812e+01 1.299014091491699219e+00 -2.818896174430847168e-01 -6.172393560409545898e-01 -2.697386741638183594e-01 -6.895293295383453369e-02
6.554000000000000000e+03 3.503521347045898438e+01 3.181085824966430664e+00 -5.635782480239868164e-01 -6.289632916450500488e-01 -3.577624559402465820e-01 -2.311665117740631104e-01
6.555000000000000000e+03 2.356097030639648438e+01 2.316930389404296875e+01 4.929293319582939148e-02 1.514021456241607666e-01 6.020852550864219666e-02 9.453371912240982056e-02
6.556000000000000000e+03 4.074829483032226562e+01 -9.248557686805725098e-01 2.154300510883331299e-01 -3.988572061061859131e-01 -5.502814054489135742e-02 4.284638538956642151e-02
6.557000000000000000e+03 3.886977767944335938e+01 -4.030080735683441162e-01 1.313302665948867798e-01 -4.991055428981781006e-01 -1.103325858712196350e-01 2.595926448702812195e-02
6.558000000000000000e+03 2.236222267150878906e+01 2.228476905822753906e+01 4.749190062284469604e-02 1.552097052335739136e-01 6.081048026680946350e-02 9.364172816276550293e-02
6.559000000000000000e+03 4.060145950317382812e+01 -2.073259830474853516e+00 2.951268255710601807e-01 -3.972638845443725586e-01 -3.064111247658729553e-02 5.849655345082283020e-02
6.560000000000000000e+03 4.104825210571289062e+01 -2.642735719680786133e+00 3.340785801410675049e-01 -3.706599473953247070e-01 -1.097440905869007111e-02 6.680902093648910522e-02
6.561000000000000000e+03 5.713807296752929688e+01 2.259126472473144531e+01 -4.787351787090301514e-01 2.728443145751953125e-01 -6.176726147532463074e-02 -6.712236404418945312e-01
6.562000000000000000e+03 2.158803367614746094e+01 2.723729324340820312e+01 1.808576844632625580e-02 1.210695281624794006e-01 4.174658656120300293e-02 5.968571826815605164e-02
6.563000000000000000e+03 6.347843551635742188e+01 1.461487007141113281e+01 5.207584500312805176e-01 1.922971248626708984e+00 7.331188917160034180e-01 4.939548075199127197e-01
6.564000000000000000e+03 6.243331527709960938e+01 1.213610744476318359e+01 4.843661487102508545e-01 1.905692338943481445e+00 7.170175909996032715e-01 4.867190122604370117e-01
6.565000000000000000e+03 1.710887527465820312e+01 2.039104270935058594e+01 2.253870666027069092e-02 1.471876353025436401e-01 5.091790109872817993e-02 6.380020081996917725e-02
6.566000000000000000e+03 1.689337730407714844e+01 1.949805831909179688e+01 2.723462507128715515e-02 1.547497808933258057e-01 5.459532141685485840e-02 6.873245537281036377e-02
6.567000000000000000e+03 1.584680366516113281e+01 1.781416130065917969e+01 3.069998696446418762e-02 1.664910018444061279e-01 5.915729328989982605e-02 6.830593198537826538e-02
6.568000000000000000e+03 6.288696670532226562e+01 1.910884284973144531e+01 4.073497354984283447e-01 1.284230232238769531e+00 5.074740052223205566e-01 1.542727798223495483e-01
6.569000000000000000e+03 6.362358474731445312e+01 1.948817634582519531e+01 4.603275656700134277e-01 1.393795013427734375e+00 5.562367439270019531e-01 2.290261089801788330e-01
6.570000000000000000e+03 5.661531829833984375e+01 2.198597908020019531e+01 -4.475579857826232910e-01 2.525667250156402588e-01 -5.849738419055938721e-02 -6.431497335433959961e-01
6.571000000000000000e+03 5.826486206054687500e+01 2.245605278015136719e+01 -3.612270355224609375e-01 3.719894587993621826e-01 3.228725632652640343e-03 -6.028197407722473145e-01
6.572000000000000000e+03 3.725527191162109375e+01 3.488569498062133789e+00 -3.842926919460296631e-01 -5.991942882537841797e-01 -2.950460910797119141e-01 -2.065467089414596558e-01
6.573000000000000000e+03 3.710593414306640625e+01 -1.483295112848281860e-01 3.592623025178909302e-02 -5.667527318000793457e-01 -1.592479497194290161e-01 1.282052509486675262e-02
6.574000000000000000e+03 6.513159179687500000e+01 1.877284240722656250e+01 5.833426713943481445e-01 1.853295922279357910e+00 7.309916019439697266e-01 4.903750121593475342e-01
6.575000000000000000e+03 6.163049697875976562e+01 1.230957984924316406e+01 4.607498049736022949e-01 1.719389200210571289e+00 6.540417075157165527e-01 4.203557968139648438e-01
6.576000000000000000e+03 6.234216690063476562e+01 9.370004653930664062e+00 4.556224048137664795e-01 2.078359127044677734e+00 7.601944804191589355e-01 5.368779301643371582e-01
6.577000000000000000e+03 4.506952285766601562e+01 -4.478334426879882812e+00 4.178492426872253418e-01 -6.754956673830747604e-03 1.233282834291458130e-01 1.101190224289894104e-01
6.578000000000000000e+03 4.475404739379882812e+01 -3.234788656234741211e+00 3.820778131484985352e-01 -5.714153498411178589e-02 9.748087823390960693e-02 1.047889143228530884e-01
6.579000000000000000e+03 6.108974075317382812e+01 -2.161726474761962891e+00 3.447458744049072266e-01 2.247376203536987305e+00 7.776366472244262695e-01 4.610410332679748535e-01
6.580000000000000000e+03 6.014894866943359375e+01 -2.638881921768188477e+00 3.543523252010345459e-01 2.076687574386596680e+00 7.293120026588439941e-01 4.322623908519744873e-01
6.581000000000000000e+03 6.364253616333007812e+01 6.711651802062988281e+00 4.288430511951446533e-01 2.508404016494750977e+00 8.811740875244140625e-01 6.118376851081848145e-01
6.582000000000000000e+03 2.231448745727539062e+01 2.600496101379394531e+01 2.581398747861385345e-02 1.327809542417526245e-01 4.757848381996154785e-02 7.082885503768920898e-02
6.583000000000000000e+03 2.190660858154296875e+01 2.265865325927734375e+01 4.203872755169868469e-02 1.525978147983551025e-01 5.839096009731292725e-02 8.829884976148605347e-02
6.584000000000000000e+03 6.044211196899414062e+01 7.045889854431152344e+00 4.178420603275299072e-01 1.822950005531311035e+00 6.722376346588134766e-01 4.627081453800201416e-01
6.585000000000000000e+03 1.785177230834960938e+01 2.013905143737792969e+01 2.979475259780883789e-02 1.549320816993713379e-01 5.541804805397987366e-02 7.325981557369232178e-02
6.586000000000000000e+03 6.255572891235351562e+01 1.295497798919677734e+01 4.929541647434234619e-01 1.865780711174011230e+00 7.076204419136047363e-01 4.712499976158142090e-01
6.587000000000000000e+03 5.962693023681640625e+01 -5.043041229248046875e+00 3.384360671043395996e-01 2.023965597152709961e+00 7.087204456329345703e-01 3.925695121288299561e-01
6.588000000000000000e+03 6.302635192871093750e+01 1.707894515991210938e+01 4.774404764175415039e-01 1.568997621536254883e+00 6.139314174652099609e-01 3.233022093772888184e-01
6.589000000000000000e+03 6.477719116210937500e+01 1.596564483642578125e+01 5.794929265975952148e-01 2.123215675354003906e+00 8.108125329017639160e-01 5.802283883094787598e-01
6.590000000000000000e+03 2.051002502441406250e+01 2.194502639770507812e+01 3.683900833129882812e-02 1.531338244676589966e-01 5.699185281991958618e-02 8.349145203828811646e-02
6.591000000000000000e+03 6.020829772949218750e+01 -5.950044631958007812e+00 3.213677108287811279e-01 2.140804767608642578e+00 7.386517524719238281e-01 3.865835964679718018e-01
6.592000000000000000e+03 5.805498123168945312e+01 -1.008265113830566406e+01 2.954805195331573486e-01 1.851295351982116699e+00 6.440327763557434082e-01 3.017419576644897461e-01
6.593000000000000000e+03 3.990949249267578125e+01 -1.104508757591247559e+00 2.182268798351287842e-01 -4.454297125339508057e-01 -6.816085427999496460e-02 4.303028061985969543e-02
6.594000000000000000e+03 4.113516235351562500e+01 -1.607046961784362793e+00 2.716878950595855713e-01 -3.720228672027587891e-01 -3.010049089789390564e-02 5.539166927337646484e-02
6.595000000000000000e+03 6.422811126708984375e+01 1.553970241546630859e+01 5.621012449264526367e-01 2.023434877395629883e+00 7.756608128547668457e-01 5.381461381912231445e-01
6.596000000000000000e+03 6.211404037475585938e+01 -1.227053737640380859e+01 2.042817175388336182e-01 2.532322883605957031e+00 8.209813833236694336e-01 3.095917105674743652e-01
6.597000000000000000e+03 6.093769073486328125e+01 -1.032063770294189453e+01 2.563984096050262451e-01 2.317105531692504883e+00 7.720512151718139648e-01 3.306977152824401855e-01
6.598000000000000000e+03 2.483153915405273438e+01 3.269071578979492188e+01 2.295551821589469910e-02 1.097405254840850830e-01 3.980881348252296448e-02 4.805930703878402710e-02
6.599000000000000000e+03 2.044066238403320312e+01 3.011781692504882812e+01 6.698520854115486145e-03 9.960774332284927368e-02 3.189187869429588318e-02 4.022154584527015686e-02
6.600000000000000000e+03 1.827437400817871094e+01 2.506176948547363281e+01 8.187813684344291687e-03 1.144716665148735046e-01 3.679784387350082397e-02 4.783655330538749695e-02
6.601000000000000000e+03 2.061152648925781250e+01 2.706591415405273438e+01 1.392992399632930756e-02 1.186755448579788208e-01 3.978164121508598328e-02 5.438423901796340942e-02
6.602000000000000000e+03 5.905713272094726562e+01 7.215629816055297852e-01 3.831138610839843750e-01 1.796843409538269043e+00 6.539871692657470703e-01 4.348866939544677734e-01
6.603000000000000000e+03 5.966583633422851562e+01 -1.665290069580078125e+01 1.687831431627273560e-01 2.174378156661987305e+00 7.029483914375305176e-01 2.352516502141952515e-01
6.604000000000000000e+03 4.887786102294921875e+01 -8.131189346313476562e+00 4.226229786872863770e-01 5.015308260917663574e-01 2.772461473941802979e-01 1.532743722200393677e-01
6.605000000000000000e+03 4.920201492309570312e+01 -4.352005481719970703e+00 4.125792682170867920e-01 4.599032998085021973e-01 2.617447674274444580e-01 1.850555837154388428e-01
6.606000000000000000e+03 2.169041252136230469e+01 2.845187568664550781e+01 1.522018853574991226e-02 1.160019636154174805e-01 3.936664387583732605e-02 5.452514067292213440e-02
6.607000000000000000e+03 2.386882781982421875e+01 3.106078147888183594e+01 2.000970393419265747e-02 1.119581088423728943e-01 3.959034383296966553e-02 5.274984985589981079e-02
6.608000000000000000e+03 5.492695999145507812e+01 -1.252800941467285156e+01 2.968249320983886719e-01 1.412870407104492188e+00 5.129085779190063477e-01 2.217970639467239380e-01
6.609000000000000000e+03 5.597774887084960938e+01 -1.430643653869628906e+01 2.497417330741882324e-01 1.597881317138671875e+00 5.542868971824645996e-01 2.196555286645889282e-01
6.610000000000000000e+03 6.064355087280273438e+01 -1.839858627319335938e+01 1.315557807683944702e-01 2.329498052597045898e+00 7.383161783218383789e-01 2.204407006502151489e-01
6.611000000000000000e+03 4.799583053588867188e+01 -5.180156707763671875e+00 4.248048961162567139e-01 3.379172384738922119e-01 2.288166433572769165e-01 1.595418006181716919e-01
6.612000000000000000e+03 1.344430637359619141e+01 2.912889671325683594e+01 -8.384917862713336945e-03 3.080991283059120178e-02 6.727498490363359451e-03 5.853861104696989059e-03
6.613000000000000000e+03 5.731737899780273438e+01 -1.457103824615478516e+01 2.312367409467697144e-01 1.801257014274597168e+00 6.097481250762939453e-01 2.340557724237442017e-01
6.614000000000000000e+03 5.897184753417968750e+01 -1.328135395050048828e+01 2.352969944477081299e-01 2.038803339004516602e+00 6.822301149368286133e-01 2.671372592449188232e-01
6.615000000000000000e+03 5.835001373291015625e+01 -1.640240669250488281e+01 1.876603662967681885e-01 1.977027654647827148e+00 6.494064331054687500e-01 2.289278209209442139e-01
6.616000000000000000e+03 5.244037628173828125e+01 -1.051610755920410156e+01 3.610491156578063965e-01 1.013884425163269043e+00 4.124800562858581543e-01 2.010271549224853516e-01
6.617000000000000000e+03 5.094256973266601562e+01 -1.049948024749755859e+01 3.760398328304290771e-01 8.057448267936706543e-01 3.545354008674621582e-01 1.739832013845443726e-01
6.618000000000000000e+03 5.098239517211914062e+01 2.053070068359375000e+01 -6.591446995735168457e-01 -2.862497866153717041e-01 -2.836183309555053711e-01 -7.361735701560974121e-01
6.619000000000000000e+03 5.334664916992187500e+01 2.335019111633300781e+01 -8.301758766174316406e-01 -1.006355881690979004e-01 -2.792434394359588623e-01 -8.197226524353027344e-01
6.620000000000000000e+03 5.258268737792968750e+01 2.267284965515136719e+01 -7.930355668067932129e-01 -1.682125329971313477e-01 -2.883744239807128906e-01 -8.034646511077880859e-01
6.621000000000000000e+03 4.422743988037109375e+01 1.434048938751220703e+01 -6.007880568504333496e-01 -6.544998288154602051e-01 -3.765863776206970215e-01 -7.193382382392883301e-01
6.622000000000000000e+03 4.297323608398437500e+01 1.379876995086669922e+01 -6.531703472137451172e-01 -7.228724956512451172e-01 -4.128128588199615479e-01 -7.444679737091064453e-01
6.623000000000000000e+03 4.475984573364257812e+01 1.400294017791748047e+01 -5.410115122795104980e-01 -5.909930467605590820e-01 -3.396013677120208740e-01 -6.651334166526794434e-01
6.624000000000000000e+03 5.373880004882812500e+01 2.352097320556640625e+01 -8.279262781143188477e-01 -6.427445262670516968e-02 -2.676602303981781006e-01 -8.197704553604125977e-01
6.625000000000000000e+03 5.238150405883789062e+01 2.216731452941894531e+01 -7.466149926185607910e-01 -1.799332350492477417e-01 -2.779644727706909180e-01 -7.822439074516296387e-01
6.626000000000000000e+03 4.452162170410156250e+01 1.472669029235839844e+01 -6.015415191650390625e-01 -6.535482406616210938e-01 -3.765269219875335693e-01 -7.287147641181945801e-01
6.627000000000000000e+03 3.458176803588867188e+01 1.378715276718139648e+00 -3.266220986843109131e-01 -6.081041097640991211e-01 -2.804178595542907715e-01 -7.043910771608352661e-02
6.628000000000000000e+03 3.509083938598632812e+01 2.058849334716796875e+00 -4.000394344329833984e-01 -6.175370812416076660e-01 -3.052729666233062744e-01 -1.199470311403274536e-01
6.629000000000000000e+03 4.647399520874023438e+01 1.652871704101562500e+01 -5.891786813735961914e-01 -5.849284529685974121e-01 -3.522321283817291260e-01 -7.308375239372253418e-01
6.630000000000000000e+03 5.461347579956054688e+01 2.343056678771972656e+01 -7.648049592971801758e-01 3.152382001280784607e-02 -2.199843376874923706e-01 -7.970122694969177246e-01
6.631000000000000000e+03 4.599833297729492188e+01 1.632412338256835938e+01 -5.991462469100952148e-01 -6.108863353729248047e-01 -3.630097806453704834e-01 -7.457098960876464844e-01
6.632000000000000000e+03 4.450010299682617188e+01 1.361547756195068359e+01 -5.397492647171020508e-01 -5.934323668479919434e-01 -3.399544954299926758e-01 -6.550858020782470703e-01
6.633000000000000000e+03 4.078117752075195312e+01 1.161091613769531250e+01 -6.904419660568237305e-01 -7.795096039772033691e-01 -4.409854710102081299e-01 -7.080383896827697754e-01
6.634000000000000000e+03 4.523285675048828125e+01 1.563887214660644531e+01 -6.065360307693481445e-01 -6.423034667968750000e-01 -3.746518492698669434e-01 -7.472755908966064453e-01
6.635000000000000000e+03 4.542567443847656250e+01 1.620845413208007812e+01 -6.275373101234436035e-01 -6.533494591712951660e-01 -3.842660188674926758e-01 -7.684291601181030273e-01
6.636000000000000000e+03 4.173914337158203125e+01 1.307933044433593750e+01 -6.932986378669738770e-01 -7.780536413192749023e-01 -4.414056837558746338e-01 -7.569356560707092285e-01
6.637000000000000000e+03 4.111324310302734375e+01 1.236863899230957031e+01 -7.015162110328674316e-01 -7.911051511764526367e-01 -4.477864205837249756e-01 -7.399879097938537598e-01
6.638000000000000000e+03 5.149443435668945312e+01 2.100846290588378906e+01 -6.733264923095703125e-01 -2.408376038074493408e-01 -2.742492258548736572e-01 -7.421035170555114746e-01
6.639000000000000000e+03 4.678325653076171875e+01 1.635136795043945312e+01 -5.602830648422241211e-01 -5.368301868438720703e-01 -3.291339874267578125e-01 -7.031092643737792969e-01
6.640000000000000000e+03 4.790938949584960938e+01 1.886718177795410156e+01 -6.778852939605712891e-01 -5.588600039482116699e-01 -3.710235953330993652e-01 -7.805305719375610352e-01
6.641000000000000000e+03 4.898610687255859375e+01 1.991406822204589844e+01 -7.058966159820556641e-01 -4.818375110626220703e-01 -3.563202321529388428e-01 -7.823573350906372070e-01
6.642000000000000000e+03 4.136127471923828125e+01 1.332652664184570312e+01 -7.401283383369445801e-01 -8.241606354713439941e-01 -4.692867100238800049e-01 -7.961587905883789062e-01
6.643000000000000000e+03 3.980319213867187500e+01 8.442207336425781250e+00 -5.779936313629150391e-01 -6.779664158821105957e-01 -3.767880201339721680e-01 -5.195160508155822754e-01
6.644000000000000000e+03 4.135544204711914062e+01 1.019096183776855469e+01 -5.626144409179687500e-01 -6.635151505470275879e-01 -3.678388893604278564e-01 -5.761535763740539551e-01
6.645000000000000000e+03 3.998853683471679688e+01 1.000621604919433594e+01 -6.551514267921447754e-01 -7.495011091232299805e-01 -4.213957488536834717e-01 -6.319404840469360352e-01
6.646000000000000000e+03 4.074599456787109375e+01 1.041312313079833984e+01 -6.211393475532531738e-01 -7.169360518455505371e-01 -4.014226198196411133e-01 -6.219698786735534668e-01
6.647000000000000000e+03 4.028559112548828125e+01 9.324002265930175781e+00 -5.943661928176879883e-01 -6.910960674285888672e-01 -3.856386840343475342e-01 -5.631790757179260254e-01
6.648000000000000000e+03 4.735070037841796875e+01 1.733196067810058594e+01 -5.900804400444030762e-01 -5.331476926803588867e-01 -3.369684219360351562e-01 -7.295626997947692871e-01
6.649000000000000000e+03 4.810815429687500000e+01 1.941755104064941406e+01 -7.098505496978759766e-01 -5.670710802078247070e-01 -3.830764889717102051e-01 -8.014703392982482910e-01
6.650000000000000000e+03 4.804980087280273438e+01 1.780268859863281250e+01 -5.870108604431152344e-01 -4.875274598598480225e-01 -3.223614990711212158e-01 -7.173264622688293457e-01
6.651000000000000000e+03 4.812133026123046875e+01 1.846136093139648438e+01 -6.328172683715820312e-01 -5.143967866897583008e-01 -3.441642224788665771e-01 -7.516888380050659180e-01
6.652000000000000000e+03 4.081223678588867188e+01 1.101782894134521484e+01 -6.444498300552368164e-01 -7.414105534553527832e-01 -4.157581031322479248e-01 -6.595054864883422852e-01
6.653000000000000000e+03 5.775871276855468750e+01 2.197661590576171875e+01 -3.418374955654144287e-01 3.609910607337951660e-01 5.746069364249706268e-03 -5.843711495399475098e-01
6.654000000000000000e+03 3.850261306762695312e+01 7.712038040161132812e+00 -6.371291875839233398e-01 -7.142084836959838867e-01 -4.054013192653656006e-01 -5.277029871940612793e-01
6.655000000000000000e+03 3.901370239257812500e+01 5.376803398132324219e+00 -4.289788901805877686e-01 -5.910885930061340332e-01 -3.060202598571777344e-01 -3.151051700115203857e-01
6.656000000000000000e+03 4.844640731811523438e+01 1.806499481201171875e+01 -5.810992121696472168e-01 -4.533883929252624512e-01 -3.103462755680084229e-01 -7.101421952247619629e-01
6.657000000000000000e+03 4.853657913208007812e+01 1.869557762145996094e+01 -6.352569460868835449e-01 -4.800951778888702393e-01 -3.346056342124938965e-01 -7.428868412971496582e-01
6.658000000000000000e+03 1.961343765258789062e+01 2.283774185180664062e+01 2.452084235846996307e-02 1.418668180704116821e-01 4.991629719734191895e-02 7.007253170013427734e-02
6.659000000000000000e+03 1.973081207275390625e+01 2.191115570068359375e+01 3.116339072585105896e-02 1.502147316932678223e-01 5.441343784332275391e-02 7.774659991264343262e-02
6.660000000000000000e+03 5.142868804931640625e+01 2.150291252136230469e+01 -7.257410287857055664e-01 -2.660747170448303223e-01 -2.975447177886962891e-01 -7.740936875343322754e-01
6.661000000000000000e+03 6.115258789062500000e+01 2.024877357482910156e+01 1.616249680519104004e-01 8.585197925567626953e-01 3.060434460639953613e-01 -1.555751115083694458e-01
6.662000000000000000e+03 5.519853210449218750e+01 2.399366569519042969e+01 -7.952964901924133301e-01 7.892741262912750244e-02 -2.149107158184051514e-01 -8.230298757553100586e-01
6.663000000000000000e+03 3.588160324096679688e+01 7.036429047584533691e-01 -1.342225670814514160e-01 -5.937484502792358398e-01 -2.183912992477416992e-01 -2.646227180957794189e-02
6.664000000000000000e+03 3.590275573730468750e+01 3.415415525436401367e+00 -5.097967982292175293e-01 -6.289855241775512695e-01 -3.416346907615661621e-01 -2.380681037902832031e-01
6.665000000000000000e+03 3.682817459106445312e+01 2.311902284622192383e+00 -2.975798547267913818e-01 -5.835638642311096191e-01 -2.643431127071380615e-01 -1.243153363466262817e-01
6.666000000000000000e+03 3.788557434082031250e+01 7.907083988189697266e+00 -6.914020776748657227e-01 -7.599931955337524414e-01 -4.354185760021209717e-01 -5.766585469245910645e-01
6.667000000000000000e+03 3.917126846313476562e+01 8.153665542602539062e+00 -6.113469600677490234e-01 -6.974646449089050293e-01 -3.926434814929962158e-01 -5.295304656028747559e-01
6.668000000000000000e+03 4.111935806274414062e+01 1.304780960083007812e+01 -7.387587428092956543e-01 -8.287299275398254395e-01 -4.702466130256652832e-01 -7.916871905326843262e-01
6.669000000000000000e+03 3.482647705078125000e+01 2.498039007186889648e+00 -4.895472824573516846e-01 -6.195545196533203125e-01 -3.327305316925048828e-01 -1.647660732269287109e-01
6.670000000000000000e+03 3.473227691650390625e+01 1.824870347976684570e+00 -3.990139067173004150e-01 -6.224901676177978516e-01 -3.064512312412261963e-01 -1.062676832079887390e-01
6.671000000000000000e+03 6.092308425903320312e+01 6.232801437377929688e+00 4.156279861927032471e-01 1.960863351821899414e+00 7.129474282264709473e-01 4.947917759418487549e-01
6.672000000000000000e+03 1.900313949584960938e+01 2.188673400878906250e+01 2.687503211200237274e-02 1.475046128034591675e-01 5.231389403343200684e-02 7.138566672801971436e-02
6.673000000000000000e+03 1.811488533020019531e+01 2.089627838134765625e+01 2.663377113640308380e-02 1.493574380874633789e-01 5.279736220836639404e-02 7.023610174655914307e-02
6.674000000000000000e+03 5.593847656250000000e+01 2.321054267883300781e+01 -6.463717222213745117e-01 1.589772403240203857e-01 -1.462183445692062378e-01 -7.540751695632934570e-01
6.675000000000000000e+03 5.584497070312500000e+01 2.238934707641601562e+01 -5.532190203666687012e-01 1.716284751892089844e-01 -1.144771650433540344e-01 -6.990905404090881348e-01
6.676000000000000000e+03 6.041801834106445312e+01 2.114381027221679688e+01 1.842251978814601898e-02 6.834973096847534180e-01 2.105759531259536743e-01 -3.108212649822235107e-01
6.677000000000000000e+03 2.291892242431640625e+01 2.405717086791992188e+01 3.869124501943588257e-02 1.458614170551300049e-01 5.536580085754394531e-02 8.496927469968795776e-02
6.678000000000000000e+03 2.204237174987792969e+01 2.335400199890136719e+01 3.804631903767585754e-02 1.482995003461837769e-01 5.590374395251274109e-02 8.451940119266510010e-02
6.679000000000000000e+03 5.871771240234375000e+01 2.080357170104980469e+01 -1.270713061094284058e-01 5.131968259811401367e-01 1.158376634120941162e-01 -4.225897192955017090e-01
6.680000000000000000e+03 3.780864334106445312e+01 5.760641098022460938e+00 -5.562202334403991699e-01 -6.535626649856567383e-01 -3.629348576068878174e-01 -3.940681815147399902e-01
6.681000000000000000e+03 3.910258483886718750e+01 7.688346385955810547e+00 -5.712327361106872559e-01 -6.767351031303405762e-01 -3.743903636932373047e-01 -4.894694387912750244e-01
6.682000000000000000e+03 6.277471160888671875e+01 8.029198646545410156e+00 4.392952919006347656e-01 2.247816085815429688e+00 8.061333894729614258e-01 5.717688202857971191e-01
6.683000000000000000e+03 6.400726318359375000e+01 1.884434700012207031e+01 5.054644942283630371e-01 1.563634395599365234e+00 6.207296848297119141e-01 3.237272799015045166e-01
6.684000000000000000e+03 6.340464019775390625e+01 1.547515773773193359e+01 5.240865349769592285e-01 1.841336131095886230e+00 7.096267938613891602e-01 4.572563171386718750e-01
6.685000000000000000e+03 6.178081512451171875e+01 1.383933448791503906e+01 4.570409357547760010e-01 1.629336118698120117e+00 6.259131431579589844e-01 3.704452216625213623e-01
6.686000000000000000e+03 5.555207824707031250e+01 2.165269851684570312e+01 -4.791032969951629639e-01 1.710958480834960938e-01 -9.240223467350006104e-02 -6.530218720436096191e-01
6.687000000000000000e+03 6.223134994506835938e+01 1.133194637298583984e+01 4.726272225379943848e-01 1.923914194107055664e+00 7.189624309539794922e-01 4.949452579021453857e-01
6.688000000000000000e+03 6.152935028076171875e+01 9.814777374267578125e+00 4.472651481628417969e-01 1.873757243156433105e+00 6.963067054748535156e-01 4.790839254856109619e-01
6.689000000000000000e+03 3.969906616210937500e+01 -2.940558195114135742e-01 1.309537291526794434e-01 -4.651592373847961426e-01 -1.002616584300994873e-01 2.272304147481918335e-02
6.690000000000000000e+03 4.175224304199218750e+01 7.933791637420654297e+00 -4.117762744426727295e-01 -5.360946655273437500e-01 -2.843612730503082275e-01 -3.988556861877441406e-01
6.691000000000000000e+03 3.861492156982421875e+01 5.218110084533691406e-01 1.140196807682514191e-02 -5.216239094734191895e-01 -1.530665755271911621e-01 -1.326179597526788712e-02
6.692000000000000000e+03 6.273408889770507812e+01 6.530856609344482422e+00 4.289981424808502197e-01 2.328413009643554688e+00 8.272233605384826660e-01 5.814072489738464355e-01
6.693000000000000000e+03 5.937002182006835938e+01 -3.639240860939025879e-01 3.766240477561950684e-01 1.884342312812805176e+00 6.782899498939514160e-01 4.390272200107574463e-01
6.694000000000000000e+03 5.748871231079101562e+01 -1.818014264106750488e+00 3.832572698593139648e-01 1.610788822174072266e+00 5.982138514518737793e-01 3.845672011375427246e-01
6.695000000000000000e+03 6.261347579956054688e+01 1.378415966033935547e+01 4.908721745014190674e-01 1.806748509407043457e+00 6.892861723899841309e-01 4.452539980411529541e-01
6.696000000000000000e+03 6.081008911132812500e+01 1.026842212677001953e+01 4.353908896446228027e-01 1.701550483703613281e+00 6.410824060440063477e-01 4.233703613281250000e-01
6.697000000000000000e+03 6.193250656127929688e+01 1.055588054656982422e+01 4.621844887733459473e-01 1.911379337310791016e+00 7.120691537857055664e-01 4.903282821178436279e-01
6.698000000000000000e+03 6.126529693603515625e+01 4.054924964904785156e+00 4.031613171100616455e-01 2.102198362350463867e+00 7.516079545021057129e-01 5.112627744674682617e-01
6.699000000000000000e+03 5.625532913208007812e+01 -1.279154205322265625e+01 2.775728106498718262e-01 1.614633560180664062e+00 5.676618814468383789e-01 2.392045855522155762e-01
6.700000000000000000e+03 6.193308639526367188e+01 2.000309944152832031e+01 2.705385982990264893e-01 1.005375385284423828e+00 3.827742040157318115e-01 -3.314320370554924011e-02
6.701000000000000000e+03 6.335660934448242188e+01 1.633614730834960938e+01 5.233501791954040527e-01 1.736733317375183105e+00 6.780250668525695801e-01 4.113937914371490479e-01
6.702000000000000000e+03 4.977516174316406250e+01 -6.651946067810058594e+00 4.165686666965484619e-01 5.890280604362487793e-01 3.016790151596069336e-01 1.844579130411148071e-01
6.703000000000000000e+03 4.347227478027343750e+01 -1.644242525100708008e+00 2.982552349567413330e-01 -1.951336711645126343e-01 3.093646839261054993e-02 8.111774176359176636e-02
6.704000000000000000e+03 5.385006332397460938e+01 -1.081528377532958984e+01 3.429481685161590576e-01 1.228148460388183594e+00 4.713289737701416016e-01 2.249977588653564453e-01
6.705000000000000000e+03 5.416086578369140625e+01 -9.431886672973632812e+00 3.562785387039184570e-01 1.249848246574401855e+00 4.818380177021026611e-01 2.432681918144226074e-01
6.706000000000000000e+03 6.104193115234375000e+01 -6.822143077850341797e+00 2.956015765666961670e-01 2.312937974929809570e+00 7.825618982315063477e-01 3.857310414314270020e-01
6.707000000000000000e+03 5.938212585449218750e+01 -4.153357028961181641e+00 3.537673354148864746e-01 1.978961944580078125e+00 6.998187899589538574e-01 4.072536826133728027e-01
6.708000000000000000e+03 6.034057998657226562e+01 -8.034818649291992188e+00 2.920424640178680420e-01 2.197419881820678711e+00 7.468386888504028320e-01 3.564895093441009521e-01
6.709000000000000000e+03 4.752010345458984375e+01 -3.759700536727905273e+00 4.018550515174865723e-01 2.538029849529266357e-01 1.966974139213562012e-01 1.511593610048294067e-01
6.710000000000000000e+03 1.961302185058593750e+01 2.391159820556640625e+01 1.977716572582721710e-02 1.342524290084838867e-01 4.620888084173202515e-02 6.438423693180084229e-02
6.711000000000000000e+03 2.210722351074218750e+01 2.507514762878417969e+01 2.972947433590888977e-02 1.375275105237960815e-01 5.017709732055664062e-02 7.422618567943572998e-02
6.712000000000000000e+03 4.628833007812500000e+01 -4.218454837799072266e+00 4.122108519077301025e-01 1.172647029161453247e-01 1.588426679372787476e-01 1.278647482395172119e-01
6.713000000000000000e+03 6.261658096313476562e+01 1.462471389770507812e+01 4.889134168624877930e-01 1.734555959701538086e+00 6.670408248901367188e-01 4.130228757858276367e-01
6.714000000000000000e+03 6.248537445068359375e+01 1.782797622680664062e+01 4.358073472976684570e-01 1.363976120948791504e+00 5.399350523948669434e-01 2.112907171249389648e-01
6.715000000000000000e+03 6.215254974365234375e+01 1.869700241088867188e+01 3.572750389575958252e-01 1.186409235000610352e+00 4.631052911281585693e-01 9.788783639669418335e-02
6.716000000000000000e+03 6.183557510375976562e+01 8.559225082397460938e+00 4.438899159431457520e-01 2.011162281036376953e+00 7.365157008171081543e-01 5.171852707862854004e-01
6.717000000000000000e+03 1.843531036376953125e+01 2.377991485595703125e+01 1.376987900584936142e-02 1.256364434957504272e-01 4.182189330458641052e-02 5.514524132013320923e-02
6.718000000000000000e+03 4.200837326049804688e+01 -1.176910325884819031e-01 1.870469897985458374e-01 -3.142027258872985840e-01 -3.814671933650970459e-02 3.176298737525939941e-02
6.719000000000000000e+03 4.158542633056640625e+01 -2.203516483306884766e+00 3.179235160350799561e-01 -3.259607255458831787e-01 -2.411165507510304451e-03 6.575292348861694336e-02
6.720000000000000000e+03 6.099302673339843750e+01 5.161872386932373047e+00 4.084073007106781006e-01 2.014327526092529297e+00 7.268204689025878906e-01 5.023393630981445312e-01
6.721000000000000000e+03 5.941393661499023438e+01 -8.759139060974121094e+00 3.011154830455780029e-01 2.067155122756958008e+00 7.104812264442443848e-01 3.361685276031494141e-01
6.722000000000000000e+03 1.894436645507812500e+01 2.993100357055664062e+01 1.235619536601006985e-03 8.945095539093017578e-02 2.720597200095653534e-02 3.296120092272758484e-02
6.723000000000000000e+03 2.045547866821289062e+01 2.844578170776367188e+01 8.929733186960220337e-03 1.087619811296463013e-01 3.530751541256904602e-02 4.710645228624343872e-02
6.724000000000000000e+03 6.034452819824218750e+01 -1.355805492401123047e+01 2.125370502471923828e-01 2.258751869201660156e+00 7.413867115974426270e-01 2.778221964836120605e-01
6.725000000000000000e+03 6.172301864624023438e+01 -1.388883399963378906e+01 1.890366822481155396e-01 2.477597951889038086e+00 7.999904155731201172e-01 2.804106473922729492e-01
6.726000000000000000e+03 1.945988464355468750e+01 2.667777633666992188e+01 9.760473854839801788e-03 1.132965683937072754e-01 3.691711276769638062e-02 4.930664971470832825e-02
6.727000000000000000e+03 2.052703857421875000e+01 3.214776229858398438e+01 3.797217039391398430e-03 8.929522335529327393e-02 2.792773209512233734e-02 3.312996402382850647e-02
6.728000000000000000e+03 4.591280364990234375e+01 -2.885258674621582031e+00 3.756567537784576416e-01 5.696846172213554382e-02 1.297875642776489258e-01 1.185265034437179565e-01
6.729000000000000000e+03 5.650464248657226562e+01 -1.132250499725341797e+01 3.002336919307708740e-01 1.628958463668823242e+00 5.787576436996459961e-01 2.603752613067626953e-01
6.730000000000000000e+03 1.409656047821044922e+01 3.236951446533203125e+01 -9.993294253945350647e-03 2.687854506075382233e-02 5.065574776381254196e-03 4.486983176320791245e-03
6.731000000000000000e+03 1.858355331420898438e+01 3.197372055053710938e+01 -1.099077402614057064e-03 7.678994536399841309e-02 2.270726114511489868e-02 2.518581785261631012e-02
6.732000000000000000e+03 2.166052627563476562e+01 3.749741744995117188e+01 7.827696390450000763e-03 8.318784832954406738e-02 2.730466239154338837e-02 1.803409121930599213e-02
6.733000000000000000e+03 5.195296096801757812e+01 2.235192298889160156e+01 -7.864023447036743164e-01 -2.332599610090255737e-01 -3.058986961841583252e-01 -7.998315095901489258e-01
6.734000000000000000e+03 5.281697463989257812e+01 2.186770057678222656e+01 -6.836730241775512695e-01 -1.197286173701286316e-01 -2.410204857587814331e-01 -7.496886253356933594e-01
6.735000000000000000e+03 4.403013610839843750e+01 1.388350772857666016e+01 -5.857735276222229004e-01 -6.442407369613647461e-01 -3.690042793750762939e-01 -6.989449858665466309e-01
6.736000000000000000e+03 4.222148895263671875e+01 1.295041656494140625e+01 -6.565486192703247070e-01 -7.363418340682983398e-01 -4.178671538829803467e-01 -7.238364815711975098e-01
6.737000000000000000e+03 4.264839172363281250e+01 1.307280349731445312e+01 -6.334222555160522461e-01 -7.076125144958496094e-01 -4.023104310035705566e-01 -7.089998722076416016e-01
6.738000000000000000e+03 5.303061294555664062e+01 2.234981918334960938e+01 -7.290955185890197754e-01 -1.041351929306983948e-01 -2.499692142009735107e-01 -7.745470404624938965e-01
6.739000000000000000e+03 4.504848480224609375e+01 1.436839389801025391e+01 -5.460930466651916504e-01 -5.856459736824035645e-01 -3.395217061042785645e-01 -6.744936704635620117e-01
6.740000000000000000e+03 4.696525192260742188e+01 1.672766876220703125e+01 -5.761480927467346191e-01 -5.414099693298339844e-01 -3.352674245834350586e-01 -7.172620892524719238e-01
6.741000000000000000e+03 5.445479202270507812e+01 2.284905052185058594e+01 -7.056601047515869141e-01 2.934420667588710785e-02 -2.028947621583938599e-01 -7.656566500663757324e-01
6.742000000000000000e+03 5.362262344360351562e+01 2.292628860473632812e+01 -7.604821920394897461e-01 -5.861268937587738037e-02 -2.457284629344940186e-01 -7.874662876129150391e-01
6.743000000000000000e+03 4.555416870117187500e+01 1.511260604858398438e+01 -5.574048757553100586e-01 -5.832303762435913086e-01 -3.421905636787414551e-01 -6.976320743560791016e-01
6.744000000000000000e+03 4.513066482543945312e+01 1.531183815002441406e+01 -5.906305313110351562e-01 -6.330993771553039551e-01 -3.671189844608306885e-01 -7.313668131828308105e-01
6.745000000000000000e+03 5.509429931640625000e+01 2.261171722412109375e+01 -6.396189332008361816e-01 9.294270724058151245e-02 -1.640028804540634155e-01 -7.373067140579223633e-01
6.746000000000000000e+03 4.769237136840820312e+01 1.754328155517578125e+01 -5.911996960639953613e-01 -5.185177326202392578e-01 -3.329152166843414307e-01 -7.213424444198608398e-01
6.747000000000000000e+03 5.419879531860351562e+01 2.225781059265136719e+01 -6.508284211158752441e-01 1.907128095626831055e-02 -1.895271390676498413e-01 -7.370507717132568359e-01
6.748000000000000000e+03 5.367948532104492188e+01 2.250968170166015625e+01 -7.142167091369628906e-01 -4.770367220044136047e-02 -2.285761237144470215e-01 -7.643344402313232422e-01
6.749000000000000000e+03 4.561783981323242188e+01 1.652478981018066406e+01 -6.338961124420166016e-01 -6.549438834190368652e-01 -3.866519927978515625e-01 -7.766290903091430664e-01
6.750000000000000000e+03 4.643225860595703125e+01 1.620727920532226562e+01 -5.668270587921142578e-01 -5.634304881095886230e-01 -3.390772640705108643e-01 -7.119643092155456543e-01
6.751000000000000000e+03 5.049680709838867188e+01 2.048620796203613281e+01 -6.802325248718261719e-01 -3.377715647220611572e-01 -3.054012358188629150e-01 -7.526143789291381836e-01
6.752000000000000000e+03 5.047193527221679688e+01 2.098380661010742188e+01 -7.288206815719604492e-01 -3.604181706905364990e-01 -3.267716467380523682e-01 -7.790403962135314941e-01
6.753000000000000000e+03 4.743741989135742188e+01 1.654439544677734375e+01 -5.329164266586303711e-01 -4.849615693092346191e-01 -3.053634166717529297e-01 -6.776659488677978516e-01
6.754000000000000000e+03 4.570404815673828125e+01 1.553928947448730469e+01 -5.735082626342773438e-01 -5.954580903053283691e-01 -3.506899178028106689e-01 -7.165227532386779785e-01
6.755000000000000000e+03 4.584713363647460938e+01 1.595741081237792969e+01 -5.892562866210937500e-01 -6.082248687744140625e-01 -3.592443466186523438e-01 -7.319632172584533691e-01
6.756000000000000000e+03 4.950864791870117188e+01 2.041229438781738281e+01 -7.264010906219482422e-01 -4.503037333488464355e-01 -3.530114591121673584e-01 -7.868537902832031250e-01
6.757000000000000000e+03 4.846643066406250000e+01 1.957313346862792969e+01 -7.071169018745422363e-01 -5.336741805076599121e-01 -3.722373247146606445e-01 -7.936444878578186035e-01
6.758000000000000000e+03 5.094816589355468750e+01 2.150354957580566406e+01 -7.504875063896179199e-01 -3.232104778289794922e-01 -3.221094012260437012e-01 -7.899693250656127930e-01
6.759000000000000000e+03 4.784393692016601562e+01 1.969187927246093750e+01 -7.462586164474487305e-01 -6.059660911560058594e-01 -4.056674242019653320e-01 -8.267655372619628906e-01
6.760000000000000000e+03 4.141855621337890625e+01 1.203326797485351562e+01 -6.723458170890808105e-01 -7.544699311256408691e-01 -4.280447363853454590e-01 -7.073204517364501953e-01
6.761000000000000000e+03 4.227006912231445312e+01 1.235649108886718750e+01 -6.208574175834655762e-01 -7.020304203033447266e-01 -3.968663513660430908e-01 -6.820792555809020996e-01
6.762000000000000000e+03 4.107399368286132812e+01 9.610690116882324219e+00 -5.521915555000305176e-01 -6.541462540626525879e-01 -3.619013428688049316e-01 -5.459299683570861816e-01
6.763000000000000000e+03 4.800045776367187500e+01 1.710681343078613281e+01 -5.396906137466430664e-01 -4.563140571117401123e-01 -2.988013923168182373e-01 -6.788108944892883301e-01
6.764000000000000000e+03 4.050664901733398438e+01 8.618611335754394531e+00 -5.322641730308532715e-01 -6.409289836883544922e-01 -3.519579470157623291e-01 -4.988902211189270020e-01
6.765000000000000000e+03 4.079488372802734375e+01 9.081296920776367188e+00 -5.394676327705383301e-01 -6.477943062782287598e-01 -3.561785817146301270e-01 -5.201198458671569824e-01
6.766000000000000000e+03 4.148572158813476562e+01 1.269390678405761719e+01 -6.902841925621032715e-01 -7.764281630516052246e-01 -4.400137066841125488e-01 -7.421061396598815918e-01
6.767000000000000000e+03 5.143055343627929688e+01 2.196954536437988281e+01 -7.730384469032287598e-01 -2.803987264633178711e-01 -3.160311579704284668e-01 -7.976984977722167969e-01
6.768000000000000000e+03 3.661640167236328125e+01 3.839762210845947266e+00 -5.012016296386718750e-01 -6.215722560882568359e-01 -3.368321657180786133e-01 -2.626124918460845947e-01
6.769000000000000000e+03 4.884602355957031250e+01 1.895320701599121094e+01 -6.385308504104614258e-01 -4.655984938144683838e-01 -3.312388062477111816e-01 -7.419171929359436035e-01
6.770000000000000000e+03 3.796502304077148438e+01 6.311871051788330078e+00 -5.733476877212524414e-01 -6.719778180122375488e-01 -3.735976517200469971e-01 -4.310495555400848389e-01
6.771000000000000000e+03 4.051819610595703125e+01 -1.951757669448852539e-01 1.487788408994674683e-01 -4.126093983650207520e-01 -7.914917171001434326e-02 2.207061834633350372e-02
6.772000000000000000e+03 5.183728408813476562e+01 2.193057823181152344e+01 -7.516944408416748047e-01 -2.360776662826538086e-01 -2.963316440582275391e-01 -7.845957875251770020e-01
6.773000000000000000e+03 5.249916076660156250e+01 2.141348457336425781e+01 -6.588436961174011230e-01 -1.403946727514266968e-01 -2.397715151309967041e-01 -7.335196733474731445e-01
6.774000000000000000e+03 3.962050628662109375e+01 8.066267967224121094e+00 -5.613126158714294434e-01 -6.710274219512939453e-01 -3.697020113468170166e-01 -4.961864054203033447e-01
6.775000000000000000e+03 3.996249389648437500e+01 7.872564792633056641e+00 -5.274372100830078125e-01 -6.433692574501037598e-01 -3.512419462203979492e-01 -4.683929085731506348e-01
6.776000000000000000e+03 3.552972793579101562e+01 1.135084390640258789e+00 -2.090630531311035156e-01 -6.017833352088928223e-01 -2.432539165019989014e-01 -4.992652311921119690e-02
6.777000000000000000e+03 1.837214469909667969e+01 1.855033302307128906e+01 4.483822360634803772e-02 1.743297278881072998e-01 6.575039029121398926e-02 9.124187380075454712e-02
6.778000000000000000e+03 3.916698455810546875e+01 7.219933509826660156e+00 -5.399605631828308105e-01 -6.574124097824096680e-01 -3.592118918895721436e-01 -4.549792706966400146e-01
6.779000000000000000e+03 3.719032287597656250e+01 8.664451837539672852e-01 -8.037871867418289185e-02 -5.616595745086669922e-01 -1.926114857196807861e-01 -3.158830478787422180e-02
6.780000000000000000e+03 3.619544219970703125e+01 2.204148530960083008e+00 -3.265410661697387695e-01 -5.976988673210144043e-01 -2.772719562053680420e-01 -1.218839660286903381e-01
6.781000000000000000e+03 5.521723175048828125e+01 2.330467987060546875e+01 -7.127977609634399414e-01 9.023912996053695679e-02 -1.867675781250000000e-01 -7.778251171112060547e-01
6.782000000000000000e+03 1.869823646545410156e+01 2.268922233581542969e+01 1.986023783683776855e-02 1.378573924303054810e-01 4.731529206037521362e-02 6.404788792133331299e-02
6.783000000000000000e+03 3.755662918090820312e+01 5.278264999389648438e+00 -5.402008891105651855e-01 -6.423305869102478027e-01 -3.547594249248504639e-01 -3.593674600124359131e-01
6.784000000000000000e+03 3.789304351806640625e+01 6.917854309082031250e+00 -6.357638239860534668e-01 -7.034313082695007324e-01 -4.017585217952728271e-01 -4.908697009086608887e-01
6.785000000000000000e+03 5.096871566772460938e+01 2.100577926635742188e+01 -7.036531567573547363e-01 -3.044138252735137939e-01 -3.024200797080993652e-01 -7.625543475151062012e-01
6.786000000000000000e+03 5.185501480102539062e+01 2.155294609069824219e+01 -7.090976238250732422e-01 -2.203447371721267700e-01 -2.788327038288116455e-01 -7.640249729156494141e-01
6.787000000000000000e+03 5.731194305419921875e+01 2.142780113220214844e+01 -3.139625191688537598e-01 3.475655615329742432e-01 1.008091401308774948e-02 -5.623020529747009277e-01
6.788000000000000000e+03 4.226896286010742188e+01 1.040915679931640625e+01 -5.097253322601318359e-01 -6.052790880203247070e-01 -3.345013260841369629e-01 -5.444037318229675293e-01
6.789000000000000000e+03 3.955872344970703125e+01 5.056806206703186035e-01 5.865633860230445862e-02 -4.694068133831024170e-01 -1.232251450419425964e-01 -5.701661575585603714e-03
6.790000000000000000e+03 3.598765563964843750e+01 3.960865497589111328e+00 -5.630932450294494629e-01 -6.402216553688049316e-01 -3.609944581985473633e-01 -2.855814695358276367e-01
6.791000000000000000e+03 2.097305679321289062e+01 2.521297454833984375e+01 2.194745838642120361e-02 1.315217465162277222e-01 4.604076221585273743e-02 6.599192321300506592e-02
6.792000000000000000e+03 5.993960571289062500e+01 5.234056949615478516e+00 4.021314680576324463e-01 1.802410244941711426e+00 6.613625288009643555e-01 4.540855586528778076e-01
6.793000000000000000e+03 6.020503616333007812e+01 1.974497795104980469e+01 1.185208112001419067e-01 7.856976985931396484e-01 2.712655365467071533e-01 -1.943440884351730347e-01
6.794000000000000000e+03 3.777419281005859375e+01 2.771929204463958740e-01 5.116758868098258972e-03 -5.473527908325195312e-01 -1.626708060503005981e-01 -4.168318584561347961e-03
6.795000000000000000e+03 1.847239875793457031e+01 2.154515266418457031e+01 2.520444057881832123e-02 1.468908041715621948e-01 5.162857472896575928e-02 6.937943398952484131e-02
6.796000000000000000e+03 1.899922752380371094e+01 2.125177764892578125e+01 3.072006627917289734e-02 1.527054756879806519e-01 5.502766370773315430e-02 7.585535198450088501e-02
6.797000000000000000e+03 4.263380813598632812e+01 -1.268490195274353027e+00 2.704052627086639404e-01 -2.605292797088623047e-01 2.962799044325947762e-03 6.092803552746772766e-02
6.798000000000000000e+03 4.512225723266601562e+01 -2.432338476181030273e+00 3.499442338943481445e-01 -3.242576122283935547e-02 9.525554627180099487e-02 1.053382456302642822e-01
6.799000000000000000e+03 5.484283447265625000e+01 2.193055534362792969e+01 -5.653430819511413574e-01 8.839498460292816162e-02 -1.430844366550445557e-01 -6.976137757301330566e-01
6.800000000000000000e+03 6.073867034912109375e+01 1.882862854003906250e+01 2.393540441989898682e-01 9.638208150863647461e-01 3.609524369239807129e-01 -5.373804271221160889e-02
6.801000000000000000e+03 6.166786575317382812e+01 1.926835250854492188e+01 2.984259128570556641e-01 1.051618576049804688e+00 4.050133228302001953e-01 5.688365548849105835e-03
6.802000000000000000e+03 5.808309936523437500e+01 4.200257062911987305e-01 3.848679065704345703e-01 1.645520567893981934e+00 6.091165542602539062e-01 4.014312028884887695e-01
6.803000000000000000e+03 5.936277770996093750e+01 -7.619709014892578125e+00 3.131806850433349609e-01 2.027389049530029297e+00 7.021709084510803223e-01 3.590257465839385986e-01
6.804000000000000000e+03 6.172595214843750000e+01 1.306492996215820312e+01 4.598493874073028564e-01 1.682851552963256836e+00 6.428102850914001465e-01 3.986627161502838135e-01
6.805000000000000000e+03 6.119347000122070312e+01 1.090152549743652344e+01 4.439750611782073975e-01 1.733858942985534668e+00 6.533501744270324707e-01 4.320690035820007324e-01
6.806000000000000000e+03 3.647646713256835938e+01 9.349120855331420898e-01 -1.447802484035491943e-01 -5.962934494018554688e-01 -2.223221212625503540e-01 -4.559121280908584595e-02
6.807000000000000000e+03 6.259664154052734375e+01 1.638693046569824219e+01 4.669969975948333740e-01 1.534852862358093262e+00 6.005549430847167969e-01 3.141761422157287598e-01
6.808000000000000000e+03 6.258773803710937500e+01 1.548922920227050781e+01 4.827190637588500977e-01 1.624169707298278809e+00 6.320666074752807617e-01 3.678728640079498291e-01
6.809000000000000000e+03 6.177741622924804688e+01 1.549886417388916016e+01 4.342367947101593018e-01 1.478669285774230957e+00 5.738717913627624512e-01 2.829117476940155029e-01
6.810000000000000000e+03 4.431966400146484375e+01 -2.014816045761108398e+00 3.324505090713500977e-01 -1.102823838591575623e-01 6.665043532848358154e-02 9.144971519708633423e-02
6.811000000000000000e+03 6.085388946533203125e+01 1.244063186645507812e+01 4.285060763359069824e-01 1.556395769119262695e+00 5.954705476760864258e-01 3.548147082328796387e-01
6.812000000000000000e+03 2.043804740905761719e+01 2.280844688415527344e+01 2.949354611337184906e-02 1.455053389072418213e-01 5.249966681003570557e-02 7.642602920532226562e-02
6.813000000000000000e+03 5.967798614501953125e+01 2.090048789978027344e+00 3.888767957687377930e-01 1.868790030479431152e+00 6.773000359535217285e-01 4.572296738624572754e-01
6.814000000000000000e+03 5.918917846679687500e+01 -3.118742704391479492e+00 3.585157692432403564e-01 1.927594542503356934e+00 6.858330965042114258e-01 4.119922518730163574e-01
6.815000000000000000e+03 5.849345779418945312e+01 -4.483458518981933594e+00 3.574460148811340332e-01 1.835937023162841797e+00 6.580148935317993164e-01 3.884448409080505371e-01
6.816000000000000000e+03 5.921657943725585938e+01 3.033815145492553711e+00 3.875241279602050781e-01 1.752606749534606934e+00 6.420392394065856934e-01 4.354372620582580566e-01
6.817000000000000000e+03 6.020910263061523438e+01 3.562786579132080078e+00 3.971114754676818848e-01 1.921110391616821289e+00 6.954665780067443848e-01 4.735892415046691895e-01
6.818000000000000000e+03 4.707601928710937500e+01 -2.476653814315795898e+00 3.689118921756744385e-01 1.780635714530944824e-01 1.640926450490951538e-01 1.360072940587997437e-01
6.819000000000000000e+03 4.981625366210937500e+01 -5.564278125762939453e+00 4.160391688346862793e-01 5.592896938323974609e-01 2.925986647605895996e-01 1.898506432771682739e-01
6.820000000000000000e+03 4.891321945190429688e+01 -5.449913501739501953e+00 4.172153174877166748e-01 4.405629038810729980e-01 2.573334574699401855e-01 1.739738881587982178e-01
6.821000000000000000e+03 5.925028228759765625e+01 -6.505625247955322266e+00 3.250085115432739258e-01 1.992871999740600586e+00 6.953641772270202637e-01 3.661563992500305176e-01
6.822000000000000000e+03 6.030601882934570312e+01 9.674733161926269531e+00 4.160558879375457764e-01 1.631014347076416016e+00 6.141210794448852539e-01 4.040344953536987305e-01
6.823000000000000000e+03 6.101443481445312500e+01 9.105972290039062500e+00 4.325396418571472168e-01 1.814953088760375977e+00 6.742478013038635254e-01 4.639971852302551270e-01
6.824000000000000000e+03 6.121089553833007812e+01 7.751991748809814453e+00 4.293051362037658691e-01 1.928901433944702148e+00 7.074619531631469727e-01 4.961819648742675781e-01
6.825000000000000000e+03 2.127734375000000000e+01 2.627347183227539062e+01 1.869083382189273834e-02 1.266140937805175781e-01 4.359147697687149048e-02 6.214431673288345337e-02
6.826000000000000000e+03 4.381630706787109375e+01 -7.903103232383728027e-01 2.655867338180541992e-01 -1.685367971658706665e-01 2.911498211324214935e-02 6.840600818395614624e-02
6.827000000000000000e+03 5.765436553955078125e+01 -7.022992968559265137e-01 3.819537758827209473e-01 1.593019247055053711e+00 5.924919247627258301e-01 3.898893892765045166e-01
6.828000000000000000e+03 5.678698348999023438e+01 -2.178397417068481445e+00 3.845646381378173828e-01 1.495501518249511719e+00 5.640198588371276855e-01 3.657469153404235840e-01
6.829000000000000000e+03 6.125558090209960938e+01 1.798848152160644531e+01 3.523845672607421875e-01 1.129054903984069824e+00 4.444318413734436035e-01 7.647436112165451050e-02
6.830000000000000000e+03 5.063982009887695312e+01 -9.029934883117675781e+00 3.968661427497863770e-01 7.395509481430053711e-01 3.409251272678375244e-01 1.800515502691268921e-01
6.831000000000000000e+03 5.007007217407226562e+01 -7.795346736907958984e+00 4.146838486194610596e-01 6.414445042610168457e-01 3.168385028839111328e-01 1.870967894792556763e-01
6.832000000000000000e+03 6.066472625732421875e+01 -1.197025489807128906e+01 2.321370095014572144e-01 2.289365291595458984e+00 7.564506530761718750e-01 3.016848266124725342e-01
6.833000000000000000e+03 4.949517822265625000e+01 -3.351477861404418945e+00 3.937891423702239990e-01 4.741310477256774902e-01 2.603760659694671631e-01 1.882491111755371094e-01
6.834000000000000000e+03 5.283840942382812500e+01 -9.077991485595703125e+00 3.771839737892150879e-01 1.036914706230163574e+00 4.242295920848846436e-01 2.217559814453125000e-01
6.835000000000000000e+03 5.760646438598632812e+01 -1.303593540191650391e+01 2.559420764446258545e-01 1.826947093009948730e+00 6.248667836189270020e-01 2.564240694046020508e-01
6.836000000000000000e+03 1.800191307067871094e+01 3.448916625976562500e+01 -2.845120849087834358e-03 6.007161736488342285e-02 1.716794818639755249e-02 1.695179194211959839e-02
6.837000000000000000e+03 5.817702102661132812e+01 -8.758279800415039062e+00 3.233067095279693604e-01 1.867665767669677734e+00 6.572917699813842773e-01 3.184675574302673340e-01
6.838000000000000000e+03 5.174383163452148438e+01 -8.318286895751953125e+00 3.924136459827423096e-01 8.688178658485412598e-01 3.783694505691528320e-01 2.074023783206939697e-01
6.839000000000000000e+03 5.000608825683593750e+01 2.044069290161132812e+01 -7.022963762283325195e-01 -3.944332003593444824e-01 -3.290188610553741455e-01 -7.686137557029724121e-01
6.840000000000000000e+03 4.886515808105468750e+01 1.949761009216308594e+01 -6.770448088645935059e-01 -4.777682423591613770e-01 -3.464439213275909424e-01 -7.680639028549194336e-01
6.841000000000000000e+03 5.311962127685546875e+01 2.044894218444824219e+01 -5.282709598541259766e-01 -3.919932618737220764e-02 -1.702410876750946045e-01 -6.580365300178527832e-01
6.842000000000000000e+03 5.216801834106445312e+01 2.176609611511230469e+01 -7.162254452705383301e-01 -1.928431242704391479e-01 -2.727205753326416016e-01 -7.655200958251953125e-01
6.843000000000000000e+03 5.331249237060546875e+01 2.168963623046875000e+01 -6.307386755943298340e-01 -5.802545696496963501e-02 -2.066292315721511841e-01 -7.229375839233398438e-01
6.844000000000000000e+03 4.522653961181640625e+01 1.366001510620117188e+01 -4.966234266757965088e-01 -5.319238901138305664e-01 -3.085641860961914062e-01 -6.198145151138305664e-01
6.845000000000000000e+03 4.340301132202148438e+01 8.751045227050781250e+00 -3.377510011196136475e-01 -4.499578475952148438e-01 -2.363126575946807861e-01 -3.808625340461730957e-01
6.846000000000000000e+03 4.409829711914062500e+01 1.274493980407714844e+01 -5.217984914779663086e-01 -5.751956105232238770e-01 -3.290982246398925781e-01 -6.168143153190612793e-01
6.847000000000000000e+03 4.532793807983398438e+01 1.472747611999511719e+01 -5.519611239433288574e-01 -5.825722217559814453e-01 -3.403599858283996582e-01 -6.853225231170654297e-01
6.848000000000000000e+03 5.382532119750976562e+01 2.181414222717285156e+01 -6.136310696601867676e-01 -1.046371995471417904e-03 -1.844032406806945801e-01 -7.166995406150817871e-01
6.849000000000000000e+03 5.345735931396484375e+01 2.211754417419433594e+01 -6.823920607566833496e-01 -5.810086056590080261e-02 -2.221478819847106934e-01 -7.534718513488769531e-01
6.850000000000000000e+03 4.717935943603515625e+01 1.610150527954101562e+01 -5.205565690994262695e-01 -4.890203475952148438e-01 -3.028730750083923340e-01 -6.684505343437194824e-01
6.851000000000000000e+03 4.752103424072265625e+01 1.697474288940429688e+01 -5.519018173217773438e-01 -4.944451153278350830e-01 -3.139040768146514893e-01 -6.956348419189453125e-01
6.852000000000000000e+03 4.769904327392578125e+01 1.587310218811035156e+01 -4.794855415821075439e-01 -4.283787012100219727e-01 -2.723592817783355713e-01 -6.287043094635009766e-01
6.853000000000000000e+03 5.337430572509765625e+01 2.116890907287597656e+01 -5.901238918304443359e-01 -4.208655655384063721e-02 -1.896631270647048950e-01 -6.939461827278137207e-01
6.854000000000000000e+03 4.638525390625000000e+01 1.580724334716796875e+01 -5.477433204650878906e-01 -5.439738631248474121e-01 -3.275151550769805908e-01 -6.923974156379699707e-01
6.855000000000000000e+03 4.837940216064453125e+01 1.741230392456054688e+01 -5.381408929824829102e-01 -4.292693734169006348e-01 -2.902230918407440186e-01 -6.795521378517150879e-01
6.856000000000000000e+03 5.101875305175781250e+01 2.006376647949218750e+01 -6.117600202560424805e-01 -2.574391067028045654e-01 -2.607597410678863525e-01 -7.075874805450439453e-01
6.857000000000000000e+03 4.952428436279296875e+01 1.986680603027343750e+01 -6.752908825874328613e-01 -4.254466593265533447e-01 -3.302212655544281006e-01 -7.564318776130676270e-01
6.858000000000000000e+03 4.791217422485351562e+01 1.631751823425292969e+01 -4.955334663391113281e-01 -4.328560829162597656e-01 -2.785168588161468506e-01 -6.437012553215026855e-01
6.859000000000000000e+03 4.606734085083007812e+01 1.489675426483154297e+01 -5.117357969284057617e-01 -5.263430476188659668e-01 -3.114236593246459961e-01 -6.547048687934875488e-01
6.860000000000000000e+03 4.677207183837890625e+01 1.517820072174072266e+01 -4.866451323032379150e-01 -4.760140478610992432e-01 -2.887977361679077148e-01 -6.361393332481384277e-01
6.861000000000000000e+03 4.254272842407226562e+01 1.347628211975097656e+01 -6.713785529136657715e-01 -7.435691952705383301e-01 -4.244843125343322754e-01 -7.499817013740539551e-01
6.862000000000000000e+03 4.176588821411132812e+01 1.229886341094970703e+01 -6.581680774688720703e-01 -7.414672970771789551e-01 -4.198906123638153076e-01 -7.068471908569335938e-01
6.863000000000000000e+03 4.490961456298828125e+01 1.332687187194824219e+01 -4.972820878028869629e-01 -5.416536927223205566e-01 -3.116807341575622559e-01 -6.141231656074523926e-01
6.864000000000000000e+03 4.623633956909179688e+01 1.535525989532470703e+01 -5.282930135726928711e-01 -5.356707572937011719e-01 -3.191891312599182129e-01 -6.737078428268432617e-01
6.865000000000000000e+03 4.872608184814453125e+01 1.767729377746582031e+01 -5.415906310081481934e-01 -4.149774909019470215e-01 -2.869704365730285645e-01 -6.765485405921936035e-01
6.866000000000000000e+03 4.384390258789062500e+01 1.343290996551513672e+01 -5.741401910781860352e-01 -6.369794011116027832e-01 -3.633358776569366455e-01 -6.795019507408142090e-01
6.867000000000000000e+03 4.205814743041992188e+01 1.122268486022949219e+01 -5.729794502258300781e-01 -6.655794978141784668e-01 -3.715676665306091309e-01 -6.165962219238281250e-01
6.868000000000000000e+03 4.023414611816406250e+01 8.210191726684570312e+00 -5.235480666160583496e-01 -6.405237913131713867e-01 -3.492215573787689209e-01 -4.804088771343231201e-01
6.869000000000000000e+03 4.160618591308593750e+01 9.331461906433105469e+00 -4.920865893363952637e-01 -6.043723821640014648e-01 -3.289377093315124512e-01 -5.027145743370056152e-01
6.870000000000000000e+03 4.163338470458984375e+01 1.145497417449951172e+01 -6.112934350967407227e-01 -7.000463008880615234e-01 -3.934019207954406738e-01 -6.476466655731201172e-01
6.871000000000000000e+03 4.171141433715820312e+01 1.072853374481201172e+01 -5.709175467491149902e-01 -6.667101979255676270e-01 -3.712883293628692627e-01 -5.957512259483337402e-01
6.872000000000000000e+03 4.130876159667968750e+01 8.765511512756347656e+00 -4.838615953922271729e-01 -6.015413403511047363e-01 -3.256208896636962891e-01 -4.719288051128387451e-01
6.873000000000000000e+03 4.192197418212890625e+01 9.876547813415527344e+00 -5.066456198692321777e-01 -6.060486435890197754e-01 -3.338082730770111084e-01 -5.236982107162475586e-01
6.874000000000000000e+03 4.915415191650390625e+01 1.917325592041015625e+01 -6.339033246040344238e-01 -4.316198527812957764e-01 -3.196569383144378662e-01 -7.375018596649169922e-01
6.875000000000000000e+03 3.687899780273437500e+01 4.353392601013183594e+00 -5.166391134262084961e-01 -6.343363523483276367e-01 -3.452926278114318848e-01 -2.963620424270629883e-01
6.876000000000000000e+03 3.559542846679687500e+01 2.143572092056274414e+00 -3.561393916606903076e-01 -6.054104566574096680e-01 -2.884649634361267090e-01 -1.162825971841812134e-01
6.877000000000000000e+03 3.636153030395507812e+01 1.558061242103576660e+00 -2.197192311286926270e-01 -5.850973725318908691e-01 -2.414449900388717651e-01 -6.639695912599563599e-02
6.878000000000000000e+03 3.959596252441406250e+01 7.708633422851562500e+00 -5.401018857955932617e-01 -6.554932594299316406e-01 -3.586785495281219482e-01 -4.733330309391021729e-01
6.879000000000000000e+03 5.054376602172851562e+01 1.998882102966308594e+01 -6.314237713813781738e-01 -3.146575391292572021e-01 -2.838244140148162842e-01 -7.240971326828002930e-01
6.880000000000000000e+03 3.932672882080078125e+01 6.375803470611572266e+00 -4.812107682228088379e-01 -6.092171669006347656e-01 -3.271283805370330811e-01 -3.774940371513366699e-01
6.881000000000000000e+03 4.918563461303710938e+01 1.872020149230957031e+01 -5.916489362716674805e-01 -4.115686118602752686e-01 -3.009652495384216309e-01 -7.090979814529418945e-01
6.882000000000000000e+03 3.648483276367187500e+01 3.340422153472900391e+00 -4.389436542987823486e-01 -6.094178557395935059e-01 -3.145084381103515625e-01 -2.104944884777069092e-01
6.883000000000000000e+03 6.180023956298828125e+01 1.463978099822998047e+01 4.533568024635314941e-01 1.554257512092590332e+00 6.022842526435852051e-01 3.348771929740905762e-01
6.884000000000000000e+03 3.973499679565429688e+01 7.310035705566406250e+00 -5.016356706619262695e-01 -6.305191516876220703e-01 -3.396464586257934570e-01 -4.377303421497344971e-01
6.885000000000000000e+03 3.884902954101562500e+01 6.599476814270019531e+00 -5.346800684928894043e-01 -6.457247138023376465e-01 -3.541214466094970703e-01 -4.214794337749481201e-01
6.886000000000000000e+03 4.126802444458007812e+01 -7.614264637231826782e-02 1.554206907749176025e-01 -3.784467279911041260e-01 -6.690780818462371826e-02 2.567495033144950867e-02
6.887000000000000000e+03 3.968124771118164062e+01 1.886464595794677734e+00 -6.673365831375122070e-02 -4.757260978221893311e-01 -1.627379208803176880e-01 -5.939824506640434265e-02
6.888000000000000000e+03 2.053821372985839844e+01 2.369539260864257812e+01 2.591741457581520081e-02 1.397779583930969238e-01 4.970861226320266724e-02 7.128624618053436279e-02
6.889000000000000000e+03 2.205657768249511719e+01 2.419102859497070312e+01 3.197546303272247314e-02 1.419638544321060181e-01 5.218179523944854736e-02 7.906385511159896851e-02
6.890000000000000000e+03 5.956572341918945312e+01 4.343178749084472656e+00 4.016712009906768799e-01 1.789107561111450195e+00 6.572336554527282715e-01 4.488735496997833252e-01
6.891000000000000000e+03 5.766459655761718750e+01 1.324815273284912109e+00 3.838633298873901367e-01 1.548545002937316895e+00 5.797225236892700195e-01 3.905950486660003662e-01
6.892000000000000000e+03 3.956459426879882812e+01 1.241069793701171875e+00 -8.057104423642158508e-03 -4.803045988082885742e-01 -1.465085148811340332e-01 -3.462840989232063293e-02
6.893000000000000000e+03 2.112787055969238281e+01 2.419780158996582031e+01 2.650783956050872803e-02 1.393688768148422241e-01 4.976301267743110657e-02 7.244090735912322998e-02
6.894000000000000000e+03 5.971543884277343750e+01 2.024040222167968750e+01 3.882230818271636963e-02 6.751753687858581543e-01 2.141992896795272827e-01 -2.890035212039947510e-01
6.895000000000000000e+03 6.145489883422851562e+01 1.859739112854003906e+01 3.137561976909637451e-01 1.096255779266357422e+00 4.230035841464996338e-01 4.082500189542770386e-02
6.896000000000000000e+03 6.094251251220703125e+01 1.951944351196289062e+01 2.122354954481124878e-01 9.150906801223754883e-01 3.381978571414947510e-01 -1.021139472723007202e-01
6.897000000000000000e+03 3.789002227783203125e+01 4.480767726898193359e+00 -4.380547404289245605e-01 -6.007853150367736816e-01 -3.116520345211029053e-01 -2.745729684829711914e-01
6.898000000000000000e+03 3.930968475341796875e+01 6.783502101898193359e+00 -5.118724703788757324e-01 -6.339370608329772949e-01 -3.437428772449493408e-01 -4.167044162750244141e-01
6.899000000000000000e+03 3.717750167846679688e+01 1.586665868759155273e+00 -1.698727309703826904e-01 -5.729267001152038574e-01 -2.228398323059082031e-01 -6.738388538360595703e-02
6.900000000000000000e+03 4.866787338256835938e+01 -3.130626916885375977e+00 3.937090635299682617e-01 3.729641139507293701e-01 2.300019562244415283e-01 1.736779958009719849e-01
6.901000000000000000e+03 6.101200485229492188e+01 1.463738822937011719e+01 4.062908887863159180e-01 1.411098361015319824e+00 5.452167987823486328e-01 2.630439996719360352e-01
6.902000000000000000e+03 4.667880630493164062e+01 -1.240868210792541504e+00 3.274011909961700439e-01 1.146879717707633972e-01 1.326267421245574951e-01 1.185311451554298401e-01
6.903000000000000000e+03 6.172480392456054688e+01 1.646526527404785156e+01 4.161461889743804932e-01 1.364557147026062012e+00 5.342109799385070801e-01 2.218345254659652710e-01
6.904000000000000000e+03 6.090726852416992188e+01 1.315736770629882812e+01 4.220074713230133057e-01 1.507156968116760254e+00 5.787492990493774414e-01 3.269076943397521973e-01
6.905000000000000000e+03 4.288475036621093750e+01 -4.081119000911712646e-01 2.219351232051849365e-01 -2.564289867877960205e-01 -1.034815795719623566e-02 5.026173964142799377e-02
6.906000000000000000e+03 4.224956893920898438e+01 6.862749099731445312e+00 -2.996146678924560547e-01 -4.557808041572570801e-01 -2.266186475753784180e-01 -3.054552972316741943e-01
6.907000000000000000e+03 5.837638092041015625e+01 2.144486999511718750e+01 -2.256562560796737671e-01 4.398983418941497803e-01 6.427261978387832642e-02 -5.034776329994201660e-01
6.908000000000000000e+03 6.078192138671875000e+01 1.178660392761230469e+01 4.323369562625885010e-01 1.587947249412536621e+00 6.060852408409118652e-01 3.758217990398406982e-01
6.909000000000000000e+03 5.449113082885742188e+01 -8.111166954040527344e+00 3.700178265571594238e-01 1.261769652366638184e+00 4.895362555980682373e-01 2.630249261856079102e-01
6.910000000000000000e+03 5.105068969726562500e+01 -7.313086032867431641e+00 4.080379605293273926e-01 7.478656172752380371e-01 3.467710614204406738e-01 2.010938823223114014e-01
6.911000000000000000e+03 5.876128768920898438e+01 7.270699024200439453e+00 3.937984704971313477e-01 1.502165794372558594e+00 5.687893033027648926e-01 3.751668334007263184e-01
6.912000000000000000e+03 6.000590896606445312e+01 6.255872249603271484e+00 4.057528674602508545e-01 1.763535380363464355e+00 6.507864594459533691e-01 4.474238753318786621e-01
6.913000000000000000e+03 5.092205429077148438e+01 -4.769260406494140625e+00 4.088739156723022461e-01 6.878616213798522949e-01 3.290206491947174072e-01 2.140776216983795166e-01
6.914000000000000000e+03 6.052227783203125000e+01 1.125289249420166016e+01 4.231617152690887451e-01 1.571202039718627930e+00 5.983090996742248535e-01 3.730143308639526367e-01
6.915000000000000000e+03 5.881571197509765625e+01 -5.461991786956787109e+00 3.505364060401916504e-01 1.915281057357788086e+00 6.797452569007873535e-01 3.832510411739349365e-01
6.916000000000000000e+03 5.821423721313476562e+01 2.640746355056762695e+00 3.831631839275360107e-01 1.598615884780883789e+00 5.945336818695068359e-01 4.048514962196350098e-01
6.917000000000000000e+03 5.840120315551757812e+01 -5.103188157081604004e-01 3.776577115058898926e-01 1.722921013832092285e+00 6.301736235618591309e-01 4.099040329456329346e-01
6.918000000000000000e+03 5.948777008056640625e+01 -1.014208507537841797e+01 2.772302031517028809e-01 2.090378284454345703e+00 7.102825641632080078e-01 3.147175312042236328e-01
6.919000000000000000e+03 6.038549423217773438e+01 8.430466651916503906e+00 4.198317229747772217e-01 1.729051113128662109e+00 6.446648240089416504e-01 4.382193684577941895e-01
6.920000000000000000e+03 4.467385482788085938e+01 -1.189159154891967773e+00 2.948862314224243164e-01 -9.144415706396102905e-02 6.103261932730674744e-02 8.614566177129745483e-02
6.921000000000000000e+03 4.261695861816406250e+01 1.550125002861022949e+00 8.993900567293167114e-02 -2.920720577239990234e-01 -6.063991412520408630e-02 -1.110849529504776001e-02
6.922000000000000000e+03 5.672478485107421875e+01 -9.890355110168457031e+00 3.197285830974578857e-01 1.637261986732482910e+00 5.870971679687500000e-01 2.828627228736877441e-01
6.923000000000000000e+03 4.786388778686523438e+01 -2.843087434768676758e+00 3.799786269664764404e-01 2.681341171264648438e-01 1.944338083267211914e-01 1.550893187522888184e-01
6.924000000000000000e+03 5.518137359619140625e+01 -1.108234500885009766e+01 3.196251690387725830e-01 1.427225708961486816e+00 5.240552425384521484e-01 2.410807311534881592e-01
6.925000000000000000e+03 5.744211959838867188e+01 -7.342184066772460938e+00 3.426130115985870361e-01 1.704404830932617188e+00 6.141053438186645508e-01 3.242199420928955078e-01
6.926000000000000000e+03 5.817685317993164062e+01 -1.296883463859558105e+00 3.842855095863342285e-01 1.714256286621093750e+00 6.295625567436218262e-01 4.031655490398406982e-01
6.927000000000000000e+03 5.248972702026367188e+01 -7.342772960662841797e+00 3.964848816394805908e-01 9.691908359527587891e-01 4.097027182579040527e-01 2.332441955804824829e-01
6.928000000000000000e+03 4.562695693969726562e+01 1.336878108978271484e+01 -4.577501714229583740e-01 -4.873904883861541748e-01 -2.835421860218048096e-01 -5.852106809616088867e-01
6.929000000000000000e+03 4.597011184692382812e+01 1.366729164123535156e+01 -4.522178471088409424e-01 -4.703885018825531006e-01 -2.767818868160247803e-01 -5.823891162872314453e-01
6.930000000000000000e+03 4.587474441528320312e+01 1.443844127655029297e+01 -4.962978065013885498e-01 -5.178586840629577637e-01 -3.042469620704650879e-01 -6.347624659538269043e-01
6.931000000000000000e+03 5.398645401000976562e+01 2.128714942932128906e+01 -5.556017160415649414e-01 2.579487673938274384e-02 -1.589420586824417114e-01 -6.836441755294799805e-01
6.932000000000000000e+03 4.647818756103515625e+01 1.422272205352783203e+01 -4.463435113430023193e-01 -4.533783197402954102e-01 -2.699165642261505127e-01 -5.907664299011230469e-01
6.933000000000000000e+03 4.840194320678710938e+01 1.613793563842773438e+01 -4.468899071216583252e-01 -3.609322309494018555e-01 -2.423466444015502930e-01 -6.012428998947143555e-01
6.934000000000000000e+03 4.748241806030273438e+01 1.543779373168945312e+01 -4.580189287662506104e-01 -4.240555763244628906e-01 -2.646223604679107666e-01 -6.142203807830810547e-01
6.935000000000000000e+03 4.886666870117187500e+01 1.674875640869140625e+01 -4.691356718540191650e-01 -3.551222383975982666e-01 -2.472773790359497070e-01 -6.201176047325134277e-01
6.936000000000000000e+03 4.882157135009765625e+01 1.725260925292968750e+01 -5.048058032989501953e-01 -3.835195302963256836e-01 -2.664976119995117188e-01 -6.476892828941345215e-01
6.937000000000000000e+03 4.694396591186523438e+01 1.564829635620117188e+01 -5.079771876335144043e-01 -4.885589480400085449e-01 -2.989608347415924072e-01 -6.554218530654907227e-01
6.938000000000000000e+03 4.661335372924804688e+01 1.470474624633789062e+01 -4.690181612968444824e-01 -4.666135013103485107e-01 -2.806895077228546143e-01 -6.148417592048645020e-01
6.939000000000000000e+03 4.970894622802734375e+01 1.868198013305664062e+01 -5.631425380706787109e-01 -3.509213924407958984e-01 -2.742191851139068604e-01 -6.867041587829589844e-01
6.940000000000000000e+03 4.961019897460937500e+01 1.928855895996093750e+01 -6.237497329711914062e-01 -3.928163051605224609e-01 -3.049698173999786377e-01 -7.250058650970458984e-01
6.941000000000000000e+03 4.365880584716796875e+01 1.299123859405517578e+01 -5.650676488876342773e-01 -6.315899491310119629e-01 -3.589972853660583496e-01 -6.583341956138610840e-01
6.942000000000000000e+03 5.004962158203125000e+01 1.991690826416015625e+01 -6.515301465988159180e-01 -3.678766191005706787e-01 -3.058220446109771729e-01 -7.385385036468505859e-01
6.943000000000000000e+03 4.729156875610351562e+01 1.499772548675537109e+01 -4.455262720584869385e-01 -4.208491742610931396e-01 -2.599126398563385010e-01 -5.950844883918762207e-01
6.944000000000000000e+03 4.714153671264648438e+01 1.454513454437255859e+01 -4.253787398338317871e-01 -4.038720726966857910e-01 -2.487752437591552734e-01 -5.751370191574096680e-01
6.945000000000000000e+03 4.428436279296875000e+01 1.319348716735839844e+01 -5.302109718322753906e-01 -5.839164853096008301e-01 -3.342382311820983887e-01 -6.372813582420349121e-01
6.946000000000000000e+03 4.178741073608398438e+01 1.187080764770507812e+01 -6.220344305038452148e-01 -7.123035192489624023e-01 -4.003013670444488525e-01 -6.661742925643920898e-01
6.947000000000000000e+03 4.095766448974609375e+01 8.306366920471191406e+00 -4.775263965129852295e-01 -6.017101407051086426e-01 -3.237709701061248779e-01 -4.567255377769470215e-01
6.948000000000000000e+03 4.211880493164062500e+01 9.055102348327636719e+00 -4.481182992458343506e-01 -5.544387698173522949e-01 -3.007671236991882324e-01 -4.605591297149658203e-01
6.949000000000000000e+03 4.065203094482421875e+01 7.895869731903076172e+00 -4.755220413208007812e-01 -5.995266437530517578e-01 -3.225145936012268066e-01 -4.383509159088134766e-01
6.950000000000000000e+03 4.185441970825195312e+01 8.511402130126953125e+00 -4.262326955795288086e-01 -5.503734350204467773e-01 -2.929818332195281982e-01 -4.326927661895751953e-01
6.951000000000000000e+03 4.828327178955078125e+01 1.663169097900390625e+01 -4.912078380584716797e-01 -4.057591259479522705e-01 -2.690900862216949463e-01 -6.425355672836303711e-01
6.952000000000000000e+03 4.889500045776367188e+01 1.833774757385253906e+01 -5.794037580490112305e-01 -4.260298013687133789e-01 -3.016300797462463379e-01 -7.031666636466979980e-01
6.953000000000000000e+03 4.921769714355468750e+01 1.788764381408691406e+01 -5.318535566329956055e-01 -3.707821369171142578e-01 -2.707906961441040039e-01 -6.660079360008239746e-01
6.954000000000000000e+03 5.147060012817382812e+01 2.054327011108398438e+01 -6.303386688232421875e-01 -2.268881052732467651e-01 -2.571680247783660889e-01 -7.197092175483703613e-01
6.955000000000000000e+03 5.624304199218750000e+01 2.128847885131835938e+01 -3.939029276371002197e-01 2.481488287448883057e-01 -4.372622817754745483e-02 -5.993430614471435547e-01
6.956000000000000000e+03 5.590224838256835938e+01 2.064412879943847656e+01 -3.525965809822082520e-01 2.446673214435577393e-01 -3.237877786159515381e-02 -5.650411844253540039e-01
6.957000000000000000e+03 4.116464614868164062e+01 7.820155143737792969e+00 -4.367159903049468994e-01 -5.687807798385620117e-01 -3.016490340232849121e-01 -4.125789999961853027e-01
6.958000000000000000e+03 4.028196334838867188e+01 7.510597705841064453e+00 -4.801492393016815186e-01 -6.071112155914306641e-01 -3.261781334877014160e-01 -4.297567605972290039e-01
6.959000000000000000e+03 3.988514328002929688e+01 6.845697879791259766e+00 -4.704852402210235596e-01 -6.003607511520385742e-01 -3.212538063526153564e-01 -3.974246382713317871e-01
6.960000000000000000e+03 4.185538101196289062e+01 1.118228197097778320e+00 8.317147195339202881e-02 -3.457345962524414062e-01 -7.876893877983093262e-02 -3.378792200237512589e-03
6.961000000000000000e+03 3.881510925292968750e+01 4.790185451507568359e+00 -3.871643245220184326e-01 -5.778242945671081543e-01 -2.894966006278991699e-01 -2.727423608303070068e-01
6.962000000000000000e+03 5.007038879394531250e+01 1.688865852355957031e+01 -4.040005207061767578e-01 -2.266599982976913452e-01 -1.891981512308120728e-01 -5.646013021469116211e-01
6.963000000000000000e+03 3.856631469726562500e+01 6.145832538604736328e+00 -5.255898237228393555e-01 -6.401755213737487793e-01 -3.497295975685119629e-01 -3.960842490196228027e-01
6.964000000000000000e+03 3.918714904785156250e+01 5.917467594146728516e+00 -4.486447274684906006e-01 -5.996370315551757812e-01 -3.144845068454742432e-01 -3.514485061168670654e-01
6.965000000000000000e+03 3.838092803955078125e+01 5.570288658142089844e+00 -4.923284053802490234e-01 -6.217365860939025879e-01 -3.342195153236389160e-01 -3.542670607566833496e-01
6.966000000000000000e+03 3.815685653686523438e+01 5.016434192657470703e+00 -4.679339826107025146e-01 -6.088873147964477539e-01 -3.230463862419128418e-01 -3.135848045349121094e-01
6.967000000000000000e+03 5.202442550659179688e+01 2.111412048339843750e+01 -6.556967496871948242e-01 -1.853886991739273071e-01 -2.523256242275238037e-01 -7.317736148834228516e-01
6.968000000000000000e+03 5.446227645874023438e+01 2.057838439941406250e+01 -4.496134817600250244e-01 9.893234819173812866e-02 -1.052043363451957703e-01 -6.140198111534118652e-01
6.969000000000000000e+03 3.865154647827148438e+01 1.404334902763366699e+00 -6.924631446599960327e-02 -5.196090936660766602e-01 -1.766566187143325806e-01 -4.648548737168312073e-02
6.970000000000000000e+03 5.612884902954101562e+01 1.966358947753906250e+01 -2.330487668514251709e-01 3.153686225414276123e-01 2.469596080482006073e-02 -4.723770916461944580e-01
6.971000000000000000e+03 4.829096984863281250e+01 1.905275917053222656e+01 -6.683829426765441895e-01 -5.188974142074584961e-01 -3.561840951442718506e-01 -7.684608101844787598e-01
6.972000000000000000e+03 3.695062255859375000e+01 3.081801891326904297e+00 -3.766819834709167480e-01 -5.971855521202087402e-01 -2.921602427959442139e-01 -1.842534393072128296e-01
6.973000000000000000e+03 4.292396926879882812e+01 7.795667648315429688e+00 -3.136844635009765625e-01 -4.476088285446166992e-01 -2.283879816532135010e-01 -3.407777249813079834e-01
6.974000000000000000e+03 4.323503875732421875e+01 1.320158100128173828e+01 -6.028823256492614746e-01 -6.785065531730651855e-01 -3.844166696071624756e-01 -6.917442083358764648e-01
6.975000000000000000e+03 4.245332336425781250e+01 9.558216094970703125e+00 -4.502094686031341553e-01 -5.542854666709899902e-01 -3.013484776020050049e-01 -4.800603389739990234e-01
6.976000000000000000e+03 5.966893005371093750e+01 9.127306938171386719e+00 4.018142223358154297e-01 1.551606297492980957e+00 5.860261321067810059e-01 3.774546384811401367e-01
6.977000000000000000e+03 5.964156723022460938e+01 7.775628566741943359e+00 4.068102538585662842e-01 1.627438068389892578e+00 6.102744936943054199e-01 4.075386226177215576e-01
6.978000000000000000e+03 5.281784057617187500e+01 2.091193771362304688e+01 -5.932846069335937500e-01 -8.955301344394683838e-02 -2.048512846231460571e-01 -6.942488551139831543e-01
6.979000000000000000e+03 6.009398269653320312e+01 1.590733337402343750e+01 3.155121803283691406e-01 1.122321844100952148e+00 4.313502311706542969e-01 9.968771785497665405e-02
6.980000000000000000e+03 4.743334197998046875e+01 -1.649970650672912598e+00 3.432140052318572998e-01 1.966469883918762207e-01 1.619582921266555786e-01 1.362897008657455444e-01
6.981000000000000000e+03 5.675862503051757812e+01 3.235927343368530273e+00 3.737776875495910645e-01 1.314863681793212891e+00 5.065923929214477539e-01 3.463053107261657715e-01
6.982000000000000000e+03 5.716958618164062500e+01 2.489020302891731262e-02 3.792086541652679443e-01 1.490020632743835449e+00 5.607687830924987793e-01 3.767176270484924316e-01
6.983000000000000000e+03 6.062298583984375000e+01 1.812273979187011719e+01 2.619429230690002441e-01 1.011636257171630859e+00 3.820737302303314209e-01 -2.480508945882320404e-02
6.984000000000000000e+03 4.588840866088867188e+01 -7.942644953727722168e-01 2.962680160999298096e-01 1.920337229967117310e-02 9.464141726493835449e-02 9.969063103199005127e-02
6.985000000000000000e+03 4.549432754516601562e+01 -1.616063594818115234e+00 3.283745944499969482e-01 -4.412640351802110672e-03 9.718858450651168823e-02 1.028191745281219482e-01
6.986000000000000000e+03 5.997753524780273438e+01 1.903787612915039062e+01 1.574971526861190796e-01 8.174126148223876953e-01 2.924729287624359131e-01 -1.558968722820281982e-01
6.987000000000000000e+03 5.974756240844726562e+01 1.501339340209960938e+01 3.251979649066925049e-01 1.137360334396362305e+00 4.387674927711486816e-01 1.268564611673355103e-01
6.988000000000000000e+03 6.008440399169921875e+01 1.321538925170898438e+01 3.860695064067840576e-01 1.338052153587341309e+00 5.172364711761474609e-01 2.555882334709167480e-01
6.989000000000000000e+03 5.944380569458007812e+01 1.164185142517089844e+01 3.749306499958038330e-01 1.341305971145629883e+00 5.148710012435913086e-01 2.808770537376403809e-01
6.990000000000000000e+03 6.017260360717773438e+01 1.072389507293701172e+01 4.148080050945281982e-01 1.542622685432434082e+00 5.872291922569274902e-01 3.657908439636230469e-01
6.991000000000000000e+03 5.894071960449218750e+01 1.997494506835937500e+01 -1.441191323101520538e-02 6.035110950469970703e-01 1.767297536134719849e-01 -3.289820849895477295e-01
6.992000000000000000e+03 3.860176086425781250e+01 4.164094448089599609e+00 -3.509043455123901367e-01 -5.661727786064147949e-01 -2.751231193542480469e-01 -2.264444828033447266e-01
6.993000000000000000e+03 5.787502670288085938e+01 6.896886825561523438e+00 3.733714222908020020e-01 1.352307081222534180e+00 5.177035331726074219e-01 3.338198363780975342e-01
6.994000000000000000e+03 5.877899169921875000e+01 3.869741439819335938e+00 3.943535089492797852e-01 1.654360413551330566e+00 6.146141886711120605e-01 4.200525283813476562e-01
6.995000000000000000e+03 3.788414764404296875e+01 1.906394720077514648e+00 -1.685838550329208374e-01 -5.528139472007751465e-01 -2.164193391799926758e-01 -8.406586945056915283e-02
6.996000000000000000e+03 5.760158538818359375e+01 2.031001091003417969e+01 -1.725757569074630737e-01 4.400364160537719727e-01 8.023820072412490845e-02 -4.467785358428955078e-01
6.997000000000000000e+03 6.030274581909179688e+01 1.529044628143310547e+01 3.667672872543334961e-01 1.202140808105468750e+00 4.706724286079406738e-01 1.630855798721313477e-01
6.998000000000000000e+03 5.823170089721679688e+01 -3.517636060714721680e+00 3.648619353771209717e-01 1.762593984603881836e+00 6.382367610931396484e-01 3.850212991237640381e-01
6.999000000000000000e+03 5.757687759399414062e+01 -4.874257564544677734e+00 3.648056983947753906e-01 1.691804528236389160e+00 6.169830560684204102e-01 3.565804064273834229e-01
7.000000000000000000e+03 5.063733291625976562e+01 -6.449243545532226562e+00 4.139328002929687500e-01 6.846790909767150879e-01 3.295835554599761963e-01 2.061929553747177124e-01
7.001000000000000000e+03 5.062101364135742188e+01 -5.645473003387451172e+00 4.126330614089965820e-01 6.702235937118530273e-01 3.248569965362548828e-01 2.060784995555877686e-01
7.002000000000000000e+03 5.125228118896484375e+01 -5.961792945861816406e+00 4.127767384052276611e-01 7.612958550453186035e-01 3.522217571735382080e-01 2.141773253679275513e-01
7.003000000000000000e+03 5.789706039428710938e+01 -2.602093219757080078e+00 3.722753226757049561e-01 1.689751505851745605e+00 6.186080574989318848e-01 3.842241764068603516e-01
7.004000000000000000e+03 5.544564056396484375e+01 -9.666650772094726562e+00 3.415333032608032227e-01 1.442202806472778320e+00 5.351208448410034180e-01 2.637498080730438232e-01
7.005000000000000000e+03 5.900336837768554688e+01 5.462430953979492188e+00 3.907944858074188232e-01 1.614841938018798828e+00 6.016909480094909668e-01 4.100310504436492920e-01
7.006000000000000000e+03 5.780474090576171875e+01 3.573028087615966797e+00 3.857089877128601074e-01 1.493360757827758789e+00 5.637209415435791016e-01 3.850124478340148926e-01
7.007000000000000000e+03 5.369735717773437500e+01 -6.890344142913818359e+00 3.892288506031036377e-01 1.122772932052612305e+00 4.536005556583404541e-01 2.601622939109802246e-01
7.008000000000000000e+03 5.338977432250976562e+01 -7.870052337646484375e+00 3.819998502731323242e-01 1.099825501441955566e+00 4.445476233959197998e-01 2.460733503103256226e-01
7.009000000000000000e+03 5.833329772949218750e+01 -7.668518543243408203e+00 3.240337073802947998e-01 1.866047739982604980e+00 6.570244431495666504e-01 3.363149762153625488e-01
7.010000000000000000e+03 5.574812316894531250e+01 -6.732492446899414062e+00 3.696880936622619629e-01 1.431104183197021484e+00 5.402376651763916016e-01 3.035221397876739502e-01
7.011000000000000000e+03 5.246668624877929688e+01 -5.804483890533447266e+00 4.047699272632598877e-01 9.327731728553771973e-01 4.012629389762878418e-01 2.413392812013626099e-01
7.012000000000000000e+03 5.925905227661132812e+01 -1.172978401184082031e+01 2.558893859386444092e-01 2.071978569030761719e+00 6.983603835105895996e-01 2.929360270500183105e-01
7.013000000000000000e+03 4.897620010375976562e+01 1.618378639221191406e+01 -4.201678633689880371e-01 -3.094884157180786133e-01 -2.188968807458877563e-01 -5.785481333732604980e-01
7.014000000000000000e+03 5.014220428466796875e+01 1.937044525146484375e+01 -6.042401790618896484e-01 -3.369701206684112549e-01 -2.823630869388580322e-01 -7.070413827896118164e-01
7.015000000000000000e+03 4.799571228027343750e+01 1.521046638488769531e+01 -4.128435552120208740e-01 -3.574470877647399902e-01 -2.310871928930282593e-01 -5.725195407867431641e-01
7.016000000000000000e+03 4.224094390869140625e+01 1.176429367065429688e+01 -5.893073081970214844e-01 -6.718717813491821289e-01 -3.783537149429321289e-01 -6.392656564712524414e-01
7.017000000000000000e+03 5.063202667236328125e+01 1.948767852783203125e+01 -5.856019854545593262e-01 -2.809223532676696777e-01 -2.599573135375976562e-01 -6.919465661048889160e-01
7.018000000000000000e+03 4.947648620605468750e+01 1.681867027282714844e+01 -4.354498088359832764e-01 -2.845937013626098633e-01 -2.160130441188812256e-01 -5.902849435806274414e-01
7.019000000000000000e+03 4.377741241455078125e+01 1.015802860260009766e+01 -3.953688442707061768e-01 -4.796496331691741943e-01 -2.625055611133575439e-01 -4.592851400375366211e-01
7.020000000000000000e+03 3.757823562622070312e+01 3.968626022338867188e+00 -4.189039766788482666e-01 -5.950894355773925781e-01 -3.041980266571044922e-01 -2.411301732063293457e-01
7.021000000000000000e+03 4.282508468627929688e+01 1.006669235229492188e+01 -4.586392641067504883e-01 -5.527337193489074707e-01 -3.034119009971618652e-01 -4.969740211963653564e-01
7.022000000000000000e+03 3.737521362304687500e+01 2.582660913467407227e+00 -2.877917885780334473e-01 -5.789884924888610840e-01 -2.600340843200683594e-01 -1.335018724203109741e-01
7.023000000000000000e+03 4.238287734985351562e+01 8.361976623535156250e+00 -3.792825043201446533e-01 -5.006761550903320312e-01 -2.639876008033752441e-01 -3.971360325813293457e-01
7.024000000000000000e+03 5.462898635864257812e+01 2.123715400695800781e+01 -5.052108168601989746e-01 9.021577984094619751e-02 -1.244985163211822510e-01 -6.572011113166809082e-01
7.025000000000000000e+03 5.228004074096679688e+01 2.059304618835449219e+01 -5.913357734680175781e-01 -1.406634002923965454e-01 -2.195997536182403564e-01 -6.961295604705810547e-01
7.026000000000000000e+03 4.258395767211914062e+01 8.783844947814941406e+00 -3.955144882202148438e-01 -5.081053972244262695e-01 -2.710859477519989014e-01 -4.203723669052124023e-01
7.027000000000000000e+03 4.982164001464843750e+01 1.806023025512695312e+01 -5.116798877716064453e-01 -3.126264810562133789e-01 -2.472919076681137085e-01 -6.481792926788330078e-01
7.028000000000000000e+03 5.247403717041015625e+01 2.004347038269042969e+01 -5.236865878105163574e-01 -9.513819962739944458e-02 -1.856474280357360840e-01 -6.549254059791564941e-01
7.029000000000000000e+03 4.342679595947265625e+01 1.213506984710693359e+01 -5.291886329650878906e-01 -6.051680445671081543e-01 -3.403069972991943359e-01 -6.096842288970947266e-01
7.030000000000000000e+03 4.281369400024414062e+01 1.160634708404541016e+01 -5.410698652267456055e-01 -6.284860372543334961e-01 -3.508667647838592529e-01 -6.036947965621948242e-01
7.031000000000000000e+03 4.055042266845703125e+01 6.989574909210205078e+00 -4.238583147525787354e-01 -5.715392827987670898e-01 -2.986192703247070312e-01 -3.791031837463378906e-01
7.032000000000000000e+03 5.031137847900390625e+01 1.878773689270019531e+01 -5.416269302368164062e-01 -2.860119342803955078e-01 -2.482916712760925293e-01 -6.644001007080078125e-01
7.033000000000000000e+03 5.201749038696289062e+01 1.985626602172851562e+01 -5.422010421752929688e-01 -1.506550610065460205e-01 -2.078568339347839355e-01 -6.609141230583190918e-01
7.034000000000000000e+03 3.985294342041015625e+01 5.792310714721679688e+00 -3.972021043300628662e-01 -5.654582381248474121e-01 -2.887980937957763672e-01 -3.187139630317687988e-01
7.035000000000000000e+03 6.089347839355468750e+01 1.751012992858886719e+01 3.244223296642303467e-01 1.122209668159484863e+00 4.339895844459533691e-01 7.388574630022048950e-02
7.036000000000000000e+03 4.118177795410156250e+01 1.802816271781921387e+00 1.444878336042165756e-02 -3.952716886997222900e-01 -1.142468675971031189e-01 -3.499625623226165771e-02
7.037000000000000000e+03 5.527489852905273438e+01 2.098001670837402344e+01 -4.328564405441284180e-01 1.675018072128295898e-01 -7.960639148950576782e-02 -6.134194731712341309e-01
7.038000000000000000e+03 5.691518020629882812e+01 2.082729339599609375e+01 -2.924170196056365967e-01 3.317436277866363525e-01 1.179798692464828491e-02 -5.319103002548217773e-01
7.039000000000000000e+03 5.059848785400390625e+01 1.752742767333984375e+01 -4.203226566314697266e-01 -1.991215944290161133e-01 -1.858332753181457520e-01 -5.776518583297729492e-01
7.040000000000000000e+03 5.396675872802734375e+01 2.072485542297363281e+01 -4.947282373905181885e-01 4.684690758585929871e-02 -1.343643963336944580e-01 -6.410018205642700195e-01
7.041000000000000000e+03 5.157165145874023438e+01 1.969947624206542969e+01 -5.502457022666931152e-01 -1.915848553180694580e-01 -2.225491702556610107e-01 -6.692941188812255859e-01
7.042000000000000000e+03 3.836500167846679688e+01 2.516896247863769531e+00 -2.021860778331756592e-01 -5.414799451828002930e-01 -2.230997979640960693e-01 -1.172287687659263611e-01
7.043000000000000000e+03 4.040395355224609375e+01 5.122722387313842773e-01 8.627637475728988647e-02 -4.315100908279418945e-01 -1.035701185464859009e-01 6.795215886086225510e-04
7.044000000000000000e+03 4.195582199096679688e+01 5.479662418365478516e-01 1.424679458141326904e-01 -3.261531889438629150e-01 -5.510557442903518677e-02 1.163069251924753189e-02
7.045000000000000000e+03 5.917686843872070312e+01 1.911956024169921875e+01 8.289476484060287476e-02 7.090440392494201660e-01 2.375816404819488525e-01 -2.256419360637664795e-01
7.046000000000000000e+03 6.083008956909179688e+01 1.624219322204589844e+01 3.640598058700561523e-01 1.206070184707641602e+00 4.710389971733093262e-01 1.485935598611831665e-01
7.047000000000000000e+03 4.262048339843750000e+01 1.097216796875000000e+01 -5.220422744750976562e-01 -6.092612147331237793e-01 -3.393910527229309082e-01 -5.698590278625488281e-01
7.048000000000000000e+03 5.110230255126953125e+01 1.959864807128906250e+01 -5.653268098831176758e-01 -2.292471677064895630e-01 -2.383721917867660522e-01 -6.768794655799865723e-01
7.049000000000000000e+03 4.592073822021484375e+01 1.317433929443359375e+01 -4.187684953212738037e-01 -4.432992935180664062e-01 -2.586203515529632568e-01 -5.513271689414978027e-01
7.050000000000000000e+03 4.509729385375976562e+01 1.294254398345947266e+01 -4.656089544296264648e-01 -5.112397074699401855e-01 -2.930545806884765625e-01 -5.822318792343139648e-01
7.051000000000000000e+03 4.646044921875000000e+01 1.374497032165527344e+01 -4.258342087268829346e-01 -4.310381114482879639e-01 -2.570616900920867920e-01 -5.631942152976989746e-01
7.052000000000000000e+03 4.825529861450195312e+01 1.564379024505615234e+01 -4.285066425800323486e-01 -3.558465540409088135e-01 -2.353059500455856323e-01 -5.833107829093933105e-01
7.053000000000000000e+03 4.845327377319335938e+01 1.490635108947753906e+01 -3.678164780139923096e-01 -2.944600284099578857e-01 -1.986829489469528198e-01 -5.282611846923828125e-01
7.054000000000000000e+03 4.038936614990234375e+01 1.181769013404846191e+00 3.601112961769104004e-02 -4.334469437599182129e-01 -1.192307397723197937e-01 -2.120897360146045685e-02
7.055000000000000000e+03 5.722240447998046875e+01 2.260761260986328125e+00 3.829121589660644531e-01 1.436609029769897461e+00 5.458563566207885742e-01 3.706912100315093994e-01
7.056000000000000000e+03 5.627402877807617188e+01 1.845097899436950684e+00 3.763366043567657471e-01 1.295630812644958496e+00 5.015902519226074219e-01 3.454019427299499512e-01
7.057000000000000000e+03 5.815829849243164062e+01 1.967721557617187500e+01 -6.392600387334823608e-02 5.305415391921997070e-01 1.399846524000167847e-01 -3.588570654392242432e-01
7.058000000000000000e+03 6.095895767211914062e+01 1.389330863952636719e+01 4.231065213680267334e-01 1.458735346794128418e+00 5.645525455474853516e-01 2.995311021804809570e-01
7.059000000000000000e+03 6.099468231201171875e+01 1.541942787170410156e+01 4.011868238449096680e-01 1.324993252754211426e+00 5.178540349006652832e-01 2.225434035062789917e-01
7.060000000000000000e+03 5.647555160522460938e+01 -1.416241645812988281e+00 3.877622783184051514e-01 1.414549827575683594e+00 5.406936407089233398e-01 3.589788079261779785e-01
7.061000000000000000e+03 5.707604217529296875e+01 -1.139384508132934570e+00 3.877772986888885498e-01 1.528428673744201660e+00 5.748618245124816895e-01 3.776985704898834229e-01
7.062000000000000000e+03 5.755766677856445312e+01 1.924727249145507812e+01 -8.247167617082595825e-02 4.950069487094879150e-01 1.237605810165405273e-01 -3.586077690124511719e-01
7.063000000000000000e+03 5.914001083374023438e+01 1.774275970458984375e+01 1.744214743375778198e-01 8.159376978874206543e-01 2.971077561378479004e-01 -1.096697747707366943e-01
7.064000000000000000e+03 5.921997451782226562e+01 1.400323581695556641e+01 3.305738270282745361e-01 1.124708771705627441e+00 4.365847706794738770e-01 1.510575413703918457e-01
7.065000000000000000e+03 5.795451736450195312e+01 1.155306720733642578e+01 3.187408149242401123e-01 1.094793558120727539e+00 4.240603148937225342e-01 1.882851421833038330e-01
7.066000000000000000e+03 4.328783416748046875e+01 4.686604738235473633e-01 1.808245182037353516e-01 -2.331021577119827271e-01 -1.568329147994518280e-02 3.227509185671806335e-02
7.067000000000000000e+03 4.203170394897460938e+01 2.383888483047485352e+00 8.191041648387908936e-03 -3.463166356086730957e-01 -1.014376729726791382e-01 -5.189188569784164429e-02
7.068000000000000000e+03 4.506623458862304688e+01 -3.457237184047698975e-01 2.664528489112854004e-01 -6.654649972915649414e-02 5.997190624475479126e-02 7.665225118398666382e-02
7.069000000000000000e+03 5.821054458618164062e+01 6.220481395721435547e+00 3.755398988723754883e-01 1.430487155914306641e+00 5.418081283569335938e-01 3.669711053371429443e-01
7.070000000000000000e+03 5.462088775634765625e+01 -6.848080158233642578e+00 3.791247308254241943e-01 1.259370326995849609e+00 4.915485382080078125e-01 2.774243056774139404e-01
7.071000000000000000e+03 5.571699142456054688e+01 -8.213810920715332031e+00 3.526802062988281250e-01 1.459260582923889160e+00 5.435822606086730957e-01 2.850843667984008789e-01
7.072000000000000000e+03 5.564436340332031250e+01 -4.333518505096435547e+00 3.884094059467315674e-01 1.368703365325927734e+00 5.271338224411010742e-01 3.242790400981903076e-01
7.073000000000000000e+03 5.006209182739257812e+01 -4.547971725463867188e+00 4.076962471008300781e-01 5.667787194252014160e-01 2.923425137996673584e-01 1.965621262788772583e-01
7.074000000000000000e+03 5.867301559448242188e+01 1.157781600952148438e+01 3.439602553844451904e-01 1.201750874519348145e+00 4.637133181095123291e-01 2.288140058517456055e-01
7.075000000000000000e+03 5.951314163208007812e+01 1.088443374633789062e+01 3.938475549221038818e-01 1.412764906883239746e+00 5.419837236404418945e-01 3.168837428092956543e-01
7.076000000000000000e+03 5.823389434814453125e+01 5.578696727752685547e+00 3.851699531078338623e-01 1.488818764686584473e+00 5.621966123580932617e-01 3.829046189785003662e-01
7.077000000000000000e+03 5.905882263183593750e+01 6.363899707794189453e+00 3.930771350860595703e-01 1.596685647964477539e+00 5.969288349151611328e-01 3.993092775344848633e-01
7.078000000000000000e+03 5.825292968750000000e+01 -6.782793998718261719e+00 3.347832560539245605e-01 1.832715630531311035e+00 6.502496600151062012e-01 3.521104454994201660e-01
7.079000000000000000e+03 5.788238906860351562e+01 -5.873273849487304688e+00 3.571836054325103760e-01 1.773257374763488770e+00 6.391322612762451172e-01 3.592598438262939453e-01
7.080000000000000000e+03 5.708575439453125000e+01 1.976487731933593750e+01 -1.632823795080184937e-01 4.151800870895385742e-01 7.556931674480438232e-02 -4.283480644226074219e-01
7.081000000000000000e+03 5.992378234863281250e+01 1.821150970458984375e+01 2.130618393421173096e-01 8.875408768653869629e-01 3.301807940006256104e-01 -7.809278368949890137e-02
7.082000000000000000e+03 5.662488555908203125e+01 -5.223438262939453125e+00 3.729171454906463623e-01 1.532843589782714844e+00 5.717282295227050781e-01 3.315924406051635742e-01
7.083000000000000000e+03 5.733508682250976562e+01 -3.898109436035156250e+00 3.696138560771942139e-01 1.623725175857543945e+00 5.980017185211181641e-01 3.611526191234588623e-01
7.084000000000000000e+03 5.731374359130859375e+01 5.166162490844726562e+00 3.668707311153411865e-01 1.321384668350219727e+00 5.064765810966491699e-01 3.392094969749450684e-01
7.085000000000000000e+03 4.420404815673828125e+01 5.889788642525672913e-02 2.283961474895477295e-01 -1.483483761548995972e-01 2.401432767510414124e-02 5.790209397673606873e-02
7.086000000000000000e+03 4.126394653320312500e+01 7.185966014862060547e+00 -3.882480263710021973e-01 -5.350120663642883301e-01 -2.769780457019805908e-01 -3.666583299636840820e-01
7.087000000000000000e+03 5.874536514282226562e+01 1.072766685485839844e+01 3.635918200016021729e-01 1.273383617401123047e+00 4.910926222801208496e-01 2.707773149013519287e-01
7.088000000000000000e+03 5.905367660522460938e+01 9.883492469787597656e+00 3.828389644622802734e-01 1.386428952217102051e+00 5.307803750038146973e-01 3.206082880496978760e-01
7.089000000000000000e+03 4.974118041992187500e+01 -2.380114793777465820e+00 3.842526376247406006e-01 4.907676577568054199e-01 2.625060975551605225e-01 1.921238154172897339e-01
7.090000000000000000e+03 4.846744918823242188e+01 -1.239599585533142090e+00 3.419242501258850098e-01 2.959324419498443604e-01 1.913570016622543335e-01 1.536512374877929688e-01
7.091000000000000000e+03 5.609137344360351562e+01 -2.441683530807495117e+00 3.874070644378662109e-01 1.396534919738769531e+00 5.351825952529907227e-01 3.451831638813018799e-01
7.092000000000000000e+03 5.895466232299804688e+01 8.594429969787597656e+00 3.874465227127075195e-01 1.454144597053527832e+00 5.524773001670837402e-01 3.537015318870544434e-01
7.093000000000000000e+03 5.786365890502929688e+01 -1.153445720672607422e+01 2.809278666973114014e-01 1.843223333358764648e+00 6.372453570365905762e-01 2.783069610595703125e-01
7.094000000000000000e+03 5.696019363403320312e+01 -8.471035957336425781e+00 3.398647308349609375e-01 1.647086739540100098e+00 5.960854291915893555e-01 3.062444329261779785e-01
7.095000000000000000e+03 5.324017333984375000e+01 -5.289390087127685547e+00 4.001188874244689941e-01 1.029504060745239258e+00 4.288868606090545654e-01 2.633576691150665283e-01
7.096000000000000000e+03 5.687236785888671875e+01 -6.398773670196533203e+00 3.604580760002136230e-01 1.605446338653564453e+00 5.897713303565979004e-01 3.265505731105804443e-01
7.097000000000000000e+03 4.917427062988281250e+01 1.566985607147216797e+01 -3.744185268878936768e-01 -2.654960453510284424e-01 -1.919743716716766357e-01 -5.402182936668395996e-01
7.098000000000000000e+03 4.997311019897460938e+01 1.745870399475097656e+01 -4.526964128017425537e-01 -2.650910913944244385e-01 -2.153362482786178589e-01 -6.034827232360839844e-01
7.099000000000000000e+03 4.346984481811523438e+01 1.257817173004150391e+01 -5.597291588783264160e-01 -6.268860101699829102e-01 -3.559845387935638428e-01 -6.382267475128173828e-01
7.100000000000000000e+03 4.295358276367187500e+01 9.196322441101074219e+00 -4.005314707756042480e-01 -5.046717524528503418e-01 -2.715609669685363770e-01 -4.320408999919891357e-01
7.101000000000000000e+03 5.079199981689453125e+01 1.899273681640625000e+01 -5.310922861099243164e-01 -2.422373741865158081e-01 -2.319988906383514404e-01 -6.573029756546020508e-01
7.102000000000000000e+03 4.759434890747070312e+01 1.399419975280761719e+01 -3.603183627128601074e-01 -3.360458910465240479e-01 -2.089092731475830078e-01 -5.182356834411621094e-01
7.103000000000000000e+03 4.818885421752929688e+01 1.457729244232177734e+01 -3.677594363689422607e-01 -3.029391169548034668e-01 -2.012095600366592407e-01 -5.237170457839965820e-01
7.104000000000000000e+03 4.938196563720703125e+01 1.735057640075683594e+01 -4.789405465126037598e-01 -3.222486674785614014e-01 -2.403567731380462646e-01 -6.262649297714233398e-01
7.105000000000000000e+03 4.404613876342773438e+01 1.147035503387451172e+01 -4.510712921619415283e-01 -5.229569673538208008e-01 -2.922084629535675049e-01 -5.372325778007507324e-01
7.106000000000000000e+03 5.146031570434570312e+01 2.013367271423339844e+01 -5.975558757781982422e-01 -2.129690647125244141e-01 -2.431574910879135132e-01 -6.926593780517578125e-01
7.107000000000000000e+03 4.229985046386718750e+01 7.837682247161865234e+00 -3.566818833351135254e-01 -4.875966906547546387e-01 -2.532835602760314941e-01 -3.674870431423187256e-01
7.108000000000000000e+03 5.473406982421875000e+01 1.973842430114746094e+01 -3.440209031105041504e-01 1.617898792028427124e-01 -5.466930940747261047e-02 -5.433898568153381348e-01
7.109000000000000000e+03 5.501006317138671875e+01 2.034107208251953125e+01 -3.881526887416839600e-01 1.628967374563217163e-01 -6.757678091526031494e-02 -5.773538351058959961e-01
7.110000000000000000e+03 5.047926330566406250e+01 1.816006851196289062e+01 -4.774668514728546143e-01 -2.409366667270660400e-01 -2.155210524797439575e-01 -6.235495209693908691e-01
7.111000000000000000e+03 3.897122192382812500e+01 2.099774837493896484e+00 -1.404382288455963135e-01 -5.187188982963562012e-01 -1.977471411228179932e-01 -8.760426193475723267e-02
7.112000000000000000e+03 4.285434722900390625e+01 1.224150657653808594e+01 -5.769256949424743652e-01 -6.549196243286132812e-01 -3.695535957813262939e-01 -6.457684040069580078e-01
7.113000000000000000e+03 3.782262420654296875e+01 3.027196645736694336e+00 -2.961452603340148926e-01 -5.655212998390197754e-01 -2.584999501705169678e-01 -1.608302593231201172e-01
7.114000000000000000e+03 4.068600463867187500e+01 6.342026710510253906e+00 -3.709950745105743408e-01 -5.338816642761230469e-01 -2.714630365371704102e-01 -3.239330053329467773e-01
7.115000000000000000e+03 5.111687088012695312e+01 1.820153236389160156e+01 -4.427728950977325439e-01 -1.756434589624404907e-01 -1.855249106884002686e-01 -5.968955159187316895e-01
7.116000000000000000e+03 3.949766540527343750e+01 4.631412029266357422e+00 -3.302918374538421631e-01 -5.436378717422485352e-01 -2.621788978576660156e-01 -2.388764917850494385e-01
7.117000000000000000e+03 5.115543365478515625e+01 1.872493934631347656e+01 -4.918836951255798340e-01 -1.983731389045715332e-01 -2.070770412683486938e-01 -6.277719140052795410e-01
7.118000000000000000e+03 5.340346908569335938e+01 1.951166152954101562e+01 -4.159238636493682861e-01 2.925209701061248779e-02 -1.160015314817428589e-01 -5.823528766632080078e-01
7.119000000000000000e+03 5.293402862548828125e+01 2.005952262878417969e+01 -4.950935542583465576e-01 -4.761455208063125610e-02 -1.628124266862869263e-01 -6.371124386787414551e-01
7.120000000000000000e+03 4.008488845825195312e+01 3.979075193405151367e+00 -2.309828847646713257e-01 -4.979878365993499756e-01 -2.186912149190902710e-01 -1.775621026754379272e-01
7.121000000000000000e+03 5.651438140869140625e+01 2.023509788513183594e+01 -2.553960680961608887e-01 3.249677121639251709e-01 2.087149396538734436e-02 -5.017977356910705566e-01
7.122000000000000000e+03 4.459539794921875000e+01 1.249441719055175781e+01 -4.666303992271423340e-01 -5.294672846794128418e-01 -2.988292872905731201e-01 -5.743768215179443359e-01
7.123000000000000000e+03 4.344991302490234375e+01 1.157737064361572266e+01 -5.009085536003112793e-01 -5.752267837524414062e-01 -3.228406012058258057e-01 -5.727954506874084473e-01
7.124000000000000000e+03 4.761040496826171875e+01 1.440657234191894531e+01 -3.972564935684204102e-01 -3.588443696498870850e-01 -2.268302589654922485e-01 -5.422647595405578613e-01
7.125000000000000000e+03 4.914737701416015625e+01 1.437176799774169922e+01 -2.968846261501312256e-01 -2.009405642747879028e-01 -1.493475586175918579e-01 -4.647096097469329834e-01
7.126000000000000000e+03 4.843476104736328125e+01 1.392864513397216797e+01 -3.070380985736846924e-01 -2.522602975368499756e-01 -1.677895188331604004e-01 -4.704732596874237061e-01
7.127000000000000000e+03 5.837121200561523438e+01 1.698857688903808594e+01 1.574302613735198975e-01 7.699565887451171875e-01 2.782160639762878418e-01 -1.049117296934127808e-01
7.128000000000000000e+03 3.826294326782226562e+01 3.558532476425170898e+00 -3.118257522583007812e-01 -5.626258254051208496e-01 -2.623354792594909668e-01 -1.902638673782348633e-01
7.129000000000000000e+03 3.993815994262695312e+01 6.333606243133544922e+00 -4.273955523967742920e-01 -5.807850956916809082e-01 -3.024541735649108887e-01 -3.531722426414489746e-01
7.130000000000000000e+03 3.967880630493164062e+01 5.224481105804443359e+00 -3.541970849037170410e-01 -5.525692701339721680e-01 -2.720299065113067627e-01 -2.801595032215118408e-01
7.131000000000000000e+03 4.336066055297851562e+01 9.670636177062988281e+00 -3.952099084854125977e-01 -4.931845068931579590e-01 -2.665183246135711670e-01 -4.470773339271545410e-01
7.132000000000000000e+03 6.010718917846679688e+01 1.397616958618164062e+01 3.752437531948089600e-01 1.281990051269531250e+00 4.971701502799987793e-01 2.205188274383544922e-01
7.133000000000000000e+03 5.858424377441406250e+01 1.831959724426269531e+01 8.998067677021026611e-02 6.915860176086425781e-01 2.344700098037719727e-01 -1.996832042932510376e-01
7.134000000000000000e+03 4.250203323364257812e+01 8.910681009292602539e-01 1.256312876939773560e-01 -2.986432909965515137e-01 -5.190360546112060547e-02 1.023039594292640686e-02
7.135000000000000000e+03 4.296536254882812500e+01 7.137021541595458984e+00 -2.685687839984893799e-01 -4.176338911056518555e-01 -2.058608084917068481e-01 -2.942403852939605713e-01
7.136000000000000000e+03 4.435457611083984375e+01 1.197447967529296875e+01 -4.576134979724884033e-01 -5.227295160293579102e-01 -2.941029071807861328e-01 -5.510188341140747070e-01
7.137000000000000000e+03 4.689667129516601562e+01 1.312299537658691406e+01 -3.595439791679382324e-01 -3.617847561836242676e-01 -2.163986265659332275e-01 -5.005794763565063477e-01
7.138000000000000000e+03 6.025191879272460938e+01 1.467197799682617188e+01 3.707901537418365479e-01 1.246212840080261230e+00 4.851008951663970947e-01 2.004912346601486206e-01
7.139000000000000000e+03 5.971646118164062500e+01 1.748183250427246094e+01 2.338881194591522217e-01 9.226971268653869629e-01 3.469755649566650391e-01 -3.816107660531997681e-02
7.140000000000000000e+03 5.921305084228515625e+01 1.835387039184570312e+01 1.419809311628341675e-01 7.802693247795104980e-01 2.766750752925872803e-01 -1.521764844655990601e-01
7.141000000000000000e+03 4.270952987670898438e+01 2.141110181808471680e+00 4.250131547451019287e-02 -3.029610514640808105e-01 -7.813791930675506592e-02 -3.206340223550796509e-02
7.142000000000000000e+03 4.783166122436523438e+01 -8.655865788459777832e-01 3.299172222614288330e-01 2.308200299739837646e-01 1.682211756706237793e-01 1.357917785644531250e-01
7.143000000000000000e+03 4.893091964721679688e+01 -2.233664751052856445e+00 3.739331066608428955e-01 3.813496530055999756e-01 2.265848368406295776e-01 1.746026873588562012e-01
7.144000000000000000e+03 5.333375167846679688e+01 -3.105722904205322266e+00 3.932767808437347412e-01 9.902771711349487305e-01 4.150661826133728027e-01 2.744346559047698975e-01
7.145000000000000000e+03 4.550952529907226562e+01 5.351633429527282715e-01 2.287077307701110840e-01 -4.076013341546058655e-02 5.638428032398223877e-02 6.604102998971939087e-02
7.146000000000000000e+03 4.462152862548828125e+01 9.380536675453186035e-01 1.911679357290267944e-01 -1.243024021387100220e-01 2.005966007709503174e-02 4.233853891491889954e-02
7.147000000000000000e+03 5.578007125854492188e+01 2.787637233734130859e+00 3.668184578418731689e-01 1.182849526405334473e+00 4.649003744125366211e-01 3.151797056198120117e-01
7.148000000000000000e+03 5.925946426391601562e+01 1.321778583526611328e+01 3.450995087623596191e-01 1.189874053001403809e+00 4.604920446872711182e-01 1.962401419878005981e-01
7.149000000000000000e+03 5.728007125854492188e+01 1.100298881530761719e+01 2.987366914749145508e-01 1.018400669097900391e+00 3.951412141323089600e-01 1.650403738021850586e-01
7.150000000000000000e+03 4.311335372924804688e+01 2.559139966964721680e+00 3.782315924763679504e-02 -2.790572941303253174e-01 -7.237024605274200439e-02 -4.077816382050514221e-02
7.151000000000000000e+03 4.115346145629882812e+01 1.157377600669860840e+00 6.230574101209640503e-02 -3.887297213077545166e-01 -9.792719781398773193e-02 -1.848644204437732697e-02
7.152000000000000000e+03 5.875080490112304688e+01 4.647115230560302734e+00 3.948653936386108398e-01 1.605086922645568848e+00 5.999857187271118164e-01 4.098764061927795410e-01
7.153000000000000000e+03 5.711740493774414062e+01 6.433727741241455078e+00 3.571140766143798828e-01 1.238313317298889160e+00 4.786282479763031006e-01 3.086291253566741943e-01
7.154000000000000000e+03 6.037566757202148438e+01 1.698491287231445312e+01 2.934168875217437744e-01 1.080319881439208984e+00 4.121210277080535889e-01 5.240088328719139099e-02
7.155000000000000000e+03 5.123987197875976562e+01 -3.778535366058349609e+00 4.000367522239685059e-01 7.055249214172363281e-01 3.316684961318969727e-01 2.200039178133010864e-01
7.156000000000000000e+03 5.035108184814453125e+01 -3.551470518112182617e+00 4.014085531234741211e-01 5.882834196090698242e-01 2.969076037406921387e-01 2.059382200241088867e-01
7.157000000000000000e+03 5.830545806884765625e+01 9.389966011047363281e+00 3.638072907924652100e-01 1.287915945053100586e+00 4.955169558525085449e-01 2.909359633922576904e-01
7.158000000000000000e+03 4.754142761230468750e+01 2.680708467960357666e-01 2.883977890014648438e-01 1.697963625192642212e-01 1.374582499265670776e-01 1.136516183614730835e-01
7.159000000000000000e+03 4.710097885131835938e+01 -4.596826732158660889e-01 3.052608668804168701e-01 1.407007873058319092e-01 1.337884962558746338e-01 1.166434884071350098e-01
7.160000000000000000e+03 5.818515014648437500e+01 8.087301254272460938e+00 3.734045922756195068e-01 1.345684647560119629e+00 5.157268047332763672e-01 3.221644461154937744e-01
7.161000000000000000e+03 5.707936477661132812e+01 -2.992802143096923828e+00 3.782024979591369629e-01 1.562754750251770020e+00 5.822871327400207520e-01 3.654846847057342529e-01
7.162000000000000000e+03 5.585302352905273438e+01 -1.676298141479492188e+00 3.877856731414794922e-01 1.336763501167297363e+00 5.173647403717041016e-01 3.376418650150299072e-01
7.163000000000000000e+03 5.668295288085937500e+01 8.852522373199462891e-01 3.835728168487548828e-01 1.391509890556335449e+00 5.325248241424560547e-01 3.613742291927337646e-01
7.164000000000000000e+03 5.176840591430664062e+01 -5.136060714721679688e+00 4.053606986999511719e-01 8.205219507217407227e-01 3.677648007869720459e-01 2.285755872726440430e-01
7.165000000000000000e+03 5.360292434692382812e+01 -6.114148139953613281e+00 3.991536796092987061e-01 1.104105949401855469e+00 4.509778916835784912e-01 2.632597088813781738e-01
7.166000000000000000e+03 5.646832275390625000e+01 -4.183852195739746094e+00 3.809429705142974854e-01 1.487347126007080078e+00 5.604870319366455078e-01 3.418307006359100342e-01
7.167000000000000000e+03 5.794393157958984375e+01 1.076021194458007812e+01 3.329012989997863770e-01 1.147860288619995117e+00 4.442284703254699707e-01 2.211241424083709717e-01
7.168000000000000000e+03 5.738874435424804688e+01 7.617115974426269531e+00 3.574060201644897461e-01 1.233419060707092285e+00 4.772475361824035645e-01 2.900392711162567139e-01
7.169000000000000000e+03 4.632199859619140625e+01 -8.102025021798908710e-04 2.770727574825286865e-01 5.384732037782669067e-02 9.927602112293243408e-02 9.116570651531219482e-02
7.170000000000000000e+03 5.567136764526367188e+01 -3.975983858108520508e-01 3.795645236968994141e-01 1.274267077445983887e+00 4.961494803428649902e-01 3.359856903553009033e-01
7.171000000000000000e+03 5.302156066894531250e+01 -6.539890766143798828e+00 3.962214589118957520e-01 1.030594229698181152e+00 4.280447065830230713e-01 2.525160908699035645e-01
7.172000000000000000e+03 5.405730819702148438e+01 -5.137853622436523438e+00 3.922346830368041992e-01 1.135023713111877441e+00 4.581775367259979248e-01 2.887428700923919678e-01
7.173000000000000000e+03 4.958130264282226562e+01 1.536289978027343750e+01 -3.337699770927429199e-01 -2.074665427207946777e-01 -1.623709499835968018e-01 -5.014805197715759277e-01
7.174000000000000000e+03 5.013939285278320312e+01 1.633322143554687500e+01 -3.612571656703948975e-01 -1.955521553754806519e-01 -1.670427918434143066e-01 -5.314810872077941895e-01
7.175000000000000000e+03 4.798564147949218750e+01 1.417563438415527344e+01 -3.553449213504791260e-01 -3.075972199440002441e-01 -1.988826394081115723e-01 -5.118756294250488281e-01
7.176000000000000000e+03 4.860865020751953125e+01 1.445953369140625000e+01 -3.293172419071197510e-01 -2.637154757976531982e-01 -1.779098212718963623e-01 -4.936418533325195312e-01
7.177000000000000000e+03 5.067419052124023438e+01 1.692902183532714844e+01 -3.731473088264465332e-01 -1.664016991853713989e-01 -1.618647128343582153e-01 -5.415021777153015137e-01
7.178000000000000000e+03 5.166365814208984375e+01 1.870715332031250000e+01 -4.537572264671325684e-01 -1.352877169847488403e-01 -1.767134815454483032e-01 -6.037690043449401855e-01
7.179000000000000000e+03 4.956401443481445312e+01 1.628929710388183594e+01 -3.894119858741760254e-01 -2.493793219327926636e-01 -1.916373968124389648e-01 -5.530188083648681641e-01
7.180000000000000000e+03 5.256868743896484375e+01 1.954608345031738281e+01 -4.737643301486968994e-01 -6.510934978723526001e-02 -1.616621017456054688e-01 -6.166034340858459473e-01
7.181000000000000000e+03 4.289373779296875000e+01 8.392811775207519531e+00 -3.465411067008972168e-01 -4.708162844181060791e-01 -2.452072203159332275e-01 -3.775177896022796631e-01
7.182000000000000000e+03 4.973113632202148438e+01 1.418395042419433594e+01 -2.497644275426864624e-01 -1.270330399274826050e-01 -1.130392402410507202e-01 -4.214291572570800781e-01
7.183000000000000000e+03 4.934088134765625000e+01 1.491819572448730469e+01 -3.135318756103515625e-01 -2.075817584991455078e-01 -1.563340872526168823e-01 -4.851028621196746826e-01
7.184000000000000000e+03 5.168279647827148438e+01 1.919930648803710938e+01 -5.016301274299621582e-01 -1.580645442008972168e-01 -1.979083865880966187e-01 -6.345546841621398926e-01
7.185000000000000000e+03 4.701363754272460938e+01 1.361336326599121094e+01 -3.789675533771514893e-01 -3.709081113338470459e-01 -2.249626964330673218e-01 -5.261088013648986816e-01
7.186000000000000000e+03 5.447493362426757812e+01 1.916260910034179688e+01 -3.098791539669036865e-01 1.599932014942169189e-01 -4.496578127145767212e-02 -5.109707713127136230e-01
7.187000000000000000e+03 5.744422912597656250e+01 1.386109447479248047e+01 2.260480374097824097e-01 8.580704331398010254e-01 3.252355456352233887e-01 3.133421763777732849e-02
7.188000000000000000e+03 5.279849243164062500e+01 1.919647598266601562e+01 -4.290973842144012451e-01 -2.992387302219867706e-02 -1.377063840627670288e-01 -5.876095294952392578e-01
7.189000000000000000e+03 4.149068450927734375e+01 6.517438888549804688e+00 -3.284139335155487061e-01 -4.938493072986602783e-01 -2.466789633035659790e-01 -3.069389164447784424e-01
7.190000000000000000e+03 4.193631744384765625e+01 7.414031982421875000e+00 -3.544222712516784668e-01 -4.988041520118713379e-01 -2.559679150581359863e-01 -3.513263761997222900e-01
7.191000000000000000e+03 5.557537460327148438e+01 2.003357315063476562e+01 -3.111924529075622559e-01 2.371480613946914673e-01 -2.221331931650638580e-02 -5.288879871368408203e-01
7.192000000000000000e+03 4.016416549682617188e+01 4.520884037017822266e+00 -2.640978097915649414e-01 -5.025883316993713379e-01 -2.300058454275131226e-01 -2.116159349679946899e-01
7.193000000000000000e+03 4.043052673339843750e+01 1.829987406730651855e+00 -2.302814461290836334e-02 -4.421530067920684814e-01 -1.395543366670608521e-01 -5.482330545783042908e-02
7.194000000000000000e+03 5.973250961303710938e+01 1.646562385559082031e+01 2.673447132110595703e-01 1.015749335289001465e+00 3.849282264709472656e-01 3.090342879295349121e-02
7.195000000000000000e+03 3.936022949218750000e+01 4.006937503814697266e+00 -2.792358398437500000e-01 -5.312406420707702637e-01 -2.431429326534271240e-01 -1.953847259283065796e-01
7.196000000000000000e+03 4.034016036987304688e+01 5.082047462463378906e+00 -3.028852641582489014e-01 -5.092847943305969238e-01 -2.436510324478149414e-01 -2.475494742393493652e-01
7.197000000000000000e+03 5.951360702514648438e+01 1.558135032653808594e+01 2.884252369403839111e-01 1.052641630172729492e+00 4.023200273513793945e-01 6.796319782733917236e-02
7.198000000000000000e+03 5.911449813842773438e+01 1.475628280639648438e+01 2.913126647472381592e-01 1.049414753913879395e+00 4.022182524204254150e-01 9.830576181411743164e-02
7.199000000000000000e+03 4.679521942138671875e+01 7.014188170433044434e-01 2.514751255512237549e-01 8.097206801176071167e-02 9.973415732383728027e-02 8.891019225120544434e-02
7.200000000000000000e+03 4.316761779785156250e+01 1.685639977455139160e+00 9.858872741460800171e-02 -2.542768716812133789e-01 -4.670644178986549377e-02 -3.617367707192897797e-03
7.201000000000000000e+03 4.512501525878906250e+01 1.244537830352783203e+01 -4.318242371082305908e-01 -4.795775711536407471e-01 -2.734205424785614014e-01 -5.458631515502929688e-01
7.202000000000000000e+03 4.987800216674804688e+01 -1.390189528465270996e+00 3.653757274150848389e-01 4.811719357967376709e-01 2.539643049240112305e-01 1.855265498161315918e-01
7.203000000000000000e+03 4.870606231689453125e+01 6.966124773025512695e-01 2.949849665164947510e-01 2.953476309776306152e-01 1.770997792482376099e-01 1.324716955423355103e-01
7.204000000000000000e+03 5.149518585205078125e+01 -2.700289726257324219e+00 3.933652937412261963e-01 7.227085828781127930e-01 3.348221480846405029e-01 2.266432791948318481e-01
7.205000000000000000e+03 4.535548019409179688e+01 1.198284053802490234e+01 -3.949995934963226318e-01 -4.428451359272003174e-01 -2.513534128665924072e-01 -5.053915977478027344e-01
7.206000000000000000e+03 4.557755661010742188e+01 1.255099105834960938e+01 -4.079217016696929932e-01 -4.436592161655426025e-01 -2.554742693901062012e-01 -5.271472930908203125e-01
7.207000000000000000e+03 4.353970718383789062e+01 2.129378318786621094e+00 8.518567681312561035e-02 -2.416545897722244263e-01 -4.694067686796188354e-02 -1.539031881839036942e-02
7.208000000000000000e+03 5.376983261108398438e+01 2.028232383728027344e+01 -4.580315947532653809e-01 3.796276822686195374e-02 -1.260206550359725952e-01 -6.138838529586791992e-01
7.209000000000000000e+03 5.294450378417968750e+01 1.958648300170898438e+01 -4.541425704956054688e-01 -2.870262600481510162e-02 -1.448535621166229248e-01 -6.055877208709716797e-01
7.210000000000000000e+03 5.846152114868164062e+01 1.897084617614746094e+01 2.528799697756767273e-02 6.150565743446350098e-01 1.921033859252929688e-01 -2.732183039188385010e-01
7.211000000000000000e+03 4.321971130371093750e+01 1.060480690002441406e+01 -4.584149718284606934e-01 -5.458854436874389648e-01 -3.012901246547698975e-01 -5.176753401756286621e-01
7.212000000000000000e+03 4.549999237060546875e+01 1.297163486480712891e+01 -4.396333396434783936e-01 -4.768625497817993164e-01 -2.749487757682800293e-01 -5.640223622322082520e-01
7.213000000000000000e+03 4.619674301147460938e+01 1.270032310485839844e+01 -3.685156106948852539e-01 -3.907992839813232422e-01 -2.277944684028625488e-01 -5.088044404983520508e-01
7.214000000000000000e+03 5.119938278198242188e+01 1.915369796752929688e+01 -5.239083766937255859e-01 -2.102373391389846802e-01 -2.202437072992324829e-01 -6.518827676773071289e-01
7.215000000000000000e+03 5.664038467407226562e+01 1.924098777770996094e+01 -1.565837264060974121e-01 3.936221003532409668e-01 7.111151516437530518e-02 -4.119477570056915283e-01
7.216000000000000000e+03 4.386872482299804688e+01 9.251130104064941406e+00 -3.370233774185180664e-01 -4.315960407257080078e-01 -2.305858284235000610e-01 -3.956359028816223145e-01
7.217000000000000000e+03 4.367561340332031250e+01 1.104919433593750000e+01 -4.568035900592803955e-01 -5.337225198745727539e-01 -2.971578240394592285e-01 -5.242205262184143066e-01
7.218000000000000000e+03 3.883024215698242188e+01 3.067696809768676758e+00 -2.319053560495376587e-01 -5.362873077392578125e-01 -2.304577976465225220e-01 -1.469610482454299927e-01
7.219000000000000000e+03 3.969107055664062500e+01 2.884852886199951172e+00 -1.568460464477539062e-01 -4.939100444316864014e-01 -1.952268332242965698e-01 -1.163446679711341858e-01
7.220000000000000000e+03 5.650423812866210938e+01 4.234158039093017578e+00 3.671898543834686279e-01 1.243072867393493652e+00 4.830788075923919678e-01 3.239099383354187012e-01
7.221000000000000000e+03 5.783408355712890625e+01 1.230127620697021484e+01 2.950001955032348633e-01 1.023151397705078125e+00 3.954454660415649414e-01 1.433416903018951416e-01
7.222000000000000000e+03 4.403763198852539062e+01 1.878432273864746094e+00 1.214344725012779236e-01 -1.916477084159851074e-01 -2.106396853923797607e-02 3.478830214589834213e-03
7.223000000000000000e+03 4.401117324829101562e+01 7.548063278198242188e+00 -2.279966324567794800e-01 -3.545918762683868408e-01 -1.747765541076660156e-01 -2.834916710853576660e-01
7.224000000000000000e+03 4.191789245605468750e+01 1.714547514915466309e+00 4.804389178752899170e-02 -3.523869812488555908e-01 -9.130292385816574097e-02 -2.512391656637191772e-02
7.225000000000000000e+03 5.758835601806640625e+01 8.822807312011718750e+00 3.448015153408050537e-01 1.201096892356872559e+00 4.637695252895355225e-01 2.657702267169952393e-01
7.226000000000000000e+03 5.554566955566406250e+01 -3.428179740905761719e+00 3.870004415512084961e-01 1.331110239028930664e+00 5.154331922531127930e-01 3.281807303428649902e-01
7.227000000000000000e+03 5.743548583984375000e+01 4.406307220458984375e+00 3.787057101726531982e-01 1.395936369895935059e+00 5.323926210403442383e-01 3.633588552474975586e-01
7.228000000000000000e+03 5.761073684692382812e+01 5.845442771911621094e+00 3.701578974723815918e-01 1.342594504356384277e+00 5.138257145881652832e-01 3.330503702163696289e-01
7.229000000000000000e+03 3.978481674194335938e+01 2.428322553634643555e+00 -1.205688118934631348e-01 -4.838002324104309082e-01 -1.813107132911682129e-01 -9.700366854667663574e-02
7.230000000000000000e+03 4.966378021240234375e+01 6.460273861885070801e-01 3.087523281574249268e-01 4.028998315334320068e-01 2.134956568479537964e-01 1.556078940629959106e-01
7.231000000000000000e+03 5.060037994384765625e+01 -2.520972728729248047e+00 3.859413564205169678e-01 5.966861844062805176e-01 2.947882711887359619e-01 2.059980779886245728e-01
7.232000000000000000e+03 4.895345687866210938e+01 -6.603992581367492676e-01 3.337529897689819336e-01 3.508534431457519531e-01 2.053819298744201660e-01 1.557858437299728394e-01
7.233000000000000000e+03 5.856774902343750000e+01 1.237775802612304688e+01 3.309186100959777832e-01 1.135626196861267090e+00 4.399634301662445068e-01 1.887956112623214722e-01
7.234000000000000000e+03 5.685070800781250000e+01 1.136996746063232422e+01 2.705796360969543457e-01 9.254168868064880371e-01 3.587989509105682373e-01 1.231076642870903015e-01
7.235000000000000000e+03 5.566267395019531250e+01 -5.408110141754150391e+00 3.807167708873748779e-01 1.390612125396728516e+00 5.313986539840698242e-01 3.165713250637054443e-01
7.236000000000000000e+03 5.216801071166992188e+01 -4.073484897613525391e+00 4.005226492881774902e-01 8.544179201126098633e-01 3.764821887016296387e-01 2.427174896001815796e-01
7.237000000000000000e+03 5.664158248901367188e+01 7.151019573211669922e+00 3.371711075305938721e-01 1.127336502075195312e+00 4.393523037433624268e-01 2.689190804958343506e-01
7.238000000000000000e+03 5.650530242919921875e+01 5.204152584075927734e+00 3.531959950923919678e-01 1.196146130561828613e+00 4.648026227951049805e-01 3.073710799217224121e-01
7.239000000000000000e+03 5.927036285400390625e+01 1.692115783691406250e+01 2.321726977825164795e-01 9.126322269439697266e-01 3.434414863586425781e-01 -2.846844494342803955e-02
7.240000000000000000e+03 5.457656097412109375e+01 -1.121518731117248535e+00 3.870641291141510010e-01 1.128042459487915039e+00 4.545319676399230957e-01 3.078193068504333496e-01
7.241000000000000000e+03 5.537827301025390625e+01 1.438024044036865234e+00 3.735062777996063232e-01 1.171790122985839844e+00 4.635889232158660889e-01 3.169068396091461182e-01
7.242000000000000000e+03 5.761307144165039062e+01 1.003582382202148438e+01 3.333187103271484375e-01 1.139315962791442871e+00 4.417904019355773926e-01 2.286360859870910645e-01
7.243000000000000000e+03 5.535736465454101562e+01 -1.226110577583312988e+00 3.898927867412567139e-01 1.261854171752929688e+00 4.955241084098815918e-01 3.254653513431549072e-01
7.244000000000000000e+03 5.355451965332031250e+01 -1.993507623672485352e+00 3.882574439048767090e-01 9.993314743041992188e-01 4.162766635417938232e-01 2.811326384544372559e-01
7.245000000000000000e+03 5.700516510009765625e+01 9.473239898681640625e+00 3.216014206409454346e-01 1.071195602416992188e+00 4.178391098976135254e-01 2.154644727706909180e-01
7.246000000000000000e+03 5.436526107788085938e+01 2.931526184082031250e+00 3.482410609722137451e-01 9.678511023521423340e-01 3.948276340961456299e-01 2.648082673549652100e-01
7.247000000000000000e+03 4.746588897705078125e+01 1.288911724090576172e+01 -3.094196915626525879e-01 -2.935052216053009033e-01 -1.808774769306182861e-01 -4.587368369102478027e-01
7.248000000000000000e+03 5.070305252075195312e+01 1.635936737060546875e+01 -3.312022089958190918e-01 -1.352076083421707153e-01 -1.399229466915130615e-01 -5.062997341156005859e-01
7.249000000000000000e+03 4.964902114868164062e+01 1.579416370391845703e+01 -3.560050129890441895e-01 -2.234150618314743042e-01 -1.738260239362716675e-01 -5.241501331329345703e-01
7.250000000000000000e+03 4.992744064331054688e+01 1.468795585632324219e+01 -2.656685113906860352e-01 -1.310737431049346924e-01 -1.190226823091506958e-01 -4.417325854301452637e-01
7.251000000000000000e+03 4.901398086547851562e+01 1.378877735137939453e+01 -2.693527936935424805e-01 -1.811426430940628052e-01 -1.351486295461654663e-01 -4.341945350170135498e-01
7.252000000000000000e+03 5.028392028808593750e+01 1.397162532806396484e+01 -2.082364261150360107e-01 -5.989882722496986389e-02 -8.044057339429855347e-02 -3.833697438240051270e-01
7.253000000000000000e+03 5.020215225219726562e+01 1.576202487945556641e+01 -3.219428360462188721e-01 -1.577259749174118042e-01 -1.439006477594375610e-01 -4.929879605770111084e-01
7.254000000000000000e+03 5.216647338867187500e+01 1.934117507934570312e+01 -4.832882881164550781e-01 -1.046925187110900879e-01 -1.763942390680313110e-01 -6.216462254524230957e-01
7.255000000000000000e+03 4.389007949829101562e+01 8.334996223449707031e+00 -2.852319777011871338e-01 -3.950221836566925049e-01 -2.040762454271316528e-01 -3.364832103252410889e-01
7.256000000000000000e+03 4.436630630493164062e+01 8.837036132812500000e+00 -2.825462222099304199e-01 -3.787460923194885254e-01 -1.983876973390579224e-01 -3.492849767208099365e-01
7.257000000000000000e+03 4.760557174682617188e+01 1.348348140716552734e+01 -3.366384804248809814e-01 -3.095848560333251953e-01 -1.938669979572296143e-01 -4.876953363418579102e-01
7.258000000000000000e+03 5.625708007812500000e+01 1.873537063598632812e+01 -1.437111794948577881e-01 3.788774907588958740e-01 7.054989039897918701e-02 -3.949069976806640625e-01
7.259000000000000000e+03 5.166914749145507812e+01 1.825193977355957031e+01 -4.128240644931793213e-01 -1.133182048797607422e-01 -1.578426808118820190e-01 -5.743471980094909668e-01
7.260000000000000000e+03 4.460816192626953125e+01 1.110396862030029297e+01 -3.975786268711090088e-01 -4.629544913768768311e-01 -2.581599354743957520e-01 -4.859640598297119141e-01
7.261000000000000000e+03 4.559118270874023438e+01 1.121410465240478516e+01 -3.340181112289428711e-01 -3.801910877227783203e-01 -2.142627537250518799e-01 -4.435348212718963623e-01
7.262000000000000000e+03 4.583761215209960938e+01 1.293234634399414062e+01 -4.043062329292297363e-01 -4.429575204849243164e-01 -2.541791200637817383e-01 -5.390028357505798340e-01
7.263000000000000000e+03 4.731733322143554688e+01 1.228123283386230469e+01 -2.911159396171569824e-01 -2.753601372241973877e-01 -1.699428260326385498e-01 -4.283025264739990234e-01
7.264000000000000000e+03 4.128867721557617188e+01 5.377627372741699219e+00 -2.678952217102050781e-01 -4.715159833431243896e-01 -2.218233644962310791e-01 -2.406052649021148682e-01
7.265000000000000000e+03 3.943403244018554688e+01 3.393323421478271484e+00 -2.280814647674560547e-01 -5.150551795959472656e-01 -2.229409962892532349e-01 -1.609434187412261963e-01
7.266000000000000000e+03 4.457370376586914062e+01 2.719850540161132812e+00 9.076002240180969238e-02 -1.604552417993545532e-01 -2.090856432914733887e-02 -1.862014457583427429e-02
7.267000000000000000e+03 4.293802261352539062e+01 3.103761911392211914e+00 1.408837502822279930e-03 -2.994671463966369629e-01 -8.941749483346939087e-02 -7.085496932268142700e-02
7.268000000000000000e+03 4.478534698486328125e+01 1.855457782745361328e+00 1.431308388710021973e-01 -1.299469918012619019e-01 3.955155145376920700e-03 1.603133045136928558e-02
7.269000000000000000e+03 4.497811508178710938e+01 1.159609413146972656e+01 -3.991295397281646729e-01 -4.548812508583068848e-01 -2.562032341957092285e-01 -5.010324716567993164e-01
7.270000000000000000e+03 5.598505783081054688e+01 6.670465469360351562e+00 3.290665447711944580e-01 1.052932381629943848e+00 4.145996868610382080e-01 2.511196732521057129e-01
7.271000000000000000e+03 4.074188232421875000e+01 3.903423786163330078e+00 -1.838547140359878540e-01 -4.587756991386413574e-01 -1.927891224622726440e-01 -1.641792953014373779e-01
7.272000000000000000e+03 4.092515945434570312e+01 4.872791767120361328e+00 -2.456032037734985352e-01 -4.747251570224761963e-01 -2.160985022783279419e-01 -2.180391401052474976e-01
7.273000000000000000e+03 3.926983642578125000e+01 2.615139007568359375e+00 -1.524964720010757446e-01 -5.069584250450134277e-01 -1.978364735841751099e-01 -1.112254410982131958e-01
7.274000000000000000e+03 5.393851089477539062e+01 1.938154792785644531e+01 -3.713718950748443604e-01 9.191590547561645508e-02 -8.383680135011672974e-02 -5.541357994079589844e-01
7.275000000000000000e+03 5.709257888793945312e+01 1.878477287292480469e+01 -8.194827288389205933e-02 4.709441959857940674e-01 1.166987791657447815e-01 -3.500466346740722656e-01
7.276000000000000000e+03 5.526630401611328125e+01 1.945468902587890625e+01 -2.795234024524688721e-01 2.309762686491012573e-01 -1.456414442509412766e-02 -4.972359538078308105e-01
7.277000000000000000e+03 4.663432312011718750e+01 1.231182098388671875e+01 -3.331825137138366699e-01 -3.446588218212127686e-01 -2.033524066209793091e-01 -4.673047363758087158e-01
7.278000000000000000e+03 5.508087539672851562e+01 3.564922094345092773e+00 3.498358130455017090e-01 1.051858305931091309e+00 4.205082356929779053e-01 2.808408141136169434e-01
7.279000000000000000e+03 5.240879058837890625e+01 -2.911257743835449219e+00 3.931187689304351807e-01 8.516673445701599121e-01 3.734358251094818115e-01 2.531257569789886475e-01
7.280000000000000000e+03 5.170837783813476562e+01 -1.569578528404235840e+00 3.741247951984405518e-01 7.204395532608032227e-01 3.283693194389343262e-01 2.305690646171569824e-01
7.281000000000000000e+03 4.900673294067382812e+01 4.713011741638183594e+00 1.558130085468292236e-01 2.116930335760116577e-01 1.102518141269683838e-01 2.973755635321140289e-02
7.282000000000000000e+03 5.472503280639648438e+01 3.709004223346710205e-01 3.732362985610961914e-01 1.092847585678100586e+00 4.398251771926879883e-01 3.014183640480041504e-01
7.283000000000000000e+03 5.833040618896484375e+01 1.539319419860839844e+01 2.250932455062866211e-01 8.829074501991271973e-01 3.324002027511596680e-01 -7.605606806464493275e-04
7.284000000000000000e+03 5.554743576049804688e+01 4.359494686126708984e+00 3.509669601917266846e-01 1.084731340408325195e+00 4.307094812393188477e-01 2.842101752758026123e-01
7.285000000000000000e+03 5.302927780151367188e+01 1.591593384742736816e+00 3.446648716926574707e-01 8.167292475700378418e-01 3.484182357788085938e-01 2.364010214805603027e-01
7.286000000000000000e+03 4.008331680297851562e+01 3.477222442626953125e+00 -1.989665329456329346e-01 -4.901184737682342529e-01 -2.067255079746246338e-01 -1.518581509590148926e-01
7.287000000000000000e+03 5.542825317382812500e+01 7.253502845764160156e+00 3.002858757972717285e-01 9.438984990119934082e-01 3.732553124427795410e-01 2.085279226303100586e-01
7.288000000000000000e+03 4.122416687011718750e+01 2.486926078796386719e+00 -4.831898584961891174e-02 -4.106781780719757080e-01 -1.376991420984268188e-01 -7.439240068197250366e-02
7.289000000000000000e+03 5.480605697631835938e+01 -5.265311241149902344e+00 3.884029984474182129e-01 1.265401244163513184e+00 4.961412549018859863e-01 2.970495522022247314e-01
7.290000000000000000e+03 5.916918563842773438e+01 1.600611686706542969e+01 2.519811391830444336e-01 9.571377635002136230e-01 3.627356588840484619e-01 1.618846133351325989e-02
7.291000000000000000e+03 5.695349502563476562e+01 1.051289939880371094e+01 2.943587005138397217e-01 9.930496215820312500e-01 3.862224817276000977e-01 1.679627746343612671e-01
7.292000000000000000e+03 5.289468002319335938e+01 -7.065117359161376953e-01 3.728417456150054932e-01 8.700093030929565430e-01 3.728553056716918945e-01 2.559317350387573242e-01
7.293000000000000000e+03 5.494715118408203125e+01 2.236276149749755859e+00 3.567048311233520508e-01 1.068844676017761230e+00 4.276648759841918945e-01 2.918407320976257324e-01
7.294000000000000000e+03 5.640545272827148438e+01 6.050356864929199219e+00 3.463216423988342285e-01 1.156215310096740723e+00 4.507610797882080078e-01 2.873294353485107422e-01
7.295000000000000000e+03 5.606969833374023438e+01 7.838615417480468750e+00 3.153877854347229004e-01 1.009234428405761719e+00 3.973866701126098633e-01 2.200545221567153931e-01
7.296000000000000000e+03 5.684053039550781250e+01 8.321882247924804688e+00 3.312871456146240234e-01 1.103289842605590820e+00 4.303730726242065430e-01 2.422048747539520264e-01
7.297000000000000000e+03 5.629721450805664062e+01 -3.262968540191650391e+00 3.808944225311279297e-01 1.444917440414428711e+00 5.477435588836669922e-01 3.475388288497924805e-01
7.298000000000000000e+03 5.445400238037109375e+01 -2.016447305679321289e+00 3.894723653793334961e-01 1.134521245956420898e+00 4.571980834007263184e-01 3.059049248695373535e-01
7.299000000000000000e+03 5.732650375366210938e+01 1.154761409759521484e+01 2.902375459671020508e-01 9.963230490684509277e-01 3.859681785106658936e-01 1.431262344121932983e-01
7.300000000000000000e+03 5.520803833007812500e+01 9.343422889709472656e+00 2.496515810489654541e-01 7.955510020256042480e-01 3.135607838630676270e-01 1.163131967186927795e-01
7.301000000000000000e+03 4.790165710449218750e+01 9.577438235282897949e-01 2.619183063507080078e-01 1.929192394018173218e-01 1.364512592554092407e-01 1.104870438575744629e-01
7.302000000000000000e+03 4.567276000976562500e+01 2.104605913162231445e+00 1.604929715394973755e-01 -5.675946176052093506e-02 3.112005069851875305e-02 2.747514843940734863e-02
7.303000000000000000e+03 4.218667984008789062e+01 3.816095590591430664e+00 -9.619090706110000610e-02 -3.715048432350158691e-01 -1.403087228536605835e-01 -1.247998178005218506e-01
7.304000000000000000e+03 4.186114120483398438e+01 5.874752521514892578e+00 -2.602129578590393066e-01 -4.497174918651580811e-01 -2.129791378974914551e-01 -2.565063834190368652e-01
7.305000000000000000e+03 5.765514373779296875e+01 1.305708026885986328e+01 2.681752443313598633e-01 9.452335834503173828e-01 3.640226423740386963e-01 9.082213044166564941e-02
7.306000000000000000e+03 5.831581497192382812e+01 1.397993564605712891e+01 2.714386582374572754e-01 9.737688302993774414e-01 3.735622465610504150e-01 8.005943894386291504e-02
7.307000000000000000e+03 5.077662277221679688e+01 -1.429282426834106445e+00 3.740055859088897705e-01 5.990018248558044434e-01 2.919022142887115479e-01 2.081716656684875488e-01
7.308000000000000000e+03 5.101593399047851562e+01 1.540511322021484375e+01 -2.500644922256469727e-01 -5.475516989827156067e-02 -9.144590049982070923e-02 -4.341551661491394043e-01
7.309000000000000000e+03 5.072156906127929688e+01 1.496593284606933594e+01 -2.392678707838058472e-01 -5.898153409361839294e-02 -8.947481960058212280e-02 -4.206393659114837646e-01
7.310000000000000000e+03 4.616419982910156250e+01 1.080250930786132812e+01 -2.793487906455993652e-01 -3.119847178459167480e-01 -1.774000525474548340e-01 -3.914938569068908691e-01
7.311000000000000000e+03 4.420367431640625000e+01 1.062823295593261719e+01 -3.963563740253448486e-01 -4.712257385253906250e-01 -2.602746486663818359e-01 -4.713047146797180176e-01
7.312000000000000000e+03 5.126976013183593750e+01 1.632707405090332031e+01 -2.900907993316650391e-01 -6.133250519633293152e-02 -1.054269969463348389e-01 -4.720210433006286621e-01
7.313000000000000000e+03 5.244446563720703125e+01 1.886397933959960938e+01 -4.196564257144927979e-01 -5.366147682070732117e-02 -1.419953703880310059e-01 -5.801552534103393555e-01
7.314000000000000000e+03 4.957709884643554688e+01 1.366623592376708984e+01 -2.296990156173706055e-01 -1.183929890394210815e-01 -1.044275984168052673e-01 -3.988483846187591553e-01
7.315000000000000000e+03 5.631718444824218750e+01 1.785600852966308594e+01 -6.565209478139877319e-02 4.368187189102172852e-01 1.113499924540519714e-01 -3.263211548328399658e-01
7.316000000000000000e+03 4.356390380859375000e+01 7.802287101745605469e+00 -2.698045074939727783e-01 -3.993542492389678955e-01 -2.007476240396499634e-01 -3.158317208290100098e-01
7.317000000000000000e+03 4.440531921386718750e+01 7.960801124572753906e+00 -2.231882512569427490e-01 -3.382705152034759521e-01 -1.684376299381256104e-01 -2.918876707553863525e-01
7.318000000000000000e+03 5.373447418212890625e+01 1.875715065002441406e+01 -3.266249895095825195e-01 9.589985013008117676e-02 -6.921754032373428345e-02 -5.161085724830627441e-01
7.319000000000000000e+03 4.044802474975585938e+01 2.471128463745117188e+00 -8.424346894025802612e-02 -4.454971253871917725e-01 -1.589221805334091187e-01 -7.934071868658065796e-02
7.320000000000000000e+03 4.382838058471679688e+01 6.805883884429931641e+00 -2.003718763589859009e-01 -3.457047343254089355e-01 -1.638229787349700928e-01 -2.442983388900756836e-01
7.321000000000000000e+03 5.577896881103515625e+01 1.911939430236816406e+01 -2.116972208023071289e-01 3.039368987083435059e-01 2.767190895974636078e-02 -4.483505487442016602e-01
7.322000000000000000e+03 4.432610321044921875e+01 4.711772441864013672e+00 -3.792466223239898682e-02 -2.304026484489440918e-01 -8.049818873405456543e-02 -1.092926040291786194e-01
7.323000000000000000e+03 5.632279205322265625e+01 9.002252578735351562e+00 3.032188415527343750e-01 9.932180643081665039e-01 3.889310956001281738e-01 1.955026090145111084e-01
7.324000000000000000e+03 5.646417236328125000e+01 1.006079769134521484e+01 2.877728641033172607e-01 9.505659937858581543e-01 3.715016543865203857e-01 1.603351533412933350e-01
7.325000000000000000e+03 4.076573944091796875e+01 4.414547443389892578e+00 -2.203096300363540649e-01 -4.690863490104675293e-01 -2.068187892436981201e-01 -1.892446577548980713e-01
7.326000000000000000e+03 4.233805084228515625e+01 4.432685852050781250e+00 -1.334302574396133423e-01 -3.754227161407470703e-01 -1.526558995246887207e-01 -1.545976847410202026e-01
7.327000000000000000e+03 5.476525497436523438e+01 6.864094257354736328e+00 2.908854186534881592e-01 8.759912848472595215e-01 3.500629961490631104e-01 1.876261532306671143e-01
7.328000000000000000e+03 4.647920227050781250e+01 2.350900888442993164e+00 1.727703511714935303e-01 1.431264728307723999e-02 5.612490326166152954e-02 3.814234212040901184e-02
7.329000000000000000e+03 5.131443786621093750e+01 1.692331695556640625e+01 -3.334714770317077637e-01 -8.954349160194396973e-02 -1.269044876098632812e-01 -5.110738277435302734e-01
7.330000000000000000e+03 4.815185928344726562e+01 1.273083686828613281e+01 -2.591205239295959473e-01 -2.137404084205627441e-01 -1.418582797050476074e-01 -4.115353524684906006e-01
7.331000000000000000e+03 4.889975357055664062e+01 1.321465301513671875e+01 -2.410904765129089355e-01 -1.628459393978118896e-01 -1.211809292435646057e-01 -4.037040472030639648e-01
7.332000000000000000e+03 5.896551132202148438e+01 1.544549751281738281e+01 2.537106275558471680e-01 9.588584303855895996e-01 3.637707233428955078e-01 3.690065443515777588e-02
7.333000000000000000e+03 5.714929199218750000e+01 1.785608482360839844e+01 6.502794567495584488e-04 5.347012877464294434e-01 1.606054604053497314e-01 -2.690657675266265869e-01
7.334000000000000000e+03 4.579419326782226562e+01 1.217348098754882812e+01 -3.707405030727386475e-01 -4.092350900173187256e-01 -2.339926660060882568e-01 -4.978339374065399170e-01
7.335000000000000000e+03 4.483729934692382812e+01 9.319357872009277344e+00 -2.794354259967803955e-01 -3.599478900432586670e-01 -1.918149888515472412e-01 -3.588970601558685303e-01
7.336000000000000000e+03 5.321374130249023438e+01 1.893464279174804688e+01 -3.732466399669647217e-01 3.253246098756790161e-02 -1.022142544388771057e-01 -5.482318401336669922e-01
7.337000000000000000e+03 5.751348876953125000e+01 1.833798027038574219e+01 -7.466908078640699387e-03 5.437882542610168457e-01 1.608964055776596069e-01 -2.858957946300506592e-01
7.338000000000000000e+03 5.408156204223632812e+01 -1.185018941760063171e-01 3.736043572425842285e-01 1.015563488006591797e+00 4.167503714561462402e-01 2.886033654212951660e-01
7.339000000000000000e+03 4.517642974853515625e+01 1.071007633209228516e+01 -3.356419503688812256e-01 -3.928429782390594482e-01 -2.185454815626144409e-01 -4.297576844692230225e-01
7.340000000000000000e+03 5.239135360717773438e+01 1.806791496276855469e+01 -3.480527997016906738e-01 -2.134427055716514587e-02 -1.108191236853599548e-01 -5.301357507705688477e-01
7.341000000000000000e+03 4.446801376342773438e+01 3.949852705001831055e+00 8.500302210450172424e-03 -1.997681856155395508e-01 -5.738036334514617920e-02 -7.035489380359649658e-02
7.342000000000000000e+03 4.395248413085937500e+01 2.444068431854248047e+00 7.858491688966751099e-02 -2.065395563840866089e-01 -3.838639333844184875e-02 -1.909285783767700195e-02
7.343000000000000000e+03 4.653697204589843750e+01 1.172001171112060547e+01 -3.050268292427062988e-01 -3.201043307781219482e-01 -1.875393390655517578e-01 -4.318583011627197266e-01
7.344000000000000000e+03 5.008980178833007812e+01 1.353528213500976562e+01 -1.933624148368835449e-01 -5.832158774137496948e-02 -7.550520449876785278e-02 -3.687965869903564453e-01
7.345000000000000000e+03 4.825919342041015625e+01 1.335332584381103516e+01 -2.900798320770263672e-01 -2.402583062648773193e-01 -1.591014415025711060e-01 -4.470393359661102295e-01
7.346000000000000000e+03 5.421852493286132812e+01 1.745085597038269043e+00 3.568400144577026367e-01 9.816707968711853027e-01 4.015532433986663818e-01 2.726609110832214355e-01
7.347000000000000000e+03 4.980294418334960938e+01 -3.709369897842407227e-01 3.372966349124908447e-01 4.395507574081420898e-01 2.330542206764221191e-01 1.732228249311447144e-01
7.348000000000000000e+03 4.503225708007812500e+01 5.093289375305175781e+00 -2.822776697576045990e-02 -1.922613978385925293e-01 -6.614674627780914307e-02 -1.096103712916374207e-01
7.349000000000000000e+03 5.426353454589843750e+01 1.861066246032714844e+01 -2.739233374595642090e-01 1.662997454404830933e-01 -3.228708356618881226e-02 -4.813365340232849121e-01
7.350000000000000000e+03 5.864189147949218750e+01 1.775539970397949219e+01 1.312766522169113159e-01 7.419838905334472656e-01 2.619781792163848877e-01 -1.512868851423263550e-01
7.351000000000000000e+03 5.567112350463867188e+01 5.237485885620117188e+00 3.349901139736175537e-01 1.066543459892272949e+00 4.204600751399993896e-01 2.693068087100982666e-01
7.352000000000000000e+03 5.476820373535156250e+01 4.729094982147216797e+00 3.199524283409118652e-01 9.477966427803039551e-01 3.803247213363647461e-01 2.391875982284545898e-01
7.353000000000000000e+03 5.713674926757812500e+01 1.217128753662109375e+01 2.643788158893585205e-01 9.240236282348632812e-01 3.565207421779632568e-01 1.013373583555221558e-01
7.354000000000000000e+03 4.214366149902343750e+01 3.099737882614135742e+00 -4.570451006293296814e-02 -3.608780503273010254e-01 -1.219747662544250488e-01 -8.567957580089569092e-02
7.355000000000000000e+03 5.312201690673828125e+01 -4.238851070404052734e+00 3.954487442970275879e-01 9.837969541549682617e-01 4.137737154960632324e-01 2.648496627807617188e-01
7.356000000000000000e+03 5.402103042602539062e+01 -4.273584842681884766e+00 3.963166177272796631e-01 1.118312954902648926e+00 4.543888568878173828e-01 2.881850600242614746e-01
7.357000000000000000e+03 5.600619888305664062e+01 1.062528419494628906e+01 2.479176968336105347e-01 8.340507149696350098e-01 3.245905041694641113e-01 1.023250147700309753e-01
7.358000000000000000e+03 4.942520904541015625e+01 2.355010986328125000e+00 2.494887858629226685e-01 3.312772810459136963e-01 1.742298156023025513e-01 1.148179918527603149e-01
7.359000000000000000e+03 5.430504226684570312e+01 4.166041374206542969e+00 3.269681632518768311e-01 9.054303765296936035e-01 3.697195649147033691e-01 2.380862236022949219e-01
7.360000000000000000e+03 5.568426132202148438e+01 6.040523052215576172e+00 3.270848393440246582e-01 1.030588030815124512e+00 4.073018729686737061e-01 2.530922293663024902e-01
7.361000000000000000e+03 5.809558105468750000e+01 1.758308410644531250e+01 9.751757234334945679e-02 6.727879047393798828e-01 2.310916483402252197e-01 -1.827042400836944580e-01
7.362000000000000000e+03 5.800533676147460938e+01 1.819143676757812500e+01 4.414686933159828186e-02 6.161683797836303711e-01 1.980945765972137451e-01 -2.369798719882965088e-01
7.363000000000000000e+03 4.408431625366210938e+01 3.347620010375976562e+00 4.185551404953002930e-02 -2.163228988647460938e-01 -5.234021693468093872e-02 -5.778834968805313110e-02
7.364000000000000000e+03 4.331206512451171875e+01 5.098936080932617188e+00 -1.178589463233947754e-01 -3.246838748455047607e-01 -1.327628493309020996e-01 -1.622798144817352295e-01
7.365000000000000000e+03 4.723917007446289062e+01 1.299433231353759766e+00 2.354115694761276245e-01 1.094645857810974121e-01 1.034628450870513916e-01 8.517309278249740601e-02
7.366000000000000000e+03 4.527523422241210938e+01 3.806852340698242188e+00 5.202812328934669495e-02 -1.414444148540496826e-01 -2.682488597929477692e-02 -4.726882651448249817e-02
7.367000000000000000e+03 5.833303070068359375e+01 1.472394275665283203e+01 2.462878674268722534e-01 9.344319105148315430e-01 3.542159199714660645e-01 4.335138574242591858e-02
7.368000000000000000e+03 5.689566040039062500e+01 1.286470317840576172e+01 2.323865741491317749e-01 8.418194055557250977e-01 3.222617805004119873e-01 5.176644027233123779e-02
7.369000000000000000e+03 5.463326644897460938e+01 -2.819455623626708984e+00 3.847643435001373291e-01 1.173514604568481445e+00 4.674836993217468262e-01 3.016146421432495117e-01
7.370000000000000000e+03 5.375666046142578125e+01 -9.749878048896789551e-01 3.829562664031982422e-01 9.942873716354370117e-01 4.131730794906616211e-01 2.833122909069061279e-01
7.371000000000000000e+03 5.373039245605468750e+01 1.124819993972778320e+00 3.552996516227722168e-01 9.301956892013549805e-01 3.856486082077026367e-01 2.659548521041870117e-01
7.372000000000000000e+03 5.370444869995117188e+01 3.576314449310302734e+00 3.252702653408050537e-01 8.529282212257385254e-01 3.534595370292663574e-01 2.299978435039520264e-01
7.373000000000000000e+03 5.427658081054687500e+01 1.737187004089355469e+01 -1.719925850629806519e-01 2.242816239595413208e-01 1.568671129643917084e-02 -3.937093913555145264e-01
7.374000000000000000e+03 5.003911590576171875e+01 1.310662746429443359e+01 -1.693291068077087402e-01 -3.713488206267356873e-02 -6.193919479846954346e-02 -3.413330316543579102e-01
7.375000000000000000e+03 4.475090408325195312e+01 1.022097778320312500e+01 -3.373604416847229004e-01 -4.078229963779449463e-01 -2.235550284385681152e-01 -4.191419780254364014e-01
7.376000000000000000e+03 5.207061004638671875e+01 1.850555229187011719e+01 -4.129540026187896729e-01 -7.864531874656677246e-02 -1.474798023700714111e-01 -5.737251043319702148e-01
7.377000000000000000e+03 5.274153900146484375e+01 1.759949111938476562e+01 -3.009575307369232178e-01 3.531722351908683777e-02 -7.969208806753158569e-02 -4.889294207096099854e-01
7.378000000000000000e+03 5.191922760009765625e+01 1.675538063049316406e+01 -2.903133034706115723e-01 -2.175924368202686310e-02 -9.362176060676574707e-02 -4.701561331748962402e-01
7.379000000000000000e+03 5.498538970947265625e+01 1.890622711181640625e+01 -2.489224821329116821e-01 2.268744856119155884e-01 -6.614398211240768433e-03 -4.714943766593933105e-01
7.380000000000000000e+03 5.049374389648437500e+01 1.445418930053710938e+01 -2.193196564912796021e-01 -6.047623604536056519e-02 -8.393876999616622925e-02 -4.007629156112670898e-01
7.381000000000000000e+03 4.431370162963867188e+01 9.738647460937500000e+00 -3.366250991821289062e-01 -4.213459193706512451e-01 -2.273913025856018066e-01 -4.090843796730041504e-01
7.382000000000000000e+03 4.486533355712890625e+01 8.414552688598632812e+00 -2.289120405912399292e-01 -3.187329173088073730e-01 -1.642934978008270264e-01 -3.008753955364227295e-01
7.383000000000000000e+03 4.525560379028320312e+01 7.065252304077148438e+00 -1.279663890600204468e-01 -2.346272766590118408e-01 -1.087780967354774475e-01 -2.111523896455764771e-01
7.384000000000000000e+03 4.435816955566406250e+01 7.129329204559326172e+00 -1.851002722978591919e-01 -3.130610883235931396e-01 -1.494484096765518188e-01 -2.465956360101699829e-01
7.385000000000000000e+03 4.484720611572265625e+01 7.529049396514892578e+00 -1.769274175167083740e-01 -2.864729464054107666e-01 -1.390201002359390259e-01 -2.519365549087524414e-01
7.386000000000000000e+03 5.188195419311523438e+01 1.773270225524902344e+01 -3.621972501277923584e-01 -7.075005769729614258e-02 -1.298841834068298340e-01 -5.329380631446838379e-01
7.387000000000000000e+03 5.125993728637695312e+01 1.756668853759765625e+01 -3.853902220726013184e-01 -1.250287890434265137e-01 -1.531257033348083496e-01 -5.488865375518798828e-01
7.388000000000000000e+03 4.357600402832031250e+01 7.293744087219238281e+00 -2.447681576013565063e-01 -3.807241618633270264e-01 -1.876477003097534180e-01 -2.840190231800079346e-01
7.389000000000000000e+03 4.357052993774414062e+01 5.969502925872802734e+00 -1.644469350576400757e-01 -3.340039849281311035e-01 -1.495352685451507568e-01 -2.043701261281967163e-01
7.390000000000000000e+03 4.256781005859375000e+01 6.246063232421875000e+00 -2.385535836219787598e-01 -4.123341739177703857e-01 -1.952663213014602661e-01 -2.516721487045288086e-01
7.391000000000000000e+03 4.181763076782226562e+01 4.851040840148925781e+00 -1.826667934656143188e-01 -4.181461334228515625e-01 -1.802438795566558838e-01 -1.874633133411407471e-01
7.392000000000000000e+03 5.586618804931640625e+01 9.664696693420410156e+00 2.713788151741027832e-01 8.768598437309265137e-01 3.444716036319732666e-01 1.386290490627288818e-01
7.393000000000000000e+03 5.476489257812500000e+01 7.583833217620849609e+00 2.727600038051605225e-01 8.274832367897033691e-01 3.300729691982269287e-01 1.612402498722076416e-01
7.394000000000000000e+03 4.748373031616210938e+01 2.777484893798828125e+00 1.941154301166534424e-01 1.130592301487922668e-01 9.215240180492401123e-02 4.965385049581527710e-02
7.395000000000000000e+03 4.131835937500000000e+01 4.473428249359130859e+00 -1.902295500040054321e-01 -4.407116472721099854e-01 -1.892823576927185059e-01 -1.788409352302551270e-01
7.396000000000000000e+03 4.883406829833984375e+01 1.260943222045898438e+01 -2.135306298732757568e-01 -1.451638638973236084e-01 -1.076083481311798096e-01 -3.726384937763214111e-01
7.397000000000000000e+03 4.702599334716796875e+01 1.080437946319580078e+01 -2.284048199653625488e-01 -2.253558784723281860e-01 -1.361282169818878174e-01 -3.501529097557067871e-01
7.398000000000000000e+03 4.372317504882812500e+01 3.886646270751953125e+00 -2.714994736015796661e-02 -2.621212005615234375e-01 -8.678134530782699585e-02 -9.017203748226165771e-02
7.399000000000000000e+03 4.613874435424804688e+01 1.238694667816162109e+01 -3.687654435634613037e-01 -3.909030556678771973e-01 -2.279005497694015503e-01 -4.922227263450622559e-01
7.400000000000000000e+03 4.573948287963867188e+01 1.029725360870361328e+01 -2.819600701332092285e-01 -3.271441459655761719e-01 -1.827312707901000977e-01 -3.801929950714111328e-01
7.401000000000000000e+03 5.590554428100585938e+01 1.824977874755859375e+01 -1.328130215406417847e-01 3.647268712520599365e-01 6.957415491342544556e-02 -3.780666589736938477e-01
7.402000000000000000e+03 5.630767822265625000e+01 1.700330924987792969e+01 -6.296699866652488708e-03 4.893465042114257812e-01 1.449149399995803833e-01 -2.562862336635589600e-01
7.403000000000000000e+03 5.367955398559570312e+01 4.813817977905273438e+00 2.929433286190032959e-01 7.947452664375305176e-01 3.263065814971923828e-01 1.979831904172897339e-01
7.404000000000000000e+03 5.645803070068359375e+01 1.100284957885742188e+01 2.598778903484344482e-01 8.890225887298583984e-01 3.446701467037200928e-01 1.176680848002433777e-01
7.405000000000000000e+03 4.293238449096679688e+01 4.350804328918457031e+00 -9.243551641702651978e-02 -3.288255929946899414e-01 -1.263783276081085205e-01 -1.282695978879928589e-01
7.406000000000000000e+03 5.557528686523437500e+01 8.587186813354492188e+00 2.822210788726806641e-01 8.951342105865478516e-01 3.532065749168395996e-01 1.664540171623229980e-01
7.407000000000000000e+03 5.564651107788085938e+01 1.115579605102539062e+01 2.148891538381576538e-01 7.579697370529174805e-01 2.918576896190643311e-01 5.782510340213775635e-02
7.408000000000000000e+03 5.475605010986328125e+01 8.356210708618164062e+00 2.567834258079528809e-01 7.876148223876953125e-01 3.133194744586944580e-01 1.348545104265213013e-01
7.409000000000000000e+03 4.355933380126953125e+01 2.928731203079223633e+00 3.830598667263984680e-02 -2.494348436594009399e-01 -6.333865970373153687e-02 -5.003203451633453369e-02
7.410000000000000000e+03 5.070804977416992188e+01 8.612926006317138672e-01 3.238013386726379395e-01 5.351303815841674805e-01 2.576795220375061035e-01 1.826314926147460938e-01
7.411000000000000000e+03 5.086888885498046875e+01 -2.581296563148498535e-01 3.455510735511779785e-01 5.813277363777160645e-01 2.780636250972747803e-01 1.996336877346038818e-01
7.412000000000000000e+03 5.193062591552734375e+01 -3.804602026939392090e-01 3.627949059009552002e-01 7.207594513893127441e-01 3.250663280487060547e-01 2.274205833673477173e-01
7.413000000000000000e+03 5.774280548095703125e+01 1.507601547241210938e+01 1.989097744226455688e-01 8.157390356063842773e-01 3.043946325778961182e-01 -2.408873662352561951e-02
7.414000000000000000e+03 4.721642684936523438e+01 1.172110462188720703e+01 -2.548049986362457275e-01 -2.553802728652954102e-01 -1.530555784702301025e-01 -3.986063599586486816e-01
7.415000000000000000e+03 4.784713745117187500e+01 1.157015228271484375e+01 -2.151330113410949707e-01 -1.889214217662811279e-01 -1.212163269519805908e-01 -3.595117330551147461e-01
7.416000000000000000e+03 5.546310424804687500e+01 1.860176658630371094e+01 -1.907151490449905396e-01 2.946056127548217773e-01 3.116714209318161011e-02 -4.268062710762023926e-01
7.417000000000000000e+03 5.367303085327148438e+01 1.819357872009277344e+01 -2.846380770206451416e-01 1.113397553563117981e-01 -5.198949202895164490e-02 -4.843420684337615967e-01
7.418000000000000000e+03 4.132558822631835938e+01 3.187136888504028320e+00 -9.213852137327194214e-02 -4.105365276336669922e-01 -1.508025079965591431e-01 -1.061319261789321899e-01
7.419000000000000000e+03 4.758116149902343750e+01 1.842199921607971191e+00 2.214769572019577026e-01 1.291100382804870605e-01 1.051760986447334290e-01 7.715201377868652344e-02
7.420000000000000000e+03 4.877527236938476562e+01 1.564363598823547363e+00 2.632895708084106445e-01 2.841381132602691650e-01 1.642283052206039429e-01 1.132161170244216919e-01
7.421000000000000000e+03 5.492938613891601562e+01 5.352221488952636719e+00 3.183778524398803711e-01 9.536817073822021484e-01 3.816178739070892334e-01 2.312400639057159424e-01
7.422000000000000000e+03 5.263416290283203125e+01 -1.786159873008728027e+00 3.840068876743316650e-01 8.525586724281311035e-01 3.709696829319000244e-01 2.554205060005187988e-01
7.423000000000000000e+03 5.809403610229492188e+01 1.605303001403808594e+01 1.888174116611480713e-01 8.098096847534179688e-01 2.995881438255310059e-01 -5.512248352169990540e-02
7.424000000000000000e+03 5.781603622436523438e+01 1.668163490295410156e+01 1.341961771249771118e-01 7.170545458793640137e-01 2.553752064704895020e-01 -1.244708523154258728e-01
7.425000000000000000e+03 5.872787475585937500e+01 1.643730735778808594e+01 2.144403755664825439e-01 8.644517660140991211e-01 3.236676454544067383e-01 -3.370318189263343811e-02
7.426000000000000000e+03 4.709857177734375000e+01 2.199541091918945312e+00 1.978473514318466187e-01 8.605124801397323608e-02 8.516958355903625488e-02 5.503050237894058228e-02
7.427000000000000000e+03 5.241503143310546875e+01 3.599867343902587891e+00 2.947624921798706055e-01 6.703765988349914551e-01 2.895417213439941406e-01 1.814814358949661255e-01
7.428000000000000000e+03 5.366876220703125000e+01 2.309474468231201172e+00 3.421013057231903076e-01 8.928974270820617676e-01 3.704996109008789062e-01 2.518901228904724121e-01
7.429000000000000000e+03 5.304788208007812500e+01 4.255575656890869141e+00 2.945974171161651611e-01 7.287796139717102051e-01 3.070130944252014160e-01 1.866780817508697510e-01
7.430000000000000000e+03 5.451316070556640625e+01 1.787859916687011719e+01 -2.001964449882507324e-01 2.265183329582214355e-01 7.896568626165390015e-03 -4.172900319099426270e-01
7.431000000000000000e+03 5.285226058959960938e+01 1.845156097412109375e+01 -3.542043566703796387e-01 1.523319445550441742e-02 -1.016913503408432007e-01 -5.334911346435546875e-01
7.432000000000000000e+03 5.473831176757812500e+01 1.838359069824218750e+01 -2.235100716352462769e-01 2.205207347869873047e-01 -8.968022884801030159e-04 -4.441856443881988525e-01
7.433000000000000000e+03 5.154183578491210938e+01 1.513798809051513672e+01 -2.015540450811386108e-01 2.457477897405624390e-02 -5.309377983212471008e-02 -3.847658038139343262e-01
7.434000000000000000e+03 5.205491638183593750e+01 1.115302085876464844e+01 3.996739909052848816e-02 2.842768728733062744e-01 9.727328270673751831e-02 -1.347951143980026245e-01
7.435000000000000000e+03 4.297459793090820312e+01 3.755494594573974609e+00 -5.040991306304931641e-02 -3.121052682399749756e-01 -1.087545529007911682e-01 -1.044681742787361145e-01
7.436000000000000000e+03 4.273448562622070312e+01 4.832297325134277344e+00 -1.377284377813339233e-01 -3.621402978897094727e-01 -1.499606221914291382e-01 -1.660759896039962769e-01
7.437000000000000000e+03 4.804475021362304688e+01 1.209713935852050781e+01 -2.292469590902328491e-01 -1.958796083927154541e-01 -1.275379657745361328e-01 -3.789843320846557617e-01
7.438000000000000000e+03 5.486205291748046875e+01 1.003002166748046875e+01 2.181114852428436279e-01 7.123134732246398926e-01 2.791274785995483398e-01 7.057680189609527588e-02
7.439000000000000000e+03 5.614772796630859375e+01 1.259681606292724609e+01 1.992721408605575562e-01 7.426733374595642090e-01 2.825836539268493652e-01 1.489960681647062302e-02
7.440000000000000000e+03 4.513098526000976562e+01 6.140305519104003906e+00 -8.895120024681091309e-02 -2.141676545143127441e-01 -9.093565493822097778e-02 -1.618280261754989624e-01
7.441000000000000000e+03 5.082018661499023438e+01 1.368248462677001953e+01 -1.560034155845642090e-01 1.586765050888061523e-02 -4.204072803258895874e-02 -3.365831077098846436e-01
7.442000000000000000e+03 5.127050399780273438e+01 1.467208766937255859e+01 -1.843265444040298462e-01 1.983731426298618317e-02 -4.934677109122276306e-02 -3.737654089927673340e-01
7.443000000000000000e+03 4.533782958984375000e+01 7.964492321014404297e+00 -1.713552027940750122e-01 -2.614277899265289307e-01 -1.298348903656005859e-01 -2.570869028568267822e-01
7.444000000000000000e+03 5.705490875244140625e+01 1.697179794311523438e+01 5.493295192718505859e-02 5.791437625885009766e-01 1.902230083942413330e-01 -2.048485130071640015e-01
7.445000000000000000e+03 4.322842025756835938e+01 6.539990425109863281e+00 -2.202278822660446167e-01 -3.784829676151275635e-01 -1.796132624149322510e-01 -2.515020668506622314e-01
7.446000000000000000e+03 4.472564697265625000e+01 6.650893688201904297e+00 -1.378344297409057617e-01 -2.668634653091430664e-01 -1.214093640446662903e-01 -2.048548907041549683e-01
7.447000000000000000e+03 4.577572631835937500e+01 7.492649555206298828e+00 -1.237154453992843628e-01 -2.048337161540985107e-01 -9.856475144624710083e-02 -2.148266434669494629e-01
7.448000000000000000e+03 4.233595657348632812e+01 5.313650608062744141e+00 -1.857858896255493164e-01 -3.952845335006713867e-01 -1.743211150169372559e-01 -2.000250667333602905e-01
7.449000000000000000e+03 5.398590469360351562e+01 7.574935436248779297e+00 2.477361261844635010e-01 7.105566859245300293e-01 2.874878644943237305e-01 1.237236186861991882e-01
7.450000000000000000e+03 4.529843902587890625e+01 9.803423881530761719e+00 -2.795188426971435547e-01 -3.420432507991790771e-01 -1.864686310291290283e-01 -3.695640265941619873e-01
7.451000000000000000e+03 4.904619216918945312e+01 9.223254203796386719e+00 -3.547353670001029968e-02 3.654795140027999878e-02 3.223239909857511520e-04 -1.726991385221481323e-01
7.452000000000000000e+03 4.672034072875976562e+01 1.035819530487060547e+01 -2.232240736484527588e-01 -2.389719039201736450e-01 -1.386587917804718018e-01 -3.406428694725036621e-01
7.453000000000000000e+03 4.663924789428710938e+01 1.117090511322021484e+01 -2.690286934375762939e-01 -2.902579605579376221e-01 -1.677860021591186523e-01 -3.957125842571258545e-01
7.454000000000000000e+03 5.739143753051757812e+01 1.577117824554443359e+01 1.442768573760986328e-01 7.137042284011840820e-01 2.573943436145782471e-01 -9.724840521812438965e-02
7.455000000000000000e+03 5.710187530517578125e+01 1.466999626159667969e+01 1.748133599758148193e-01 7.540224194526672363e-01 2.786507308483123779e-01 -3.807025402784347534e-02
7.456000000000000000e+03 4.535457611083984375e+01 8.880813598632812500e+00 -2.232878506183624268e-01 -2.966989874839782715e-01 -1.559960544109344482e-01 -3.096123337745666504e-01
7.457000000000000000e+03 5.013438796997070312e+01 1.520189952850341797e+01 -2.868069708347320557e-01 -1.373186409473419189e-01 -1.272376775741577148e-01 -4.626542031764984131e-01
7.458000000000000000e+03 5.309983444213867188e+01 6.937400341033935547e+00 2.337702959775924683e-01 6.276142001152038574e-01 2.584153413772583008e-01 1.104468181729316711e-01
7.459000000000000000e+03 5.603246307373046875e+01 1.151247119903564453e+01 2.223644852638244629e-01 7.857216000556945801e-01 3.024258315563201904e-01 6.389289349317550659e-02
7.460000000000000000e+03 5.024605941772460938e+01 1.200842475891113281e+01 -1.033394858241081238e-01 3.559027612209320068e-02 -2.032476477324962616e-02 -2.699760794639587402e-01
7.461000000000000000e+03 4.536806488037109375e+01 2.993549108505249023e+00 9.714353084564208984e-02 -1.109281405806541443e-01 -4.135384224355220795e-03 -1.242695562541484833e-02
7.462000000000000000e+03 4.559779739379882812e+01 5.636306762695312500e+00 -3.347278386354446411e-02 -1.580409556627273560e-01 -5.745412409305572510e-02 -1.239402219653129578e-01
7.463000000000000000e+03 5.753762817382812500e+01 1.730553817749023438e+01 6.958801299333572388e-02 6.159939765930175781e-01 2.056746035814285278e-01 -2.022292762994766235e-01
7.464000000000000000e+03 5.557093429565429688e+01 1.778048706054687500e+01 -1.163669452071189880e-01 3.532235920429229736e-01 7.105699926614761353e-02 -3.614401221275329590e-01
7.465000000000000000e+03 5.587560272216796875e+01 1.333667850494384766e+01 1.532700061798095703e-01 6.578882336616516113e-01 2.433474808931350708e-01 -4.295713454484939575e-02
7.466000000000000000e+03 5.663786697387695312e+01 1.360304927825927734e+01 1.876000761985778809e-01 7.508589029312133789e-01 2.815376818180084229e-01 -1.024562865495681763e-02
7.467000000000000000e+03 5.320444869995117188e+01 1.797547912597656250e+01 -2.945691347122192383e-01 7.217384129762649536e-02 -6.671858578920364380e-02 -4.909104704856872559e-01
7.468000000000000000e+03 5.410678482055664062e+01 1.811900520324707031e+01 -2.485291361808776855e-01 1.697435230016708374e-01 -2.363568171858787537e-02 -4.562599062919616699e-01
7.469000000000000000e+03 5.546332550048828125e+01 1.030145072937011719e+01 2.351744621992111206e-01 7.805678248405456543e-01 3.047226965427398682e-01 8.643726259469985962e-02
7.470000000000000000e+03 5.422710418701171875e+01 9.806612014770507812e+00 1.956429183483123779e-01 6.368328332901000977e-01 2.497427314519882202e-01 4.754630848765373230e-02
7.471000000000000000e+03 4.800868225097656250e+01 2.264652729034423828e+00 2.225175350904464722e-01 1.813733577728271484e-01 1.211672648787498474e-01 7.440293580293655396e-02
7.472000000000000000e+03 4.639321899414062500e+01 4.177546501159667969e+00 8.505082875490188599e-02 -3.423236310482025146e-02 1.524553913623094559e-02 -3.011165559291839600e-02
7.473000000000000000e+03 5.155486297607421875e+01 1.234076023101806641e+01 -4.929575324058532715e-02 1.625565737485885620e-01 3.397824615240097046e-02 -2.267085015773773193e-01
7.474000000000000000e+03 4.358320999145507812e+01 4.506434917449951172e+00 -7.065558433532714844e-02 -2.894002199172973633e-01 -1.080167442560195923e-01 -1.225977167487144470e-01
7.475000000000000000e+03 5.239201354980468750e+01 7.144351601600646973e-01 3.443841040134429932e-01 7.498578429222106934e-01 3.282725811004638672e-01 2.303711771965026855e-01
7.476000000000000000e+03 5.134952163696289062e+01 1.291275787353515625e+01 -8.730305731296539307e-02 1.130387559533119202e-01 7.720708847045898438e-03 -2.680556476116180420e-01
7.477000000000000000e+03 4.879668807983398438e+01 1.195718765258789062e+01 -1.832097172737121582e-01 -1.153266429901123047e-01 -8.956091105937957764e-02 -3.377427756786346436e-01
7.478000000000000000e+03 4.869499206542968750e+01 2.399145126342773438e+00 2.381026744842529297e-01 2.471882998943328857e-01 1.455872952938079834e-01 9.069894254207611084e-02
7.479000000000000000e+03 4.670134735107421875e+01 3.091464281082153320e+00 1.462467461824417114e-01 1.812914013862609863e-02 4.931276291608810425e-02 1.450891233980655670e-02
7.480000000000000000e+03 4.619277572631835938e+01 6.998062610626220703e+00 -7.176817208528518677e-02 -1.485874950885772705e-01 -6.610669940710067749e-02 -1.730709820985794067e-01
7.481000000000000000e+03 5.305306625366210938e+01 2.927028894424438477e+00 3.246743083000183105e-01 7.817468047142028809e-01 3.319263160228729248e-01 2.184036523103713989e-01
7.482000000000000000e+03 5.478658294677734375e+01 -3.375209271907806396e-01 3.805812895298004150e-01 1.131961703300476074e+00 4.537628889083862305e-01 3.092029690742492676e-01
7.483000000000000000e+03 5.240203857421875000e+01 4.988551139831542969e+00 2.549763917922973633e-01 6.055189967155456543e-01 2.581486105918884277e-01 1.416259109973907471e-01
7.484000000000000000e+03 5.163932800292968750e+01 1.413344979286193848e+00 3.266023099422454834e-01 6.346400380134582520e-01 2.883727252483367920e-01 1.986390948295593262e-01
7.485000000000000000e+03 5.390641784667968750e+01 6.782315254211425781e+00 2.655107080936431885e-01 7.430784106254577637e-01 3.025767207145690918e-01 1.511407792568206787e-01
7.486000000000000000e+03 5.247713470458984375e+01 7.350156784057617188e+00 1.896695196628570557e-01 5.187938809394836426e-01 2.125390172004699707e-01 6.297726929187774658e-02
7.487000000000000000e+03 4.955779266357421875e+01 1.579451918601989746e+00 2.840077579021453857e-01 3.650383055210113525e-01 1.947138160467147827e-01 1.368243247270584106e-01
7.488000000000000000e+03 5.487601470947265625e+01 1.153963184356689453e+01 1.689877659082412720e-01 6.229505538940429688e-01 2.375815063714981079e-01 -3.277654061093926430e-03
7.489000000000000000e+03 4.949552917480468750e+01 1.256205749511718750e+01 -1.758790910243988037e-01 -6.820266693830490112e-02 -7.322452962398529053e-02 -3.380223810672760010e-01
7.490000000000000000e+03 5.234529495239257812e+01 1.634191322326660156e+01 -2.326832413673400879e-01 5.447066947817802429e-02 -5.346377193927764893e-02 -4.246596992015838623e-01
7.491000000000000000e+03 5.598412704467773438e+01 1.508820819854736328e+01 8.158867806196212769e-02 5.627799630165100098e-01 1.933105885982513428e-01 -1.420686691999435425e-01
7.492000000000000000e+03 5.103954315185546875e+01 1.419109344482421875e+01 -1.710239797830581665e-01 1.697389595210552216e-02 -4.621502757072448730e-02 -3.569160997867584229e-01
7.493000000000000000e+03 5.177268981933593750e+01 1.440426063537597656e+01 -1.407933831214904785e-01 8.430357277393341064e-02 -1.694694347679615021e-02 -3.333771228790283203e-01
7.494000000000000000e+03 5.049728393554687500e+01 1.326648139953613281e+01 -1.512744426727294922e-01 6.500368937849998474e-03 -4.343222454190254211e-02 -3.275692164897918701e-01
7.495000000000000000e+03 5.565075683593750000e+01 1.578157138824462891e+01 2.146339602768421173e-02 4.784337282180786133e-01 1.499691456556320190e-01 -2.085359692573547363e-01
7.496000000000000000e+03 5.517479705810546875e+01 1.810859870910644531e+01 -1.743168681859970093e-01 2.853936851024627686e-01 3.332304581999778748e-02 -4.079748988151550293e-01
7.497000000000000000e+03 4.716419219970703125e+01 1.123407363891601562e+01 -2.409560531377792358e-01 -2.344971895217895508e-01 -1.426359713077545166e-01 -3.688377141952514648e-01
7.498000000000000000e+03 4.584854888916015625e+01 8.416768074035644531e+00 -1.718959808349609375e-01 -2.347485274076461792e-01 -1.219933480024337769e-01 -2.617821991443634033e-01
7.499000000000000000e+03 4.294546127319335938e+01 5.666832923889160156e+00 -1.821439117193222046e-01 -3.702516555786132812e-01 -1.657186746597290039e-01 -2.086948603391647339e-01
7.500000000000000000e+03 4.416777801513671875e+01 6.283647060394287109e+00 -1.506882309913635254e-01 -3.010824024677276611e-01 -1.355311870574951172e-01 -2.029946148395538330e-01
7.501000000000000000e+03 5.628055191040039062e+01 1.609647941589355469e+01 5.055797100067138672e-02 5.407979488372802734e-01 1.774067729711532593e-01 -1.920848339796066284e-01
7.502000000000000000e+03 5.722621917724609375e+01 1.643461799621582031e+01 1.035988107323646545e-01 6.406484246253967285e-01 2.232741862535476685e-01 -1.538618355989456177e-01
7.503000000000000000e+03 5.633062744140625000e+01 1.435452651977539062e+01 1.404631137847900391e-01 6.593869924545288086e-01 2.399550378322601318e-01 -7.286629080772399902e-02
7.504000000000000000e+03 5.669004440307617188e+01 1.543610572814941406e+01 1.104489415884017944e-01 6.342693567276000977e-01 2.234154790639877319e-01 -1.212615221738815308e-01
7.505000000000000000e+03 4.566124343872070312e+01 6.587073802947998047e+00 -7.875338941812515259e-02 -1.819136142730712891e-01 -7.820010185241699219e-02 -1.681241989135742188e-01
7.506000000000000000e+03 4.632343673706054688e+01 9.857962608337402344e+00 -2.207416296005249023e-01 -2.554111778736114502e-01 -1.428458392620086670e-01 -3.275113403797149658e-01
7.507000000000000000e+03 5.539226150512695312e+01 1.236628723144531250e+01 1.654955446720123291e-01 6.518855094909667969e-01 2.452143132686614990e-01 -1.508318074047565460e-02
7.508000000000000000e+03 5.558306121826171875e+01 1.407039451599121094e+01 1.074464172124862671e-01 5.737100839614868164e-01 2.043469548225402832e-01 -1.038225591182708740e-01
7.509000000000000000e+03 5.513889312744140625e+01 1.308636760711669922e+01 1.247237920761108398e-01 5.731942057609558105e-01 2.093754112720489502e-01 -7.201328128576278687e-02
7.510000000000000000e+03 5.330736160278320312e+01 7.634104251861572266e+00 2.199892699718475342e-01 6.264626979827880859e-01 2.539355754852294922e-01 8.921639621257781982e-02
7.511000000000000000e+03 5.451232147216796875e+01 9.120357513427734375e+00 2.304197847843170166e-01 7.128824591636657715e-01 2.829906642436981201e-01 9.204839169979095459e-02
7.512000000000000000e+03 4.954010772705078125e+01 1.194651412963867188e+01 -1.399994194507598877e-01 -3.403834998607635498e-02 -5.221132934093475342e-02 -3.010949790477752686e-01
7.513000000000000000e+03 5.512504577636718750e+01 1.091956043243408203e+01 2.012197375297546387e-01 7.021471858024597168e-01 2.710100710391998291e-01 4.368446767330169678e-02
7.514000000000000000e+03 4.630294036865234375e+01 7.926259517669677734e+00 -1.175185143947601318e-01 -1.758494377136230469e-01 -8.801038563251495361e-02 -2.173533588647842407e-01
7.515000000000000000e+03 5.227108383178710938e+01 1.720940017700195312e+01 -2.977382838726043701e-01 -5.189504474401473999e-03 -9.087833762168884277e-02 -4.843459427356719971e-01
7.516000000000000000e+03 4.566331100463867188e+01 4.565742492675781250e+00 2.412192709743976593e-02 -1.234631389379501343e-01 -2.980236336588859558e-02 -6.843805313110351562e-02
7.517000000000000000e+03 5.105380630493164062e+01 5.547183513641357422e+00 2.011130899190902710e-01 4.203095734119415283e-01 1.864267885684967041e-01 7.215818017721176147e-02
7.518000000000000000e+03 4.747951507568359375e+01 4.515131473541259766e+00 1.066286861896514893e-01 5.732573568820953369e-02 4.918632656335830688e-02 -1.318417023867368698e-02
7.519000000000000000e+03 5.331303405761718750e+01 2.783493697643280029e-01 3.629925251007080078e-01 9.008541703224182129e-01 3.791540265083312988e-01 2.618234753608703613e-01
7.520000000000000000e+03 4.817661285400390625e+01 4.199715137481689453e+00 1.469115763902664185e-01 1.382058709859848022e-01 8.553523570299148560e-02 2.017192542552947998e-02
7.521000000000000000e+03 5.316687011718750000e+01 5.568837165832519531e+00 2.656778097152709961e-01 6.894993782043457031e-01 2.865531444549560547e-01 1.554808020591735840e-01
7.522000000000000000e+03 5.178585052490234375e+01 1.565040016174316406e+01 -2.187250852584838867e-01 1.761467009782791138e-02 -6.033312529325485229e-02 -4.105040729045867920e-01
7.523000000000000000e+03 4.456777954101562500e+01 5.718775749206542969e+00 -9.728121757507324219e-02 -2.485906034708023071e-01 -1.037615463137626648e-01 -1.589028984308242798e-01
7.524000000000000000e+03 5.358277893066406250e+01 9.617616653442382812e+00 1.735991239547729492e-01 5.616245865821838379e-01 2.205671221017837524e-01 2.184696495532989502e-02
7.525000000000000000e+03 5.144551086425781250e+01 6.551248073577880859e+00 1.822505295276641846e-01 4.260532855987548828e-01 1.824911385774612427e-01 5.168597400188446045e-02
7.526000000000000000e+03 5.201030349731445312e+01 6.925356864929199219e+00 1.871194690465927124e-01 4.746057093143463135e-01 1.985175609588623047e-01 5.983361974358558655e-02
7.527000000000000000e+03 5.109582901000976562e+01 2.247965574264526367e+00 2.945623099803924561e-01 5.323488712310791016e-01 2.480733543634414673e-01 1.644719988107681274e-01
7.528000000000000000e+03 5.186768341064453125e+01 5.783412456512451172e+00 2.209305465221405029e-01 5.129579305648803711e-01 2.201665490865707397e-01 9.683536738157272339e-02
7.529000000000000000e+03 5.035358428955078125e+01 1.789077639579772949e+00 2.902233004570007324e-01 4.596595168113708496e-01 2.249648422002792358e-01 1.529498547315597534e-01
7.530000000000000000e+03 5.397551345825195312e+01 8.298206329345703125e+00 2.254626452922821045e-01 6.757954359054565430e-01 2.703774273395538330e-01 9.689652919769287109e-02
7.531000000000000000e+03 5.174567413330078125e+01 4.286690235137939453e+00 2.574680149555206299e-01 5.499047040939331055e-01 2.422118186950683594e-01 1.323058754205703735e-01
7.532000000000000000e+03 5.013226699829101562e+01 1.260031414031982422e+01 -1.420632302761077881e-01 -6.122863385826349258e-03 -4.445583000779151917e-02 -3.095358312129974365e-01
7.533000000000000000e+03 5.208761596679687500e+01 1.483434295654296875e+01 -1.536793857812881470e-01 8.932694047689437866e-02 -1.930573582649230957e-02 -3.449613451957702637e-01
7.534000000000000000e+03 5.122547531127929688e+01 1.581464004516601562e+01 -2.654061019420623779e-01 -4.957838729023933411e-02 -9.449534863233566284e-02 -4.475573897361755371e-01
7.535000000000000000e+03 5.217242050170898438e+01 1.259245491027832031e+01 -2.401503548026084900e-02 2.270707041025161743e-01 6.091669946908950806e-02 -2.065522372722625732e-01
7.536000000000000000e+03 4.738531875610351562e+01 9.992008209228515625e+00 -1.602653861045837402e-01 -1.597505807876586914e-01 -9.600479155778884888e-02 -2.883681952953338623e-01
7.537000000000000000e+03 4.657322311401367188e+01 6.456776618957519531e+00 -2.327863126993179321e-02 -9.218233823776245117e-02 -3.463828936219215393e-02 -1.300301700830459595e-01
7.538000000000000000e+03 4.820747375488281250e+01 1.114552783966064453e+01 -1.783997416496276855e-01 -1.386774331331253052e-01 -9.512315690517425537e-02 -3.171553313732147217e-01
7.539000000000000000e+03 5.363944244384765625e+01 1.107536315917968750e+01 1.220066547393798828e-01 4.892207086086273193e-01 1.833682060241699219e-01 -4.706226661801338196e-02
7.540000000000000000e+03 4.769657135009765625e+01 6.242788791656494141e+00 3.319348767399787903e-02 1.945553906261920929e-02 1.579470746219158173e-02 -7.909443974494934082e-02
7.541000000000000000e+03 5.319347381591796875e+01 8.861611366271972656e+00 1.786608844995498657e-01 5.480508208274841309e-01 2.180135101079940796e-01 3.699753060936927795e-02
7.542000000000000000e+03 5.670442199707031250e+01 1.655744552612304688e+01 6.378263235092163086e-02 5.700935125350952148e-01 1.901628375053405762e-01 -1.971079409122467041e-01
7.543000000000000000e+03 5.177537155151367188e+01 2.894486188888549805e+00 2.974267303943634033e-01 6.039813160896301270e-01 2.704223990440368652e-01 1.716980487108230591e-01
7.544000000000000000e+03 5.308724594116210938e+01 1.229809379577636719e+01 4.205267876386642456e-02 3.539345562458038330e-01 1.187961697578430176e-01 -1.416433155536651611e-01
7.545000000000000000e+03 4.606294631958007812e+01 6.132085323333740234e+00 -4.170039296150207520e-02 -1.340585201978683472e-01 -5.272767320275306702e-02 -1.311634629964828491e-01
7.546000000000000000e+03 5.376649475097656250e+01 1.583506202697753906e+01 -1.028284132480621338e-01 2.431579679250717163e-01 4.209886491298675537e-02 -3.209917247295379639e-01
7.547000000000000000e+03 5.333378982543945312e+01 8.265029907226562500e+00 2.064066529273986816e-01 5.960135459899902344e-01 2.407260537147521973e-01 6.766276061534881592e-02
7.548000000000000000e+03 4.685617065429687500e+01 8.376008033752441406e+00 -1.142619103193283081e-01 -1.468732208013534546e-01 -7.834053784608840942e-02 -2.209623008966445923e-01
7.549000000000000000e+03 4.638616561889648438e+01 8.887952804565429688e+00 -1.629720181226730347e-01 -2.047755569219589233e-01 -1.103242710232734680e-01 -2.663474082946777344e-01
7.550000000000000000e+03 5.239067077636718750e+01 1.535126876831054688e+01 -1.641892790794372559e-01 1.046271249651908875e-01 -1.786864548921585083e-02 -3.611952066421508789e-01
7.551000000000000000e+03 5.494093322753906250e+01 1.556260490417480469e+01 -1.204998139292001724e-02 4.011579155921936035e-01 1.167323812842369080e-01 -2.366050630807876587e-01
7.552000000000000000e+03 5.485419845581054688e+01 1.380133342742919922e+01 7.332830131053924561e-02 4.955941736698150635e-01 1.706767380237579346e-01 -1.299902498722076416e-01
7.553000000000000000e+03 5.344414901733398438e+01 1.322561359405517578e+01 2.163829281926155090e-02 3.476929366588592529e-01 1.107993721961975098e-01 -1.729066222906112671e-01
7.554000000000000000e+03 5.277599334716796875e+01 7.791636466979980469e+00 1.983050405979156494e-01 5.464284420013427734e-01 2.234200388193130493e-01 5.913189053535461426e-02
7.555000000000000000e+03 4.896059036254882812e+01 1.054131412506103516e+01 -1.055468618869781494e-01 -2.835972048342227936e-02 -4.017197340726852417e-02 -2.481201142072677612e-01
7.556000000000000000e+03 5.522524261474609375e+01 1.732215690612792969e+01 -1.137867718935012817e-01 3.368341326713562012e-01 6.691420823335647583e-02 -3.434437811374664307e-01
7.557000000000000000e+03 5.392273330688476562e+01 1.700910949707031250e+01 -1.643155515193939209e-01 2.105290889739990234e-01 1.386406365782022476e-02 -3.872798979282379150e-01
7.558000000000000000e+03 5.388496398925781250e+01 1.775816535949707031e+01 -2.358699887990951538e-01 1.592230796813964844e-01 -2.299407310783863068e-02 -4.418388903141021729e-01
7.559000000000000000e+03 5.274222564697265625e+01 1.673750114440917969e+01 -2.303248643875122070e-01 8.639133721590042114e-02 -4.318005591630935669e-02 -4.246151447296142578e-01
7.560000000000000000e+03 5.556423950195312500e+01 1.697913169860839844e+01 -6.373612582683563232e-02 3.954827189445495605e-01 9.952398389577865601e-02 -2.989807426929473877e-01
7.561000000000000000e+03 5.058168029785156250e+01 2.951435089111328125e+00 2.686094045639038086e-01 4.511354863643646240e-01 2.159234583377838135e-01 1.335250139236450195e-01
7.562000000000000000e+03 5.035065841674804688e+01 4.926634311676025391e+00 1.959557831287384033e-01 3.500614464282989502e-01 1.638051718473434448e-01 7.036509364843368530e-02
7.563000000000000000e+03 4.768526077270507812e+01 1.111708354949951172e+01 -2.091806977987289429e-01 -1.836876571178436279e-01 -1.178605034947395325e-01 -3.418801426887512207e-01
7.564000000000000000e+03 5.392961502075195312e+01 1.045081329345703125e+01 1.604590564966201782e-01 5.622423291206359863e-01 2.168104052543640137e-01 -2.729456755332648754e-04
7.565000000000000000e+03 5.426099395751953125e+01 1.131398200988769531e+01 1.447787880897521973e-01 5.572892427444458008e-01 2.106204032897949219e-01 -2.668202854692935944e-02
7.566000000000000000e+03 4.711105728149414062e+01 3.817260980606079102e+00 1.229190975427627563e-01 3.662004694342613220e-02 4.786174371838569641e-02 5.551985814236104488e-04
7.567000000000000000e+03 4.876229476928710938e+01 3.220369577407836914e+00 2.071965634822845459e-01 2.342039495706558228e-01 1.324201524257659912e-01 7.276602834463119507e-02
7.568000000000000000e+03 4.953379440307617188e+01 2.994789838790893555e+00 2.405988872051239014e-01 3.252733647823333740e-01 1.697616726160049438e-01 1.004059687256813049e-01
7.569000000000000000e+03 5.110816955566406250e+01 1.151702308654785156e+01 -3.334511443972587585e-02 1.537549048662185669e-01 3.612293303012847900e-02 -2.029660940170288086e-01
7.570000000000000000e+03 5.382293319702148438e+01 8.978569984436035156e+00 2.070208042860031128e-01 6.260190010070800781e-01 2.499119490385055542e-01 6.253287941217422485e-02
7.571000000000000000e+03 4.961633300781250000e+01 4.070194721221923828e+00 2.055438309907913208e-01 2.958283126354217529e-01 1.504116356372833252e-01 7.095097005367279053e-02
7.572000000000000000e+03 5.001828765869140625e+01 2.516048431396484375e+00 2.644731402397155762e-01 3.980467021465301514e-01 1.987559497356414795e-01 1.300273239612579346e-01
7.573000000000000000e+03 5.526690292358398438e+01 1.480364131927490234e+01 5.321965366601943970e-02 4.905298948287963867e-01 1.631248593330383301e-01 -1.667374074459075928e-01
7.574000000000000000e+03 5.442233276367187500e+01 1.284249401092529297e+01 9.409511089324951172e-02 4.940877854824066162e-01 1.764548718929290771e-01 -9.824001789093017578e-02
7.575000000000000000e+03 5.244589233398437500e+01 1.349114894866943359e+01 -5.305726081132888794e-02 2.100009024143218994e-01 4.708309099078178406e-02 -2.447096258401870728e-01
7.576000000000000000e+03 5.297017669677734375e+01 1.495154190063476562e+01 -9.700430929660797119e-02 2.044839560985565186e-01 3.224389255046844482e-02 -3.004889488220214844e-01
7.577000000000000000e+03 5.074633407592773438e+01 1.276152324676513672e+01 -1.133557707071304321e-01 5.637257173657417297e-02 -1.709496043622493744e-02 -2.883262038230895996e-01
7.578000000000000000e+03 5.279223251342773438e+01 1.290285968780517578e+01 -1.173167140223085880e-03 2.829101085662841797e-01 8.452107757329940796e-02 -1.914927214384078979e-01
7.579000000000000000e+03 5.277271270751953125e+01 1.584868907928466797e+01 -1.667321026325225830e-01 1.284101754426956177e-01 -1.149657834321260452e-02 -3.745578825473785400e-01
7.580000000000000000e+03 5.151257705688476562e+01 7.587482929229736328e+00 1.433651149272918701e-01 3.772927522659301758e-01 1.561973690986633301e-01 9.053122252225875854e-03
7.581000000000000000e+03 5.336223983764648438e+01 1.168879032135009766e+01 8.257107436656951904e-02 4.207783341407775879e-01 1.510048210620880127e-01 -9.469743818044662476e-02
7.582000000000000000e+03 5.058519744873046875e+01 4.051110267639160156e+00 2.382338941097259521e-01 4.171606600284576416e-01 1.966183632612228394e-01 1.041123345494270325e-01
7.583000000000000000e+03 4.824135208129882812e+01 1.051351833343505859e+01 -1.404999047517776489e-01 -1.062557548284530640e-01 -7.402669638395309448e-02 -2.792540192604064941e-01
7.584000000000000000e+03 5.267358398437500000e+01 1.000331306457519531e+01 1.156991943717002869e-01 4.251173138618469238e-01 1.622449457645416260e-01 -4.363751038908958435e-02
7.585000000000000000e+03 5.543091583251953125e+01 1.643888473510742188e+01 -2.831817045807838440e-02 4.111372530460357666e-01 1.148457229137420654e-01 -2.681232690811157227e-01
7.586000000000000000e+03 5.096514892578125000e+01 7.228526115417480469e+00 1.332375556230545044e-01 3.317895829677581787e-01 1.395081430673599243e-01 6.667171692242845893e-05
7.587000000000000000e+03 4.616432952880859375e+01 5.215169429779052734e+00 2.123921550810337067e-02 -9.166354686021804810e-02 -2.112729847431182861e-02 -8.333761245012283325e-02
7.588000000000000000e+03 4.716255187988281250e+01 6.800163269042968750e+00 -1.370837539434432983e-02 -5.390316247940063477e-02 -2.028346247971057892e-02 -1.240386366844177246e-01
7.589000000000000000e+03 4.963045883178710938e+01 1.128073120117187500e+01 -1.001872718334197998e-01 6.048191804438829422e-03 -2.824172377586364746e-02 -2.600708901882171631e-01
7.590000000000000000e+03 4.885828399658203125e+01 1.125090408325195312e+01 -1.442227512598037720e-01 -7.721375674009323120e-02 -6.643094867467880249e-02 -2.965389788150787354e-01
7.591000000000000000e+03 4.980108261108398438e+01 8.559014320373535156e+00 2.968289144337177277e-02 1.471003592014312744e-01 5.303497239947319031e-02 -1.062053442001342773e-01
7.592000000000000000e+03 5.134851455688476562e+01 1.084504508972167969e+01 1.604378223419189453e-02 2.170082926750183105e-01 6.991562247276306152e-02 -1.511963903903961182e-01
7.593000000000000000e+03 5.477133178710937500e+01 1.712913322448730469e+01 -1.294822245836257935e-01 2.883390188217163086e-01 4.765704274177551270e-02 -3.555978238582611084e-01
7.594000000000000000e+03 5.358171081542968750e+01 1.489742660522460938e+01 -6.488699465990066528e-02 2.724215388298034668e-01 6.226036697626113892e-02 -2.679789960384368896e-01
7.595000000000000000e+03 5.355281448364257812e+01 1.669488334655761719e+01 -1.781215369701385498e-01 1.751186847686767578e-01 -9.008550550788640976e-04 -3.840591907501220703e-01
7.596000000000000000e+03 5.321168136596679688e+01 1.627574729919433594e+01 -1.776182651519775391e-01 1.509396582841873169e-01 -8.003583177924156189e-03 -3.782584965229034424e-01
7.597000000000000000e+03 5.466758728027343750e+01 1.217799282073974609e+01 1.304846554994583130e-01 5.610191822052001953e-01 2.074511498212814331e-01 -4.942559450864791870e-02
7.598000000000000000e+03 5.084294128417968750e+01 6.277466297149658203e+00 1.699027717113494873e-01 3.619084954261779785e-01 1.595433801412582397e-01 3.794202581048011780e-02
7.599000000000000000e+03 4.680988311767578125e+01 4.863988399505615234e+00 5.722133815288543701e-02 -1.991854049265384674e-02 1.119083911180496216e-02 -4.603548347949981689e-02
7.600000000000000000e+03 5.244312286376953125e+01 1.201404571533203125e+01 1.982935890555381775e-02 2.871440052986145020e-01 9.209200739860534668e-02 -1.596659421920776367e-01
7.601000000000000000e+03 5.374051666259765625e+01 1.257955646514892578e+01 6.530065834522247314e-02 4.203002154827117920e-01 1.456802636384963989e-01 -1.213294863700866699e-01
7.602000000000000000e+03 4.786385726928710938e+01 5.191885948181152344e+00 8.864818513393402100e-02 7.927197962999343872e-02 5.037605017423629761e-02 -2.556828036904335022e-02
7.603000000000000000e+03 5.313374328613281250e+01 1.712928009033203125e+01 -2.300806641578674316e-01 1.033762022852897644e-01 -3.801133856177330017e-02 -4.317755699157714844e-01
7.604000000000000000e+03 4.747539901733398438e+01 8.841621398925781250e+00 -1.012059524655342102e-01 -1.053234487771987915e-01 -6.195881962776184082e-02 -2.219940572977066040e-01
7.605000000000000000e+03 5.330179214477539062e+01 1.022992897033691406e+01 1.367953419685363770e-01 4.923990666866302490e-01 1.887583136558532715e-01 -2.148731797933578491e-02
7.606000000000000000e+03 4.789382934570312500e+01 3.463747978210449219e+00 1.710444688796997070e-01 1.314432471990585327e-01 9.074632078409194946e-02 3.845133259892463684e-02
7.607000000000000000e+03 5.101105499267578125e+01 4.743389129638671875e+00 2.233297824859619141e-01 4.461805522441864014e-01 2.008530944585800171e-01 9.973435103893280029e-02
7.608000000000000000e+03 5.263761520385742188e+01 1.442976188659667969e+01 -9.391472488641738892e-02 1.903745085000991821e-01 2.893793396651744843e-02 -2.869988977909088135e-01
7.609000000000000000e+03 5.178860855102539062e+01 1.174880027770996094e+01 -3.388528479263186455e-03 2.252108752727508545e-01 6.654670089483261108e-02 -1.789238750934600830e-01
7.610000000000000000e+03 5.271845245361328125e+01 1.142543506622314453e+01 6.053809821605682373e-02 3.525898754596710205e-01 1.239383965730667114e-01 -1.149412021040916443e-01
7.611000000000000000e+03 5.091542053222656250e+01 1.214898204803466797e+01 -7.145956903696060181e-02 1.063496172428131104e-01 1.046701427549123764e-02 -2.444769889116287231e-01
7.612000000000000000e+03 5.038732147216796875e+01 1.135569000244140625e+01 -6.225280836224555969e-02 8.550871908664703369e-02 6.976773496717214584e-03 -2.263756543397903442e-01
7.613000000000000000e+03 4.695954895019531250e+01 9.399399757385253906e+00 -1.578841358423233032e-01 -1.725060194730758667e-01 -9.911704808473587036e-02 -2.717168927192687988e-01
7.614000000000000000e+03 4.900016403198242188e+01 9.868441581726074219e+00 -6.466404348611831665e-02 9.490318596363067627e-03 -1.655211672186851501e-02 -2.083270400762557983e-01
7.615000000000000000e+03 5.000170516967773438e+01 7.170605182647705078e+00 1.007808670401573181e-01 2.339024841785430908e-01 1.004050076007843018e-01 -3.610359132289886475e-02
7.616000000000000000e+03 5.244158554077148438e+01 8.090684890747070312e+00 1.704041063785552979e-01 4.830481708049774170e-01 1.960356831550598145e-01 2.868994511663913727e-02
7.617000000000000000e+03 4.892428207397460938e+01 4.006904602050781250e+00 1.845394223928451538e-01 2.275413125753402710e-01 1.236242204904556274e-01 5.368942022323608398e-02
7.618000000000000000e+03 5.001852416992187500e+01 3.519622802734375000e+00 2.300010025501251221e-01 3.590277433395385742e-01 1.767086237668991089e-01 1.023970916867256165e-01
7.619000000000000000e+03 4.657396316528320312e+01 5.847987174987792969e+00 3.166362876072525978e-03 -7.602821290493011475e-02 -2.185855619609355927e-02 -9.930286556482315063e-02
7.620000000000000000e+03 4.727276229858398438e+01 7.829311847686767578e+00 -5.997974053025245667e-02 -8.450493961572647095e-02 -4.334540665149688721e-02 -1.745341718196868896e-01
7.621000000000000000e+03 4.817281723022460938e+01 9.838041305541992188e+00 -1.135184243321418762e-01 -8.185958117246627808e-02 -5.861340090632438660e-02 -2.436816841363906860e-01
7.622000000000000000e+03 5.407718276977539062e+01 1.642637634277343750e+01 -1.237262487411499023e-01 2.508837282657623291e-01 3.814724087715148926e-02 -3.404403924942016602e-01
7.623000000000000000e+03 5.300717926025390625e+01 1.083190155029296875e+01 9.910956770181655884e-02 4.220964014530181885e-01 1.563617885112762451e-01 -6.984069943428039551e-02
7.624000000000000000e+03 5.400458908081054688e+01 1.194333839416503906e+01 1.058650016784667969e-01 4.890181124210357666e-01 1.784649342298507690e-01 -7.303961366415023804e-02
7.625000000000000000e+03 5.413502883911132812e+01 1.352732181549072266e+01 4.567161202430725098e-02 4.190439283847808838e-01 1.394146680831909180e-01 -1.539637446403503418e-01
7.626000000000000000e+03 5.310040283203125000e+01 1.387590312957763672e+01 -3.459921479225158691e-02 2.676467001438140869e-01 6.991424411535263062e-02 -2.320821881294250488e-01
7.627000000000000000e+03 4.833472061157226562e+01 5.795208454132080078e+00 8.844953775405883789e-02 1.070486381649971008e-01 5.864945426583290100e-02 -3.417945653200149536e-02
7.628000000000000000e+03 4.996212005615234375e+01 5.902877330780029297e+00 1.527767479419708252e-01 2.801828682422637939e-01 1.298878937959671021e-01 1.862905733287334442e-02
7.629000000000000000e+03 4.973918914794921875e+01 1.058197307586669922e+01 -6.175176054239273071e-02 5.019387230277061462e-02 -3.467366565018892288e-03 -2.131310254335403442e-01
7.630000000000000000e+03 4.843732452392578125e+01 4.846744060516357422e+00 1.267646998167037964e-01 1.442059725522994995e-01 8.129119873046875000e-02 4.041747190058231354e-03
7.631000000000000000e+03 5.234035491943359375e+01 9.211489677429199219e+00 1.271386742591857910e-01 4.182741045951843262e-01 1.636238396167755127e-01 -2.659989707171916962e-02
7.632000000000000000e+03 5.140391921997070312e+01 9.741892814636230469e+00 6.435782462358474731e-02 2.720045745372772217e-01 1.009087264537811279e-01 -9.378380328416824341e-02
7.633000000000000000e+03 4.940022277832031250e+01 6.140053272247314453e+00 1.139789372682571411e-01 1.982422173023223877e-01 9.366634488105773926e-02 -1.451918762177228928e-02
7.634000000000000000e+03 5.328341674804687500e+01 1.541506195068359375e+01 -1.045937091112136841e-01 2.116747945547103882e-01 3.212432563304901123e-02 -3.131161332130432129e-01
7.635000000000000000e+03 5.381253051757812500e+01 1.422798824310302734e+01 -8.116505108773708344e-03 3.362163305282592773e-01 9.842994809150695801e-02 -2.151961773633956909e-01
7.636000000000000000e+03 5.455366897583007812e+01 1.451901054382324219e+01 2.606626227498054504e-02 4.175850152969360352e-01 1.330953836441040039e-01 -1.892503798007965088e-01
7.637000000000000000e+03 5.172817611694335938e+01 1.026753330230712891e+01 5.498471483588218689e-02 2.833462953567504883e-01 1.014993041753768921e-01 -1.079003587365150452e-01
7.638000000000000000e+03 5.476798248291015625e+01 1.639556121826171875e+01 -7.650453597307205200e-02 3.332069218158721924e-01 7.701071351766586304e-02 -3.043095767498016357e-01
7.639000000000000000e+03 4.843738174438476562e+01 8.525083541870117188e+00 -3.506918624043464661e-02 3.577101975679397583e-03 -9.447625838220119476e-03 -1.640860289335250854e-01
7.640000000000000000e+03 4.782769775390625000e+01 8.236585617065429688e+00 -4.979543387889862061e-02 -4.074924811720848083e-02 -2.716340497136116028e-02 -1.717700958251953125e-01
7.641000000000000000e+03 4.823085021972656250e+01 9.145283699035644531e+00 -7.571546733379364014e-02 -4.487188532948493958e-02 -3.617620468139648438e-02 -2.062195539474487305e-01
7.642000000000000000e+03 4.980549621582031250e+01 9.886425018310546875e+00 -2.545162662863731384e-02 8.705037087202072144e-02 1.847962290048599243e-02 -1.737202256917953491e-01
7.643000000000000000e+03 4.722116470336914062e+01 5.580053806304931641e+00 4.775830358266830444e-02 -2.366972854360938072e-03 1.361739914864301682e-02 -6.771939247846603394e-02
7.644000000000000000e+03 5.126340866088867188e+01 8.309969902038574219e+00 1.079970076680183411e-01 3.234457671642303467e-01 1.294328272342681885e-01 -3.316914662718772888e-02
7.645000000000000000e+03 5.236497879028320312e+01 1.057450771331787109e+01 7.374388724565505981e-02 3.505967259407043457e-01 1.273021847009658813e-01 -9.092164039611816406e-02
7.646000000000000000e+03 4.886166763305664062e+01 5.309673309326171875e+00 1.205289587378501892e-01 1.759741008281707764e-01 8.895091712474822998e-02 3.737058490514755249e-03
7.647000000000000000e+03 5.205916595458984375e+01 9.748535156250000000e+00 1.002996191382408142e-01 3.617568314075469971e-01 1.386169344186782837e-01 -6.160851195454597473e-02
7.648000000000000000e+03 4.968883895874023438e+01 7.972800731658935547e+00 5.158525705337524414e-02 1.567642986774444580e-01 6.250486522912979126e-02 -8.575308322906494141e-02
7.649000000000000000e+03 5.054036712646484375e+01 8.388757705688476562e+00 7.670033723115921021e-02 2.393990457057952881e-01 9.482981264591217041e-02 -6.368475407361984253e-02
7.650000000000000000e+03 4.818470001220703125e+01 7.709613323211669922e+00 -6.403748877346515656e-03 1.264684740453958511e-02 1.872929395176470280e-03 -1.329240202903747559e-01
7.651000000000000000e+03 4.819605255126953125e+01 6.793244838714599609e+00 3.535662218928337097e-02 5.052409693598747253e-02 2.576421573758125305e-02 -8.673199266195297241e-02
7.652000000000000000e+03 4.945162963867187500e+01 5.595587730407714844e+00 1.357524842023849487e-01 2.230295389890670776e-01 1.076346039772033691e-01 1.187254674732685089e-02
7.653000000000000000e+03 4.673308563232421875e+01 7.398608207702636719e+00 -6.912143528461456299e-02 -1.200054660439491272e-01 -5.673807114362716675e-02 -1.733838915824890137e-01
7.654000000000000000e+03 4.770093536376953125e+01 7.283483505249023438e+00 -8.914149366319179535e-03 -1.596245355904102325e-02 -7.462980691343545914e-03 -1.277860403060913086e-01
7.655000000000000000e+03 5.058426284790039062e+01 9.135255813598632812e+00 4.922382906079292297e-02 2.091348767280578613e-01 7.750760763883590698e-02 -9.981404244899749756e-02
7.656000000000000000e+03 5.055997085571289062e+01 1.063876914978027344e+01 -1.696741953492164612e-02 1.404798924922943115e-01 3.705374523997306824e-02 -1.784815937280654907e-01
7.657000000000000000e+03 4.968048477172851562e+01 6.662092208862304688e+00 1.001482233405113220e-01 2.110543102025985718e-01 9.336075931787490845e-02 -2.738277800381183624e-02
7.658000000000000000e+03 4.877850341796875000e+01 6.376990318298339844e+00 7.706751674413681030e-02 1.275807023048400879e-01 6.139446422457695007e-02 -4.242953285574913025e-02
7.659000000000000000e+03 4.896286773681640625e+01 7.689840793609619141e+00 3.345603495836257935e-02 9.450855106115341187e-02 3.838937729597091675e-02 -1.004202440381050110e-01
7.660000000000000000e+03 5.034672546386718750e+01 7.715602397918701172e+00 9.022063016891479492e-02 2.487217038869857788e-01 1.016827002167701721e-01 -4.156133905053138733e-02
7.661000000000000000e+03 5.131908035278320312e+01 9.038364410400390625e+00 8.395802974700927734e-02 2.930874824523925781e-01 1.131136566400527954e-01 -6.478607654571533203e-02
7.662000000000000000e+03 4.982406997680664062e+01 9.207902908325195312e+00 1.050434075295925140e-02 1.245877966284751892e-01 4.052764177322387695e-02 -1.374826431274414062e-01
7.663000000000000000e+03 5.062972640991210938e+01 9.880747795104980469e+00 1.921263337135314941e-02 1.817754507064819336e-01 6.029642745852470398e-02 -1.356267929077148438e-01
7.664000000000000000e+03 4.861642456054687500e+01 7.277092456817626953e+00 3.724722191691398621e-02 7.788082212209701538e-02 3.453841432929039001e-02 -9.116364270448684692e-02
7.665000000000000000e+03 4.912215423583984375e+01 8.110051155090332031e+00 1.895210891962051392e-02 9.239150583744049072e-02 3.340308368206024170e-02 -1.133763566613197327e-01
7.666000000000000000e+03 4.863973617553710938e+01 8.026937484741210938e+00 2.252213191241025925e-03 4.630763828754425049e-02 1.456795539706945419e-02 -1.290276348590850830e-01
7.667000000000000000e+03 4.910469436645507812e+01 8.624151229858398438e+00 -4.478066693991422653e-03 6.879378110170364380e-02 1.929471455514431000e-02 -1.384764015674591064e-01
7.668000000000000000e+03 4.912895965576171875e+01 6.940797328948974609e+00 7.496403157711029053e-02 1.417037397623062134e-01 6.500033289194107056e-02 -5.833182111382484436e-02
7.669000000000000000e+03 2.233694076538085938e+01 3.178104782104492188e+01 1.164439320564270020e-02 1.020887494087219238e-01 3.411994129419326782e-02 4.287068173289299011e-02
7.670000000000000000e+03 6.055265426635742188e+01 -2.688194084167480469e+01 7.280758768320083618e-02 2.329777240753173828e+00 7.207754254341125488e-01 2.160742580890655518e-01
7.671000000000000000e+03 1.397715377807617188e+01 3.445526885986328125e+01 -7.787590846419334412e-03 1.735819689929485321e-02 2.871181815862655640e-03 3.094047540798783302e-03
7.672000000000000000e+03 1.576441287994384766e+01 3.333507537841796875e+01 -7.008017972111701965e-03 3.958963602781295776e-02 9.774485602974891663e-03 1.154959201812744141e-02
7.673000000000000000e+03 2.572049140930175781e+01 -3.535782241821289062e+01 4.030384719371795654e-01 2.356547415256500244e-01 1.916079521179199219e-01 -2.323185950517654419e-01
7.674000000000000000e+03 2.467675399780273438e+01 3.618793869018554688e+01 2.070992253720760345e-02 9.884907305240631104e-02 3.586769849061965942e-02 2.937931939959526062e-02
7.675000000000000000e+03 6.774475097656250000e+01 -3.047465324401855469e+01 5.868015065789222717e-02 3.329073905944824219e+00 1.016326189041137695e+00 1.536576896905899048e-01
7.676000000000000000e+03 7.237954711914062500e+01 -3.854015731811523438e+01 4.194762557744979858e-02 3.865450620651245117e+00 1.172219514846801758e+00 4.299285635352134705e-02
7.677000000000000000e+03 8.078686714172363281e+00 4.076240158081054688e+01 -6.578633561730384827e-03 -7.555157691240310669e-02 -2.463906258344650269e-02 -1.529875211417675018e-03
7.678000000000000000e+03 8.900158882141113281e+00 3.427901077270507812e+01 -7.820177823305130005e-03 -6.253728270530700684e-02 -2.110723778605461121e-02 -9.237038902938365936e-03
7.679000000000000000e+03 6.919042110443115234e+00 -3.844819259643554688e+01 4.698764905333518982e-02 -9.519051909446716309e-01 -2.714752554893493652e-01 -5.191024392843246460e-02
7.680000000000000000e+03 5.465800857543945312e+01 -2.535699653625488281e+01 2.978762611746788025e-02 1.541862607002258301e+00 4.714950919151306152e-01 1.978365033864974976e-01
7.681000000000000000e+03 1.496752643585205078e+01 -3.015616035461425781e+01 1.568307876586914062e-01 -4.093612134456634521e-01 -7.575912773609161377e-02 -2.138751894235610962e-01
7.682000000000000000e+03 1.658324050903320312e+01 -3.167198944091796875e+01 1.898682564496994019e-01 -2.804062068462371826e-01 -2.716138400137424469e-02 -2.007150053977966309e-01
7.683000000000000000e+03 6.047443008422851562e+01 -3.112487220764160156e+01 9.935174137353897095e-02 2.305133104324340820e+00 7.213454246520996094e-01 2.279371470212936401e-01
7.684000000000000000e+03 2.314944267272949219e+01 3.385057067871093750e+01 1.256392430514097214e-02 9.871002286672592163e-02 3.338218480348587036e-02 3.678507357835769653e-02
7.685000000000000000e+03 5.718073272705078125e+01 -2.395111274719238281e+01 6.209190189838409424e-02 1.869211912155151367e+00 5.793911814689636230e-01 2.023937106132507324e-01
7.686000000000000000e+03 1.206386756896972656e+01 -3.437115859985351562e+01 1.307119578123092651e-01 -5.757282972335815430e-01 -1.335048973560333252e-01 -1.394965201616287231e-01
7.687000000000000000e+03 6.480795288085937500e+01 -2.904147148132324219e+01 6.547624617815017700e-02 2.915998935699462891e+00 8.944425582885742188e-01 1.753516346216201782e-01
7.688000000000000000e+03 6.826396942138671875e+01 4.135799026489257812e+01 1.554631948471069336e+00 -2.102901488542556763e-01 4.033025503158569336e-01 2.883187532424926758e-01
7.689000000000000000e+03 5.328834915161132812e+01 -4.045651245117187500e+01 6.177197694778442383e-01 1.116848826408386230e+00 5.203706026077270508e-01 1.267941147089004517e-01
7.690000000000000000e+03 5.106449508666992188e+01 -3.643036270141601562e+01 3.578667342662811279e-01 9.892525076866149902e-01 4.041357636451721191e-01 3.979684412479400635e-01
7.691000000000000000e+03 1.557210540771484375e+01 -3.667387771606445312e+01 1.891825646162033081e-01 -3.658558130264282227e-01 -5.300197377800941467e-02 -1.217716410756111145e-01
7.692000000000000000e+03 2.784339332580566406e+01 -3.849547958374023438e+01 5.235463380813598633e-01 2.663820683956146240e-01 2.369785159826278687e-01 -1.788474321365356445e-01
7.693000000000000000e+03 2.761598968505859375e+01 -4.115053176879882812e+01 5.268646478652954102e-01 2.420559078454971313e-01 2.306761741638183594e-01 -4.115725681185722351e-02
7.694000000000000000e+03 6.486843109130859375e+01 -3.682350158691406250e+01 1.442468464374542236e-01 2.828555583953857422e+00 8.918407559394836426e-01 1.083014532923698425e-01
7.695000000000000000e+03 2.082864189147949219e+01 3.457538986206054688e+01 4.018903709948062897e-03 8.320330083370208740e-02 2.616666257381439209e-02 2.674058638513088226e-02
7.696000000000000000e+03 8.207583427429199219e+00 3.768711090087890625e+01 -7.111229002475738525e-03 -7.123379409313201904e-02 -2.350350655615329742e-02 -5.704910028725862503e-03
7.697000000000000000e+03 1.356858825683593750e+01 3.728981781005859375e+01 -8.917205035686492920e-03 2.411674475297331810e-03 -1.951659214682877064e-03 1.440485706552863121e-03
7.698000000000000000e+03 6.245379257202148438e+01 -2.851966667175292969e+01 7.612904161214828491e-02 2.600718736648559570e+00 8.030543327331542969e-01 1.884721219539642334e-01
7.699000000000000000e+03 6.723606872558593750e+01 -3.404844665527343750e+01 6.586791574954986572e-02 3.196516036987304688e+00 9.787151813507080078e-01 1.328861415386199951e-01
7.700000000000000000e+03 2.036056518554687500e+01 -3.447590255737304688e+01 2.741446793079376221e-01 -4.403695091605186462e-02 6.903231889009475708e-02 -1.877532452344894409e-01
7.701000000000000000e+03 5.749826049804687500e+01 -3.281085968017578125e+01 1.314488500356674194e-01 1.915768504142761230e+00 6.141651868820190430e-01 2.691905498504638672e-01
7.702000000000000000e+03 6.220650482177734375e+01 -3.418661499023437500e+01 1.376265287399291992e-01 2.514804124832153320e+00 7.957292199134826660e-01 1.633599251508712769e-01
7.703000000000000000e+03 1.457598876953125000e+01 -3.361694335937500000e+01 1.596374660730361938e-01 -4.279003143310546875e-01 -8.047885447740554810e-02 -1.662754714488983154e-01
7.704000000000000000e+03 5.886497497558593750e+01 -2.876467514038085938e+01 5.814873427152633667e-02 2.111976385116577148e+00 6.510375142097473145e-01 2.443626374006271362e-01
7.705000000000000000e+03 5.763968276977539062e+01 -2.687740516662597656e+01 4.242092370986938477e-02 1.945611119270324707e+00 5.964096188545227051e-01 2.262708246707916260e-01
7.706000000000000000e+03 5.665292739868164062e+01 -3.003195381164550781e+01 5.426181852817535400e-02 1.829419851303100586e+00 5.651045441627502441e-01 2.520385682582855225e-01
7.707000000000000000e+03 1.177248001098632812e+01 3.386817550659179688e+01 -7.785319350659847260e-03 -1.041679363697767258e-02 -5.460633896291255951e-03 1.640016562305390835e-04
7.708000000000000000e+03 5.061093139648437500e+01 3.791054916381835938e+01 2.466721087694168091e-01 5.182736366987228394e-02 8.954983949661254883e-02 1.145303994417190552e-01
7.709000000000000000e+03 4.719626235961914062e+01 3.649979400634765625e+01 1.772849112749099731e-01 8.704376965761184692e-02 7.929860055446624756e-02 1.201631575822830200e-01
7.710000000000000000e+03 4.689130783081054688e+01 3.626211166381835938e+01 1.619571447372436523e-01 8.062158524990081787e-02 7.277362048625946045e-02 1.147317811846733093e-01
7.711000000000000000e+03 4.487212371826171875e+01 3.511403274536132812e+01 1.291839331388473511e-01 7.081895321607589722e-02 6.000086665153503418e-02 9.299723803997039795e-02
7.712000000000000000e+03 4.068189620971679688e+01 3.173338127136230469e+01 1.019679680466651917e-01 8.576463907957077026e-02 5.631978064775466919e-02 9.243085980415344238e-02
7.713000000000000000e+03 1.310501289367675781e+01 2.198930025100708008e+00 1.456819653511047363e+00 1.528807878494262695e+00 8.956882953643798828e-01 -8.393655419349670410e-01
7.714000000000000000e+03 1.769196510314941406e+01 -1.582479596138000488e+00 -1.801724553108215332e+00 -1.116010427474975586e+00 -8.753204941749572754e-01 -1.080000996589660645e+00
7.715000000000000000e+03 1.903428077697753906e+01 -6.365976929664611816e-01 -2.055794000625610352e+00 -2.150055170059204102e+00 -1.261754751205444336e+00 -1.674975872039794922e+00
7.716000000000000000e+03 1.918045043945312500e+01 -5.517690777778625488e-01 -2.264843225479125977e+00 -3.630063295364379883e+00 -1.768471956253051758e+00 -1.492978811264038086e+00
7.717000000000000000e+03 1.938893508911132812e+01 -7.286559343338012695e-01 -2.647029638290405273e+00 -4.163198471069335938e+00 -2.043068408966064453e+00 -2.117136478424072266e+00
7.718000000000000000e+03 2.050368499755859375e+01 1.809158772230148315e-01 -1.638360381126403809e+00 -2.599358797073364258e+00 -1.271315693855285645e+00 -3.378480911254882812e+00
7.719000000000000000e+03 2.079724884033203125e+01 1.717443317174911499e-01 -1.866966247558593750e+00 -2.001044511795043945e+00 -1.160403251647949219e+00 -3.634437322616577148e+00
7.720000000000000000e+03 2.061975479125976562e+01 3.094207346439361572e-01 -1.371477842330932617e+00 -2.199349641799926758e+00 -1.071248292922973633e+00 -3.285836458206176758e+00
7.721000000000000000e+03 2.075834274291992188e+01 4.215570986270904541e-01 -1.549904108047485352e+00 -2.407057046890258789e+00 -1.187088370323181152e+00 -3.320695638656616211e+00
7.722000000000000000e+03 2.124400329589843750e+01 7.086294889450073242e-01 -2.146839857101440430e+00 -5.657787919044494629e-01 -8.137855529785156250e-01 -2.915074586868286133e+00
7.723000000000000000e+03 2.141467857360839844e+01 8.104228377342224121e-01 -2.138002157211303711e+00 -8.622140288352966309e-01 -9.000648260116577148e-01 -2.506867408752441406e+00
7.724000000000000000e+03 2.159340095520019531e+01 8.998749852180480957e-01 -2.244484186172485352e+00 -5.414555668830871582e-01 -8.357819318771362305e-01 -2.501461505889892578e+00
7.725000000000000000e+03 2.263462257385253906e+01 1.481494426727294922e+00 -2.720017910003662109e+00 -4.344254434108734131e-01 -9.463329911231994629e-01 -1.703662037849426270e+00
7.726000000000000000e+03 2.283345985412597656e+01 1.556129693984985352e+00 -2.794872283935546875e+00 -5.401666164398193359e-01 -1.000511646270751953e+00 -1.633053183555603027e+00
7.727000000000000000e+03 2.352166366577148438e+01 2.087285757064819336e+00 -3.068328619003295898e+00 -5.452988743782043457e-01 -1.084088206291198730e+00 -1.466843247413635254e+00
7.728000000000000000e+03 2.366108322143554688e+01 2.210387468338012695e+00 -3.034199237823486328e+00 -5.791658759117126465e-01 -1.084009528160095215e+00 -1.474115610122680664e+00
7.729000000000000000e+03 2.426925086975097656e+01 2.261210441589355469e+00 -2.800969839096069336e+00 -4.211403131484985352e-01 -9.666330218315124512e-01 -1.224940299987792969e+00
7.730000000000000000e+03 2.415814018249511719e+01 2.486086606979370117e+00 -3.040525197982788086e+00 -6.233484745025634766e-01 -1.099162101745605469e+00 -1.408658027648925781e+00
7.731000000000000000e+03 2.444280815124511719e+01 2.387960672378540039e+00 -2.838971376419067383e+00 -5.329289436340332031e-01 -1.011570096015930176e+00 -1.239771604537963867e+00
7.732000000000000000e+03 2.606340599060058594e+01 3.633266448974609375e+00 -2.716951370239257812e+00 -7.483943700790405273e-01 -1.039603710174560547e+00 -1.309763193130493164e+00
7.733000000000000000e+03 2.664428901672363281e+01 3.512131214141845703e+00 -2.464322328567504883e+00 -7.579250335693359375e-01 -9.666742086410522461e-01 -1.123530745506286621e+00
7.734000000000000000e+03 2.683604240417480469e+01 3.673847913742065430e+00 -2.437212944030761719e+00 -7.933813929557800293e-01 -9.691783189773559570e-01 -1.143272876739501953e+00
7.735000000000000000e+03 2.714016342163085938e+01 3.995681285858154297e+00 -2.440589666366577148e+00 -8.770471215248107910e-01 -9.952910542488098145e-01 -1.205643534660339355e+00
7.736000000000000000e+03 2.726668167114257812e+01 4.140268802642822266e+00 -2.429632186889648438e+00 -9.253507852554321289e-01 -1.006494879722595215e+00 -1.221751570701599121e+00
7.737000000000000000e+03 2.725528717041015625e+01 4.420240879058837891e+00 -2.514061450958251953e+00 -1.004878163337707520e+00 -1.055681824684143066e+00 -1.343521356582641602e+00
7.738000000000000000e+03 2.741758155822753906e+01 4.244218349456787109e+00 -2.377871990203857422e+00 -9.606115221977233887e-01 -1.001545071601867676e+00 -1.225669622421264648e+00
7.739000000000000000e+03 2.768600082397460938e+01 4.468147754669189453e+00 -2.353295564651489258e+00 -1.060562133789062500e+00 -1.024157285690307617e+00 -1.248044490814208984e+00
7.740000000000000000e+03 2.757419013977050781e+01 4.634758949279785156e+00 -2.452787637710571289e+00 -1.082192301750183105e+00 -1.060493946075439453e+00 -1.344318628311157227e+00
7.741000000000000000e+03 2.878764152526855469e+01 5.370184898376464844e+00 -2.143268346786499023e+00 -1.301843881607055664e+00 -1.033533692359924316e+00 -1.191686034202575684e+00
7.742000000000000000e+03 2.893898773193359375e+01 5.460968017578125000e+00 -2.140566110610961914e+00 -1.292735099792480469e+00 -1.029990315437316895e+00 -1.159612178802490234e+00
7.743000000000000000e+03 2.984912681579589844e+01 5.463158607482910156e+00 -1.875794529914855957e+00 -9.824071526527404785e-01 -8.574604988098144531e-01 -1.005481123924255371e+00
7.744000000000000000e+03 2.868178939819335938e+01 9.046723365783691406e+00 -2.449586391448974609e+00 -1.221243262290954590e+00 -1.101248860359191895e+00 -1.659029722213745117e+00
7.745000000000000000e+03 2.742436790466308594e+01 8.270503997802734375e+00 -4.208558082580566406e+00 -2.147929668426513672e+00 -1.906946420669555664e+00 -3.190624713897705078e+00
7.746000000000000000e+03 2.710642814636230469e+01 8.175982475280761719e+00 -4.829003334045410156e+00 -3.259730815887451172e+00 -2.426620244979858398e+00 -4.008124828338623047e+00
7.747000000000000000e+03 2.596082496643066406e+01 7.297811985015869141e+00 -6.999258995056152344e+00 -3.594920873641967773e+00 -3.178253889083862305e+00 -4.335798740386962891e+00
7.748000000000000000e+03 7.404624176025390625e+01 3.233289337158203125e+01 -2.005289554595947266e+00 1.466556787490844727e+00 -1.616198122501373291e-01 1.994174361228942871e+00
7.749000000000000000e+03 7.441841888427734375e+01 3.230289840698242188e+01 -1.581739902496337891e+00 2.451301574707031250e+00 2.608685195446014404e-01 2.617517948150634766e+00
7.750000000000000000e+03 7.650534820556640625e+01 3.227649307250976562e+01 -3.007872343063354492e+00 1.791192245483398438e+01 4.471214771270751953e+00 4.612564563751220703e+00
7.751000000000000000e+03 7.745629119873046875e+01 3.267905426025390625e+01 -1.466919541358947754e+00 2.222443771362304688e+01 6.227255344390869141e+00 -2.323231697082519531e+00
7.752000000000000000e+03 7.815623474121093750e+01 3.396805953979492188e+01 5.202445983886718750e+00 1.666719436645507812e+01 6.560892105102539062e+00 -1.001781344413757324e+00
7.753000000000000000e+03 7.809478759765625000e+01 3.436635208129882812e+01 5.820694446563720703e+00 1.782436943054199219e+01 7.093519210815429688e+00 2.183777570724487305e+00
7.754000000000000000e+03 7.555620574951171875e+01 3.574169158935546875e+01 5.618950128555297852e-01 8.659977912902832031e+00 2.766561985015869141e+00 -5.788692474365234375e+00
7.755000000000000000e+03 7.398405456542968750e+01 3.569080734252929688e+01 -2.090612798929214478e-01 1.594938397407531738e+00 4.157631397247314453e-01 -1.491383433341979980e+00
7.756000000000000000e+03 7.375094604492187500e+01 3.565762329101562500e+01 -5.342479348182678223e-01 1.457481861114501953e+00 2.769702076911926270e-01 -1.119462370872497559e+00
7.757000000000000000e+03 7.316638946533203125e+01 3.559770965576171875e+01 -1.208369612693786621e+00 5.986453294754028320e-01 -1.829172819852828979e-01 -3.057435750961303711e-01
7.758000000000000000e+03 7.268951416015625000e+01 3.565764617919921875e+01 -1.327014088630676270e+00 5.308775305747985840e-01 -2.388409525156021118e-01 5.232074484229087830e-02
7.759000000000000000e+03 7.303932189941406250e+01 3.635355758666992188e+01 4.501230269670486450e-02 1.499604701995849609e+00 4.633851051330566406e-01 -5.123401880264282227e-01
7.760000000000000000e+03 6.930895996093750000e+01 3.596062850952148438e+01 -1.268821120262145996e+00 6.813856959342956543e-02 -3.602047860622406006e-01 7.684091925621032715e-01
7.761000000000000000e+03 6.652388763427734375e+01 3.585198593139648438e+01 -8.399514555931091309e-01 -1.368474662303924561e-01 -2.930396795272827148e-01 5.911321043968200684e-01
7.762000000000000000e+03 6.583007812500000000e+01 3.598344802856445312e+01 -6.874490976333618164e-01 -1.367595046758651733e-01 -2.472625821828842163e-01 6.037650108337402344e-01
7.763000000000000000e+03 6.279477310180664062e+01 3.633067321777343750e+01 -2.138726413249969482e-01 -1.312263309955596924e-01 -1.035296916961669922e-01 3.214979469776153564e-01
7.764000000000000000e+03 6.015606307983398438e+01 3.724523544311523438e+01 9.296521544456481934e-02 -1.319894790649414062e-01 -1.170728169381618500e-02 1.734191030263900757e-01
7.765000000000000000e+03 6.048619461059570312e+01 3.640953063964843750e+01 -6.740716844797134399e-02 -8.865112811326980591e-02 -4.681748896837234497e-02 1.747112870216369629e-01
7.766000000000000000e+03 5.365454101562500000e+01 3.858920288085937500e+01 3.712648153305053711e-01 9.419813007116317749e-02 1.396388858556747437e-01 -1.264000236988067627e-01
7.767000000000000000e+03 5.427888107299804688e+01 3.792188262939453125e+01 1.341823786497116089e-01 4.349705204367637634e-02 5.330383032560348511e-02 -9.942263364791870117e-02
7.768000000000000000e+03 1.501752185821533203e+01 9.276009798049926758e-01 1.072009944915771484e+01 1.727280139923095703e+00 3.734213829040527344e+00 -4.072492599487304688e+00
7.769000000000000000e+03 4.606148529052734375e+01 -4.006134796142578125e+01 1.248404026031494141e+00 3.881771862506866455e-01 4.909743666648864746e-01 3.529077172279357910e-01
7.770000000000000000e+03 1.865320777893066406e+01 -1.340146899223327637e+00 -1.950528621673583984e+00 -2.560814619064331055e+00 -1.353402972221374512e+00 -1.796414136886596680e+00
7.771000000000000000e+03 1.979175949096679688e+01 -9.205048680305480957e-01 -3.655054807662963867e+00 -4.808373451232910156e+00 -2.539028406143188477e+00 -3.404193639755249023e+00
7.772000000000000000e+03 4.463920974731445312e+01 -4.105720901489257812e+01 1.562514662742614746e+00 5.434055328369140625e-01 6.317760348320007324e-01 7.462099939584732056e-02
7.773000000000000000e+03 4.584806442260742188e+01 -3.810075378417968750e+01 9.249035716056823730e-01 2.615457475185394287e-01 3.559347987174987793e-01 5.478111505508422852e-01
7.774000000000000000e+03 2.330922508239746094e+01 -4.083827972412109375e+01 3.609979450702667236e-01 3.472175449132919312e-02 1.187159121036529541e-01 -5.068392306566238403e-02
7.775000000000000000e+03 1.893248558044433594e+01 -1.009577631950378418e+00 -2.578374862670898438e+00 -2.933524847030639648e+00 -1.653569936752319336e+00 -1.961797714233398438e+00
7.776000000000000000e+03 1.932582092285156250e+01 -9.984396696090698242e-01 -2.584867954254150391e+00 -4.662604808807373047e+00 -2.174242019653320312e+00 -2.340145587921142578e+00
7.777000000000000000e+03 7.435034179687500000e+01 3.596560668945312500e+01 5.010626912117004395e-01 3.235873699188232422e+00 1.121080875396728516e+00 -2.667279958724975586e+00
7.778000000000000000e+03 2.225647735595703125e+01 9.641721844673156738e-01 -2.212711572647094727e+00 -3.099843263626098633e-01 -7.568088173866271973e-01 -1.851636528968811035e+00
7.779000000000000000e+03 7.503565216064453125e+01 3.576539611816406250e+01 9.870132207870483398e-01 4.500267505645751953e+00 1.646184206008911133e+00 -4.156116008758544922e+00
7.780000000000000000e+03 7.517777252197265625e+01 3.567895889282226562e+01 1.038916468620300293e+00 5.694409370422363281e+00 2.019997835159301758e+00 -4.354760646820068359e+00
7.781000000000000000e+03 7.524687957763671875e+01 3.168881225585937500e+01 -1.131665825843811035e+00 7.335241317749023438e+00 1.861072659492492676e+00 4.770197868347167969e+00
7.782000000000000000e+03 7.494174957275390625e+01 3.193883895874023438e+01 -9.390659928321838379e-01 5.188614845275878906e+00 1.274864673614501953e+00 4.235286712646484375e+00
7.783000000000000000e+03 7.859199523925781250e+01 3.356217956542968750e+01 3.672881126403808594e+00 1.492037582397460938e+01 5.577977180480957031e+00 -1.991300344467163086e+00
7.784000000000000000e+03 7.882154846191406250e+01 3.320587539672851562e+01 8.191361427307128906e-01 1.305324840545654297e+01 4.161715030670166016e+00 -3.000188350677490234e+00
7.785000000000000000e+03 7.897497558593750000e+01 3.375274658203125000e+01 2.120436906814575195e+00 1.188602924346923828e+01 4.201939582824707031e+00 -1.273658633232116699e+00
7.786000000000000000e+03 3.814685821533203125e+01 2.946951675415039062e+01 9.592559933662414551e-02 1.063158735632896423e-01 6.067244336009025574e-02 9.991284459829330444e-02
7.787000000000000000e+03 3.797079467773437500e+01 2.997466850280761719e+01 9.456507861614227295e-02 1.060007661581039429e-01 6.016975641250610352e-02 9.681659191846847534e-02
7.788000000000000000e+03 2.542097663879394531e+01 1.666790008544921875e+01 1.483540832996368408e-01 1.678093671798706055e-01 9.484903514385223389e-02 1.585599631071090698e-01
7.789000000000000000e+03 2.563241958618164062e+01 1.627110671997070312e+01 1.539598852396011353e-01 1.683994382619857788e-01 9.670779854059219360e-02 1.612697988748550415e-01
7.790000000000000000e+03 1.439391517639160156e+01 5.162253856658935547e+00 2.168071568012237549e-01 8.251911401748657227e-01 3.125994801521301270e-01 3.828749954700469971e-01
7.791000000000000000e+03 2.056750297546386719e+01 -1.903593987226486206e-01 -1.580559968948364258e+00 -2.200538396835327148e+00 -1.134329557418823242e+00 -3.637340307235717773e+00
7.792000000000000000e+03 7.831134033203125000e+01 3.468914794921875000e+01 4.100122451782226562e+00 1.705932617187500000e+01 6.347834587097167969e+00 2.713619470596313477e+00
7.793000000000000000e+03 7.366690063476562500e+01 3.632810592651367188e+01 2.214892804622650146e-01 2.336771249771118164e+00 7.674781680107116699e-01 -1.607100248336791992e+00
7.794000000000000000e+03 7.608101654052734375e+01 3.605468750000000000e+01 -1.385655403137207031e+00 1.421326732635498047e+01 3.848283529281616211e+00 -4.953644275665283203e+00
7.795000000000000000e+03 2.346377182006835938e+01 1.575482368469238281e+00 -2.504513025283813477e+00 -3.245142996311187744e-01 -8.487082123756408691e-01 -1.274570584297180176e+00
7.796000000000000000e+03 2.349301910400390625e+01 1.165129065513610840e+00 -2.098126173019409180e+00 -1.814296841621398926e-01 -6.838667392730712891e-01 -1.144063591957092285e+00
7.797000000000000000e+03 2.919638442993164062e+01 5.221042633056640625e+00 -2.036430120468139648e+00 -1.120931267738342285e+00 -9.472084641456604004e-01 -1.035774946212768555e+00
7.798000000000000000e+03 7.768637847900390625e+01 3.170272064208984375e+01 -2.524527549743652344e+00 1.757638931274414062e+01 4.515558242797851562e+00 -1.009873032569885254e+00
7.799000000000000000e+03 7.746019744873046875e+01 3.220368576049804688e+01 -2.619678974151611328e+00 2.043988418579101562e+01 5.346061706542968750e+00 -1.086830973625183105e+00
7.800000000000000000e+03 7.790614318847656250e+01 3.240454101562500000e+01 -1.217589616775512695e+00 1.897873115539550781e+01 5.328342437744140625e+00 -2.955754518508911133e+00
7.801000000000000000e+03 7.790898895263671875e+01 3.199963378906250000e+01 -1.894187211990356445e+00 1.808582878112792969e+01 4.857492446899414062e+00 -2.214560270309448242e+00
7.802000000000000000e+03 7.567776489257812500e+01 3.129563140869140625e+01 -1.748242259025573730e+00 1.016518211364746094e+01 2.525082111358642578e+00 4.397212505340576172e+00
7.803000000000000000e+03 2.002894592285156250e+01 -6.126811504364013672e-01 -3.684708595275878906e+00 -5.139682769775390625e+00 -2.647317409515380859e+00 -2.874386548995971680e+00
7.804000000000000000e+03 1.664045333862304688e+01 -2.535182714462280273e+00 -1.546434402465820312e+00 -7.072152495384216309e-01 -6.760948896408081055e-01 -7.934683561325073242e-01
7.805000000000000000e+03 7.561222839355468750e+01 3.590826797485351562e+01 2.423594892024993896e-01 9.374440193176269531e+00 2.885040044784545898e+00 -5.371451854705810547e+00
7.806000000000000000e+03 2.621416473388671875e+01 3.147724628448486328e+00 -2.476793050765991211e+00 -6.463088989257812500e-01 -9.369305968284606934e-01 -1.069983720779418945e+00
7.807000000000000000e+03 2.647100257873535156e+01 3.075479269027709961e+00 -2.360945701599121094e+00 -6.428866982460021973e-01 -9.011497497558593750e-01 -9.772474765777587891e-01
7.808000000000000000e+03 2.699668502807617188e+01 3.836853981018066406e+00 -2.427638530731201172e+00 -8.435884118080139160e-01 -9.813681244850158691e-01 -1.177068233489990234e+00
7.809000000000000000e+03 2.748066711425781250e+01 4.038034439086914062e+00 -2.338922262191772461e+00 -9.247316718101501465e-01 -9.790961742401123047e-01 -1.150050401687622070e+00
7.810000000000000000e+03 2.795552635192871094e+01 4.400541305541992188e+00 -2.261560201644897461e+00 -1.006545305252075195e+00 -9.804316759109497070e-01 -1.142187714576721191e+00
7.811000000000000000e+03 2.888151168823242188e+01 4.760403156280517578e+00 -1.991239666938781738e+00 -1.068286061286926270e+00 -9.178577065467834473e-01 -9.781341552734375000e-01
7.812000000000000000e+03 2.504843139648437500e+01 2.460996150970458984e+00 -2.641873598098754883e+00 -4.962190687656402588e-01 -9.414277672767639160e-01 -1.098781585693359375e+00
7.813000000000000000e+03 2.457129669189453125e+01 2.196238994598388672e+00 -2.617119789123535156e+00 -4.002327620983123779e-01 -9.052057266235351562e-01 -1.110952019691467285e+00
7.814000000000000000e+03 2.471493721008300781e+01 2.297407865524291992e+00 -2.685651540756225586e+00 -4.723278582096099854e-01 -9.473938345909118652e-01 -1.112322688102722168e+00
7.815000000000000000e+03 2.419542503356933594e+01 1.865408062934875488e+00 -2.490463972091674805e+00 -3.211957216262817383e-01 -8.434978723526000977e-01 -1.089853644371032715e+00
7.816000000000000000e+03 7.301891326904296875e+01 3.144091033935546875e+01 -1.732481122016906738e+00 1.302165627479553223e+00 -1.290946453809738159e-01 1.395139694213867188e+00
7.817000000000000000e+03 2.374222183227539062e+01 1.936536908149719238e+00 -2.738241672515869141e+00 -4.790176451206207275e-01 -9.651777744293212891e-01 -1.285278677940368652e+00
7.818000000000000000e+03 7.139264678955078125e+01 3.756440353393554688e+01 4.751405119895935059e-01 6.409025788307189941e-01 3.348129391670227051e-01 -5.890831723809242249e-02
7.819000000000000000e+03 6.339524078369140625e+01 3.847106933593750000e+01 2.485588043928146362e-01 -3.388836085796356201e-01 -2.709744311869144440e-02 4.166003167629241943e-01
7.820000000000000000e+03 3.995887374877929688e+01 3.179581832885742188e+01 1.005004346370697021e-01 9.228122979402542114e-02 5.783449858427047729e-02 9.157578647136688232e-02
7.821000000000000000e+03 4.518981170654296875e+01 3.562486267089843750e+01 1.392990499734878540e-01 6.993111968040466309e-02 6.276905536651611328e-02 9.418874979019165039e-02
7.822000000000000000e+03 1.805975151062011719e+01 -1.866691112518310547e+00 -1.823672652244567871e+00 -1.858378529548645020e+00 -1.104615330696105957e+00 -1.136342167854309082e+00
7.823000000000000000e+03 3.012916183471679688e+01 1.001931095123291016e+01 -1.525296926498413086e+00 -1.187420368194580078e+00 -8.138151764869689941e-01 -1.322296380996704102e+00
7.824000000000000000e+03 5.402621841430664062e+01 3.811713409423828125e+01 1.856006830930709839e-01 5.376171693205833435e-02 7.180871814489364624e-02 -1.228955760598182678e-01
7.825000000000000000e+03 7.450518798828125000e+01 3.790056991577148438e+01 5.432654619216918945e-01 6.124242782592773438e+00 2.000252485275268555e+00 -2.191098928451538086e+00
7.826000000000000000e+03 5.771290588378906250e+01 3.966746139526367188e+01 2.815889120101928711e-01 -1.578767001628875732e-01 3.711366280913352966e-02 3.314276784658432007e-02
7.827000000000000000e+03 5.740329742431640625e+01 4.185620880126953125e+01 3.606763482093811035e-01 -1.894904822111129761e-01 5.135576054453849792e-02 2.664574235677719116e-02
7.828000000000000000e+03 4.585640716552734375e+01 3.787574005126953125e+01 2.015919983386993408e-01 5.191769823431968689e-02 7.605291157960891724e-02 7.556407153606414795e-02
7.829000000000000000e+03 6.459526062011718750e+01 3.867228317260742188e+01 3.222307860851287842e-01 -3.988905549049377441e-01 -2.299793064594268799e-02 4.455129802227020264e-01
7.830000000000000000e+03 5.173519897460937500e+01 3.877730560302734375e+01 4.877451956272125244e-01 4.360401630401611328e-02 1.594047695398330688e-01 9.630600363016128540e-02
7.831000000000000000e+03 7.528688812255859375e+01 3.144004249572753906e+01 -1.148137688636779785e+00 7.877585887908935547e+00 2.018834590911865234e+00 4.741548061370849609e+00
7.832000000000000000e+03 2.137297058105468750e+01 1.967807561159133911e-01 -1.585711956024169922e+00 8.986480534076690674e-02 -4.487541317939758301e-01 -2.531007528305053711e+00
7.833000000000000000e+03 2.164271545410156250e+01 -5.075030922889709473e-01 -4.083101749420166016e-01 8.729519248008728027e-01 1.393925249576568604e-01 -2.063122749328613281e+00
7.834000000000000000e+03 1.909444808959960938e+01 -1.180338621139526367e+00 -1.952199339866638184e+00 -3.539991140365600586e+00 -1.647657155990600586e+00 -2.073661088943481445e+00
7.835000000000000000e+03 4.891695976257324219e+00 -3.766484498977661133e+00 -8.922404795885086060e-02 -5.555141344666481018e-02 -4.343263804912567139e-02 -7.945583015680313110e-02
7.836000000000000000e+03 2.205233573913574219e+01 -1.095679998397827148e-01 -7.536180019378662109e-01 5.635446906089782715e-01 -5.702200531959533691e-02 -1.774113655090332031e+00
7.837000000000000000e+03 2.708506965637207031e+01 2.961128234863281250e+00 -2.067935228347778320e+00 -6.588590145111083984e-01 -8.180382847785949707e-01 -8.119364380836486816e-01
7.838000000000000000e+03 2.969013977050781250e+01 4.755280494689941406e+00 -1.773608326911926270e+00 -9.127985239028930664e-01 -8.059220314025878906e-01 -8.058404922485351562e-01
7.839000000000000000e+03 5.263336563110351562e+01 3.270779800415039062e+01 -7.744414210319519043e-01 -3.620723187923431396e-01 -3.409541249275207520e-01 -6.260243654251098633e-01
7.840000000000000000e+03 5.326366806030273438e+01 3.192087554931640625e+01 -1.104273319244384766e+00 -1.563113629817962646e-01 -3.781754076480865479e-01 -7.142003178596496582e-01
7.841000000000000000e+03 2.260671615600585938e+01 7.349388003349304199e-01 -1.829098105430603027e+00 -3.996389359235763550e-02 -5.607185959815979004e-01 -1.505649089813232422e+00
7.842000000000000000e+03 7.461122894287109375e+01 3.612375640869140625e+01 6.198144555091857910e-01 3.985919475555419922e+00 1.381720185279846191e+00 -3.392574548721313477e+00
7.843000000000000000e+03 1.910792708396911621e+00 3.714420318603515625e+01 3.414067032281309366e-04 -1.714993119239807129e-01 -5.134737491607666016e-02 -5.493806675076484680e-03
7.844000000000000000e+03 6.446798706054687500e+01 3.733872222900390625e+01 6.963446736335754395e-03 -2.979947626590728760e-01 -8.730939775705337524e-02 5.557090044021606445e-01
7.845000000000000000e+03 6.653056335449218750e+01 3.770018768310546875e+01 1.680025756359100342e-01 -2.474377006292343140e-01 -2.383053861558437347e-02 8.177394270896911621e-01
7.846000000000000000e+03 7.690293121337890625e+01 3.623659896850585938e+01 -2.631651163101196289e+00 1.792526054382324219e+01 4.588082790374755859e+00 -1.630043148994445801e+00
7.847000000000000000e+03 7.723400878906250000e+01 3.654394149780273438e+01 -2.648857355117797852e+00 1.778202247619628906e+01 4.539949417114257812e+00 -8.287141323089599609e-01
7.848000000000000000e+03 7.451583099365234375e+01 3.701823043823242188e+01 5.349626541137695312e-01 5.211102485656738281e+00 1.723819494247436523e+00 -3.202712774276733398e+00
7.849000000000000000e+03 3.370249176025390625e+01 -3.726575088500976562e+01 7.112224102020263672e-01 5.054735541343688965e-01 3.650087714195251465e-01 -4.615085124969482422e-01
7.850000000000000000e+03 7.577240753173828125e+01 3.066854286193847656e+01 -1.622734427452087402e+00 1.023195552825927734e+01 2.582766294479370117e+00 3.627367258071899414e+00
7.851000000000000000e+03 2.678421592712402344e+01 2.958305358886718750e+00 -2.158364772796630859e+00 -6.131216287612915039e-01 -8.314459323883056641e-01 -8.777784705162048340e-01
7.852000000000000000e+03 2.752670097351074219e+01 3.628334760665893555e+00 -2.138548374176025391e+00 -7.927141189575195312e-01 -8.793787360191345215e-01 -9.416031837463378906e-01
7.853000000000000000e+03 2.945709991455078125e+01 4.660204887390136719e+00 -1.843178629875183105e+00 -9.737221598625183105e-01 -8.450702428817749023e-01 -8.316041231155395508e-01
7.854000000000000000e+03 7.478099060058593750e+01 3.099713325500488281e+01 -8.105373382568359375e-01 6.325608730316162109e+00 1.654521465301513672e+00 3.831989288330078125e+00
7.855000000000000000e+03 2.777649688720703125e+01 4.277424812316894531e+00 -2.293015718460083008e+00 -1.004839181900024414e+00 -9.893565177917480469e-01 -1.167848110198974609e+00
7.856000000000000000e+03 7.512525939941406250e+01 -3.814575195312500000e+01 9.787275455892086029e-03 4.221922874450683594e+00 1.269513130187988281e+00 1.335590332746505737e-02
7.857000000000000000e+03 1.115900897979736328e+01 3.010201215744018555e+00 6.516409516334533691e-01 -2.107627838850021362e-01 1.322634518146514893e-01 -9.630289860069751740e-03
7.858000000000000000e+03 7.269304656982421875e+01 3.776362991333007812e+01 9.921097755432128906e-01 2.147316932678222656e+00 9.418280124664306641e-01 -6.178249120712280273e-01
7.859000000000000000e+03 2.912919044494628906e+01 4.777243614196777344e+00 -1.953938007354736328e+00 -1.035310029983520508e+00 -8.967744112014770508e-01 -9.182247519493103027e-01
7.860000000000000000e+03 7.454231262207031250e+01 3.644746398925781250e+01 6.008109450340270996e-01 4.567885398864746094e+00 1.550608873367309570e+00 -3.147178888320922852e+00
7.861000000000000000e+03 7.462329101562500000e+01 3.134183502197265625e+01 -9.003654718399047852e-01 5.095407485961914062e+00 1.258512616157531738e+00 3.631207227706909180e+00
7.862000000000000000e+03 5.006922912597656250e+01 -3.168796539306640625e+01 -3.917297720909118652e-02 9.327216148376464844e-01 2.680645883083343506e-01 2.958366572856903076e-01
7.863000000000000000e+03 2.147511291503906250e+01 4.434362649917602539e-01 -1.790048480033874512e+00 -4.535292685031890869e-01 -6.730732917785644531e-01 -2.445816993713378906e+00
7.864000000000000000e+03 2.371276283264160156e+01 7.644547224044799805e-01 -1.617623567581176758e+00 3.644873574376106262e-02 -4.743524491786956787e-01 -8.981299400329589844e-01
7.865000000000000000e+03 2.370457458496093750e+01 1.595838737487792969e+01 1.374551206827163696e-01 1.860251724720001221e-01 9.704408794641494751e-02 1.626899093389511108e-01
7.866000000000000000e+03 2.354512405395507812e+01 1.627854728698730469e+01 1.314894109964370728e-01 1.855638027191162109e-01 9.511595964431762695e-02 1.593809276819229126e-01
7.867000000000000000e+03 7.518874359130859375e+01 3.117119598388671875e+01 -1.029340028762817383e+00 8.011344909667968750e+00 2.094601631164550781e+00 4.362883567810058594e+00
7.868000000000000000e+03 7.535694885253906250e+01 3.125671005249023438e+01 -1.363435745239257812e+00 8.545741081237792969e+00 2.154691696166992188e+00 4.457205295562744141e+00
7.869000000000000000e+03 7.519709014892578125e+01 3.097148895263671875e+01 -1.188844084739685059e+00 7.843990802764892578e+00 1.996544003486633301e+00 4.065934658050537109e+00
7.870000000000000000e+03 2.578759384155273438e+01 2.729286909103393555e+00 -2.491904020309448242e+00 -5.708037614822387695e-01 -9.188123941421508789e-01 -1.031490564346313477e+00
7.871000000000000000e+03 2.881755065917968750e+01 3.986785173416137695e+00 -1.860572338104248047e+00 -8.972537517547607422e-01 -8.273478150367736816e-01 -7.853247523307800293e-01
7.872000000000000000e+03 2.735479736328125000e+01 3.151570081710815430e+00 -2.032071352005004883e+00 -6.823903322219848633e-01 -8.143385052680969238e-01 -8.133437633514404297e-01
7.873000000000000000e+03 7.502783966064453125e+01 3.110556221008300781e+01 -9.495635032653808594e-01 6.992869853973388672e+00 1.812991976737976074e+00 4.067771911621093750e+00
7.874000000000000000e+03 7.550253295898437500e+01 3.073491477966308594e+01 -1.424663782119750977e+00 9.250755310058593750e+00 2.347827434539794922e+00 3.901957511901855469e+00
7.875000000000000000e+03 7.546260070800781250e+01 3.104840469360351562e+01 -1.383412718772888184e+00 9.055261611938476562e+00 2.301554679870605469e+00 4.150211334228515625e+00
7.876000000000000000e+03 7.528050994873046875e+01 3.023612022399902344e+01 -1.162353038787841797e+00 8.290762901306152344e+00 2.138523101806640625e+00 3.552840709686279297e+00
7.877000000000000000e+03 2.441914176940917969e+01 2.039434671401977539e+00 -2.598468065261840820e+00 -4.264881908893585205e-01 -9.074868559837341309e-01 -1.105071187019348145e+00
7.878000000000000000e+03 2.476217269897460938e+01 2.075794935226440430e+00 -2.411221265792846680e+00 -4.029263556003570557e-01 -8.442442417144775391e-01 -1.002936601638793945e+00
7.879000000000000000e+03 2.898724365234375000e+01 3.675848484039306641e+00 -1.715125560760498047e+00 -8.094372749328613281e-01 -7.573688626289367676e-01 -6.606709361076354980e-01
7.880000000000000000e+03 2.967264366149902344e+01 4.041821956634521484e+00 -1.655518651008605957e+00 -8.258970975875854492e-01 -7.444247603416442871e-01 -6.483232378959655762e-01
7.881000000000000000e+03 5.531491279602050781e+00 -3.163545989990234375e+01 3.491023927927017212e-02 -1.006944537162780762e+00 -2.916103005409240723e-01 -1.136268079280853271e-01
7.882000000000000000e+03 7.204128265380859375e+01 3.721339797973632812e+01 5.787863731384277344e-01 7.919977903366088867e-01 4.112352430820465088e-01 -7.308511435985565186e-02
7.883000000000000000e+03 2.825842857360839844e+01 3.619111299514770508e+00 -1.915696978569030762e+00 -8.533605337142944336e-01 -8.307172656059265137e-01 -8.123998045921325684e-01
7.884000000000000000e+03 2.804839134216308594e+01 3.903875589370727539e+00 -2.064274549484252930e+00 -8.827636241912841797e-01 -8.841114640235900879e-01 -9.345996975898742676e-01
7.885000000000000000e+03 7.578155517578125000e+01 3.002149581909179688e+01 -1.393535733222961426e+00 9.767553329467773438e+00 2.512205362319946289e+00 3.178954601287841797e+00
7.886000000000000000e+03 2.600902366638183594e+01 2.663068056106567383e+00 -2.324272394180297852e+00 -5.262943506240844727e-01 -8.551700115203857422e-01 -9.102438092231750488e-01
7.887000000000000000e+03 2.586058235168457031e+01 2.452409505844116211e+00 -2.227808237075805664e+00 -4.516703486442565918e-01 -8.038435578346252441e-01 -8.426524400711059570e-01
7.888000000000000000e+03 2.547149276733398438e+01 2.378056287765502930e+00 -2.386263132095336914e+00 -4.506167471408843994e-01 -8.510639667510986328e-01 -9.199941754341125488e-01
7.889000000000000000e+03 3.174945831298828125e+01 1.087906837463378906e+01 -1.378523230552673340e+00 -1.318559288978576660e+00 -8.091247677803039551e-01 -1.264747619628906250e+00
7.890000000000000000e+03 4.257043457031250000e+01 3.385225677490234375e+01 1.134350746870040894e-01 7.591910660266876221e-02 5.680625140666961670e-02 8.904989808797836304e-02
7.891000000000000000e+03 3.052072906494140625e+01 4.396094322204589844e+00 -1.537574291229248047e+00 -7.711369991302490234e-01 -6.926133632659912109e-01 -6.365585923194885254e-01
7.892000000000000000e+03 3.036580085754394531e+01 3.751474142074584961e+00 -1.393895983695983887e+00 -7.229773998260498047e-01 -6.350620388984680176e-01 -4.928175806999206543e-01
7.893000000000000000e+03 4.007313919067382812e+01 3.274941635131835938e+01 1.027758046984672546e-01 8.871335536241531372e-02 5.744674801826477051e-02 8.797895908355712891e-02
7.894000000000000000e+03 3.908978652954101562e+01 3.254618453979492188e+01 9.788221865892410278e-02 9.547353535890579224e-02 5.800672620534896851e-02 8.667962253093719482e-02
7.895000000000000000e+03 3.130962944030761719e+01 2.374538612365722656e+01 8.794602751731872559e-02 1.261931061744689941e-01 6.424174457788467407e-02 1.123878881335258484e-01
7.896000000000000000e+03 3.890608596801757812e+01 3.168985557556152344e+01 9.632512927055358887e-02 9.878437221050262451e-02 5.853284895420074463e-02 9.022937715053558350e-02
7.897000000000000000e+03 3.838092041015625000e+01 3.155656051635742188e+01 9.472244232892990112e-02 1.006485447287559509e-01 5.861129611730575562e-02 8.972275257110595703e-02
7.898000000000000000e+03 2.398535346984863281e+01 1.092990517616271973e+00 -1.913746237754821777e+00 -4.678363353013992310e-02 -5.881589651107788086e-01 -8.468536138534545898e-01
7.899000000000000000e+03 3.759659194946289062e+01 3.005912399291992188e+01 9.189420938491821289e-02 1.087723448872566223e-01 6.019996479153633118e-02 9.521178156137466431e-02
7.900000000000000000e+03 7.141332626342773438e+00 -3.017675018310546875e+01 6.068898737430572510e-02 -8.552252054214477539e-01 -2.383608669042587280e-01 -1.610426902770996094e-01
7.901000000000000000e+03 5.416274642944335938e+01 -2.781298828125000000e+01 -6.088374182581901550e-03 1.497073769569396973e+00 4.472956359386444092e-01 2.171375453472137451e-01
7.902000000000000000e+03 4.940669250488281250e+01 -3.020249176025390625e+01 -7.913730293512344360e-02 8.404254317283630371e-01 2.283864468336105347e-01 2.172116637229919434e-01
7.903000000000000000e+03 4.248882675170898438e+01 3.415659332275390625e+01 1.172071248292922974e-01 7.675079256296157837e-02 5.818737670779228210e-02 8.906206488609313965e-02
7.904000000000000000e+03 7.519412994384765625e+01 3.065900802612304688e+01 -1.093747735023498535e+00 7.926765918731689453e+00 2.049905538558959961e+00 3.827907323837280273e+00
7.905000000000000000e+03 2.783919906616210938e+01 3.014147996902465820e+00 -1.814956903457641602e+00 -6.882150173187255859e-01 -7.509515881538391113e-01 -6.773501038551330566e-01
7.906000000000000000e+03 2.775363159179687500e+01 2.574835777282714844e+00 -1.677904248237609863e+00 -6.142454743385314941e-01 -6.876449584960937500e-01 -5.606017112731933594e-01
7.907000000000000000e+03 4.212696838378906250e+01 3.467409515380859375e+01 1.201143488287925720e-01 7.704685628414154053e-02 5.914836004376411438e-02 8.632905781269073486e-02
7.908000000000000000e+03 9.749423027038574219e+00 -5.891146183013916016e+00 -3.375417292118072510e-01 -1.539675742387771606e-01 -1.474527865648269653e-01 -3.805477023124694824e-01
7.909000000000000000e+03 3.299635314941406250e+01 2.594137382507324219e+01 8.361702412366867065e-02 1.243408918380737305e-01 6.238737329840660095e-02 1.028522402048110962e-01
7.910000000000000000e+03 3.245401382446289062e+01 2.540293884277343750e+01 8.383496105670928955e-02 1.248748973011970520e-01 6.261295825242996216e-02 1.047859266400337219e-01
7.911000000000000000e+03 3.063189697265625000e+01 2.379042243957519531e+01 8.476097881793975830e-02 1.302256733179092407e-01 6.449599564075469971e-02 1.125895157456398010e-01
7.912000000000000000e+03 1.030458450317382812e+01 2.846784591674804688e+00 3.167832493782043457e-01 -3.955447673797607422e-01 -2.362845838069915771e-02 2.932687997817993164e-01
7.913000000000000000e+03 7.099804687500000000e+01 -3.309041976928710938e+01 2.971429377794265747e-02 3.704428672790527344e+00 1.120242834091186523e+00 1.116599217057228088e-01
7.914000000000000000e+03 3.006136417388916016e+00 5.396397113800048828e+00 1.404753141105175018e-02 -1.524480432271957397e-01 -4.152015224099159241e-02 1.179822310805320740e-01
7.915000000000000000e+03 5.762332916259765625e+00 -2.664312362670898438e+01 4.417565464973449707e-02 -8.871263265609741211e-01 -2.528851926326751709e-01 -1.759299933910369873e-01
7.916000000000000000e+03 7.271866321563720703e+00 -2.527199745178222656e+01 6.856635957956314087e-02 -7.652758955955505371e-01 -2.090128660202026367e-01 -2.257850170135498047e-01
7.917000000000000000e+03 4.035872268676757812e+01 3.347276687622070312e+01 1.071802005171775818e-01 8.739225566387176514e-02 5.837173387408256531e-02 8.663152158260345459e-02
7.918000000000000000e+03 2.334390640258789062e+01 1.585936450958251953e+01 1.364405155181884766e-01 1.904914677143096924e-01 9.807959944009780884e-02 1.630027294158935547e-01
7.919000000000000000e+03 4.847808837890625000e+01 -2.648842430114746094e+01 -7.271653413772583008e-02 6.401829123497009277e-01 1.702399104833602905e-01 1.432810127735137939e-01
7.920000000000000000e+03 2.302684402465820312e+01 1.570148563385009766e+01 1.362318396568298340e-01 1.944124400615692139e-01 9.919328987598419189e-02 1.620875895023345947e-01
7.921000000000000000e+03 3.544465255737304688e+01 2.868607330322265625e+01 8.681968599557876587e-02 1.181128844618797302e-01 6.147976964712142944e-02 9.533034265041351318e-02
7.922000000000000000e+03 3.228400421142578125e+01 1.136509609222412109e+01 -1.369095087051391602e+00 -1.311745166778564453e+00 -8.042520880699157715e-01 -1.262925982475280762e+00
7.923000000000000000e+03 2.829061317443847656e+01 2.834093570709228516e+00 -1.627728939056396484e+00 -6.689344644546508789e-01 -6.889989972114562988e-01 -5.499989986419677734e-01
7.924000000000000000e+03 2.530387306213378906e+01 2.325480222702026367e+00 -2.461498498916625977e+00 -4.527605473995208740e-01 -8.742777109146118164e-01 -9.491064548492431641e-01
7.925000000000000000e+03 2.533621025085449219e+01 2.099245071411132812e+00 -2.175610780715942383e+00 -3.772318065166473389e-01 -7.658528089523315430e-01 -8.575683832168579102e-01
7.926000000000000000e+03 3.397647094726562500e+01 2.760874176025390625e+01 8.226241916418075562e-02 1.218036636710166931e-01 6.121982634067535400e-02 9.805613011121749878e-02
7.927000000000000000e+03 3.004721641540527344e+01 3.691845655441284180e+00 -1.469354867935180664e+00 -7.482140064239501953e-01 -6.652706861495971680e-01 -5.244973301887512207e-01
7.928000000000000000e+03 2.579398727416992188e+01 1.904832601547241211e+00 -1.948452353477478027e+00 -3.407462537288665771e-01 -6.867595911026000977e-01 -6.579048037528991699e-01
7.929000000000000000e+03 2.951267242431640625e+01 2.166815948486328125e+01 1.013663038611412048e-01 1.369920521974563599e-01 7.150750607252120972e-02 1.204861626029014587e-01
7.930000000000000000e+03 2.423059082031250000e+01 1.857312393188476562e+01 1.056320816278457642e-01 1.717032492160797119e-01 8.320059627294540405e-02 1.355945914983749390e-01
7.931000000000000000e+03 2.811539840698242188e+01 2.020261383056640625e+01 1.134191006422042847e-01 1.463884711265563965e-01 7.794227451086044312e-02 1.311547756195068359e-01
7.932000000000000000e+03 3.241567230224609375e+01 2.595184707641601562e+01 8.142750710248947144e-02 1.249659955501556396e-01 6.191805005073547363e-02 1.026980280876159668e-01
7.933000000000000000e+03 3.155551910400390625e+01 2.519616508483886719e+01 8.134155720472335815e-02 1.265924721956253052e-01 6.238020956516265869e-02 1.058470308780670166e-01
7.934000000000000000e+03 3.058463859558105469e+01 2.441798782348632812e+01 8.078289777040481567e-02 1.304665803909301758e-01 6.337483972311019897e-02 1.097475215792655945e-01
7.935000000000000000e+03 6.480407714843750000e+00 -7.110691070556640625e+00 -1.558427363634109497e-01 -1.867929548025131226e-01 -1.027907133102416992e-01 -2.770938277244567871e-01
7.936000000000000000e+03 3.397158813476562500e+01 1.060005569458007812e+01 -1.162178754806518555e+00 -1.169133186340332031e+00 -6.993935704231262207e-01 -1.075217723846435547e+00
7.937000000000000000e+03 3.746622562408447266e+00 5.425735473632812500e+00 2.429721876978874207e-02 -1.570717543363571167e-01 -3.983236104249954224e-02 1.337879747152328491e-01
7.938000000000000000e+03 2.936085510253906250e+01 3.074371337890625000e+00 -1.423908472061157227e+00 -7.078667879104614258e-01 -6.395325660705566406e-01 -4.656481742858886719e-01
7.939000000000000000e+03 2.456809425354003906e+01 1.242754340171813965e+00 -1.816802144050598145e+00 -1.263234764337539673e-01 -5.829376578330993652e-01 -7.626921534538269043e-01
7.940000000000000000e+03 3.027926635742187500e+01 3.213283538818359375e+00 -1.311367988586425781e+00 -6.815059185028076172e-01 -5.978621840476989746e-01 -4.026822745800018311e-01
7.941000000000000000e+03 3.344289398193359375e+01 9.485877990722656250e+00 -1.154785156250000000e+00 -1.119708895683288574e+00 -6.823482513427734375e-01 -1.024738550186157227e+00
7.942000000000000000e+03 7.339116668701171875e+01 2.868147277832031250e+01 -5.104384198784828186e-02 4.287681102752685547e+00 1.270991206169128418e+00 2.324989795684814453e+00
7.943000000000000000e+03 1.564937973022460938e+01 2.776038360595703125e+01 -4.639978054910898209e-03 6.622081995010375977e-02 1.847425289452075958e-02 2.179376967251300812e-02
7.944000000000000000e+03 3.345570755004882812e+01 1.039912033081054688e+01 -1.193638324737548828e+00 -1.190004229545593262e+00 -7.150927782058715820e-01 -1.097773432731628418e+00
7.945000000000000000e+03 2.788287162780761719e+01 1.079147458076477051e+00 -9.482215642929077148e-01 -4.580786526203155518e-01 -4.218900501728057861e-01 -2.356445640325546265e-01
7.946000000000000000e+03 2.799272727966308594e+01 1.804935574531555176e+00 -1.314617156982421875e+00 -5.249857306480407715e-01 -5.518808960914611816e-01 -3.612604737281799316e-01
7.947000000000000000e+03 7.032396697998046875e+01 -2.747642135620117188e+01 2.825958281755447388e-02 3.692481994628906250e+00 1.116222500801086426e+00 1.458664238452911377e-01
7.948000000000000000e+03 1.139035224914550781e+01 -2.676185607910156250e+01 1.281369477510452271e-01 -5.702918767929077148e-01 -1.326464861631393433e-01 -2.420325428247451782e-01
7.949000000000000000e+03 3.511579895019531250e+01 3.195071601867675781e+01 7.902734726667404175e-02 1.114229932427406311e-01 5.713510140776634216e-02 7.986589521169662476e-02
7.950000000000000000e+03 3.513001632690429688e+01 2.879933929443359375e+01 8.526036888360977173e-02 1.181398481130599976e-01 6.102006509900093079e-02 9.418746083974838257e-02
7.951000000000000000e+03 3.393069839477539062e+01 2.817393684387207031e+01 8.078841120004653931e-02 1.208560913801193237e-01 6.049335002899169922e-02 9.545494616031646729e-02
7.952000000000000000e+03 2.864416313171386719e+01 2.545346021652221680e+00 -1.398795247077941895e+00 -6.348798871040344238e-01 -6.101025342941284180e-01 -4.201222062110900879e-01
7.953000000000000000e+03 1.857551002502441406e+01 1.115856170654296875e+01 1.595398783683776855e-01 2.626172602176666260e-01 1.266471445560455322e-01 2.062592059373855591e-01
7.954000000000000000e+03 3.007511138916015625e+01 2.907471418380737305e+00 -1.235021591186523438e+00 -6.936112046241760254e-01 -5.785898566246032715e-01 -3.613492548465728760e-01
7.955000000000000000e+03 1.005122184753417969e+01 -7.264762401580810547e+00 -2.902439832687377930e-01 -2.583969533443450928e-01 -1.645922809839248657e-01 -4.748068749904632568e-01
7.956000000000000000e+03 3.155407524108886719e+01 2.576431083679199219e+01 7.862024009227752686e-02 1.266327500343322754e-01 6.157589703798294067e-02 1.033517643809318542e-01
7.957000000000000000e+03 1.127263069152832031e+01 -2.513478660583496094e+01 1.251418739557266235e-01 -5.779073238372802734e-01 -1.358296424150466919e-01 -2.749985456466674805e-01
7.958000000000000000e+03 2.924278068542480469e+01 2.335803985595703125e+01 8.192851394414901733e-02 1.381567269563674927e-01 6.602557748556137085e-02 1.134177595376968384e-01
7.959000000000000000e+03 3.478990936279296875e+01 2.944880104064941406e+01 8.097881078720092773e-02 1.176134645938873291e-01 5.957768112421035767e-02 9.036318212747573853e-02
7.960000000000000000e+03 3.482983016967773438e+01 2.878923606872558594e+01 8.340453356504440308e-02 1.184702739119529724e-01 6.056244298815727234e-02 9.363602846860885620e-02
7.961000000000000000e+03 2.848314666748046875e+01 2.133576583862304688e+01 9.999764710664749146e-02 1.433433890342712402e-01 7.300231605768203735e-02 1.228775531053543091e-01
7.962000000000000000e+03 2.774435806274414062e+01 2.112994766235351562e+01 9.782063961029052734e-02 1.484147310256958008e-01 7.387061417102813721e-02 1.238323748111724854e-01
7.963000000000000000e+03 2.513614845275878906e+01 9.967378973960876465e-01 -1.466614603996276855e+00 -8.636634051799774170e-02 -4.658942818641662598e-01 -5.635354518890380859e-01
7.964000000000000000e+03 7.163014984130859375e+01 -2.917475128173828125e+01 2.834563143551349640e-02 3.833276033401489258e+00 1.158486485481262207e+00 1.343773454427719116e-01
7.965000000000000000e+03 7.277367401123046875e+01 2.797649574279785156e+01 1.952795535326004028e-01 3.722231626510620117e+00 1.175253391265869141e+00 2.015504837036132812e+00
7.966000000000000000e+03 7.359292602539062500e+01 2.817084884643554688e+01 7.354927062988281250e-02 4.944040775299072266e+00 1.505277037620544434e+00 2.351030349731445312e+00
7.967000000000000000e+03 3.340776443481445312e+01 -3.124401807785034180e+00 4.624703526496887207e-01 -5.974674224853515625e-01 -4.049912467598915100e-02 3.040899895131587982e-02
7.968000000000000000e+03 5.395388031005859375e+01 3.070709609985351562e+01 -1.338180899620056152e+00 -2.022916451096534729e-02 -4.075230062007904053e-01 -8.295488357543945312e-01
7.969000000000000000e+03 3.430878067016601562e+01 2.994450187683105469e+01 7.790071517229080200e-02 1.175903752446174622e-01 5.864732712507247925e-02 8.713883906602859497e-02
7.970000000000000000e+03 2.861460304260253906e+01 2.269154930114746094e+01 8.471918851137161255e-02 1.419628113508224487e-01 6.800460070371627808e-02 1.154928505420684814e-01
7.971000000000000000e+03 2.126985931396484375e+01 1.486811161041259766e+01 1.314478218555450439e-01 2.071144282817840576e-01 1.015686765313148499e-01 1.618058234453201294e-01
7.972000000000000000e+03 2.689214897155761719e+01 1.957188224792480469e+01 1.132517829537391663e-01 1.564781814813613892e-01 8.091899007558822632e-02 1.338002085685729980e-01
7.973000000000000000e+03 2.140512275695800781e+01 -2.174417495727539062e+01 1.863187700510025024e-01 4.995634406805038452e-02 7.088253647089004517e-02 -2.781504690647125244e-01
7.974000000000000000e+03 1.976117897033691406e+01 1.264789199829101562e+01 1.508606672286987305e-01 2.313671857118606567e-01 1.146683543920516968e-01 1.866214573383331299e-01
7.975000000000000000e+03 4.109889602661132812e+01 1.943446540832519531e+01 -1.036695837974548340e+00 -1.144756197929382324e+00 -6.544356346130371094e-01 -1.200908780097961426e+00
7.976000000000000000e+03 3.880263900756835938e+01 1.713361358642578125e+01 -1.096315026283264160e+00 -1.246744871139526367e+00 -7.029179334640502930e-01 -1.167310357093811035e+00
7.977000000000000000e+03 3.361806488037109375e+01 2.850485992431640625e+01 7.850153744220733643e-02 1.205510497093200684e-01 5.971577763557434082e-02 9.315316379070281982e-02
7.978000000000000000e+03 3.232924652099609375e+01 2.702666854858398438e+01 7.685875892639160156e-02 1.245371624827384949e-01 6.041877716779708862e-02 9.818460047245025635e-02
7.979000000000000000e+03 3.582516860961914062e+01 7.456055641174316406e+00 -8.577518463134765625e-01 -8.285030722618103027e-01 -5.058764815330505371e-01 -6.630399823188781738e-01
7.980000000000000000e+03 1.110049915313720703e+01 -7.704336166381835938e+00 -2.611629664897918701e-01 -3.644030988216400146e-01 -1.876698136329650879e-01 -5.549412369728088379e-01
7.981000000000000000e+03 1.117875576019287109e+01 -2.261356735229492188e+01 1.310974806547164917e-01 -5.654122829437255859e-01 -1.302944421768188477e-01 -3.101563155651092529e-01
7.982000000000000000e+03 7.267757415771484375e+01 -2.679546737670898438e+01 2.768371440470218658e-02 4.016975879669189453e+00 1.213397860527038574e+00 1.164289116859436035e-01
7.983000000000000000e+03 2.118602371215820312e+01 1.532310104370117188e+01 1.215475201606750488e-01 2.048575431108474731e-01 9.792151302099227905e-02 1.553358733654022217e-01
7.984000000000000000e+03 2.924606704711914062e+01 9.757188558578491211e-01 -6.611039638519287109e-01 -5.061986446380615234e-01 -3.501907885074615479e-01 -7.566463947296142578e-02
7.985000000000000000e+03 1.898091888427734375e+01 1.371467494964599609e+01 1.175248771905899048e-01 2.298492342233657837e-01 1.042122319340705872e-01 1.610402613878250122e-01
7.986000000000000000e+03 3.282318878173828125e+01 -2.984676361083984375e+00 4.104846417903900146e-01 -5.930068492889404297e-01 -5.475666746497154236e-02 1.032400643453001976e-03
7.987000000000000000e+03 1.078402709960937500e+01 -1.941507339477539062e+01 1.310323178768157959e-01 -5.572090148925781250e-01 -1.278530061244964600e-01 -3.624702692031860352e-01
7.988000000000000000e+03 1.011230182647705078e+01 -1.716110420227050781e+01 1.051873937249183655e-01 -5.559686422348022461e-01 -1.352343708276748657e-01 -3.994246125221252441e-01
7.989000000000000000e+03 1.096526241302490234e+01 -1.572247028350830078e+01 1.112316697835922241e-01 -5.381506681442260742e-01 -1.280757039785385132e-01 -4.367311894893646240e-01
7.990000000000000000e+03 3.328495025634765625e+01 2.887203025817871094e+01 7.561451941728591919e-02 1.207116395235061646e-01 5.889784917235374451e-02 9.103854745626449585e-02
7.991000000000000000e+03 1.036360454559326172e+01 -1.188831901550292969e+01 -2.048787428066134453e-03 -4.851723611354827881e-01 -1.461663395166397095e-01 -4.990338385105133057e-01
7.992000000000000000e+03 1.884450149536132812e+01 1.316144275665283203e+01 1.245482861995697021e-01 2.381790280342102051e-01 1.088181957602500916e-01 1.697345972061157227e-01
7.993000000000000000e+03 1.049266719818115234e+01 -7.703398227691650391e+00 -2.466241568326950073e-01 -3.158288300037384033e-01 -1.687358915805816650e-01 -5.007408261299133301e-01
7.994000000000000000e+03 3.228470230102539062e+01 2.752941131591796875e+01 7.499846816062927246e-02 1.239601820707321167e-01 5.968759581446647644e-02 9.582545608282089233e-02
7.995000000000000000e+03 3.062122917175292969e+01 2.627261161804199219e+01 7.173913717269897461e-02 1.287517845630645752e-01 6.014727428555488586e-02 1.001419425010681152e-01
7.996000000000000000e+03 1.457096004486083984e+01 9.228796958923339844e+00 1.064406037330627441e-01 3.797849118709564209e-01 1.458676606416702271e-01 1.456218212842941284e-01
7.997000000000000000e+03 3.676348495483398438e+01 -5.057375431060791016e+00 5.185499191284179688e-01 -5.563636422157287598e-01 -1.134412735700607300e-02 6.141720339655876160e-03
7.998000000000000000e+03 5.392126846313476562e+01 3.032281303405761719e+01 -1.361335277557373047e+00 -2.733615599572658539e-02 -4.166014194488525391e-01 -8.559970259666442871e-01
7.999000000000000000e+03 3.579541015625000000e+01 6.802363872528076172e+00 -8.170506954193115234e-01 -7.802202701568603516e-01 -4.791812896728515625e-01 -5.947771072387695312e-01
8.000000000000000000e+03 7.276216888427734375e+01 2.391805267333984375e+01 6.653918623924255371e-01 4.803228855133056641e+00 1.640586137771606445e+00 1.763667583465576172e+00
8.001000000000000000e+03 7.126911163330078125e+01 -1.998687744140625000e+01 3.214593604207038879e-02 3.902432918548583984e+00 1.180373668670654297e+00 1.754087209701538086e-01
8.002000000000000000e+03 2.851469421386718750e+01 2.308386802673339844e+01 8.050374686717987061e-02 1.416765451431274414e-01 6.665408611297607422e-02 1.134750396013259888e-01
8.003000000000000000e+03 2.874306678771972656e+01 9.798523187637329102e-01 -7.731594443321228027e-01 -5.174654722213745117e-01 -3.871874809265136719e-01 -1.556941270828247070e-01
8.004000000000000000e+03 2.650189971923828125e+01 2.140331840515136719e+01 8.608334511518478394e-02 1.545163542032241821e-01 7.217991352081298828e-02 1.194924712181091309e-01
8.005000000000000000e+03 3.289648818969726562e+01 -2.436439990997314453e+00 3.617924153804779053e-01 -6.060481071472167969e-01 -7.327670603990554810e-02 3.472428023815155029e-02
8.006000000000000000e+03 1.316724586486816406e+01 6.935040473937988281e+00 1.196981146931648254e-01 5.533029437065124512e-01 2.019003182649612427e-01 6.080671772360801697e-02
8.007000000000000000e+03 2.058626937866210938e+01 1.503706741333007812e+01 1.190492883324623108e-01 2.100676745176315308e-01 9.873508661985397339e-02 1.547734588384628296e-01
8.008000000000000000e+03 7.206774139404296875e+01 2.725830841064453125e+01 3.529363274574279785e-01 3.247048377990722656e+00 1.079995393753051758e+00 1.691114306449890137e+00
8.009000000000000000e+03 1.702634239196777344e+01 1.111142253875732422e+01 1.302881836891174316e-01 2.885653972625732422e-01 1.256560832262039185e-01 1.822481751441955566e-01
8.010000000000000000e+03 4.294055175781250000e+01 -9.849741935729980469e+00 4.533361196517944336e-01 -1.277240216732025146e-01 9.768362343311309814e-02 4.479794576764106750e-02
8.011000000000000000e+03 2.305113410949707031e+01 2.489155387878417969e+01 3.519790619611740112e-02 1.406606733798980713e-01 5.275757610797882080e-02 8.092355728149414062e-02
8.012000000000000000e+03 3.518665695190429688e+01 6.307390689849853516e+00 -8.637627363204956055e-01 -7.698526382446289062e-01 -4.900846183300018311e-01 -5.888949632644653320e-01
8.013000000000000000e+03 2.174008560180664062e+01 1.702195358276367188e+01 9.968727827072143555e-02 1.910858601331710815e-01 8.723194152116775513e-02 1.386618763208389282e-01
8.014000000000000000e+03 1.111143875122070312e+01 -1.161841201782226562e+01 -6.069320719689130783e-03 -5.141656398773193359e-01 -1.560704857110977173e-01 -5.299884080886840820e-01
8.015000000000000000e+03 7.292352294921875000e+01 2.681760215759277344e+01 4.195266664028167725e-01 4.397325992584228516e+00 1.445055842399597168e+00 2.012049198150634766e+00
8.016000000000000000e+03 2.646642684936523438e+01 1.938582992553710938e+01 1.125428527593612671e-01 1.595355123281478882e-01 8.162350952625274658e-02 1.342234611511230469e-01
8.017000000000000000e+03 7.045479583740234375e+01 -1.504414749145507812e+01 6.423737853765487671e-02 3.855218410491943359e+00 1.175836801528930664e+00 2.342083007097244263e-01
8.018000000000000000e+03 4.723222732543945312e+01 2.479478836059570312e+01 -1.222742080688476562e+00 -9.372447133064270020e-01 -6.479960083961486816e-01 -1.136267185211181641e+00
8.019000000000000000e+03 3.078374099731445312e+01 2.669861793518066406e+01 7.111057639122009277e-02 1.276235878467559814e-01 5.962024629116058350e-02 9.823983162641525269e-02
8.020000000000000000e+03 4.174026107788085938e+01 1.855190467834472656e+01 -9.726592898368835449e-01 -1.072411179542541504e+00 -6.135211586952209473e-01 -1.127218008041381836e+00
8.021000000000000000e+03 2.046209907531738281e+01 1.675064086914062500e+01 8.809906244277954102e-02 1.956734508275985718e-01 8.513175696134567261e-02 1.310054361820220947e-01
8.022000000000000000e+03 2.632257270812988281e+01 2.009619712829589844e+01 1.006331071257591248e-01 1.584174782037734985e-01 7.771518081426620483e-02 1.278927475214004517e-01
8.023000000000000000e+03 2.602396965026855469e+01 2.048120117187500000e+01 9.376044571399688721e-02 1.587201803922653198e-01 7.574418932199478149e-02 1.243677437305450439e-01
8.024000000000000000e+03 1.428177356719970703e+01 2.031789588928222656e+01 6.564652081578969955e-03 1.109462454915046692e-01 3.525327146053314209e-02 3.278092667460441589e-02
8.025000000000000000e+03 3.611555099487304688e+01 -1.938826680183410645e+00 2.498930990695953369e-01 -6.028583645820617676e-01 -1.058895811438560486e-01 4.565289989113807678e-02
8.026000000000000000e+03 4.114689254760742188e+01 -9.076084136962890625e+00 4.857921004295349121e-01 -2.840293645858764648e-01 6.052881851792335510e-02 2.327826805412769318e-02
8.027000000000000000e+03 6.885489654541015625e+01 -1.401327228546142578e+01 9.502993524074554443e-02 3.615719795227050781e+00 1.113224983215332031e+00 2.686520516872406006e-01
8.028000000000000000e+03 4.139546585083007812e+01 -8.047243118286132812e+00 4.823652505874633789e-01 -2.805511355400085449e-01 6.054423004388809204e-02 2.964531444013118744e-02
8.029000000000000000e+03 3.323818969726562500e+01 8.398284763097763062e-02 -1.431503891944885254e-01 -6.211510300636291504e-01 -2.292904406785964966e-01 1.700356788933277130e-02
8.030000000000000000e+03 7.110799407958984375e+01 -2.861186504364013672e+00 1.376591771841049194e-01 4.215116500854492188e+00 1.305832624435424805e+00 4.401419162750244141e-01
8.031000000000000000e+03 4.025283050537109375e+01 1.677803993225097656e+01 -9.926556348800659180e-01 -1.080300807952880859e+00 -6.218869090080261230e-01 -1.085295319557189941e+00
8.032000000000000000e+03 2.605921173095703125e+01 2.274346542358398438e+01 6.868276745080947876e-02 1.506690680980682373e-01 6.580555438995361328e-02 1.085866838693618774e-01
8.033000000000000000e+03 6.828119659423828125e+01 -1.555527591705322266e+01 8.367630839347839355e-02 3.515495061874389648e+00 1.079751372337341309e+00 2.618303596973419189e-01
8.034000000000000000e+03 6.762420654296875000e+01 -1.439682388305664062e+01 1.035147905349731445e-01 3.423762321472167969e+00 1.058183073997497559e+00 2.853505015373229980e-01
8.035000000000000000e+03 2.405380439758300781e+01 2.281815910339355469e+01 5.526522919535636902e-02 1.529342979192733765e-01 6.245985999703407288e-02 9.940665960311889648e-02
8.036000000000000000e+03 3.684801483154296875e+01 9.654756546020507812e+00 -8.829750418663024902e-01 -9.280246496200561523e-01 -5.432999134063720703e-01 -7.899298667907714844e-01
8.037000000000000000e+03 6.640262603759765625e+01 -6.950949668884277344e+00 1.964844316244125366e-01 3.243584871292114258e+00 1.032020807266235352e+00 4.083559513092041016e-01
8.038000000000000000e+03 6.992829895019531250e+01 -9.415423274040222168e-01 1.754403114318847656e-01 4.008793354034423828e+00 1.255270123481750488e+00 5.058177709579467773e-01
8.039000000000000000e+03 6.872225189208984375e+01 1.186842560768127441e+00 2.371158599853515625e-01 3.780722141265869141e+00 1.205351352691650391e+00 5.793406963348388672e-01
8.040000000000000000e+03 1.603911018371582031e+01 1.218513107299804688e+01 8.945288509130477905e-02 2.701524794101715088e-01 1.078816056251525879e-01 1.399807780981063843e-01
8.041000000000000000e+03 6.815326690673828125e+01 3.112529218196868896e-01 2.407459765672683716e-01 3.639619112014770508e+00 1.164109468460083008e+00 5.574104189872741699e-01
8.042000000000000000e+03 2.036117935180664062e+01 1.518607997894287109e+01 1.131032407283782959e-01 2.097745239734649658e-01 9.686332941055297852e-02 1.511333882808685303e-01
8.043000000000000000e+03 2.022229766845703125e+01 1.501612567901611328e+01 1.144597381353378296e-01 2.119939774274826050e-01 9.793611615896224976e-02 1.523658782243728638e-01
8.044000000000000000e+03 1.870873069763183594e+01 1.284525585174560547e+01 1.276416629552841187e-01 2.416528165340423584e-01 1.107883453369140625e-01 1.737695783376693726e-01
8.045000000000000000e+03 1.623292922973632812e+01 1.237793827056884766e+01 9.057915955781936646e-02 2.647981643676757812e-01 1.066131964325904846e-01 1.393025219440460205e-01
8.046000000000000000e+03 6.734375762939453125e+01 -1.523450469970703125e+01 1.031565442681312561e-01 3.355458736419677734e+00 1.037584662437438965e+00 2.610182762145996094e-01
8.047000000000000000e+03 2.567939567565917969e+01 2.086750221252441406e+01 8.619288355112075806e-02 1.591490656137466431e-01 7.360258698463439941e-02 1.206136345863342285e-01
8.048000000000000000e+03 1.325186061859130859e+01 8.461499214172363281e+00 9.469559788703918457e-02 4.125924408435821533e-01 1.521864086389541626e-01 7.023030519485473633e-02
8.049000000000000000e+03 1.336877632141113281e+01 8.725683212280273438e+00 9.492221474647521973e-02 3.853086233139038086e-01 1.440692543983459473e-01 7.969965040683746338e-02
8.050000000000000000e+03 1.300122833251953125e+01 9.094162940979003906e+00 8.969085663557052612e-02 3.471402823925018311e-01 1.310493350028991699e-01 5.579334124922752380e-02
8.051000000000000000e+03 3.654627609252929688e+01 2.870530843734741211e+00 -3.866152465343475342e-01 -6.023074984550476074e-01 -2.966768443584442139e-01 -1.727042496204376221e-01
8.052000000000000000e+03 6.719906616210937500e+01 -1.926846653223037720e-01 2.537158131599426270e-01 3.449183464050292969e+00 1.110869765281677246e+00 5.596743822097778320e-01
8.053000000000000000e+03 4.610888290405273438e+01 -1.281925010681152344e+01 3.679575920104980469e-01 2.387830466032028198e-01 1.820221841335296631e-01 7.094957679510116577e-02
8.054000000000000000e+03 4.773080062866210938e+01 2.531758117675781250e+01 -1.228155732154846191e+00 -9.234753847122192383e-01 -6.454893350601196289e-01 -1.137157678604125977e+00
8.055000000000000000e+03 4.237103271484375000e+01 2.013916778564453125e+01 -1.041113495826721191e+00 -1.128866910934448242e+00 -6.509941220283508301e-01 -1.160794138908386230e+00
8.056000000000000000e+03 1.994318962097167969e+01 1.516792392730712891e+01 1.079063341021537781e-01 2.103807628154754639e-01 9.548612684011459351e-02 1.478498876094818115e-01
8.057000000000000000e+03 3.516026306152343750e+01 1.675016522407531738e+00 -3.190621137619018555e-01 -6.037044525146484375e-01 -2.768299579620361328e-01 -7.408582419157028198e-02
8.058000000000000000e+03 9.442992210388183594e+00 1.106848335266113281e+01 7.951614260673522949e-02 6.924904882907867432e-02 4.462955892086029053e-02 -1.314150076359510422e-02
8.059000000000000000e+03 3.854195404052734375e+01 7.102262973785400391e+00 -5.862441062927246094e-01 -6.839321851730346680e-01 -3.810528814792633057e-01 -4.731200635433197021e-01
8.060000000000000000e+03 6.904093933105468750e+01 -2.791768312454223633e+00 1.785750240087509155e-01 3.795109272003173828e+00 1.192105293273925781e+00 4.823896288871765137e-01
8.061000000000000000e+03 3.688731002807617188e+01 6.011076927185058594e+00 -6.668818593025207520e-01 -7.034189701080322266e-01 -4.110902547836303711e-01 -4.642376005649566650e-01
8.062000000000000000e+03 1.273226070404052734e+01 1.237895679473876953e+01 5.267110839486122131e-02 2.109755277633666992e-01 7.909398525953292847e-02 4.291152209043502808e-02
8.063000000000000000e+03 6.723623657226562500e+01 2.490082168579101562e+01 3.032219111919403076e-01 1.265458464622497559e+00 4.706041216850280762e-01 3.270762264728546143e-01
8.064000000000000000e+03 3.744547653198242188e+01 6.333674907684326172e+00 -6.325564980506896973e-01 -6.979022026062011719e-01 -3.991376161575317383e-01 -4.612994790077209473e-01
8.065000000000000000e+03 2.046520614624023438e+01 1.537064743041992188e+01 1.104862838983535767e-01 2.072429358959197998e-01 9.531876444816589355e-02 1.487304121255874634e-01
8.066000000000000000e+03 3.963203430175781250e+01 -4.703104019165039062e+00 4.479516446590423584e-01 -4.424836039543151855e-01 1.640410977415740490e-03 5.418488010764122009e-02
8.067000000000000000e+03 1.724144363403320312e+01 1.511682415008544922e+01 7.070922851562500000e-02 2.152586430311203003e-01 8.579035848379135132e-02 1.167175993323326111e-01
8.068000000000000000e+03 4.258843231201171875e+01 1.975156974792480469e+01 -9.982363581657409668e-01 -1.090945243835449219e+00 -6.267544627189636230e-01 -1.130918979644775391e+00
8.069000000000000000e+03 1.270995044708251953e+01 8.908552169799804688e+00 9.352110326290130615e-02 3.452413082122802734e-01 1.316287219524383545e-01 3.940919786691665649e-02
8.070000000000000000e+03 4.034487152099609375e+01 -4.227299213409423828e+00 4.261977076530456543e-01 -4.004940688610076904e-01 7.711095735430717468e-03 5.704395100474357605e-02
8.071000000000000000e+03 3.568930435180664062e+01 1.593300938606262207e+00 -2.765894532203674316e-01 -6.073181033134460449e-01 -2.651722729206085205e-01 -7.531418651342391968e-02
8.072000000000000000e+03 4.942526245117187500e+01 -9.357503890991210938e+00 4.047738015651702881e-01 5.836496353149414062e-01 2.965270280838012695e-01 1.534243226051330566e-01
8.073000000000000000e+03 3.739762878417968750e+01 1.118654823303222656e+01 -9.131050109863281250e-01 -9.931543469429016113e-01 -5.718778371810913086e-01 -8.737216591835021973e-01
8.074000000000000000e+03 3.772269821166992188e+01 1.168064117431640625e+01 -9.103422760963439941e-01 -1.003158092498779297e+00 -5.740501284599304199e-01 -8.899114727973937988e-01
8.075000000000000000e+03 1.631331253051757812e+01 1.824807929992675781e+01 3.024314902722835541e-02 1.640869081020355225e-01 5.829901620745658875e-02 7.098609954118728638e-02
8.076000000000000000e+03 5.099349594116210938e+01 2.811893081665039062e+01 -1.276805877685546875e+00 -5.743128061294555664e-01 -5.553355813026428223e-01 -9.835225939750671387e-01
8.077000000000000000e+03 6.360166168212890625e+01 -9.444034576416015625e+00 2.222527712583541870e-01 2.754258632659912109e+00 8.929533958435058594e-01 3.571296632289886475e-01
8.078000000000000000e+03 3.988479232788085938e+01 -3.478987932205200195e+00 3.817946910858154297e-01 -4.375089406967163086e-01 -1.671426929533481598e-02 6.020577251911163330e-02
8.079000000000000000e+03 1.115219688415527344e+01 1.802189636230468750e+01 5.240054335445165634e-03 6.781394034624099731e-02 2.191619947552680969e-02 5.375531502068042755e-03
8.080000000000000000e+03 6.447468566894531250e+01 8.088727593421936035e-01 3.288455009460449219e-01 2.852434635162353516e+00 9.543840289115905762e-01 5.626907944679260254e-01
8.081000000000000000e+03 1.338536071777343750e+01 1.394116020202636719e+01 4.060449823737144470e-02 1.919222027063369751e-01 6.975801289081573486e-02 5.151815712451934814e-02
8.082000000000000000e+03 6.880387878417968750e+01 2.055952835083007812e+01 7.509694695472717285e-01 2.862260341644287109e+00 1.083968877792358398e+00 1.015131115913391113e+00
8.083000000000000000e+03 5.181156158447265625e+01 -6.611512184143066406e+00 4.033609926700592041e-01 8.457624912261962891e-01 3.747370541095733643e-01 2.199291586875915527e-01
8.084000000000000000e+03 1.490049648284912109e+01 1.411550807952880859e+01 5.210443213582038879e-02 2.160333096981048584e-01 8.044132590293884277e-02 8.480300754308700562e-02
8.085000000000000000e+03 1.245480060577392578e+01 1.739737510681152344e+01 1.202860567718744278e-02 1.080446764826774597e-01 3.602198511362075806e-02 2.158697322010993958e-02
8.086000000000000000e+03 6.299495697021484375e+01 -2.991184949874877930e+00 3.078771829605102539e-01 2.601959705352783203e+00 8.729510307312011719e-01 4.745560884475708008e-01
8.087000000000000000e+03 3.847998809814453125e+01 -4.141138553619384766e+00 4.277549088001251221e-01 -5.086310505867004395e-01 -2.426284551620483398e-02 5.382379889488220215e-02
8.088000000000000000e+03 5.123252487182617188e+01 2.679802131652832031e+01 -1.211899518966674805e+00 -4.591888487339019775e-01 -5.013265013694763184e-01 -9.659259915351867676e-01
8.089000000000000000e+03 1.107489204406738281e+01 1.224915409088134766e+01 5.357395857572555542e-02 1.454709172248840332e-01 5.971346050500869751e-02 5.810500588268041611e-03
8.090000000000000000e+03 1.027186107635498047e+01 1.205962562561035156e+01 5.909289419651031494e-02 1.085345074534416199e-01 5.028822273015975952e-02 -4.992458969354629517e-03
8.091000000000000000e+03 1.186106014251708984e+01 1.817791366577148438e+01 5.975805222988128662e-03 8.338320255279541016e-02 2.680770307779312134e-02 1.231162901967763901e-02
8.092000000000000000e+03 4.201884841918945312e+01 -3.703934431076049805e+00 3.895628452301025391e-01 -2.867177426815032959e-01 3.085353039205074310e-02 7.777547091245651245e-02
8.093000000000000000e+03 4.059554290771484375e+01 5.683426380157470703e+00 -3.270174860954284668e-01 -5.164683461189270020e-01 -2.530457377433776855e-01 -2.811171710491180420e-01
8.094000000000000000e+03 6.035552978515625000e+01 2.538790130615234375e+01 -6.456616520881652832e-01 3.213347196578979492e-01 -9.729808568954467773e-02 -7.657767534255981445e-01
8.095000000000000000e+03 6.289926147460937500e+01 2.545574378967285156e+01 -4.075475037097930908e-01 4.415062963962554932e-01 1.018763892352581024e-02 -5.489081740379333496e-01
8.096000000000000000e+03 5.642588806152343750e+01 2.670999717712402344e+01 -1.120775699615478516e+00 1.531922072172164917e-01 -2.902750670909881592e-01 -9.419722557067871094e-01
8.097000000000000000e+03 5.435543060302734375e+01 -5.888191699981689453e+00 3.915191590785980225e-01 1.208072900772094727e+00 4.798776209354400635e-01 2.893839478492736816e-01
8.098000000000000000e+03 3.846249008178710938e+01 1.452695941925048828e+01 -9.946290254592895508e-01 -1.130497336387634277e+00 -6.375378966331481934e-01 -1.038512229919433594e+00
8.099000000000000000e+03 1.056632423400878906e+01 1.253794765472412109e+01 5.141173303127288818e-02 1.173901036381721497e-01 5.064054951071739197e-02 1.250743283890187740e-03
8.100000000000000000e+03 4.027064514160156250e+01 3.014447689056396484e+00 -1.419292688369750977e-01 -4.697254002094268799e-01 -1.834964007139205933e-01 -1.202997490763664246e-01
8.101000000000000000e+03 4.065045547485351562e+01 3.361236333847045898e+00 -1.502024680376052856e-01 -4.566272497177124023e-01 -1.820489168167114258e-01 -1.328579485416412354e-01
8.102000000000000000e+03 1.242475605010986328e+01 1.495109081268310547e+01 2.928930334746837616e-02 1.472672373056411743e-01 5.296696349978446960e-02 2.907553501427173615e-02
8.103000000000000000e+03 4.251176834106445312e+01 -2.442031383514404297e+00 3.284393548965454102e-01 -2.551956474781036377e-01 2.197311259806156158e-02 7.496952265501022339e-02
8.104000000000000000e+03 4.195988464355468750e+01 -2.732577085494995117e+00 3.433401584625244141e-01 -3.043780028820037842e-01 1.168864034116268158e-02 7.195173203945159912e-02
8.105000000000000000e+03 4.952280807495117188e+01 2.457267570495605469e+01 -1.092341780662536621e+00 -6.260878443717956543e-01 -5.155289173126220703e-01 -9.843568801879882812e-01
8.106000000000000000e+03 6.120470809936523438e+01 2.467197608947753906e+01 -4.234900772571563721e-01 4.284042716026306152e-01 1.474258489906787872e-03 -6.304070949554443359e-01
8.107000000000000000e+03 4.670693588256835938e+01 -3.340390920639038086e+00 3.869096934795379639e-01 1.490781605243682861e-01 1.607963591814041138e-01 1.331053227186203003e-01
8.108000000000000000e+03 4.629172134399414062e+01 -2.056975364685058594e+00 3.460698723793029785e-01 8.215933293104171753e-02 1.284687668085098267e-01 1.197685226798057556e-01
8.109000000000000000e+03 5.484298706054687500e+01 -4.341672420501708984e+00 3.909139931201934814e-01 1.258048057556152344e+00 4.946886301040649414e-01 3.064481914043426514e-01
8.110000000000000000e+03 4.914509582519531250e+01 2.488200187683105469e+01 -1.134574532508850098e+00 -6.986966133117675781e-01 -5.499813556671142578e-01 -1.018964290618896484e+00
8.111000000000000000e+03 1.256049156188964844e+01 1.567682552337646484e+01 2.364050596952438354e-02 1.378346532583236694e-01 4.844255000352859497e-02 2.948384359478950500e-02
8.112000000000000000e+03 3.973954772949218750e+01 1.366999530792236328e+01 -8.716365694999694824e-01 -9.730368256568908691e-01 -5.534020066261291504e-01 -9.097972512245178223e-01
8.113000000000000000e+03 4.221194076538085938e+01 -1.834477543830871582e+00 3.027201294898986816e-01 -2.852326035499572754e-01 5.246249958872795105e-03 7.019770890474319458e-02
8.114000000000000000e+03 3.943672561645507812e+01 1.209353542327880859e+01 -8.070983886718750000e-01 -9.050828814506530762e-01 -5.136543512344360352e-01 -8.146641850471496582e-01
8.115000000000000000e+03 5.482831954956054688e+01 -3.518794059753417969e+00 3.925381898880004883e-01 1.234881639480590820e+00 4.882259368896484375e-01 3.079659342765808105e-01
8.116000000000000000e+03 5.227583694458007812e+01 2.583449554443359375e+01 -1.117800951004028320e+00 -2.747363150119781494e-01 -4.177612066268920898e-01 -9.260497093200683594e-01
8.117000000000000000e+03 5.232318496704101562e+01 2.544444847106933594e+01 -1.076999425888061523e+00 -2.618848085403442383e-01 -4.016652703285217285e-01 -9.153510332107543945e-01
8.118000000000000000e+03 4.817078781127929688e+01 -1.996693611145019531e+00 3.649722933769226074e-01 2.878144979476928711e-01 1.958360373973846436e-01 1.543925702571868896e-01
8.119000000000000000e+03 6.141743469238281250e+01 -3.014611721038818359e+00 3.315029144287109375e-01 2.315826416015625000e+00 7.941987514495849609e-01 4.517593383789062500e-01
8.120000000000000000e+03 6.488151550292968750e+01 2.042761039733886719e+01 5.224170684814453125e-01 1.538078308105468750e+00 6.181486248970031738e-01 3.345136642456054688e-01
8.121000000000000000e+03 6.427897644042968750e+01 1.992116355895996094e+01 4.900715351104736328e-01 1.476075768470764160e+00 5.898442268371582031e-01 2.842396497726440430e-01
8.122000000000000000e+03 4.124667358398437500e+01 1.160455894470214844e+01 -6.580056548118591309e-01 -7.493845224380493164e-01 -4.222170412540435791e-01 -6.859456300735473633e-01
8.123000000000000000e+03 4.644533157348632812e+01 2.160827255249023438e+01 -9.907666444778442383e-01 -8.626111745834350586e-01 -5.560133457183837891e-01 -9.921734929084777832e-01
8.124000000000000000e+03 4.142951583862304688e+01 3.869302511215209961e+00 -1.424123793840408325e-01 -4.228513836860656738e-01 -1.695791333913803101e-01 -1.444108486175537109e-01
8.125000000000000000e+03 4.016539764404296875e+01 1.379166698455810547e+01 -8.447899818420410156e-01 -9.401526451110839844e-01 -5.354827642440795898e-01 -8.876393437385559082e-01
8.126000000000000000e+03 4.153799057006835938e+01 -6.400325298309326172e-01 2.142453044652938843e-01 -3.453742861747741699e-01 -3.933868929743766785e-02 4.247220605611801147e-02
8.127000000000000000e+03 3.980163192749023438e+01 1.335649013519287109e+01 -8.528595566749572754e-01 -9.515416622161865234e-01 -5.413203835487365723e-01 -8.815474510192871094e-01
8.128000000000000000e+03 4.026581954956054688e+01 1.331891918182373047e+01 -8.150359988212585449e-01 -9.093183875083923340e-01 -5.173063278198242188e-01 -8.537255525588989258e-01
8.129000000000000000e+03 6.600758361816406250e+01 1.746790504455566406e+01 6.357625722885131836e-01 2.265412569046020508e+00 8.703525066375732422e-01 6.851931810379028320e-01
8.130000000000000000e+03 4.395022583007812500e+01 5.375965595245361328e+00 -1.076282858848571777e-01 -2.868504822254180908e-01 -1.183436289429664612e-01 -1.614407896995544434e-01
8.131000000000000000e+03 5.538311386108398438e+01 -2.638343095779418945e+00 3.842632770538330078e-01 1.284430265426635742e+00 5.006080865859985352e-01 3.275778293609619141e-01
8.132000000000000000e+03 5.413961410522460938e+01 -3.370431423187255859e+00 3.897223472595214844e-01 1.118501424789428711e+00 4.524671137332916260e-01 2.923641502857208252e-01
8.133000000000000000e+03 5.090571212768554688e+01 2.494329452514648438e+01 -1.073489785194396973e+00 -4.488455653190612793e-01 -4.567006230354309082e-01 -9.422131180763244629e-01
8.134000000000000000e+03 5.010902404785156250e+01 2.575090789794921875e+01 -1.160330653190612793e+00 -6.075239181518554688e-01 -5.303563475608825684e-01 -9.979762434959411621e-01
8.135000000000000000e+03 4.077444076538085938e+01 1.334630584716796875e+01 -7.806550264358520508e-01 -8.709237575531005859e-01 -4.954736232757568359e-01 -8.291699290275573730e-01
8.136000000000000000e+03 4.469762039184570312e+01 1.297774219512939453e+01 -4.936163723468780518e-01 -5.447185039520263672e-01 -3.115004599094390869e-01 -6.018853783607482910e-01
8.137000000000000000e+03 4.385707092285156250e+01 1.232038021087646484e+01 -5.161214470863342285e-01 -5.779825448989868164e-01 -3.282311856746673584e-01 -6.025755405426025391e-01
8.138000000000000000e+03 4.584758377075195312e+01 1.927031898498535156e+01 -8.080967664718627930e-01 -7.853431105613708496e-01 -4.780319333076477051e-01 -9.080680012702941895e-01
8.139000000000000000e+03 5.032665634155273438e+01 2.427665901184082031e+01 -1.039713859558105469e+00 -5.083819627761840820e-01 -4.644287228584289551e-01 -9.376230835914611816e-01
8.140000000000000000e+03 4.557915878295898438e+01 1.403360843658447266e+01 -4.918762445449829102e-01 -5.209432840347290039e-01 -3.038458526134490967e-01 -6.251873373985290527e-01
8.141000000000000000e+03 4.300661849975585938e+01 1.276207637786865234e+01 -5.934545397758483887e-01 -6.693702340126037598e-01 -3.788474202156066895e-01 -6.726360917091369629e-01
8.142000000000000000e+03 4.084048843383789062e+01 1.275870132446289062e+01 -7.432889342308044434e-01 -8.350495696067810059e-01 -4.735015630722045898e-01 -7.827794551849365234e-01
8.143000000000000000e+03 4.910034942626953125e+01 -1.404912114143371582e+00 3.598965704441070557e-01 3.897578418254852295e-01 2.248963266611099243e-01 1.723009347915649414e-01
8.144000000000000000e+03 5.523165130615234375e+01 -1.917432546615600586e+00 3.853795826435089111e-01 1.254074335098266602e+00 4.918361604213714600e-01 3.210530579090118408e-01
8.145000000000000000e+03 6.146792602539062500e+01 1.158043193817138672e+01 4.523319005966186523e-01 1.737452864646911621e+00 6.569354534149169922e-01 4.291192591190338135e-01
8.146000000000000000e+03 4.020746994018554688e+01 1.249031829833984375e+01 -7.688703536987304688e-01 -8.692578077316284180e-01 -4.914384484291076660e-01 -7.990610599517822266e-01
8.147000000000000000e+03 4.512704086303710938e+01 1.647266769409179688e+01 -6.644119620323181152e-01 -6.996986269950866699e-01 -4.092331826686859131e-01 -8.035993576049804688e-01
8.148000000000000000e+03 6.565060424804687500e+01 1.648293876647949219e+01 6.301207542419433594e-01 2.311947107315063477e+00 8.826203942298889160e-01 6.721164584159851074e-01
8.149000000000000000e+03 5.114634704589843750e+01 2.288313865661621094e+01 -8.821353912353515625e-01 -3.529185652732849121e-01 -3.705161809921264648e-01 -8.523426651954650879e-01
8.150000000000000000e+03 5.106589508056640625e+01 2.248701667785644531e+01 -8.466609716415405273e-01 -3.474274575710296631e-01 -3.582265377044677734e-01 -8.360044956207275391e-01
8.151000000000000000e+03 4.374699401855468750e+01 1.229699134826660156e+00 1.418833136558532715e-01 -2.136584073305130005e-01 -2.153252996504306793e-02 1.687191054224967957e-02
8.152000000000000000e+03 4.705028152465820312e+01 1.975046730041503906e+01 -7.928884029388427734e-01 -6.957456469535827637e-01 -4.465902149677276611e-01 -8.717421293258666992e-01
8.153000000000000000e+03 5.151087570190429688e+01 2.242328071594238281e+01 -8.156303167343139648e-01 -2.887625098228454590e-01 -3.313178420066833496e-01 -8.162905573844909668e-01
8.154000000000000000e+03 5.238190841674804688e+01 2.202242136001586914e+00 3.248519003391265869e-01 7.157899141311645508e-01 3.121925592422485352e-01 2.102752923965454102e-01
8.155000000000000000e+03 4.705759048461914062e+01 1.408667278289794922e+01 -4.027518928050994873e-01 -3.853235244750976562e-01 -2.364226281642913818e-01 -5.510790944099426270e-01
8.156000000000000000e+03 4.599003601074218750e+01 3.466056108474731445e+00 1.029935032129287720e-01 -5.553689971566200256e-02 1.423698011785745621e-02 -1.474733464419841766e-02
8.157000000000000000e+03 6.502700805664062500e+01 1.663873481750488281e+01 5.987901091575622559e-01 2.126604318618774414e+00 8.176183700561523438e-01 5.875731110572814941e-01
8.158000000000000000e+03 4.587042999267578125e+01 1.173174095153808594e+01 -3.461979031562805176e-01 -3.819848895072937012e-01 -2.184548377990722656e-01 -4.624276757240295410e-01
8.159000000000000000e+03 5.952839660644531250e+01 2.101088714599609375e+01 -7.235150784254074097e-02 5.912750363349914551e-01 1.556770503520965576e-01 -3.864264488220214844e-01
8.160000000000000000e+03 5.652081680297851562e+01 -6.309050321578979492e-01 3.817110657691955566e-01 1.409179210662841797e+00 5.372670888900756836e-01 3.587597012519836426e-01
8.161000000000000000e+03 4.670861434936523438e+01 1.743300914764404297e+00 1.989070177078247070e-01 4.550467804074287415e-02 7.332351058721542358e-02 6.233479455113410950e-02
8.162000000000000000e+03 4.751441574096679688e+01 1.918226623535156250e+01 -7.176468372344970703e-01 -6.145670413970947266e-01 -3.996641635894775391e-01 -8.158680796623229980e-01
8.163000000000000000e+03 4.762802505493164062e+01 1.942937469482421875e+01 -7.299446463584899902e-01 -6.158137321472167969e-01 -4.037275016307830811e-01 -8.200640678405761719e-01
8.164000000000000000e+03 4.751917266845703125e+01 1.982484817504882812e+01 -7.743417620658874512e-01 -6.504765152931213379e-01 -4.274454712867736816e-01 -8.481499552726745605e-01
8.165000000000000000e+03 4.585034561157226562e+01 9.360573768615722656e+00 -2.193661928176879883e-01 -2.744328379631042480e-01 -1.481397151947021484e-01 -3.177655339241027832e-01
8.166000000000000000e+03 5.789502716064453125e+01 1.873092079162597656e+01 -6.874054204672574997e-03 5.585339069366455078e-01 1.654979586601257324e-01 -2.954257130622863770e-01
8.167000000000000000e+03 4.615644836425781250e+01 1.334288024902343750e+01 -4.186649620532989502e-01 -4.305612146854400635e-01 -2.547678351402282715e-01 -5.494757890701293945e-01
8.168000000000000000e+03 4.648193740844726562e+01 1.334486389160156250e+01 -4.012422561645507812e-01 -4.081178009510040283e-01 -2.428080141544342041e-01 -5.342773199081420898e-01
8.169000000000000000e+03 4.633694839477539062e+01 1.309976768493652344e+01 -3.873956501483917236e-01 -4.034886062145233154e-01 -2.372652739286422729e-01 -5.263037085533142090e-01
8.170000000000000000e+03 4.810167694091796875e+01 1.623224020004272461e+00 2.517982125282287598e-01 2.103765606880187988e-01 1.386524289846420288e-01 9.911914914846420288e-02
8.171000000000000000e+03 5.799977493286132812e+01 4.884896278381347656e+00 3.858220279216766357e-01 1.487349987030029297e+00 5.619516372680664062e-01 3.773040771484375000e-01
8.172000000000000000e+03 5.352931594848632812e+01 2.067908477783203125e+01 -5.293968915939331055e-01 -1.418275479227304459e-02 -1.630738824605941772e-01 -6.564966440200805664e-01
8.173000000000000000e+03 5.420034027099609375e+01 1.998515892028808594e+01 -4.046461284160614014e-01 9.241886436939239502e-02 -9.366817772388458252e-02 -5.832729935646057129e-01
8.174000000000000000e+03 5.451605606079101562e+01 1.089962840080261230e+00 3.659251928329467773e-01 1.048737883567810059e+00 4.243988990783691406e-01 2.918089628219604492e-01
8.175000000000000000e+03 5.568002700805664062e+01 5.537342429161071777e-01 3.788232207298278809e-01 1.249897360801696777e+00 4.886161684989929199e-01 3.356136381626129150e-01
8.176000000000000000e+03 6.015190124511718750e+01 1.177452087402343750e+01 4.045365750789642334e-01 1.465211272239685059e+00 5.609243512153625488e-01 3.241749703884124756e-01
8.177000000000000000e+03 5.670114517211914062e+01 1.831171798706054688e+01 -7.879552245140075684e-02 4.534426033496856689e-01 1.123941242694854736e-01 -3.369673490524291992e-01
8.178000000000000000e+03 4.648177719116210938e+01 1.714461326599121094e+01 -6.230721473693847656e-01 -6.102803349494934082e-01 -3.700057566165924072e-01 -7.624720931053161621e-01
8.179000000000000000e+03 4.590950775146484375e+01 1.264325714111328125e+01 -3.941422998905181885e-01 -4.271775186061859131e-01 -2.463959455490112305e-01 -5.171411037445068359e-01
8.180000000000000000e+03 4.609340667724609375e+01 1.297016620635986328e+01 -3.871745169162750244e-01 -4.118116199970245361e-01 -2.396958321332931519e-01 -5.290478467941284180e-01
8.181000000000000000e+03 4.657804107666015625e+01 1.279096508026123047e+01 -3.539282381534576416e-01 -3.679947257041931152e-01 -2.165768891572952271e-01 -4.958045780658721924e-01
8.182000000000000000e+03 5.932934570312500000e+01 1.243729114532470703e+01 3.626690208911895752e-01 1.255993008613586426e+00 4.855985939502716064e-01 2.371734827756881714e-01
8.183000000000000000e+03 6.163244628906250000e+01 1.740498161315917969e+01 3.690316081047058105e-01 1.239453673362731934e+00 4.825455844402313232e-01 1.419764906167984009e-01
8.184000000000000000e+03 5.117576980590820312e+01 3.543274402618408203e+00 2.606685459613800049e-01 5.004656314849853516e-01 2.283402532339096069e-01 1.360043436288833618e-01
8.185000000000000000e+03 5.337585449218750000e+01 2.004125595092773438e+01 -4.550151824951171875e-01 1.171987783163785934e-02 -1.329885870218276978e-01 -6.174568533897399902e-01
8.186000000000000000e+03 5.183355331420898438e+01 2.031969833374023438e+01 -5.927303433418273926e-01 -1.835229247808456421e-01 -2.328759878873825073e-01 -6.920698285102844238e-01
8.187000000000000000e+03 4.860957336425781250e+01 1.924720764160156250e+01 -6.621974110603332520e-01 -4.943428635597229004e-01 -3.469620943069458008e-01 -7.629811763763427734e-01
8.188000000000000000e+03 4.658128738403320312e+01 1.683938598632812500e+01 -6.028884649276733398e-01 -5.892786383628845215e-01 -3.576501309871673584e-01 -7.409422993659973145e-01
8.189000000000000000e+03 5.885679244995117188e+01 1.731341934204101562e+01 1.791303008794784546e-01 8.111543655395507812e-01 2.970854043960571289e-01 -9.548358619213104248e-02
8.190000000000000000e+03 4.759107589721679688e+01 1.059263420104980469e+01 -1.865126490592956543e-01 -1.724442839622497559e-01 -1.076870784163475037e-01 -3.152362108230590820e-01
8.191000000000000000e+03 4.958919906616210938e+01 4.664866924285888672e+00 1.719969958066940308e-01 2.645803093910217285e-01 1.309731900691986084e-01 4.423992335796356201e-02
8.192000000000000000e+03 5.488606643676757812e+01 6.103118419647216797e+00 3.049660325050354004e-01 9.192634820938110352e-01 3.672688603401184082e-01 2.112438082695007324e-01
8.193000000000000000e+03 5.670684814453125000e+01 1.742551422119140625e+01 -1.943321316502988338e-03 5.179710388183593750e-01 1.548083126544952393e-01 -2.629706859588623047e-01
8.194000000000000000e+03 5.594244384765625000e+01 1.741409873962402344e+01 -6.574075669050216675e-02 4.149416387081146240e-01 1.047602593898773193e-01 -3.118639290332794189e-01
8.195000000000000000e+03 5.399855422973632812e+01 5.956991672515869141e+00 2.799017131328582764e-01 7.860543131828308105e-01 3.197868168354034424e-01 1.765145361423492432e-01
8.196000000000000000e+03 5.844236755371093750e+01 1.316841602325439453e+01 3.043405413627624512e-01 1.055610299110412598e+00 4.079852700233459473e-01 1.393020600080490112e-01
8.197000000000000000e+03 5.008160781860351562e+01 4.427987098693847656e+00 2.093250006437301636e-01 3.445150554180145264e-01 1.661520153284072876e-01 7.657837122678756714e-02
8.198000000000000000e+03 5.491037368774414062e+01 1.764486122131347656e+01 -1.612309813499450684e-01 2.675633132457733154e-01 3.189969807863235474e-02 -3.877509832382202148e-01
8.199000000000000000e+03 5.295287704467773438e+01 9.434258460998535156e+00 1.532106995582580566e-01 4.890196919441223145e-01 1.926691234111785889e-01 -2.716500079259276390e-03
8.200000000000000000e+03 5.454250717163085938e+01 1.067977428436279297e+01 1.821051537990570068e-01 6.303929090499877930e-01 2.437494248151779175e-01 2.217702195048332214e-02
8.201000000000000000e+03 5.428760528564453125e+01 5.231285572052001953e+00 3.043209016323089600e-01 8.552875518798828125e-01 3.478825390338897705e-01 2.103118300437927246e-01
8.202000000000000000e+03 5.260279846191406250e+01 6.289666652679443359e+00 2.336754351854324341e-01 5.915750861167907715e-01 2.475751638412475586e-01 1.138059198856353760e-01
8.203000000000000000e+03 4.985632705688476562e+01 5.156155586242675781e+00 1.550533473491668701e-01 2.758763432502746582e-01 1.292789131402969360e-01 3.607726097106933594e-02
8.204000000000000000e+03 5.033581924438476562e+01 5.446295738220214844e+00 1.675687879323959351e-01 3.256967961788177490e-01 1.479796767234802246e-01 4.385948553681373596e-02
8.205000000000000000e+03 5.648743438720703125e+01 1.192040443420410156e+01 2.386606186628341675e-01 8.338301777839660645e-01 3.217472434043884277e-01 7.180471718311309814e-02
8.206000000000000000e+03 4.945186996459960938e+01 7.448321819305419922e+00 6.644853204488754272e-02 1.548984944820404053e-01 6.640410423278808594e-02 -6.796082854270935059e-02
8.207000000000000000e+03 5.591702270507812500e+01 1.661924743652343750e+01 -3.160489955917000771e-03 4.614734351634979248e-01 1.374938786029815674e-01 -2.516793906688690186e-01
8.208000000000000000e+03 5.052423095703125000e+01 6.804478168487548828e+00 1.306003779172897339e-01 3.035095036029815674e-01 1.302329599857330322e-01 2.806039759889245033e-03
8.209000000000000000e+03 5.352868652343750000e+01 1.747159576416015625e+01 -2.316413372755050659e-01 1.374797523021697998e-01 -2.824847772717475891e-02 -4.438554048538208008e-01
8.210000000000000000e+03 5.282597732543945312e+01 8.237804412841796875e+00 1.861193478107452393e-01 5.364235043525695801e-01 2.167628556489944458e-01 4.123450443148612976e-02
8.211000000000000000e+03 5.265241622924804688e+01 8.715718269348144531e+00 1.653667837381362915e-01 4.916982948780059814e-01 1.971195191144943237e-01 1.544680818915367126e-02
8.212000000000000000e+03 5.184944915771484375e+01 1.621481895446777344e+01 -2.489769756793975830e-01 -7.595932111144065857e-04 -7.492097467184066772e-02 -4.411404728889465332e-01
8.213000000000000000e+03 5.024678421020507812e+01 6.355202198028564453e+00 1.461990773677825928e-01 2.947310209274291992e-01 1.322790384292602539e-01 9.321224875748157501e-03
8.214000000000000000e+03 5.073835754394531250e+01 1.581307411193847656e+01 -2.942653894424438477e-01 -9.814057499170303345e-02 -1.177217885851860046e-01 -4.697956442832946777e-01
8.215000000000000000e+03 5.204836654663085938e+01 7.835151672363281250e+00 1.612964570522308350e-01 4.341680109500885010e-01 1.786393374204635620e-01 2.320851944386959076e-02
8.216000000000000000e+03 5.190646743774414062e+01 8.850247383117675781e+00 1.171993389725685120e-01 3.777477741241455078e-01 1.484841406345367432e-01 -2.872528508305549622e-02
8.217000000000000000e+03 4.949704742431640625e+01 1.313128852844238281e+01 -2.010680139064788818e-01 -1.005167886614799500e-01 -9.047544002532958984e-02 -3.716262578964233398e-01
8.218000000000000000e+03 5.182995223999023438e+01 8.356717109680175781e+00 1.335092335939407349e-01 3.842441439628601074e-01 1.553260087966918945e-01 -7.359839044511318207e-03
8.219000000000000000e+03 5.550015640258789062e+01 1.170570087432861328e+01 1.952962875366210938e-01 7.053493261337280273e-01 2.701936662197113037e-01 2.367223612964153290e-02
8.220000000000000000e+03 5.223305130004882812e+01 8.502302169799804688e+00 1.544892191886901855e-01 4.431325495243072510e-01 1.792865246534347534e-01 6.500934250652790070e-03
8.221000000000000000e+03 5.213313674926757812e+01 1.402506065368652344e+01 -1.010776460170745850e-01 1.490060836076736450e-01 1.437852997332811356e-02 -2.913332283496856689e-01
8.222000000000000000e+03 5.140885925292968750e+01 1.345003128051757812e+01 -1.138376146554946899e-01 9.574545919895172119e-02 -5.427647382020950317e-03 -2.958625257015228271e-01
8.223000000000000000e+03 5.423495864868164062e+01 1.524843406677246094e+01 -3.893131390213966370e-02 3.402525186538696289e-01 9.039636701345443726e-02 -2.542968392372131348e-01
8.224000000000000000e+03 5.188448333740234375e+01 1.313229846954345703e+01 -6.621934473514556885e-02 1.647635698318481445e-01 2.956326678395271301e-02 -2.523812651634216309e-01
8.225000000000000000e+03 5.159114074707031250e+01 1.395811653137207031e+01 -1.249309331178665161e-01 9.053666144609451294e-02 -1.031828206032514572e-02 -3.132553994655609131e-01
8.226000000000000000e+03 2.584277725219726562e+01 7.212254047393798828e+00 -6.299335479736328125e+00 -3.359261512756347656e+00 -2.897579193115234375e+00 -4.773393154144287109e+00
8.227000000000000000e+03 2.572050476074218750e+01 7.138142585754394531e+00 -6.496117591857910156e+00 -3.180536508560180664e+00 -2.902996063232421875e+00 -4.479522228240966797e+00
8.228000000000000000e+03 2.634967613220214844e+01 7.597614288330078125e+00 -5.876629352569580078e+00 -3.594601392745971680e+00 -2.841369152069091797e+00 -4.681327342987060547e+00
8.229000000000000000e+03 2.616417312622070312e+01 7.453861713409423828e+00 -6.603813648223876953e+00 -4.097520351409912109e+00 -3.210400104522705078e+00 -4.907393932342529297e+00
8.230000000000000000e+03 2.604978561401367188e+01 7.369872093200683594e+00 -5.084057331085205078e+00 -2.956240653991699219e+00 -2.412089586257934570e+00 -4.568944454193115234e+00
8.231000000000000000e+03 2.604959678649902344e+01 7.352680683135986328e+00 -5.899312496185302734e+00 -3.178820133209228516e+00 -2.723439931869506836e+00 -4.896739006042480469e+00
8.232000000000000000e+03 2.595771026611328125e+01 7.307220458984375000e+00 -7.532033920288085938e+00 -3.968368530273437500e+00 -3.450120925903320312e+00 -4.813232898712158203e+00
8.233000000000000000e+03 2.575144386291503906e+01 7.166223526000976562e+00 -6.499135017395019531e+00 -3.223722219467163086e+00 -2.916857242584228516e+00 -4.582145214080810547e+00
8.234000000000000000e+03 2.577333450317382812e+01 7.179028987884521484e+00 -6.355752468109130859e+00 -3.099066019058227539e+00 -2.836445569992065430e+00 -4.011634349822998047e+00
8.235000000000000000e+03 2.584228134155273438e+01 7.227873802185058594e+00 -6.337483882904052734e+00 -3.283897161483764648e+00 -2.886414289474487305e+00 -4.843330383300781250e+00
8.236000000000000000e+03 2.585171890258789062e+01 7.226961135864257812e+00 -6.305561065673828125e+00 -3.400608539581298828e+00 -2.911850929260253906e+00 -5.072709560394287109e+00
8.237000000000000000e+03 2.605846405029296875e+01 7.388578891754150391e+00 -6.206593513488769531e+00 -3.573509216308593750e+00 -2.934030771255493164e+00 -4.763464927673339844e+00
8.238000000000000000e+03 1.440292835235595703e+01 9.630931019783020020e-01 3.552829504013061523e+00 2.954263687133789062e+00 1.952127933502197266e+00 -2.337410449981689453e+00
8.239000000000000000e+03 1.114653110504150391e+01 1.993262022733688354e-01 -2.357245683670043945e+00 -1.993631422519683838e-01 -7.669826745986938477e-01 7.163425683975219727e-01
8.240000000000000000e+03 1.121876430511474609e+01 9.378392100334167480e-01 -1.060714006423950195e+00 -4.817288517951965332e-01 -4.627328515052795410e-01 8.336467146873474121e-01
8.241000000000000000e+03 1.040455722808837891e+01 3.265222907066345215e-01 -1.895657658576965332e+00 -2.211176604032516479e-01 -6.350325942039489746e-01 5.076019167900085449e-01
8.242000000000000000e+03 1.188854217529296875e+01 7.071893662214279175e-02 -3.030705451965332031e+00 -3.073430955410003662e-01 -1.001414537429809570e+00 9.238619804382324219e-01
8.243000000000000000e+03 1.271423625946044922e+01 6.772393584251403809e-01 -1.236675739288330078e+00 -4.224888682365417480e-01 -4.977493882179260254e-01 1.167241454124450684e+00
8.244000000000000000e+03 1.263056278228759766e+01 -5.929099395871162415e-02 -3.819107532501220703e+00 -1.904682368040084839e-01 -1.202872753143310547e+00 1.083567619323730469e+00
8.245000000000000000e+03 1.047107124328613281e+01 1.066026568412780762e+00 -9.067209362983703613e-01 -3.797846734523773193e-01 -3.859516978263854980e-01 6.513964533805847168e-01
8.246000000000000000e+03 1.196649551391601562e+01 8.082405924797058105e-01 -1.100517392158508301e+00 -4.231745600700378418e-01 -4.571075737476348877e-01 9.908393621444702148e-01
8.247000000000000000e+03 9.729189872741699219e+00 1.127164006233215332e+00 -8.078319430351257324e-01 -2.909617722034454346e-01 -3.296381235122680664e-01 5.572334527969360352e-01
8.248000000000000000e+03 8.895327568054199219e+00 3.831142783164978027e-01 -9.978848099708557129e-01 -3.520859405398368835e-02 -3.099280297756195068e-01 1.518979519605636597e-01
8.249000000000000000e+03 8.136641502380371094e+00 3.810498118400573730e-01 -7.327287793159484863e-01 -1.255006808787584305e-02 -2.235836535692214966e-01 1.047091260552406311e-01
8.250000000000000000e+03 6.620836257934570312e+00 3.807878792285919189e-01 -4.016284346580505371e-01 -4.971850663423538208e-03 -1.219800785183906555e-01 6.000975146889686584e-02
8.251000000000000000e+03 5.863288402557373047e+00 3.777014017105102539e-01 -2.914436459541320801e-01 -7.251735776662826538e-03 -8.960861712694168091e-02 4.626720398664474487e-02
8.252000000000000000e+03 5.318059444427490234e+00 1.113148808479309082e+00 -2.130105495452880859e-01 -2.178106084465980530e-02 -7.043748348951339722e-02 1.107540056109428406e-01
8.253000000000000000e+03 4.347115039825439453e+00 3.710395395755767822e-01 -1.346818208694458008e-01 -4.092094954103231430e-03 -4.163217544555664062e-02 2.888488955795764923e-02
8.254000000000000000e+03 2.831676959991455078e+00 3.606979846954345703e-01 -4.034743085503578186e-02 -3.412844846025109291e-03 -1.312808226794004440e-02 1.569333672523498535e-02
8.255000000000000000e+03 2.076213359832763672e+00 3.580279946327209473e-01 -1.418797206133604050e-02 -2.415797905996441841e-03 -4.981130827218294144e-03 9.616735391318798065e-03
8.256000000000000000e+03 2.380638122558593750e+00 1.098027944564819336e+00 -4.144883900880813599e-02 -1.507856324315071106e-02 -1.695822179317474365e-02 3.604629635810852051e-02
8.257000000000000000e+03 1.333085298538208008e+00 3.664900958538055420e-01 -2.631837967783212662e-03 -2.922928193584084511e-03 -1.666429801844060421e-03 3.179267980158329010e-03
8.258000000000000000e+03 1.660440564155578613e+00 1.106490135192871094e+00 -2.039001323282718658e-02 -1.415237784385681152e-02 -1.036271732300519943e-02 2.128191478550434113e-02
8.259000000000000000e+03 6.547182202339172363e-01 3.947406113147735596e-01 5.147679476067423820e-04 -5.043179844506084919e-04 3.134980943286791444e-06 9.301092359237372875e-04
8.260000000000000000e+03 3.519233465194702148e-01 9.575628638267517090e-01 -1.883387449197471142e-03 -2.061897190287709236e-03 -1.183585380204021931e-03 1.138934632763266563e-03
8.261000000000000000e+03 3.113171100616455078e+00 1.100697994232177734e+00 -7.030186802148818970e-02 -1.367731951177120209e-02 -2.519375644624233246e-02 5.295509845018386841e-02
8.262000000000000000e+03 3.588829517364501953e+00 3.677253723144531250e-01 -8.056633174419403076e-02 -2.308196621015667915e-03 -2.486236020922660828e-02 2.263711951673030853e-02
8.263000000000000000e+03 5.105357170104980469e+00 3.731488585472106934e-01 -2.043066769838333130e-01 -2.716877264901995659e-03 -6.210706755518913269e-02 3.690463677048683167e-02
8.264000000000000000e+03 6.053060531616210938e+00 1.117701411247253418e+00 -2.834189236164093018e-01 -2.460191398859024048e-02 -9.240625053644180298e-02 1.376888602972030640e-01
8.265000000000000000e+03 7.522262096405029297e+00 1.121038317680358887e+00 -4.713585376739501953e-01 -4.912159964442253113e-02 -1.561440378427505493e-01 2.211865037679672241e-01
8.266000000000000000e+03 7.378351211547851562e+00 3.810383677482604980e-01 -5.435980558395385742e-01 -1.298555172979831696e-02 -1.669750809669494629e-01 7.724810391664505005e-02
8.267000000000000000e+03 8.257620811462402344e+00 1.121049761772155762e+00 -5.993159413337707520e-01 -7.986529171466827393e-02 -2.037543803453445435e-01 2.912214994430541992e-01
8.268000000000000000e+03 8.993377685546875000e+00 1.123114228248596191e+00 -7.568086385726928711e-01 -1.411467045545578003e-01 -2.693865895271301270e-01 4.076774120330810547e-01
8.269000000000000000e+03 9.654070854187011719e+00 3.871639966964721680e-01 -1.442354798316955566e+00 -9.752052277326583862e-02 -4.619625806808471680e-01 2.847695648670196533e-01
8.270000000000000000e+03 6.787677288055419922e+00 1.120787858963012695e+00 -3.674599826335906982e-01 -3.828326985239982605e-02 -1.217229738831520081e-01 1.728694289922714233e-01
8.271000000000000000e+03 4.582747936248779297e+00 1.111039519309997559e+00 -1.553162783384323120e-01 -1.565065607428550720e-02 -5.129007995128631592e-02 8.945971727371215820e-02
8.272000000000000000e+03 3.847393035888671875e+00 1.107725381851196289e+00 -1.077964380383491516e-01 -1.599351689219474792e-02 -3.713698685169219971e-02 7.028585672378540039e-02
8.273000000000000000e+03 1.005004048347473145e+00 1.134740591049194336e+00 -8.945669047534465790e-03 -1.220056042075157166e-02 -6.343868561089038849e-03 9.270326234400272369e-03
8.274000000000000000e+03 9.574274063110351562e+00 -3.935540616512298584e-01 -8.295213431119918823e-02 -2.101456979289650917e-03 -2.551607601344585419e-02 -9.047110565006732941e-03
8.275000000000000000e+03 8.789978027343750000e+00 -3.986168801784515381e-01 -6.297405809164047241e-02 4.478297196328639984e-03 -1.754872873425483704e-02 -1.133358385413885117e-02
8.276000000000000000e+03 8.686211585998535156e+00 -1.138616919517517090e+00 -1.258524954319000244e-01 -8.401231840252876282e-03 -4.027611762285232544e-02 -3.873442113399505615e-02
8.277000000000000000e+03 8.006248474121093750e+00 -3.998050093650817871e-01 -3.939054161310195923e-02 -5.085935816168785095e-03 -1.334294304251670837e-02 -1.162706781178712845e-02
8.278000000000000000e+03 7.223060607910156250e+00 -3.997795581817626953e-01 -1.848977431654930115e-02 3.408768912777304649e-03 -4.524301271885633469e-03 -8.886056952178478241e-03
8.279000000000000000e+03 6.439927577972412109e+00 -4.006183743476867676e-01 -4.502416995819658041e-04 -5.209267139434814453e-03 -1.697852625511586666e-03 -8.467641659080982208e-03
8.280000000000000000e+03 5.657042503356933594e+00 -4.034312665462493896e-01 1.317053847014904022e-02 2.467825775966048241e-03 4.691509529948234558e-03 -4.249554593116044998e-03
8.281000000000000000e+03 4.874185085296630859e+00 -4.075828790664672852e-01 2.175985090434551239e-02 -4.254871513694524765e-03 5.251493770629167557e-03 -3.894087858498096466e-03
8.282000000000000000e+03 4.091480255126953125e+00 -4.106692969799041748e-01 2.636203914880752563e-02 1.118483487516641617e-03 8.244156837463378906e-03 3.972262202296406031e-04
8.283000000000000000e+03 3.310033082962036133e+00 -4.133046567440032959e-01 2.537445537745952606e-02 -2.920735860243439674e-03 6.736116018146276474e-03 1.290731714107096195e-03
8.284000000000000000e+03 2.531398296356201172e+00 -4.163123965263366699e-01 2.089527063071727753e-02 7.939797360450029373e-04 6.506775040179491043e-03 4.221952985972166061e-03
8.285000000000000000e+03 6.962535381317138672e-01 -1.126455783843994141e+00 8.742869249545037746e-04 3.909293096512556076e-03 1.435074023902416229e-03 5.043585319072008133e-03
8.286000000000000000e+03 3.739950358867645264e-01 -5.643373131752014160e-01 8.536851964890956879e-04 2.794428728520870209e-03 1.094434177502989769e-03 1.555666327476501465e-03
8.287000000000000000e+03 9.497249603271484375e+00 -1.133554100990295410e+00 -1.693889349699020386e-01 9.985617361962795258e-03 -4.782099649310112000e-02 -4.119273275136947632e-02
8.288000000000000000e+03 7.875741004943847656e+00 -1.139804959297180176e+00 -9.542489051818847656e-02 3.300488460808992386e-03 -2.763731963932514191e-02 -3.490078449249267578e-02
8.289000000000000000e+03 7.065812587738037109e+00 -1.139779567718505859e+00 -6.530504673719406128e-02 -1.085875742137432098e-02 -2.284914068877696991e-02 -3.076567687094211578e-02
8.290000000000000000e+03 6.255938053131103516e+00 -1.140618443489074707e+00 -4.371668398380279541e-02 1.278788404306396842e-04 -1.307664159685373306e-02 -2.249670773744583130e-02
8.291000000000000000e+03 5.446311473846435547e+00 -1.143431305885314941e+00 -2.474184520542621613e-02 -1.026668678969144821e-02 -1.050255913287401199e-02 -1.810996606945991516e-02
8.292000000000000000e+03 4.636712551116943359e+00 -1.147582888603210449e+00 -1.199425943195819855e-02 -1.528166700154542923e-03 -4.056727513670921326e-03 -8.478807285428047180e-03
8.293000000000000000e+03 3.827266693115234375e+00 -1.150669336318969727e+00 -3.161955624818801880e-03 -8.334957994520664215e-03 -3.449073992669582367e-03 -4.621117841452360153e-03
8.294000000000000000e+03 3.019078254699707031e+00 -1.153304696083068848e+00 3.174276789650321007e-03 -2.663321560248732567e-03 1.532866008346900344e-04 3.950915765017271042e-03
8.295000000000000000e+03 2.213702201843261719e+00 -1.156312346458435059e+00 4.509676247835159302e-03 -3.183186985552310944e-03 3.979467728640884161e-04 7.755562663078308105e-03
8.296000000000000000e+03 1.420517802238464355e+00 -1.151062846183776855e+00 2.668123459443449974e-03 3.667605575174093246e-03 1.900718663819134235e-03 1.029322296380996704e-02
8.297000000000000000e+03 1.764955043792724609e+00 -4.110628962516784668e-01 1.332348957657814026e-02 4.956201519235037267e-05 4.011915531009435654e-03 3.696137107908725739e-03
8.298000000000000000e+03 1.067432165145874023e+00 -3.864558041095733643e-01 5.948334001004695892e-03 -3.306457656435668468e-04 1.685306546278297901e-03 3.290151711553335190e-03
8.299000000000000000e+03 1.107046413421630859e+01 -5.791122317314147949e-01 -1.781342774629592896e-01 4.883391666226089001e-04 -5.329378321766853333e-02 -1.183246728032827377e-03
8.300000000000000000e+03 1.172848224639892578e+01 -1.444193720817565918e+00 -3.823811113834381104e-01 -5.881568416953086853e-03 -1.164788007736206055e-01 -7.265591621398925781e-02
8.301000000000000000e+03 1.026795482635498047e+01 -1.192459702491760254e+00 -2.183497995138168335e-01 -2.912697615101933479e-03 -6.637874990701675415e-02 -4.410034045577049255e-02
8.302000000000000000e+03 1.245870399475097656e+01 -1.572161674499511719e+00 -4.909309148788452148e-01 4.120859317481517792e-03 -1.460430175065994263e-01 -1.079010441899299622e-01
8.303000000000000000e+03 1.254237651824951172e+01 -8.356313705444335938e-01 -3.734926879405975342e-01 1.898330636322498322e-03 -1.114783063530921936e-01 -1.573282293975353241e-03
8.304000000000000000e+03 1.180643558502197266e+01 -7.066720724105834961e-01 -2.595030069351196289e-01 -7.061025244183838367e-04 -7.806273549795150757e-02 -2.941871061921119690e-03
8.305000000000000000e+03 1.099823093414306641e+01 -1.317625284194946289e+00 -2.943584322929382324e-01 1.470846775919198990e-02 -8.389498293399810791e-02 -6.053006276488304138e-02
8.306000000000000000e+03 1.033446884155273438e+01 -4.529553353786468506e-01 -1.197550743818283081e-01 5.905610974878072739e-03 -3.415483981370925903e-02 -6.459192838519811630e-03
8.307000000000000000e+03 1.412816143035888672e+01 -9.967193007469177246e-01 -6.428887248039245605e-01 6.461889017373323441e-03 -1.909280568361282349e-01 -4.642638191580772400e-02
8.308000000000000000e+03 1.524391746520996094e+01 -1.466321945190429688e+00 -1.047812819480895996e+00 -1.211877390742301941e-01 -3.507001698017120361e-01 -3.182545602321624756e-01
8.309000000000000000e+03 1.616965675354003906e+01 -1.725686669349670410e+00 -1.313645482063293457e+00 -3.181456625461578369e-01 -4.895373284816741943e-01 -4.814779758453369141e-01
8.310000000000000000e+03 1.574865627288818359e+01 -1.673639893531799316e+00 -1.256895065307617188e+00 -3.335730135440826416e-01 -4.771404266357421875e-01 -4.574586451053619385e-01
8.311000000000000000e+03 1.561703586578369141e+01 -9.138993620872497559e-01 -1.247918844223022461e+00 -1.109687462449073792e-01 -4.076662659645080566e-01 -1.465618908405303955e-01
8.312000000000000000e+03 1.330834674835205078e+01 -9.333403110504150391e-01 -5.036734342575073242e-01 -2.186672575771808624e-02 -1.576620638370513916e-01 -2.736216224730014801e-02
8.313000000000000000e+03 1.325672912597656250e+01 -1.671557903289794922e+00 -6.256372332572937012e-01 -3.517068177461624146e-02 -1.982423812150955200e-01 -1.320438235998153687e-01
8.314000000000000000e+03 1.414637279510498047e+01 -1.739302992820739746e+00 -8.169429898262023926e-01 -1.473849173635244370e-02 -2.495044469833374023e-01 -1.827943176031112671e-01
8.315000000000000000e+03 1.646326637268066406e+01 -1.909508228302001953e+00 -1.446251511573791504e+00 -6.057536602020263672e-01 -6.156015396118164062e-01 -6.771031022071838379e-01
8.316000000000000000e+03 1.419766807556152344e+01 -2.838388085365295410e-01 -6.680605888366699219e+00 2.514120638370513916e-01 -1.928758144378662109e+00 1.124127388000488281e+00
8.317000000000000000e+03 1.352537155151367188e+01 5.852731466293334961e-01 -6.776996254920959473e-01 6.728530675172805786e-02 -1.831242889165878296e-01 1.038812756538391113e+00
8.318000000000000000e+03 1.342303657531738281e+01 -1.497735083103179932e-01 -5.086768150329589844e+00 -1.806221604347229004e-01 -1.580217123031616211e+00 1.188712358474731445e+00
8.319000000000000000e+03 1.515072631835937500e+01 6.366986036300659180e-01 5.091281414031982422e+00 1.447276830673217773e+00 1.961567521095275879e+00 -1.673454284667968750e+00
8.320000000000000000e+03 1.436956024169921875e+01 6.066150665283203125e-01 1.719599127769470215e+00 1.820639014244079590e+00 1.062071442604064941e+00 -6.396967768669128418e-01
8.321000000000000000e+03 2.157444953918457031e+01 4.003563880920410156e+00 -2.325049638748168945e+00 -1.313754081726074219e+00 -1.091641187667846680e+00 -1.791230201721191406e+00
8.322000000000000000e+03 2.389948272705078125e+01 5.596093177795410156e+00 -4.943207263946533203e+00 -2.356947660446166992e+00 -2.190046548843383789e+00 -3.334247112274169922e+00
8.323000000000000000e+03 2.412474632263183594e+01 4.887040615081787109e+00 1.025549173355102539e+00 -1.696827262639999390e-01 2.567599415779113770e-01 3.759031593799591064e-01
8.324000000000000000e+03 1.590177440643310547e+01 -5.061372518539428711e-01 -4.495907783508300781e+00 -2.788710594177246094e-01 -1.432433605194091797e+00 -1.323901772499084473e+00
8.325000000000000000e+03 1.952704048156738281e+01 2.294429063796997070e+00 -6.148321628570556641e-01 -9.802426099777221680e-01 -4.785224199295043945e-01 -1.001798272132873535e+00
8.326000000000000000e+03 2.090116500854492188e+01 2.502764463424682617e+00 -5.087845921516418457e-01 -3.320569097995758057e-01 -2.522524595260620117e-01 -4.291908442974090576e-01
8.327000000000000000e+03 2.118369483947753906e+01 2.726105928421020508e+00 -3.744374588131904602e-02 -1.889094859361648560e-01 -6.790596991777420044e-02 -2.266041487455368042e-01
8.328000000000000000e+03 2.619468307495117188e+01 6.949645519256591797e+00 -3.145305633544921875e+00 -1.818983554840087891e+00 -1.489286780357360840e+00 -2.320393800735473633e+00
8.329000000000000000e+03 2.673808860778808594e+01 7.608308792114257812e+00 -4.311884403228759766e+00 -2.611687898635864258e+00 -2.077071666717529297e+00 -3.325352668762207031e+00
8.330000000000000000e+03 2.781131172180175781e+01 8.301882743835449219e+00 -3.204447984695434570e+00 -1.303622484207153320e+00 -1.352421164512634277e+00 -2.096349239349365234e+00
8.331000000000000000e+03 2.843750381469726562e+01 8.249814033508300781e+00 -2.117203712463378906e+00 -8.908789604902267456e-03 -6.378337740898132324e-01 -8.160785436630249023e-01
8.332000000000000000e+03 2.872324943542480469e+01 8.505600929260253906e+00 -2.291473865509033203e+00 -9.872691631317138672e-01 -9.836228489875793457e-01 -9.624658823013305664e-01
8.333000000000000000e+03 2.901180076599121094e+01 8.513568878173828125e+00 -1.923103332519531250e+00 -7.947805523872375488e-01 -8.153651356697082520e-01 -7.133612036705017090e-01
8.334000000000000000e+03 2.951800727844238281e+01 8.114252090454101562e+00 -9.169157147407531738e-01 -1.174127340316772461e+00 -6.273129582405090332e-01 -6.511914134025573730e-01
8.335000000000000000e+03 2.974779701232910156e+01 7.457363605499267578e+00 -7.094595432281494141e-01 -1.564441323280334473e+00 -6.821702718734741211e-01 -1.245702862739562988e+00
8.336000000000000000e+03 2.969834518432617188e+01 6.596699714660644531e+00 -1.678166389465332031e+00 -1.171735644340515137e+00 -8.549706339836120605e-01 -1.441888213157653809e+00
8.337000000000000000e+03 2.914324760437011719e+01 6.185403347015380859e+00 -2.168886423110961914e+00 -1.400588154792785645e+00 -1.070842385292053223e+00 -1.330478787422180176e+00
8.338000000000000000e+03 2.731749725341796875e+01 6.180770397186279297e+00 -3.185448169708251953e+00 -1.299935817718505859e+00 -1.345615148544311523e+00 -2.020880460739135742e+00
8.339000000000000000e+03 2.667770767211914062e+01 5.437873363494873047e+00 -3.064176797866821289e+00 -1.170210719108581543e+00 -1.270316243171691895e+00 -1.861026883125305176e+00
8.340000000000000000e+03 2.510387229919433594e+01 4.538621902465820312e+00 -3.381198406219482422e+00 -1.174205660820007324e+00 -1.366621255874633789e+00 -1.988963603973388672e+00
8.341000000000000000e+03 2.605690193176269531e+01 5.097530364990234375e+00 -3.163107633590698242e+00 -1.152926445007324219e+00 -1.294810175895690918e+00 -1.889399290084838867e+00
8.342000000000000000e+03 2.561135482788085938e+01 5.157556533813476562e+00 -3.263908386230468750e+00 -1.224370002746582031e+00 -1.346483469009399414e+00 -2.021070718765258789e+00
8.343000000000000000e+03 2.728079605102539062e+01 4.737926959991455078e+00 -2.594892024993896484e+00 -1.095570206642150879e+00 -1.107138633728027344e+00 -1.470208287239074707e+00
8.344000000000000000e+03 2.848536109924316406e+01 5.469244956970214844e+00 -2.282038211822509766e+00 -1.377490520477294922e+00 -1.097858667373657227e+00 -1.350131511688232422e+00
8.345000000000000000e+03 2.787462043762207031e+01 6.200993061065673828e+00 -2.966264247894287109e+00 -1.576353669166564941e+00 -1.362785339355468750e+00 -2.056915998458862305e+00
8.346000000000000000e+03 2.660818672180175781e+01 6.537590503692626953e+00 1.253857254981994629e+00 2.638240158557891846e-01 4.553043842315673828e-01 6.288727521896362305e-01
8.347000000000000000e+03 2.734742164611816406e+01 6.542398452758789062e+00 3.998538017272949219e+00 1.468860507011413574e+00 1.640219569206237793e+00 2.443650960922241211e+00
8.348000000000000000e+03 2.703376388549804688e+01 6.653264045715332031e+00 1.980957150459289551e+00 8.507182598114013672e-01 8.495026230812072754e-01 1.277825593948364258e+00
8.349000000000000000e+03 2.627173042297363281e+01 4.064880847930908203e+00 -2.795625686645507812e+00 -8.944942951202392578e-01 -1.107035994529724121e+00 -1.446382164955139160e+00
8.350000000000000000e+03 2.386675453186035156e+01 2.603332996368408203e+00 -3.271611452102661133e+00 -7.200047373771667480e-01 -1.197484850883483887e+00 -1.559207201004028320e+00
8.351000000000000000e+03 2.220455932617187500e+01 3.039056539535522461e+00 -4.583002090454101562e+00 -1.654693603515625000e+00 -1.871308684349060059e+00 -2.821517229080200195e+00
8.352000000000000000e+03 2.217053604125976562e+01 1.547746300697326660e+00 -3.005058526992797852e+00 -8.260909914970397949e-01 -1.149344801902770996e+00 -1.984738826751708984e+00
8.353000000000000000e+03 2.025352096557617188e+01 4.149144887924194336e-01 -1.185927033424377441e+00 -2.629538536071777344e+00 -1.144639611244201660e+00 -3.161314249038696289e+00
8.354000000000000000e+03 1.814858818054199219e+01 4.918190240859985352e-01 -3.965134024620056152e-01 -2.670913636684417725e-01 -1.990814357995986938e-01 -2.877737879753112793e-01
8.355000000000000000e+03 1.820799827575683594e+01 -8.796090483665466309e-01 -1.850186824798583984e+00 -1.464494705200195312e+00 -9.944044351577758789e-01 -1.276897788047790527e+00
8.356000000000000000e+03 2.170348358154296875e+01 2.723834276199340820e+00 -4.730061054229736328e+00 -1.834980607032775879e+00 -1.969512581825256348e+00 -2.886645555496215820e+00
8.357000000000000000e+03 2.102823257446289062e+01 2.260757684707641602e+00 -4.583640098571777344e+00 -1.861791968345642090e+00 -1.933629631996154785e+00 -2.883616924285888672e+00
8.358000000000000000e+03 1.607972335815429688e+01 -8.520542383193969727e-01 -1.437616467475891113e+00 -3.139194548130035400e-01 -5.254607796669006348e-01 -3.869725763797760010e-01
8.359000000000000000e+03 1.663420677185058594e+01 -1.785859823226928711e+00 -1.467782258987426758e+00 -5.331869721412658691e-01 -6.002907752990722656e-01 -6.393445134162902832e-01
8.360000000000000000e+03 1.890606498718261719e+01 -4.218147695064544678e-01 -1.922496914863586426e+00 -2.595072746276855469e+00 -1.355270862579345703e+00 -1.473928093910217285e+00
8.361000000000000000e+03 2.062004280090332031e+01 6.062549352645874023e-01 -1.571035504341125488e+00 -2.031225919723510742e+00 -1.080678343772888184e+00 -3.177655220031738281e+00
8.362000000000000000e+03 2.088251113891601562e+01 1.380865573883056641e+00 -2.707325696945190430e+00 -1.850177288055419922e+00 -1.367250800132751465e+00 -2.768955707550048828e+00
8.363000000000000000e+03 2.300205802917480469e+01 2.110841751098632812e+00 -3.283931970596313477e+00 -6.709070801734924316e-01 -1.186451673507690430e+00 -1.778036594390869141e+00
8.364000000000000000e+03 2.438932991027832031e+01 2.960635662078857422e+00 -3.185306310653686523e+00 -7.071222662925720215e-01 -1.167728543281555176e+00 -1.522336125373840332e+00
8.365000000000000000e+03 2.521880340576171875e+01 3.450610637664794922e+00 -3.071148872375488281e+00 -7.838089466094970703e-01 -1.156487345695495605e+00 -1.478407740592956543e+00
8.366000000000000000e+03 2.289822006225585938e+01 3.422800064086914062e+00 -4.298662185668945312e+00 -1.534451723098754883e+00 -1.749934196472167969e+00 -2.603263139724731445e+00
8.367000000000000000e+03 2.307255363464355469e+01 3.524418592453002930e+00 -4.234719276428222656e+00 -1.566518425941467285e+00 -1.740371346473693848e+00 -2.535373687744140625e+00
8.368000000000000000e+03 2.407131767272949219e+01 4.178638458251953125e+00 -3.785326004028320312e+00 -1.398141860961914062e+00 -1.555040359497070312e+00 -2.295305967330932617e+00
8.369000000000000000e+03 1.780109024047851562e+01 1.569384574890136719e+00 1.778028845787048340e+00 3.592131137847900391e-01 6.411725878715515137e-01 7.930482029914855957e-01
8.370000000000000000e+03 2.510248374938964844e+01 4.799768447875976562e+00 -3.412772655487060547e+00 -1.267284154891967773e+00 -1.404016971588134766e+00 -2.064035892486572266e+00
8.371000000000000000e+03 2.383655929565429688e+01 3.735404729843139648e+00 -3.812475919723510742e+00 -1.243287682533264160e+00 -1.516729116439819336e+00 -2.199722766876220703e+00
8.372000000000000000e+03 2.356903648376464844e+01 3.872204303741455078e+00 -3.985595464706420898e+00 -1.453601598739624023e+00 -1.631759166717529297e+00 -2.424332380294799805e+00
8.373000000000000000e+03 2.272424316406250000e+01 3.322763919830322266e+00 -4.395374774932861328e+00 -1.618326425552368164e+00 -1.804110288619995117e+00 -2.629703760147094727e+00
8.374000000000000000e+03 2.186722183227539062e+01 2.835867881774902344e+00 -4.676810741424560547e+00 -1.721970796585083008e+00 -1.919634461402893066e+00 -2.912350177764892578e+00
8.375000000000000000e+03 1.797665786743164062e+01 3.892868459224700928e-01 -3.389966785907745361e-01 -1.799537539482116699e-01 -1.556851267814636230e-01 -2.569180130958557129e-01
8.376000000000000000e+03 1.780901718139648438e+01 2.828388810157775879e-01 -3.444508016109466553e-01 -1.763862669467926025e-01 -1.562511175870895386e-01 -2.114987075328826904e-01
8.377000000000000000e+03 1.786056327819824219e+01 -7.438153028488159180e-01 -1.603970289230346680e+00 -9.118493795394897461e-01 -7.547459006309509277e-01 -9.183694124221801758e-01
8.378000000000000000e+03 1.490975666046142578e+01 -9.672126770019531250e-01 -8.027700185775756836e-01 2.221848443150520325e-02 -2.341654598712921143e-01 -2.846529707312583923e-02
8.379000000000000000e+03 1.553082847595214844e+01 -5.301201939582824707e-01 -6.751813411712646484e+00 5.087730288505554199e-01 -1.872912168502807617e+00 -1.348195821046829224e-01
8.380000000000000000e+03 2.761780357360839844e+01 7.930091857910156250e+00 -2.659206628799438477e+00 -8.522440791130065918e-01 -1.053435206413269043e+00 -1.820785403251647949e+00
8.381000000000000000e+03 2.491459465026855469e+01 6.318172931671142578e+00 -4.543500900268554688e+00 -2.591282844543457031e+00 -2.140434980392456055e+00 -3.502435922622680664e+00
8.382000000000000000e+03 2.509618377685546875e+01 5.497509956359863281e+00 1.614908814430236816e+00 6.411664485931396484e-01 6.768225431442260742e-01 7.373359799385070801e-01
8.383000000000000000e+03 2.355752754211425781e+01 5.373759746551513672e+00 -4.922255039215087891e+00 -2.146856546401977539e+00 -2.120733499526977539e+00 -3.183774232864379883e+00
8.384000000000000000e+03 2.223781585693359375e+01 4.491950511932373047e+00 -3.054952383041381836e+00 -1.490239143371582031e+00 -1.363557457923889160e+00 -2.151225328445434570e+00
8.385000000000000000e+03 2.086944961547851562e+01 3.572295188903808594e+00 -1.941444754600524902e+00 -1.067963242530822754e+00 -9.028224349021911621e-01 -1.500864982604980469e+00
8.386000000000000000e+03 2.071192550659179688e+01 3.059936761856079102e+00 -8.086746335029602051e-01 -1.039102554321289062e+00 -5.543331503868103027e-01 -1.115566730499267578e+00
8.387000000000000000e+03 2.016724014282226562e+01 3.137828350067138672e+00 -1.303827524185180664e+00 -8.185712099075317383e-01 -6.367196440696716309e-01 -1.083417892456054688e+00
8.388000000000000000e+03 2.013880538940429688e+01 2.411051511764526367e+00 -8.355718851089477539e-01 -9.936496019363403320e-01 -5.487664341926574707e-01 -1.068739295005798340e+00
8.389000000000000000e+03 1.905813980102539062e+01 1.327856063842773438e+00 -3.666668653488159180e+00 -1.322160243988037109e+00 -1.496648669242858887e+00 -2.136789321899414062e+00
8.390000000000000000e+03 1.744436645507812500e+01 1.317501544952392578e+00 2.257197618484497070e+00 4.255731701850891113e-01 8.048312067985534668e-01 8.758338093757629395e-01
8.391000000000000000e+03 1.628603553771972656e+01 8.226152062416076660e-01 4.247231960296630859e+00 2.364532798528671265e-01 1.345105648040771484e+00 1.219143867492675781e+00
8.392000000000000000e+03 1.592049598693847656e+01 7.100230455398559570e-01 4.879299640655517578e+00 6.437290310859680176e-01 1.656908631324768066e+00 6.606001257896423340e-01
8.393000000000000000e+03 1.661206626892089844e+01 8.281219750642776489e-03 -5.459718704223632812e+00 -1.252279639244079590e+00 -2.013599395751953125e+00 -2.980706453323364258e+00
8.394000000000000000e+03 1.869659805297851562e+01 1.178386449813842773e+00 -3.865972518920898438e+00 -1.652884602546691895e+00 -1.655657172203063965e+00 -2.442851781845092773e+00
8.395000000000000000e+03 1.813349723815917969e+01 1.811456799507141113e+00 1.345791220664978027e+00 2.171905338764190674e-01 4.688945114612579346e-01 5.954906940460205078e-01
8.396000000000000000e+03 1.867108726501464844e+01 1.794123888015747070e+00 -2.054435908794403076e-01 -7.913161516189575195e-01 -2.990279197692871094e-01 -6.982851624488830566e-01
8.397000000000000000e+03 2.021986579895019531e+01 2.136486768722534180e+00 -1.309370160102844238e+00 -7.648462653160095215e-01 -6.222649216651916504e-01 -9.864532947540283203e-01
8.398000000000000000e+03 2.072131156921386719e+01 2.411337137222290039e+00 -6.761638522148132324e-01 -3.728767037391662598e-01 -3.147121667861938477e-01 -5.278477668762207031e-01
8.399000000000000000e+03 2.134403800964355469e+01 2.867102384567260742e+00 2.017292231321334839e-01 -1.703881025314331055e-01 9.402339346706867218e-03 -1.251296550035476685e-01
8.400000000000000000e+03 2.052456855773925781e+01 3.346909999847412109e+00 -1.695774555206298828e+00 -1.016075611114501953e+00 -8.135550618171691895e-01 -1.302772402763366699e+00
8.401000000000000000e+03 2.190268898010253906e+01 3.133645534515380859e+00 7.853205204010009766e-01 1.654987186193466187e-01 2.852457761764526367e-01 2.899442017078399658e-01
8.402000000000000000e+03 2.170759963989257812e+01 3.228340387344360352e+00 3.659460544586181641e-01 -4.050485193729400635e-01 -1.173073798418045044e-02 -1.526234745979309082e-01
8.403000000000000000e+03 2.218294525146484375e+01 3.758147478103637695e+00 -2.201688885688781738e-01 -6.209573149681091309e-01 -2.523378431797027588e-01 -6.087008714675903320e-01
8.404000000000000000e+03 2.309049415588378906e+01 3.885665655136108398e+00 1.976255297660827637e+00 6.078867912292480469e-01 7.752426266670227051e-01 1.005815505981445312e+00
8.405000000000000000e+03 2.343356513977050781e+01 4.924833297729492188e+00 -2.102467060089111328e+00 -1.431767702102661133e+00 -1.060270428657531738e+00 -1.801320195198059082e+00
8.406000000000000000e+03 2.389833259582519531e+01 4.438695907592773438e+00 3.017947673797607422e+00 8.397783637046813965e-01 1.157317757606506348e+00 1.555404067039489746e+00
8.407000000000000000e+03 2.493483924865722656e+01 5.057234764099121094e+00 3.548922300338745117e+00 1.165617346763610840e+00 1.414361834526062012e+00 2.131379842758178711e+00
8.408000000000000000e+03 2.634406471252441406e+01 5.882075309753417969e+00 4.071551322937011719e+00 1.376901149749755859e+00 1.634535789489746094e+00 2.435906648635864258e+00
8.409000000000000000e+03 2.651717948913574219e+01 6.223111629486083984e+00 3.061982393264770508e+00 9.490547776222229004e-01 1.203311204910278320e+00 1.788495779037475586e+00
8.410000000000000000e+03 2.752372932434082031e+01 6.642493247985839844e+00 4.000017166137695312e+00 1.498986959457397461e+00 1.649701237678527832e+00 2.457152128219604492e+00
8.411000000000000000e+03 2.770738792419433594e+01 6.731254100799560547e+00 4.090695381164550781e+00 1.525597333908081055e+00 1.684887766838073730e+00 2.426574230194091797e+00
8.412000000000000000e+03 2.837801170349121094e+01 8.509162902832031250e+00 -2.794359207153320312e+00 -5.533407330513000488e-01 -1.004310011863708496e+00 -1.434992313385009766e+00
8.413000000000000000e+03 2.877238655090332031e+01 8.255836486816406250e+00 -1.430149555206298828e+00 -3.905472457408905029e-01 -5.462090373039245605e-01 -3.685790598392486572e-01
8.414000000000000000e+03 2.819168090820312500e+01 8.265731811523437500e+00 -2.708999395370483398e+00 -4.691851139068603516e-01 -9.534553289413452148e-01 -1.360665202140808105e+00
8.415000000000000000e+03 2.762212753295898438e+01 6.936492919921875000e+00 2.604097127914428711e+00 9.762952327728271484e-01 1.074117660522460938e+00 1.543936133384704590e+00
8.416000000000000000e+03 2.782902908325195312e+01 6.540134429931640625e+00 -3.388571500778198242e+00 -1.489144682884216309e+00 -1.463314890861511230e+00 -2.229754209518432617e+00
8.417000000000000000e+03 2.816375541687011719e+01 6.255253791809082031e+00 -2.768707990646362305e+00 -1.821210741996765137e+00 -1.376975655555725098e+00 -2.022035121917724609e+00
8.418000000000000000e+03 2.855319404602050781e+01 6.142180919647216797e+00 -2.387526035308837891e+00 -1.813872814178466797e+00 -1.260419607162475586e+00 -1.608486413955688477e+00
8.419000000000000000e+03 2.994088172912597656e+01 7.355839729309082031e+00 -9.832992553710937500e-01 -1.457109332084655762e+00 -7.321226000785827637e-01 -1.330251216888427734e+00
8.420000000000000000e+03 2.965469932556152344e+01 6.280673980712890625e+00 -1.907650947570800781e+00 -1.097247004508972168e+00 -9.014694094657897949e-01 -1.316698789596557617e+00
8.421000000000000000e+03 2.813894844055175781e+01 5.262156963348388672e+00 -2.352719545364379883e+00 -1.331166625022888184e+00 -1.105165839195251465e+00 -1.427744865417480469e+00
8.422000000000000000e+03 2.796563339233398438e+01 5.154746055603027344e+00 -2.424693346023559570e+00 -1.291296243667602539e+00 -1.114796876907348633e+00 -1.453164458274841309e+00
8.423000000000000000e+03 2.745028686523437500e+01 4.845677852630615234e+00 -2.545011043548583984e+00 -1.123104691505432129e+00 -1.100434660911560059e+00 -1.464634180068969727e+00
8.424000000000000000e+03 2.690469741821289062e+01 4.545875072479248047e+00 -2.695671081542968750e+00 -1.006026268005371094e+00 -1.110509157180786133e+00 -1.477588653564453125e+00
8.425000000000000000e+03 2.642532920837402344e+01 4.458956241607666016e+00 -2.868879318237304688e+00 -9.694986939430236816e-01 -1.151513457298278809e+00 -1.569096207618713379e+00
8.426000000000000000e+03 2.658790779113769531e+01 4.286829948425292969e+00 -2.768501520156860352e+00 -9.236722588539123535e-01 -1.107652068138122559e+00 -1.452095866203308105e+00
8.427000000000000000e+03 2.574311637878417969e+01 3.786098003387451172e+00 -2.939405202865600586e+00 -8.003184199333190918e-01 -1.121917128562927246e+00 -1.470812559127807617e+00
8.428000000000000000e+03 2.541836547851562500e+01 3.930738449096679688e+00 -3.130356311798095703e+00 -8.739340305328369141e-01 -1.201287150382995605e+00 -1.622504711151123047e+00
8.429000000000000000e+03 2.420208168029785156e+01 2.860757350921630859e+00 -3.267291307449340820e+00 -7.548354864120483398e-01 -1.206638097763061523e+00 -1.567520976066589355e+00
8.430000000000000000e+03 2.345994377136230469e+01 2.607226133346557617e+00 -3.425731420516967773e+00 -7.645692825317382812e-01 -1.257090210914611816e+00 -1.757141947746276855e+00
8.431000000000000000e+03 2.318541145324707031e+01 2.221759319305419922e+00 -3.324018716812133789e+00 -7.437027096748352051e-01 -1.220316410064697266e+00 -1.678413510322570801e+00
8.432000000000000000e+03 2.254116249084472656e+01 2.054912328720092773e+00 -3.458758831024169922e+00 -9.290685653686523438e-01 -1.316348195075988770e+00 -1.972369670867919922e+00
8.433000000000000000e+03 2.216105842590332031e+01 1.763288617134094238e+00 -3.236760139465332031e+00 -9.001261591911315918e-01 -1.241065859794616699e+00 -2.108601570129394531e+00
8.434000000000000000e+03 2.199205207824707031e+01 1.458675265312194824e+00 -2.903361558914184570e+00 -7.601345777511596680e-01 -1.099048852920532227e+00 -2.168084383010864258e+00
8.435000000000000000e+03 2.183944702148437500e+01 1.690778493881225586e+00 -3.260542392730712891e+00 -1.106521487236022949e+00 -1.310119152069091797e+00 -2.246043443679809570e+00
8.436000000000000000e+03 2.182098770141601562e+01 1.338136911392211914e+00 -2.818931579589843750e+00 -9.059751033782958984e-01 -1.117472052574157715e+00 -2.187630891799926758e+00
8.437000000000000000e+03 2.131197357177734375e+01 1.024908065795898438e+00 -2.399388790130615234e+00 -9.125906825065612793e-01 -9.935938715934753418e-01 -2.730923414230346680e+00
8.438000000000000000e+03 2.114123344421386719e+01 9.171155691146850586e-01 -2.183227539062500000e+00 -1.361603260040283203e+00 -1.063449263572692871e+00 -2.839089393615722656e+00
8.439000000000000000e+03 2.067724800109863281e+01 9.409630894660949707e-01 -1.971959710121154785e+00 -1.856150984764099121e+00 -1.148433208465576172e+00 -2.976055622100830078e+00
8.440000000000000000e+03 2.001682472229003906e+01 1.637134432792663574e+00 -3.252593278884887695e+00 -1.657993912696838379e+00 -1.473176121711730957e+00 -2.289232969284057617e+00
8.441000000000000000e+03 2.044163322448730469e+01 5.099294185638427734e-01 -1.465884447097778320e+00 -2.571970701217651367e+00 -1.211356520652770996e+00 -3.144249200820922852e+00
8.442000000000000000e+03 1.973522758483886719e+01 4.402073472738265991e-02 -1.640769481658935547e+00 -3.040100812911987305e+00 -1.404261112213134766e+00 -2.350063323974609375e+00
8.443000000000000000e+03 2.007245063781738281e+01 2.987338006496429443e-01 -1.185520052909851074e+00 -3.825009107589721680e+00 -1.503158688545227051e+00 -2.855043649673461914e+00
8.444000000000000000e+03 1.928709983825683594e+01 -2.650651633739471436e-01 -2.203198909759521484e+00 -3.136011600494384766e+00 -1.601763129234313965e+00 -1.663777828216552734e+00
8.445000000000000000e+03 1.904242515563964844e+01 -6.172461062669754028e-02 -1.677342653274536133e+00 -2.589723587036132812e+00 -1.280119895935058594e+00 -1.557584166526794434e+00
8.446000000000000000e+03 1.837055206298828125e+01 -4.188842475414276123e-01 -1.471027255058288574e+00 -1.247064232826232910e+00 -8.154274225234985352e-01 -1.076785802841186523e+00
8.447000000000000000e+03 1.854799652099609375e+01 -6.623200178146362305e-01 -1.879085063934326172e+00 -1.873538970947265625e+00 -1.125787258148193359e+00 -1.352837562561035156e+00
8.448000000000000000e+03 1.837671661376953125e+01 -7.712314128875732422e-01 -1.724387526512145996e+00 -1.456822514533996582e+00 -9.543630480766296387e-01 -1.247226357460021973e+00
8.449000000000000000e+03 2.547790527343750000e+01 6.817430019378662109e+00 -5.362407684326171875e+00 -2.627001523971557617e+00 -2.396822690963745117e+00 -3.760298728942871094e+00
8.450000000000000000e+03 2.751976966857910156e+01 8.118475914001464844e+00 -3.491142272949218750e+00 -1.799410343170166016e+00 -1.587165832519531250e+00 -2.621150732040405273e+00
8.451000000000000000e+03 2.774594306945800781e+01 8.091825485229492188e+00 -2.833288192749023438e+00 -9.771168828010559082e-01 -1.143121480941772461e+00 -1.848805785179138184e+00
8.452000000000000000e+03 2.639754867553710938e+01 7.404555320739746094e+00 -4.728549003601074219e+00 -2.908096551895141602e+00 -2.290993690490722656e+00 -3.553247213363647461e+00
8.453000000000000000e+03 2.606106948852539062e+01 7.185231208801269531e+00 -5.273532390594482422e+00 -2.960548400878906250e+00 -2.470224142074584961e+00 -3.843734502792358398e+00
8.454000000000000000e+03 2.798363685607910156e+01 8.158415794372558594e+00 -2.812189340591430664e+00 -6.008698940277099609e-01 -1.023917794227600098e+00 -1.576304912567138672e+00
8.455000000000000000e+03 2.766287040710449219e+01 7.594291687011718750e+00 -1.057958602905273438e+00 -9.048110246658325195e-02 -3.445319235324859619e-01 -8.988654613494873047e-01
8.456000000000000000e+03 2.922995376586914062e+01 8.264119148254394531e+00 -1.266610383987426758e+00 -1.028353452682495117e+00 -6.884891390800476074e-01 -5.128893852233886719e-01
8.457000000000000000e+03 2.787303733825683594e+01 7.956303119659423828e+00 -2.368981838226318359e+00 -1.846185773611068726e-01 -7.660800814628601074e-01 -1.432557940483093262e+00
8.458000000000000000e+03 2.732738494873046875e+01 7.844492435455322266e+00 -3.069630622863769531e+00 -1.501546263694763184e+00 -1.371353030204772949e+00 -2.313143730163574219e+00
8.459000000000000000e+03 2.705543899536132812e+01 7.530703067779541016e+00 -2.599185943603515625e+00 -1.396768093109130859e+00 -1.198786258697509766e+00 -1.933743715286254883e+00
8.460000000000000000e+03 2.968653678894042969e+01 7.849141120910644531e+00 -7.986766695976257324e-01 -1.401237607002258301e+00 -6.599742770195007324e-01 -9.597488045692443848e-01
8.461000000000000000e+03 2.835629081726074219e+01 6.176811218261718750e+00 -2.591647386550903320e+00 -1.868697047233581543e+00 -1.338103294372558594e+00 -1.848336935043334961e+00
8.462000000000000000e+03 2.950033187866210938e+01 6.448091506958007812e+00 -2.013319969177246094e+00 -1.167572855949401855e+00 -9.542678594589233398e-01 -1.458971023559570312e+00
8.463000000000000000e+03 2.894675827026367188e+01 6.136587142944335938e+00 -2.226268053054809570e+00 -1.522248029708862305e+00 -1.124554872512817383e+00 -1.340479612350463867e+00
8.464000000000000000e+03 2.874980735778808594e+01 6.135490417480468750e+00 -2.334098100662231445e+00 -1.718001127243041992e+00 -1.215629696846008301e+00 -1.478413820266723633e+00
8.465000000000000000e+03 2.767642974853515625e+01 6.402858257293701172e+00 -3.266385555267333984e+00 -1.412205934524536133e+00 -1.403577446937561035e+00 -2.146361112594604492e+00
8.466000000000000000e+03 2.937743759155273438e+01 6.025830745697021484e+00 -2.051564693450927734e+00 -1.219663023948669434e+00 -9.813683032989501953e-01 -1.232674956321716309e+00
8.467000000000000000e+03 2.971186447143554688e+01 7.641345977783203125e+00 -5.478087067604064941e-01 -1.589487791061401367e+00 -6.411889791488647461e-01 -1.154747843742370605e+00
8.468000000000000000e+03 1.572074985504150391e+01 2.189624011516571045e-01 -8.564068675041198730e-01 1.538385152816772461e+00 2.045934945344924927e-01 -1.332087397575378418e+00
8.469000000000000000e+03 2.408654022216796875e+01 4.547325134277343750e+00 3.239131689071655273e+00 8.661679029464721680e-01 1.231589913368225098e+00 1.681672334671020508e+00
8.470000000000000000e+03 2.037843704223632812e+01 2.863221883773803711e+00 -8.422627449035644531e-01 -1.034368038177490234e+00 -5.629892349243164062e-01 -1.070823073387145996e+00
8.471000000000000000e+03 2.261888504028320312e+01 3.930613756179809570e+00 6.745998859405517578e-01 -2.721783220767974854e-01 1.207264736294746399e-01 -2.839078195393085480e-02
8.472000000000000000e+03 2.189883041381835938e+01 4.254463672637939453e+00 -2.624632835388183594e+00 -1.361173748970031738e+00 -1.195742011070251465e+00 -1.951983571052551270e+00
8.473000000000000000e+03 1.715502357482910156e+01 2.484077364206314087e-01 -5.728691577911376953e+00 -1.934725165367126465e+00 -2.299025058746337891e+00 -3.642222881317138672e+00
8.474000000000000000e+03 1.699773979187011719e+01 1.264773458242416382e-01 -5.911724090576171875e+00 -1.720761775970458984e+00 -2.289745807647705078e+00 -3.379522085189819336e+00
8.475000000000000000e+03 1.885128974914550781e+01 2.235883474349975586e+00 4.019394516944885254e-01 -2.303502857685089111e-01 5.147674679756164551e-02 -1.080813184380531311e-01
8.476000000000000000e+03 1.847843170166015625e+01 2.026584863662719727e+00 9.033999443054199219e-01 -6.725236028432846069e-02 2.508442699909210205e-01 2.816956639289855957e-01
8.477000000000000000e+03 2.543092918395996094e+01 5.707922935485839844e+00 1.185346007347106934e+00 1.425796300172805786e-01 3.983777165412902832e-01 6.267516613006591797e-01
8.478000000000000000e+03 2.457446861267089844e+01 5.008879184722900391e+00 2.532013654708862305e+00 4.777075052261352539e-01 9.029163122177124023e-01 1.158367276191711426e+00
8.479000000000000000e+03 2.325514793395996094e+01 3.987225294113159180e+00 2.215560436248779297e+00 5.730326771736145020e-01 8.365778923034667969e-01 1.076974749565124512e+00
8.480000000000000000e+03 2.463901519775390625e+01 4.825169563293457031e+00 3.387898921966552734e+00 1.213429450988769531e+00 1.380398511886596680e+00 2.199949026107788086e+00
8.481000000000000000e+03 2.104832649230957031e+01 2.598700046539306641e+00 -2.967036366462707520e-01 -2.449110001325607300e-01 -1.624843925237655640e-01 -2.884098589420318604e-01
8.482000000000000000e+03 2.219436645507812500e+01 3.388534784317016602e+00 1.211088895797729492e+00 2.079362124204635620e-01 4.257075488567352295e-01 4.563942849636077881e-01
8.483000000000000000e+03 2.275546455383300781e+01 3.693754434585571289e+00 1.683053135871887207e+00 3.704050779342651367e-01 6.160374879837036133e-01 8.307683467864990234e-01
8.484000000000000000e+03 2.191262245178222656e+01 3.660018205642700195e+00 -4.357342720031738281e-01 -6.989420056343078613e-01 -3.404029011726379395e-01 -7.511554956436157227e-01
8.485000000000000000e+03 2.427522277832031250e+01 4.646494388580322266e+00 3.461699008941650391e+00 9.381948113441467285e-01 1.319968104362487793e+00 1.833838582038879395e+00
8.486000000000000000e+03 2.446111488342285156e+01 4.740173339843750000e+00 3.554806947708129883e+00 1.022010803222656250e+00 1.373045325279235840e+00 2.048801422119140625e+00
8.487000000000000000e+03 2.528694915771484375e+01 5.271379947662353516e+00 3.665376901626586914e+00 1.319154739379882812e+00 1.495359539985656738e+00 2.066267251968383789e+00
8.488000000000000000e+03 2.717264175415039062e+01 6.434658527374267578e+00 3.985154151916503906e+00 1.387221813201904297e+00 1.611712813377380371e+00 2.406929492950439453e+00
8.489000000000000000e+03 1.733164405822753906e+01 3.668887019157409668e-01 -5.781063556671142578e+00 -2.374951124191284180e+00 -2.446804523468017578e+00 -3.372186899185180664e+00
8.490000000000000000e+03 1.705279922485351562e+01 1.104628801345825195e+00 2.879686117172241211e+00 4.242596328258514404e-01 9.911836981773376465e-01 9.231652021408081055e-01
8.491000000000000000e+03 1.820470809936523438e+01 1.020192623138427734e+00 -3.092994928359985352e+00 -1.742142677307128906e+00 -1.450541257858276367e+00 -2.467021465301513672e+00
8.492000000000000000e+03 1.934757041931152344e+01 1.523654103279113770e+00 -2.868846654891967773e+00 -1.277406930923461914e+00 -1.243876099586486816e+00 -1.847140312194824219e+00
8.493000000000000000e+03 1.620856475830078125e+01 -2.564688026905059814e-01 -5.064205169677734375e+00 -1.204414367675781250e+00 -1.880585908889770508e+00 -2.378656387329101562e+00
8.494000000000000000e+03 1.637600135803222656e+01 -1.055432707071304321e-01 -5.320043087005615234e+00 -1.205628514289855957e+00 -1.957701444625854492e+00 -2.643803358078002930e+00
8.495000000000000000e+03 1.682551574707031250e+01 6.590063869953155518e-02 -5.673271656036376953e+00 -1.741337418556213379e+00 -2.224382638931274414e+00 -3.082698106765747070e+00
8.496000000000000000e+03 2.681288909912109375e+01 6.210831165313720703e+00 3.840473175048828125e+00 1.539391756057739258e+00 1.613959550857543945e+00 2.429034709930419922e+00
8.497000000000000000e+03 2.041065216064453125e+01 2.207756280899047852e+00 -1.086983561515808105e+00 -6.083295941352844238e-01 -5.085939764976501465e-01 -8.219733238220214844e-01
8.498000000000000000e+03 1.647114562988281250e+01 -6.173247694969177246e-01 -8.868111371994018555e-01 -1.762505769729614258e-01 -3.189184963703155518e-01 -3.898068368434906006e-01
8.499000000000000000e+03 2.714648437500000000e+01 6.079617023468017578e+00 -3.154003620147705078e+00 -1.267371296882629395e+00 -1.326412439346313477e+00 -1.998895764350891113e+00
8.500000000000000000e+03 2.610667991638183594e+01 3.989916086196899414e+00 -2.842659473419189453e+00 -8.522269725799560547e-01 -1.108465909957885742e+00 -1.469021677970886230e+00
8.501000000000000000e+03 1.833070755004882812e+01 5.895792841911315918e-01 -4.382275342941284180e-01 -3.625598549842834473e-01 -2.402362078428268433e-01 -3.807540535926818848e-01
8.502000000000000000e+03 2.237835693359375000e+01 3.131584405899047852e+00 -4.538947105407714844e+00 -1.704510807991027832e+00 -1.873037338256835938e+00 -2.729570388793945312e+00
8.503000000000000000e+03 1.764385032653808594e+01 1.744001954793930054e-01 -3.627911806106567383e-01 -1.297860592603683472e-01 -1.477731615304946899e-01 -2.010912299156188965e-01
8.504000000000000000e+03 1.916730690002441406e+01 1.125744342803955078e+00 -1.487062215805053711e+00 -1.070742011070251465e+00 -7.673412561416625977e-01 -1.158819556236267090e+00
8.505000000000000000e+03 2.649093246459960938e+01 5.643176078796386719e+00 -3.138790130615234375e+00 -1.224421858787536621e+00 -1.308963656425476074e+00 -1.936482310295104980e+00
8.506000000000000000e+03 2.631550598144531250e+01 5.527283191680908203e+00 -3.155659437179565430e+00 -1.202966332435607910e+00 -1.307587742805480957e+00 -1.944362282752990723e+00
8.507000000000000000e+03 2.612833976745605469e+01 5.438388347625732422e+00 -3.181807756423950195e+00 -1.207635998725891113e+00 -1.316833138465881348e+00 -1.954888463020324707e+00
8.508000000000000000e+03 2.492999267578125000e+01 4.705292224884033203e+00 -3.471202373504638672e+00 -1.267137646675109863e+00 -1.421501994132995605e+00 -2.116134643554687500e+00
8.509000000000000000e+03 2.546989440917968750e+01 4.657116889953613281e+00 -3.274282932281494141e+00 -1.135866641998291016e+00 -1.323044896125793457e+00 -1.907677054405212402e+00
8.510000000000000000e+03 2.545153236389160156e+01 5.036966800689697266e+00 -3.316921234130859375e+00 -1.265533447265625000e+00 -1.374736428260803223e+00 -2.018863916397094727e+00
8.511000000000000000e+03 2.459490013122558594e+01 4.509659290313720703e+00 -3.588313817977905273e+00 -1.318366527557373047e+00 -1.472004175186157227e+00 -2.187232971191406250e+00
8.512000000000000000e+03 2.469862174987792969e+01 4.145606040954589844e+00 -3.498725652694702148e+00 -1.144543766975402832e+00 -1.392980813980102539e+00 -1.984662532806396484e+00
8.513000000000000000e+03 2.373550224304199219e+01 3.974582195281982422e+00 -3.918935537338256836e+00 -1.451335072517395020e+00 -1.611081242561340332e+00 -2.368779420852661133e+00
8.514000000000000000e+03 2.424369049072265625e+01 4.286685943603515625e+00 -3.717384815216064453e+00 -1.352729201316833496e+00 -1.521034240722656250e+00 -2.255233764648437500e+00
8.515000000000000000e+03 2.339944267272949219e+01 3.365537881851196289e+00 -3.953361749649047852e+00 -1.262121200561523438e+00 -1.564644813537597656e+00 -2.213578462600708008e+00
8.516000000000000000e+03 1.737028121948242188e+01 -1.417335867881774902e+00 -1.718740701675415039e+00 -7.472255229949951172e-01 -7.397898435592651367e-01 -9.063835144042968750e-01
8.517000000000000000e+03 1.628935050964355469e+01 -7.278177142143249512e-01 -1.048560261726379395e+00 -2.075112611055374146e-01 -3.768214583396911621e-01 -4.369533360004425049e-01
8.518000000000000000e+03 1.664281463623046875e+01 -5.031195878982543945e-01 -7.563407421112060547e-01 -1.831036210060119629e-01 -2.818333208560943604e-01 -3.343943655490875244e-01
8.519000000000000000e+03 2.750169563293457031e+01 6.282786369323730469e+00 -3.221203804016113281e+00 -1.382601261138916016e+00 -1.381141543388366699e+00 -2.064972639083862305e+00
8.520000000000000000e+03 2.573222351074218750e+01 4.982469081878662109e+00 -3.238263607025146484e+00 -1.171019792556762695e+00 -1.322785019874572754e+00 -1.931045174598693848e+00
8.521000000000000000e+03 2.255205917358398438e+01 3.223788022994995117e+00 -4.447959899902343750e+00 -1.585361480712890625e+00 -1.809996366500854492e+00 -2.717789888381958008e+00
8.522000000000000000e+03 2.247628593444824219e+01 2.902311563491821289e+00 -4.287312507629394531e+00 -1.397182106971740723e+00 -1.705348372459411621e+00 -2.525407552719116211e+00
8.523000000000000000e+03 2.120512962341308594e+01 2.366119623184204102e+00 -4.623271465301513672e+00 -1.780264496803283691e+00 -1.921060919761657715e+00 -2.937895298004150391e+00
8.524000000000000000e+03 1.982842826843261719e+01 1.562138557434082031e+00 -3.006963968276977539e+00 -1.466328501701354980e+00 -1.341987729072570801e+00 -2.074753761291503906e+00
8.525000000000000000e+03 1.685240936279296875e+01 -8.052365779876708984e-01 -1.249586582183837891e+00 -2.664416730403900146e-01 -4.548085033893585205e-01 -4.894453585147857666e-01
8.526000000000000000e+03 2.866297340393066406e+01 5.560963630676269531e+00 -2.238981485366821289e+00 -1.409134507179260254e+00 -1.094434738159179688e+00 -1.298830389976501465e+00
8.527000000000000000e+03 2.709033966064453125e+01 4.650040626525878906e+00 -2.650432586669921875e+00 -1.033896207809448242e+00 -1.105298638343811035e+00 -1.480489015579223633e+00
8.528000000000000000e+03 1.701620674133300781e+01 -1.598754167556762695e+00 -1.547193765640258789e+00 -5.987654924392700195e-01 -6.437878012657165527e-01 -7.309657335281372070e-01
8.529000000000000000e+03 1.990662193298339844e+01 1.681541800498962402e-01 -8.957625627517700195e-01 -3.037645339965820312e+00 -1.180022358894348145e+00 -2.118285894393920898e+00
8.530000000000000000e+03 2.402393531799316406e+01 2.738673686981201172e+00 -3.257643938064575195e+00 -7.137655019760131836e-01 -1.191422820091247559e+00 -1.567045211791992188e+00
8.531000000000000000e+03 2.919072723388671875e+01 5.915001869201660156e+00 -2.118273735046386719e+00 -1.298865914344787598e+00 -1.025141954421997070e+00 -1.217586517333984375e+00
8.532000000000000000e+03 2.800765800476074219e+01 5.494798660278320312e+00 -2.508233785629272461e+00 -1.426423907279968262e+00 -1.180397272109985352e+00 -1.604434132575988770e+00
8.533000000000000000e+03 2.761833190917968750e+01 4.951700210571289062e+00 -2.516279220581054688e+00 -1.174218177795410156e+00 -1.107149243354797363e+00 -1.460559725761413574e+00
8.534000000000000000e+03 2.456723022460937500e+01 3.055789470672607422e+00 -3.191530227661132812e+00 -7.443650364875793457e-01 -1.180768609046936035e+00 -1.513732433319091797e+00
8.535000000000000000e+03 2.249617195129394531e+01 1.752540349960327148e+00 -3.132411718368530273e+00 -8.058128356933593750e-01 -1.181467413902282715e+00 -1.899306774139404297e+00
8.536000000000000000e+03 2.233315849304199219e+01 1.638239860534667969e+00 -2.990427255630493164e+00 -6.910875439643859863e-01 -1.104454517364501953e+00 -1.961440801620483398e+00
8.537000000000000000e+03 2.148179817199707031e+01 1.128484606742858887e+00 -2.545312166213989258e+00 -1.046634197235107422e+00 -1.077583909034729004e+00 -2.473668336868286133e+00
8.538000000000000000e+03 2.096979713439941406e+01 8.090916872024536133e-01 -2.036397695541381836e+00 -1.304440140724182129e+00 -1.002251386642456055e+00 -3.046506166458129883e+00
8.539000000000000000e+03 2.354416084289550781e+01 2.388252258300781250e+00 -3.260792732238769531e+00 -6.869720816612243652e-01 -1.184329390525817871e+00 -1.582929611206054688e+00
8.540000000000000000e+03 2.522423934936523438e+01 4.140122890472412109e+00 -3.261089801788330078e+00 -1.003744125366210938e+00 -1.279450178146362305e+00 -1.789454102516174316e+00
8.541000000000000000e+03 2.577788734436035156e+01 4.142484188079833984e+00 -3.017592668533325195e+00 -9.098798632621765137e-01 -1.178241729736328125e+00 -1.605608224868774414e+00
8.542000000000000000e+03 2.091345596313476562e+01 1.713690042495727539e+00 -3.303005933761596680e+00 -1.830322146415710449e+00 -1.539998412132263184e+00 -2.695551872253417969e+00
8.543000000000000000e+03 2.337233734130859375e+01 2.300741434097290039e+00 -3.249875307083129883e+00 -6.503549814224243164e-01 -1.170069098472595215e+00 -1.654160976409912109e+00
8.544000000000000000e+03 2.489199066162109375e+01 3.406341314315795898e+00 -3.153214931488037109e+00 -7.967082858085632324e-01 -1.184976935386657715e+00 -1.559677720069885254e+00
8.545000000000000000e+03 2.883820724487304688e+01 5.658454418182373047e+00 -2.159015178680419922e+00 -1.399921298027038574e+00 -1.067680954933166504e+00 -1.257227301597595215e+00
8.546000000000000000e+03 2.854191970825195312e+01 5.962574481964111328e+00 -2.364546537399291992e+00 -1.698737621307373047e+00 -1.218985199928283691e+00 -1.554738044738769531e+00
8.547000000000000000e+03 2.817785644531250000e+01 5.623554706573486328e+00 -2.449151515960693359e+00 -1.480365276336669922e+00 -1.178855061531066895e+00 -1.574059963226318359e+00
8.548000000000000000e+03 2.474594879150390625e+01 3.141265630722045898e+00 -3.107721328735351562e+00 -7.207572460174560547e-01 -1.148543596267700195e+00 -1.484429001808166504e+00
8.549000000000000000e+03 2.469014930725097656e+01 3.378220081329345703e+00 -3.290389299392700195e+00 -8.530436158180236816e-01 -1.243029832839965820e+00 -1.636756420135498047e+00
8.550000000000000000e+03 2.319405364990234375e+01 2.760295867919921875e+00 -3.747705221176147461e+00 -9.985085725784301758e-01 -1.423864126205444336e+00 -2.001102685928344727e+00
8.551000000000000000e+03 2.271275901794433594e+01 2.695827960968017578e+00 -3.956534385681152344e+00 -1.155848264694213867e+00 -1.533714771270751953e+00 -2.228914022445678711e+00
8.552000000000000000e+03 2.165103340148925781e+01 1.230265378952026367e+00 -2.636980295181274414e+00 -8.230075836181640625e-01 -1.037996292114257812e+00 -2.433013677597045898e+00
8.553000000000000000e+03 2.101836776733398438e+01 1.156368136405944824e+00 -2.460599899291992188e+00 -1.409973025321960449e+00 -1.161171793937683105e+00 -2.855594396591186523e+00
8.554000000000000000e+03 1.959152603149414062e+01 -8.714351803064346313e-02 -1.328931570053100586e+00 -3.489618301391601562e+00 -1.445564985275268555e+00 -2.087193727493286133e+00
8.555000000000000000e+03 1.910376167297363281e+01 -3.396536111831665039e-01 -1.546392798423767090e+00 -2.479610443115234375e+00 -1.207800984382629395e+00 -1.668032884597778320e+00
8.556000000000000000e+03 1.737996482849121094e+01 -1.082728028297424316e+00 -1.508538126945495605e+00 -6.243422031402587891e-01 -6.398640871047973633e-01 -8.064298033714294434e-01
8.557000000000000000e+03 1.665299797058105469e+01 -1.366106986999511719e+00 -1.355102062225341797e+00 -4.266203939914703369e-01 -5.345167517662048340e-01 -5.201052427291870117e-01
8.558000000000000000e+03 2.560299110412597656e+01 4.036937236785888672e+00 -3.099928379058837891e+00 -9.210741519927978516e-01 -1.206300735473632812e+00 -1.612898468971252441e+00
8.559000000000000000e+03 2.556997489929199219e+01 3.676821708679199219e+00 -2.965383052825927734e+00 -8.238621354103088379e-01 -1.136773586273193359e+00 -1.464608788490295410e+00
8.560000000000000000e+03 2.267225265502929688e+01 1.856473326683044434e+00 -3.137038946151733398e+00 -6.731420159339904785e-01 -1.143054246902465820e+00 -1.837358236312866211e+00
8.561000000000000000e+03 1.875694274902343750e+01 1.500918716192245483e-01 -1.363977313041687012e+00 -1.656450986862182617e+00 -9.061284661293029785e-01 -1.131297707557678223e+00
8.562000000000000000e+03 1.945619201660156250e+01 -1.930207461118698120e-01 -9.285833239555358887e-01 -3.119192600250244141e+00 -1.214332699775695801e+00 -1.894278526306152344e+00
8.563000000000000000e+03 2.010481643676757812e+01 1.357575654983520508e+00 -2.388196229934692383e+00 -1.990550637245178223e+00 -1.313624024391174316e+00 -2.396776437759399414e+00
8.564000000000000000e+03 1.841072654724121094e+01 5.619067698717117310e-02 -1.054811120033264160e+00 -1.170624375343322754e+00 -6.676306724548339844e-01 -8.290876746177673340e-01
8.565000000000000000e+03 2.293848037719726562e+01 3.778915882110595703e+00 1.754690408706665039e+00 4.467614591121673584e-01 6.604355573654174805e-01 9.877869486808776855e-01
8.566000000000000000e+03 2.319155120849609375e+01 4.172224521636962891e+00 1.355022192001342773e+00 9.477894753217697144e-02 4.349403381347656250e-01 4.809657037258148193e-01
8.567000000000000000e+03 2.230008888244628906e+01 2.838378667831420898e+00 -4.387972354888916016e+00 -1.556651949882507324e+00 -1.783387303352355957e+00 -2.575373888015747070e+00
8.568000000000000000e+03 2.168866348266601562e+01 2.394690036773681641e+00 -4.321733474731445312e+00 -1.617358922958374023e+00 -1.781727671623229980e+00 -2.646770477294921875e+00
8.569000000000000000e+03 1.698645019531250000e+01 5.031378865242004395e-01 -2.135507106781005859e+00 -7.131717205047607422e-01 -8.546035885810852051e-01 -1.466804742813110352e+00
8.570000000000000000e+03 1.666123962402343750e+01 9.482248425483703613e-01 3.659927845001220703e+00 3.650730252265930176e-01 1.207500219345092773e+00 9.870365262031555176e-01
8.571000000000000000e+03 1.766868972778320312e+01 5.414660573005676270e-01 -5.326882839202880859e+00 -2.241537570953369141e+00 -2.270526170730590820e+00 -3.442605257034301758e+00
8.572000000000000000e+03 2.321248054504394531e+01 5.169775009155273438e+00 -4.638988494873046875e+00 -1.896494626998901367e+00 -1.960644960403442383e+00 -2.960514307022094727e+00
8.573000000000000000e+03 2.459815216064453125e+01 6.050763130187988281e+00 -4.615743160247802734e+00 -2.605401039123535156e+00 -2.166343212127685547e+00 -3.351404428482055664e+00
8.574000000000000000e+03 2.424361228942871094e+01 5.820015430450439453e+00 -4.780492782592773438e+00 -2.463328361511230469e+00 -2.173146486282348633e+00 -3.380979537963867188e+00
8.575000000000000000e+03 2.288629722595214844e+01 4.957085609436035156e+00 -4.073452949523925781e+00 -1.721803903579711914e+00 -1.738577008247375488e+00 -2.710531711578369141e+00
8.576000000000000000e+03 2.257455825805664062e+01 4.721637248992919922e+00 -3.458792924880981445e+00 -1.601198911666870117e+00 -1.517997503280639648e+00 -2.406164407730102539e+00
8.577000000000000000e+03 1.947818183898925781e+01 2.024142265319824219e+00 -1.056390285491943359e+00 -1.108638644218444824e+00 -6.495086550712585449e-01 -1.217358469963073730e+00
8.578000000000000000e+03 1.982610702514648438e+01 2.928222179412841797e+00 -9.606261253356933594e-01 -6.745218038558959961e-01 -4.905443787574768066e-01 -7.858440876007080078e-01
8.579000000000000000e+03 2.083228874206542969e+01 2.681646585464477539e+00 -4.172947406768798828e-01 -6.202523708343505859e-01 -3.112641274929046631e-01 -6.147398948669433594e-01
8.580000000000000000e+03 1.949709129333496094e+01 2.715226173400878906e+00 -5.696539282798767090e-01 -4.555406868457794189e-01 -3.075583875179290771e-01 -5.687156319618225098e-01
8.581000000000000000e+03 1.919207572937011719e+01 2.472609281539916992e+00 -8.573848754167556763e-02 -3.463128507137298584e-01 -1.296154111623764038e-01 -3.260028362274169922e-01
8.582000000000000000e+03 2.121676445007324219e+01 3.790680646896362305e+00 -2.199039936065673828e+00 -1.254545092582702637e+00 -1.036075472831726074e+00 -1.599081516265869141e+00
8.583000000000000000e+03 2.519695091247558594e+01 6.583257198333740234e+00 -4.935819149017333984e+00 -2.559782743453979492e+00 -2.248680591583251953e+00 -3.639394521713256836e+00
8.584000000000000000e+03 1.563149452209472656e+01 6.393854022026062012e-01 5.686564922332763672e+00 1.037970304489135742e+00 2.017360687255859375e+00 -2.924086749553680420e-01
8.585000000000000000e+03 2.067097282409667969e+01 2.069600105285644531e+00 -4.317239761352539062e+00 -1.871852993965148926e+00 -1.856727838516235352e+00 -2.784062623977661133e+00
8.586000000000000000e+03 1.747878456115722656e+01 6.543330848217010498e-02 -3.824695646762847900e-01 -1.195437833666801453e-01 -1.506039947271347046e-01 -2.252382785081863403e-01
8.587000000000000000e+03 2.746684837341308594e+01 5.217572212219238281e+00 -2.654006004333496094e+00 -1.220090389251708984e+00 -1.162228941917419434e+00 -1.626211524009704590e+00
8.588000000000000000e+03 2.720285987854003906e+01 7.952029705047607422e+00 -3.923574209213256836e+00 -2.231105804443359375e+00 -1.846403956413269043e+00 -2.908324003219604492e+00
8.589000000000000000e+03 2.720083045959472656e+01 7.676205158233642578e+00 -2.840854406356811523e+00 -1.487029552459716797e+00 -1.298365235328674316e+00 -2.150576591491699219e+00
8.590000000000000000e+03 2.689942932128906250e+01 7.720446586608886719e+00 -4.150832653045654297e+00 -2.495609283447265625e+00 -1.993932604789733887e+00 -3.282126426696777344e+00
8.591000000000000000e+03 2.759079551696777344e+01 7.387093544006347656e+00 -1.600083261728286743e-01 8.306953310966491699e-02 -2.308164164423942566e-02 -2.735980749130249023e-01
8.592000000000000000e+03 2.735442161560058594e+01 8.031585693359375000e+00 -3.714483737945556641e+00 -1.745956540107727051e+00 -1.638132095336914062e+00 -2.743731737136840820e+00
8.593000000000000000e+03 2.757423591613769531e+01 7.161364555358886719e+00 1.106196522712707520e+00 5.612083077430725098e-01 5.002214312553405762e-01 5.731000900268554688e-01
8.594000000000000000e+03 1.913147354125976562e+01 1.708049178123474121e+00 -1.693859457969665527e+00 -1.233975172042846680e+00 -8.783503770828247070e-01 -1.527094125747680664e+00
8.595000000000000000e+03 1.783256149291992188e+01 6.709766387939453125e-01 -5.143767356872558594e+00 -2.137473106384277344e+00 -2.184372186660766602e+00 -3.243380784988403320e+00
8.596000000000000000e+03 2.203362846374511719e+01 3.262252807617187500e+00 9.638549089431762695e-01 1.461080759763717651e-01 3.329888880252838135e-01 4.117355942726135254e-01
8.597000000000000000e+03 2.494200134277343750e+01 5.372527599334716797e+00 1.553540706634521484e+00 3.731889426708221436e-01 5.780189037322998047e-01 9.641798734664916992e-01
8.598000000000000000e+03 2.355599021911621094e+01 4.197517395019531250e+00 2.623064994812011719e+00 7.485119700431823730e-01 1.011473059654235840e+00 1.382490158081054688e+00
8.599000000000000000e+03 1.835742568969726562e+01 9.198219180107116699e-01 -4.436540126800537109e+00 -1.722775101661682129e+00 -1.847794651985168457e+00 -2.847973108291625977e+00
8.600000000000000000e+03 1.981208992004394531e+01 1.908708810806274414e+00 -1.686395406723022461e+00 -9.168580174446105957e-01 -7.809760570526123047e-01 -1.356142878532409668e+00
8.601000000000000000e+03 1.889168930053710938e+01 1.260418415069580078e+00 -3.723975896835327148e+00 -1.447331905364990234e+00 -1.551392316818237305e+00 -2.306519269943237305e+00
8.602000000000000000e+03 2.579296684265136719e+01 5.605371475219726562e+00 3.782048940658569336e+00 1.405347228050231934e+00 1.556218862533569336e+00 2.225144147872924805e+00
8.603000000000000000e+03 2.328168487548828125e+01 4.355839252471923828e+00 8.929849267005920410e-01 -2.706652581691741943e-01 1.866958886384963989e-01 4.513139277696609497e-02
8.604000000000000000e+03 1.962993812561035156e+01 1.788683295249938965e+00 -2.099087238311767578e+00 -1.107001662254333496e+00 -9.618266820907592773e-01 -1.467569589614868164e+00
8.605000000000000000e+03 2.154427337646484375e+01 2.975977420806884766e+00 3.947690427303314209e-01 -1.427281796932220459e-01 7.561226189136505127e-02 -1.995949447154998779e-02
8.606000000000000000e+03 2.562596130371093750e+01 5.488987922668457031e+00 3.716297864913940430e+00 1.270720124244689941e+00 1.496105432510375977e+00 2.289326667785644531e+00
8.607000000000000000e+03 2.240906715393066406e+01 3.824522256851196289e+00 3.829610347747802734e-01 -4.444158375263214111e-01 -1.843644678592681885e-02 -2.481955140829086304e-01
8.608000000000000000e+03 1.945355224609375000e+01 1.662100911140441895e+00 -2.208593130111694336e+00 -1.120891332626342773e+00 -9.988453388214111328e-01 -1.723376274108886719e+00
8.609000000000000000e+03 2.344686126708984375e+01 4.526854038238525391e+00 5.681321620941162109e-01 -4.291031956672668457e-01 4.170869290828704834e-02 -1.853504627943038940e-01
8.610000000000000000e+03 2.002790832519531250e+01 2.680840253829956055e+00 -7.342487573623657227e-01 -9.674832224845886230e-01 -5.105196237564086914e-01 -9.975380301475524902e-01
8.611000000000000000e+03 1.999521446228027344e+01 2.037484884262084961e+00 -1.509743928909301758e+00 -9.035729169845581055e-01 -7.239950299263000488e-01 -1.155895471572875977e+00
8.612000000000000000e+03 2.472340774536132812e+01 5.524893760681152344e+00 -8.665415644645690918e-01 -8.489094972610473633e-01 -5.146353244781494141e-01 -7.116953134536743164e-01
8.613000000000000000e+03 1.850706863403320312e+01 1.045880794525146484e+00 -4.055710792541503906e+00 -1.713312506675720215e+00 -1.730706930160522461e+00 -2.677219390869140625e+00
8.614000000000000000e+03 1.807388114929199219e+01 1.353222250938415527e+00 -2.165584713220596313e-01 -9.491742849349975586e-01 -3.497198224067687988e-01 -8.632414340972900391e-01
8.615000000000000000e+03 2.476775360107421875e+01 5.282151699066162109e+00 1.237975358963012695e+00 1.562236100435256958e-01 4.182596802711486816e-01 6.579237580299377441e-01
8.616000000000000000e+03 1.802577590942382812e+01 7.688775658607482910e-01 -4.988602161407470703e+00 -1.966885566711425781e+00 -2.086646318435668945e+00 -3.122489690780639648e+00
8.617000000000000000e+03 1.751261901855468750e+01 4.459056854248046875e-01 -5.657474040985107422e+00 -1.789923906326293945e+00 -2.234219551086425781e+00 -3.553773403167724609e+00
8.618000000000000000e+03 1.748308944702148438e+01 7.161186337471008301e-01 -2.284897089004516602e+00 -1.065202713012695312e+00 -1.005029916763305664e+00 -2.018177986145019531e+00
8.619000000000000000e+03 2.175073432922363281e+01 3.445808649063110352e+00 -2.321271151304244995e-01 -6.483391523361206055e-01 -2.641398906707763672e-01 -5.594347119331359863e-01
8.620000000000000000e+03 2.698365974426269531e+01 6.330865859985351562e+00 3.946584224700927734e+00 1.530640959739685059e+00 1.643167614936828613e+00 2.321697473526000977e+00
8.621000000000000000e+03 2.316289901733398438e+01 4.730809688568115234e+00 -1.849831223487854004e+00 -1.271859645843505859e+00 -9.365072250366210938e-01 -1.643046617507934570e+00
8.622000000000000000e+03 2.390306663513183594e+01 4.072781562805175781e+00 -3.844767093658447266e+00 -1.411350131034851074e+00 -1.576835155487060547e+00 -2.338128566741943359e+00
8.623000000000000000e+03 2.434104156494140625e+01 4.051373481750488281e+00 -3.636788606643676758e+00 -1.235782027244567871e+00 -1.461771130561828613e+00 -2.105651855468750000e+00
8.624000000000000000e+03 1.749348831176757812e+01 -2.773938775062561035e-01 -9.229695200920104980e-01 -3.092406690120697021e-01 -3.696630597114562988e-01 -4.696953594684600830e-01
8.625000000000000000e+03 1.681100463867187500e+01 -3.843196630477905273e-01 -6.479628086090087891e-01 -1.495857983827590942e-01 -2.392645925283432007e-01 -3.181776702404022217e-01
8.626000000000000000e+03 2.064845657348632812e+01 1.720833301544189453e+00 -3.427535533905029297e+00 -1.882474541664123535e+00 -1.593003034591674805e+00 -2.687060356140136719e+00
8.627000000000000000e+03 2.354714202880859375e+01 3.523911237716674805e+00 -3.908170700073242188e+00 -1.274744391441345215e+00 -1.554874539375305176e+00 -2.245753288269042969e+00
8.628000000000000000e+03 2.284470939636230469e+01 3.051742553710937500e+00 -4.135755538940429688e+00 -1.302354097366333008e+00 -1.631432771682739258e+00 -2.389516115188598633e+00
8.629000000000000000e+03 2.114830780029296875e+01 1.961969375610351562e+00 -3.806223392486572266e+00 -1.605447053909301758e+00 -1.623501181602478027e+00 -2.699081897735595703e+00
8.630000000000000000e+03 2.664954948425292969e+01 5.772653579711914062e+00 -3.118632555007934570e+00 -1.225074052810668945e+00 -1.303112030029296875e+00 -1.952768564224243164e+00
8.631000000000000000e+03 2.085013771057128906e+01 2.169435262680053711e+00 -4.449984550476074219e+00 -1.757271409034729004e+00 -1.862176775932312012e+00 -2.906794548034667969e+00
8.632000000000000000e+03 2.347192382812500000e+01 2.782396554946899414e+00 -3.609257221221923828e+00 -8.529172539710998535e-01 -1.338652372360229492e+00 -1.799984931945800781e+00
8.633000000000000000e+03 2.442706489562988281e+01 4.389493942260742188e+00 -3.652611970901489258e+00 -1.355955839157104492e+00 -1.502570390701293945e+00 -2.207302331924438477e+00
8.634000000000000000e+03 1.697849273681640625e+01 -2.681143581867218018e-01 -5.672920942306518555e-01 -1.461176276206970215e-01 -2.140229195356369019e-01 -2.716373503208160400e-01
8.635000000000000000e+03 1.953655624389648438e+01 1.334767699241638184e+00 -2.120282411575317383e+00 -1.253426671028137207e+00 -1.012112736701965332e+00 -1.613385677337646484e+00
8.636000000000000000e+03 1.868786430358886719e+01 5.500091910362243652e-01 -1.121383428573608398e+00 -8.462662100791931152e-01 -5.902948975563049316e-01 -9.046742320060729980e-01
8.637000000000000000e+03 1.882062339782714844e+01 9.368521571159362793e-01 -9.801908135414123535e-01 -6.799640655517578125e-01 -4.980464577674865723e-01 -7.269951701164245605e-01
8.638000000000000000e+03 2.038509559631347656e+01 1.609160423278808594e+00 -3.074121236801147461e+00 -1.904616713523864746e+00 -1.493621349334716797e+00 -2.587014675140380859e+00
8.639000000000000000e+03 2.033870124816894531e+01 1.899681448936462402e+00 -3.917013406753540039e+00 -1.686014890670776367e+00 -1.680908441543579102e+00 -2.582556724548339844e+00
8.640000000000000000e+03 1.850164413452148438e+01 7.063417434692382812e-01 -5.388934612274169922e-01 -4.291864633560180664e-01 -2.904239892959594727e-01 -4.992211461067199707e-01
8.641000000000000000e+03 2.476949882507324219e+01 4.374063491821289062e+00 -3.482745885848999023e+00 -1.205816864967346191e+00 -1.406568884849548340e+00 -2.043704509735107422e+00
8.642000000000000000e+03 2.643661117553710938e+01 5.221018314361572266e+00 -3.056915283203125000e+00 -1.159633994102478027e+00 -1.264964818954467773e+00 -1.839636802673339844e+00
8.643000000000000000e+03 1.714562606811523438e+01 -1.553380340337753296e-01 -4.979985058307647705e-01 -1.170492619276046753e-01 -1.845143288373947144e-01 -2.545826137065887451e-01
8.644000000000000000e+03 2.687044715881347656e+01 5.361169338226318359e+00 -2.939625263214111328e+00 -1.175932168960571289e+00 -1.234667181968688965e+00 -1.802215695381164551e+00
8.645000000000000000e+03 2.709128570556640625e+01 5.285356521606445312e+00 -2.847869634628295898e+00 -1.198381900787353516e+00 -1.213875412940979004e+00 -1.748706102371215820e+00
8.646000000000000000e+03 2.118954086303710938e+01 1.274497270584106445e+00 -2.641409158706665039e+00 -1.491837024688720703e+00 -1.239973902702331543e+00 -2.679171800613403320e+00
8.647000000000000000e+03 2.019433784484863281e+01 1.759514331817626953e+00 -3.493859291076660156e+00 -1.604088664054870605e+00 -1.529384374618530273e+00 -2.502715587615966797e+00
8.648000000000000000e+03 2.018190765380859375e+01 1.064736366271972656e+00 -1.832452178001403809e+00 -2.327288389205932617e+00 -1.247922182083129883e+00 -2.660257816314697266e+00
8.649000000000000000e+03 1.935871696472167969e+01 1.216935992240905762e+00 -1.728448033332824707e+00 -1.075657606124877930e+00 -8.412316441535949707e-01 -1.509047269821166992e+00
8.650000000000000000e+03 2.539921188354492188e+01 3.561335802078247070e+00 -3.014307260513305664e+00 -7.745400667190551758e-01 -1.136654138565063477e+00 -1.476202487945556641e+00
8.651000000000000000e+03 1.571566581726074219e+01 -1.323912382125854492e+00 -1.102311372756958008e+00 -2.469995617866516113e-01 -4.047932922840118408e-01 -3.160502910614013672e-01
8.652000000000000000e+03 2.263900375366210938e+01 2.504871845245361328e+00 -3.808738231658935547e+00 -1.105825066566467285e+00 -1.474368929862976074e+00 -2.141213417053222656e+00
8.653000000000000000e+03 2.800488471984863281e+01 5.848486900329589844e+00 -2.629481554031372070e+00 -1.568349242210388184e+00 -1.259349226951599121e+00 -1.792077898979187012e+00
8.654000000000000000e+03 1.719545364379882812e+01 -1.510667562484741211e+00 -1.610964775085449219e+00 -7.820677161216735840e-01 -7.179097533226013184e-01 -8.237121701240539551e-01
8.655000000000000000e+03 1.787138938903808594e+01 -1.097423791885375977e+00 -1.778640151023864746e+00 -1.180762887001037598e+00 -8.878208994865417480e-01 -1.024962306022644043e+00
8.656000000000000000e+03 2.079612731933593750e+01 7.050688266754150391e-01 -1.769674777984619141e+00 -1.949118137359619141e+00 -1.115637898445129395e+00 -3.160836696624755859e+00
8.657000000000000000e+03 2.169133377075195312e+01 1.558170557022094727e+00 -3.075121879577636719e+00 -1.049353957176208496e+00 -1.237342715263366699e+00 -2.409634351730346680e+00
8.658000000000000000e+03 2.729758262634277344e+01 5.097759246826171875e+00 -2.702884674072265625e+00 -1.172952175140380859e+00 -1.162751078605651855e+00 -1.615915417671203613e+00
8.659000000000000000e+03 2.415109443664550781e+01 3.541301012039184570e+00 -3.602951765060424805e+00 -1.034183740615844727e+00 -1.391140699386596680e+00 -1.939589977264404297e+00
8.660000000000000000e+03 2.448440170288085938e+01 3.341402530670166016e+00 -3.341265678405761719e+00 -8.374098539352416992e-01 -1.253602623939514160e+00 -1.685334444046020508e+00
8.661000000000000000e+03 1.683305740356445312e+01 -1.691916942596435547e+00 -1.665618777275085449e+00 -5.626795291900634766e-01 -6.684895157814025879e-01 -7.302681207656860352e-01
8.662000000000000000e+03 2.622740745544433594e+01 7.297908306121826172e+00 -4.957845211029052734e+00 -2.859209299087524414e+00 -2.345116376876831055e+00 -3.740212440490722656e+00
8.663000000000000000e+03 2.697657012939453125e+01 5.983730792999267578e+00 -3.139779567718505859e+00 -1.257067799568176270e+00 -1.319054245948791504e+00 -1.968655109405517578e+00
8.664000000000000000e+03 2.779113769531250000e+01 5.052097320556640625e+00 -2.452212333679199219e+00 -1.220491647720336914e+00 -1.101811170578002930e+00 -1.458662509918212891e+00
8.665000000000000000e+03 2.248469924926757812e+01 4.194937229156494141e+00 -1.083043813705444336e+00 -9.925084710121154785e-01 -6.226657032966613770e-01 -1.145712852478027344e+00
8.666000000000000000e+03 2.810100364685058594e+01 6.046474933624267578e+00 -2.685008764266967773e+00 -1.678714513778686523e+00 -1.309116959571838379e+00 -1.881512403488159180e+00
8.667000000000000000e+03 2.771772384643554688e+01 5.859869003295898438e+00 -2.805039405822753906e+00 -1.454906463623046875e+00 -1.277983784675598145e+00 -1.895783901214599609e+00
8.668000000000000000e+03 2.727552604675292969e+01 5.811677932739257812e+00 -2.982589244842529297e+00 -1.299838662147521973e+00 -1.284728407859802246e+00 -1.921699881553649902e+00
8.669000000000000000e+03 1.802574157714843750e+01 -6.289025545120239258e-01 -1.482884168624877930e+00 -9.497594237327575684e-01 -7.297930717468261719e-01 -9.853405952453613281e-01
8.670000000000000000e+03 2.210570907592773438e+01 2.492837190628051758e+00 -4.148930072784423828e+00 -1.370734095573425293e+00 -1.655899286270141602e+00 -2.491581916809082031e+00
8.671000000000000000e+03 2.677413558959960938e+01 6.737572669982910156e+00 5.834034085273742676e-01 1.142504140734672546e-01 2.092961519956588745e-01 3.275981247425079346e-01
8.672000000000000000e+03 2.137590599060058594e+01 2.484710216522216797e+00 -4.687100410461425781e+00 -1.862230300903320312e+00 -1.964799165725708008e+00 -2.907897233963012695e+00
8.673000000000000000e+03 2.203787803649902344e+01 2.063200950622558594e+00 -3.684640169143676758e+00 -1.168133020401000977e+00 -1.455832004547119141e+00 -2.268186330795288086e+00
8.674000000000000000e+03 2.509796905517578125e+01 3.919186592102050781e+00 -3.303690671920776367e+00 -9.283249974250793457e-01 -1.269604682922363281e+00 -1.729665756225585938e+00
8.675000000000000000e+03 2.195049285888671875e+01 1.871048808097839355e+00 -3.393852472305297852e+00 -1.112632036209106445e+00 -1.351945400238037109e+00 -2.278905153274536133e+00
8.676000000000000000e+03 2.650942611694335938e+01 5.975653648376464844e+00 4.062725543975830078e+00 1.496544122695922852e+00 1.667780876159667969e+00 2.491287231445312500e+00
8.677000000000000000e+03 2.526243782043457031e+01 3.778376102447509766e+00 -3.137070655822753906e+00 -8.859756588935852051e-01 -1.206913948059082031e+00 -1.597358703613281250e+00
8.678000000000000000e+03 2.581404304504394531e+01 5.989075660705566406e+00 1.282779932022094727e+00 2.947165966033935547e-01 4.732489585876464844e-01 5.731381177902221680e-01
8.679000000000000000e+03 2.056393432617187500e+01 2.613148450851440430e+00 -5.887508392333984375e-01 -8.394794464111328125e-01 -4.284690916538238525e-01 -8.455660939216613770e-01
8.680000000000000000e+03 2.220507812500000000e+01 4.010235309600830078e+00 -1.091818690299987793e+00 -9.354989528656005859e-01 -6.081953048706054688e-01 -1.128804564476013184e+00
8.681000000000000000e+03 2.517549514770507812e+01 5.827631950378417969e+00 -8.512820005416870117e-01 -4.333532154560089111e-01 -3.853905797004699707e-01 -6.336201429367065430e-01
8.682000000000000000e+03 2.293656158447265625e+01 4.501118659973144531e+00 -1.189118027687072754e+00 -1.013172149658203125e+00 -6.606870293617248535e-01 -1.237957000732421875e+00
8.683000000000000000e+03 2.442124557495117188e+01 5.519610404968261719e+00 -2.009366989135742188e+00 -1.369149208068847656e+00 -1.013554930686950684e+00 -1.526974201202392578e+00
8.684000000000000000e+03 2.104181480407714844e+01 3.073762416839599609e+00 -5.409656763076782227e-01 -8.641104102134704590e-01 -4.215228259563446045e-01 -8.995104432106018066e-01
8.685000000000000000e+03 2.142096900939941406e+01 3.482760190963745117e+00 -8.674696087837219238e-01 -1.019535303115844727e+00 -5.661014318466186523e-01 -1.103589892387390137e+00
8.686000000000000000e+03 2.412429046630859375e+01 5.373105525970458984e+00 -2.392874717712402344e+00 -1.470398783683776855e+00 -1.158982038497924805e+00 -1.783136248588562012e+00
8.687000000000000000e+03 2.116611099243164062e+01 3.312534093856811523e+00 -8.724983930587768555e-01 -1.074635982513427734e+00 -5.841403007507324219e-01 -1.080488562583923340e+00
8.688000000000000000e+03 1.517877674102783203e+01 2.289497256278991699e-01 -5.835508704185485840e-01 1.932729005813598633e+00 4.047534465789794922e-01 -1.244237065315246582e+00
8.689000000000000000e+03 2.783670806884765625e+01 5.383440017700195312e+00 -2.542659997940063477e+00 -1.331313014030456543e+00 -1.162191867828369141e+00 -1.602663397789001465e+00
8.690000000000000000e+03 1.819314384460449219e+01 -5.126250386238098145e-01 -1.610737800598144531e+00 -1.234840869903564453e+00 -8.536736369132995605e-01 -1.098253250122070312e+00
8.691000000000000000e+03 2.597503852844238281e+01 5.709755897521972656e+00 3.880790472030639648e+00 1.343014597892761230e+00 1.567141532897949219e+00 2.245505571365356445e+00
8.692000000000000000e+03 1.796308708190917969e+01 1.059279084205627441e+00 -1.606871128082275391e+00 -1.273855447769165039e+00 -8.642179965972900391e-01 -1.704392552375793457e+00
8.693000000000000000e+03 2.720183753967285156e+01 6.784772396087646484e+00 1.855097889900207520e+00 6.703925132751464844e-01 7.576471567153930664e-01 1.203535199165344238e+00
8.694000000000000000e+03 1.673983955383300781e+01 5.516457557678222656e-01 -1.012782335281372070e+00 -2.621256113052368164e-01 -3.824723660945892334e-01 -8.082173466682434082e-01
8.695000000000000000e+03 2.389292526245117188e+01 4.802043437957763672e+00 7.347449064254760742e-01 -2.293803095817565918e-01 1.516093760728836060e-01 -4.431940615177154541e-02
8.696000000000000000e+03 1.610945892333984375e+01 3.070570528507232666e-01 -6.994547247886657715e-01 1.477633565664291382e-01 -1.655074059963226318e-01 -8.603740930557250977e-01
8.697000000000000000e+03 2.368414306640625000e+01 3.659442424774169922e+00 -3.905576467514038086e+00 -1.301071882247924805e+00 -1.561994552612304688e+00 -2.231698513031005859e+00
8.698000000000000000e+03 2.561004066467285156e+01 4.838339805603027344e+00 -3.265101432800292969e+00 -1.146564126014709473e+00 -1.323499679565429688e+00 -1.932676076889038086e+00
8.699000000000000000e+03 2.371541023254394531e+01 2.803117275238037109e+00 -3.450546979904174805e+00 -8.183294534683227539e-01 -1.280662894248962402e+00 -1.712458014488220215e+00
8.700000000000000000e+03 2.558269309997558594e+01 4.275063514709472656e+00 -3.128252744674682617e+00 -9.790583848953247070e-01 -1.232193350791931152e+00 -1.716618657112121582e+00
8.701000000000000000e+03 2.534510612487792969e+01 4.405199050903320312e+00 -3.286210298538208008e+00 -1.066273689270019531e+00 -1.305745124816894531e+00 -1.853596448898315430e+00
8.702000000000000000e+03 2.360383987426757812e+01 3.146109819412231445e+00 -3.741587400436401367e+00 -1.044766783714294434e+00 -1.435906291007995605e+00 -1.993395328521728516e+00
8.703000000000000000e+03 2.136069869995117188e+01 1.376713991165161133e+00 -2.791235446929931641e+00 -1.155113458633422852e+00 -1.183904767036437988e+00 -2.609154462814331055e+00
8.704000000000000000e+03 1.911192321777343750e+01 8.317236304283142090e-01 -1.019774913787841797e+00 -1.503219366073608398e+00 -7.568982839584350586e-01 -1.207425355911254883e+00
8.705000000000000000e+03 2.709817886352539062e+01 5.751211166381835938e+00 -3.007882356643676758e+00 -1.258274674415588379e+00 -1.279847025871276855e+00 -1.907831788063049316e+00
8.706000000000000000e+03 2.756222724914550781e+01 5.541855812072753906e+00 -2.721581935882568359e+00 -1.318541646003723145e+00 -1.212037086486816406e+00 -1.755199670791625977e+00
8.707000000000000000e+03 1.706620979309082031e+01 -1.017040967941284180e+00 -1.345746636390686035e+00 -3.735009133815765381e-01 -5.157742500305175781e-01 -6.269474625587463379e-01
8.708000000000000000e+03 2.030491447448730469e+01 7.856969833374023438e-01 -1.516680479049682617e+00 -2.345881462097167969e+00 -1.158768653869628906e+00 -2.900420188903808594e+00
8.709000000000000000e+03 2.607737541198730469e+01 4.842619895935058594e+00 -3.075424194335937500e+00 -1.086962103843688965e+00 -1.248715877532958984e+00 -1.803057909011840820e+00
8.710000000000000000e+03 2.666492843627929688e+01 4.805519580841064453e+00 -2.878529310226440430e+00 -1.044591188430786133e+00 -1.176936149597167969e+00 -1.641411542892456055e+00
8.711000000000000000e+03 2.630720329284667969e+01 4.768382549285888672e+00 -3.009665012359619141e+00 -1.050232410430908203e+00 -1.217969179153442383e+00 -1.719821929931640625e+00
8.712000000000000000e+03 2.283657073974609375e+01 1.973399281501770020e+00 -3.273749828338623047e+00 -7.635369300842285156e-01 -1.211186051368713379e+00 -1.788542509078979492e+00
8.713000000000000000e+03 2.334562683105468750e+01 2.934128522872924805e+00 -3.786167383193969727e+00 -1.056692719459533691e+00 -1.452858090400695801e+00 -1.999620556831359863e+00
8.714000000000000000e+03 1.984938049316406250e+01 5.231701135635375977e-01 -9.511274695396423340e-01 -2.463652849197387695e+00 -1.024434089660644531e+00 -2.332629919052124023e+00
8.715000000000000000e+03 2.011395072937011719e+01 7.077939510345458984e-01 -1.331656932830810547e+00 -2.795928716659545898e+00 -1.238275766372680664e+00 -2.803088426589965820e+00
8.716000000000000000e+03 1.963491249084472656e+01 7.110378742218017578e-01 -1.356822609901428223e+00 -2.380490303039550781e+00 -1.121193885803222656e+00 -2.174290418624877930e+00
8.717000000000000000e+03 1.723280715942382812e+01 -1.188942551612854004e+00 -1.614013195037841797e+00 -6.260224580764770508e-01 -6.720107197761535645e-01 -7.362138032913208008e-01
8.718000000000000000e+03 1.616164016723632812e+01 -1.410947084426879883e+00 -1.315331697463989258e+00 -3.700258433818817139e-01 -5.056072473526000977e-01 -3.782551288604736328e-01
8.719000000000000000e+03 2.569254302978515625e+01 4.493881225585937500e+00 -3.195038557052612305e+00 -1.018265724182128906e+00 -1.263991355895996094e+00 -1.775126576423645020e+00
8.720000000000000000e+03 1.685601615905761719e+01 -1.279227972030639648e+00 -1.543715119361877441e+00 -4.195516407489776611e-01 -5.889800190925598145e-01 -5.977877378463745117e-01
8.721000000000000000e+03 1.799986267089843750e+01 -2.705654203891754150e-01 -1.195720076560974121e+00 -6.462213397026062012e-01 -5.525823831558227539e-01 -7.482298016548156738e-01
8.722000000000000000e+03 2.143686676025390625e+01 1.690131187438964844e+00 -3.326137542724609375e+00 -1.314848303794860840e+00 -1.392295718193054199e+00 -2.528043746948242188e+00
8.723000000000000000e+03 2.634053611755371094e+01 6.562598705291748047e+00 -1.410169303417205811e-01 -4.250950217247009277e-01 -1.698335856199264526e-01 -1.896726489067077637e-01
8.724000000000000000e+03 2.582064056396484375e+01 6.539969921112060547e+00 -2.403709888458251953e+00 -1.397247433662414551e+00 -1.140287280082702637e+00 -1.832473874092102051e+00
8.725000000000000000e+03 2.690040969848632812e+01 7.386531829833984375e+00 -2.550536632537841797e+00 -1.415727615356445312e+00 -1.189879298210144043e+00 -1.936561822891235352e+00
8.726000000000000000e+03 2.739855003356933594e+01 6.886539459228515625e+00 2.078466892242431641e+00 8.211096525192260742e-01 8.698729872703552246e-01 1.219725131988525391e+00
8.727000000000000000e+03 2.546012306213378906e+01 6.374949455261230469e+00 -2.748223304748535156e+00 -1.560604929924011230e+00 -1.292648434638977051e+00 -2.168518781661987305e+00
8.728000000000000000e+03 2.576717567443847656e+01 6.282899379730224609e+00 -9.347214102745056152e-01 -5.624203085899353027e-01 -4.491424858570098877e-01 -8.025155663490295410e-01
8.729000000000000000e+03 2.224742889404296875e+01 2.353343725204467773e+00 -3.925431013107299805e+00 -1.269623517990112305e+00 -1.558516383171081543e+00 -2.326873302459716797e+00
8.730000000000000000e+03 1.846948242187500000e+01 3.501643538475036621e-01 -9.713298678398132324e-01 -9.467867612838745117e-01 -5.754349827766418457e-01 -7.666781544685363770e-01
8.731000000000000000e+03 2.635047340393066406e+01 7.097494602203369141e+00 -3.386403560638427734e+00 -1.965682387351989746e+00 -1.605625867843627930e+00 -2.429584503173828125e+00
8.732000000000000000e+03 1.812079811096191406e+01 1.768802553415298462e-01 -7.919771075248718262e-01 -5.719413757324218750e-01 -4.091755449771881104e-01 -5.505461096763610840e-01
8.733000000000000000e+03 2.571139526367187500e+01 6.977231502532958984e+00 -5.475832462310791016e+00 -2.846237421035766602e+00 -2.496621131896972656e+00 -3.845626354217529297e+00
8.734000000000000000e+03 2.285479354858398438e+01 4.230628013610839844e+00 -1.471192240715026855e-01 -6.259836554527282715e-01 -2.319308668375015259e-01 -5.754606127738952637e-01
8.735000000000000000e+03 1.606735420227050781e+01 -3.954804837703704834e-01 -4.400543212890625000e+00 -3.071489930152893066e-01 -1.412307620048522949e+00 -2.384910345077514648e+00
8.736000000000000000e+03 1.644632148742675781e+01 -1.453485488891601562e+00 -1.471222400665283203e+00 -3.639295399188995361e-01 -5.505455732345581055e-01 -5.269235372543334961e-01
8.737000000000000000e+03 1.625562286376953125e+01 -1.167083740234375000e+00 -1.205733299255371094e+00 -2.674919366836547852e-01 -4.419675767421722412e-01 -3.127548396587371826e-01
8.738000000000000000e+03 1.906036376953125000e+01 1.955818653106689453e+00 -6.595240831375122070e-01 -9.333201050758361816e-01 -4.778532683849334717e-01 -1.021097779273986816e+00
8.739000000000000000e+03 1.830961990356445312e+01 -2.198664695024490356e-01 -1.542194247245788574e+00 -1.101078391075134277e+00 -7.929817438125610352e-01 -1.135522007942199707e+00
8.740000000000000000e+03 1.897157478332519531e+01 5.663049221038818359e-01 -1.420958518981933594e+00 -1.461164474487304688e+00 -8.646368980407714844e-01 -1.489851236343383789e+00
8.741000000000000000e+03 2.714145660400390625e+01 5.515115261077880859e+00 -2.904622316360473633e+00 -1.222790718078613281e+00 -1.238223910331726074e+00 -1.816891074180603027e+00
8.742000000000000000e+03 2.736359596252441406e+01 5.513992786407470703e+00 -2.824164390563964844e+00 -1.281719923019409180e+00 -1.231765270233154297e+00 -1.783137083053588867e+00
8.743000000000000000e+03 2.710399055480957031e+01 7.190565109252929688e+00 -8.628299832344055176e-01 -3.415784835815429688e-01 -3.613225221633911133e-01 -5.404237508773803711e-01
8.744000000000000000e+03 2.526805114746093750e+01 6.093179225921630859e+00 -1.932818770408630371e+00 -9.690759181976318359e-01 -8.705683946609497070e-01 -1.488417387008666992e+00
8.745000000000000000e+03 2.039383125305175781e+01 1.114218592643737793e+00 -2.028377771377563477e+00 -2.097130060195922852e+00 -1.237652301788330078e+00 -2.746243953704833984e+00
8.746000000000000000e+03 2.417414855957031250e+01 3.933209896087646484e+00 -3.686537742614746094e+00 -1.209486246109008789e+00 -1.468807220458984375e+00 -2.130204677581787109e+00
8.747000000000000000e+03 2.251664733886718750e+01 2.358477115631103516e+00 -3.786188602447509766e+00 -1.110018253326416016e+00 -1.468862056732177734e+00 -2.164563655853271484e+00
8.748000000000000000e+03 1.867271995544433594e+01 3.759214282035827637e-01 -6.738013625144958496e-01 -1.079062104225158691e+00 -5.258590579032897949e-01 -1.085492134094238281e+00
8.749000000000000000e+03 1.949674224853515625e+01 9.525567889213562012e-01 -1.427164793014526367e+00 -2.070925712585449219e+00 -1.049427151679992676e+00 -1.814134597778320312e+00
8.750000000000000000e+03 1.783939170837402344e+01 -3.905213475227355957e-01 -1.295763850212097168e+00 -6.668816804885864258e-01 -5.887936353683471680e-01 -7.450680136680603027e-01
8.751000000000000000e+03 2.321898460388183594e+01 3.217948198318481445e+00 -3.990207910537719727e+00 -1.227944970130920410e+00 -1.565445899963378906e+00 -2.250540018081665039e+00
8.752000000000000000e+03 2.300796318054199219e+01 2.877877712249755859e+00 -3.932081699371337891e+00 -1.147058486938476562e+00 -1.523742079734802246e+00 -2.162741661071777344e+00
8.753000000000000000e+03 2.580160903930664062e+01 4.695583820343017578e+00 -3.153999805450439453e+00 -1.076121807098388672e+00 -1.269036531448364258e+00 -1.818965554237365723e+00
8.754000000000000000e+03 2.489657402038574219e+01 4.026909351348876953e+00 -3.373980045318603516e+00 -1.037716984748840332e+00 -1.323509097099304199e+00 -1.855769157409667969e+00
8.755000000000000000e+03 1.720486450195312500e+01 -8.704810738563537598e-01 -1.424779415130615234e+00 -4.225699007511138916e-01 -5.542048215866088867e-01 -6.083424687385559082e-01
8.756000000000000000e+03 1.967807006835937500e+01 1.468261122703552246e+00 -2.441349983215332031e+00 -1.275430798530578613e+00 -1.115034222602844238e+00 -1.907389760017395020e+00
8.757000000000000000e+03 1.999178695678710938e+01 9.750122427940368652e-01 -1.656411409378051758e+00 -2.208494186401367188e+00 -1.159471631050109863e+00 -2.452791213989257812e+00
8.758000000000000000e+03 1.881453514099121094e+01 -1.145941466093063354e-01 -1.239448070526123047e+00 -1.624892592430114746e+00 -8.593022227287292480e-01 -1.208091616630554199e+00
8.759000000000000000e+03 2.476461601257324219e+01 3.816526651382446289e+00 -3.395442485809326172e+00 -9.656751751899719238e-01 -1.308335304260253906e+00 -1.789834260940551758e+00
8.760000000000000000e+03 2.222923851013183594e+01 2.596244335174560547e+00 -4.212327480316162109e+00 -1.455253601074218750e+00 -1.700274348258972168e+00 -2.466714859008789062e+00
8.761000000000000000e+03 2.157818603515625000e+01 1.730562210083007812e+00 -3.309681653976440430e+00 -1.260183930397033691e+00 -1.370959639549255371e+00 -2.480056524276733398e+00
8.762000000000000000e+03 1.753607368469238281e+01 -9.707576036453247070e-01 -1.624151349067687988e+00 -7.411967515945434570e-01 -7.096044421195983887e-01 -8.261857032775878906e-01
8.763000000000000000e+03 1.557396507263183594e+01 -2.852958738803863525e-01 -5.555592536926269531e+00 1.382489919662475586e+00 -1.251930713653564453e+00 -1.260010004043579102e+00
8.764000000000000000e+03 1.580789661407470703e+01 -2.014942407608032227e+00 -1.277683973312377930e+00 -3.902546763420104980e-01 -5.003815889358520508e-01 -5.232973098754882812e-01
8.765000000000000000e+03 2.779977416992187500e+01 6.011123180389404297e+00 -2.893156766891479492e+00 -1.517818808555603027e+00 -1.323292613029479980e+00 -1.961609244346618652e+00
8.766000000000000000e+03 2.430105209350585938e+01 3.707533121109008789e+00 -3.577674865722656250e+00 -1.073537588119506836e+00 -1.395363688468933105e+00 -1.937876820564270020e+00
8.767000000000000000e+03 1.976152992248535156e+01 8.037325739860534668e-01 -1.481218218803405762e+00 -2.039359569549560547e+00 -1.056173324584960938e+00 -2.175280809402465820e+00
8.768000000000000000e+03 2.400750732421875000e+01 3.809019565582275391e+00 -3.762027978897094727e+00 -1.253031969070434570e+00 -1.504517912864685059e+00 -2.146257638931274414e+00
8.769000000000000000e+03 2.676595687866210938e+01 6.886943340301513672e+00 -2.669807374477386475e-01 -2.997627854347229004e-01 -1.700230538845062256e-01 -1.794540733098983765e-01
8.770000000000000000e+03 2.651888465881347656e+01 7.204801559448242188e+00 -3.247717618942260742e+00 -1.927370190620422363e+00 -1.552526354789733887e+00 -2.344520568847656250e+00
8.771000000000000000e+03 1.628826141357421875e+01 -2.017508745193481445e+00 -1.342403173446655273e+00 -4.973626136779785156e-01 -5.519297719001770020e-01 -6.400141119956970215e-01
8.772000000000000000e+03 2.591839790344238281e+01 4.346871852874755859e+00 -3.014673233032226562e+00 -9.641455411911010742e-01 -1.193645596504211426e+00 -1.635283708572387695e+00
8.773000000000000000e+03 1.501998519897460938e+01 -1.876763939857482910e+00 -1.131490945816040039e+00 -1.578020304441452026e-01 -3.867878913879394531e-01 -3.520787060260772705e-01
8.774000000000000000e+03 2.733472442626953125e+01 7.141497611999511719e+00 2.725097239017486572e-01 2.287084162235260010e-01 1.503654420375823975e-01 2.267594784498214722e-01
8.775000000000000000e+03 2.684387207031250000e+01 6.556024074554443359e+00 1.822690486907958984e+00 7.988577485084533691e-01 7.864644527435302734e-01 1.120984435081481934e+00
8.776000000000000000e+03 2.666568374633789062e+01 6.083534240722656250e+00 3.946318626403808594e+00 1.521467924118041992e+00 1.640335917472839355e+00 2.497283220291137695e+00
8.777000000000000000e+03 2.625601196289062500e+01 6.063596248626708984e+00 2.657695293426513672e+00 7.839021682739257812e-01 1.032479166984558105e+00 1.522997498512268066e+00
8.778000000000000000e+03 2.616489219665527344e+01 5.798119544982910156e+00 4.000144481658935547e+00 1.335908770561218262e+00 1.600816011428833008e+00 2.310777664184570312e+00
8.779000000000000000e+03 2.606442070007324219e+01 6.034417629241943359e+00 2.004230022430419922e+00 5.463538765907287598e-01 7.651751637458801270e-01 1.107375383377075195e+00
8.780000000000000000e+03 2.558020401000976562e+01 5.873181343078613281e+00 1.074288368225097656e+00 1.436146795749664307e-01 3.653709292411804199e-01 3.903042674064636230e-01
8.781000000000000000e+03 2.528006172180175781e+01 5.593722820281982422e+00 1.439214706420898438e+00 4.004942178726196289e-01 5.519126653671264648e-01 8.005741834640502930e-01
8.782000000000000000e+03 2.545791816711425781e+01 5.377339839935302734e+00 3.762782573699951172e+00 1.213585853576660156e+00 1.492910504341125488e+00 2.172892332077026367e+00
8.783000000000000000e+03 2.511786651611328125e+01 5.163075447082519531e+00 3.512657880783081055e+00 1.274608969688415527e+00 1.436179995536804199e+00 2.145760774612426758e+00
8.784000000000000000e+03 2.478065109252929688e+01 4.935214519500732422e+00 3.578291893005371094e+00 1.368260383605957031e+00 1.483965635299682617e+00 1.970147848129272461e+00
8.785000000000000000e+03 2.434786415100097656e+01 4.955834388732910156e+00 1.466265320777893066e+00 1.524853110313415527e-01 4.856251776218414307e-01 7.802745103836059570e-01
8.786000000000000000e+03 2.371851730346679688e+01 4.320669174194335938e+00 2.792846679687500000e+00 7.823449373245239258e-01 1.072557568550109863e+00 1.482014775276184082e+00
8.787000000000000000e+03 2.365928649902343750e+01 4.679716110229492188e+00 4.907201826572418213e-01 -4.043008983135223389e-01 2.592578530311584473e-02 -1.895919740200042725e-01
8.788000000000000000e+03 2.341914558410644531e+01 4.077101707458496094e+00 2.413529634475708008e+00 6.168935298919677734e-01 9.091269373893737793e-01 1.319032311439514160e+00
8.789000000000000000e+03 2.287387466430664062e+01 3.978004455566406250e+00 1.217363834381103516e+00 -1.205693259835243225e-01 3.290383517742156982e-01 3.050040900707244873e-01
8.790000000000000000e+03 2.257127761840820312e+01 3.593299865722656250e+00 1.512826442718505859e+00 3.293330371379852295e-01 5.526478290557861328e-01 7.073152661323547363e-01
8.791000000000000000e+03 2.238205909729003906e+01 3.494225025177001953e+00 1.330791592597961426e+00 1.931721568107604980e-01 4.571891129016876221e-01 6.252950429916381836e-01
8.792000000000000000e+03 2.175230789184570312e+01 3.041884422302246094e+00 5.246573686599731445e-01 -9.105783700942993164e-02 1.300798654556274414e-01 2.167024612426757812e-01
8.793000000000000000e+03 2.091606521606445312e+01 2.871060132980346680e+00 -3.616674542427062988e-01 -7.179385423660278320e-01 -3.238818049430847168e-01 -7.214036583900451660e-01
8.794000000000000000e+03 2.039735031127929688e+01 2.418879747390747070e+00 -8.225728869438171387e-01 -8.561006188392639160e-01 -5.036020278930664062e-01 -9.271881580352783203e-01
8.795000000000000000e+03 2.056420326232910156e+01 2.295139312744140625e+00 -8.434826135635375977e-01 -4.758086800575256348e-01 -3.957873880863189697e-01 -6.147046089172363281e-01
8.796000000000000000e+03 1.985025787353515625e+01 2.300310134887695312e+00 -9.412114024162292480e-01 -1.094823360443115234e+00 -6.108104586601257324e-01 -1.185820460319519043e+00
8.797000000000000000e+03 1.921669578552246094e+01 1.422919631004333496e+00 -3.301698923110961914e+00 -1.231669664382934570e+00 -1.360010623931884766e+00 -2.190359354019165039e+00
8.798000000000000000e+03 1.834779357910156250e+01 1.595245122909545898e+00 1.215836182236671448e-01 -7.833117246627807617e-01 -1.985184252262115479e-01 -5.431785583496093750e-01
8.799000000000000000e+03 1.854553031921386719e+01 1.398307919502258301e+00 -1.730111956596374512e+00 -1.414070129394531250e+00 -9.432545900344848633e-01 -1.669539570808410645e+00
8.800000000000000000e+03 1.820831489562988281e+01 8.324990868568420410e-01 -4.817834377288818359e+00 -1.881711959838867188e+00 -2.009863853454589844e+00 -2.975473880767822266e+00
8.801000000000000000e+03 1.684770965576171875e+01 3.050752580165863037e-01 -3.542919158935546875e+00 -1.413185834884643555e+00 -1.486831545829772949e+00 -2.702654838562011719e+00
8.802000000000000000e+03 1.643051910400390625e+01 4.287737011909484863e-01 -4.268966913223266602e-01 -3.126493692398071289e-01 -2.218638211488723755e-01 -8.698422908782958984e-01
8.803000000000000000e+03 1.508499240875244141e+01 -1.196102350950241089e-01 -4.938435077667236328e+00 7.258238792419433594e-01 -1.263783335685729980e+00 -4.294200837612152100e-01
8.804000000000000000e+03 1.489139747619628906e+01 -4.429558813571929932e-01 -8.270322799682617188e+00 -2.108891457319259644e-01 -2.544363498687744141e+00 5.877935886383056641e-01
8.805000000000000000e+03 1.458994865417480469e+01 1.278747320175170898e-01 -2.516375541687011719e+00 6.482702493667602539e-01 -5.604315996170043945e-01 3.044748604297637939e-01
8.806000000000000000e+03 2.798352813720703125e+01 6.378621101379394531e+00 -3.089920043945312500e+00 -1.673166275024414062e+00 -1.428925991058349609e+00 -2.191119670867919922e+00
8.807000000000000000e+03 2.744732856750488281e+01 5.919847488403320312e+00 -2.973623037338256836e+00 -1.373855352401733398e+00 -1.304243445396423340e+00 -1.960318207740783691e+00
8.808000000000000000e+03 2.681096076965332031e+01 5.881733417510986328e+00 -3.128285646438598633e+00 -1.227279663085937500e+00 -1.306669592857360840e+00 -1.961245894432067871e+00
8.809000000000000000e+03 2.695290946960449219e+01 5.657287120819091797e+00 -3.023821115493774414e+00 -1.221926689147949219e+00 -1.273724317550659180e+00 -1.891472101211547852e+00
8.810000000000000000e+03 2.680890464782714844e+01 5.554503917694091797e+00 -3.058609724044799805e+00 -1.193197250366210938e+00 -1.275542020797729492e+00 -1.881704807281494141e+00
8.811000000000000000e+03 2.595121192932128906e+01 5.348055839538574219e+00 -3.201689720153808594e+00 -1.208152413368225098e+00 -1.322952628135681152e+00 -1.976169943809509277e+00
8.812000000000000000e+03 2.624352073669433594e+01 5.168264389038085938e+00 -3.117434978485107422e+00 -1.131877899169921875e+00 -1.274793863296508789e+00 -1.875202417373657227e+00
8.813000000000000000e+03 2.577732086181640625e+01 5.259509563446044922e+00 -3.242374897003173828e+00 -1.233989953994750977e+00 -1.342909455299377441e+00 -1.983538985252380371e+00
8.814000000000000000e+03 2.587140464782714844e+01 5.063723564147949219e+00 -3.187172651290893555e+00 -1.152758002281188965e+00 -1.301979184150695801e+00 -1.930004954338073730e+00
8.815000000000000000e+03 2.528497123718261719e+01 4.897889137268066406e+00 -3.363690376281738281e+00 -1.243524312973022461e+00 -1.382164359092712402e+00 -2.047670602798461914e+00
8.816000000000000000e+03 2.476001930236816406e+01 4.607118606567382812e+00 -3.522588253021240234e+00 -1.312442183494567871e+00 -1.450509071350097656e+00 -2.136771678924560547e+00
8.817000000000000000e+03 2.340548515319824219e+01 3.757633924484252930e+00 -4.085367679595947266e+00 -1.509812831878662109e+00 -1.678554177284240723e+00 -2.446421861648559570e+00
8.818000000000000000e+03 2.324150848388671875e+01 3.638243675231933594e+00 -4.147807121276855469e+00 -1.484425663948059082e+00 -1.689669847488403320e+00 -2.519495010375976562e+00
8.819000000000000000e+03 2.301863098144531250e+01 3.138655900955200195e+00 -4.078413486480712891e+00 -1.328919529914855957e+00 -1.622199892997741699e+00 -2.287528276443481445e+00
8.820000000000000000e+03 2.266702651977539062e+01 2.957285165786743164e+00 -4.210534095764160156e+00 -1.401407718658447266e+00 -1.683582663536071777e+00 -2.407221317291259766e+00
8.821000000000000000e+03 2.203386688232421875e+01 2.941110372543334961e+00 -4.668596267700195312e+00 -1.778036832809448242e+00 -1.933989882469177246e+00 -2.826654672622680664e+00
8.822000000000000000e+03 2.213482093811035156e+01 2.759301662445068359e+00 -4.401071071624755859e+00 -1.504685640335083008e+00 -1.771727085113525391e+00 -2.665820598602294922e+00
8.823000000000000000e+03 2.154034233093261719e+01 2.606009721755981445e+00 -4.690177440643310547e+00 -1.758443593978881836e+00 -1.934586405754089355e+00 -2.954187870025634766e+00
8.824000000000000000e+03 2.183447265625000000e+01 2.533674716949462891e+00 -4.370078563690185547e+00 -1.546740293502807617e+00 -1.775045633316040039e+00 -2.701040744781494141e+00
8.825000000000000000e+03 2.136129570007324219e+01 2.078829288482666016e+00 -3.959319591522216797e+00 -1.667464256286621094e+00 -1.688035130500793457e+00 -2.624566555023193359e+00
8.826000000000000000e+03 2.154104804992675781e+01 2.237478971481323242e+00 -4.118116378784179688e+00 -1.543235778808593750e+00 -1.698405623435974121e+00 -2.682081937789916992e+00
8.827000000000000000e+03 2.077692985534667969e+01 1.859538793563842773e+00 -3.723863363265991211e+00 -1.776684522628784180e+00 -1.650164365768432617e+00 -2.687788963317871094e+00
8.828000000000000000e+03 2.049374771118164062e+01 1.987400770187377930e+00 -4.184756755828857422e+00 -1.712400794029235840e+00 -1.769147276878356934e+00 -2.708564996719360352e+00
8.829000000000000000e+03 2.048386955261230469e+01 1.801054954528808594e+00 -3.631157636642456055e+00 -1.815740942955017090e+00 -1.634069561958312988e+00 -2.689082860946655273e+00
8.830000000000000000e+03 2.034474945068359375e+01 1.374484896659851074e+00 -2.548927545547485352e+00 -2.017752170562744141e+00 -1.370003938674926758e+00 -2.657285451889038086e+00
8.831000000000000000e+03 1.986848831176757812e+01 1.354785084724426270e+00 -2.237670421600341797e+00 -1.774004578590393066e+00 -1.203502535820007324e+00 -2.253684759140014648e+00
8.832000000000000000e+03 1.977758979797363281e+01 1.160026073455810547e+00 -1.954361796379089355e+00 -2.028804302215576172e+00 -1.194949865341186523e+00 -2.197280645370483398e+00
8.833000000000000000e+03 1.899002265930175781e+01 1.033178091049194336e+00 -1.151275157928466797e+00 -7.287091016769409180e-01 -5.639953017234802246e-01 -1.000369191169738770e+00
8.834000000000000000e+03 1.865701293945312500e+01 8.324456810951232910e-01 -7.351821660995483398e-01 -4.423320889472961426e-01 -3.532542586326599121e-01 -6.401286125183105469e-01
8.835000000000000000e+03 1.796325874328613281e+01 6.934621185064315796e-02 -7.804172039031982422e-01 -4.024451673030853271e-01 -3.548586964607238770e-01 -5.319356322288513184e-01
8.836000000000000000e+03 1.781099510192871094e+01 -4.681610688567161560e-02 -8.047160506248474121e-01 -4.245336353778839111e-01 -3.687748908996582031e-01 -4.997361600399017334e-01
8.837000000000000000e+03 1.731255149841308594e+01 -4.446045309305191040e-02 -4.386506974697113037e-01 -1.419009715318679810e-01 -1.741655021905899048e-01 -2.101091593503952026e-01
8.838000000000000000e+03 1.716968917846679688e+01 -5.165702104568481445e-01 -1.034011602401733398e+00 -2.573772072792053223e-01 -3.874166309833526611e-01 -4.709996581077575684e-01
8.839000000000000000e+03 1.733124160766601562e+01 -3.948403298854827881e-01 -9.330428838729858398e-01 -2.742573916912078857e-01 -3.621900677680969238e-01 -4.673865139484405518e-01
8.840000000000000000e+03 1.700969696044921875e+01 -6.479260325431823730e-01 -1.094153523445129395e+00 -2.313856333494186401e-01 -3.976617455482482910e-01 -4.921334683895111084e-01
8.841000000000000000e+03 1.667558479309082031e+01 -9.449340701103210449e-01 -1.289440035820007324e+00 -2.313414365053176880e-01 -4.562344551086425781e-01 -4.798598885536193848e-01
8.842000000000000000e+03 2.749036979675292969e+01 7.732102394104003906e+00 -2.167148828506469727e+00 -8.423330783843994141e-01 -9.028445482254028320e-01 -1.624821186065673828e+00
8.843000000000000000e+03 2.737743186950683594e+01 7.516111850738525391e+00 -1.517333149909973145e+00 -5.649465322494506836e-01 -6.246839165687561035e-01 -1.140033006668090820e+00
8.844000000000000000e+03 2.775899505615234375e+01 7.781839847564697266e+00 -1.734437227249145508e+00 -2.780368328094482422e-01 -6.037421822547912598e-01 -1.249325871467590332e+00
8.845000000000000000e+03 2.767353057861328125e+01 8.236301422119140625e+00 -3.414501190185546875e+00 -1.564418196678161621e+00 -1.493675827980041504e+00 -2.379549026489257812e+00
8.846000000000000000e+03 2.705670928955078125e+01 7.836090087890625000e+00 -3.861686468124389648e+00 -2.363103866577148438e+00 -1.867437124252319336e+00 -3.044062137603759766e+00
8.847000000000000000e+03 2.657050704956054688e+01 7.504411220550537109e+00 -4.482884407043457031e+00 -2.818760156631469727e+00 -2.190493345260620117e+00 -3.497209548950195312e+00
8.848000000000000000e+03 2.671600341796875000e+01 7.279695510864257812e+00 -2.802102565765380859e+00 -1.591845631599426270e+00 -1.318184375762939453e+00 -1.970731854438781738e+00
8.849000000000000000e+03 2.589096641540527344e+01 7.078425884246826172e+00 -5.330383300781250000e+00 -2.879752874374389648e+00 -2.463040828704833984e+00 -3.894931793212890625e+00
8.850000000000000000e+03 2.600694847106933594e+01 6.826173305511474609e+00 -3.292460918426513672e+00 -1.911210656166076660e+00 -1.561101436614990234e+00 -2.392209291458129883e+00
8.851000000000000000e+03 2.562108039855957031e+01 6.621604919433593750e+00 -3.530519962310791016e+00 -1.995805263519287109e+00 -1.657897591590881348e+00 -2.704382419586181641e+00
8.852000000000000000e+03 2.579959106445312500e+01 6.754337787628173828e+00 -3.700346231460571289e+00 -2.119492530822753906e+00 -1.745951533317565918e+00 -2.643988847732543945e+00
8.853000000000000000e+03 2.861095428466796875e+01 8.252856254577636719e+00 -1.961368799209594727e+00 -3.594675660133361816e-01 -6.962509155273437500e-01 -7.825257778167724609e-01
8.854000000000000000e+03 2.853674888610839844e+01 8.360008239746093750e+00 -2.108668327331542969e+00 -1.601171642541885376e-01 -6.806356310844421387e-01 -8.607584834098815918e-01
8.855000000000000000e+03 2.883415985107421875e+01 8.333746910095214844e+00 -1.539206624031066895e+00 -6.582395434379577637e-01 -6.592338681221008301e-01 -2.542539834976196289e-01
8.856000000000000000e+03 2.870514488220214844e+01 8.375977516174316406e+00 -2.163222312927246094e+00 -6.890819072723388672e-01 -8.556912541389465332e-01 -9.084029793739318848e-01
8.857000000000000000e+03 1.971903610229492188e+01 2.516002416610717773e+00 -5.057738423347473145e-01 -9.023506641387939453e-01 -4.224373400211334229e-01 -8.493155241012573242e-01
8.858000000000000000e+03 2.373731422424316406e+01 5.086797237396240234e+00 -1.972353219985961914e+00 -1.309445261955261230e+00 -9.845395684242248535e-01 -1.619048476219177246e+00
8.859000000000000000e+03 2.900718116760253906e+01 8.279201507568359375e+00 -1.501729726791381836e+00 -5.965225100517272949e-01 -6.294757127761840820e-01 -3.792709410190582275e-01
8.860000000000000000e+03 2.995883560180664062e+01 7.631362438201904297e+00 -8.536461591720581055e-01 -1.498086452484130859e+00 -7.055197358131408691e-01 -1.192643642425537109e+00
8.861000000000000000e+03 2.986109924316406250e+01 7.173797130584716797e+00 -1.039644956588745117e+00 -1.419873714447021484e+00 -7.378556132316589355e-01 -1.447136759757995605e+00
8.862000000000000000e+03 2.977012825012207031e+01 7.303269386291503906e+00 -8.269326090812683105e-01 -1.519969940185546875e+00 -7.040707468986511230e-01 -1.500877141952514648e+00
8.863000000000000000e+03 1.753824615478515625e+01 -1.313276886940002441e+00 -1.803017020225524902e+00 -9.309365749359130859e-01 -8.201860785484313965e-01 -9.123881459236145020e-01
8.864000000000000000e+03 1.770430946350097656e+01 -1.205825805664062500e+00 -1.646402359008789062e+00 -9.077779650688171387e-01 -7.662541270256042480e-01 -1.005604743957519531e+00
8.865000000000000000e+03 1.803942489624023438e+01 -9.887551069259643555e-01 -1.662131547927856445e+00 -1.263393521308898926e+00 -8.776575326919555664e-01 -1.174889326095581055e+00
8.866000000000000000e+03 1.769699668884277344e+01 -8.576623797416687012e-01 -1.513079047203063965e+00 -7.414671182632446289e-01 -6.763638257980346680e-01 -9.009267687797546387e-01
8.867000000000000000e+03 1.871887207031250000e+01 -5.354961752891540527e-01 -1.798754453659057617e+00 -1.750051617622375488e+00 -1.064641833305358887e+00 -1.392520546913146973e+00
8.868000000000000000e+03 1.851503944396972656e+01 -2.948162555694580078e-01 -1.478497147560119629e+00 -1.599575996398925781e+00 -9.234219193458557129e-01 -1.092303991317749023e+00
8.869000000000000000e+03 1.856393241882324219e+01 1.237389743328094482e-01 -9.508887529373168945e-01 -1.172322392463684082e+00 -6.369633674621582031e-01 -1.091869354248046875e+00
8.870000000000000000e+03 1.924990653991699219e+01 -5.019795522093772888e-02 -1.044133663177490234e+00 -2.443669795989990234e+00 -1.046341061592102051e+00 -1.737715244293212891e+00
8.871000000000000000e+03 1.943012428283691406e+01 -4.136993363499641418e-02 -1.886098623275756836e+00 -3.240669488906860352e+00 -1.538030385971069336e+00 -2.328828811645507812e+00
8.872000000000000000e+03 1.920506477355957031e+01 2.889018356800079346e-01 -1.402216911315917969e+00 -2.366798162460327148e+00 -1.130704522132873535e+00 -1.783927440643310547e+00
8.873000000000000000e+03 1.935403060913085938e+01 1.091038063168525696e-01 -1.160498738288879395e+00 -2.550637483596801758e+00 -1.113340854644775391e+00 -1.580951333045959473e+00
8.874000000000000000e+03 1.970587158203125000e+01 3.779152035713195801e-01 -1.538572430610656738e+00 -2.934972286224365234e+00 -1.342063426971435547e+00 -2.514351844787597656e+00
8.875000000000000000e+03 2.085043907165527344e+01 1.039960861206054688e+00 -2.180903196334838867e+00 -1.875305652618408203e+00 -1.216862678527832031e+00 -2.921564817428588867e+00
8.876000000000000000e+03 2.049315261840820312e+01 8.613141179084777832e-01 -1.735500693321228027e+00 -2.318283557891845703e+00 -1.216135263442993164e+00 -2.979798793792724609e+00
8.877000000000000000e+03 2.152845191955566406e+01 1.460379362106323242e+00 -2.975565910339355469e+00 -1.231829285621643066e+00 -1.262218475341796875e+00 -2.404237031936645508e+00
8.878000000000000000e+03 2.228789710998535156e+01 2.100796222686767578e+00 -3.652053833007812500e+00 -1.079664945602416992e+00 -1.419515609741210938e+00 -2.175179004669189453e+00
8.879000000000000000e+03 2.268266296386718750e+01 2.183539867401123047e+00 -3.448515176773071289e+00 -8.480375409126281738e-01 -1.288965821266174316e+00 -1.942160367965698242e+00
8.880000000000000000e+03 2.282362365722656250e+01 2.349183797836303711e+00 -3.617517471313476562e+00 -9.276048541069030762e-01 -1.363536715507507324e+00 -1.959774971008300781e+00
8.881000000000000000e+03 2.291903305053710938e+01 2.602031946182250977e+00 -3.740086078643798828e+00 -1.053282380104064941e+00 -1.438010573387145996e+00 -2.047971725463867188e+00
8.882000000000000000e+03 2.312372589111328125e+01 2.517670631408691406e+00 -3.591098308563232422e+00 -8.381676077842712402e-01 -1.328779697418212891e+00 -1.901636481285095215e+00
8.883000000000000000e+03 2.329864883422851562e+01 2.554312467575073242e+00 -3.490464448928833008e+00 -8.541820645332336426e-01 -1.303393959999084473e+00 -1.786424875259399414e+00
8.884000000000000000e+03 2.370875740051269531e+01 2.486496210098266602e+00 -3.219679594039916992e+00 -6.847370266914367676e-01 -1.171324968338012695e+00 -1.584813594818115234e+00
8.885000000000000000e+03 2.360039710998535156e+01 2.670200109481811523e+00 -3.434899091720581055e+00 -8.017336130142211914e-01 -1.270989775657653809e+00 -1.695676088333129883e+00
8.886000000000000000e+03 2.383144950866699219e+01 2.970955133438110352e+00 -3.517470836639404297e+00 -8.701767325401306152e-01 -1.316294312477111816e+00 -1.770624279975891113e+00
8.887000000000000000e+03 2.428691291809082031e+01 3.261617898941040039e+00 -3.436558723449707031e+00 -8.809857964515686035e-01 -1.295263409614562988e+00 -1.727536320686340332e+00
8.888000000000000000e+03 2.491758537292480469e+01 3.217509746551513672e+00 -3.111449241638183594e+00 -7.364588379859924316e-01 -1.154372453689575195e+00 -1.460972309112548828e+00
8.889000000000000000e+03 2.506211090087890625e+01 3.325509548187255859e+00 -3.065571069717407227e+00 -7.388826608657836914e-01 -1.141336083412170410e+00 -1.480869650840759277e+00
8.890000000000000000e+03 2.508978843688964844e+01 3.686359405517578125e+00 -3.184126138687133789e+00 -8.479055166244506836e-01 -1.209609508514404297e+00 -1.623314976692199707e+00
8.891000000000000000e+03 2.592293930053710938e+01 3.904886245727539062e+00 -2.925226926803588867e+00 -8.519432544708251953e-01 -1.133151054382324219e+00 -1.469393134117126465e+00
8.892000000000000000e+03 2.642688369750976562e+01 4.173763751983642578e+00 -2.790498495101928711e+00 -8.817608952522277832e-01 -1.101677894592285156e+00 -1.442676424980163574e+00
8.893000000000000000e+03 2.612514495849609375e+01 4.211234092712402344e+00 -2.933546781539916992e+00 -8.983764648437500000e-01 -1.149577021598815918e+00 -1.536345601081848145e+00
8.894000000000000000e+03 2.628206062316894531e+01 4.349055767059326172e+00 -2.917081832885742188e+00 -9.492391943931579590e-01 -1.159896254539489746e+00 -1.560894250869750977e+00
8.895000000000000000e+03 2.674450492858886719e+01 4.412423610687255859e+00 -2.735996961593627930e+00 -9.530223011970520020e-01 -1.106705784797668457e+00 -1.473950743675231934e+00
8.896000000000000000e+03 2.653885078430175781e+01 4.620157718658447266e+00 -2.856040954589843750e+00 -1.002670407295227051e+00 -1.157613396644592285e+00 -1.588471412658691406e+00
8.897000000000000000e+03 2.699238395690917969e+01 4.901086807250976562e+00 -2.796653747558593750e+00 -1.078977108001708984e+00 -1.162689208984375000e+00 -1.599545478820800781e+00
8.898000000000000000e+03 2.765724372863769531e+01 5.295273303985595703e+00 -2.619193792343139648e+00 -1.282970070838928223e+00 -1.170649170875549316e+00 -1.612322688102722168e+00
8.899000000000000000e+03 2.831085968017578125e+01 5.369943618774414062e+00 -2.323758125305175781e+00 -1.409489631652832031e+00 -1.119974374771118164e+00 -1.417959570884704590e+00
8.900000000000000000e+03 2.837192344665527344e+01 5.715072154998779297e+00 -2.388198137283325195e+00 -1.573745131492614746e+00 -1.188582897186279297e+00 -1.543661475181579590e+00
8.901000000000000000e+03 2.900979804992675781e+01 5.785435676574707031e+00 -2.147839307785034180e+00 -1.395822048187255859e+00 -1.063098430633544922e+00 -1.235851168632507324e+00
8.902000000000000000e+03 2.888737106323242188e+01 5.938385963439941406e+00 -2.209663867950439453e+00 -1.488361477851867676e+00 -1.109407544136047363e+00 -1.316819310188293457e+00
8.903000000000000000e+03 2.932737922668457031e+01 6.294694900512695312e+00 -2.033438205718994141e+00 -1.229330778121948242e+00 -9.788306951522827148e-01 -1.386971473693847656e+00
8.904000000000000000e+03 2.987050247192382812e+01 6.886860370635986328e+00 -1.342451930046081543e+00 -1.263807415962219238e+00 -7.818778157234191895e-01 -1.516308069229125977e+00
8.905000000000000000e+03 2.857546615600585938e+01 5.763775825500488281e+00 -2.275253057479858398e+00 -1.542377471923828125e+00 -1.145289182662963867e+00 -1.434300780296325684e+00
8.906000000000000000e+03 2.832865715026855469e+01 5.965070724487304688e+00 -2.462280511856079102e+00 -1.688634872436523438e+00 -1.245274543762207031e+00 -1.682771086692810059e+00
8.907000000000000000e+03 1.585226917266845703e+01 -1.314679533243179321e-01 -5.019614219665527344e+00 1.354630708694458008e+00 -1.099495053291320801e+00 -1.867159962654113770e+00
8.908000000000000000e+03 2.700904464721679688e+01 6.986386775970458984e+00 -1.815145313739776611e-01 -1.394176296889781952e-02 -5.863688886165618896e-02 -7.419457286596298218e-02
8.909000000000000000e+03 1.915440750122070312e+01 1.539692163467407227e+00 -2.369981050491333008e+00 -1.284906387329101562e+00 -1.096466183662414551e+00 -1.868254184722900391e+00
8.910000000000000000e+03 1.895336532592773438e+01 1.434279918670654297e+00 -2.677753210067749023e+00 -1.507860302925109863e+00 -1.255684137344360352e+00 -2.133550405502319336e+00
8.911000000000000000e+03 1.832626342773437500e+01 1.212554574012756348e+00 -2.441711664199829102e+00 -1.530236363410949707e+00 -1.191584348678588867e+00 -1.965890407562255859e+00
8.912000000000000000e+03 1.881803703308105469e+01 1.581102371215820312e+00 -1.469175100326538086e+00 -1.235194444656372070e+00 -8.113108277320861816e-01 -1.513460040092468262e+00
8.913000000000000000e+03 1.720338821411132812e+01 7.016548514366149902e-01 -1.584323763847351074e+00 -8.285098671913146973e-01 -7.238500714302062988e-01 -1.388062477111816406e+00
8.914000000000000000e+03 1.766154289245605469e+01 9.660823345184326172e-01 -1.346353650093078613e+00 -1.232778072357177734e+00 -7.737395167350769043e-01 -1.432781577110290527e+00
8.915000000000000000e+03 2.660479927062988281e+01 6.350921630859375000e+00 2.163676261901855469e+00 6.525717973709106445e-01 8.448744416236877441e-01 1.350732684135437012e+00
8.916000000000000000e+03 2.639602661132812500e+01 6.356693744659423828e+00 1.191476345062255859e+00 1.699995696544647217e-01 4.084427952766418457e-01 6.886720657348632812e-01
8.917000000000000000e+03 2.637787246704101562e+01 6.789946079254150391e+00 -1.520742535591125488e+00 -9.461700916290283203e-01 -7.400738000869750977e-01 -1.109935641288757324e+00
8.918000000000000000e+03 2.639554023742675781e+01 6.124566555023193359e+00 3.001838922500610352e+00 8.902761936187744141e-01 1.167634487152099609e+00 1.778706431388854980e+00
8.919000000000000000e+03 2.626122474670410156e+01 6.240300655364990234e+00 1.538904190063476562e+00 2.979136407375335693e-01 5.510453581809997559e-01 8.165968656539916992e-01
8.920000000000000000e+03 2.605123901367187500e+01 6.284544944763183594e+00 6.526605486869812012e-01 -1.072126626968383789e-01 1.636343747377395630e-01 1.727561503648757935e-01
8.921000000000000000e+03 2.451865959167480469e+01 5.238244056701660156e+00 7.482076883316040039e-01 -1.197952479124069214e-01 1.885237246751785278e-01 1.963067054748535156e-01
8.922000000000000000e+03 2.402710723876953125e+01 5.146443367004394531e+00 -1.292602539062500000e+00 -1.157044649124145508e+00 -7.348941564559936523e-01 -1.110342025756835938e+00
8.923000000000000000e+03 2.145628166198730469e+01 3.227499723434448242e+00 -8.370928466320037842e-02 -3.965765237808227539e-01 -1.440857499837875366e-01 -3.985552489757537842e-01
8.924000000000000000e+03 2.426770591735839844e+01 5.176071166992187500e+00 1.241424754261970520e-01 -6.351786255836486816e-01 -1.533108502626419067e-01 -3.630878329277038574e-01
8.925000000000000000e+03 2.872770690917968750e+01 5.972564697265625000e+00 -2.259677648544311523e+00 -1.618108868598937988e+00 -1.163336038589477539e+00 -1.412822008132934570e+00
8.926000000000000000e+03 2.875193977355957031e+01 5.821742534637451172e+00 -2.237589359283447266e+00 -1.516164064407348633e+00 -1.126126050949096680e+00 -1.351924777030944824e+00
8.927000000000000000e+03 2.641004180908203125e+01 4.976247310638427734e+00 -2.991407155990600586e+00 -1.105628013610839844e+00 -1.229110598564147949e+00 -1.772081017494201660e+00
8.928000000000000000e+03 2.677645301818847656e+01 4.986546516418457031e+00 -2.871574878692626953e+00 -1.101712822914123535e+00 -1.191986322402954102e+00 -1.684656620025634766e+00
8.929000000000000000e+03 2.664482498168945312e+01 5.213761329650878906e+00 -2.990166425704956055e+00 -1.125292897224426270e+00 -1.234637737274169922e+00 -1.806824684143066406e+00
8.930000000000000000e+03 2.723494148254394531e+01 7.353139877319335938e+00 -1.281808733940124512e+00 -5.986601114273071289e-01 -5.641406178474426270e-01 -1.004826903343200684e+00
8.931000000000000000e+03 2.647268295288085938e+01 6.952697277069091797e+00 -2.162528276443481445e+00 -1.336521863937377930e+00 -1.049715042114257812e+00 -1.556459188461303711e+00
8.932000000000000000e+03 2.488064193725585938e+01 5.748773574829101562e+00 -1.276558518409729004e+00 -8.668376803398132324e-01 -6.430189013481140137e-01 -1.044724702835083008e+00
8.933000000000000000e+03 2.606977462768554688e+01 6.554043769836425781e+00 -1.356722235679626465e+00 -8.262307643890380859e-01 -6.548858880996704102e-01 -9.242171645164489746e-01
8.934000000000000000e+03 1.970203399658203125e+01 9.767117500305175781e-01 -1.469985961914062500e+00 -1.843013286590576172e+00 -9.938997626304626465e-01 -2.248651504516601562e+00
8.935000000000000000e+03 2.451392555236816406e+01 4.150055408477783203e+00 -3.559828281402587891e+00 -1.196483254432678223e+00 -1.426893472671508789e+00 -2.055716753005981445e+00
8.936000000000000000e+03 2.222106933593750000e+01 1.953441381454467773e+00 -3.430800437927246094e+00 -1.024731516838073730e+00 -1.336659550666809082e+00 -2.118443250656127930e+00
8.937000000000000000e+03 2.499477386474609375e+01 4.285282135009765625e+00 -3.399093151092529297e+00 -1.106445670127868652e+00 -1.351661682128906250e+00 -1.929048895835876465e+00
8.938000000000000000e+03 2.772571945190429688e+01 5.587497234344482422e+00 -2.662662744522094727e+00 -1.389291286468505859e+00 -1.215586185455322266e+00 -1.727283358573913574e+00
8.939000000000000000e+03 2.786710739135742188e+01 5.700411319732666016e+00 -2.644798040390014648e+00 -1.431498169898986816e+00 -1.222888946533203125e+00 -1.725038170814514160e+00
8.940000000000000000e+03 2.761308097839355469e+01 6.036466598510742188e+00 -2.968867301940917969e+00 -1.420529484748840332e+00 -1.316819071769714355e+00 -1.988464832305908203e+00
8.941000000000000000e+03 2.683716011047363281e+01 5.168988704681396484e+00 -2.876081943511962891e+00 -1.172400712966918945e+00 -1.214544773101806641e+00 -1.747943282127380371e+00
8.942000000000000000e+03 2.701836776733398438e+01 5.092906475067138672e+00 -2.817574024200439453e+00 -1.140408396720886230e+00 -1.187394738197326660e+00 -1.696434020996093750e+00
8.943000000000000000e+03 2.715846061706542969e+01 4.960176944732666016e+00 -2.723994970321655273e+00 -1.100406408309936523e+00 -1.147320508956909180e+00 -1.582330107688903809e+00
8.944000000000000000e+03 2.239185333251953125e+01 1.953694581985473633e+00 -3.335670232772827148e+00 -8.238253593444824219e-01 -1.247848749160766602e+00 -1.994514584541320801e+00
8.945000000000000000e+03 2.253596496582031250e+01 2.679699420928955078e+00 -4.101346492767333984e+00 -1.342087149620056152e+00 -1.633030176162719727e+00 -2.356748819351196289e+00
8.946000000000000000e+03 2.059241485595703125e+01 1.542418837547302246e+00 -2.892616748809814453e+00 -1.933460831642150879e+00 -1.447823286056518555e+00 -2.739443540573120117e+00
8.947000000000000000e+03 1.705965614318847656e+01 -1.238278031349182129e+00 -1.610939979553222656e+00 -4.507395923137664795e-01 -6.185038685798645020e-01 -6.420252919197082520e-01
8.948000000000000000e+03 1.735778236389160156e+01 -7.449176907539367676e-01 -1.291202425956726074e+00 -4.338572323322296143e-01 -5.175178647041320801e-01 -6.622038483619689941e-01
8.949000000000000000e+03 1.751641082763671875e+01 -6.253772377967834473e-01 -1.332615375518798828e+00 -5.212725996971130371e-01 -5.561664104461669922e-01 -6.724792718887329102e-01
8.950000000000000000e+03 1.767763137817382812e+01 -5.077363848686218262e-01 -1.233683347702026367e+00 -5.394226312637329102e-01 -5.319318175315856934e-01 -7.172535061836242676e-01
8.951000000000000000e+03 1.858691024780273438e+01 -9.391445666551589966e-02 -1.449897408485412598e+00 -1.534934043884277344e+00 -8.954494595527648926e-01 -1.194498300552368164e+00
8.952000000000000000e+03 1.897811508178710938e+01 2.083240002393722534e-01 -8.979526758193969727e-01 -1.744924068450927734e+00 -7.928630113601684570e-01 -1.297695398330688477e+00
8.953000000000000000e+03 1.828685569763183594e+01 2.713023126125335693e-01 -7.845629453659057617e-01 -5.329872965812683105e-01 -3.952650725841522217e-01 -6.890697479248046875e-01
8.954000000000000000e+03 2.410520935058593750e+01 3.153629302978515625e+00 -3.450063228607177734e+00 -8.501871228218078613e-01 -1.290075182914733887e+00 -1.735447049140930176e+00
8.955000000000000000e+03 2.391318130493164062e+01 3.180729627609252930e+00 -3.577299356460571289e+00 -9.456250667572021484e-01 -1.356877326965332031e+00 -1.845548152923583984e+00
8.956000000000000000e+03 2.399816131591796875e+01 3.385308742523193359e+00 -3.663097381591796875e+00 -1.028497695922851562e+00 -1.407478570938110352e+00 -1.944663643836975098e+00
8.957000000000000000e+03 2.488282585144042969e+01 3.632354021072387695e+00 -3.282125711441040039e+00 -8.919876813888549805e-01 -1.252233982086181641e+00 -1.668568372726440430e+00
8.958000000000000000e+03 2.444554328918457031e+01 3.841858625411987305e+00 -3.497024536132812500e+00 -1.084502577781677246e+00 -1.374458074569702148e+00 -1.941210508346557617e+00
8.959000000000000000e+03 2.601859092712402344e+01 4.594632148742675781e+00 -3.072424650192260742e+00 -1.016177058219909668e+00 -1.226580500602722168e+00 -1.712434053421020508e+00
8.960000000000000000e+03 2.623686027526855469e+01 4.541726589202880859e+00 -2.948339462280273438e+00 -9.868641495704650879e-01 -1.180561065673828125e+00 -1.632833123207092285e+00
8.961000000000000000e+03 1.928930854797363281e+01 8.976932168006896973e-01 -1.191501379013061523e+00 -1.336598157882690430e+00 -7.584298849105834961e-01 -1.606660246849060059e+00
8.962000000000000000e+03 1.927956962585449219e+01 6.948968768119812012e-01 -1.632248520851135254e+00 -1.810648560523986816e+00 -1.032869100570678711e+00 -1.855908870697021484e+00
8.963000000000000000e+03 1.991943740844726562e+01 6.985806822776794434e-01 -1.406434655189514160e+00 -2.776685237884521484e+00 -1.254935979843139648e+00 -2.312833309173583984e+00
8.964000000000000000e+03 2.460322952270507812e+01 3.955327272415161133e+00 -3.498122215270996094e+00 -1.094174146652221680e+00 -1.377688884735107422e+00 -1.951914787292480469e+00
8.965000000000000000e+03 2.382778739929199219e+01 3.521178722381591797e+00 -3.737217664718627930e+00 -1.157434344291687012e+00 -1.468395590782165527e+00 -2.066334009170532227e+00
8.966000000000000000e+03 2.198137664794921875e+01 2.655979156494140625e+00 -4.449392318725585938e+00 -1.617005944252014160e+00 -1.819919466972351074e+00 -2.652483463287353516e+00
8.967000000000000000e+03 2.185815811157226562e+01 2.212323427200317383e+00 -3.915168046951293945e+00 -1.360377669334411621e+00 -1.582663774490356445e+00 -2.480643272399902344e+00
8.968000000000000000e+03 2.198051834106445312e+01 2.364504098892211914e+00 -4.110161781311035156e+00 -1.417593717575073242e+00 -1.658326625823974609e+00 -2.471477985382080078e+00
8.969000000000000000e+03 2.148756027221679688e+01 1.866619586944580078e+00 -3.540030002593994141e+00 -1.362956285476684570e+00 -1.470895886421203613e+00 -2.532326221466064453e+00
8.970000000000000000e+03 2.106024551391601562e+01 1.529556989669799805e+00 -3.037950038909912109e+00 -1.536655664443969727e+00 -1.372381687164306641e+00 -2.725346565246582031e+00
8.971000000000000000e+03 2.125181007385253906e+01 1.653330326080322266e+00 -3.253850221633911133e+00 -1.614734530448913574e+00 -1.460575461387634277e+00 -2.604977846145629883e+00
8.972000000000000000e+03 2.094637107849121094e+01 1.918027877807617188e+00 -3.795588016510009766e+00 -1.815634608268737793e+00 -1.683366775512695312e+00 -2.698715448379516602e+00
8.973000000000000000e+03 2.076650810241699219e+01 1.574730277061462402e+00 -3.013708114624023438e+00 -1.748185276985168457e+00 -1.428568005561828613e+00 -2.723940610885620117e+00
8.974000000000000000e+03 2.587970352172851562e+01 4.881956577301025391e+00 -3.187791824340820312e+00 -1.114046454429626465e+00 -1.290551424026489258e+00 -1.867196559906005859e+00
8.975000000000000000e+03 1.765451049804687500e+01 -1.619453579187393188e-01 -8.382905721664428711e-01 -3.247653543949127197e-01 -3.489167690277099609e-01 -4.651003479957580566e-01
8.976000000000000000e+03 1.812890052795410156e+01 -1.340038925409317017e-01 -1.121582984924316406e+00 -8.124960660934448242e-01 -5.802237391471862793e-01 -7.392745614051818848e-01
8.977000000000000000e+03 1.826277923583984375e+01 -2.977999858558177948e-02 -1.041809320449829102e+00 -7.434049248695373535e-01 -5.355643033981323242e-01 -8.188088536262512207e-01
8.978000000000000000e+03 1.880193901062011719e+01 6.758607029914855957e-01 -7.036432027816772461e-01 -1.000295996665954590e+00 -5.111817717552185059e-01 -8.358014822006225586e-01
8.979000000000000000e+03 1.894854354858398438e+01 7.549192905426025391e-01 -8.588732481002807617e-01 -1.049613356590270996e+00 -5.725460052490234375e-01 -1.097751140594482422e+00
8.980000000000000000e+03 2.678519821166992188e+01 7.062376022338867188e+00 -1.557161092758178711e+00 -8.888149857521057129e-01 -7.337927818298339844e-01 -1.083819270133972168e+00
8.981000000000000000e+03 2.690731239318847656e+01 6.818960189819335938e+00 4.949184656143188477e-01 2.988620698451995850e-01 2.381341606378555298e-01 3.396313190460205078e-01
8.982000000000000000e+03 2.660069084167480469e+01 7.038652420043945312e+00 -2.177446365356445312e+00 -1.297098159790039062e+00 -1.042363405227661133e+00 -1.512073278427124023e+00
8.983000000000000000e+03 2.659112930297851562e+01 6.734062194824218750e+00 7.357371598482131958e-02 -2.267697155475616455e-01 -4.595880210399627686e-02 -1.224703993648290634e-02
8.984000000000000000e+03 2.661147308349609375e+01 6.894548892974853516e+00 -1.228308677673339844e+00 -7.613624334335327148e-01 -5.969013571739196777e-01 -8.457077741622924805e-01
8.985000000000000000e+03 2.073003196716308594e+01 1.245025277137756348e+00 -2.475747823715209961e+00 -1.748676419258117676e+00 -1.267327308654785156e+00 -2.860909461975097656e+00
8.986000000000000000e+03 2.058207511901855469e+01 1.154570817947387695e+00 -2.203929662704467773e+00 -2.101429224014282227e+00 -1.291607618331909180e+00 -2.840007781982421875e+00
8.987000000000000000e+03 2.174007797241210938e+01 2.035988092422485352e+00 -3.776399374008178711e+00 -1.359319806098937988e+00 -1.540715813636779785e+00 -2.420416355133056641e+00
8.988000000000000000e+03 1.986181449890136719e+01 8.778309226036071777e-01 -1.394174933433532715e+00 -2.523769855499267578e+00 -1.175383329391479492e+00 -2.383449792861938477e+00
8.989000000000000000e+03 1.949866867065429688e+01 5.670157074928283691e-01 -7.998899221420288086e-01 -2.407426357269287109e+00 -9.621949195861816406e-01 -1.761979818344116211e+00
8.990000000000000000e+03 1.954581260681152344e+01 2.329013496637344360e-01 -9.803449511528015137e-01 -3.000669717788696289e+00 -1.194304466247558594e+00 -2.023329019546508789e+00
8.991000000000000000e+03 2.056551742553710938e+01 1.350121736526489258e+00 -2.563973903656005859e+00 -1.985589861869812012e+00 -1.364869117736816406e+00 -2.724845886230468750e+00
8.992000000000000000e+03 2.213665390014648438e+01 2.220813751220703125e+00 -3.769592761993408203e+00 -1.204607844352722168e+00 -1.492260217666625977e+00 -2.285819530487060547e+00
8.993000000000000000e+03 2.759283638000488281e+01 5.736433982849121094e+00 -2.825361728668212891e+00 -1.362779974937438965e+00 -1.256442546844482422e+00 -1.820132613182067871e+00
8.994000000000000000e+03 1.647349929809570312e+01 -1.049277424812316895e+00 -1.448915839195251465e+00 -2.357647120952606201e-01 -5.054041743278503418e-01 -3.755800426006317139e-01
8.995000000000000000e+03 2.371811103820800781e+01 3.334536314010620117e+00 -3.767182826995849609e+00 -1.089263439178466797e+00 -1.456933856010437012e+00 -2.030001163482666016e+00
8.996000000000000000e+03 1.918312644958496094e+01 5.033789277076721191e-01 -5.905410647392272949e-01 -1.941915988922119141e+00 -7.597370743751525879e-01 -1.324896693229675293e+00
8.997000000000000000e+03 2.467941284179687500e+01 3.614620447158813477e+00 -3.366923093795776367e+00 -8.917540907859802246e-01 -1.277603149414062500e+00 -1.738738894462585449e+00
8.998000000000000000e+03 1.937634086608886719e+01 4.028036594390869141e-01 -1.392722606658935547e+00 -2.293159723281860352e+00 -1.105764746665954590e+00 -1.967444062232971191e+00
8.999000000000000000e+03 1.885597801208496094e+01 4.195890128612518311e-01 -9.743383526802062988e-01 -1.664095878601074219e+00 -7.915302515029907227e-01 -1.370567560195922852e+00
9.000000000000000000e+03 2.240024375915527344e+01 2.218441963195800781e+00 -3.642871856689453125e+00 -1.033377289772033691e+00 -1.402874827384948730e+00 -2.120916366577148438e+00
9.001000000000000000e+03 2.447861862182617188e+01 3.615789175033569336e+00 -3.509891033172607422e+00 -9.632543325424194336e-01 -1.341943621635437012e+00 -1.828086614608764648e+00
9.002000000000000000e+03 2.235301589965820312e+01 2.481110811233520508e+00 -3.993324756622314453e+00 -1.244149804115295410e+00 -1.571242451667785645e+00 -2.311869382858276367e+00
9.003000000000000000e+03 2.166055107116699219e+01 1.858121275901794434e+00 -3.499052762985229492e+00 -1.356314301490783691e+00 -1.456610083580017090e+00 -2.444399833679199219e+00
9.004000000000000000e+03 2.237258148193359375e+01 2.643537998199462891e+00 -4.119915962219238281e+00 -1.296271800994873047e+00 -1.624856352806091309e+00 -2.422599554061889648e+00
9.005000000000000000e+03 2.353147506713867188e+01 2.949220895767211914e+00 -3.706125736236572266e+00 -9.637001156806945801e-01 -1.400947809219360352e+00 -1.942247629165649414e+00
9.006000000000000000e+03 2.845718574523925781e+01 7.030216693878173828e+00 -5.497800827026367188e+00 -2.667484998703002930e+00 -2.449585676193237305e+00 -3.854769945144653320e+00
9.007000000000000000e+03 2.829931449890136719e+01 6.909000873565673828e+00 -4.320837974548339844e+00 -2.078101396560668945e+00 -1.919681787490844727e+00 -2.956990957260131836e+00
9.008000000000000000e+03 2.814144515991210938e+01 6.787785530090332031e+00 -3.848560810089111328e+00 -1.729369759559631348e+00 -1.673379182815551758e+00 -2.564136028289794922e+00
9.009000000000000000e+03 2.798357582092285156e+01 6.666570186614990234e+00 -3.567561149597167969e+00 -1.575945496559143066e+00 -1.543052077293395996e+00 -2.374164104461669922e+00
9.010000000000000000e+03 2.849719047546386719e+01 6.987525463104248047e+00 -4.352874755859375000e+00 -3.136175870895385742e+00 -2.246715307235717773e+00 -3.707622528076171875e+00
9.011000000000000000e+03 2.836599349975585938e+01 6.837849140167236328e+00 -3.741881847381591797e+00 -2.507192850112915039e+00 -1.874722361564636230e+00 -2.847971439361572266e+00
9.012000000000000000e+03 2.823479461669921875e+01 6.688172817230224609e+00 -3.410928726196289062e+00 -2.050260543823242188e+00 -1.638356804847717285e+00 -2.563577651977539062e+00
9.013000000000000000e+03 2.810359573364257812e+01 6.538496494293212891e+00 -3.222687721252441406e+00 -1.825039267539978027e+00 -1.514318108558654785e+00 -2.328686714172363281e+00
9.014000000000000000e+03 2.854475593566894531e+01 6.953455924987792969e+00 -3.521460533142089844e+00 -3.504397869110107422e+00 -2.107757568359375000e+00 -3.308457136154174805e+00
9.015000000000000000e+03 2.844526672363281250e+01 6.781066894531250000e+00 -3.263726234436035156e+00 -2.675746440887451172e+00 -1.781841754913330078e+00 -2.614635229110717773e+00
9.016000000000000000e+03 2.834577941894531250e+01 6.608678340911865234e+00 -3.002714157104492188e+00 -2.279774188995361328e+00 -1.584746599197387695e+00 -2.354078531265258789e+00
9.017000000000000000e+03 2.824629020690917969e+01 6.436289310455322266e+00 -2.907094717025756836e+00 -1.992091298103332520e+00 -1.469755887985229492e+00 -2.188612222671508789e+00
9.018000000000000000e+03 2.859805107116699219e+01 6.929316997528076172e+00 -3.010374784469604492e+00 -3.582092761993408203e+00 -1.977740287780761719e+00 -2.771739482879638672e+00
9.019000000000000000e+03 2.853409385681152344e+01 6.740835666656494141e+00 -2.882459163665771484e+00 -2.701398611068725586e+00 -1.675157308578491211e+00 -2.317577838897705078e+00
9.020000000000000000e+03 2.847013473510742188e+01 6.552354335784912109e+00 -2.745083808898925781e+00 -2.323209047317504883e+00 -1.520487904548645020e+00 -2.100618839263916016e+00
9.021000000000000000e+03 2.840617561340332031e+01 6.363872528076171875e+00 -2.611190557479858398e+00 -2.056583404541015625e+00 -1.400332212448120117e+00 -1.944219708442687988e+00
9.022000000000000000e+03 2.865503120422363281e+01 6.916035652160644531e+00 -2.729259014129638672e+00 -3.326127767562866211e+00 -1.816616058349609375e+00 -2.262859106063842773e+00
9.023000000000000000e+03 2.862905883789062500e+01 6.718699932098388672e+00 -2.701801061630249023e+00 -2.585491418838500977e+00 -1.586187720298767090e+00 -2.038957834243774414e+00
9.024000000000000000e+03 2.860308647155761719e+01 6.521364212036132812e+00 -2.518006563186645508e+00 -2.226279258728027344e+00 -1.423285722732543945e+00 -1.841205477714538574e+00
9.025000000000000000e+03 2.857711601257324219e+01 6.324028491973876953e+00 -2.482120275497436523e+00 -1.996976852416992188e+00 -1.343729138374328613e+00 -1.729321956634521484e+00
9.026000000000000000e+03 2.871350669860839844e+01 6.914121627807617188e+00 -2.751223564147949219e+00 -2.870795488357543945e+00 -1.686605691909790039e+00 -1.947299957275390625e+00
9.027000000000000000e+03 2.872651863098144531e+01 6.715509891510009766e+00 -2.531986474990844727e+00 -2.321796894073486328e+00 -1.456135034561157227e+00 -1.821881175041198730e+00
9.028000000000000000e+03 2.873953056335449219e+01 6.516898155212402344e+00 -2.460512876510620117e+00 -2.055355310440063477e+00 -1.354760408401489258e+00 -1.670109033584594727e+00
9.029000000000000000e+03 2.875254249572753906e+01 6.318286418914794922e+00 -2.331044197082519531e+00 -1.823170781135559082e+00 -1.246264457702636719e+00 -1.525784969329833984e+00
9.030000000000000000e+03 2.877123260498046875e+01 6.923648357391357422e+00 -2.718951940536499023e+00 -2.288485050201416016e+00 -1.502231121063232422e+00 -1.877658724784851074e+00
9.031000000000000000e+03 2.882272911071777344e+01 6.731388092041015625e+00 -2.514787435531616211e+00 -2.048921346664428711e+00 -1.369112730026245117e+00 -1.742819666862487793e+00
9.032000000000000000e+03 2.887422561645507812e+01 6.539127349853515625e+00 -2.345227241516113281e+00 -1.791304349899291992e+00 -1.240959405899047852e+00 -1.565744996070861816e+00
9.033000000000000000e+03 2.892572212219238281e+01 6.346867084503173828e+00 -2.291285991668701172e+00 -1.662049055099487305e+00 -1.186000466346740723e+00 -1.449761271476745605e+00
9.034000000000000000e+03 2.882599258422851562e+01 6.944250583648681641e+00 -2.713895559310913086e+00 -1.863450527191162109e+00 -1.373203873634338379e+00 -2.076684236526489258e+00
9.035000000000000000e+03 2.891399574279785156e+01 6.765724658966064453e+00 -2.353610277175903320e+00 -1.737881779670715332e+00 -1.227447628974914551e+00 -1.753478646278381348e+00
9.036000000000000000e+03 2.900199890136718750e+01 6.587198734283447266e+00 -2.327945232391357422e+00 -1.589416980743408203e+00 -1.175208687782287598e+00 -1.585357308387756348e+00
9.037000000000000000e+03 2.909000015258789062e+01 6.408672809600830078e+00 -2.174376487731933594e+00 -1.444645762443542480e+00 -1.085706710815429688e+00 -1.450671195983886719e+00
9.038000000000000000e+03 2.887568473815917969e+01 6.975136280059814453e+00 -2.393180847167968750e+00 -1.564114570617675781e+00 -1.187188625335693359e+00 -2.355092048645019531e+00
9.039000000000000000e+03 2.899681282043457031e+01 6.817201137542724609e+00 -2.227188825607299805e+00 -1.572199940681457520e+00 -1.139816641807556152e+00 -1.908612012863159180e+00
9.040000000000000000e+03 2.911794281005859375e+01 6.659265518188476562e+00 -2.123720407485961914e+00 -1.407650351524353027e+00 -1.059411168098449707e+00 -1.632599830627441406e+00
9.041000000000000000e+03 2.923907279968261719e+01 6.501330375671386719e+00 -2.157138824462890625e+00 -1.310670137405395508e+00 -1.040342688560485840e+00 -1.525461316108703613e+00
9.042000000000000000e+03 2.891839790344238281e+01 7.015120029449462891e+00 -1.887381911277770996e+00 -1.609727621078491211e+00 -1.049132823944091797e+00 -2.663273572921752930e+00
9.043000000000000000e+03 2.906800079345703125e+01 6.883840560913085938e+00 -1.946347951889038086e+00 -1.435947060585021973e+00 -1.014688491821289062e+00 -2.029805183410644531e+00
9.044000000000000000e+03 2.921760559082031250e+01 6.752560615539550781e+00 -1.907982230186462402e+00 -1.378209471702575684e+00 -9.858574867248535156e-01 -1.804175257682800293e+00
9.045000000000000000e+03 2.936721229553222656e+01 6.621281147003173828e+00 -1.901740550994873047e+00 -1.241468667984008789e+00 -9.429627656936645508e-01 -1.545817375183105469e+00
9.046000000000000000e+03 2.895249176025390625e+01 7.062665939331054688e+00 -1.252073049545288086e+00 -1.760452747344970703e+00 -9.037577509880065918e-01 -2.820300340652465820e+00
9.047000000000000000e+03 2.912482643127441406e+01 6.963083744049072266e+00 -1.518631458282470703e+00 -1.494010210037231445e+00 -9.037925004959106445e-01 -2.135232448577880859e+00
9.048000000000000000e+03 2.929716110229492188e+01 6.863501071929931641e+00 -1.671569824218750000e+00 -1.352197885513305664e+00 -9.071303009986877441e-01 -1.911333560943603516e+00
9.049000000000000000e+03 2.946949577331542969e+01 6.763918876647949219e+00 -1.547069072723388672e+00 -1.337447762489318848e+00 -8.653550148010253906e-01 -1.708600640296936035e+00
9.050000000000000000e+03 2.897665977478027344e+01 7.115948200225830078e+00 -4.854692220687866211e-01 -2.003259897232055664e+00 -7.466186881065368652e-01 -2.722951412200927734e+00
9.051000000000000000e+03 2.916510581970214844e+01 7.051887512207031250e+00 -1.098432421684265137e+00 -1.622341632843017578e+00 -8.162322044372558594e-01 -2.202542304992675781e+00
9.052000000000000000e+03 2.935355186462402344e+01 6.987826824188232422e+00 -1.264469027519226074e+00 -1.426954984664916992e+00 -8.074272274971008301e-01 -1.895855188369750977e+00
9.053000000000000000e+03 2.954199981689453125e+01 6.923766136169433594e+00 -1.413181662559509277e+00 -1.393196940422058105e+00 -8.419135808944702148e-01 -1.838434338569641113e+00
9.054000000000000000e+03 2.898997116088867188e+01 7.172920703887939453e+00 1.373505592346191406e-01 -2.261160612106323242e+00 -6.371430158615112305e-01 -2.495232820510864258e+00
9.055000000000000000e+03 2.918729400634765625e+01 7.146841526031494141e+00 -5.870515108108520508e-01 -1.730920314788818359e+00 -6.953915357589721680e-01 -2.083582878112792969e+00
9.056000000000000000e+03 2.938461494445800781e+01 7.120762348175048828e+00 -8.915823698043823242e-01 -1.609772920608520508e+00 -7.504065632820129395e-01 -1.867983102798461914e+00
9.057000000000000000e+03 2.958193588256835938e+01 7.094683170318603516e+00 -1.126983165740966797e+00 -1.413767337799072266e+00 -7.622251510620117188e-01 -1.684228062629699707e+00
9.058000000000000000e+03 2.899191665649414062e+01 7.231395721435546875e+00 6.773537993431091309e-01 -2.303186893463134766e+00 -4.877499043941497803e-01 -2.082926511764526367e+00
9.059000000000000000e+03 2.919053649902343750e+01 7.244299411773681641e+00 -1.539266854524612427e-01 -1.920939326286315918e+00 -6.224598288536071777e-01 -1.905045151710510254e+00
9.060000000000000000e+03 2.938915443420410156e+01 7.257203578948974609e+00 -5.076467394828796387e-01 -1.688971161842346191e+00 -6.589853763580322266e-01 -1.680310368537902832e+00
9.061000000000000000e+03 2.958777427673339844e+01 7.270107746124267578e+00 -7.435287833213806152e-01 -1.599835038185119629e+00 -7.030091285705566406e-01 -1.519473671913146973e+00
9.062000000000000000e+03 2.898242187500000000e+01 7.289126873016357422e+00 1.013482451438903809e+00 -2.337984323501586914e+00 -3.973505496978759766e-01 -1.691892266273498535e+00
9.063000000000000000e+03 2.917471122741699219e+01 7.340518474578857422e+00 2.567119002342224121e-01 -1.934938549995422363e+00 -5.034679770469665527e-01 -1.570308923721313477e+00
9.064000000000000000e+03 2.936699867248535156e+01 7.391910076141357422e+00 -2.266412377357482910e-01 -1.815722584724426270e+00 -6.127091646194458008e-01 -1.441625714302062988e+00
9.065000000000000000e+03 2.955928802490234375e+01 7.443301677703857422e+00 -4.528830349445343018e-01 -1.651567459106445312e+00 -6.313351392745971680e-01 -1.333768725395202637e+00
9.066000000000000000e+03 2.896185111999511719e+01 7.343897819519042969e+00 1.272664308547973633e+00 -2.081908226013183594e+00 -2.427731901407241821e-01 -1.284648180007934570e+00
9.067000000000000000e+03 2.914042282104492188e+01 7.431803703308105469e+00 5.226374268531799316e-01 -2.032441616058349609e+00 -4.529412984848022461e-01 -1.218184471130371094e+00
9.068000000000000000e+03 2.931899642944335938e+01 7.519709587097167969e+00 1.017443742603063583e-02 -1.713109970092773438e+00 -5.108806490898132324e-01 -1.081517457962036133e+00
9.069000000000000000e+03 2.949757194519042969e+01 7.607614994049072266e+00 -4.168194830417633057e-01 -1.658952355384826660e+00 -6.227315664291381836e-01 -1.103273630142211914e+00
9.070000000000000000e+03 2.893099212646484375e+01 7.393605232238769531e+00 1.441361784934997559e+00 -2.031604051589965820e+00 -1.770726740360260010e-01 -9.360437393188476562e-01
9.071000000000000000e+03 2.908899307250976562e+01 7.514648914337158203e+00 7.000555396080017090e-01 -1.770525455474853516e+00 -3.211409747600555420e-01 -8.169890642166137695e-01
9.072000000000000000e+03 2.924699401855468750e+01 7.635693073272705078e+00 9.929287433624267578e-02 -1.748331546783447266e+00 -4.947116076946258545e-01 -7.426766157150268555e-01
9.073000000000000000e+03 2.940499496459960938e+01 7.756736755371093750e+00 -3.842783272266387939e-01 -1.396450281143188477e+00 -5.342185497283935547e-01 -6.829819679260253906e-01
9.074000000000000000e+03 2.889103126525878906e+01 7.436339855194091797e+00 1.657472610473632812e+00 -1.662582755088806152e+00 -1.533056609332561493e-03 -6.554233431816101074e-01
9.075000000000000000e+03 2.902239227294921875e+01 7.585873603820800781e+00 7.166932225227355957e-01 -1.690604805946350098e+00 -2.921734750270843506e-01 -3.811892867088317871e-01
9.076000000000000000e+03 2.915375137329101562e+01 7.735406875610351562e+00 6.064190343022346497e-02 -1.366243720054626465e+00 -3.916805386543273926e-01 -4.572972059249877930e-01
9.077000000000000000e+03 2.928511238098144531e+01 7.884940624237060547e+00 -3.148400485515594482e-01 -1.474939942359924316e+00 -5.369339585304260254e-01 -3.709845244884490967e-01
9.078000000000000000e+03 2.884350395202636719e+01 7.470460414886474609e+00 1.750861763954162598e+00 -1.531565666198730469e+00 6.578884273767471313e-02 -2.595142722129821777e-01
9.079000000000000000e+03 2.894317817687988281e+01 7.642741680145263672e+00 7.020300030708312988e-01 -1.231725573539733887e+00 -1.589086800813674927e-01 -1.188764125108718872e-01
9.080000000000000000e+03 2.904285430908203125e+01 7.815021991729736328e+00 -1.188907474279403687e-01 -1.196687579154968262e+00 -3.946734964847564697e-01 -9.932933002710342407e-02
9.081000000000000000e+03 2.914253044128417969e+01 7.987303256988525391e+00 -4.694191813468933105e-01 -1.075892090797424316e+00 -4.635933935642242432e-01 -3.832201361656188965e-01
9.082000000000000000e+03 2.879023361206054688e+01 7.494657516479492188e+00 1.929656147956848145e+00 -1.166804194450378418e+00 2.288556098937988281e-01 6.630712747573852539e-02
9.083000000000000000e+03 2.885439682006835938e+01 7.683069229125976562e+00 4.904359877109527588e-01 -8.395643234252929688e-01 -1.047385036945343018e-01 1.910658925771713257e-01
9.084000000000000000e+03 2.891856002807617188e+01 7.871481418609619141e+00 -2.814112901687622070e-01 -7.808541059494018555e-01 -3.186796307563781738e-01 -2.734986133873462677e-02
9.085000000000000000e+03 2.898272323608398438e+01 8.059893608093261719e+00 -9.395433068275451660e-01 -7.996215224266052246e-01 -5.217494368553161621e-01 -2.494999319314956665e-01
9.086000000000000000e+03 2.873326873779296875e+01 7.508000850677490234e+00 1.981734991073608398e+00 -7.011697888374328613e-01 3.841695487499237061e-01 4.089325070381164551e-01
9.087000000000000000e+03 2.875945472717285156e+01 7.705308437347412109e+00 2.878950238227844238e-01 -3.886286020278930664e-01 -3.022007644176483154e-02 3.233480155467987061e-01
9.088000000000000000e+03 2.878564071655273438e+01 7.902615547180175781e+00 -5.446235537528991699e-01 -3.514564931392669678e-01 -2.688240110874176025e-01 3.671125695109367371e-02
9.089000000000000000e+03 2.881182670593261719e+01 8.099923133850097656e+00 -1.332951307296752930e+00 -4.053899943828582764e-01 -5.215023756027221680e-01 -2.693895101547241211e-01
9.090000000000000000e+03 2.867479515075683594e+01 7.509978294372558594e+00 1.736076354980468750e+00 -1.938578337430953979e-01 4.626655578613281250e-01 6.743115186691284180e-01
9.091000000000000000e+03 2.866199874877929688e+01 7.708603858947753906e+00 3.281372189521789551e-01 1.166683882474899292e-01 1.334416717290878296e-01 3.387376368045806885e-01
9.092000000000000000e+03 2.864920234680175781e+01 7.907229900360107422e+00 -9.664097428321838379e-01 1.018021441996097565e-02 -2.868688702583312988e-01 -2.064468426397070289e-04
9.093000000000000000e+03 2.863640785217285156e+01 8.105855941772460938e+00 -1.455800771713256836e+00 -5.778454989194869995e-02 -4.540756046772003174e-01 -3.186577558517456055e-01
9.094000000000000000e+03 2.861705780029296875e+01 7.500514030456542969e+00 1.881253361701965332e+00 5.156812071800231934e-01 7.190803885459899902e-01 8.295977711677551270e-01
9.095000000000000000e+03 2.856577110290527344e+01 7.692830562591552734e+00 2.987893112003803253e-02 4.767751693725585938e-01 1.519962251186370850e-01 1.896455287933349609e-01
9.096000000000000000e+03 2.851448440551757812e+01 7.885146617889404297e+00 -7.926390767097473145e-01 3.850830197334289551e-01 -1.222668066620826721e-01 -3.930252417922019958e-02
9.097000000000000000e+03 2.846319770812988281e+01 8.077463150024414062e+00 -1.972416758537292480e+00 1.874786056578159332e-02 -5.861006379127502441e-01 -5.652978420257568359e-01
9.098000000000000000e+03 2.856227684020996094e+01 7.479971885681152344e+00 1.793600082397460938e+00 9.645671248435974121e-01 8.274501562118530273e-01 6.371320486068725586e-01
9.099000000000000000e+03 2.847446632385253906e+01 7.658593177795410156e+00 2.493152618408203125e-01 8.768687844276428223e-01 3.378552198410034180e-01 1.704633235931396484e-01
9.100000000000000000e+03 2.838665962219238281e+01 7.837214469909667969e+00 -8.696193099021911621e-01 4.964567422866821289e-01 -1.119487732648849487e-01 -3.118296563625335693e-01
9.101000000000000000e+03 2.829885101318359375e+01 8.015835762023925781e+00 -1.816854834556579590e+00 4.564256072044372559e-01 -4.081287682056427002e-01 -6.029983162879943848e-01
9.102000000000000000e+03 2.851255226135253906e+01 7.449139595031738281e+00 1.945760607719421387e+00 1.390803813934326172e+00 1.000969290733337402e+00 4.249025881290435791e-01
9.103000000000000000e+03 2.839159393310546875e+01 7.607206821441650391e+00 6.488467454910278320e-01 9.807928800582885742e-01 4.888918697834014893e-01 6.324822455644607544e-02
9.104000000000000000e+03 2.827063560485839844e+01 7.765273571014404297e+00 -7.637278437614440918e-01 7.224785685539245605e-01 -1.237478386610746384e-02 -4.315060675144195557e-01
9.105000000000000000e+03 2.814967727661132812e+01 7.923340797424316406e+00 -1.448202490806579590e+00 3.869214355945587158e-01 -3.183843195438385010e-01 -6.293801069259643555e-01
9.106000000000000000e+03 2.846979522705078125e+01 7.409202575683593750e+00 2.651609420776367188e+00 1.560240507125854492e+00 1.263554930686950684e+00 2.674123644828796387e-01
9.107000000000000000e+03 2.832033348083496094e+01 7.540644645690917969e+00 1.014295816421508789e+00 9.505916833877563477e-01 5.894662737846374512e-01 -5.320069938898086548e-02
9.108000000000000000e+03 2.817087173461914062e+01 7.672087192535400391e+00 -1.875686794519424438e-01 8.696957230567932129e-01 2.046381086111068726e-01 -2.630307376384735107e-01
9.109000000000000000e+03 2.802140998840332031e+01 7.803529262542724609e+00 -1.252858996391296387e+00 4.591472074389457703e-02 -3.620832562446594238e-01 -8.699136972427368164e-01
9.110000000000000000e+03 2.843564987182617188e+01 7.361693859100341797e+00 3.324876785278320312e+00 1.214207053184509277e+00 1.361725091934204102e+00 1.388241648674011230e-01
9.111000000000000000e+03 2.826342201232910156e+01 7.461463451385498047e+00 1.792854547500610352e+00 1.110628724098205566e+00 8.710449934005737305e-01 1.720777451992034912e-01
9.112000000000000000e+03 2.809119606018066406e+01 7.561233043670654297e+00 4.072852432727813721e-01 6.060151457786560059e-01 3.039901256561279297e-01 -1.846696287393569946e-01
9.113000000000000000e+03 2.791897010803222656e+01 7.661002635955810547e+00 -7.089533209800720215e-01 3.513303399085998535e-01 -1.072868853807449341e-01 -6.980953216552734375e-01
9.114000000000000000e+03 2.841142272949218750e+01 7.308437824249267578e+00 4.377765178680419922e+00 1.146070957183837891e+00 1.657150745391845703e+00 4.396105408668518066e-01
9.115000000000000000e+03 2.822304725646972656e+01 7.372703552246093750e+00 2.472405433654785156e+00 8.453409075736999512e-01 9.953238964080810547e-01 4.373456537723541260e-01
9.116000000000000000e+03 2.803466987609863281e+01 7.436968803405761719e+00 1.283828377723693848e+00 7.724405527114868164e-01 6.168806552886962891e-01 1.713190525770187378e-01
9.117000000000000000e+03 2.784629249572753906e+01 7.501234531402587891e+00 3.202720358967781067e-02 3.732081055641174316e-01 1.215705946087837219e-01 -2.903172373771667480e-01
9.118000000000000000e+03 2.839804840087890625e+01 7.251480102539062500e+00 5.187696933746337891e+00 7.294859886169433594e-01 1.775154829025268555e+00 1.018609523773193359e+00
9.119000000000000000e+03 2.820075607299804688e+01 7.277773380279541016e+00 3.319774866104125977e+00 1.020651817321777344e+00 1.302128076553344727e+00 9.349781274795532227e-01
9.120000000000000000e+03 2.800346374511718750e+01 7.304067134857177734e+00 2.086766481399536133e+00 6.673114895820617676e-01 8.262233734130859375e-01 6.253143548965454102e-01
9.121000000000000000e+03 2.780616950988769531e+01 7.330360889434814453e+00 1.142623662948608398e+00 6.756085157394409180e-01 5.454696416854858398e-01 3.633030354976654053e-01
9.122000000000000000e+03 2.839603996276855469e+01 7.193007469177246094e+00 5.882863044738769531e+00 8.970127105712890625e-01 2.033962726593017578e+00 1.849127531051635742e+00
9.123000000000000000e+03 2.819740867614746094e+01 7.180319309234619141e+00 3.978332996368408203e+00 9.741535186767578125e-01 1.485745906829833984e+00 1.531074643135070801e+00
9.124000000000000000e+03 2.799877548217773438e+01 7.167631149291992188e+00 2.990459680557250977e+00 9.839680790901184082e-01 1.192328333854675293e+00 1.258238673210144043e+00
9.125000000000000000e+03 2.780014228820800781e+01 7.154942989349365234e+00 2.172068834304809570e+00 7.165055871009826660e-01 8.665723204612731934e-01 1.019679903984069824e+00
9.126000000000000000e+03 2.840547180175781250e+01 7.135265827178955078e+00 6.106735229492187500e+00 1.138958215713500977e+00 2.173707962036132812e+00 2.781953811645507812e+00
9.127000000000000000e+03 2.821312904357910156e+01 7.084083080291748047e+00 4.595681667327880859e+00 1.334168672561645508e+00 1.778955101966857910e+00 2.140494585037231445e+00
9.128000000000000000e+03 2.802078437805175781e+01 7.032900810241699219e+00 3.795144081115722656e+00 1.131525397300720215e+00 1.478000879287719727e+00 1.963837504386901855e+00
9.129000000000000000e+03 2.782843971252441406e+01 6.981718063354492188e+00 3.152996778488159180e+00 1.141736745834350586e+00 1.288419961929321289e+00 1.790693879127502441e+00
9.130000000000000000e+03 2.842598533630371094e+01 7.080472469329833984e+00 6.100207328796386719e+00 1.908002376556396484e+00 2.402462959289550781e+00 3.501056671142578125e+00
9.131000000000000000e+03 2.824731636047363281e+01 6.992761135101318359e+00 5.027471065521240234e+00 1.631689190864562988e+00 1.997748017311096191e+00 2.790946006774902344e+00
9.132000000000000000e+03 2.806864738464355469e+01 6.905049324035644531e+00 4.420474529266357422e+00 1.574834942817687988e+00 1.798592925071716309e+00 2.611136913299560547e+00
9.133000000000000000e+03 2.788997840881347656e+01 6.817337989807128906e+00 4.220908164978027344e+00 1.460691690444946289e+00 1.704480051994323730e+00 2.514895200729370117e+00
9.134000000000000000e+03 2.861505317687988281e+01 7.151432037353515625e+00 -8.466865539550781250e+00 -3.770291805267333984e+00 -3.671147346496582031e+00 -5.668683528900146484e+00
9.135000000000000000e+03 2.862838935852050781e+01 7.137201309204101562e+00 -7.523602008819580078e+00 -4.465670585632324219e+00 -3.596781730651855469e+00 -5.769259929656982422e+00
9.136000000000000000e+03 2.864424514770507812e+01 7.125844955444335938e+00 -6.274802684783935547e+00 -4.959768295288085938e+00 -3.370371341705322266e+00 -5.628981113433837891e+00
9.137000000000000000e+03 2.866201019287109375e+01 7.117798805236816406e+00 -5.007563591003417969e+00 -5.148725032806396484e+00 -3.046886444091796875e+00 -5.272271156311035156e+00
9.138000000000000000e+03 2.868100357055664062e+01 7.113371372222900391e+00 -3.920856237411499023e+00 -5.030313014984130859e+00 -2.685350894927978516e+00 -4.828202247619628906e+00
9.139000000000000000e+03 2.870049476623535156e+01 7.112733364105224609e+00 -2.867299079895019531e+00 -4.615171432495117188e+00 -2.244741201400756836e+00 -4.413315296173095703e+00
9.140000000000000000e+03 2.871973609924316406e+01 7.115909099578857422e+00 -2.008149385452270508e+00 -4.122536182403564453e+00 -1.839205741882324219e+00 -4.115763187408447266e+00
9.141000000000000000e+03 2.873798942565917969e+01 7.122776508331298828e+00 -1.035712361335754395e+00 -3.567066907882690430e+00 -1.380833745002746582e+00 -3.890268802642822266e+00
9.142000000000000000e+03 2.875455474853515625e+01 7.133071899414062500e+00 -1.563704013824462891e-01 -3.217014551162719727e+00 -1.012015461921691895e+00 -3.745760917663574219e+00
9.143000000000000000e+03 2.876879119873046875e+01 7.146399497985839844e+00 7.607764005661010742e-01 -2.898166656494140625e+00 -6.412170529365539551e-01 -3.516561269760131836e+00
9.144000000000000000e+03 2.878015708923339844e+01 7.162248134613037109e+00 1.632788419723510742e+00 -2.780189275741577148e+00 -3.442202806472778320e-01 -3.178001165390014648e+00
9.145000000000000000e+03 2.878821182250976562e+01 7.180008888244628906e+00 2.240966320037841797e+00 -2.687117815017700195e+00 -1.338454186916351318e-01 -2.764206886291503906e+00
9.146000000000000000e+03 2.879265022277832031e+01 7.198999881744384766e+00 2.679535865783691406e+00 -2.511075258255004883e+00 5.053820461034774780e-02 -2.218279600143432617e+00
9.147000000000000000e+03 2.879329872131347656e+01 7.218491554260253906e+00 2.781975984573364258e+00 -2.372857093811035156e+00 1.227356567978858948e-01 -1.749425768852233887e+00
9.148000000000000000e+03 2.879013252258300781e+01 7.237735271453857422e+00 2.711334943771362305e+00 -2.055530786514282227e+00 1.967412680387496948e-01 -1.331866860389709473e+00
9.149000000000000000e+03 2.878327560424804688e+01 7.255992412567138672e+00 2.496656656265258789e+00 -1.943064332008361816e+00 1.660777330398559570e-01 -1.114311099052429199e+00
9.150000000000000000e+03 2.877298927307128906e+01 7.272561550140380859e+00 2.340684175491333008e+00 -1.639785766601562500e+00 2.102694958448410034e-01 -1.033839464187622070e+00
9.151000000000000000e+03 2.875966835021972656e+01 7.286806106567382812e+00 2.242101430892944336e+00 -1.740435600280761719e+00 1.504997313022613525e-01 -9.939746856689453125e-01
9.152000000000000000e+03 2.874382781982421875e+01 7.298179626464843750e+00 2.447259664535522461e+00 -1.641327500343322754e+00 2.417796552181243896e-01 -1.040249109268188477e+00
9.153000000000000000e+03 2.872607040405273438e+01 7.306245326995849609e+00 2.683742284774780273e+00 -1.714339971542358398e+00 2.908206582069396973e-01 -9.480457305908203125e-01
9.154000000000000000e+03 2.870708084106445312e+01 7.310693264007568359e+00 3.104058027267456055e+00 -1.669556736946105957e+00 4.303503930568695068e-01 -7.775150537490844727e-01
9.155000000000000000e+03 2.868759155273437500e+01 7.311352252960205078e+00 3.841285467147827148e+00 -1.372230291366577148e+00 7.407165765762329102e-01 -5.838708877563476562e-01
9.156000000000000000e+03 2.866834640502929688e+01 7.308197498321533203e+00 4.290246486663818359e+00 -1.117633938789367676e+00 9.517837762832641602e-01 -4.326674044132232666e-01
9.157000000000000000e+03 2.865008544921875000e+01 7.301350116729736328e+00 5.202644824981689453e+00 -5.296467542648315430e-01 1.401899456977844238e+00 -1.626537293195724487e-01
9.158000000000000000e+03 2.863351058959960938e+01 7.291072845458984375e+00 6.291320323944091797e+00 -1.441037356853485107e-01 1.844164967536926270e+00 -6.977760232985019684e-03
9.159000000000000000e+03 2.861925697326660156e+01 7.277760505676269531e+00 7.260277271270751953e+00 1.423236280679702759e-01 2.220780372619628906e+00 2.226324528455734253e-01
9.160000000000000000e+03 2.860787582397460938e+01 7.261924266815185547e+00 8.626855850219726562e+00 6.134108901023864746e-01 2.772079944610595703e+00 7.633426785469055176e-01
9.161000000000000000e+03 2.859980010986328125e+01 7.244172573089599609e+00 9.614242553710937500e+00 6.554386615753173828e-01 3.080904245376586914e+00 1.452323198318481445e+00
9.162000000000000000e+03 2.859534263610839844e+01 7.225186347961425781e+00 1.048894882202148438e+01 1.201970815658569336e+00 3.507275819778442383e+00 2.427703142166137695e+00
9.163000000000000000e+03 2.859467124938964844e+01 7.205695629119873047e+00 1.074932098388671875e+01 1.567595720291137695e+00 3.695074796676635742e+00 3.525689840316772461e+00
9.164000000000000000e+03 2.859781646728515625e+01 7.186448097229003906e+00 1.060134124755859375e+01 2.382147550582885742e+00 3.895046710968017578e+00 4.534868240356445312e+00
9.165000000000000000e+03 2.860465431213378906e+01 7.168183803558349609e+00 9.835773468017578125e+00 3.087877750396728516e+00 3.877095460891723633e+00 5.396850109100341797e+00
9.166000000000000000e+03 7.641322326660156250e+01 3.400302886962890625e+01 3.034722328186035156e+01 7.549258232116699219e+00 1.136894416809082031e+01 1.370271587371826172e+01
9.167000000000000000e+03 7.641756439208984375e+01 3.398405075073242188e+01 2.668807411193847656e+01 2.168045806884765625e+01 1.451055908203125000e+01 2.542293548583984375e+01
9.168000000000000000e+03 7.642552185058593750e+01 3.396628189086914062e+01 2.374026489257812500e+01 3.495236587524414062e+01 1.760778808593750000e+01 2.927562141418457031e+01
9.169000000000000000e+03 7.643678283691406250e+01 3.395040130615234375e+01 1.941352653503417969e+01 4.841416931152343750e+01 2.034830856323242188e+01 3.000068855285644531e+01
9.170000000000000000e+03 7.645092010498046875e+01 3.393701934814453125e+01 1.581472015380859375e+01 6.067942810058593750e+01 2.294824409484863281e+01 2.746607398986816406e+01
9.171000000000000000e+03 7.646739196777343750e+01 3.392664337158203125e+01 1.249224567413330078e+01 7.083433532714843750e+01 2.499797439575195312e+01 2.236085319519042969e+01
9.172000000000000000e+03 7.648557281494140625e+01 3.391967391967773438e+01 1.112380695343017578e+01 7.809449768066406250e+01 2.676549148559570312e+01 1.539545726776123047e+01
9.173000000000000000e+03 7.650475311279296875e+01 3.391637420654296875e+01 1.167321872711181641e+01 8.195968627929687500e+01 2.808987236022949219e+01 7.409341335296630859e+00
9.174000000000000000e+03 7.652421569824218750e+01 3.391687774658203125e+01 1.431155204772949219e+01 8.228816223144531250e+01 2.897991561889648438e+01 -2.856962680816650391e-01
9.175000000000000000e+03 7.654321289062500000e+01 3.392115783691406250e+01 1.898236083984375000e+01 7.965925598144531250e+01 2.959248542785644531e+01 -6.749636650085449219e+00
9.176000000000000000e+03 7.656100463867187500e+01 3.392905044555664062e+01 2.473593521118164062e+01 7.479438781738281250e+01 2.985909652709960938e+01 -1.121277427673339844e+01
9.177000000000000000e+03 7.657692718505859375e+01 3.394026184082031250e+01 3.104590225219726562e+01 6.888977813720703125e+01 2.998070335388183594e+01 -1.326403427124023438e+01
9.178000000000000000e+03 7.659035491943359375e+01 3.395435333251953125e+01 3.678709030151367188e+01 6.282294082641601562e+01 2.988300895690917969e+01 -1.301854610443115234e+01
9.179000000000000000e+03 7.660078430175781250e+01 3.397079086303710938e+01 4.158663558959960938e+01 5.774068832397460938e+01 2.979819679260253906e+01 -1.073778247833251953e+01
9.180000000000000000e+03 7.660781860351562500e+01 3.398894500732421875e+01 4.484670639038085938e+01 5.407987976074218750e+01 2.967797660827636719e+01 -7.042153358459472656e+00
9.181000000000000000e+03 7.661117553710937500e+01 3.400812149047851562e+01 4.639879226684570312e+01 5.223337554931640625e+01 2.958965110778808594e+01 -2.485159873962402344e+00
9.182000000000000000e+03 7.661074066162109375e+01 3.402758407592773438e+01 4.617466735839843750e+01 5.244392776489257812e+01 2.958557891845703125e+01 2.146650314331054688e+00
9.183000000000000000e+03 7.660652160644531250e+01 3.404659271240234375e+01 4.420138931274414062e+01 5.480575942993164062e+01 2.970214462280273438e+01 6.570996761322021484e+00
9.184000000000000000e+03 7.659868621826171875e+01 3.406441116333007812e+01 4.060319137573242188e+01 5.838920211791992188e+01 2.969771766662597656e+01 9.847845077514648438e+00
9.185000000000000000e+03 7.658753204345703125e+01 3.408036804199218750e+01 3.586287307739257812e+01 6.425014495849609375e+01 3.003390502929687500e+01 1.153166675567626953e+01
9.186000000000000000e+03 7.657348632812500000e+01 3.409384536743164062e+01 2.980119132995605469e+01 6.959949493408203125e+01 2.982020568847656250e+01 1.143231296539306641e+01
9.187000000000000000e+03 7.655708312988281250e+01 3.410433197021484375e+01 2.444193077087402344e+01 7.582725524902343750e+01 3.008075714111328125e+01 8.572892189025878906e+00
9.188000000000000000e+03 7.653895568847656250e+01 3.411142349243164062e+01 1.861488151550292969e+01 7.989162445068359375e+01 2.955195236206054688e+01 3.792084217071533203e+00
9.189000000000000000e+03 7.651978302001953125e+01 3.411484909057617188e+01 1.517161178588867188e+01 8.215325927734375000e+01 2.919746017456054688e+01 -3.033031225204467773e+00
9.190000000000000000e+03 7.650032043457031250e+01 3.411447525024414062e+01 1.305970478057861328e+01 8.099955749511718750e+01 2.821777725219726562e+01 -1.078581237792968750e+01
9.191000000000000000e+03 7.648130035400390625e+01 3.411032485961914062e+01 1.347881126403808594e+01 7.646169281005859375e+01 2.698215103149414062e+01 -1.858841323852539062e+01
9.192000000000000000e+03 7.646345520019531250e+01 3.410254669189453125e+01 1.562184906005859375e+01 6.864218902587890625e+01 2.527921104431152344e+01 -2.507557678222656250e+01
9.193000000000000000e+03 7.644746398925781250e+01 3.409144592285156250e+01 1.930771636962890625e+01 5.782562637329101562e+01 2.314000320434570312e+01 -2.960545539855957031e+01
9.194000000000000000e+03 7.643393707275390625e+01 3.407744216918945312e+01 2.332451820373535156e+01 4.569937133789062500e+01 2.070716857910156250e+01 -3.126256370544433594e+01
9.195000000000000000e+03 7.642340087890625000e+01 3.406107330322265625e+01 2.746657562255859375e+01 3.193185424804687500e+01 1.781952857971191406e+01 -2.973271751403808594e+01
9.196000000000000000e+03 7.641624450683593750e+01 3.404296493530273438e+01 3.007094955444335938e+01 1.940536117553710938e+01 1.484289264678955078e+01 -2.515308189392089844e+01
9.197000000000000000e+03 7.641275787353515625e+01 3.402381134033203125e+01 3.252688217163085938e+01 6.121062755584716797e+00 1.159438323974609375e+01 -1.252762794494628906e+01
