# el_label, x, y, sXX, sYY, sZZ, sXY
1.000000000000000000e+00 5.662155914306640625e+01 3.460263824462890625e+01 -6.408520857803523540e-04 1.701904147921595722e-05 -1.871499116532504559e-04 -8.375404831895139068e-06
2.000000000000000000e+00 5.648379135131835938e+01 3.387492752075195312e+01 -9.232959710061550140e-04 6.501560710603371263e-05 -2.574841200839728117e-04 -1.527954009361565113e-04
3.000000000000000000e+00 5.571845626831054688e+01 3.398872375488281250e+01 -7.486711838282644749e-04 6.229137943591922522e-05 -2.059139515040442348e-04 -1.752098614815622568e-04
4.000000000000000000e+00 5.801555252075195312e+01 3.365230941772460938e+01 -1.227296073921024799e-03 6.125980871729552746e-05 -3.498108999338001013e-04 -7.483822264475747943e-05
5.000000000000000000e+00 5.812237167358398438e+01 3.438455963134765625e+01 -1.032841973938047886e-03 7.705638381594326347e-06 -3.075409040320664644e-04 5.543583756661973894e-05
6.000000000000000000e+00 5.737181472778320312e+01 3.449321365356445312e+01 -8.393822936341166496e-04 1.309501749346964061e-05 -2.478861715644598007e-04 2.329319613636471331e-05
7.000000000000000000e+00 5.724952316284179688e+01 3.376323318481445312e+01 -1.087820972315967083e-03 7.127162098186090589e-05 -3.049648075830191374e-04 -1.157858860096894205e-04
8.000000000000000000e+00 5.587170028686523438e+01 3.471416091918945312e+01 -4.393011040519922972e-04 1.818308919609989971e-05 -1.263354060938581824e-04 -3.731089600478298962e-05
9.000000000000000000e+00 6.036611557006835938e+01 3.409850692749023438e+01 -1.420555869117379189e-03 -5.399142992246197537e-06 -4.277865227777510881e-04 1.285287289647385478e-04
1.000000000000000000e+01 6.028128051757812500e+01 3.336336135864257812e+01 -1.518089673481881618e-03 3.244752952014096081e-05 -4.456926544662564993e-04 5.928254540776833892e-05
1.100000000000000000e+01 5.877515792846679688e+01 3.354987716674804688e+01 -1.347524696029722691e-03 5.277488889987580478e-05 -3.884249308612197638e-04 -2.524514638935215771e-05
1.200000000000000000e+01 6.103430938720703125e+01 3.327088928222656250e+01 -1.553448615595698357e-03 1.379070181428687647e-05 -4.618973762262612581e-04 9.630453132558614016e-05
1.300000000000000000e+01 6.111344909667968750e+01 3.400674057006835938e+01 -1.512767630629241467e-03 -1.456855625292519107e-05 -4.582008405122905970e-04 1.412382407579571009e-04
1.400000000000000000e+01 5.961875534057617188e+01 3.419079971313476562e+01 -1.317876158282160759e-03 7.768790055706631392e-07 -3.951297840103507042e-04 1.050374121405184269e-04
1.500000000000000000e+01 5.887139129638671875e+01 3.428361511230468750e+01 -1.194538548588752747e-03 2.188494647725747200e-07 -3.582958888728171587e-04 8.051691838772967458e-05
1.600000000000000000e+01 5.952822113037109375e+01 3.345635986328125000e+01 -1.443518558517098427e-03 4.322225868236273527e-05 -4.200889088679105043e-04 2.152138586097862571e-05
1.700000000000000000e+01 6.330451965332031250e+01 3.306448745727539062e+01 -1.524336519651114941e-03 -3.564923645171802491e-06 -4.583704576361924410e-04 1.873096771305426955e-04
1.800000000000000000e+01 6.254696655273437500e+01 3.312799835205078125e+01 -1.560478238388895988e-03 1.186134909403335769e-06 -4.677876131609082222e-04 1.698307023616507649e-04
1.900000000000000000e+01 6.178956222534179688e+01 3.319244766235351562e+01 -1.566919614560902119e-03 2.620105760797741823e-06 -4.692898655775934458e-04 1.390294200973585248e-04
2.000000000000000000e+01 6.406219482421875000e+01 3.300191879272460938e+01 -1.458953716792166233e-03 -1.444454028387553990e-05 -4.420194891281425953e-04 2.057175443042069674e-04
2.100000000000000000e+01 6.336417388916015625e+01 3.380208206176757812e+01 -1.493595773354172707e-03 -1.010633513942593709e-05 -4.511106235440820456e-04 1.452831929782405496e-04
2.200000000000000000e+01 6.261327362060546875e+01 3.386503601074218750e+01 -1.526715233922004700e-03 -8.360280844499357045e-06 -4.605226567946374416e-04 1.401556219207122922e-04
2.300000000000000000e+01 6.411519622802734375e+01 3.374007415771484375e+01 -1.452837605029344559e-03 -1.645223346713464707e-05 -4.407869710121303797e-04 1.426071394234895706e-04
2.400000000000000000e+01 6.186252593994140625e+01 3.392892837524414062e+01 -1.548732747323811054e-03 -1.567605249874759465e-05 -4.693226364906877279e-04 1.397754385834559798e-04
2.500000000000000000e+01 6.486697387695312500e+01 3.368957138061523438e+01 -1.370694604702293873e-03 -1.409065498592099175e-05 -4.154355847276747227e-04 1.303968601860105991e-04
2.600000000000000000e+01 6.633953857421875000e+01 3.287319183349609375e+01 -1.182736828923225403e-03 -1.780970706022344530e-05 -3.601639764383435249e-04 2.312698488822206855e-04
2.700000000000000000e+01 6.482070159912109375e+01 3.295096588134765625e+01 -1.380460336804389954e-03 -1.936742410180158913e-05 -4.199483082629740238e-04 2.253165439469739795e-04
2.800000000000000000e+01 6.637224578857421875e+01 3.361248397827148438e+01 -1.133679412305355072e-03 -7.768318937451113015e-06 -3.424343012738972902e-04 1.168591552414000034e-04
2.900000000000000000e+01 6.709891510009765625e+01 3.283536529541015625e+01 -1.060112379491329193e-03 -2.277176827192306519e-05 -3.248652501497417688e-04 2.309607370989397168e-04
3.000000000000000000e+01 6.712483215332031250e+01 3.357500457763671875e+01 -1.017813920043408871e-03 -1.277000865229638293e-05 -3.091751714237034321e-04 1.076817716239020228e-04
3.100000000000000000e+01 6.561961364746093750e+01 3.365067672729492188e+01 -1.251784618943929672e-03 -8.378257916774600744e-06 -3.780488623306155205e-04 1.211780327139422297e-04
3.200000000000000000e+01 6.558012390136718750e+01 3.291172790527343750e+01 -1.290389802306890488e-03 -1.584616074978839606e-05 -3.918707952834665775e-04 2.326804387848824263e-04
3.300000000000000000e+01 6.861648559570312500e+01 3.280366134643554688e+01 -8.122784784063696861e-04 -1.723766399663873017e-05 -2.488548343535512686e-04 2.182202733820304275e-04
3.400000000000000000e+01 6.785792541503906250e+01 3.281225585937500000e+01 -9.364042780362069607e-04 -2.323960507055744529e-05 -2.878931700251996517e-04 2.307639952050521970e-04
3.500000000000000000e+01 7.013391113281250000e+01 3.278910827636718750e+01 -5.604033940471708775e-04 -1.693338163022417575e-05 -1.732010423438623548e-04 1.863807992776855826e-04
3.600000000000000000e+01 6.938344573974609375e+01 3.353590011596679688e+01 -5.790032446384429932e-04 -3.678256007333402522e-06 -1.748044596752151847e-04 7.332556560868397355e-05
3.700000000000000000e+01 6.787760162353515625e+01 3.355209732055664062e+01 -8.773617446422576904e-04 -9.187307114189025015e-06 -2.659647143445909023e-04 9.177850006381049752e-05
3.800000000000000000e+01 7.013650512695312500e+01 3.352912139892578125e+01 -4.491995205171406269e-04 -5.307042556523811072e-06 -1.363519695587456226e-04 6.592187855858355761e-05
3.900000000000000000e+01 6.863047027587890625e+01 3.354356002807617188e+01 -7.206162554211914539e-04 -4.421007815835764632e-06 -2.175111876567825675e-04 8.016171341296285391e-05
4.000000000000000000e+01 6.937515258789062500e+01 3.279594802856445312e+01 -6.839865236543118954e-04 -1.633236024645157158e-05 -2.100956626236438751e-04 2.023259730776771903e-04
4.100000000000000000e+01 7.164025878906250000e+01 3.353729629516601562e+01 -2.128825581166893244e-04 -3.683294153233873658e-06 -6.496975402114912868e-05 4.884139707428403199e-05
4.200000000000000000e+01 7.164502716064453125e+01 3.279730224609375000e+01 -3.423289163038134575e-04 -1.650947706366423517e-05 -1.076515181921422482e-04 1.470177521696314216e-04
4.300000000000000000e+01 7.089052581787109375e+01 3.278962326049804688e+01 -4.468375991564244032e-04 -1.777959914761595428e-05 -1.393851562170311809e-04 1.692177611403167248e-04
4.400000000000000000e+01 7.239958190917968750e+01 3.280549240112304688e+01 -2.495467779226601124e-04 -1.794968557078391314e-05 -8.024893759284168482e-05 1.246887550223618746e-04
4.500000000000000000e+01 7.239179992675781250e+01 3.354545211791992188e+01 -1.180381150334142148e-04 -2.718928044487256557e-06 -3.622711301431991160e-05 4.111370799364522099e-05
4.600000000000000000e+01 7.315419006347656250e+01 3.281418609619140625e+01 -1.702696317806839943e-04 -1.734207762638106942e-05 -5.628351209452375770e-05 1.002971621346659958e-04
4.700000000000000000e+01 7.314339447021484375e+01 3.355411148071289062e+01 -4.055518002132885158e-05 -3.873777131957467645e-06 -1.332868669123854488e-05 3.389496851013973355e-05
4.800000000000000000e+01 7.088876342773437500e+01 3.352964782714843750e+01 -3.255537594668567181e-04 -3.392616008568438701e-06 -9.868390770861878991e-05 5.690087346010841429e-05
4.900000000000000000e+01 7.539413452148437500e+01 3.360384368896484375e+01 8.691861148690804839e-05 -4.881372206000378355e-06 2.461117037455551326e-05 8.430274647253099829e-06
5.000000000000000000e+01 7.464365386962890625e+01 3.358711624145507812e+01 6.269835284911096096e-05 -3.674389517982490361e-06 1.770718881743960083e-05 1.809016066545154899e-05
5.100000000000000000e+01 7.614562988281250000e+01 3.361807250976562500e+01 9.243374370271340013e-05 -2.309579258508165367e-06 2.703724931052420288e-05 1.101932298297469970e-06
5.200000000000000000e+01 7.389421081542968750e+01 3.356774520874023438e+01 2.016771759372204542e-05 -3.042037860723212361e-06 5.137704192748060450e-06 2.565024442446883768e-05
5.300000000000000000e+01 7.390705871582031250e+01 3.282784652709960938e+01 -1.057404297171160579e-04 -1.845746010076254606e-05 -3.725936767295934260e-05 7.747804920654743910e-05
5.400000000000000000e+01 7.616179656982421875e+01 3.287825012207031250e+01 9.413765837962273508e-06 -1.831479130487423390e-05 -2.670307594598853029e-06 5.459179192257579416e-06
5.500000000000000000e+01 7.540918731689453125e+01 3.286399459838867188e+01 -1.613780841580592096e-05 -1.990691635000985116e-05 -1.081341724784579128e-05 3.062181713175959885e-05
5.600000000000000000e+01 7.465760803222656250e+01 3.284724426269531250e+01 -5.353890082915313542e-05 -1.830794826673809439e-05 -2.155405491066630930e-05 5.169116047909483314e-05
5.700000000000000000e+01 7.936349487304687500e+01 3.287225341796875000e+01 3.858621766994474456e-06 1.976823477889411151e-05 7.088056918291840702e-06 -1.772399082256015390e-05
5.800000000000000000e+01 7.697956085205078125e+01 3.363736343383789062e+01 8.048176823649555445e-05 -5.224333108344580978e-06 2.257723099319264293e-05 -7.372650088655063882e-06
5.900000000000000000e+01 7.695101928710937500e+01 3.289525222778320312e+01 2.081591446767561138e-05 -1.450201671104878187e-05 1.894168917715433054e-06 -1.381541096634464338e-05
6.000000000000000000e+01 7.956634521484375000e+01 3.351954269409179688e+01 2.894323415603139438e-06 8.470642569591291249e-06 3.409489636396756396e-06 -4.971313956048106775e-06
6.100000000000000000e+01 7.872257232666015625e+01 3.372167205810546875e+01 2.173794018744956702e-05 -4.271272246114676818e-06 5.240000064077321440e-06 -1.039112521539209411e-05
6.200000000000000000e+01 7.787525939941406250e+01 3.369983291625976562e+01 5.526452514459379017e-05 2.944128937087953091e-06 1.746259658830240369e-05 -1.038089339999714866e-05
6.300000000000000000e+01 7.807570648193359375e+01 3.316011047363281250e+01 2.519543340895324945e-05 -2.863884674297878519e-06 6.699464393022935838e-06 -2.862487417587544769e-05
6.400000000000000000e+01 7.765270233154296875e+01 3.281734848022460938e+01 1.960977715498302132e-05 -8.169316060957498848e-06 3.432138100833981298e-06 -2.722693352552596480e-05
6.500000000000000000e+01 7.885581207275390625e+01 3.278474426269531250e+01 8.436477401119191200e-06 1.475133831263519824e-05 6.956344805075787008e-06 -3.057789581362158060e-05
6.600000000000000000e+01 7.875033569335937500e+01 3.319095611572265625e+01 2.045841029030270875e-05 2.964229224744485691e-06 7.026791990938363597e-06 -2.362635859753936529e-05
6.700000000000000000e+01 7.824720001220703125e+01 3.275509643554687500e+01 1.324539061897667125e-05 -3.356142315169563517e-06 2.966774445667397231e-06 -3.131584890070371330e-05
6.800000000000000000e+01 5.344662094116210938e+01 3.479689788818359375e+01 -3.853966518363449723e-06 -1.078583500202512369e-05 -4.391940365167101845e-06 -1.766985951690003276e-05
6.900000000000000000e+01 5.366340637207031250e+01 3.510863113403320312e+01 -1.955407424247823656e-05 -2.996216380779515021e-06 -6.765087164239957929e-06 -9.399282134836539626e-06
7.000000000000000000e+01 5.494368743896484375e+01 3.414394760131835938e+01 -5.433536716736853123e-04 6.930565064067195635e-07 -1.627981837373226881e-04 -1.721798471407964826e-04
7.100000000000000000e+01 5.424127578735351562e+01 3.501722717285156250e+01 -7.000395271461457014e-05 -1.551699824631214142e-05 -2.565628346928860992e-05 -3.336079680593684316e-05
7.200000000000000000e+01 5.503524398803710938e+01 3.488909530639648438e+01 -2.012315962929278612e-04 4.860758963332045823e-06 -5.891125329071655869e-05 -4.259014531271532178e-05
7.300000000000000000e+01 5.318430709838867188e+01 3.449492645263671875e+01 -8.431904279859736562e-05 -2.408309774182271212e-05 -3.252064198022708297e-05 -3.056885179830715060e-05
7.400000000000000000e+01 5.394946670532226562e+01 3.541463851928710938e+01 -6.215007488208357245e-06 5.346206677359077730e-08 -1.848463625719887204e-06 -4.303343814626714448e-07
7.500000000000000000e+01 5.366458129882812500e+01 3.433396148681640625e+01 -2.090825873892754316e-04 -4.345077468315139413e-05 -7.576000643894076347e-05 -1.229326298926025629e-04
7.600000000000000000e+01 5.396925354003906250e+01 3.460595321655273438e+01 -1.860615593614056706e-04 -2.028595008596312255e-05 -6.190425483509898186e-05 -6.132024282123893499e-05
7.700000000000000000e+01 5.424771118164062500e+01 3.423815917968750000e+01 -3.578562755137681961e-04 -2.903922359109856188e-05 -1.160686515504494309e-04 -1.471043360652402043e-04
7.800000000000000000e+01 7.763031005859375000e+01 3.433128356933593750e+01 -2.143706439028392197e-07 -4.837781943933805451e-07 -2.094446500677804579e-07 -2.589989094303746242e-07
7.900000000000000000e+01 7.692149353027343750e+01 3.441301727294921875e+01 -1.420680462160817115e-07 5.756905352427565958e-07 1.300867467080024653e-07 1.471597528279744438e-07
8.000000000000000000e+01 7.956238555908203125e+01 3.502278518676757812e+01 -5.105059841525871889e-08 -2.211227112525193661e-08 -2.194886050688182877e-08 2.292944678572439443e-08
8.100000000000000000e+01 7.785535430908203125e+01 3.521287536621093750e+01 2.717573011068452615e-07 4.769214569932955783e-07 2.246036245878713089e-07 8.704112985924439272e-08
8.200000000000000000e+01 7.935778808593750000e+01 3.437721633911132812e+01 1.254637851388906711e-07 3.924520441955792194e-08 4.941269793334868154e-08 -9.727438055051607080e-08
8.300000000000000000e+01 7.871063995361328125e+01 3.523011779785156250e+01 -3.462938309439778095e-07 -2.313286557864557835e-07 -1.732867502823864925e-07 -1.516537082579816342e-07
8.400000000000000000e+01 7.695046234130859375e+01 3.515489196777343750e+01 -3.628440765623963671e-07 -7.218248470053367782e-07 -3.254006912811746588e-07 -3.737686711247079074e-07
8.500000000000000000e+01 7.823022460937500000e+01 3.426558685302734375e+01 1.622702825443411712e-07 2.412388369066320593e-07 1.210527358352919691e-07 1.175676374032263993e-07
8.600000000000000000e+01 7.884498596191406250e+01 3.429229736328125000e+01 -1.308611246031432529e-07 -7.862153950100037036e-08 -6.284480491558497306e-08 4.695042576940977597e-08
8.700000000000000000e+01 7.873915863037109375e+01 3.470006179809570312e+01 2.294642058586759958e-07 1.310767885343011585e-07 1.081623040022350324e-07 -1.200649535348929930e-07
8.800000000000000000e+01 7.805813598632812500e+01 3.467243194580078125e+01 -5.765568289461953100e-07 -1.765469477277292754e-07 -2.259311315810919041e-07 -1.628309718171294662e-07
8.900000000000000000e+01 7.462894439697265625e+01 3.436700820922851562e+01 -8.307558374553991598e-08 -1.530839654151350260e-06 -4.841745635530969594e-07 8.784412131035423954e-08
9.000000000000000000e+01 7.461499023437500000e+01 3.510688400268554688e+01 -9.855633464894708595e-08 1.566690343679510988e-06 4.404402034197119065e-07 2.632510245348385070e-07
9.100000000000000000e+01 7.612859344482421875e+01 3.439789581298828125e+01 -2.146062314523078385e-07 -9.669263363321078941e-07 -3.544597859672649065e-07 -1.843498154130429612e-07
9.200000000000000000e+01 7.388066101074218750e+01 3.434764099121093750e+01 6.816733844061673153e-08 1.601251369720557705e-06 5.008255925531557295e-07 2.060840209594516637e-08
9.300000000000000000e+01 7.537825775146484375e+01 3.438370895385742188e+01 -2.502148390703951009e-07 1.372430915580480359e-06 3.366648115843418054e-07 1.087720775672096352e-07
9.400000000000000000e+01 7.611242675781250000e+01 3.513771820068359375e+01 -2.983105957810039399e-07 1.304115016864670906e-06 3.017413234829291468e-07 4.223739153985661687e-07
9.500000000000000000e+01 7.386781311035156250e+01 3.508753967285156250e+01 1.193832872559141833e-07 -1.658535779824887868e-06 -4.617457705080596497e-07 2.882374872115178732e-07
9.600000000000000000e+01 7.536319732666015625e+01 3.512355804443359375e+01 5.757883059231971856e-08 -1.245669977834040765e-06 -3.564273356460034847e-07 -1.142852141811090405e-07
9.700000000000000000e+01 7.238339996337890625e+01 3.432700347900390625e+01 4.221397205128596397e-07 1.487569875280314591e-06 5.729128815801232122e-07 -3.032614159792501596e-08
9.800000000000000000e+01 7.163043975830078125e+01 3.505818557739257812e+01 8.996651104098418728e-07 1.579648255756183062e-06 7.437939757437561639e-07 1.778397233920259168e-07
9.900000000000000000e+01 7.088690948486328125e+01 3.430988693237304688e+01 6.076954264244704973e-07 1.759875317475234624e-06 7.102712515916209668e-07 1.524133494967827573e-07
1.000000000000000000e+02 7.312104797363281250e+01 3.507486343383789062e+01 1.009953152220077754e-07 1.701240080365096219e-06 5.406706122812465765e-07 -3.354925226517480041e-08
1.010000000000000000e+02 7.313183593750000000e+01 3.433493804931640625e+01 2.246453334464604268e-07 -1.570817175888805650e-06 -4.038515442061907379e-07 1.835536096450596233e-07
1.020000000000000000e+02 7.088514709472656250e+01 3.504991149902343750e+01 2.873185849239234813e-07 -1.869241600616078358e-06 -4.745768933389626909e-07 -2.572047606008709408e-07
1.030000000000000000e+02 7.237562561035156250e+01 3.506696319580078125e+01 1.028950649129001249e-07 -1.663826310505100992e-06 -4.682793530719209230e-07 4.744690329516743077e-07
1.040000000000000000e+02 7.163520812988281250e+01 3.431819152832031250e+01 3.724419457284966484e-07 -1.535704200250620488e-06 -3.489786593036114937e-07 3.976317586307231977e-08
1.050000000000000000e+02 6.864418792724609375e+01 3.432744216918945312e+01 8.009556040633469820e-07 -2.728800609475001693e-06 -5.783534788861288689e-07 -3.943910797943317448e-08
1.060000000000000000e+02 6.865816497802734375e+01 3.506734085083007812e+01 9.943154282154864632e-07 2.108755779772764072e-06 9.309213737651589327e-07 3.705385154262330616e-07
1.070000000000000000e+02 6.789818572998046875e+01 3.433293151855468750e+01 1.075258865057548974e-06 2.997027650053496473e-06 1.221685920427262317e-06 2.289781662057066569e-07
1.080000000000000000e+02 6.939115142822265625e+01 3.431977081298828125e+01 7.206540431070607156e-07 2.462217707943636924e-06 9.548615480525768362e-07 1.592952685314230621e-07
1.090000000000000000e+02 7.014167022705078125e+01 3.505007171630859375e+01 4.851490302826277912e-07 2.099964149238076061e-06 7.755339197501598392e-07 3.895703173384390539e-07
1.100000000000000000e+02 7.013907623291015625e+01 3.431005859375000000e+01 6.004851229590713046e-07 -2.117735448337043636e-06 -4.551750976133916993e-07 -1.076940137068049808e-07
1.110000000000000000e+02 6.791786193847656250e+01 3.507276916503906250e+01 6.691005296488583554e-07 -2.302983148183557205e-06 -4.901647798760677688e-07 -1.085174545778500033e-07
1.120000000000000000e+02 6.939944458007812500e+01 3.505972290039062500e+01 6.559718030985095538e-07 -2.023196429945528507e-06 -4.101674164758151164e-07 5.654774781760352198e-08
1.130000000000000000e+02 6.570060729980468750e+01 3.516909790039062500e+01 1.199847474708803929e-06 4.391540642245672643e-06 1.677416435086342972e-06 1.425347591066383757e-06
1.140000000000000000e+02 6.640644073486328125e+01 3.439306259155273438e+01 1.596147967575234361e-06 4.004170932603301480e-06 1.680095692790928297e-06 5.324887979440973140e-07
1.150000000000000000e+02 6.491574096679687500e+01 3.446823501586914062e+01 2.584748699518968351e-06 4.451645963854389265e-06 2.110918330799904652e-06 2.478947749295912217e-07
1.160000000000000000e+02 6.715198516845703125e+01 3.435549545288085938e+01 1.059820988302817568e-06 -3.394426357772317715e-06 -7.003816335782175884e-07 -2.337461921797512332e-07
1.170000000000000000e+02 6.717790222167968750e+01 3.509513473510742188e+01 1.680597961239982396e-06 2.736073383857728913e-06 1.325001335317210760e-06 9.283814961236203089e-07
1.180000000000000000e+02 6.496202087402343750e+01 3.520683670043945312e+01 2.902731694121030159e-06 -4.796437224285909906e-06 -5.681116590494639240e-07 1.082846779354440514e-06
1.190000000000000000e+02 6.643914794921875000e+01 3.513235473632812500e+01 1.083062898032949306e-06 -3.175985966663574800e-06 -6.278769433265551925e-07 -5.354800691748096142e-07
1.200000000000000000e+02 6.566111755371093750e+01 3.443015289306640625e+01 2.100140818583895452e-06 -4.426380201039137319e-06 -6.978718829486751929e-07 -1.164332061875938962e-07
1.210000000000000000e+02 6.268238067626953125e+01 3.464594268798828125e+01 5.149380740476772189e-06 -3.726524482772219926e-06 4.268569284704426536e-07 -1.823063229267063434e-07
1.220000000000000000e+02 6.274868774414062500e+01 3.538298034667968750e+01 4.626325790013652295e-06 4.159410309512168169e-06 2.635720875332481228e-06 1.170737959910184145e-06
1.230000000000000000e+02 6.193933486938476562e+01 3.470622634887695312e+01 6.260313966777175665e-06 3.622866415753378533e-06 2.964954092021798715e-06 1.550079247181201936e-07
1.240000000000000000e+02 6.342625427246093750e+01 3.458350372314453125e+01 4.499591341300401837e-06 3.740755346370860934e-06 2.472104142725584097e-06 1.767823363252318813e-07
1.250000000000000000e+02 6.422395324707031250e+01 3.525720977783203125e+01 3.197135129084927030e-06 4.510832241066964343e-06 2.312390279257670045e-06 2.656737478901050054e-07
1.260000000000000000e+02 6.417095184326171875e+01 3.451905822753906250e+01 3.344490778545150533e-06 -4.166388407611520961e-06 -2.465693000885949004e-07 1.944572716183756711e-07
1.270000000000000000e+02 6.201229858398437500e+01 3.544270706176757812e+01 5.162357865629019216e-06 -4.703978902398375794e-06 1.375136093884066213e-07 8.478604627271124627e-07
1.280000000000000000e+02 6.348590850830078125e+01 3.532109832763671875e+01 2.834771748894127086e-06 -4.413232545630307868e-06 -4.735381935461191460e-07 1.217679823639628012e-06
1.290000000000000000e+02 5.980386352539062500e+01 3.570315170288085938e+01 6.986175776546588168e-06 3.788185495068319142e-06 3.232308245060266927e-06 -2.634114082411542768e-07
1.300000000000000000e+02 5.971332931518554688e+01 3.496871185302734375e+01 8.945941772253718227e-06 -2.925820353993913159e-06 1.806036493690044153e-06 -5.860214287167764269e-07
1.310000000000000000e+02 5.897272491455078125e+01 3.505795669555664062e+01 9.873868293652776629e-06 2.389157771176542155e-06 3.678907660287222825e-06 -9.431046237295959145e-07
1.320000000000000000e+02 6.045466995239257812e+01 3.487708282470703125e+01 8.092544703686144203e-06 3.410012141102924943e-06 3.450767053436720744e-06 -4.937212452205130830e-07
1.330000000000000000e+02 6.127589035034179688e+01 3.551908111572265625e+01 5.904291356273461133e-06 3.667959163067280315e-06 2.871674951165914536e-06 3.933497225716564571e-07
1.340000000000000000e+02 6.119675064086914062e+01 3.478322982788085938e+01 7.077345344441710040e-06 -3.761473635677248240e-06 9.947615353667060845e-07 -5.322256129147717729e-07
1.350000000000000000e+02 5.906895828247070312e+01 3.579169464111328125e+01 6.559541361639276147e-06 -4.584263933793408796e-06 5.925830919295549393e-07 1.839625269894895609e-07
1.360000000000000000e+02 6.053950500488281250e+01 3.561222839355468750e+01 6.486174697784008458e-06 -4.293613983463728800e-06 6.577682825081865303e-07 7.865530164963274729e-07
1.370000000000000000e+02 5.676622772216796875e+01 3.537297821044921875e+01 1.130995678977342322e-05 -1.046497288825776195e-07 3.361592234796262346e-06 -5.827011477776977699e-07
1.380000000000000000e+02 5.690399551391601562e+01 3.610068511962890625e+01 4.887949216936249286e-06 4.000751687271986157e-06 2.666610271262470633e-06 -4.306337359594181180e-06
1.390000000000000000e+02 5.603319931030273438e+01 3.547965621948242188e+01 8.296642590721603483e-06 -2.320079602213809267e-06 1.792968987501808442e-06 -4.593086032400606200e-06
1.400000000000000000e+02 5.750018692016601562e+01 3.526519775390625000e+01 1.042521853378275409e-05 1.633472606954455841e-06 3.617607490014052019e-06 -1.786183020158205181e-06
1.410000000000000000e+02 5.834177017211914062e+01 3.588873672485351562e+01 7.954420652822591364e-06 4.270437329978449270e-06 3.667457349365577102e-06 -4.328097347183756938e-08
1.420000000000000000e+02 5.823495101928710938e+01 3.515648651123046875e+01 1.028249880619114265e-05 -2.048985834335326217e-06 2.470053914294112474e-06 -1.182403025268286001e-06
1.430000000000000000e+02 5.618644332885742188e+01 3.620509338378906250e+01 5.601382781605934724e-06 -5.725036771764280275e-06 -3.709621410052932333e-08 -1.397125970470369793e-06
1.440000000000000000e+02 5.762247848510742188e+01 3.599517822265625000e+01 9.362106538901571184e-06 -5.645879809890175238e-06 1.114867927753948607e-06 -3.918746926956373500e-07
1.450000000000000000e+02 5.396144485473632812e+01 3.744437026977539062e+01 1.086045085685327649e-05 2.511589173082029447e-06 4.011611963505856693e-06 -5.141203587299969513e-07
1.460000000000000000e+02 5.465553665161132812e+01 3.738874435424804688e+01 3.409144937904784456e-06 1.878951115941163152e-05 6.659596692770719528e-06 -7.816622201062273234e-06
1.470000000000000000e+02 5.653540420532226562e+01 3.749497604370117188e+01 -7.839216777938418090e-06 -2.033990767813520506e-06 -2.961962309200316668e-06 -8.412421266257297248e-06
1.480000000000000000e+02 5.632802200317382812e+01 3.689408111572265625e+01 7.352137799898628145e-06 6.804426448070444167e-06 4.246969183441251516e-06 -1.600638256604725029e-06
1.490000000000000000e+02 5.156446075439453125e+01 4.032769012451171875e+01 4.239662303007207811e-05 -1.949628640431910753e-04 -4.576987339532934129e-05 -1.129839583882130682e-04
1.500000000000000000e+02 5.353924179077148438e+01 3.933101272583007812e+01 -1.763987347658257931e-05 -1.046556735673220828e-05 -8.431632522842846811e-06 -2.637843317643273622e-05
1.510000000000000000e+02 5.260045242309570312e+01 3.925950622558593750e+01 -6.401493237717659213e-07 -9.224584209732711315e-05 -2.786579716484993696e-05 -9.276814671466127038e-05
1.520000000000000000e+02 5.225281524658203125e+01 3.890370941162109375e+01 -1.547098654555156827e-04 -7.131060556275770068e-05 -6.780614057788625360e-05 -8.191780216293409467e-05
1.530000000000000000e+02 5.181860733032226562e+01 3.872420883178710938e+01 -1.783543266355991364e-04 -8.609564974904060364e-05 -7.933499728096649051e-05 -1.412858255207538605e-04
1.540000000000000000e+02 4.864762115478515625e+01 3.741102981567382812e+01 -6.458005518652498722e-04 -1.176000150735490024e-04 -2.290201664436608553e-04 -2.821743546519428492e-04
1.550000000000000000e+02 4.953116226196289062e+01 3.765513992309570312e+01 -5.638953880406916142e-04 -6.519628368550911546e-05 -1.887274993350729346e-04 -2.413548936601728201e-04
1.560000000000000000e+02 5.988750076293945312e+01 3.656786727905273438e+01 4.519091362453764305e-06 -4.110298959858482704e-06 1.226377293050973094e-07 1.078198579307354521e-06
1.570000000000000000e+02 6.351618576049804688e+01 3.631353759765625000e+01 3.769036993617191911e-06 2.868348019546829164e-06 1.991215412999736145e-06 1.045949147737701423e-06
1.580000000000000000e+02 6.580285644531250000e+01 3.602396011352539062e+01 2.071621338473050855e-06 -1.968293190657277592e-06 3.099842516007811355e-08 -1.334965986643510405e-07
1.590000000000000000e+02 6.911751556396484375e+01 3.641619873046875000e+01 1.069822019417188130e-06 6.823937042099714745e-07 5.256647455098573118e-07 -4.564603557355439989e-07
1.600000000000000000e+02 7.030734252929687500e+01 3.659474182128906250e+01 -2.902683604588673916e-07 -2.496480533409339841e-07 -1.619749241399404127e-07 7.134688644327980001e-07
1.610000000000000000e+02 7.150177764892578125e+01 3.598253631591796875e+01 -2.908693375047732843e-07 -1.173643454421835486e-06 -4.393538404201535741e-07 2.042426672232977580e-07
1.620000000000000000e+02 7.537643432617187500e+01 4.056197357177734375e+01 7.009308546912507154e-07 1.964464900083839893e-06 7.996187605385784991e-07 -1.707916510440554703e-07
1.630000000000000000e+02 7.447111511230468750e+01 3.889245605468750000e+01 -6.012554649714729749e-07 1.697372567832644563e-06 3.288351138053258182e-07 3.603114748784719268e-07
1.640000000000000000e+02 7.765376281738281250e+01 3.611857986450195312e+01 -3.523083762502210448e-07 -3.217475068595376797e-07 -2.022167677750985604e-07 -3.776224275497952476e-07
1.650000000000000000e+02 7.951951599121093750e+01 3.626855087280273438e+01 -3.983406315910542617e-08 -1.863555638692560024e-07 -6.785688810850842856e-08 -1.005577416890446329e-07
1.660000000000000000e+02 7.310505676269531250e+01 3.592479705810546875e+01 7.255310947584803216e-07 -1.675951011748111341e-06 -2.851259637282055337e-07 7.197307354545046110e-07
1.670000000000000000e+02 7.729023742675781250e+01 3.724089813232421875e+01 3.805711230597808026e-07 4.913695761388225947e-07 2.615822154439229053e-07 -5.707081385253331973e-08
1.680000000000000000e+02 6.346684265136718750e+01 3.763757705688476562e+01 -1.209696165460627526e-07 -5.210971721680834889e-06 -1.599582446942804381e-06 6.434368060581618920e-06
1.690000000000000000e+02 4.528768920898437500e+01 3.497101974487304688e+01 -2.725891245063394308e-04 -7.824121712474152446e-05 -1.052490988513454795e-04 -1.524191320640966296e-04
1.700000000000000000e+02 4.506002807617187500e+01 3.610999298095703125e+01 -1.222939608851447701e-04 3.436931874603033066e-04 6.641976506216451526e-05 7.500101492041721940e-05
1.710000000000000000e+02 3.935835266113281250e+01 3.736629486083984375e+01 -6.343801505863666534e-04 4.997733049094676971e-03 1.309005776420235634e-03 1.101448549889028072e-03
1.720000000000000000e+02 3.229388809204101562e+01 3.547164154052734375e+01 -2.361784689128398895e-03 1.143363490700721741e-02 2.721555065363645554e-03 2.510916907340288162e-03
1.730000000000000000e+02 2.205177116394042969e+01 3.804055786132812500e+01 -5.638692993670701981e-03 1.698332093656063080e-02 3.403388196602463722e-03 5.294568836688995361e-04
1.740000000000000000e+02 1.761743545532226562e+01 4.111398315429687500e+01 -5.625050049275159836e-03 1.624366268515586853e-02 3.185583511367440224e-03 -1.875996676972135901e-04
1.750000000000000000e+02 8.421365737915039062e+00 4.091408920288085938e+01 -2.372710499912500381e-03 1.049690786749124527e-02 2.437259303405880928e-03 -5.978493136353790760e-04
1.760000000000000000e+02 2.011827230453491211e+00 3.671916198730468750e+01 -3.836783580482006073e-04 6.190653424710035324e-03 1.742092543281614780e-03 -1.036559580825269222e-03
1.770000000000000000e+02 6.182554364204406738e-01 3.323655319213867188e+01 -2.907343150582164526e-04 3.295253962278366089e-03 9.013559320010244846e-04 -5.182960303500294685e-04
1.780000000000000000e+02 1.897323369979858398e+00 3.026668739318847656e+01 -1.547397696413099766e-04 9.547766530886292458e-04 2.400110679445788264e-04 -2.515865955501794815e-03
1.790000000000000000e+02 6.016805768013000488e-01 2.757807350158691406e+01 -3.220670332666486502e-04 -4.446901381015777588e-03 -1.430690521374344826e-03 -1.142188324593007565e-03
1.800000000000000000e+02 1.754784584045410156e+00 2.600016784667968750e+01 -7.011221605353057384e-04 -5.784554872661828995e-03 -1.945703057572245598e-03 -3.819445148110389709e-03
1.810000000000000000e+02 5.997738361358642578e+00 2.010912322998046875e+01 -4.427907057106494904e-03 2.072843490168452263e-03 -7.065190584398806095e-04 -1.437996234744787216e-02
1.820000000000000000e+02 1.830515861511230469e+01 8.140712738037109375e+00 3.891860321164131165e-02 4.912452027201652527e-02 2.641293779015541077e-02 4.224966093897819519e-02
1.830000000000000000e+02 2.139529609680175781e+01 1.132077980041503906e+01 2.600695379078388214e-02 2.887135557830333710e-02 1.646349206566810608e-02 2.772578969597816467e-02
1.840000000000000000e+02 2.569687271118164062e+01 1.556561470031738281e+01 1.512220688164234161e-02 1.703231036663055420e-02 9.646355174481868744e-03 1.600255072116851807e-02
1.850000000000000000e+02 2.626477241516113281e+01 1.612819862365722656e+01 1.493737008422613144e-02 1.709961891174316406e-02 9.611096233129501343e-03 1.578048430383205414e-02
1.860000000000000000e+02 2.510318183898925781e+01 1.502976703643798828e+01 1.658102311193943024e-02 1.690669730305671692e-02 1.004631631076335907e-02 1.683895103633403778e-02
1.870000000000000000e+02 3.083857154846191406e+01 2.061019897460937500e+01 9.230733849108219147e-03 9.409034624695777893e-03 5.591930821537971497e-03 9.203932248055934906e-03
1.880000000000000000e+02 3.431005477905273438e+01 3.022605514526367188e+01 6.749635213054716587e-04 8.929749019443988800e-03 2.881413558498024940e-03 4.087605979293584824e-03
1.890000000000000000e+02 2.253444480895996094e+01 4.102296447753906250e+01 -5.632142070680856705e-03 1.657234504818916321e-02 3.282061079517006874e-03 1.869704428827390075e-04
1.900000000000000000e+02 2.117727279663085938e+01 3.023538398742675781e+01 -5.521765444427728653e-03 2.052684128284454346e-02 4.501522518694400787e-03 1.766974106431007385e-03
1.910000000000000000e+02 2.680826759338378906e+01 3.099744224548339844e+01 -3.057271009311079979e-03 1.641189679503440857e-02 4.006388131529092789e-03 3.888045670464634895e-03
1.920000000000000000e+02 1.699056625366210938e+01 3.134931564331054688e+01 -6.498261354863643646e-03 1.936602592468261719e-02 3.860329510644078255e-03 -1.287028193473815918e-03
1.930000000000000000e+02 1.371285820007324219e+01 3.791162490844726562e+01 -4.810950718820095062e-03 1.464771758764982224e-02 2.951029920950531960e-03 -1.509837107732892036e-03
1.940000000000000000e+02 2.080248594284057617e+00 4.159565734863281250e+01 -4.630769253708422184e-04 7.679614238440990448e-03 2.164961071684956551e-03 -1.289991196244955063e-04
1.950000000000000000e+02 5.472581386566162109e-01 2.052925109863281250e+01 4.536922788247466087e-04 -2.472185902297496796e-02 -7.280449848622083664e-03 -2.215185435488820076e-03
1.960000000000000000e+02 1.645300507545471191e+00 1.764085006713867188e+01 -8.589843055233359337e-04 -3.031273372471332550e-02 -9.351515211164951324e-03 -7.406996563076972961e-03
1.970000000000000000e+02 5.871381282806396484e+00 1.201037120819091797e+01 9.640008211135864258e-03 -9.109823964536190033e-03 1.590554020367562771e-04 -1.758504845201969147e-02
1.980000000000000000e+02 1.663808059692382812e+01 6.428627014160156250e+00 5.670271068811416626e-02 6.322163343429565430e-02 3.597730398178100586e-02 5.771391838788986206e-02
1.990000000000000000e+02 5.419861078262329102e-01 1.490957355499267578e+01 6.936878780834376812e-04 -5.152912810444831848e-02 -1.525063160806894302e-02 -2.856309758499264717e-03
2.000000000000000000e+02 1.614416480064392090e+00 1.209619140625000000e+01 1.017478294670581818e-03 -5.126732587814331055e-02 -1.507495436817407608e-02 -5.319313611835241318e-03
2.010000000000000000e+02 8.293303489685058594e+00 2.441117048263549805e+00 -2.407067641615867615e-02 -8.898245543241500854e-02 -3.391594067215919495e-02 1.177163794636726379e-01
2.020000000000000000e+02 1.127988147735595703e+01 1.595638275146484375e+00 7.906408607959747314e-02 -2.732939720153808594e-01 -5.826896429061889648e-02 2.409493625164031982e-01
2.030000000000000000e+02 1.416379356384277344e+01 3.780070781707763672e+00 1.364628225564956665e-01 4.657882452011108398e-01 1.806753128767013550e-01 2.033113241195678711e-01
2.040000000000000000e+02 1.393926429748535156e+01 3.436807632446289062e+00 1.110107302665710449e-01 7.145941257476806641e-01 2.476814538240432739e-01 1.853418499231338501e-01
2.050000000000000000e+02 1.838392972946166992e+00 3.816682100296020508e+00 -2.547399373725056648e-03 -2.377104572951793671e-02 -7.895533926784992218e-03 1.960231736302375793e-02
2.060000000000000000e+02 5.960491895675659180e-01 6.460156440734863281e+00 1.124949660152196884e-03 -5.204834043979644775e-02 -1.527701783925294876e-02 5.670591257512569427e-03
2.070000000000000000e+02 5.429946899414062500e+00 1.854701280593872070e+00 -4.586736857891082764e-02 -1.248130947351455688e-02 -1.750460267066955566e-02 4.474841430783271790e-02
2.080000000000000000e+02 1.052026271820068359e+01 1.727085113525390625e+00 -1.191838458180427551e-02 -2.246460467576980591e-01 -7.096932828426361084e-02 2.273097485303878784e-01
2.090000000000000000e+02 1.384410953521728516e+01 1.712535500526428223e+00 1.204021215438842773e+00 1.811963438987731934e+00 9.047953486442565918e-01 -1.052970647811889648e+00
2.100000000000000000e+02 1.375167465209960938e+01 2.140828609466552734e+00 3.788854181766510010e-01 1.695578813552856445e+00 6.223393082618713379e-01 -5.961045026779174805e-01
2.110000000000000000e+02 1.411992359161376953e+01 1.344746589660644531e+00 2.145828247070312500e+00 1.793002963066101074e+00 1.181649327278137207e+00 -1.512825965881347656e+00
2.120000000000000000e+02 1.541033554077148438e+01 8.580555915832519531e-01 8.074366569519042969e+00 1.896557807922363281e-01 2.479206562042236328e+00 -5.483124256134033203e-01
2.130000000000000000e+02 3.171101379394531250e+01 2.144149017333984375e+01 7.725143339484930038e-03 7.419528905302286148e-03 4.543401766568422318e-03 7.691261824220418930e-03
2.140000000000000000e+02 3.540780258178710938e+01 2.562760162353515625e+01 4.645535256713628769e-03 6.395412608981132507e-03 3.312284359708428383e-03 5.442391149699687958e-03
2.150000000000000000e+02 3.462578582763671875e+01 3.728318405151367188e+01 -1.921884133480489254e-03 9.346527047455310822e-03 2.227392746135592461e-03 1.764060463756322861e-03
2.160000000000000000e+02 4.556975936889648438e+01 3.526884078979492188e+01 -2.882502158172428608e-04 -1.025185920298099518e-04 -1.172306365333497524e-04 -1.884563971543684602e-04
2.170000000000000000e+02 1.019834995269775391e+01 3.479538345336914062e+01 -3.846718464046716690e-03 1.255572307854890823e-02 2.612701384350657463e-03 -3.465138375759124756e-03
2.180000000000000000e+02 7.792252063751220703e+00 3.290766906738281250e+01 -2.986589446663856506e-03 9.963148273527622223e-03 2.092967508360743523e-03 -4.506131634116172791e-03
2.190000000000000000e+02 1.258214569091796875e+01 2.409758186340332031e+01 -7.780412677675485611e-03 2.320023439824581146e-02 4.625946749001741409e-03 -6.319272797554731369e-03
2.200000000000000000e+02 2.691740417480468750e+01 2.334800338745117188e+01 2.363162580877542496e-03 1.745786517858505249e-02 5.946308374404907227e-03 8.988503366708755493e-03
2.210000000000000000e+02 2.677366828918457031e+01 2.420245742797851562e+01 1.305009704083204269e-03 1.762976869940757751e-02 5.680433474481105804e-03 8.279389701783657074e-03
2.220000000000000000e+02 3.141753196716308594e+01 2.116800117492675781e+01 8.551252074539661407e-03 8.153093978762626648e-03 5.011303815990686417e-03 8.281071670353412628e-03
2.230000000000000000e+02 3.206697082519531250e+01 3.729784774780273438e+01 -2.779140835627913475e-03 1.166020240634679794e-02 2.664318541064858437e-03 1.766718109138309956e-03
2.240000000000000000e+02 3.422219467163085938e+01 3.094395256042480469e+01 2.689540269784629345e-04 9.174335747957229614e-03 2.832986880093812943e-03 3.836958901956677437e-03
2.250000000000000000e+02 3.723507690429687500e+01 2.773942756652832031e+01 3.895974019542336464e-03 5.189543124288320541e-03 2.725655212998390198e-03 4.408065695315599442e-03
2.260000000000000000e+02 7.566113471984863281e+00 3.101375389099121094e+01 -3.410914912819862366e-03 9.277590550482273102e-03 1.760002691298723221e-03 -5.802680272608995438e-03
2.270000000000000000e+02 6.294076919555664062e+00 2.503788185119628906e+01 -3.905653487890958786e-03 5.058276467025279999e-03 3.457868879195302725e-04 -9.890162386000156403e-03
2.280000000000000000e+02 1.345243644714355469e+01 2.322337150573730469e+01 -8.271147496998310089e-03 2.578203380107879639e-02 5.253265611827373505e-03 -4.734626971185207367e-03
2.290000000000000000e+02 1.482314872741699219e+01 3.468566513061523438e+01 -5.513154901564121246e-03 1.638017036020755768e-02 3.260104451328516006e-03 -2.257741056382656097e-03
2.300000000000000000e+02 7.756394863128662109e+00 2.591119003295898438e+01 -4.864296875894069672e-03 9.456939995288848877e-03 1.377792912535369396e-03 -9.334978647530078888e-03
2.310000000000000000e+02 7.259279727935791016e+00 1.585822200775146484e+01 -2.794250147417187691e-03 1.001871097832918167e-02 2.167338272556662560e-03 -1.861738227307796478e-02
2.320000000000000000e+02 2.028591537475585938e+01 1.503320407867431641e+01 9.445132687687873840e-03 3.591868653893470764e-02 1.360914576798677444e-02 1.937890984117984772e-02
2.330000000000000000e+02 6.884592056274414062e+00 9.722912788391113281e+00 2.819048799574375153e-02 -9.374261833727359772e-03 5.644868128001689911e-03 -1.994639821350574493e-02
2.340000000000000000e+02 5.374626922607421875e+01 3.826477050781250000e+01 1.907307705550920218e-05 7.783208275213837624e-06 8.056886144913733006e-06 -2.355256810915307142e-06
2.350000000000000000e+02 5.699859237670898438e+01 3.672816848754882812e+01 4.070835075253853574e-06 -5.253103608993114904e-06 -3.546805373844108544e-07 -1.641947164898738265e-06
2.360000000000000000e+02 5.825976181030273438e+01 3.683104324340820312e+01 5.095670076116221026e-06 -5.365704964788164943e-06 -8.101037707319846959e-08 2.208744490417302586e-06
2.370000000000000000e+02 5.762374877929687500e+01 3.776265335083007812e+01 -1.393611228195368312e-06 -7.750583790766540915e-06 -2.743258392001735047e-06 5.385006147662352305e-07
2.380000000000000000e+02 6.131869506835937500e+01 3.641186141967773438e+01 3.433877509451122023e-06 -3.602959168347297236e-06 -5.072450903753633611e-08 2.565654767749947496e-06
2.390000000000000000e+02 6.062040710449218750e+01 3.640102386474609375e+01 4.646691195375751704e-06 2.414403979855705984e-06 2.118328666256275028e-06 6.975388373575697187e-07
2.400000000000000000e+02 6.204438400268554688e+01 3.637110137939453125e+01 2.999588787133689038e-06 3.115961590083315969e-06 1.834665226851939224e-06 1.035591594700235873e-06
2.410000000000000000e+02 6.276531219482421875e+01 3.628829956054687500e+01 2.780804607027675956e-06 -3.658904006442753598e-06 -2.634298255088651786e-07 1.853653316175041255e-06
2.420000000000000000e+02 6.447492980957031250e+01 3.736312103271484375e+01 -3.215563992853276432e-06 7.073048891470534727e-06 1.157245378635707311e-06 4.735744823847198859e-06
2.430000000000000000e+02 6.508496093750000000e+01 3.613230133056640625e+01 9.007728749566012993e-07 3.452536020631669089e-06 1.305992668676481117e-06 1.913386313390219584e-06
2.440000000000000000e+02 6.651871490478515625e+01 3.604844284057617188e+01 1.542148538646870293e-06 2.477816906321095303e-06 1.205989633490389679e-06 2.044588882199604996e-06
2.450000000000000000e+02 6.712507629394531250e+01 3.779992675781250000e+01 1.761495241225929931e-06 2.351063358219107613e-06 1.233767534358776174e-06 1.077594447451701853e-06
2.460000000000000000e+02 6.774729919433593750e+01 3.695377731323242188e+01 1.892140204518000246e-07 -9.776420029083965346e-07 -2.365283791050387663e-07 3.110484669832658255e-08
2.470000000000000000e+02 7.117301940917968750e+01 3.714752197265625000e+01 1.238069216924486682e-06 1.153000425802019890e-06 7.173208587119006552e-07 -1.473777331284509273e-07
2.480000000000000000e+02 7.232266235351562500e+01 3.601389694213867188e+01 7.715333936175738927e-07 8.995880307338666171e-07 5.013364443584578112e-07 -2.878709608467033831e-07
2.490000000000000000e+02 7.383306121826171875e+01 3.599453735351562500e+01 -1.869113042118897283e-08 1.420905277882411610e-06 4.206642358894896461e-07 4.505313597746862797e-07
2.500000000000000000e+02 7.538685607910156250e+01 3.586875915527343750e+01 -6.467319053626852110e-07 1.472375856792496052e-06 2.476931797446013661e-07 6.165632839838508517e-07
2.510000000000000000e+02 7.604630279541015625e+01 3.586541748046875000e+01 -4.821731280912899820e-08 -9.398997917742235586e-07 -2.964351324408198707e-07 -4.917449700769793708e-07
2.520000000000000000e+02 7.857106018066406250e+01 3.620872497558593750e+01 1.626191732384540956e-07 7.392416279117242084e-08 7.096300436160163372e-08 -8.625864467148858239e-09
2.530000000000000000e+02 7.806503295898437500e+01 4.168389892578125000e+01 -1.904778486050417996e-07 -3.536357837674586335e-07 -1.632340911328356015e-07 5.649330603318958310e-08
2.540000000000000000e+02 7.887389373779296875e+01 4.022473526000976562e+01 4.337717598446033662e-07 -3.904110599250998348e-07 1.300820606786601275e-08 3.338713128187009715e-08
2.550000000000000000e+02 7.830853271484375000e+01 3.744548797607421875e+01 -1.161000966476422036e-07 -4.723266613382293144e-07 -1.765280188692486263e-07 -3.437786801896436373e-07
2.560000000000000000e+02 7.682704162597656250e+01 3.839675903320312500e+01 -8.395242900860466762e-08 -5.674190788340638392e-07 -1.954114594582279096e-07 -6.408615718100918457e-07
2.570000000000000000e+02 5.324254512786865234e+00 4.007122802734375000e+01 -1.031577237881720066e-03 8.509828709065914154e-03 2.243475522845983505e-03 -9.061710443347692490e-04
2.580000000000000000e+02 2.822755622863769531e+01 3.869093322753906250e+01 -4.279596731066703796e-03 1.454736106097698212e-02 3.080329392105340958e-03 1.116501633077859879e-03
2.590000000000000000e+02 6.634997558593750000e+01 3.911882400512695312e+01 -1.976000703507452272e-06 -2.155348965970915742e-06 -1.239404923580877949e-06 -5.678914476447971538e-07
2.600000000000000000e+02 3.744894266128540039e-01 2.170015096664428711e+00 -2.740441414061933756e-04 -5.216710269451141357e-03 -1.647226396016776562e-03 2.152937930077314377e-03
2.610000000000000000e+02 2.598677396774291992e+00 2.867578983306884766e+00 -8.812570944428443909e-03 -1.742043346166610718e-02 -7.869902066886425018e-03 2.359445206820964813e-02
2.620000000000000000e+02 5.445445060729980469e+00 2.569826364517211914e+00 -2.818431332707405090e-02 -2.761462144553661346e-02 -1.673967950046062469e-02 5.489988997578620911e-02
2.630000000000000000e+02 2.856052637100219727e+00 4.836047649383544922e+00 2.947501838207244873e-03 -3.546756878495216370e-02 -9.756019338965415955e-03 2.798796631395816803e-02
2.640000000000000000e+02 5.476653575897216797e-01 9.296658515930175781e+00 1.274294103495776653e-03 -6.837917119264602661e-02 -2.013146132230758667e-02 6.869790959171950817e-04
2.650000000000000000e+02 5.367632508277893066e-01 1.210102272033691406e+01 9.416681132279336452e-04 -6.450282037258148193e-02 -1.906834542751312256e-02 -1.993183745071291924e-03
2.660000000000000000e+02 5.449425578117370605e-01 1.631468582153320312e+01 -6.878476124256849289e-04 -4.426632076501846313e-02 -1.348625030368566513e-02 -2.760747913271188736e-03
2.670000000000000000e+02 5.461257100105285645e-01 1.771956634521484375e+01 5.480565014295279980e-04 -3.718513250350952148e-02 -1.099112350493669510e-02 -2.693164627999067307e-03
2.680000000000000000e+02 5.511386394500732422e-01 2.193506813049316406e+01 -5.847500870004296303e-04 -1.947107724845409393e-02 -6.016748026013374329e-03 -1.900561386719346046e-03
2.690000000000000000e+02 5.588716864585876465e-01 2.334246063232421875e+01 3.466354683041572571e-04 -1.482923142611980438e-02 -4.344778601080179214e-03 -1.739801256917417049e-03
2.700000000000000000e+02 1.709502339363098145e+00 2.459288406372070312e+01 -8.827249985188245773e-05 -8.776083588600158691e-03 -2.659306861460208893e-03 -4.299576859921216965e-03
2.710000000000000000e+02 5.707216858863830566e-01 2.475209426879882812e+01 -4.438811738509684801e-04 -1.083002798259258270e-02 -3.382172668352723122e-03 -1.488091307692229748e-03
2.720000000000000000e+02 6.169567704200744629e-01 2.899402046203613281e+01 1.486237306380644441e-04 -1.946285599842667580e-03 -5.392985767684876919e-04 -1.021528150886297226e-03
2.730000000000000000e+02 6.275302171707153320e-01 3.041166687011718750e+01 -2.601574815344065428e-04 1.189311587950214744e-04 -4.236789391143247485e-05 -8.274508873000741005e-04
2.740000000000000000e+02 3.109939098358154297e+00 2.865484237670898438e+01 -7.112178136594593525e-04 6.369269685819745064e-04 -2.228726589237339795e-05 -4.547276068478822708e-03
2.750000000000000000e+02 6.287660002708435059e-01 3.182770919799804688e+01 1.392392732668668032e-04 1.888319384306669235e-03 6.082676118239760399e-04 -7.547466084361076355e-04
2.760000000000000000e+02 6.065525412559509277e-01 3.598728179931640625e+01 -3.051867824979126453e-04 5.498399026691913605e-03 1.557963551022112370e-03 -3.189305134583264589e-04
2.770000000000000000e+02 7.318921685218811035e-01 3.731097412109375000e+01 2.543956798035651445e-04 6.397148594260215759e-03 1.995463157072663307e-03 -4.423659411258995533e-04
2.780000000000000000e+02 1.006707906723022461e+00 3.861145019531250000e+01 -1.743049651850014925e-04 7.025930564850568771e-03 2.055487595498561859e-03 -3.456893900875002146e-04
2.790000000000000000e+02 1.417017221450805664e+00 3.997707366943359375e+01 1.161108011729083955e-04 7.513700053095817566e-03 2.288943156599998474e-03 -4.212545172777026892e-04
2.800000000000000000e+02 9.035409927368164062e+00 1.805205225944519043e+00 -8.722849935293197632e-02 -1.100014597177505493e-01 -5.916898697614669800e-02 1.610773056745529175e-01
2.810000000000000000e+02 8.310281753540039062e+00 1.813578724861145020e+00 -9.682247787714004517e-02 -5.753421783447265625e-02 -4.630700871348381042e-02 1.198324561119079590e-01
2.820000000000000000e+02 7.588035106658935547e+00 1.821834683418273926e+00 -8.525449782609939575e-02 -4.430186375975608826e-02 -3.886690735816955566e-02 9.433434158563613892e-02
2.830000000000000000e+02 6.867319107055664062e+00 1.831229686737060547e+00 -7.138934731483459473e-02 -2.416508086025714874e-02 -2.866632863879203796e-02 7.038135826587677002e-02
2.840000000000000000e+02 4.710630416870117188e+00 1.871540188789367676e+00 -3.520327433943748474e-02 -1.440263073891401291e-02 -1.488177198916673660e-02 3.794802352786064148e-02
2.850000000000000000e+02 3.988455533981323242e+00 1.895006656646728516e+00 -2.634200453758239746e-02 -8.682671934366226196e-03 -1.050740294158458710e-02 2.896751090884208679e-02
2.860000000000000000e+02 3.266363382339477539e+00 1.923969626426696777e+00 -1.863620057702064514e-02 -1.073852740228176117e-02 -8.812418207526206970e-03 2.375625446438789368e-02
2.870000000000000000e+02 1.830493450164794922e+00 1.996160507202148438e+00 -7.490789983421564102e-03 -1.030059251934289932e-02 -5.337414797395467758e-03 1.316809747368097305e-02
2.880000000000000000e+02 1.109322547912597656e+00 2.076877593994140625e+00 -2.887302311137318611e-03 -9.433168917894363403e-03 -3.696141298860311508e-03 6.721702869981527328e-03
2.890000000000000000e+02 1.213398742675781250e+01 3.525048971176147461e+00 2.966827154159545898e-01 1.678908318281173706e-01 1.393720656633377075e-01 -2.349934279918670654e-01
2.900000000000000000e+02 1.368151950836181641e+01 2.603138685226440430e+00 2.605377137660980225e-01 1.437143445014953613e+00 5.093043446540832520e-01 -2.723317742347717285e-01
2.910000000000000000e+02 1.457917690277099609e+01 1.086888790130615234e+00 4.114100933074951172e+00 1.629322409629821777e+00 1.723026990890502930e+00 -2.205534934997558594e+00
2.920000000000000000e+02 1.507572174072265625e+01 8.763679862022399902e-01 7.883728027343750000e+00 7.926466464996337891e-01 2.602912425994873047e+00 -1.954647183418273926e+00
2.930000000000000000e+02 1.374566555023193359e+01 3.051858663558959961e+00 1.434454917907714844e-01 1.095614433288574219e+00 3.717179596424102783e-01 7.135505322366952896e-03
2.940000000000000000e+02 1.470685386657714844e+01 4.382837772369384766e+00 1.087045744061470032e-01 1.591801494359970093e-01 8.036541193723678589e-02 1.273462474346160889e-01
2.950000000000000000e+02 1.529364776611328125e+01 4.966020107269287109e+00 5.521184578537940979e-02 9.488345682621002197e-02 4.502859339118003845e-02 7.833561301231384277e-02
2.960000000000000000e+02 1.583085250854492188e+01 5.538499355316162109e+00 5.394569784402847290e-02 9.297442436218261719e-02 4.407603666186332703e-02 7.034431397914886475e-02
2.970000000000000000e+02 1.558526039123535156e+01 5.234277725219726562e+00 5.101966112852096558e-02 9.441775083541870117e-02 4.363122582435607910e-02 6.701318919658660889e-02
2.980000000000000000e+02 1.608112525939941406e+01 5.847160339355468750e+00 6.202669069170951843e-02 9.048441797494888306e-02 4.575333371758460999e-02 6.995712220668792725e-02
2.990000000000000000e+02 1.720815467834472656e+01 6.986016273498535156e+00 4.439675062894821167e-02 5.147712305188179016e-02 2.876216173171997070e-02 4.715438932180404663e-02
3.000000000000000000e+02 1.776106643676757812e+01 7.557699680328369141e+00 3.904640674591064453e-02 4.977204278111457825e-02 2.664553560316562653e-02 4.320983961224555969e-02
3.010000000000000000e+02 1.692541122436523438e+01 6.706815719604492188e+00 4.832320660352706909e-02 5.350680649280548096e-02 3.054900281131267548e-02 5.278743430972099304e-02
3.020000000000000000e+02 1.857985496520996094e+01 8.430454254150390625e+00 3.920672088861465454e-02 4.639767855405807495e-02 2.568132057785987854e-02 4.267754778265953064e-02
3.030000000000000000e+02 1.886490631103515625e+01 9.222950935363769531e+00 3.394948318600654602e-02 4.333883151412010193e-02 2.318649552762508392e-02 3.644820302724838257e-02
3.040000000000000000e+02 1.914646339416503906e+01 8.992608070373535156e+00 3.855178505182266235e-02 3.744782134890556335e-02 2.279988117516040802e-02 3.813748806715011597e-02
3.050000000000000000e+02 1.936812210083007812e+01 9.809813499450683594e+00 2.920048497617244720e-02 3.788520395755767822e-02 2.012570761144161224e-02 3.375607728958129883e-02
3.060000000000000000e+02 1.971468544006347656e+01 9.546463966369628906e+00 3.078016825020313263e-02 3.036263585090637207e-02 1.834284141659736633e-02 3.195097669959068298e-02
3.070000000000000000e+02 2.024822044372558594e+01 1.013063621520996094e+01 2.605435624718666077e-02 3.102879785001277924e-02 1.712494716048240662e-02 2.974551729857921600e-02
3.080000000000000000e+02 2.049917984008789062e+01 1.046242046356201172e+01 2.660812810063362122e-02 3.257627785205841064e-02 1.775532215833663940e-02 2.908715419471263885e-02
3.090000000000000000e+02 2.078384017944335938e+01 1.077783775329589844e+01 2.649324201047420502e-02 3.233609348535537720e-02 1.764880120754241943e-02 2.944713272154331207e-02
3.100000000000000000e+02 2.109707069396972656e+01 1.105011081695556641e+01 2.719280309975147247e-02 3.163780644536018372e-02 1.764918304979801178e-02 2.825537882745265961e-02
3.110000000000000000e+02 2.111174201965332031e+01 1.166472816467285156e+01 2.351175248622894287e-02 3.177052736282348633e-02 1.658468320965766907e-02 2.670949511229991913e-02
3.120000000000000000e+02 2.197004699707031250e+01 1.187556171417236328e+01 2.324012853205204010e-02 2.623253688216209412e-02 1.484179962426424026e-02 2.532328292727470398e-02
3.130000000000000000e+02 2.251750564575195312e+01 1.245243263244628906e+01 2.200590446591377258e-02 2.622491121292114258e-02 1.446924451738595963e-02 2.433407120406627655e-02
3.140000000000000000e+02 2.278824996948242188e+01 1.274495506286621094e+01 2.236074022948741913e-02 2.636454068124294281e-02 1.461758371442556381e-02 2.387938648462295532e-02
3.150000000000000000e+02 2.306114387512207031e+01 1.303768920898437500e+01 2.231187559664249420e-02 2.550544589757919312e-02 1.434519607573747635e-02 2.383336797356605530e-02
3.160000000000000000e+02 2.333761787414550781e+01 1.332991790771484375e+01 2.262213826179504395e-02 2.464349009096622467e-02 1.417968794703483582e-02 2.306416817009449005e-02
3.170000000000000000e+02 2.361765289306640625e+01 1.362294197082519531e+01 2.213147468864917755e-02 2.302418090403079987e-02 1.354669686406850815e-02 2.251894213259220123e-02
3.180000000000000000e+02 2.413257408142089844e+01 1.497775459289550781e+01 1.626285165548324585e-02 2.125444263219833374e-02 1.125518884509801865e-02 1.910094916820526123e-02
3.190000000000000000e+02 2.479496383666992188e+01 1.477010154724121094e+01 1.776593551039695740e-02 1.726283691823482513e-02 1.050863135606050491e-02 1.790995337069034576e-02
3.200000000000000000e+02 2.461526107788085938e+01 1.588878250122070312e+01 1.412823796272277832e-02 2.031265199184417725e-02 1.033226680010557175e-02 1.743721589446067810e-02
3.210000000000000000e+02 2.598300552368164062e+01 1.584467601776123047e+01 1.484522502869367599e-02 1.693343743681907654e-02 9.533599019050598145e-03 1.603067293763160706e-02
3.220000000000000000e+02 2.546971702575683594e+01 1.592616844177246094e+01 1.477553602308034897e-02 1.747487112879753113e-02 9.675121866166591644e-03 1.650180853903293610e-02
3.230000000000000000e+02 2.654326438903808594e+01 1.641342353820800781e+01 1.488831266760826111e-02 1.657368056476116180e-02 9.438597597181797028e-03 1.573673635721206665e-02
3.240000000000000000e+02 2.710197830200195312e+01 1.698321914672851562e+01 1.481299474835395813e-02 1.537228655070066452e-02 9.055584669113159180e-03 1.503661647439002991e-02
3.250000000000000000e+02 2.738602066040039062e+01 1.726511192321777344e+01 1.459244359284639359e-02 1.463660690933465958e-02 8.768714964389801025e-03 1.442772708833217621e-02
3.260000000000000000e+02 2.767349052429199219e+01 1.754442977905273438e+01 1.406952179968357086e-02 1.366101298481225967e-02 8.319160901010036469e-03 1.385644264519214630e-02
3.270000000000000000e+02 2.825483703613281250e+01 1.809864616394042969e+01 1.282429136335849762e-02 1.226871926337480545e-02 7.527903188019990921e-03 1.261194981634616852e-02
3.280000000000000000e+02 2.796350479125976562e+01 1.782192230224609375e+01 1.350637897849082947e-02 1.295826118439435959e-02 7.939391769468784332e-03 1.315810997039079666e-02
3.290000000000000000e+02 2.854611206054687500e+01 1.837531280517578125e+01 1.228119805455207825e-02 1.184187643229961395e-02 7.236922159790992737e-03 1.202948857098817825e-02
3.300000000000000000e+02 2.941405868530273438e+01 1.920761680603027344e+01 1.071034837514162064e-02 1.062831096351146698e-02 6.401597987860441208e-03 1.076522935181856155e-02
3.310000000000000000e+02 2.970102882385253906e+01 1.948661613464355469e+01 1.029469911009073257e-02 1.038949843496084213e-02 6.205259356647729874e-03 1.032549794763326645e-02
3.320000000000000000e+02 2.998672485351562500e+01 1.976626777648925781e+01 9.829675778746604919e-03 1.006237138062715530e-02 5.967614240944385529e-03 1.004422362893819809e-02
3.330000000000000000e+02 3.200170135498046875e+01 2.171467399597167969e+01 6.831139791756868362e-03 7.043768651783466339e-03 4.162472672760486603e-03 7.121737115085124969e-03
3.340000000000000000e+02 3.170509529113769531e+01 2.207139015197753906e+01 6.312958896160125732e-03 8.437423035502433777e-03 4.425114486366510391e-03 7.835187017917633057e-03
3.350000000000000000e+02 3.307772064208984375e+01 2.287413978576660156e+01 5.696251057088375092e-03 8.135641925036907196e-03 4.149567801505327225e-03 6.761669646948575974e-03
3.360000000000000000e+02 3.333754730224609375e+01 2.317588996887207031e+01 5.769828334450721741e-03 8.030225522816181183e-03 4.140016157180070877e-03 6.758544594049453735e-03
3.370000000000000000e+02 3.198326683044433594e+01 2.234609985351562500e+01 6.058893166482448578e-03 8.184535428881645203e-03 4.273028578609228134e-03 7.576541509479284286e-03
3.380000000000000000e+02 3.359999465942382812e+01 2.347921562194824219e+01 5.638360045850276947e-03 7.672369480133056641e-03 3.993218764662742615e-03 6.552569568157196045e-03
3.390000000000000000e+02 3.386260604858398438e+01 2.378131866455078125e+01 5.302255041897296906e-03 7.328985724598169327e-03 3.789372276514768600e-03 6.297761108726263046e-03
3.400000000000000000e+02 3.437174606323242188e+01 2.438047981262207031e+01 4.758968017995357513e-03 7.257241290062665939e-03 3.604862838983535767e-03 5.959660746157169342e-03
3.410000000000000000e+02 3.460493087768554688e+01 2.470505905151367188e+01 4.821981303393840790e-03 7.340920157730579376e-03 3.648870391771197319e-03 5.897345952689647675e-03
3.420000000000000000e+02 3.485438537597656250e+01 2.502386474609375000e+01 4.884191788733005524e-03 7.233351003378629684e-03 3.635262837633490562e-03 5.889191757887601852e-03
3.430000000000000000e+02 3.512779617309570312e+01 2.532917785644531250e+01 4.887642804533243179e-03 6.914014928042888641e-03 3.540497273206710815e-03 5.716706160455942154e-03
3.440000000000000000e+02 3.568319320678710938e+01 2.592204666137695312e+01 4.295700695365667343e-03 5.981852300465106964e-03 3.083265852183103561e-03 5.110864061862230301e-03
3.450000000000000000e+02 3.595104217529296875e+01 2.621537590026855469e+01 3.924913238734006882e-03 5.784103646874427795e-03 2.912705065682530403e-03 4.865615162998437881e-03
3.460000000000000000e+02 3.646801376342773438e+01 2.681884956359863281e+01 3.710630116984248161e-03 5.907237995415925980e-03 2.885360503569245338e-03 4.693233408033847809e-03
3.470000000000000000e+02 3.672047424316406250e+01 2.712766456604003906e+01 3.827172797173261642e-03 5.880364682525396347e-03 2.912261290475726128e-03 4.669428803026676178e-03
3.480000000000000000e+02 3.697490692138671875e+01 2.743522453308105469e+01 3.902682568877935410e-03 5.612928885966539383e-03 2.854683436453342438e-03 4.599246196448802948e-03
3.490000000000000000e+02 3.750113677978515625e+01 2.804017066955566406e+01 3.761597676202654839e-03 4.721855744719505310e-03 2.545035909861326218e-03 4.159213975071907043e-03
3.500000000000000000e+02 3.889457702636718750e+01 2.952917480468750000e+01 2.542143221944570541e-03 3.165355185046792030e-03 1.712249475531280041e-03 2.834013663232326508e-03
3.510000000000000000e+02 3.804541397094726562e+01 2.863145446777343750e+01 3.333103377372026443e-03 3.895642003044486046e-03 2.168623497709631920e-03 3.574058646336197853e-03
3.520000000000000000e+02 3.777165222167968750e+01 2.833706665039062500e+01 3.563089296221733093e-03 4.284591414034366608e-03 2.354304306209087372e-03 3.868118161335587502e-03
3.530000000000000000e+02 3.978158187866210938e+01 3.036268806457519531e+01 2.066372195258736610e-03 2.437499351799488068e-03 1.351161510683596134e-03 2.200240967795252800e-03
3.540000000000000000e+02 4.038649749755859375e+01 3.089720916748046875e+01 1.739390310831367970e-03 1.818158896639943123e-03 1.067264820449054241e-03 1.780326943844556808e-03
3.550000000000000000e+02 4.008499526977539062e+01 3.062989044189453125e+01 1.934104016982018948e-03 2.115023089572787285e-03 1.214738120324909687e-03 1.971807098016142845e-03
3.560000000000000000e+02 4.100438308715820312e+01 3.141335678100585938e+01 1.386621152050793171e-03 1.403391244821250439e-03 8.370036957785487175e-04 1.390486257150769234e-03
3.570000000000000000e+02 4.162304306030273438e+01 3.190705490112304688e+01 1.066852710209786892e-03 1.079309033229947090e-03 6.438484997488558292e-04 1.084171002730727196e-03
3.580000000000000000e+02 4.191048049926757812e+01 3.216495513916015625e+01 9.384279255755245686e-04 9.332568733952939510e-04 5.615054396912455559e-04 9.197744075208902359e-04
3.590000000000000000e+02 4.219028091430664062e+01 3.243473434448242188e+01 7.799365557730197906e-04 7.997907232493162155e-04 4.739181895274668932e-04 8.135677780956029892e-04
3.600000000000000000e+02 4.279496002197265625e+01 3.299958419799804688e+01 5.037141963839530945e-04 6.141926278360188007e-04 3.353720530867576599e-04 5.617818096652626991e-04
3.610000000000000000e+02 4.437853240966796875e+01 3.423562240600585938e+01 -7.350373925874009728e-05 1.263511803699657321e-04 1.585423342476133257e-05 1.229506688105175272e-05
3.620000000000000000e+02 4.469664382934570312e+01 3.446545028686523438e+01 -1.507387642050161958e-04 7.993544386408757418e-06 -4.282356530893594027e-05 -6.024885442457161844e-05
3.630000000000000000e+02 4.499419403076171875e+01 3.471298599243164062e+01 -2.114578965120017529e-04 -4.706205436377786100e-05 -7.755598198855295777e-05 -1.136507198680192232e-04
3.640000000000000000e+02 4.718215179443359375e+01 3.657604980468750000e+01 -4.940963117405772209e-04 -1.969803124666213989e-04 -2.073229843517765403e-04 -3.033783868886530399e-04
3.650000000000000000e+02 4.787210845947265625e+01 3.704881668090820312e+01 -6.099756574258208275e-04 -1.859382464317604899e-04 -2.387741697020828724e-04 -3.183437220286577940e-04
3.660000000000000000e+02 5.007477569580078125e+01 3.826889801025390625e+01 -2.740847412496805191e-04 -1.535853225504979491e-04 -1.283010205952450633e-04 -2.406114217592403293e-04
3.670000000000000000e+02 5.066415405273437500e+01 3.789836120605468750e+01 -3.882212331518530846e-04 -6.821874558227136731e-05 -1.369319943478330970e-04 -1.898566697491332889e-04
3.680000000000000000e+02 5.093413925170898438e+01 3.800174331665039062e+01 -3.773455682676285505e-04 -9.915630653267726302e-05 -1.429505646228790283e-04 -1.751916715875267982e-04
3.690000000000000000e+02 5.144425964355468750e+01 3.844510269165039062e+01 -2.480332041159272194e-04 -8.770821295911446214e-05 -1.007224273052997887e-04 -1.602833071956411004e-04
3.700000000000000000e+02 5.311778259277343750e+01 3.886298370361328125e+01 -3.990343975601717830e-05 2.024391687882598490e-05 -5.897856681258417666e-06 7.193531018856447190e-06
3.710000000000000000e+02 5.394086074829101562e+01 3.788212966918945312e+01 -4.581505891110282391e-06 4.141427780268713832e-06 -1.320234304102996248e-07 -5.427132236945908517e-06
3.720000000000000000e+02 5.346878814697265625e+01 3.858604431152343750e+01 -2.902328924392350018e-05 1.835085868151509203e-06 -8.156461262842640281e-06 -1.808246634027455002e-05
3.730000000000000000e+02 1.289533329010009766e+01 1.299326300621032715e+00 8.012819886207580566e-01 -3.060860931873321533e-01 1.485587805509567261e-01 1.601611971855163574e-01
3.740000000000000000e+02 1.317845535278320312e+01 2.167046308517456055e+00 8.225631117820739746e-01 8.325207829475402832e-01 4.965251684188842773e-01 -6.425584554672241211e-01
3.750000000000000000e+02 8.995189666748046875e+00 3.035410642623901367e+00 6.297397613525390625e-02 -1.240288391709327698e-01 -1.831645891070365906e-02 9.773597121238708496e-02
3.760000000000000000e+02 9.768970489501953125e+00 1.791993021965026855e+00 -5.737280100584030151e-02 -1.484203487634658813e-01 -6.173794344067573547e-02 1.797640621662139893e-01
3.770000000000000000e+02 1.442503070831298828e+01 4.090597152709960938e+00 1.390937566757202148e-01 2.721205055713653564e-01 1.233642771840095520e-01 1.720362901687622070e-01
3.780000000000000000e+02 9.018746376037597656e+00 2.416586875915527344e+00 3.417758503928780556e-03 -1.178655847907066345e-01 -3.433435037732124329e-02 1.265076696872711182e-01
3.790000000000000000e+02 1.498881530761718750e+01 4.686395168304443359e+00 7.523173093795776367e-02 1.102061867713928223e-01 5.563137307763099670e-02 9.429143369197845459e-02
3.800000000000000000e+02 1.412751674652099609e+01 4.338488101959228516e+00 5.892249941825866699e-02 3.651616871356964111e-01 1.272252500057220459e-01 1.096732243895530701e-01
3.810000000000000000e+02 1.458152389526367188e+01 4.983944416046142578e+00 4.640416800975799561e-02 2.052292227745056152e-01 7.549001276493072510e-02 1.049181520938873291e-01
3.820000000000000000e+02 1.635268211364746094e+01 6.144349098205566406e+00 6.090905144810676575e-02 7.534579932689666748e-02 4.087645560503005981e-02 6.676685810089111328e-02
3.830000000000000000e+02 1.533461952209472656e+01 5.549326419830322266e+00 5.906909331679344177e-02 1.034846976399421692e-01 4.876613616943359375e-02 7.915747165679931641e-02
3.840000000000000000e+02 4.784483337402343750e+01 3.767588043212890625e+01 -3.648713463917374611e-04 -1.849267864599823952e-04 -1.649394398555159569e-04 -2.098405529977753758e-04
3.850000000000000000e+02 4.751058959960937500e+01 3.683929824829101562e+01 -5.728433025069534779e-04 -2.129424101440235972e-04 -2.357357152504846454e-04 -3.102399350609630346e-04
3.860000000000000000e+02 3.255577468872070312e+01 2.227824211120605469e+01 5.628897342830896378e-03 7.374836597591638565e-03 3.901120275259017944e-03 6.626965478062629700e-03
3.870000000000000000e+02 1.608243370056152344e+01 6.427089691162109375e+00 4.998940974473953247e-02 8.925319463014602661e-02 4.177277907729148865e-02 6.059983000159263611e-02
3.880000000000000000e+02 4.995112991333007812e+01 3.774678802490234375e+01 -5.064212600700557232e-04 -1.130403907154686749e-04 -1.858384930528700352e-04 -2.524749725125730038e-04
3.890000000000000000e+02 4.976205825805664062e+01 3.884484481811523438e+01 -6.577149906661361456e-05 -1.624533470021560788e-04 -6.846745236543938518e-05 -2.552484802436083555e-04
3.900000000000000000e+02 1.437713718414306641e+01 4.639611244201660156e+00 5.523684620857238770e-02 2.603817284107208252e-01 9.468557685613632202e-02 1.127446815371513367e-01
3.910000000000000000e+02 1.998621177673339844e+01 9.831662178039550781e+00 2.840309403836727142e-02 3.050598129630088806e-02 1.767272315919399261e-02 2.969041839241981506e-02
3.920000000000000000e+02 1.747825622558593750e+01 8.399591445922851562e+00 3.410682454705238342e-02 5.612197890877723694e-02 2.706864103674888611e-02 4.407154768705368042e-02
3.930000000000000000e+02 1.886033248901367188e+01 8.714772224426269531e+00 4.094125702977180481e-02 4.338221624493598938e-02 2.529704198241233826e-02 4.028248414397239685e-02
3.940000000000000000e+02 4.621552658081054688e+01 3.574047851562500000e+01 -3.489773953333497047e-04 -1.365648058708757162e-04 -1.456626632716506720e-04 -2.435146889183670282e-04
3.950000000000000000e+02 4.680462265014648438e+01 3.636202239990234375e+01 -4.402986378408968449e-04 -1.971704041352495551e-04 -1.912407169584184885e-04 -2.772656152956187725e-04
3.960000000000000000e+02 3.621232604980468750e+01 2.651343345642089844e+01 3.743830602616071701e-03 5.821186117827892303e-03 2.869504969567060471e-03 4.715122282505035400e-03
3.970000000000000000e+02 3.536921310424804688e+01 2.623804473876953125e+01 3.843990853056311607e-03 6.699485238641500473e-03 3.163042943924665451e-03 5.232105031609535217e-03
3.980000000000000000e+02 3.112606239318847656e+01 2.089101219177246094e+01 9.002027101814746857e-03 8.837278932332992554e-03 5.351791623979806900e-03 8.859144523739814758e-03
3.990000000000000000e+02 1.943363571166992188e+01 9.268297195434570312e+00 3.584293276071548462e-02 3.350223228335380554e-02 2.080355025827884674e-02 3.396240621805191040e-02
4.000000000000000000e+02 1.960663795471191406e+01 1.010898590087890625e+01 2.698257006704807281e-02 3.559350222349166870e-02 1.877282187342643738e-02 3.326552361249923706e-02
4.010000000000000000e+02 4.909201049804687500e+01 3.755991363525390625e+01 -6.093609845265746117e-04 -1.308557111769914627e-04 -2.220650058006867766e-04 -2.526855678297579288e-04
4.020000000000000000e+02 3.617775726318359375e+01 2.708226394653320312e+01 3.671376034617424011e-03 6.051705218851566315e-03 2.916924422606825829e-03 4.696900025010108948e-03
4.030000000000000000e+02 1.663439941406250000e+01 7.012016296386718750e+00 4.354237765073776245e-02 7.022665441036224365e-02 3.413071110844612122e-02 5.458603799343109131e-02
4.040000000000000000e+02 1.748623466491699219e+01 7.269699573516845703e+00 3.968621790409088135e-02 4.887521266937255859e-02 2.656842954456806183e-02 4.596876725554466248e-02
4.050000000000000000e+02 2.540466308593750000e+01 1.529381275177001953e+01 1.550820656120777130e-02 1.657733693718910217e-02 9.625663049519062042e-03 1.646530628204345703e-02
4.060000000000000000e+02 1.718837738037109375e+01 7.567812442779541016e+00 3.955724835395812988e-02 5.849486961960792542e-02 2.941563539206981659e-02 4.801428690552711487e-02
4.070000000000000000e+02 1.912531661987304688e+01 9.511316299438476562e+00 3.043388575315475464e-02 3.993231803178787231e-02 2.110986225306987762e-02 3.565687686204910278e-02
4.080000000000000000e+02 3.412416076660156250e+01 2.407543754577636719e+01 4.989837761968374252e-03 7.198107428848743439e-03 3.656383370980620384e-03 6.070162169635295868e-03
4.090000000000000000e+02 3.355551910400390625e+01 2.408643913269042969e+01 4.953243769705295563e-03 7.940599694848060608e-03 3.868152853101491928e-03 6.403958890587091446e-03
4.100000000000000000e+02 3.509146499633789062e+01 2.594256782531738281e+01 4.049629438668489456e-03 7.021460682153701782e-03 3.321327269077301025e-03 5.338799208402633667e-03
4.110000000000000000e+02 3.225769042968750000e+01 2.261521911621093750e+01 5.870634224265813828e-03 8.014789782464504242e-03 4.165627527981996536e-03 7.308782078325748444e-03
4.120000000000000000e+02 3.716704559326171875e+01 2.830906486511230469e+01 3.210174152627587318e-03 5.265703424811363220e-03 2.542763249948620796e-03 3.990816883742809296e-03
4.130000000000000000e+02 3.404935073852539062e+01 2.462171363830566406e+01 4.776436369866132736e-03 7.571667898446321487e-03 3.704431233927607536e-03 6.133529823273420334e-03
4.140000000000000000e+02 2.168645477294921875e+01 1.159511184692382812e+01 2.502076141536235809e-02 2.770549617707729340e-02 1.581787690520286560e-02 2.596389688551425934e-02
4.150000000000000000e+02 2.515861320495605469e+01 1.568596458435058594e+01 1.512541063129901886e-02 1.817189157009124756e-02 9.989190846681594849e-03 1.693937554955482483e-02
4.160000000000000000e+02 5.116053390502929688e+01 3.818430328369140625e+01 -3.074130800087004900e-04 -8.671480463817715645e-05 -1.182383639388717711e-04 -1.742517197271808982e-04
4.170000000000000000e+02 3.114145660400390625e+01 2.150211143493652344e+01 7.334687281399965286e-03 9.211701340973377228e-03 4.963916726410388947e-03 8.326837792992591858e-03
4.180000000000000000e+02 1.803335380554199219e+01 7.848736763000488281e+00 3.723388537764549255e-02 4.855484142899513245e-02 2.573661878705024719e-02 4.364187270402908325e-02
4.190000000000000000e+02 1.747081184387207031e+01 7.843309402465820312e+00 3.732914850115776062e-02 5.396998301148414612e-02 2.738974057137966156e-02 4.662662744522094727e-02
4.200000000000000000e+02 3.591350555419921875e+01 2.679570007324218750e+01 3.683837829157710075e-03 6.201868876814842224e-03 2.965711988508701324e-03 4.912499804049730301e-03
4.210000000000000000e+02 2.224603271484375000e+01 1.216190147399902344e+01 2.259780652821063995e-02 2.649049460887908936e-02 1.472649071365594864e-02 2.433604560792446136e-02
4.220000000000000000e+02 2.140754699707031250e+01 1.191856288909912109e+01 2.260722778737545013e-02 2.965583465993404388e-02 1.567891798913478851e-02 2.654923498630523682e-02
4.230000000000000000e+02 2.419053077697753906e+01 1.421987628936767578e+01 2.056912146508693695e-02 1.978403702378273010e-02 1.210594736039638519e-02 2.020758762955665588e-02
4.240000000000000000e+02 2.222324752807617188e+01 1.275563907623291016e+01 2.164273709058761597e-02 2.731739543378353119e-02 1.468804012984037399e-02 2.405490353703498840e-02
4.250000000000000000e+02 4.460249328613281250e+01 3.556928634643554688e+01 -1.163823835668154061e-04 4.597823426593095064e-04 1.030199855449609458e-04 1.833806891227141023e-04
4.260000000000000000e+02 2.195718955993652344e+01 1.247069168090820312e+01 2.166007459163665771e-02 2.755951136350631714e-02 1.476587634533643723e-02 2.508063986897468567e-02
4.270000000000000000e+02 2.168775558471679688e+01 1.218995952606201172e+01 2.228515408933162689e-02 2.897881157696247101e-02 1.537918951362371445e-02 2.551321499049663544e-02
4.280000000000000000e+02 2.482793426513671875e+01 1.545867061614990234e+01 1.536853238940238953e-02 1.875179447233676910e-02 1.023609843105077744e-02 1.781803742051124573e-02
4.290000000000000000e+02 3.252818679809570312e+01 2.288908767700195312e+01 5.789898335933685303e-03 8.025103248655796051e-03 4.144500475376844406e-03 7.007840089499950409e-03
4.300000000000000000e+02 3.279316711425781250e+01 2.316971778869628906e+01 5.620080046355724335e-03 8.104002103209495544e-03 4.117224831134080887e-03 6.784942001104354858e-03
4.310000000000000000e+02 1.690929794311523438e+01 7.291937828063964844e+00 4.000639170408248901e-02 6.183421984314918518e-02 3.055218420922756195e-02 5.250823125243186951e-02
4.320000000000000000e+02 3.564006423950195312e+01 2.652053260803222656e+01 3.766921116039156914e-03 6.427125539630651474e-03 3.058213973417878151e-03 5.083372350782155991e-03
4.330000000000000000e+02 3.001668548583984375e+01 2.037110710144042969e+01 8.992788381874561310e-03 1.049006730318069458e-02 5.844856612384319305e-03 9.812343865633010864e-03
4.340000000000000000e+02 3.055419349670410156e+01 2.032789802551269531e+01 9.318757802248001099e-03 9.677517227828502655e-03 5.698882509022951126e-03 9.515131823718547821e-03
4.350000000000000000e+02 2.390163612365722656e+01 1.391985893249511719e+01 2.173705212771892548e-02 2.168385870754718781e-02 1.302627380937337875e-02 2.122837677597999573e-02
4.360000000000000000e+02 2.577006912231445312e+01 1.618077659606933594e+01 1.462605036795139313e-02 1.750804111361503601e-02 9.640228003263473511e-03 1.591794006526470184e-02
4.370000000000000000e+02 1.775297737121582031e+01 8.118845939636230469e+00 3.770643845200538635e-02 5.278992280364036560e-02 2.714890800416469574e-02 4.335416853427886963e-02
4.380000000000000000e+02 3.281856155395507812e+01 2.257363700866699219e+01 5.537582095712423325e-03 7.839303463697433472e-03 4.013065714389085770e-03 6.681301165372133255e-03
4.390000000000000000e+02 4.901102066040039062e+01 3.828875732421875000e+01 -2.776264736894518137e-04 -3.268559885327704251e-05 -9.309362212661653757e-05 -1.983282272703945637e-04
4.400000000000000000e+02 4.314379882812500000e+01 3.321424865722656250e+01 3.966311633121222258e-04 4.602814733516424894e-04 2.570737851783633232e-04 4.119822115171700716e-04
4.410000000000000000e+02 1.635889434814453125e+01 6.723320007324218750e+00 4.479511082172393799e-02 7.798729836940765381e-02 3.683472424745559692e-02 5.934646725654602051e-02
4.420000000000000000e+02 2.682153320312500000e+01 1.669892883300781250e+01 1.495635882019996643e-02 1.623360626399517059e-02 9.356989525258541107e-03 1.534666400402784348e-02
4.430000000000000000e+02 2.527339553833007812e+01 1.628226089477539062e+01 1.411214470863342285e-02 1.860301569104194641e-02 9.814548306167125702e-03 1.640462689101696014e-02
4.440000000000000000e+02 4.295104598999023438e+01 3.349477005004882812e+01 3.347327292431145906e-04 6.906547350808978081e-04 3.076162247452884912e-04 5.196898127906024456e-04
4.450000000000000000e+02 4.247030639648437500e+01 3.273244476318359375e+01 6.184964440762996674e-04 7.035497110337018967e-04 3.966138465330004692e-04 6.806299206800758839e-04
4.460000000000000000e+02 2.079793930053710938e+01 1.143000602722167969e+01 2.387266792356967926e-02 3.224168345332145691e-02 1.683430559933185577e-02 2.765244804322719574e-02
4.470000000000000000e+02 3.375174331665039062e+01 2.513967895507812500e+01 4.334354773163795471e-03 8.047513663768768311e-03 3.714560531079769135e-03 6.040648091584444046e-03
4.480000000000000000e+02 2.744686508178710938e+01 1.785160064697265625e+01 1.281154062598943710e-02 1.468822918832302094e-02 8.249931037425994873e-03 1.352728717029094696e-02
4.490000000000000000e+02 4.402686691284179688e+01 3.402189636230468750e+01 -2.272185838592122309e-06 2.242375485366210341e-04 6.658960774075239897e-05 1.328091311734169722e-04
4.500000000000000000e+02 3.831859970092773438e+01 2.892968177795410156e+01 3.018940798938274384e-03 3.562770551070570946e-03 1.974513521417975426e-03 3.324293065816164017e-03
4.510000000000000000e+02 3.027092170715332031e+01 2.004647636413574219e+01 9.549296461045742035e-03 9.933755733072757721e-03 5.844915751367807388e-03 9.711712598800659180e-03
4.520000000000000000e+02 2.973551750183105469e+01 2.009444618225097656e+01 9.302404709160327911e-03 1.086559984833002090e-02 6.050401367247104645e-03 1.011191494762897491e-02
4.530000000000000000e+02 3.858913803100585938e+01 2.925413322448730469e+01 2.721670549362897873e-03 3.343109972774982452e-03 1.819434110075235367e-03 3.055866574868559837e-03
4.540000000000000000e+02 2.605962753295898438e+01 1.644782638549804688e+01 1.436967402696609497e-02 1.706776209175586700e-02 9.431230835616588593e-03 1.566891930997371674e-02
4.550000000000000000e+02 3.420835113525390625e+01 2.499135780334472656e+01 4.611191339790821075e-03 7.552267052233219147e-03 3.649037564173340797e-03 5.937866400927305222e-03
4.560000000000000000e+02 4.371389770507812500e+01 3.375075912475585938e+01 1.062482624547556043e-04 2.394750626990571618e-04 1.037170004565268755e-04 2.376572520006448030e-04
4.570000000000000000e+02 4.344517517089843750e+01 3.345546722412109375e+01 2.871067845262587070e-04 3.135355073027312756e-04 1.801926846383139491e-04 3.024387988261878490e-04
4.580000000000000000e+02 2.945291328430175781e+01 1.981480407714843750e+01 9.581777267158031464e-03 1.113295927643775940e-02 6.214421242475509644e-03 1.051026675850152969e-02
4.590000000000000000e+02 4.074700164794921875e+01 3.178134536743164062e+01 1.196274533867835999e-03 1.920363749377429485e-03 9.349914616905152798e-04 1.542763318866491318e-03
4.600000000000000000e+02 4.040539550781250000e+01 3.154614830017089844e+01 1.306583173573017120e-03 2.171916188672184944e-03 1.043549738824367523e-03 1.744178938679397106e-03
4.610000000000000000e+02 3.057748222351074219e+01 2.092923164367675781e+01 8.397218771278858185e-03 9.895442984998226166e-03 5.487798713147640228e-03 9.048999287188053131e-03
4.620000000000000000e+02 3.029677200317382812e+01 2.064782142639160156e+01 8.769367821514606476e-03 1.024431083351373672e-02 5.704103503376245499e-03 9.401227347552776337e-03
4.630000000000000000e+02 4.570264434814453125e+01 3.601122283935546875e+01 -1.900380884762853384e-04 3.786164597840979695e-05 -4.565293420455418527e-05 -5.479557148646563292e-05
4.640000000000000000e+02 4.580600357055664062e+01 3.661595916748046875e+01 -1.829079701565206051e-04 1.581130054546520114e-04 -7.438489774358458817e-06 4.214770888211205602e-05
4.650000000000000000e+02 2.831072235107421875e+01 1.869573974609375000e+01 1.128605753183364868e-02 1.276720128953456879e-02 7.215977646410465240e-03 1.215314678847789764e-02
4.660000000000000000e+02 2.912585258483886719e+01 1.892951393127441406e+01 1.124366372823715210e-02 1.105118729174137115e-02 6.688455119729042053e-03 1.111579872667789459e-02
4.670000000000000000e+02 4.069287109375000000e+01 3.115920448303222656e+01 1.558857038617134094e-03 1.607695361599326134e-03 9.499657317064702511e-04 1.569335465319454670e-03
4.680000000000000000e+02 4.131669998168945312e+01 3.166096305847167969e+01 1.238471362739801407e-03 1.231107511557638645e-03 7.408736273646354675e-04 1.230935915373265743e-03
4.690000000000000000e+02 2.802121925354003906e+01 1.841514778137207031e+01 1.183296833187341690e-02 1.337526552379131317e-02 7.562470156699419022e-03 1.257128827273845673e-02
4.700000000000000000e+02 2.883652877807617188e+01 1.865219879150390625e+01 1.169474702328443527e-02 1.136150676757097244e-02 6.916875950992107391e-03 1.161209307610988617e-02
4.710000000000000000e+02 2.892095184326171875e+01 1.986042022705078125e+01 9.218831546604633331e-03 1.229867804795503616e-02 6.455252878367900848e-03 1.091101113706827164e-02
4.720000000000000000e+02 4.108907699584960938e+01 3.199543190002441406e+01 1.059078495018184185e-03 1.630967715755105019e-03 8.070138865150511265e-04 1.368898665532469749e-03
4.730000000000000000e+02 2.448815536499023438e+01 1.450529098510742188e+01 1.936782523989677429e-02 1.854924485087394714e-02 1.137512177228927612e-02 1.884586177766323090e-02
4.740000000000000000e+02 2.448128890991210938e+01 1.523407649993896484e+01 1.586268283426761627e-02 2.019435353577136993e-02 1.081711146980524063e-02 1.829501055181026459e-02
4.750000000000000000e+02 2.773246765136718750e+01 1.813368988037109375e+01 1.224994938820600510e-02 1.393818762153387070e-02 7.856440730392932892e-03 1.311185117810964584e-02
4.760000000000000000e+02 4.442486572265625000e+01 3.474845504760742188e+01 -9.982342453440651298e-05 2.354538883082568645e-04 4.068913767696358263e-05 8.271926344605162740e-05
4.770000000000000000e+02 4.413951873779296875e+01 3.457952117919921875e+01 -3.459099752944894135e-05 4.269494384061545134e-04 1.177075391751714051e-04 1.699775166343897581e-04
4.780000000000000000e+02 2.916954612731933594e+01 1.953408050537109375e+01 1.001980993896722794e-02 1.154510956257581711e-02 6.469476036727428436e-03 1.081419177353382111e-02
4.790000000000000000e+02 5.175481414794921875e+01 3.947922897338867188e+01 -1.369882375001907349e-05 -1.443071523681282997e-04 -4.740179429063573480e-05 -1.846945524448528886e-04
4.800000000000000000e+02 5.109801483154296875e+01 3.915402603149414062e+01 -1.154784695245325565e-04 -1.373602717649191618e-04 -7.585162529721856117e-05 -1.776743010850623250e-04
4.810000000000000000e+02 5.053973388671875000e+01 3.823679733276367188e+01 -3.135489532724022865e-04 -1.312209060415625572e-04 -1.334309636149555445e-04 -2.330810384592041373e-04
4.820000000000000000e+02 5.760550689697265625e+01 3.669222640991210938e+01 3.500230604913667776e-06 -6.107893000262265559e-07 8.668324085192580242e-07 -5.086666533316019922e-06
4.830000000000000000e+02 5.554557037353515625e+01 3.716173934936523438e+01 -2.355895503569627181e-06 -1.590736064827069640e-05 -5.478976618178421631e-06 -6.720332748955115676e-06
4.840000000000000000e+02 5.906069183349609375e+01 3.678684997558593750e+01 5.603269983112113550e-06 3.548015229171141982e-06 2.745385700109181926e-06 4.327154101702035405e-08
4.850000000000000000e+02 5.922441864013671875e+01 3.785870742797851562e+01 7.437861437864512482e-09 -2.756638195933192037e-06 -8.247600931099441368e-07 -1.470842448725306895e-06
4.860000000000000000e+02 7.574983119964599609e+00 2.467810153961181641e+00 -3.495565801858901978e-02 -5.631518736481666565e-02 -2.738125436007976532e-02 9.328432381153106689e-02
4.870000000000000000e+02 6.150839328765869141e+00 2.533088207244873047e+00 -3.254365921020507812e-02 -2.993305027484893799e-02 -1.874301210045814514e-02 6.313699483871459961e-02
4.880000000000000000e+02 6.148090362548828125e+00 1.842102408409118652e+00 -5.802648141980171204e-02 -2.315397001802921295e-02 -2.435413561761379242e-02 5.849095806479454041e-02
4.890000000000000000e+02 1.695157766342163086e+00 7.969267368316650391e+00 5.039874929934740067e-03 -5.215194821357727051e-02 -1.413362193852663040e-02 7.054443936794996262e-03
4.900000000000000000e+02 6.860497474670410156e+00 2.498682498931884766e+00 -3.616043552756309509e-02 -4.550975188612937927e-02 -2.450105734169483185e-02 7.998370379209518433e-02
4.910000000000000000e+02 4.093266487121582031e+00 3.450463771820068359e+00 -7.158545311540365219e-03 -2.542185410857200623e-02 -9.774119593203067780e-03 3.887052461504936218e-02
4.920000000000000000e+02 6.192022800445556641e+00 3.976956844329833984e+00 1.633797585964202881e-02 -4.978257790207862854e-02 -1.003338024020195007e-02 5.449371412396430969e-02
4.930000000000000000e+02 1.270170450210571289e+00 3.203235387802124023e+00 -2.600343199446797371e-03 -1.997777260839939117e-02 -6.773435045033693314e-03 1.391726545989513397e-02
4.940000000000000000e+02 2.548662185668945312e+00 1.955633640289306641e+00 -1.310866139829158783e-02 -7.938683032989501953e-03 -6.314203143119812012e-03 1.745594479143619537e-02
4.950000000000000000e+02 1.405780792236328125e+01 4.833227157592773438e+00 2.516059391200542450e-02 3.176317512989044189e-01 1.028377041220664978e-01 7.557049393653869629e-02
4.960000000000000000e+02 6.806151580810546875e+01 3.585882949829101562e+01 1.547436909277166706e-06 5.942499683442292735e-07 6.425060519177350216e-07 8.365213943761773407e-07
4.970000000000000000e+02 6.859632873535156250e+01 3.732680892944335938e+01 2.710606395339709707e-06 3.928718967927125050e-07 9.310434734288719483e-07 -3.795108511894795811e-07
4.980000000000000000e+02 6.506491088867187500e+01 3.826189041137695312e+01 2.977600956910464447e-07 6.124542323959758505e-06 1.926690629261429422e-06 -8.798296562417817768e-07
4.990000000000000000e+02 6.619506835937500000e+01 3.694215774536132812e+01 1.294023093123541912e-07 -8.145140100168646313e-07 -2.055335102113531320e-07 1.429086410098534543e-06
5.000000000000000000e+02 6.090583801269531250e+01 3.716317749023437500e+01 3.600002173698158003e-06 -2.522995828257990070e-06 3.231018581573152915e-07 2.831030315064708702e-06
5.010000000000000000e+02 6.857065582275390625e+01 3.831934356689453125e+01 -1.503760017840249930e-06 -3.457610660007048864e-07 -5.548563422053121030e-07 1.063075046658923384e-06
5.020000000000000000e+02 6.839382934570312500e+01 3.660832214355468750e+01 -7.181602654782182071e-07 4.594082838593749329e-07 -7.762559306456751074e-08 8.335948109561286401e-07
5.030000000000000000e+02 6.973650360107421875e+01 3.612078475952148438e+01 1.084336076928593684e-06 -3.129555636860459344e-07 2.314141624992771540e-07 4.723792415006755618e-07
5.040000000000000000e+02 7.229691314697265625e+01 3.724432373046875000e+01 2.131106811020799796e-07 -1.816509779928310309e-06 -4.810196969629032537e-07 6.742088771716225892e-07
5.050000000000000000e+02 1.367995452880859375e+01 1.106335043907165527e+00 1.715952754020690918e+00 4.679425954818725586e-01 6.551685929298400879e-01 -2.839531004428863525e-01
5.060000000000000000e+02 7.678765106201171875e+01 3.600424957275390625e+01 1.175266390873730415e-07 7.127630965442222077e-07 2.490869235316495178e-07 2.119576549830526346e-07
5.070000000000000000e+02 7.334976959228515625e+01 3.678935241699218750e+01 -3.363984717452694895e-07 1.822915436378025333e-07 -4.623207416898367228e-08 1.061731040863378439e-06
5.080000000000000000e+02 7.462451171875000000e+01 3.603444671630859375e+01 -2.514071439918552642e-08 -8.561858066968852654e-07 -2.643979541971930303e-07 2.740098352660425007e-07
5.090000000000000000e+02 1.206761360168457031e+01 1.460368990898132324e+00 2.902893424034118652e-01 -2.829617559909820557e-01 2.198273316025733948e-03 2.467158734798431396e-01
5.100000000000000000e+02 1.384826946258544922e+01 4.055397987365722656e+00 5.908184498548507690e-02 5.009888410568237305e-01 1.680212020874023438e-01 7.438916712999343872e-02
5.110000000000000000e+02 1.255402565002441406e+01 2.569750785827636719e+00 5.652910470962524414e-01 1.303068995475769043e-01 2.086793780326843262e-01 -3.420892357826232910e-01
5.120000000000000000e+02 1.385683727264404297e+01 4.596365451812744141e+00 2.745592221617698669e-02 3.766928911209106445e-01 1.212446466088294983e-01 5.233764648437500000e-02
5.130000000000000000e+02 1.203510189056396484e+01 2.507133483886718750e+00 5.013723969459533691e-01 -1.109223365783691406e-01 1.171350106596946716e-01 -1.216611713171005249e-01
5.140000000000000000e+02 7.923629760742187500e+01 3.892724990844726562e+01 -3.405130541977996472e-07 -3.459525430571375182e-07 -2.059396848608230357e-07 -1.605586135156045202e-07
5.150000000000000000e+02 7.941705322265625000e+01 3.761164093017578125e+01 1.747493172388203675e-07 -1.863652983047359157e-07 -3.484796673447476678e-09 6.541561248241123394e-08
5.160000000000000000e+02 7.639136505126953125e+01 3.695354461669921875e+01 -3.522457348026364343e-07 -5.904349222873861436e-07 -2.828041942848358303e-07 -5.037483674641407561e-07
5.170000000000000000e+02 5.642666625976562500e+01 3.917527389526367188e+01 -1.373546456306939945e-05 -2.000722633965779096e-05 -1.012280699796974659e-05 -6.955331627978011966e-06
5.180000000000000000e+02 7.716497802734375000e+01 3.951171112060546875e+01 -2.819954261212842539e-07 -9.776482556844712235e-07 -3.778930874887009850e-07 -6.359895792229508515e-07
5.190000000000000000e+02 7.575129699707031250e+01 3.799232482910156250e+01 8.082371039108693367e-08 1.902467829495435581e-06 5.949874548605293967e-07 -4.074465209669142496e-07
5.200000000000000000e+02 2.728504896163940430e+00 3.764170455932617188e+01 -1.553394686197862029e-04 6.886362098157405853e-03 2.019306644797325134e-03 -1.321836025454103947e-03
5.210000000000000000e+02 5.995766520500183105e-01 3.462541580200195312e+01 2.305995731148868799e-04 4.519155248999595642e-03 1.424926449544727802e-03 -5.342645454220473766e-04
5.220000000000000000e+02 5.854642987251281738e-01 2.616427040100097656e+01 2.325294626643881202e-04 -7.371706888079643250e-03 -2.141753211617469788e-03 -1.343601848930120468e-03
5.230000000000000000e+02 1.857640385627746582e+00 2.883580207824707031e+01 -5.634927074424922466e-04 -9.842184372246265411e-04 -4.643133434001356363e-04 -2.902095206081867218e-03
5.240000000000000000e+02 3.011518478393554688e+00 2.722473144531250000e+01 -1.189595786854624748e-03 -1.376082422211766243e-03 -7.697034743614494801e-04 -5.257053300738334656e-03
5.250000000000000000e+02 2.836363315582275391e+00 2.441837310791015625e+01 -1.378348330035805702e-03 -6.121451500803232193e-03 -2.249940065667033195e-03 -6.717940326780080795e-03
5.260000000000000000e+02 1.910004019737243652e+00 3.169750022888183594e+01 -4.485876124817878008e-04 2.428639912977814674e-03 5.940156988799571991e-04 -2.046916401013731956e-03
5.270000000000000000e+02 1.817498207092285156e+00 3.447149276733398438e+01 -3.581007476896047592e-04 4.745773505419492722e-03 1.316301873885095119e-03 -1.306210877373814583e-03
5.280000000000000000e+02 1.885360479354858398e+00 3.311266326904296875e+01 -1.212905408465303481e-04 3.779968945309519768e-03 1.097603468224406242e-03 -1.794006559066474438e-03
5.290000000000000000e+02 5.213317871093750000e+00 3.686654663085937500e+01 -1.136046601459383965e-03 7.853243499994277954e-03 2.015158999711275101e-03 -2.091318136081099510e-03
5.300000000000000000e+02 3.767486095428466797e+00 3.871706771850585938e+01 -5.984656163491308689e-04 7.261645980179309845e-03 1.998954219743609428e-03 -1.171979471109807491e-03
5.310000000000000000e+02 5.461491942405700684e-01 1.912427520751953125e+01 -6.891667144373059273e-04 -3.067209012806415558e-02 -9.408377110958099365e-03 -2.378357574343681335e-03
5.320000000000000000e+02 1.674977540969848633e+00 2.319344520568847656e+01 -8.354819146916270256e-04 -1.223359815776348114e-02 -3.920724149793386459e-03 -4.898553714156150818e-03
5.330000000000000000e+02 5.386779308319091797e-01 1.350466442108154297e+01 -4.945269320160150528e-04 -5.860448256134986877e-02 -1.772970333695411682e-02 -2.517545130103826523e-03
5.340000000000000000e+02 1.653649926185607910e+00 2.180118751525878906e+01 -4.443283978616818786e-05 -1.609975472092628479e-02 -4.843256436288356781e-03 -5.504836793988943100e-03
5.350000000000000000e+02 5.694257020950317383e-01 7.886801242828369141e+00 8.067295420914888382e-04 -6.314770132303237915e-02 -1.870229281485080719e-02 3.363002557307481766e-03
5.360000000000000000e+02 5.887346863746643066e-01 4.986963272094726562e+00 2.461093536112457514e-04 -3.703246265649795532e-02 -1.103590615093708038e-02 7.309345528483390808e-03
5.370000000000000000e+02 2.654390811920166016e+00 3.793656349182128906e+00 -2.885782392695546150e-03 -2.578350342810153961e-02 -8.600785396993160248e-03 2.531764656305313110e-02
5.380000000000000000e+02 1.614635467529296875e+00 1.072241497039794922e+01 2.723625162616372108e-03 -5.415694043040275574e-02 -1.542999502271413803e-02 -2.811635844409465790e-03
5.390000000000000000e+02 5.381250381469726562e-01 1.069912815093994141e+01 -9.971214603865519166e-05 -6.827465444803237915e-02 -2.051231078803539276e-02 -8.439842495135962963e-04
5.400000000000000000e+02 1.621319293975830078e+00 1.347808265686035156e+01 1.219840254634618759e-03 -4.662726446986198425e-02 -1.362222712486982346e-02 -7.193421013653278351e-03
5.410000000000000000e+02 1.643989682197570801e+00 1.902758979797363281e+01 2.365873842791188508e-05 -2.514539286494255066e-02 -7.536520250141620636e-03 -6.878540385514497757e-03
5.420000000000000000e+02 1.467862987518310547e+01 5.397551059722900391e+00 4.679003357887268066e-02 1.774881035089492798e-01 6.728344410657882690e-02 9.130278974771499634e-02
5.430000000000000000e+02 1.556075668334960938e+01 5.828886508941650391e+00 5.825521796941757202e-02 1.039340570569038391e-01 4.865678399801254272e-02 7.240670919418334961e-02
5.440000000000000000e+02 1.506531238555908203e+01 5.767390251159667969e+00 4.826867207884788513e-02 1.441768705844879150e-01 5.773366242647171021e-02 8.138130605220794678e-02
5.450000000000000000e+02 3.140337181091308594e+01 2.242798614501953125e+01 5.956926383078098297e-03 9.386643767356872559e-03 4.603070672601461411e-03 8.059430867433547974e-03
5.460000000000000000e+02 3.142378997802734375e+01 2.178873062133789062e+01 6.782715208828449249e-03 8.847082965075969696e-03 4.688939545303583145e-03 8.040166459977626801e-03
5.470000000000000000e+02 1.984776687622070312e+01 1.041105175018310547e+01 2.704259008169174194e-02 3.471941873431205750e-02 1.852860301733016968e-02 3.140786662697792053e-02
5.480000000000000000e+02 4.834530258178710938e+01 3.812702560424804688e+01 -2.750122803263366222e-04 -1.580164680490270257e-04 -1.299086288781836629e-04 -1.579226081958040595e-04
5.490000000000000000e+02 3.533129882812500000e+01 2.685277938842773438e+01 3.440965432673692703e-03 6.920916959643363953e-03 3.108564764261245728e-03 5.070736166089773178e-03
5.500000000000000000e+02 2.496036148071289062e+01 1.607055473327636719e+01 1.416571065783500671e-02 1.895888522267341614e-02 9.937378577888011932e-03 1.703980006277561188e-02
5.510000000000000000e+02 3.330745315551757812e+01 2.375743293762207031e+01 5.168676842004060745e-03 8.099290542304515839e-03 3.980390261858701706e-03 6.508523598313331604e-03
5.520000000000000000e+02 3.322047805786132812e+01 2.433096694946289062e+01 4.699552897363901138e-03 8.332678116858005524e-03 3.909669350832700729e-03 6.446709856390953064e-03
5.530000000000000000e+02 1.803406333923339844e+01 8.394665718078613281e+00 3.663852438330650330e-02 4.962613433599472046e-02 2.587939798831939697e-02 4.239511489868164062e-02
5.540000000000000000e+02 1.660354614257812500e+01 7.604439735412597656e+00 3.621930256485939026e-02 7.376313209533691406e-02 3.299473226070404053e-02 5.095997825264930725e-02
5.550000000000000000e+02 3.479115676879882812e+01 2.564772987365722656e+01 4.238289780914783478e-03 7.277761120349168777e-03 3.454815130680799484e-03 5.494261626154184341e-03
5.560000000000000000e+02 3.382655715942382812e+01 2.435711479187011719e+01 4.798856098204851151e-03 7.752668578177690506e-03 3.765457309782505035e-03 6.306045688688755035e-03
5.570000000000000000e+02 3.276650619506835938e+01 2.373827362060546875e+01 5.146260373294353485e-03 8.465119637548923492e-03 4.083414096385240555e-03 6.722700782120227814e-03
5.580000000000000000e+02 3.305275726318359375e+01 2.345576286315917969e+01 5.441293586045503616e-03 8.159271441400051117e-03 4.080169368535280228e-03 6.603525485843420029e-03
5.590000000000000000e+02 1.831441307067871094e+01 8.670150756835937500e+00 3.714152425527572632e-02 4.858567938208580017e-02 2.571816183626651764e-02 3.970944136381149292e-02
5.600000000000000000e+02 1.718763160705566406e+01 8.137652397155761719e+00 3.506581857800483704e-02 6.149981170892715454e-02 2.896968834102153778e-02 4.557427763938903809e-02
5.610000000000000000e+02 2.114292907714843750e+01 1.223404407501220703e+01 2.117404527962207794e-02 3.186886385083198547e-02 1.591287367045879364e-02 2.583548799157142639e-02
5.620000000000000000e+02 1.525679302215576172e+01 6.110357761383056641e+00 4.327413067221641541e-02 1.257699280977249146e-01 5.071321874856948853e-02 7.084560394287109375e-02
5.630000000000000000e+02 2.007167816162109375e+01 1.072592544555664062e+01 2.550968527793884277e-02 3.395106643438339233e-02 1.783822476863861084e-02 3.042242489755153656e-02
5.640000000000000000e+02 1.633274841308593750e+01 7.318780422210693359e+00 3.589715808629989624e-02 7.973725348711013794e-02 3.469032421708106995e-02 5.473421886563301086e-02
5.650000000000000000e+02 1.776470947265625000e+01 8.660934448242187500e+00 3.436208516359329224e-02 5.425980314612388611e-02 2.658656612038612366e-02 4.090996831655502319e-02
5.660000000000000000e+02 3.642842864990234375e+01 2.738051986694335938e+01 3.617459908127784729e-03 5.934534128755331039e-03 2.865598304197192192e-03 4.520051181316375732e-03
5.670000000000000000e+02 3.590172958374023438e+01 2.734475517272949219e+01 3.407397307455539703e-03 6.371764000505208969e-03 2.933748532086610794e-03 4.684091079980134964e-03
5.680000000000000000e+02 3.916691970825195312e+01 2.980889701843261719e+01 2.301787026226520538e-03 2.901061903685331345e-03 1.560854725539684296e-03 2.600372303277254105e-03
5.690000000000000000e+02 2.249039459228515625e+01 1.304313850402832031e+01 2.110502868890762329e-02 2.649713121354579926e-02 1.428064797073602676e-02 2.359377406537532806e-02
5.700000000000000000e+02 2.166067504882812500e+01 1.278051757812500000e+01 2.052763476967811584e-02 2.958186715841293335e-02 1.503285113722085953e-02 2.457650005817413330e-02
5.710000000000000000e+02 2.633806037902832031e+01 1.672271728515625000e+01 1.424076408147811890e-02 1.696966588497161865e-02 9.363128803670406342e-03 1.521239615976810455e-02
5.720000000000000000e+02 2.585988807678222656e+01 1.676586151123046875e+01 1.366161089390516281e-02 1.775919273495674133e-02 9.426240809261798859e-03 1.537048537284135818e-02
5.730000000000000000e+02 2.948149299621582031e+01 2.042725944519042969e+01 8.588288910686969757e-03 1.153190620243549347e-02 6.036058533936738968e-03 1.016260869801044464e-02
5.740000000000000000e+02 2.920120811462402344e+01 2.014451026916503906e+01 8.937236852943897247e-03 1.195688545703887939e-02 6.268236786127090454e-03 1.047546043992042542e-02
5.750000000000000000e+02 3.446432113647460938e+01 2.534816932678222656e+01 4.472362808883190155e-03 7.478667423129081726e-03 3.585309255868196487e-03 5.686514545232057571e-03
5.760000000000000000e+02 3.505117416381835938e+01 2.656454849243164062e+01 3.554561408236622810e-03 7.176800630986690521e-03 3.219408681616187096e-03 5.200598854571580887e-03
5.770000000000000000e+02 4.298782348632812500e+01 3.412751770019531250e+01 1.959285727934911847e-04 1.003280049189925194e-03 3.597626055125147104e-04 6.559062749147415161e-04
5.780000000000000000e+02 2.835789108276367188e+01 1.929807090759277344e+01 9.959816001355648041e-03 1.316324435174465179e-02 6.936918012797832489e-03 1.169847976416349411e-02
5.790000000000000000e+02 4.373299026489257812e+01 3.447738647460937500e+01 5.411630991147831082e-05 6.024455069564282894e-04 1.969685399672016501e-04 3.668373974505811930e-04
5.800000000000000000e+02 2.778271293640136719e+01 1.873036575317382812e+01 1.077330950647592545e-02 1.421968732029199600e-02 7.497899234294891357e-03 1.254437118768692017e-02
5.810000000000000000e+02 2.859883308410644531e+01 1.897536468505859375e+01 1.089332718402147293e-02 1.234377361834049225e-02 6.971130613237619400e-03 1.163280103355646133e-02
5.820000000000000000e+02 2.807184028625488281e+01 1.901494979858398438e+01 1.044751703739166260e-02 1.370655838400125504e-02 7.246222812682390213e-03 1.204952877014875412e-02
5.830000000000000000e+02 2.888503456115722656e+01 1.925439071655273438e+01 1.038163341581821442e-02 1.187063101679086685e-02 6.675679236650466919e-03 1.127095613628625870e-02
5.840000000000000000e+02 1.357382678985595703e+01 3.749469041824340820e+00 5.828472599387168884e-02 6.772201657295227051e-01 2.206514775753021240e-01 -8.566987700760364532e-03
5.850000000000000000e+02 3.085917091369628906e+01 2.121487617492675781e+01 7.960367947816848755e-03 9.604856371879577637e-03 5.269567482173442841e-03 8.621516637504100800e-03
5.860000000000000000e+02 3.003499031066894531e+01 2.096937561035156250e+01 7.980641908943653107e-03 1.088772993534803391e-02 5.660511553287506104e-03 9.413290768861770630e-03
5.870000000000000000e+02 2.716508483886718750e+01 1.756885528564453125e+01 1.323133613914251328e-02 1.524522062391042709e-02 8.542967028915882111e-03 1.404119748622179031e-02
5.880000000000000000e+02 3.916062545776367188e+01 3.057855415344238281e+01 1.815750263631343842e-03 3.300441661849617958e-03 1.534857554361224174e-03 2.494092099368572235e-03
5.890000000000000000e+02 3.944837951660156250e+01 3.010810852050781250e+01 2.201462164521217346e-03 2.732998225837945938e-03 1.480338047258555889e-03 2.413064008578658104e-03
5.900000000000000000e+02 2.721108245849609375e+01 1.816175842285156250e+01 1.164978183805942535e-02 1.539114490151405334e-02 8.112277835607528687e-03 1.336844637989997864e-02
5.910000000000000000e+02 2.045542716979980469e+01 1.121394062042236328e+01 2.465918287634849548e-02 3.386982530355453491e-02 1.755870319902896881e-02 2.798205241560935974e-02
5.920000000000000000e+02 3.224686431884765625e+01 2.321388626098632812e+01 5.488451104611158371e-03 8.591080084443092346e-03 4.223859403282403946e-03 7.224006112664937973e-03
5.930000000000000000e+02 4.334711456298828125e+01 3.397609710693359375e+01 1.186985100503079593e-04 6.139150355011224747e-04 2.197840512963011861e-04 4.235966771375387907e-04
5.940000000000000000e+02 2.661230468750000000e+01 1.700285720825195312e+01 1.397922076284885406e-02 1.635329611599445343e-02 9.099754504859447479e-03 1.492232456803321838e-02
5.950000000000000000e+02 2.276024627685546875e+01 1.333351039886474609e+01 2.109063975512981415e-02 2.614768221974372864e-02 1.417149696499109268e-02 2.265552617609500885e-02
5.960000000000000000e+02 2.140585708618164062e+01 1.249934864044189453e+01 2.063906751573085785e-02 3.008607588708400726e-02 1.521754264831542969e-02 2.552000060677528381e-02
5.970000000000000000e+02 3.791726684570312500e+01 2.925138282775878906e+01 2.541075926274061203e-03 4.357755184173583984e-03 2.069649286568164825e-03 3.370872000232338905e-03
5.980000000000000000e+02 1.859273147583007812e+01 8.945322036743164062e+00 3.509074449539184570e-02 4.538868740200996399e-02 2.414382994174957275e-02 3.871600702404975891e-02
5.990000000000000000e+02 1.689295196533203125e+01 7.873352527618408203e+00 3.460200875997543335e-02 6.562556326389312744e-02 3.006827086210250854e-02 4.953978955745697021e-02
6.000000000000000000e+02 3.949570465087890625e+01 3.074850082397460938e+01 1.753228367306292057e-03 2.872693352401256561e-03 1.387776457704603672e-03 2.231775084510445595e-03
6.010000000000000000e+02 4.491062927246093750e+01 3.525395202636718750e+01 -1.894356100820004940e-04 1.706526527414098382e-04 -5.634885837935144082e-06 2.867281364160589874e-05
6.020000000000000000e+02 3.865952682495117188e+01 3.056673622131347656e+01 1.720504136756062508e-03 3.920658025890588760e-03 1.692348741926252842e-03 2.702761907130479813e-03
6.030000000000000000e+02 3.870766448974609375e+01 3.000233650207519531e+01 2.124264370650053024e-03 3.629047423601150513e-03 1.725993584841489792e-03 2.849303418770432472e-03
6.040000000000000000e+02 4.357117462158203125e+01 3.505622482299804688e+01 1.464021988795138896e-05 1.049362821504473686e-03 3.192008880432695150e-04 5.350315477699041367e-04
6.050000000000000000e+02 3.030968475341796875e+01 2.124534606933593750e+01 7.637638598680496216e-03 1.063842233270406723e-02 5.482818000018596649e-03 9.015642106533050537e-03
6.060000000000000000e+02 2.749434471130371094e+01 1.844569396972656250e+01 1.129508484154939651e-02 1.487229671329259872e-02 7.850214838981628418e-03 1.290721818804740906e-02
6.070000000000000000e+02 2.539423751831054688e+01 1.682846260070800781e+01 1.302600465714931488e-02 1.880080252885818481e-02 9.548041969537734985e-03 1.567329280078411102e-02
6.080000000000000000e+02 3.691897964477539062e+01 2.799436187744140625e+01 3.388958051800727844e-03 5.568590480834245682e-03 2.687264466658234596e-03 4.179703071713447571e-03
6.090000000000000000e+02 4.327192687988281250e+01 3.436514663696289062e+01 1.140430686064064503e-04 8.593730744905769825e-04 2.920248371083289385e-04 5.554512608796358109e-04
6.100000000000000000e+02 4.290771484375000000e+01 3.378701782226562500e+01 2.553044760134071112e-04 9.091610554605722427e-04 3.493396798148751259e-04 6.224420503713190556e-04
6.110000000000000000e+02 2.303190422058105469e+01 1.362854290008544922e+01 2.035932242870330811e-02 2.518199011683464050e-02 1.366239413619041443e-02 2.221136726438999176e-02
6.120000000000000000e+02 3.329162979125976562e+01 2.514768791198730469e+01 4.134722985327243805e-03 8.576364256441593170e-03 3.813326125964522362e-03 6.162385456264019012e-03
6.130000000000000000e+02 4.465673446655273438e+01 3.500050354003906250e+01 -1.522115489933639765e-04 1.989212032640352845e-04 1.401289591740351170e-05 4.897843609796836972e-05
6.140000000000000000e+02 3.301201248168945312e+01 2.400984764099121094e+01 4.981478676199913025e-03 8.401205763220787048e-03 4.014805424958467484e-03 6.577276159077882767e-03
6.150000000000000000e+02 2.085751152038574219e+01 1.200766563415527344e+01 2.141168713569641113e-02 3.246093168854713440e-02 1.616178639233112335e-02 2.671325951814651489e-02
6.160000000000000000e+02 2.055018997192382812e+01 1.181308078765869141e+01 2.197555080056190491e-02 3.431737422943115234e-02 1.688787713646888733e-02 2.696220204234123230e-02
6.170000000000000000e+02 3.479816818237304688e+01 2.624856567382812500e+01 3.699121298268437386e-03 7.402413990348577499e-03 3.330460516735911369e-03 5.355287808924913406e-03
6.180000000000000000e+02 3.767245864868164062e+01 2.893605232238769531e+01 2.769183134660124779e-03 4.662992898374795914e-03 2.229652833193540573e-03 3.579054959118366241e-03
6.190000000000000000e+02 2.191878128051757812e+01 1.306425380706787109e+01 1.991267502307891846e-02 2.835633605718612671e-02 1.448070351034402847e-02 2.400615438818931580e-02
6.200000000000000000e+02 3.058222007751464844e+01 2.153323936462402344e+01 7.121826522052288055e-03 1.033905055373907089e-02 5.238262936472892761e-03 8.747586049139499664e-03
6.210000000000000000e+02 2.330286216735839844e+01 1.393254852294921875e+01 2.001310884952545166e-02 2.441027387976646423e-02 1.332701463252305984e-02 2.122620865702629089e-02
6.220000000000000000e+02 3.667325973510742188e+01 2.768504524230957031e+01 3.538891440257430077e-03 5.786650814116001129e-03 2.797662746161222458e-03 4.348324611783027649e-03
6.230000000000000000e+02 3.112627601623535156e+01 2.212820625305175781e+01 6.232398096472024918e-03 9.721745736896991730e-03 4.786243196576833725e-03 8.288024924695491791e-03
6.240000000000000000e+02 3.085344314575195312e+01 2.182829856872558594e+01 6.673957686871290207e-03 1.007710676640272141e-02 5.025319289416074753e-03 8.467046543955802917e-03
6.250000000000000000e+02 3.250974655151367188e+01 2.347845840454101562e+01 5.353336222469806671e-03 8.513290435075759888e-03 4.159987904131412506e-03 6.921627558767795563e-03
6.260000000000000000e+02 1.946276283264160156e+01 1.068714427947998047e+01 2.403868362307548523e-02 3.852143883705139160e-02 1.876803673803806305e-02 3.220124170184135437e-02
6.270000000000000000e+02 3.682184600830078125e+01 2.856078720092773438e+01 2.799726556986570358e-03 5.764388479292392731e-03 2.569234464317560196e-03 3.931317944079637527e-03
6.280000000000000000e+02 3.563954544067382812e+01 2.708707237243652344e+01 3.454800462350249290e-03 6.601031869649887085e-03 3.016749862581491470e-03 4.864677321165800095e-03
6.290000000000000000e+02 3.449992370605468750e+01 2.597843360900878906e+01 3.900442505255341530e-03 7.608240004628896713e-03 3.452604869380593300e-03 5.471802316606044769e-03
6.300000000000000000e+02 1.581253337860107422e+01 6.126700401306152344e+00 5.249278247356414795e-02 9.626499563455581665e-02 4.462733492255210876e-02 6.638292968273162842e-02
6.310000000000000000e+02 1.881327629089355469e+01 9.725028991699218750e+00 2.886572480201721191e-02 4.468820244073867798e-02 2.206617780029773712e-02 3.530229628086090088e-02
6.320000000000000000e+02 4.703741073608398438e+01 3.819163513183593750e+01 -1.037969850585795939e-04 1.734644174575805664e-04 2.090022826450876892e-05 3.148397445329464972e-05
6.330000000000000000e+02 1.606989669799804688e+01 7.015663623809814453e+00 3.911926224827766418e-02 9.028446674346923828e-02 3.882111981511116028e-02 5.535364151000976562e-02
6.340000000000000000e+02 1.580101203918457031e+01 6.713181495666503906e+00 3.994918614625930786e-02 9.905488789081573486e-02 4.170122370123863220e-02 6.018256023526191711e-02
6.350000000000000000e+02 8.269325256347656250e+00 3.702815055847167969e+00 6.433343887329101562e-02 -9.496390819549560547e-02 -9.189141914248466492e-03 6.702028214931488037e-02
6.360000000000000000e+02 1.257213687896728516e+01 3.707312107086181641e+00 2.074819505214691162e-01 3.362620770931243896e-01 1.631232053041458130e-01 -2.281875610351562500e-01
6.370000000000000000e+02 1.208375167846679688e+01 2.021393537521362305e+00 4.864290654659271240e-01 -2.157305181026458740e-01 8.120956271886825562e-02 3.705778345465660095e-02
6.380000000000000000e+02 5.459188461303710938e+01 3.807180404663085938e+01 -5.535366653930395842e-06 2.232732185802888125e-05 5.037586561229545623e-06 -3.726468776221736334e-06
6.390000000000000000e+02 5.590534973144531250e+01 3.786074447631835938e+01 1.653554681979585439e-05 -4.270549197826767340e-06 3.679499059217050672e-06 -2.372033804931561463e-06
6.400000000000000000e+02 1.312512493133544922e+01 1.751808762550354004e+00 1.110783696174621582e+00 2.449743002653121948e-01 4.067274034023284912e-01 -4.267106056213378906e-01
6.410000000000000000e+02 1.308890247344970703e+01 2.649268627166748047e+00 4.564176499843597412e-01 6.616199612617492676e-01 3.354112803936004639e-01 -4.095351397991180420e-01
6.420000000000000000e+02 5.305562210083007812e+01 3.989247131347656250e+01 -1.786178108886815608e-05 -9.568909445079043508e-05 -3.406526229809969664e-05 -6.990158453845651820e-06
6.430000000000000000e+02 5.082509613037109375e+01 3.865260314941406250e+01 -1.967285206774249673e-04 -1.465165405534207821e-04 -1.029735212796367705e-04 -1.941264199558645487e-04
6.440000000000000000e+02 5.664924240112304688e+01 3.813660049438476562e+01 1.666642856434918940e-05 -2.859437927327235229e-06 4.142097168369218707e-06 7.895996532170102000e-07
6.450000000000000000e+02 8.280466079711914062e+00 3.070634841918945312e+00 3.061024472117424011e-02 -9.356493502855300903e-02 -1.888640783727169037e-02 8.971478044986724854e-02
6.460000000000000000e+02 7.571389675140380859e+00 3.117629289627075195e+00 8.363556116819381714e-03 -7.389897853136062622e-02 -1.966062746942043304e-02 8.627584576606750488e-02
6.470000000000000000e+02 5.472838878631591797e+00 3.300179004669189453e+00 -8.487391285598278046e-03 -3.375321626663208008e-02 -1.267218217253684998e-02 5.359371006488800049e-02
6.480000000000000000e+02 3.307569742202758789e+00 2.771779298782348633e+00 -1.270151138305664062e-02 -1.647729054093360901e-02 -8.753640577197074890e-03 2.895896695554256439e-02
6.490000000000000000e+02 4.738858222961425781e+00 2.615848302841186523e+00 -2.283851243555545807e-02 -1.924316398799419403e-02 -1.262450218200683594e-02 4.345991834998130798e-02
6.500000000000000000e+02 6.165029048919677734e+00 3.240962982177734375e+00 -7.239824626594781876e-03 -4.511415958404541016e-02 -1.570619642734527588e-02 6.516702473163604736e-02
6.510000000000000000e+02 9.764348983764648438e+00 2.386944293975830078e+00 4.931951686739921570e-02 -1.667912751436233521e-01 -3.524152934551239014e-02 1.449985951185226440e-01
6.520000000000000000e+02 9.726237297058105469e+00 3.009219646453857422e+00 1.237460523843765259e-01 -1.546137332916259766e-01 -9.260302409529685974e-03 8.089321106672286987e-02
6.530000000000000000e+02 6.864747047424316406e+00 3.176899194717407227e+00 -1.629072474315762520e-03 -5.309269204735755920e-02 -1.641652919352054596e-02 7.200350612401962280e-02
6.540000000000000000e+02 4.785229206085205078e+00 3.361915349960327148e+00 -8.649822324514389038e-03 -3.150800988078117371e-02 -1.204734947532415390e-02 4.810490831732749939e-02
6.550000000000000000e+02 4.024532318115234375e+00 2.682207822799682617e+00 -1.748012006282806396e-02 -2.020015940070152283e-02 -1.130408328026533127e-02 3.763181343674659729e-02
6.560000000000000000e+02 1.915671825408935547e+00 2.933828830718994141e+00 -6.371075753122568130e-03 -1.537798251956701279e-02 -6.524717435240745544e-03 1.806902140378952026e-02
6.570000000000000000e+02 1.054976940155029297e+01 2.338330268859863281e+00 1.517801880836486816e-01 -2.121494412422180176e-01 -1.811077445745468140e-02 1.243379712104797363e-01
6.580000000000000000e+02 8.957157135009765625e+00 3.666208982467651367e+00 1.024607047438621521e-01 -1.128941178321838379e-01 -3.130023600533604622e-03 5.394751578569412231e-02
6.590000000000000000e+02 1.132855129241943359e+01 2.182746648788452148e+00 2.679997384548187256e-01 -2.464178055524826050e-01 6.474581547081470490e-03 1.084857285022735596e-01
6.600000000000000000e+02 1.373837566375732422e+01 4.897320270538330078e+00 1.657071523368358612e-02 3.534246683120727539e-01 1.109986156225204468e-01 3.132161498069763184e-02
6.610000000000000000e+02 1.268652343750000000e+01 2.086367845535278320e+00 8.085209131240844727e-01 -1.360366046428680420e-01 2.017452865839004517e-01 -2.140028774738311768e-01
6.620000000000000000e+02 4.425928497314453125e+01 3.531279373168945312e+01 -8.552024519303813577e-05 5.340408533811569214e-04 1.345561904599890113e-04 2.358109049964696169e-04
6.630000000000000000e+02 4.507735061645507812e+01 3.557788848876953125e+01 -1.590026222402229905e-04 2.465581346768885851e-04 2.626665445859543979e-05 2.396414129179902375e-05
6.640000000000000000e+02 7.570101165771484375e+01 3.650401306152343750e+01 -3.783112845212599495e-07 1.145707983596366830e-06 2.302190011960192351e-07 -3.212602734947722638e-07
6.650000000000000000e+02 1.047994995117187500e+01 2.997506618499755859e+00 2.123498022556304932e-01 -1.695308387279510498e-01 1.284568943083286285e-02 3.994574025273323059e-02
6.660000000000000000e+02 7.795851135253906250e+01 3.858514785766601562e+01 2.411100865629123291e-07 1.269883540544469724e-07 1.104295392906351481e-07 3.218885353817313444e-07
6.670000000000000000e+02 6.382448196411132812e+01 3.909509658813476562e+01 -4.313514182285871357e-06 5.541380687645869330e-06 3.683599629766831640e-07 4.668293968279613182e-06
6.680000000000000000e+02 6.843433380126953125e+01 3.975285339355468750e+01 1.358715962851420045e-06 9.890108003673958592e-07 7.043180403343285434e-07 7.069133545201111701e-08
6.690000000000000000e+02 4.781120717525482178e-01 3.536221742630004883e+00 -1.641324721276760101e-03 -2.036526240408420563e-02 -6.601975765079259872e-03 5.843176972121000290e-03
6.700000000000000000e+02 1.749378919601440430e+00 3.570732879638671875e+01 2.338023114134557545e-05 5.547108594328165054e-03 1.671146717853844166e-03 -1.208417932502925396e-03
6.710000000000000000e+02 7.073743820190429688e+00 3.746921920776367188e+01 -2.108767861500382423e-03 9.444679133594036102e-03 2.200773451477289200e-03 -2.168711042031645775e-03
6.720000000000000000e+02 5.917544364929199219e+00 3.491373062133789062e+01 -1.755097648128867149e-03 8.024008944630622864e-03 1.880673458799719810e-03 -3.185037523508071899e-03
6.730000000000000000e+02 2.766717910766601562e+00 3.577267456054687500e+01 -3.956839209422469139e-04 6.049375049769878387e-03 1.696107443422079086e-03 -1.695007435046136379e-03
6.740000000000000000e+02 3.195129156112670898e+00 3.010924148559570312e+01 -9.777352679520845413e-04 2.169425366446375847e-03 3.575070004444569349e-04 -3.956868778914213181e-03
6.750000000000000000e+02 1.806276559829711914e+00 2.741359519958496094e+01 -1.272123190574347973e-04 -3.161170054227113724e-03 -9.865147294476628304e-04 -3.324397606775164604e-03
6.760000000000000000e+02 4.906030178070068359e+00 2.270746231079101562e+01 -2.613353542983531952e-03 -1.250393339432775974e-03 -1.159124076366424561e-03 -1.095280330628156662e-02
6.770000000000000000e+02 5.874319076538085938e+00 2.967258834838867188e+01 -2.577841049060225487e-03 6.070790812373161316e-03 1.047884928993880749e-03 -6.191424559801816940e-03
6.780000000000000000e+02 3.077124595642089844e+00 3.448190689086914062e+01 -4.854300059378147125e-04 5.434411112219095230e-03 1.484694308601319790e-03 -2.277365885674953461e-03
6.790000000000000000e+02 3.241618394851684570e+00 3.158157539367675781e+01 -6.718401564285159111e-04 3.655628766864538193e-03 8.951366180554032326e-04 -3.369148122146725655e-03
6.800000000000000000e+02 2.780891418457031250e+00 2.303406333923339844e+01 -7.680744747631251812e-04 -8.935217745602130890e-03 -2.910987706854939461e-03 -7.487663533538579941e-03
6.810000000000000000e+02 1.641170263290405273e+00 1.625322723388671875e+01 3.231338632758706808e-04 -3.569030016660690308e-02 -1.061015017330646515e-02 -7.882545702159404755e-03
6.820000000000000000e+02 3.877351760864257812e+00 1.749111175537109375e+01 -1.817388110794126987e-03 -1.486190501600503922e-02 -5.003788042813539505e-03 -1.400056015700101852e-02
6.830000000000000000e+02 3.782496690750122070e+00 9.514703750610351562e+00 1.283823419362306595e-02 -3.682180866599082947e-02 -7.195072714239358902e-03 -9.356272639706730843e-04
6.840000000000000000e+02 1.635280013084411621e+00 9.353040695190429688e+00 3.026247024536132812e-03 -5.462027341127395630e-02 -1.547820772975683212e-02 1.722723012790083885e-03
6.850000000000000000e+02 1.814988732337951660e+00 6.521804809570312500e+00 4.617147613316774368e-03 -4.510590061545372009e-02 -1.214662659913301468e-02 1.507417019456624985e-02
6.860000000000000000e+02 2.692839145660400391e+00 1.074993228912353516e+01 5.218607839196920395e-03 -4.293319210410118103e-02 -1.131437439471483231e-02 -4.279382061213254929e-03
6.870000000000000000e+02 1.631499886512756348e+00 1.486506938934326172e+01 -3.280361997894942760e-04 -4.133913293480873108e-02 -1.250015106052160263e-02 -7.710418198257684708e-03
6.880000000000000000e+02 2.749639511108398438e+00 1.618957328796386719e+01 -7.757647545076906681e-04 -2.691757120192050934e-02 -8.308000862598419189e-03 -1.164305116981267929e-02
6.890000000000000000e+02 2.788716077804565430e+00 8.136014938354492188e+00 9.849104098975658417e-03 -4.473751783370971680e-02 -1.046652439981698990e-02 8.246872574090957642e-03
6.900000000000000000e+02 2.712085485458374023e+00 9.434614181518554688e+00 8.032676763832569122e-03 -4.481106996536254883e-02 -1.103351823985576630e-02 5.786367109976708889e-04
6.910000000000000000e+02 1.644328236579895020e+00 2.041380310058593750e+01 -9.286650456488132477e-04 -2.043671160936355591e-02 -6.409612949937582016e-03 -6.163050420582294464e-03
6.920000000000000000e+02 2.751235246658325195e+00 2.166257095336914062e+01 -1.514904783107340336e-03 -1.202785596251487732e-02 -4.062828142195940018e-03 -8.461838588118553162e-03
6.930000000000000000e+02 2.696149110794067383e+00 1.208947086334228516e+01 3.912539687007665634e-03 -3.965542092919349670e-02 -1.072286441922187805e-02 -8.669424802064895630e-03
6.940000000000000000e+02 2.710222005844116211e+00 1.344736862182617188e+01 1.349631114862859249e-03 -3.562234342098236084e-02 -1.028181333094835281e-02 -1.054422929883003235e-02
6.950000000000000000e+02 2.756500720977783203e+00 1.756311798095703125e+01 -4.668809124268591404e-04 -2.273466065526008606e-02 -6.960462313145399094e-03 -1.128333155065774918e-02
6.960000000000000000e+02 3.867385387420654297e+00 1.612384796142578125e+01 -3.244513063691556454e-04 -1.786194927990436554e-02 -5.455920472741127014e-03 -1.480899285525083542e-02
6.970000000000000000e+02 5.804258346557617188e+01 3.875271606445312500e+01 3.095148599641106557e-07 -2.435141865930745553e-08 8.554903274671232793e-08 1.831033955568273086e-07
6.980000000000000000e+02 5.720419692993164062e+01 3.721455383300781250e+01 1.055560096574481577e-05 -1.839663212876985199e-07 3.111490514129400253e-06 -2.441548531351145357e-06
6.990000000000000000e+02 6.245456695556640625e+01 3.733456420898437500e+01 4.559385160973761231e-06 -1.090028263206477277e-06 1.040806978380715009e-06 1.520010300737340003e-06
7.000000000000000000e+02 6.142377090454101562e+01 3.814537048339843750e+01 2.436675231365370564e-06 6.464165380748454481e-07 9.249275194633810315e-07 7.294776764865673613e-07
7.010000000000000000e+02 6.006338119506835938e+01 3.746527862548828125e+01 6.935365036042639986e-06 -6.461135626523173414e-07 1.886775407911045477e-06 2.305689577042357996e-06
7.020000000000000000e+02 7.018334197998046875e+01 3.808633041381835938e+01 -1.144973325040155032e-07 9.183335691886895802e-07 2.411508717159449589e-07 -1.907621793861835613e-07
7.030000000000000000e+02 7.109847259521484375e+01 3.949271774291992188e+01 2.984669436045805924e-07 -8.322596158905071206e-07 -1.601378016857779585e-07 8.525591397301468533e-07
7.040000000000000000e+02 7.206231689453125000e+01 4.142608642578125000e+01 -5.074105615676671732e-07 3.522978317960223649e-07 -4.653382390529259283e-08 5.496958692674525082e-07
7.050000000000000000e+02 7.396234893798828125e+01 3.769623565673828125e+01 -1.198020100900976104e-07 3.872101501656288747e-07 8.022244202265937929e-08 6.880770797579316422e-07
7.060000000000000000e+02 1.552884006500244141e+01 6.414653301239013672e+00 4.457372054457664490e-02 1.110645830631256104e-01 4.669148847460746765e-02 6.284201890230178833e-02
7.070000000000000000e+02 1.495645999908447266e+01 6.427080154418945312e+00 3.346008434891700745e-02 1.419035047292709351e-01 5.260907486081123352e-02 6.021194159984588623e-02
7.080000000000000000e+02 1.425389194488525391e+01 5.543729782104492188e+00 2.097084745764732361e-02 2.315308153629302979e-01 7.575049996376037598e-02 6.580845266580581665e-02
7.090000000000000000e+02 1.416676616668701172e+01 5.159695148468017578e+00 2.831101417541503906e-02 2.669208347797393799e-01 8.856955170631408691e-02 7.400951534509658813e-02
7.100000000000000000e+02 3.138053321838378906e+01 2.311291122436523438e+01 5.319681484252214432e-03 9.858591482043266296e-03 4.553481936454772949e-03 7.889024913311004639e-03
7.110000000000000000e+02 1.921426010131835938e+01 1.037051200866699219e+01 2.565117739140987396e-02 4.115352407097816467e-02 2.004140987992286682e-02 3.304385766386985779e-02
7.120000000000000000e+02 3.168443298339843750e+01 2.271120071411132812e+01 5.742089357227087021e-03 9.026545099914073944e-03 4.430590197443962097e-03 7.825003005564212799e-03
7.130000000000000000e+02 1.857975769042968750e+01 9.443937301635742188e+00 2.973399125039577484e-02 4.625517502427101135e-02 2.279675006866455078e-02 3.672193735837936401e-02
7.140000000000000000e+02 2.612961578369140625e+01 1.703433227539062500e+01 1.334933284670114517e-02 1.720991171896457672e-02 9.167773649096488953e-03 1.502027176320552826e-02
7.150000000000000000e+02 1.627811431884765625e+01 7.938860416412353516e+00 2.901762910187244415e-02 8.114661276340484619e-02 3.304927051067352295e-02 4.920070618391036987e-02
7.160000000000000000e+02 3.613328552246093750e+01 2.763281059265136719e+01 3.326529869809746742e-03 6.230776198208332062e-03 2.867191797122359276e-03 4.471645224839448929e-03
7.170000000000000000e+02 2.110764122009277344e+01 1.279438304901123047e+01 1.933078654110431671e-02 3.214196860790252686e-02 1.544182654470205307e-02 2.492409199476242065e-02
7.180000000000000000e+02 2.383135414123535156e+01 1.463016605377197266e+01 1.748438738286495209e-02 2.251256257295608521e-02 1.199908461421728134e-02 1.951698586344718933e-02
7.190000000000000000e+02 1.804673004150390625e+01 8.921429634094238281e+00 3.283436596393585205e-02 5.061727017164230347e-02 2.503549121320247650e-02 3.960956633090972900e-02
7.200000000000000000e+02 3.414560699462890625e+01 2.573426818847656250e+01 3.991315141320228577e-03 7.857645861804485321e-03 3.554688300937414169e-03 5.683898925781250000e-03
7.210000000000000000e+02 2.134324645996093750e+01 1.309057426452636719e+01 1.853487268090248108e-02 3.085739165544509888e-02 1.481767930090427399e-02 2.433392778038978577e-02
7.220000000000000000e+02 3.196943473815917969e+01 2.296312141418457031e+01 5.667992867529392242e-03 8.786918595433235168e-03 4.336473532021045685e-03 7.525485008955001831e-03
7.230000000000000000e+02 3.274357604980468750e+01 2.424078559875488281e+01 4.667225759476423264e-03 8.791979402303695679e-03 4.037761595100164413e-03 6.662846542894840240e-03
7.240000000000000000e+02 3.289498519897460938e+01 2.447556877136230469e+01 4.533470608294010162e-03 8.684300817549228668e-03 3.965331241488456726e-03 6.498156581073999405e-03
7.250000000000000000e+02 3.814852905273437500e+01 2.958115577697753906e+01 2.335542114451527596e-03 4.144308622926473618e-03 1.943955314345657825e-03 3.194308374077081680e-03
7.260000000000000000e+02 3.730393218994140625e+01 2.922214889526367188e+01 2.360622864216566086e-03 5.309852305799722672e-03 2.301142551004886627e-03 3.597194096073508263e-03
7.270000000000000000e+02 2.021838188171386719e+01 1.164793872833251953e+01 2.189925126731395721e-02 3.517207130789756775e-02 1.712139695882797241e-02 2.820308506488800049e-02
7.280000000000000000e+02 2.975936126708984375e+01 2.070125007629394531e+01 8.339527063071727753e-03 1.125194970518350601e-02 5.877443123608827591e-03 9.747315198183059692e-03
7.290000000000000000e+02 2.894386100769042969e+01 2.047435760498046875e+01 8.151755668222904205e-03 1.267557032406330109e-02 6.248197518289089203e-03 1.050176657736301422e-02
7.300000000000000000e+02 2.866623687744140625e+01 2.018644905090332031e+01 8.530028164386749268e-03 1.312159374356269836e-02 6.495486479252576828e-03 1.081275753676891327e-02
7.310000000000000000e+02 4.296918106079101562e+01 3.492107009887695312e+01 8.957702812040224671e-05 1.326116500422358513e-03 4.247080360073596239e-04 7.455843151547014713e-04
7.320000000000000000e+02 2.949670982360839844e+01 2.104477119445800781e+01 7.535027805715799332e-03 1.192226540297269821e-02 5.837188102304935455e-03 9.749797172844409943e-03
7.330000000000000000e+02 2.782926559448242188e+01 1.933265495300292969e+01 9.471474215388298035e-03 1.447940152138471603e-02 7.185262627899646759e-03 1.202126592397689819e-02
7.340000000000000000e+02 2.864053153991699219e+01 1.957910919189453125e+01 9.650931693613529205e-03 1.275692973285913467e-02 6.722358521074056625e-03 1.122661493718624115e-02
7.350000000000000000e+02 1.778095436096191406e+01 9.185556411743164062e+00 2.986905910074710846e-02 5.523799359798431396e-02 2.553211525082588196e-02 3.835214674472808838e-02
7.360000000000000000e+02 2.218332481384277344e+01 1.334702968597412109e+01 1.984814181923866272e-02 2.789913490414619446e-02 1.432418264448642731e-02 2.294440381228923798e-02
7.370000000000000000e+02 2.159661102294921875e+01 1.338224887847900391e+01 1.841078884899616241e-02 3.025406971573829651e-02 1.459945738315582275e-02 2.332472056150436401e-02
7.380000000000000000e+02 1.832076072692871094e+01 9.181224822998046875e+00 3.230610489845275879e-02 4.920822754502296448e-02 2.445429936051368713e-02 3.737688437104225159e-02
7.390000000000000000e+02 2.753947257995605469e+01 1.904463958740234375e+01 9.955081157386302948e-03 1.507321745157241821e-02 7.508489768952131271e-03 1.235368568450212479e-02
7.400000000000000000e+02 2.639522743225097656e+01 1.731215476989746094e+01 1.302694994956254959e-02 1.701636426150798798e-02 9.012994356453418732e-03 1.452703494578599930e-02
7.410000000000000000e+02 2.566002082824707031e+01 1.707102394104003906e+01 1.278018299490213394e-02 1.815691776573657990e-02 9.281130507588386536e-03 1.528691127896308899e-02
7.420000000000000000e+02 2.839070129394531250e+01 1.990469741821289062e+01 8.783521130681037903e-03 1.350358873605728149e-02 6.686132866889238358e-03 1.125670131295919418e-02
7.430000000000000000e+02 4.008499526977539062e+01 3.128306007385253906e+01 1.446799142286181450e-03 2.460789633914828300e-03 1.172276563011109829e-03 1.905707526020705700e-03
7.440000000000000000e+02 3.978066253662109375e+01 3.101081848144531250e+01 1.589462510310113430e-03 2.725240308791399002e-03 1.294410903938114643e-03 2.102198079228401184e-03
7.450000000000000000e+02 3.916791152954101562e+01 3.104749679565429688e+01 1.443250337615609169e-03 3.543623955920338631e-03 1.496062264777719975e-03 2.406824380159378052e-03
7.460000000000000000e+02 3.751174545288085938e+01 2.954407691955566406e+01 2.112291986122727394e-03 5.069109145551919937e-03 2.154420362785458565e-03 3.391383215785026550e-03
7.470000000000000000e+02 4.163245010375976562e+01 3.242141342163085938e+01 8.308183168992400169e-04 1.331298146396875381e-03 6.486349739134311676e-04 1.089815632440149784e-03
7.480000000000000000e+02 3.636062622070312500e+01 2.793317794799804688e+01 3.187619848176836967e-03 6.095090880990028381e-03 2.784813288599252701e-03 4.273240454494953156e-03
7.490000000000000000e+02 3.582146072387695312e+01 2.787689971923828125e+01 3.019867697730660439e-03 6.592255085706710815e-03 2.883636858314275742e-03 4.474749788641929626e-03
7.500000000000000000e+02 4.370928192138671875e+01 3.572174835205078125e+01 -4.359881859272718430e-05 1.175140030682086945e-03 3.394623636268079281e-04 5.096804816275835037e-04
7.510000000000000000e+02 2.688710403442382812e+01 1.728560066223144531e+01 1.370042469352483749e-02 1.598482020199298859e-02 8.905573748052120209e-03 1.442558225244283676e-02
7.520000000000000000e+02 3.775156021118164062e+01 2.988207244873046875e+01 1.948762452229857445e-03 4.889393690973520279e-03 2.051446819677948952e-03 3.257903736084699631e-03
7.530000000000000000e+02 3.819319152832031250e+01 3.000620460510253906e+01 2.026276430115103722e-03 4.300097934901714325e-03 1.897912239655852318e-03 3.059702692553400993e-03
7.540000000000000000e+02 4.009960937500000000e+01 3.196969985961914062e+01 1.054604072123765945e-03 2.791846171021461487e-03 1.153935096226632595e-03 1.840625889599323273e-03
7.550000000000000000e+02 4.186323165893554688e+01 3.268921279907226562e+01 7.123704417608678341e-04 1.251633279025554657e-03 5.892011104151606560e-04 1.003720564767718315e-03
7.560000000000000000e+02 2.557506561279296875e+01 1.651245117187500000e+01 1.385547593235969543e-02 1.790428906679153442e-02 9.527929127216339111e-03 1.596516929566860199e-02
7.570000000000000000e+02 4.090880584716796875e+01 3.236534500122070312e+01 8.708246750757098198e-04 2.033366356045007706e-03 8.712572744116187096e-04 1.449616160243749619e-03
7.580000000000000000e+02 3.370290374755859375e+01 2.559656524658203125e+01 3.966644871979951859e-03 8.274468593299388885e-03 3.672334132716059685e-03 5.853937007486820221e-03
7.590000000000000000e+02 4.207816314697265625e+01 3.298252868652343750e+01 5.721598863601684570e-04 1.208857167512178421e-03 5.343051161617040634e-04 9.073174442164599895e-04
7.600000000000000000e+02 4.255187225341796875e+01 3.380778884887695312e+01 3.104772767983376980e-04 1.165812602266669273e-03 4.428869578987360001e-04 7.858671597205102444e-04
7.610000000000000000e+02 3.741683578491210938e+01 2.862540245056152344e+01 3.003027755767107010e-03 4.961829166859388351e-03 2.389457076787948608e-03 3.791921073570847511e-03
7.620000000000000000e+02 2.666238594055175781e+01 1.759441947937011719e+01 1.256821863353252411e-02 1.642379537224769592e-02 8.697603829205036163e-03 1.417076401412487030e-02
7.630000000000000000e+02 4.129138946533203125e+01 3.249927139282226562e+01 8.014864288270473480e-04 1.704861409962177277e-03 7.519043283537030220e-04 1.271834596991539001e-03
7.640000000000000000e+02 2.245319175720214844e+01 1.363063907623291016e+01 1.906143687665462494e-02 2.696338295936584473e-02 1.380744576454162598e-02 2.236928790807723999e-02
7.650000000000000000e+02 2.724876594543457031e+01 1.876019287109375000e+01 1.023024972528219223e-02 1.560080703347921371e-02 7.749316748231649399e-03 1.280828937888145447e-02
7.660000000000000000e+02 2.498193931579589844e+01 1.697902870178222656e+01 1.221265830099582672e-02 2.005619928240776062e-02 9.680657647550106049e-03 1.597171835601329803e-02
7.670000000000000000e+02 2.089190483093261719e+01 1.252217864990234375e+01 1.963098533451557159e-02 3.244835510849952698e-02 1.562380138784646988e-02 2.566455490887165070e-02
7.680000000000000000e+02 4.258832550048828125e+01 3.339487075805664062e+01 4.181306576356291771e-04 9.412019862793385983e-04 4.077997873537242413e-04 6.940554012544453144e-04
7.690000000000000000e+02 4.121139144897460938e+01 3.290764617919921875e+01 6.797075038775801659e-04 1.985518727451562881e-03 7.995679043233394623e-04 1.328735845163464546e-03
7.700000000000000000e+02 2.696393394470214844e+01 1.847858047485351562e+01 1.074843853712081909e-02 1.622025668621063232e-02 8.090608753263950348e-03 1.313521992415189743e-02
7.710000000000000000e+02 4.245888900756835938e+01 3.462301635742187500e+01 1.632751809665933251e-04 1.574325375258922577e-03 5.212801625020802021e-04 9.108599042519927025e-04
7.720000000000000000e+02 4.211949157714843750e+01 3.339637756347656250e+01 4.766965575981885195e-04 1.324140466749668121e-03 5.402510869316756725e-04 9.194947197102010250e-04
7.730000000000000000e+02 2.357069015502929688e+01 1.425614452362060547e+01 1.880587451159954071e-02 2.327084727585315704e-02 1.262301672250032425e-02 2.063490822911262512e-02
7.740000000000000000e+02 3.221725463867187500e+01 2.380897331237792969e+01 4.994415678083896637e-03 9.003968909382820129e-03 4.199515562504529953e-03 7.061808370053768158e-03
7.750000000000000000e+02 3.003853416442871094e+01 2.155475807189941406e+01 6.873100530356168747e-03 1.132103055715560913e-02 5.458239465951919556e-03 9.119998663663864136e-03
7.760000000000000000e+02 3.081590461730957031e+01 2.245396423339843750e+01 5.821071099489927292e-03 1.050064060837030411e-02 4.896513652056455612e-03 8.409710600972175598e-03
7.770000000000000000e+02 3.709399032592773438e+01 2.959713363647460938e+01 1.948565710335969925e-03 5.669362843036651611e-03 2.285378519445657730e-03 3.476613899692893028e-03
7.780000000000000000e+02 2.186624908447265625e+01 1.366213226318359375e+01 1.767192222177982330e-02 2.909262664616107941e-02 1.402936503291130066e-02 2.270178869366645813e-02
7.790000000000000000e+02 2.323966217041015625e+01 1.453141307830810547e+01 1.713550277054309845e-02 2.476444095373153687e-02 1.256998348981142044e-02 1.994588039815425873e-02
7.800000000000000000e+02 2.272355651855468750e+01 1.391912269592285156e+01 1.880653202533721924e-02 2.639892324805259705e-02 1.356163714081048965e-02 2.136164344847202301e-02
7.810000000000000000e+02 3.659189224243164062e+01 2.824081802368164062e+01 3.022188553586602211e-03 5.925584584474563599e-03 2.684331964701414108e-03 4.106550477445125580e-03
7.820000000000000000e+02 3.029573059082031250e+01 2.184218025207519531e+01 6.525015458464622498e-03 1.106514967978000641e-02 5.277049262076616287e-03 8.799697272479534149e-03
7.830000000000000000e+02 2.063051605224609375e+01 1.235092258453369141e+01 1.984414085745811462e-02 3.441632911562919617e-02 1.627814210951328278e-02 2.598256431519985199e-02
7.840000000000000000e+02 3.394753646850585938e+01 2.614454841613769531e+01 3.557511605322360992e-03 8.252616040408611298e-03 3.543038386851549149e-03 5.588077940046787262e-03
7.850000000000000000e+02 3.453658676147460938e+01 2.651642227172851562e+01 3.496190765872597694e-03 7.690844591706991196e-03 3.356110537424683571e-03 5.343534052371978760e-03
7.860000000000000000e+02 3.426869964599609375e+01 2.631294441223144531e+01 3.528917208313941956e-03 7.893448695540428162e-03 3.426709678024053574e-03 5.459567066282033920e-03
7.870000000000000000e+02 3.704558563232421875e+01 2.890941047668457031e+01 2.547421958297491074e-03 5.527073051780462265e-03 2.422348596155643463e-03 3.746706061065196991e-03
7.880000000000000000e+02 1.900005340576171875e+01 1.004772663116455078e+01 2.587164007127285004e-02 4.267454147338867188e-02 2.056385390460491180e-02 3.476386889815330505e-02
7.890000000000000000e+02 1.660641860961914062e+01 8.191682815551757812e+00 3.027539700269699097e-02 7.389672100543975830e-02 3.125163540244102478e-02 4.601514339447021484e-02
7.900000000000000000e+02 1.524735355377197266e+01 6.715770721435546875e+00 3.265839070081710815e-02 1.216635853052139282e-01 4.629659280180931091e-02 5.922133103013038635e-02
7.910000000000000000e+02 1.863517951965332031e+01 1.016830921173095703e+01 2.509962581098079681e-02 4.629654809832572937e-02 2.141885273158550262e-02 3.427906706929206848e-02
7.920000000000000000e+02 1.830892944335937500e+01 9.663862228393554688e+00 2.788165956735610962e-02 4.988760128617286682e-02 2.333077788352966309e-02 3.588422760367393494e-02
7.930000000000000000e+02 1.600412940979003906e+01 7.628762722015380859e+00 3.064185939729213715e-02 9.091939777135848999e-02 3.646837919950485229e-02 4.945284128189086914e-02
7.940000000000000000e+02 1.551914882659912109e+01 6.998275279998779297e+00 3.411417081952095032e-02 1.100876927375793457e-01 4.326055943965911865e-02 5.499186366796493530e-02
7.950000000000000000e+02 1.461298084259033203e+01 6.204976558685302734e+00 2.634558267891407013e-02 1.671758592128753662e-01 5.805642902851104736e-02 5.944504216313362122e-02
7.960000000000000000e+02 1.328359699249267578e+01 3.420454978942871094e+00 1.606908738613128662e-01 6.964328289031982422e-01 2.571370899677276611e-01 -2.236519306898117065e-01
7.970000000000000000e+02 1.352677059173583984e+01 4.408847332000732422e+00 2.798244170844554901e-02 4.531692266464233398e-01 1.443455070257186890e-01 -1.628522574901580811e-02
7.980000000000000000e+02 1.280299854278564453e+01 4.342423915863037109e+00 9.409002959728240967e-02 3.490564823150634766e-01 1.329439580440521240e-01 -1.460138112306594849e-01
7.990000000000000000e+02 1.237985706329345703e+01 3.050589799880981445e+00 3.970087766647338867e-01 2.005803883075714111e-01 1.792767494916915894e-01 -2.849368751049041748e-01
8.000000000000000000e+02 4.590253448486328125e+01 3.551143646240234375e+01 -3.304987039882689714e-04 -1.274020469281822443e-04 -1.373702252749353647e-04 -1.909152197185903788e-04
8.010000000000000000e+02 4.415657806396484375e+01 3.689938735961914062e+01 -3.867024497594684362e-05 1.205650507472455502e-03 3.500940802041441202e-04 3.829896159004420042e-04
8.020000000000000000e+02 5.422003555297851562e+01 3.854974746704101562e+01 -4.310039730626158416e-05 1.147429429693147540e-05 -9.487831448495853692e-06 9.731792488310020417e-06
8.030000000000000000e+02 5.527651214599609375e+01 3.861005783081054688e+01 -6.993472197791561484e-06 -1.104726379708154127e-05 -5.412220616562990472e-06 -2.303383007529191673e-05
8.040000000000000000e+02 5.391352081298828125e+01 3.891261672973632812e+01 -1.206450178869999945e-05 -1.800347126845736057e-05 -9.020392099046148360e-06 1.953969695023261011e-05
8.050000000000000000e+02 7.609321594238281250e+00 4.395029544830322266e+00 6.122703477740287781e-02 -7.506586611270904541e-02 -4.151650238782167435e-03 4.615049064159393311e-02
8.060000000000000000e+02 7.581114768981933594e+00 3.765984773635864258e+00 4.226614162325859070e-02 -7.545800507068634033e-02 -9.957558475434780121e-03 6.351608037948608398e-02
8.070000000000000000e+02 5.502094745635986328e+00 4.054988861083984375e+00 9.417400695383548737e-03 -4.416050389409065247e-02 -1.042293105274438858e-02 5.119377374649047852e-02
8.080000000000000000e+02 3.828151464462280273e+00 8.341936111450195312e+00 1.691289804875850677e-02 -3.949723392724990845e-02 -6.775300484150648117e-03 5.335344001650810242e-03
8.090000000000000000e+02 4.093198776245117188e+00 4.893204689025878906e+00 1.038531772792339325e-02 -3.869180381298065186e-02 -8.491945452988147736e-03 3.446211293339729309e-02
8.100000000000000000e+02 4.816369056701660156e+00 4.910747528076171875e+00 1.438679639250040054e-02 -4.169299826025962830e-02 -8.191861212253570557e-03 3.845037892460823059e-02
8.110000000000000000e+02 3.391698360443115234e+00 3.605750322341918945e+00 -4.783599637448787689e-03 -2.727944776415824890e-02 -9.618913754820823669e-03 3.391413763165473938e-02
8.120000000000000000e+02 1.795077085494995117e+00 5.015809535980224609e+00 1.601056661456823349e-03 -3.481892496347427368e-02 -9.965360164642333984e-03 1.846618205308914185e-02
8.130000000000000000e+02 5.203019332885742188e+01 4.168236541748046875e+01 8.245445496868342161e-05 -1.342280884273350239e-04 -1.553209040139336139e-05 -3.267120700911618769e-05
8.140000000000000000e+02 1.113273334503173828e+01 3.114831209182739258e+00 2.995266318321228027e-01 -1.422341763973236084e-01 4.718773812055587769e-02 -4.959307610988616943e-02
8.150000000000000000e+02 1.151020526885986328e+01 2.660780429840087891e+00 3.756965994834899902e-01 -1.643472313880920410e-01 6.340480595827102661e-02 -3.251131996512413025e-02
8.160000000000000000e+02 4.911075592041015625e+01 3.907391738891601562e+01 -1.432165754522429779e-05 2.392879468970932066e-05 2.882140961446566507e-06 -2.377392374910414219e-04
8.170000000000000000e+02 1.035272598266601562e+01 3.677190780639648438e+00 2.070082277059555054e-01 -1.060774028301239014e-01 3.027924895286560059e-02 -3.144533932209014893e-02
8.180000000000000000e+02 1.335986995697021484e+01 5.296449184417724609e+00 2.088738232851028442e-02 2.913637161254882812e-01 9.367533028125762939e-02 -2.868858352303504944e-02
8.190000000000000000e+02 5.025228500366210938e+01 3.874274826049804688e+01 -1.632604544283822179e-04 -1.693941303528845310e-04 -9.979637252399697900e-05 -2.323937078472226858e-04
8.200000000000000000e+02 4.790163040161132812e+01 3.899637222290039062e+01 4.266112227924168110e-06 1.080344227375462651e-04 3.369016121723689139e-05 -1.857171082519926131e-05
8.210000000000000000e+02 4.573290634155273438e+01 3.823994445800781250e+01 -1.367349523206939921e-05 4.832767008338123560e-04 1.408809621352702379e-04 2.287564129801467061e-04
8.220000000000000000e+02 4.696477890014648438e+01 3.722882461547851562e+01 -3.555425209924578667e-04 3.911992826033383608e-05 -9.492677781963720918e-05 -5.891111868550069630e-05
8.230000000000000000e+02 5.030420684814453125e+01 3.925594711303710938e+01 -7.722896407358348370e-05 -2.006594004342332482e-04 -8.336651080753654242e-05 -1.813964918255805969e-04
8.240000000000000000e+02 4.975813674926757812e+01 3.995562744140625000e+01 1.312886015512049198e-04 -1.379605819238349795e-04 -2.001595930778421462e-06 -1.846566010499373078e-04
8.250000000000000000e+02 5.817979049682617188e+01 4.147584533691406250e+01 -1.220637204824015498e-05 -1.962692294910084456e-05 -9.549988135404419154e-06 1.042168236153884209e-07
8.260000000000000000e+02 5.520004272460937500e+01 4.071840667724609375e+01 7.462523171852808446e-06 2.443565108478651382e-06 2.971826461362070404e-06 -1.881681600934825838e-05
8.270000000000000000e+02 4.625247192382812500e+01 3.712026977539062500e+01 -2.433946938253939152e-04 1.539875374874100089e-04 -2.682214835658669472e-05 4.884885493083857000e-05
8.280000000000000000e+02 6.179702758789062500e+01 3.968987274169921875e+01 -3.215620154151110910e-06 -7.115775133570423350e-06 -3.099418563579092734e-06 6.577584372280398384e-06
8.290000000000000000e+02 5.939433288574218750e+01 3.967008590698242188e+01 5.140940174896968529e-06 -2.236761702079093084e-06 8.712535191079950891e-07 -6.041556588343155454e-08
8.300000000000000000e+02 3.862804412841796875e+00 2.287004280090332031e+01 -2.283894689753651619e-03 -5.181409884244203568e-03 -2.239591442048549652e-03 -9.611295536160469055e-03
8.310000000000000000e+02 2.743162393569946289e+00 2.029910087585449219e+01 -7.639951072633266449e-04 -1.536493655294179916e-02 -4.838679451495409012e-03 -9.422454982995986938e-03
8.320000000000000000e+02 3.831926584243774414e+00 2.152888679504394531e+01 -1.686366973444819450e-03 -7.478605490177869797e-03 -2.749491715803742409e-03 -1.067345310002565384e-02
8.330000000000000000e+02 2.749854564666748047e+00 1.893376159667968750e+01 -1.477067009545862675e-03 -1.893999800086021423e-02 -6.125119514763355255e-03 -1.036124676465988159e-02
8.340000000000000000e+02 3.860713481903076172e+00 1.885153579711914062e+01 -1.567984931170940399e-03 -1.221605762839317322e-02 -4.135212861001491547e-03 -1.309951301664113998e-02
8.350000000000000000e+02 3.940788030624389648e+00 2.422803688049316406e+01 -1.600767369382083416e-03 -2.985689090564846992e-03 -1.375936903059482574e-03 -8.473752997815608978e-03
8.360000000000000000e+02 4.373328685760498047e+00 2.843676567077636719e+01 -1.819538301788270473e-03 2.531873760744929314e-03 2.137005940312519670e-04 -6.017797160893678665e-03
8.370000000000000000e+02 3.770267724990844727e+00 1.077066421508789062e+01 1.005111448466777802e-02 -3.329683095216751099e-02 -6.973715033382177353e-03 -7.754304911941289902e-03
8.380000000000000000e+02 2.730398893356323242e+00 1.481634140014648438e+01 8.395498734898865223e-04 -3.120128624141216278e-02 -9.108521044254302979e-03 -1.174846757203340530e-02
8.390000000000000000e+02 2.916432619094848633e+00 2.581505012512207031e+01 -7.334855035878717899e-04 -3.554539987817406654e-03 -1.286407699808478355e-03 -5.869579967111349106e-03
8.400000000000000000e+02 3.798976421356201172e+00 1.340806388854980469e+01 3.264230443164706230e-03 -2.515446953475475311e-02 -6.567072123289108276e-03 -1.391894370317459106e-02
8.410000000000000000e+02 4.623269557952880859e+00 3.146291542053222656e+01 -1.503753359429538250e-03 5.052218679338693619e-03 1.064539654180407524e-03 -4.394367802888154984e-03
8.420000000000000000e+02 4.410868167877197266e+00 3.467152786254882812e+01 -1.010457170195877552e-03 6.489795632660388947e-03 1.643801457248628139e-03 -2.722673118114471436e-03
8.430000000000000000e+02 3.216227531433105469e+00 3.305402374267578125e+01 -7.328249048441648483e-04 4.593350458890199661e-03 1.158157712779939175e-03 -2.704378915950655937e-03
8.440000000000000000e+02 4.520940303802490234e+00 2.992169952392578125e+01 -1.440580235794186592e-03 4.090029746294021606e-03 7.948348647914826870e-04 -5.129383411258459091e-03
8.450000000000000000e+02 3.560001134872436523e+00 5.705678939819335938e+00 1.190742198377847672e-02 -3.849816322326660156e-02 -7.977223023772239685e-03 2.658304944634437561e-02
8.460000000000000000e+02 6.500064373016357422e+00 5.495056152343750000e+00 4.703547805547714233e-02 -5.184611305594444275e-02 -1.443190034478902817e-03 2.721071429550647736e-02
8.470000000000000000e+02 6.791374206542968750e+01 4.153967666625976562e+01 -2.169845856769825332e-06 -1.166264610219513997e-06 -1.000833094622066710e-06 3.789648417296120897e-08
8.480000000000000000e+02 7.496636199951171875e+01 3.707537460327148438e+01 -5.416050044004805386e-07 6.944733286218252033e-07 4.586049229260424909e-08 7.666785677429288626e-07
8.490000000000000000e+02 6.220009613037109375e+01 4.154522705078125000e+01 -5.056645022705197334e-06 3.381038368388544768e-06 -5.026819280828931369e-07 2.598344281068420969e-06
8.500000000000000000e+02 7.294306182861328125e+01 3.856069183349609375e+01 -7.014639891167462338e-07 -8.677494065523205791e-07 -4.707640073320362717e-07 1.113662733587261755e-06
8.510000000000000000e+02 1.435676288604736328e+01 5.939148902893066406e+00 2.364384382963180542e-02 1.964447200298309326e-01 6.602656841278076172e-02 5.737979337573051453e-02
8.520000000000000000e+02 3.108937072753906250e+01 2.277896308898925781e+01 5.491685587912797928e-03 1.018554903566837311e-02 4.703170154243707657e-03 8.183703757822513580e-03
8.530000000000000000e+02 1.691456413269042969e+01 8.440660476684570312e+00 3.030858375132083893e-02 6.581820547580718994e-02 2.883803658187389374e-02 4.520953074097633362e-02
8.540000000000000000e+02 3.471503448486328125e+01 2.719778442382812500e+01 3.023059340193867683e-03 7.655659690499305725e-03 3.203615779057145119e-03 5.075427703559398651e-03
8.550000000000000000e+02 2.922222137451171875e+01 2.076699256896972656e+01 7.869509048759937286e-03 1.233331486582756042e-02 6.060847081243991852e-03 1.006192620843648911e-02
8.560000000000000000e+02 3.055245780944824219e+01 2.214260292053222656e+01 6.135660223662853241e-03 1.076422818005084991e-02 5.069966427981853485e-03 8.618972264230251312e-03
8.570000000000000000e+02 2.411525344848632812e+01 1.627846908569335938e+01 1.258031558245420456e-02 2.236182801425457001e-02 1.048264279961585999e-02 1.744772493839263916e-02
8.580000000000000000e+02 1.720898628234863281e+01 8.689514160156250000e+00 3.081496432423591614e-02 6.242016702890396118e-02 2.797053940594196320e-02 4.214476048946380615e-02
8.590000000000000000e+02 3.286157226562500000e+01 2.510363769531250000e+01 4.032573197036981583e-03 9.005732834339141846e-03 3.911491949111223221e-03 6.414718460291624069e-03
8.600000000000000000e+02 1.852836990356445312e+01 9.895510673522949219e+00 2.590720541775226593e-02 4.718563333153724670e-02 2.192785218358039856e-02 3.529305011034011841e-02
8.610000000000000000e+02 2.449745368957519531e+01 1.629623603820800781e+01 1.322491560131311417e-02 2.074526622891426086e-02 1.019105501472949982e-02 1.727289147675037384e-02
8.620000000000000000e+02 3.248736572265625000e+01 2.404719543457031250e+01 4.885103087872266769e-03 8.914143778383731842e-03 4.139774013310670853e-03 6.860775873064994812e-03
8.630000000000000000e+02 1.470613002777099609e+01 6.770546436309814453e+00 2.127451822161674500e-02 1.477046757936477661e-01 5.069375783205032349e-02 4.943152144551277161e-02
8.640000000000000000e+02 2.077098274230957031e+01 1.304990863800048828e+01 1.716283336281776428e-02 3.371400386095046997e-02 1.526305079460144043e-02 2.457785233855247498e-02
8.650000000000000000e+02 2.007357406616210938e+01 1.109551143646240234e+01 2.461494505405426025e-02 3.450691327452659607e-02 1.773655787110328674e-02 2.958541363477706909e-02
8.660000000000000000e+02 1.949217796325683594e+01 1.134445571899414062e+01 2.178559824824333191e-02 3.894675895571708679e-02 1.821970753371715546e-02 3.007516637444496155e-02
8.670000000000000000e+02 3.603269958496093750e+01 2.818156814575195312e+01 2.849807729944586754e-03 6.512287072837352753e-03 2.808628370985388756e-03 4.302611108869314194e-03
8.680000000000000000e+02 1.805405998229980469e+01 9.427889823913574219e+00 2.826253324747085571e-02 5.149022489786148071e-02 2.392582781612873077e-02 3.733700513839721680e-02
8.690000000000000000e+02 1.749769973754882812e+01 8.938576698303222656e+00 3.001721017062664032e-02 5.721832066774368286e-02 2.617065981030464172e-02 4.077991470694541931e-02
8.700000000000000000e+02 2.380319023132324219e+01 1.551277637481689453e+01 1.423917617648839951e-02 2.319370582699775696e-02 1.122986432164907455e-02 1.846616901457309723e-02
8.710000000000000000e+02 2.508944702148437500e+01 1.663504791259765625e+01 1.307415310293436050e-02 1.923208124935626984e-02 9.691870771348476410e-03 1.631677150726318359e-02
8.720000000000000000e+02 3.802207183837890625e+01 3.057723808288574219e+01 1.516230637207627296e-03 4.748906940221786499e-03 1.879541319794952869e-03 2.975091803818941116e-03
8.730000000000000000e+02 2.868203735351562500e+01 2.079847908020019531e+01 7.455820217728614807e-03 1.347078476101160049e-02 6.277981214225292206e-03 1.039217319339513779e-02
8.740000000000000000e+02 1.577563571929931641e+01 7.292608737945556641e+00 3.068006969988346100e-02 9.928057342767715454e-02 3.898819163441658020e-02 5.428298562765121460e-02
8.750000000000000000e+02 2.977046775817871094e+01 2.129595565795898438e+01 7.304207887500524521e-03 1.165821123868227005e-02 5.688725505024194717e-03 9.397444315254688263e-03
8.760000000000000000e+02 2.895617103576660156e+01 2.110566902160644531e+01 7.056595757603645325e-03 1.305561512708663940e-02 6.033663172274827957e-03 1.005598250776529312e-02
8.770000000000000000e+02 1.381893920898437500e+01 5.688208103179931641e+00 1.277234125882387161e-02 2.509604692459106445e-01 7.911983877420425415e-02 2.405868656933307648e-02
8.780000000000000000e+02 1.376722431182861328e+01 5.261235237121582031e+00 8.086857385933399200e-03 3.105596601963043213e-01 9.559395909309387207e-02 2.231100574135780334e-02
8.790000000000000000e+02 3.321863555908203125e+01 2.555939102172851562e+01 3.811119589954614639e-03 8.744910359382629395e-03 3.766809124499559402e-03 6.097321398556232452e-03
8.800000000000000000e+02 2.840277481079101562e+01 2.051447296142578125e+01 7.722559385001659393e-03 1.382511481642723083e-02 6.464302074164152145e-03 1.082268543541431427e-02
8.810000000000000000e+02 3.668047714233398438e+01 2.946379089355468750e+01 1.899886759929358959e-03 6.145948078483343124e-03 2.413750393316149712e-03 3.645075252279639244e-03
8.820000000000000000e+02 2.786165237426757812e+01 1.994129180908203125e+01 8.288101293146610260e-03 1.472589280456304550e-02 6.904198322445154190e-03 1.150956004858016968e-02
8.830000000000000000e+02 2.811292839050292969e+01 1.962069702148437500e+01 9.208466857671737671e-03 1.399712730199098587e-02 6.961678154766559601e-03 1.155411545187234879e-02
8.840000000000000000e+02 2.758386421203613281e+01 1.964495658874511719e+01 8.738109841942787170e-03 1.525889616459608078e-02 7.199101615697145462e-03 1.181565225124359131e-02
8.850000000000000000e+02 2.813035202026367188e+01 2.023474311828613281e+01 8.072087541222572327e-03 1.427560299634933472e-02 6.704307161271572113e-03 1.106686983257532120e-02
8.860000000000000000e+02 2.729336547851562500e+01 1.935702323913574219e+01 8.960541337728500366e-03 1.578120142221450806e-02 7.422523107379674911e-03 1.227711979299783707e-02
8.870000000000000000e+02 3.197823905944824219e+01 2.353501129150390625e+01 5.131353624165058136e-03 9.153367020189762115e-03 4.285416100174188614e-03 7.252592127770185471e-03
8.880000000000000000e+02 2.642112350463867188e+01 1.852722740173339844e+01 1.014910731464624405e-02 1.748151704668998718e-02 8.289187215268611908e-03 1.332895271480083466e-02
8.890000000000000000e+02 2.922443580627441406e+01 2.142387771606445312e+01 6.748512387275695801e-03 1.273373793810606003e-02 5.844675004482269287e-03 9.651488624513149261e-03
8.900000000000000000e+02 3.990907669067382812e+01 3.248104858398437500e+01 7.832004921510815620e-04 3.166266251355409622e-03 1.184839988127350807e-03 1.884507597424089909e-03
8.910000000000000000e+02 3.223283767700195312e+01 2.443941688537597656e+01 4.336921032518148422e-03 9.467093273997306824e-03 4.141204059123992920e-03 6.901549641042947769e-03
8.920000000000000000e+02 2.001309585571289062e+01 1.205818367004394531e+01 1.945471204817295074e-02 3.750715777277946472e-02 1.708856038749217987e-02 2.701245248317718506e-02
8.930000000000000000e+02 2.033661842346191406e+01 1.219213294982910156e+01 1.969170197844505310e-02 3.493805602192878723e-02 1.638892851769924164e-02 2.669389545917510986e-02
8.940000000000000000e+02 2.214452552795410156e+01 1.393461799621582031e+01 1.758911646902561188e-02 2.843683399260044098e-02 1.380778476595878601e-02 2.169799990952014923e-02
8.950000000000000000e+02 4.165840530395507812e+01 3.300463104248046875e+01 6.040103617124259472e-04 1.619728282094001770e-03 6.671216106042265892e-04 1.140236039645969868e-03
8.960000000000000000e+02 4.009615707397460938e+01 3.294854736328125000e+01 6.176956230774521828e-04 3.164338413625955582e-03 1.134610269218683243e-03 1.811303198337554932e-03
8.970000000000000000e+02 2.668815422058105469e+01 1.819574928283691406e+01 1.106179039925336838e-02 1.664742641150951385e-02 8.312765508890151978e-03 1.355279888957738876e-02
8.980000000000000000e+02 2.693389320373535156e+01 1.787808990478515625e+01 1.218439638614654541e-02 1.604953780770301819e-02 8.470179513096809387e-03 1.371949631720781326e-02
8.990000000000000000e+02 2.298800277709960938e+01 1.421735763549804688e+01 1.776085980236530304e-02 2.545927464962005615e-02 1.296604052186012268e-02 2.087789401412010193e-02
9.000000000000000000e+02 2.346172523498535156e+01 1.488448238372802734e+01 1.568949967622756958e-02 2.402789331972599030e-02 1.191521808505058289e-02 1.947722956538200378e-02
9.010000000000000000e+02 4.160021591186523438e+01 3.344147872924804688e+01 4.923749365843832493e-04 1.898642745800316334e-03 7.173052872531116009e-04 1.176999765448272228e-03
9.020000000000000000e+02 2.616419982910156250e+01 1.762322235107421875e+01 1.197589654475450516e-02 1.747908443212509155e-02 8.836494758725166321e-03 1.436744816601276398e-02
9.030000000000000000e+02 2.466752052307128906e+01 1.702642250061035156e+01 1.167374197393655777e-02 2.083120867609977722e-02 9.751485660672187805e-03 1.607992127537727356e-02
9.040000000000000000e+02 4.260630416870117188e+01 3.421295928955078125e+01 2.067145105684176087e-04 1.302619115449488163e-03 4.528001009020954370e-04 7.932161097414791584e-04
9.050000000000000000e+02 2.951546859741210938e+01 2.164461898803710938e+01 6.482672411948442459e-03 1.231745444238185883e-02 5.640037823468446732e-03 9.410875849425792694e-03
9.060000000000000000e+02 4.056066131591796875e+01 3.323774337768554688e+01 5.532436189241707325e-04 2.764262259006500244e-03 9.952518157660961151e-04 1.599616487510502338e-03
9.070000000000000000e+02 1.963655662536621094e+01 1.193588161468505859e+01 1.911340653896331787e-02 3.888983651995658875e-02 1.740097254514694214e-02 2.822932787239551544e-02
9.080000000000000000e+02 4.210831069946289062e+01 3.386080932617187500e+01 3.321586409583687782e-04 1.558679505251348019e-03 5.672514089383184910e-04 9.598986362107098103e-04
9.090000000000000000e+02 2.124978828430175781e+01 1.371775341033935547e+01 1.607991382479667664e-02 3.162055835127830505e-02 1.431014109402894974e-02 2.290182746946811676e-02
9.100000000000000000e+02 1.887960243225097656e+01 1.064921092987060547e+01 2.262376993894577026e-02 4.405038803815841675e-02 2.000224776566028595e-02 3.306863084435462952e-02
9.110000000000000000e+02 2.591192245483398438e+01 1.734008407592773438e+01 1.244026795029640198e-02 1.800245232880115509e-02 9.132816456258296967e-03 1.476039551198482513e-02
9.120000000000000000e+02 3.435882186889648438e+01 2.681030082702636719e+01 3.136666724458336830e-03 7.988664321601390839e-03 3.337599337100982666e-03 5.280934274196624756e-03
9.130000000000000000e+02 3.407970428466796875e+01 2.664815330505371094e+01 3.186669200658798218e-03 8.249924518167972565e-03 3.430978162214159966e-03 5.391729529947042465e-03
9.140000000000000000e+02 2.241982078552246094e+01 1.420848941802978516e+01 1.667463220655918121e-02 2.746555395424365997e-02 1.324205566197633743e-02 2.120703458786010742e-02
9.150000000000000000e+02 2.003266716003417969e+01 1.244508171081542969e+01 1.840561814606189728e-02 3.725551068782806396e-02 1.669833809137344360e-02 2.637903951108455658e-02
9.160000000000000000e+02 3.647079849243164062e+01 2.878753852844238281e+01 2.465949393808841705e-03 6.162632256746292114e-03 2.588574541732668877e-03 3.901634598150849342e-03
9.170000000000000000e+02 3.170038986206054688e+01 2.333880424499511719e+01 5.167211871594190598e-03 9.516553021967411041e-03 4.405129700899124146e-03 7.617996539920568466e-03
9.180000000000000000e+02 2.999123954772949219e+01 2.213719177246093750e+01 6.006483919918537140e-03 1.170649100095033646e-02 5.313892383128404617e-03 8.933986537158489227e-03
9.190000000000000000e+02 3.023349571228027344e+01 2.244409751892089844e+01 5.670636426657438278e-03 1.150349155068397522e-02 5.152238532900810242e-03 8.703423663973808289e-03
9.200000000000000000e+02 2.184418296813964844e+01 1.425482940673828125e+01 1.531312614679336548e-02 2.961042523384094238e-02 1.347706560045480728e-02 2.145023830235004425e-02
9.210000000000000000e+02 2.315030288696289062e+01 1.508177947998046875e+01 1.472679432481527328e-02 2.561899647116661072e-02 1.210373733192682266e-02 1.931364461779594421e-02
9.220000000000000000e+02 2.292417144775390625e+01 1.478951644897460938e+01 1.522562280297279358e-02 2.598440647125244141e-02 1.236300915479660034e-02 1.992556266486644745e-02
9.230000000000000000e+02 3.625890350341796875e+01 2.848127174377441406e+01 2.643701620399951935e-03 6.385113578289747238e-03 2.708644606173038483e-03 4.078662488609552383e-03
9.240000000000000000e+02 1.908829498291015625e+01 1.090839290618896484e+01 2.252273820340633392e-02 4.220283031463623047e-02 1.941766962409019470e-02 3.126432001590728760e-02
9.250000000000000000e+02 3.356048583984375000e+01 2.604506683349609375e+01 3.510831389576196671e-03 8.556327782571315765e-03 3.620147937908768654e-03 5.770892370492219925e-03
9.260000000000000000e+02 3.666418457031250000e+01 2.910922241210937500e+01 2.234754618257284164e-03 6.055342499166727066e-03 2.487029181793332100e-03 3.739274339750409126e-03
9.270000000000000000e+02 1.853655433654785156e+01 1.050574684143066406e+01 2.262878790497779846e-02 4.785450547933578491e-02 2.114498801529407501e-02 3.320947289466857910e-02
9.280000000000000000e+02 1.833234977722167969e+01 1.009417629241943359e+01 2.432780526578426361e-02 5.027674138545989990e-02 2.238136343657970428e-02 3.465265035629272461e-02
9.290000000000000000e+02 1.441081809997558594e+01 6.541090011596679688e+00 1.915500685572624207e-02 1.689207404851913452e-01 5.642272159457206726e-02 4.307067021727561951e-02
9.300000000000000000e+02 1.549740695953369141e+01 7.529128551483154297e+00 2.720600366592407227e-02 1.064309254288673401e-01 4.009107872843742371e-02 4.829470440745353699e-02
9.310000000000000000e+02 1.524779129028320312e+01 7.292423248291015625e+00 2.457076869904994965e-02 1.166098415851593018e-01 4.235418513417243958e-02 5.040672793984413147e-02
9.320000000000000000e+02 1.295327854156494141e+01 3.877593040466308594e+00 1.517671793699264526e-01 4.169863760471343994e-01 1.706260591745376587e-01 -1.987967789173126221e-01
9.330000000000000000e+02 1.283397388458251953e+01 4.869114398956298828e+00 6.348063051700592041e-02 2.968605160713195801e-01 1.081023439764976501e-01 -1.086408272385597229e-01
9.340000000000000000e+02 7.638068675994873047e+00 4.981433391571044922e+00 7.239124178886413574e-02 -6.639446318149566650e-02 1.799034303985536098e-03 2.527895756065845490e-02
9.350000000000000000e+02 1.334869194030761719e+01 4.844466209411621094e+00 2.038038335740566254e-02 3.738163113594055176e-01 1.182590052485466003e-01 -4.947080463171005249e-02
9.360000000000000000e+02 1.096546554565429688e+01 3.678182840347290039e+00 2.429423928260803223e-01 -6.797892600297927856e-02 5.248903855681419373e-02 -8.271000534296035767e-02
9.370000000000000000e+02 1.287499427795410156e+01 3.185951709747314453e+00 3.082887530326843262e-01 4.844567775726318359e-01 2.378236502408981323e-01 -3.190820217132568359e-01
9.380000000000000000e+02 3.586462497711181641e+00 4.383742809295654297e+00 2.565683564171195030e-03 -3.069596923887729645e-02 -8.439085446298122406e-03 3.314531967043876648e-02
9.390000000000000000e+02 4.824996948242187500e+00 4.119565486907958984e+00 5.142604932188987732e-03 -3.599742427468299866e-02 -9.256445802748203278e-03 4.325515031814575195e-02
9.400000000000000000e+02 4.319998931884765625e+01 3.847696685791015625e+01 -5.338672417565248907e-05 2.039530314505100250e-03 5.958430701866745949e-04 5.592806846834719181e-04
9.410000000000000000e+02 6.887559413909912109e+00 3.864340305328369141e+00 2.503761090338230133e-02 -6.288204342126846313e-02 -1.135332882404327393e-02 6.280703097581863403e-02
9.420000000000000000e+02 6.240769863128662109e+00 4.767288208007812500e+00 3.306869417428970337e-02 -5.486532673239707947e-02 -6.538989953696727753e-03 4.369235038757324219e-02
9.430000000000000000e+02 6.953733921051025391e+00 4.535694599151611328e+00 4.622973874211311340e-02 -6.180351227521896362e-02 -4.672131966799497604e-03 4.366630688309669495e-02
9.440000000000000000e+02 9.652808189392089844e+00 3.652870893478393555e+00 1.503969132900238037e-01 -1.245263963937759399e-01 7.761157117784023285e-03 2.983009442687034607e-02
9.450000000000000000e+02 8.255275726318359375e+00 4.336757659912109375e+00 8.591108024120330811e-02 -8.509295433759689331e-02 2.454370551276952028e-04 3.644514828920364380e-02
9.460000000000000000e+02 4.408568954467773438e+01 3.495223617553710938e+01 -5.436994979390874505e-05 5.767294787801802158e-04 1.567078725202009082e-04 2.337535115657374263e-04
9.470000000000000000e+02 3.975943374633789062e+01 3.167464256286621094e+01 1.137516926974058151e-03 3.060563467442989349e-03 1.259424141608178616e-03 2.016897313296794891e-03
9.480000000000000000e+02 1.143845748901367188e+01 3.760419607162475586e+00 2.640107572078704834e-01 4.702906124293804169e-03 8.061409741640090942e-02 -1.545180231332778931e-01
9.490000000000000000e+02 1.231397438049316406e+01 4.224876403808593750e+00 1.590739041566848755e-01 2.312564849853515625e-01 1.170991137623786926e-01 -1.798473298549652100e-01
9.500000000000000000e+02 3.864448547363281250e+01 3.119134902954101562e+01 1.267276122234761715e-03 4.151340574026107788e-03 1.625585020519793034e-03 2.554108388721942902e-03
9.510000000000000000e+02 3.688986206054687500e+01 3.007751464843750000e+01 1.565866172313690186e-03 6.022267974913120270e-03 2.276440383866429329e-03 3.440978936851024628e-03
9.520000000000000000e+02 1.021082496643066406e+01 4.333322048187255859e+00 1.711027920246124268e-01 -5.825688689947128296e-02 3.385377302765846252e-02 -5.228902399539947510e-02
9.530000000000000000e+02 5.454352951049804688e+01 3.907607650756835938e+01 8.098922990029677749e-06 6.361898704199120402e-05 2.151537410099990666e-05 -1.593935303390026093e-05
9.540000000000000000e+02 1.155505657196044922e+01 4.396458148956298828e+00 1.791596114635467529e-01 8.279961347579956055e-02 7.858777046203613281e-02 -1.493580341339111328e-01
9.550000000000000000e+02 1.292959690093994141e+01 5.373359203338623047e+00 2.893825247883796692e-02 2.631660103797912598e-01 8.763127774000167847e-02 -6.021173298358917236e-02
9.560000000000000000e+02 8.904139518737792969e+00 4.307997226715087891e+00 1.129299998283386230e-01 -9.248352050781250000e-02 6.133943330496549606e-03 2.211625874042510986e-02
9.570000000000000000e+02 4.502507400512695312e+01 3.683695983886718750e+01 -8.777986658969894052e-05 4.635642981156706810e-04 1.127353243646211922e-04 1.618522073840722442e-04
9.580000000000000000e+02 4.770616912841796875e+01 4.025617599487304688e+01 2.185755147365853190e-04 1.928103883983567357e-04 1.234157680300995708e-04 -4.706372419605031610e-05
9.590000000000000000e+02 3.005132913589477539e+00 6.817077636718750000e+00 1.169029809534549713e-02 -4.338158667087554932e-02 -9.507386013865470886e-03 1.687514409422874451e-02
9.600000000000000000e+02 4.430064392089843750e+01 3.610839843750000000e+01 -4.092150265933014452e-05 9.239503415301442146e-04 2.649086527526378632e-04 3.297791117802262306e-04
9.610000000000000000e+02 6.062101364135742188e+00 3.129796218872070312e+01 -2.222599228844046593e-03 7.209312170743942261e-03 1.496013836003839970e-03 -5.108797922730445862e-03
9.620000000000000000e+02 4.213720798492431641e+00 2.700112342834472656e+01 -1.513697206974029541e-03 9.849632624536752701e-04 -1.586201688041910529e-04 -6.706981454044580460e-03
9.630000000000000000e+02 5.643685817718505859e+00 2.815686035156250000e+01 -2.383195562288165092e-03 5.024804733693599701e-03 7.924827514216303825e-04 -6.992047652602195740e-03
9.640000000000000000e+02 5.014571666717529297e+00 2.401715469360351562e+01 -3.110592951998114586e-03 3.879338910337537527e-04 -8.167977211996912956e-04 -9.978829883038997650e-03
9.650000000000000000e+02 5.189377307891845703e+00 2.535025596618652344e+01 -2.498475601896643639e-03 2.040659775957465172e-03 -1.373448030790314078e-04 -8.802024647593498230e-03
9.660000000000000000e+02 4.838315963745117188e+00 1.205082702636718750e+01 8.417293429374694824e-03 -1.911589130759239197e-02 -3.209579270333051682e-03 -1.492995861917734146e-02
9.670000000000000000e+02 3.774826049804687500e+00 1.207587432861328125e+01 5.598587915301322937e-03 -2.911418303847312927e-02 -7.054678630083799362e-03 -1.127654500305652618e-02
9.680000000000000000e+02 5.007198333740234375e+00 1.742999649047851562e+01 -1.983471214771270752e-03 -6.721739657223224640e-03 -2.611563308164477348e-03 -1.613724604249000549e-02
9.690000000000000000e+02 4.989844799041748047e+00 1.605414390563964844e+01 -1.305815298110246658e-03 -8.816265501081943512e-03 -3.036624286323785782e-03 -1.675755158066749573e-02
9.700000000000000000e+02 3.837473869323730469e+00 2.019593048095703125e+01 -2.364791464060544968e-03 -9.767953306436538696e-03 -3.639823291450738907e-03 -1.187070552259683609e-02
9.710000000000000000e+02 3.834212779998779297e+00 1.476003932952880859e+01 4.699623968917876482e-04 -2.140267938375473022e-02 -6.279814988374710083e-03 -1.454869657754898071e-02
9.720000000000000000e+02 4.869989871978759766e+00 9.529685020446777344e+00 2.001110278069972992e-02 -2.921815030276775360e-02 -2.762114396318793297e-03 -6.031409371644258499e-03
9.730000000000000000e+02 5.859718799591064453e+00 1.078891372680664062e+01 1.667666621506214142e-02 -1.418952364474534988e-02 7.461427012458443642e-04 -1.618323847651481628e-02
9.740000000000000000e+02 4.062970638275146484e+00 2.560268020629882812e+01 -2.069945679977536201e-03 -9.587443782947957516e-04 -9.086069767363369465e-04 -7.678017020225524902e-03
9.750000000000000000e+02 4.882516384124755859e+00 2.141615486145019531e+01 -3.304603043943643570e-03 -2.597968326881527901e-03 -1.770771457813680172e-03 -1.225260738283395767e-02
9.760000000000000000e+02 4.976432800292968750e+00 1.879400062561035156e+01 -3.129814285784959793e-03 -5.144431255757808685e-03 -2.482273615896701813e-03 -1.482563931494951248e-02
9.770000000000000000e+02 4.922619819641113281e+00 2.012285232543945312e+01 -2.747101709246635437e-03 -3.946119919419288635e-03 -2.007966628298163414e-03 -1.357996743172407150e-02
9.780000000000000000e+02 4.877801895141601562e+00 1.335302925109863281e+01 3.823369275778532028e-03 -1.507113222032785416e-02 -3.374328836798667908e-03 -1.623384095728397369e-02
9.790000000000000000e+02 4.935963630676269531e+00 1.468931293487548828e+01 1.328837126493453979e-03 -1.163050066679716110e-02 -3.090498968958854675e-03 -1.728417910635471344e-02
9.800000000000000000e+02 4.618108272552490234e+00 3.305632400512695312e+01 -1.258910750038921833e-03 6.076673045754432678e-03 1.445328583940863609e-03 -3.607776947319507599e-03
9.810000000000000000e+02 5.407492637634277344e+00 2.672418022155761719e+01 -2.836755942553281784e-03 3.493883181363344193e-03 1.971381861949339509e-04 -8.038643747568130493e-03
9.820000000000000000e+02 4.834877014160156250e+00 1.077728366851806641e+01 1.330321375280618668e-02 -2.363435365259647369e-02 -3.099341876804828644e-03 -1.105639524757862091e-02
9.830000000000000000e+02 4.505327224731445312e+00 6.286547660827636719e+00 2.341567724943161011e-02 -4.460529610514640808e-02 -6.356886122375726700e-03 2.292028814554214478e-02
9.840000000000000000e+02 5.972048282623291016e+00 7.297880172729492188e+00 3.981899097561836243e-02 -3.917092829942703247e-02 1.944186806213110685e-04 4.653313662856817245e-03
9.850000000000000000e+02 7.764894485473632812e+00 3.505226135253906250e+01 -2.650880254805088043e-03 9.786685928702354431e-03 2.140741795301437378e-03 -3.412760561332106590e-03
9.860000000000000000e+02 6.124002933502197266e+00 3.304740905761718750e+01 -2.065336797386407852e-03 7.606370840221643448e-03 1.662310212850570679e-03 -4.198858980089426041e-03
9.870000000000000000e+02 1.394065284729003906e+01 6.131889343261718750e+00 1.053576450794935226e-02 2.122111767530441284e-01 6.682408601045608521e-02 2.984877862036228180e-02
9.880000000000000000e+02 1.911926460266113281e+01 1.124626922607421875e+01 2.097199298441410065e-02 4.250030592083930969e-02 1.904168911278247833e-02 3.097300976514816284e-02
9.890000000000000000e+02 1.807060813903808594e+01 9.909622192382812500e+00 2.444890514016151428e-02 5.174488201737403870e-02 2.285813540220260620e-02 3.539146855473518372e-02
9.900000000000000000e+02 3.510824203491210938e+01 2.724731636047363281e+01 3.160567022860050201e-03 7.237952202558517456e-03 3.119555767625570297e-03 4.944940563291311264e-03
9.910000000000000000e+02 1.635233497619628906e+01 8.524613380432128906e+00 2.553371712565422058e-02 7.673270255327224731e-02 3.067992627620697021e-02 4.408798739314079285e-02
9.920000000000000000e+02 3.568864822387695312e+01 2.844623374938964844e+01 2.468312159180641174e-03 6.945925299078226089e-03 2.824271330609917641e-03 4.280589520931243896e-03
9.930000000000000000e+02 3.466143035888671875e+01 2.764433288574218750e+01 2.672982634976506233e-03 7.892542518675327301e-03 3.169657429680228233e-03 4.904983099550008774e-03
9.940000000000000000e+02 1.601048088073730469e+01 8.326543807983398438e+00 2.351813204586505890e-02 8.794166147708892822e-02 3.343793749809265137e-02 4.351524636149406433e-02
9.950000000000000000e+02 1.564726448059082031e+01 7.824635982513427734e+00 2.329071611166000366e-02 9.938918799161911011e-02 3.680397197604179382e-02 4.710850119590759277e-02
9.960000000000000000e+02 2.343608474731445312e+01 1.528802394866943359e+01 1.447836216539144516e-02 2.417542971670627594e-02 1.159613765776157379e-02 1.914219558238983154e-02
9.970000000000000000e+02 1.752010726928710938e+01 9.464647293090820312e+00 2.563859522342681885e-02 5.768816545605659485e-02 2.499802783131599426e-02 3.782203048467636108e-02
9.980000000000000000e+02 1.694247436523437500e+01 8.987942695617675781e+00 2.621989883482456207e-02 6.565835326910018921e-02 2.756347507238388062e-02 4.113328456878662109e-02
9.990000000000000000e+02 3.381138610839843750e+01 2.650724601745605469e+01 3.216130891814827919e-03 8.455839939415454865e-03 3.501591272652149200e-03 5.549006164073944092e-03
1.000000000000000000e+03 2.099073982238769531e+01 1.339741230010986328e+01 1.688694022595882416e-02 3.287585079669952393e-02 1.492883637547492981e-02 2.351656183600425720e-02
1.001000000000000000e+03 2.454709625244140625e+01 1.665785026550292969e+01 1.228716317564249039e-02 2.103868499398231506e-02 9.997754357755184174e-03 1.670148037374019623e-02
1.002000000000000000e+03 2.420074462890625000e+01 1.675782203674316406e+01 1.152587868273258209e-02 2.217728830873966217e-02 1.011095009744167328e-02 1.661751419305801392e-02
1.003000000000000000e+03 2.154263496398925781e+01 1.399972152709960938e+01 1.605850458145141602e-02 3.082965686917304993e-02 1.406644843518733978e-02 2.196903899312019348e-02
1.004000000000000000e+03 3.273109436035156250e+01 2.549504089355468750e+01 3.704827046021819115e-03 9.317738004028797150e-03 3.906769677996635437e-03 6.281675770878791809e-03
1.005000000000000000e+03 3.049134063720703125e+01 2.275840187072753906e+01 5.334954708814620972e-03 1.118975970894098282e-02 4.957414232194423676e-03 8.467713370919227600e-03
1.006000000000000000e+03 3.260939407348632812e+01 2.487165832519531250e+01 4.152068402618169785e-03 9.152662940323352814e-03 3.991419449448585510e-03 6.521540228277444839e-03
1.007000000000000000e+03 2.843031883239746094e+01 2.110325622558593750e+01 6.733215879648923874e-03 1.401698775589466095e-02 6.225061137229204178e-03 1.033266074955463409e-02
1.008000000000000000e+03 2.059674453735351562e+01 1.269938373565673828e+01 1.848086901009082794e-02 3.462940827012062073e-02 1.593308337032794952e-02 2.552420459687709808e-02
1.009000000000000000e+03 2.382867622375488281e+01 1.691116142272949219e+01 1.049922127276659012e-02 2.333067916333675385e-02 1.014897041022777557e-02 1.653608679771423340e-02
1.010000000000000000e+03 2.890209579467773438e+01 2.175837135314941406e+01 5.979191511869430542e-03 1.348451711237430573e-02 5.839112680405378342e-03 9.650501422584056854e-03
1.011000000000000000e+03 2.759929084777832031e+01 2.024788475036621094e+01 7.613873574882745743e-03 1.547364238649606705e-02 6.926254834979772568e-03 1.130317151546478271e-02
1.012000000000000000e+03 2.733786201477050781e+01 1.994234085083007812e+01 7.845528423786163330e-03 1.591871678829193115e-02 7.129273377358913422e-03 1.175800058990716934e-02
1.013000000000000000e+03 2.705054092407226562e+01 1.966588973999023438e+01 8.270343765616416931e-03 1.648293808102607727e-02 7.425984367728233337e-03 1.202123519033193588e-02
1.014000000000000000e+03 2.699692344665527344e+01 1.908057022094726562e+01 9.432999417185783386e-03 1.639266870915889740e-02 7.747700437903404236e-03 1.257861871272325516e-02
1.015000000000000000e+03 3.974610137939453125e+01 3.340332794189453125e+01 3.860147553496062756e-04 3.645413089543581009e-03 1.209428417496383190e-03 1.781611819751560688e-03
1.016000000000000000e+03 3.944618988037109375e+01 3.137686920166015625e+01 1.332871499471366405e-03 3.349478123709559441e-03 1.404704875312745571e-03 2.231990220025181770e-03
1.017000000000000000e+03 1.585113430023193359e+01 8.723658561706542969e+00 1.957327127456665039e-02 8.732046931982040405e-02 3.206812217831611633e-02 3.919901698827743530e-02
1.018000000000000000e+03 1.927854156494140625e+01 1.174025344848632812e+01 1.900872029364109039e-02 4.201942682266235352e-02 1.830844394862651825e-02 2.858794666826725006e-02
1.019000000000000000e+03 1.972364044189453125e+01 1.096761894226074219e+01 2.401834353804588318e-02 3.778052330017089844e-02 1.853965967893600464e-02 3.051151521503925323e-02
1.020000000000000000e+03 3.546358871459960938e+01 2.809535980224609375e+01 2.663611434400081635e-03 7.111247628927230835e-03 2.932457718998193741e-03 4.508052952587604523e-03
1.021000000000000000e+03 1.871110725402832031e+01 1.097824859619140625e+01 2.013318799436092377e-02 4.671886563301086426e-02 2.005561627447605133e-02 3.170102834701538086e-02
1.022000000000000000e+03 1.779996871948242188e+01 9.694461822509765625e+00 2.551456354558467865e-02 5.567887797951698303e-02 2.435803227126598358e-02 3.616330772638320923e-02
1.023000000000000000e+03 2.615526580810546875e+01 1.823520469665527344e+01 1.045126188546419144e-02 1.784338243305683136e-02 8.488393388688564301e-03 1.374574750661849976e-02
1.024000000000000000e+03 4.030685043334960938e+01 3.380044555664062500e+01 3.129756369162350893e-04 3.152445890009403229e-03 1.039626426063477993e-03 1.633731881156563759e-03
1.025000000000000000e+03 2.324687957763671875e+01 1.671524429321289062e+01 1.007829047739505768e-02 2.525432594120502472e-02 1.059978455305099487e-02 1.701485924422740936e-02
1.026000000000000000e+03 2.977349090576171875e+01 2.184508895874023438e+01 6.330251228064298630e-03 1.192413736134767532e-02 5.476316437125205994e-03 9.078922681510448456e-03
1.027000000000000000e+03 2.868441581726074219e+01 2.140494918823242188e+01 6.505277939140796661e-03 1.374404132366180420e-02 6.074795965105295181e-03 9.993520565330982208e-03
1.028000000000000000e+03 2.642194175720214844e+01 1.791012382507324219e+01 1.159084308892488480e-02 1.721663586795330048e-02 8.642244152724742889e-03 1.391133293509483337e-02
1.029000000000000000e+03 3.312342453002929688e+01 2.599829673767089844e+01 3.427991410717368126e-03 9.045043960213661194e-03 3.741910681128501892e-03 5.929521750658750534e-03
1.030000000000000000e+03 3.345779418945312500e+01 2.646834373474121094e+01 3.149361116811633110e-03 8.829111233353614807e-03 3.593541914597153664e-03 5.632877815514802933e-03
1.031000000000000000e+03 2.670356750488281250e+01 1.880790710449218750e+01 9.633623994886875153e-03 1.690454222261905670e-02 7.961450144648551941e-03 1.299556344747543335e-02
1.032000000000000000e+03 3.075728416442871094e+01 2.309548377990722656e+01 5.122423637658357620e-03 1.088479813188314438e-02 4.802166484296321869e-03 8.240052498877048492e-03
1.033000000000000000e+03 3.166020393371582031e+01 2.375100708007812500e+01 4.801960196346044540e-03 9.859475307166576385e-03 4.398430697619915009e-03 7.472224067896604538e-03
1.034000000000000000e+03 2.567288780212402344e+01 1.763125038146972656e+01 1.141889113932847977e-02 1.858265697956085205e-02 9.000464342534542084e-03 1.465348433703184128e-02
1.035000000000000000e+03 4.249102401733398438e+01 3.549035263061523438e+01 4.787700527231208980e-05 1.831012195907533169e-03 5.636667483486235142e-04 9.212001459673047066e-04
1.036000000000000000e+03 4.156952667236328125e+01 3.395256423950195312e+01 3.436980769038200378e-04 2.091374248266220093e-03 7.305216859094798565e-04 1.192176016047596931e-03
1.037000000000000000e+03 2.268100738525390625e+01 1.449381446838378906e+01 1.628471910953521729e-02 2.683952450752258301e-02 1.293727383017539978e-02 2.025184594094753265e-02
1.038000000000000000e+03 2.643389129638671875e+01 1.915885543823242188e+01 8.773273788392543793e-03 1.770888082683086395e-02 7.944646291434764862e-03 1.272691134363412857e-02
1.039000000000000000e+03 2.590703010559082031e+01 1.793382835388183594e+01 1.099658291786909103e-02 1.834789849817752838e-02 8.803344331681728363e-03 1.415102370083332062e-02
1.040000000000000000e+03 2.213179397583007812e+01 1.449951553344726562e+01 1.532392110675573349e-02 2.879588492214679718e-02 1.323594152927398682e-02 2.050252445042133331e-02
1.041000000000000000e+03 3.740461349487304688e+01 3.038388824462890625e+01 1.535986200906336308e-03 5.475325044244527817e-03 2.103393431752920151e-03 3.215068019926548004e-03
1.042000000000000000e+03 1.497900867462158203e+01 7.035340309143066406e+00 2.525556460022926331e-02 1.316145062446594238e-01 4.706101864576339722e-02 4.958025366067886353e-02
1.043000000000000000e+03 2.544921302795410156e+01 1.734672546386718750e+01 1.190509088337421417e-02 1.907218247652053833e-02 9.293181821703910828e-03 1.511192414909601212e-02
1.044000000000000000e+03 3.215932846069335938e+01 2.493931579589843750e+01 3.950943239033222198e-03 9.759131819009780884e-03 4.113022703677415848e-03 6.721077021211385727e-03
1.045000000000000000e+03 3.501559829711914062e+01 2.767329597473144531e+01 2.782145980745553970e-03 7.446904666721820831e-03 3.068715101107954979e-03 4.787615500390529633e-03
1.046000000000000000e+03 2.313435173034667969e+01 1.566773605346679688e+01 1.297749299556016922e-02 2.551814168691635132e-02 1.154869049787521362e-02 1.839948818087577820e-02
1.047000000000000000e+03 2.946712493896484375e+01 2.202675247192382812e+01 5.911972373723983765e-03 1.264006644487380981e-02 5.565611645579338074e-03 9.257351979613304138e-03
1.048000000000000000e+03 2.285729789733886719e+01 1.536726570129394531e+01 1.340604666620492935e-02 2.628995105624198914e-02 1.190879940986633301e-02 1.916877366602420807e-02
1.049000000000000000e+03 2.261539649963378906e+01 1.506051349639892578e+01 1.407480426132678986e-02 2.730407938361167908e-02 1.241366472095251083e-02 1.941393315792083740e-02
1.050000000000000000e+03 3.380815124511718750e+01 2.683967781066894531e+01 2.971537644043564796e-03 8.550782687962055206e-03 3.456695936620235443e-03 5.415966734290122986e-03
1.051000000000000000e+03 1.444844341278076172e+01 7.070256710052490234e+00 1.654471829533576965e-02 1.506224125623703003e-01 5.015013739466667175e-02 3.492644801735877991e-02
1.052000000000000000e+03 3.632238006591796875e+01 2.931101608276367188e+01 1.945064170286059380e-03 6.591901183128356934e-03 2.561089582741260529e-03 3.792860079556703568e-03
1.053000000000000000e+03 3.593470764160156250e+01 2.872820854187011719e+01 2.357334597036242485e-03 6.811478640884160995e-03 2.750643994659185410e-03 4.147850442677736282e-03
1.054000000000000000e+03 1.796610260009765625e+01 1.070956993103027344e+01 1.922100596129894257e-02 5.370570346713066101e-02 2.187801338732242584e-02 3.213960304856300354e-02
1.055000000000000000e+03 1.755830383300781250e+01 9.982246398925781250e+00 2.185083739459514618e-02 5.732661858201026917e-02 2.375323697924613953e-02 3.527435287833213806e-02
1.056000000000000000e+03 3.509558486938476562e+01 2.833612823486328125e+01 2.303947228938341141e-03 7.624089717864990234e-03 2.978411037474870682e-03 4.506256431341171265e-03
1.057000000000000000e+03 1.723271369934082031e+01 9.227368354797363281e+00 2.647426538169384003e-02 6.266642361879348755e-02 2.674220688641071320e-02 3.889308497309684753e-02
1.058000000000000000e+03 1.817343330383300781e+01 1.037764072418212891e+01 2.199969999492168427e-02 5.074865743517875671e-02 2.182450704276561737e-02 3.378629684448242188e-02
1.059000000000000000e+03 1.785511207580566406e+01 1.019363689422607422e+01 2.198006026446819305e-02 5.527257174253463745e-02 2.317578904330730438e-02 3.420395776629447937e-02
1.060000000000000000e+03 8.837878227233886719e+00 4.967910289764404297e+00 1.098881512880325317e-01 -6.770286709070205688e-02 1.265558414161205292e-02 -5.253300536423921585e-03
1.061000000000000000e+03 1.470452213287353516e+01 7.367361068725585938e+00 1.576185226440429688e-02 1.334295272827148438e-01 4.475741460919380188e-02 3.960017487406730652e-02
1.062000000000000000e+03 1.421294784545898438e+01 6.814032554626464844e+00 1.273896265774965286e-02 1.636308133602142334e-01 5.291093513369560242e-02 3.226275369524955750e-02
1.063000000000000000e+03 1.406963062286376953e+01 6.519174575805664062e+00 1.605830527842044830e-02 1.805747300386428833e-01 5.898990854620933533e-02 3.152762725949287415e-02
1.064000000000000000e+03 1.077960777282714844e+01 4.505560398101806641e+00 1.791166961193084717e-01 -1.086921524256467819e-02 5.047424510121345520e-02 -9.723489731550216675e-02
1.065000000000000000e+03 1.186672496795654297e+01 3.983767986297607422e+00 2.170625030994415283e-01 1.296705007553100586e-01 1.040199026465415955e-01 -1.835674941539764404e-01
1.066000000000000000e+03 3.889165496826171875e+01 3.346701812744140625e+01 1.561807730467990041e-04 4.694201052188873291e-03 1.455114572308957577e-03 2.026999834924936295e-03
1.067000000000000000e+03 4.877191543579101562e+00 7.591399669647216797e+00 2.757659927010536194e-02 -4.066631197929382324e-02 -3.926913719624280930e-03 9.334092959761619568e-03
1.068000000000000000e+03 3.931228256225585938e+01 3.183444023132324219e+01 1.019078888930380344e-03 3.614967456087470055e-03 1.390213961713016033e-03 2.195957815274596214e-03
1.069000000000000000e+03 3.935900115966796875e+01 3.244768905639648438e+01 7.246318855322897434e-04 3.834534436464309692e-03 1.367749879136681557e-03 2.062310464680194855e-03
1.070000000000000000e+03 5.158609867095947266e+00 5.544757366180419922e+00 2.642897889018058777e-02 -4.392157495021820068e-02 -5.247778724879026413e-03 3.096346184611320496e-02
1.071000000000000000e+03 5.516639709472656250e+00 4.842808723449707031e+00 2.490877918899059296e-02 -4.678857699036598206e-02 -6.563938688486814499e-03 3.914747759699821472e-02
1.072000000000000000e+03 5.839178562164306641e+00 6.070692539215087891e+00 3.876199200749397278e-02 -4.810757562518119812e-02 -2.803675597533583641e-03 2.197366394102573395e-02
1.073000000000000000e+03 3.188444900512695312e+01 2.417061424255371094e+01 4.511188250035047531e-03 9.749257005751132965e-03 4.278133623301982880e-03 7.159103173762559891e-03
1.074000000000000000e+03 9.558986663818359375e+00 4.298303604125976562e+00 1.478665769100189209e-01 -8.873523026704788208e-02 1.773940213024616241e-02 -1.132361218333244324e-02
1.075000000000000000e+03 4.290410995483398438e+01 3.612345504760742188e+01 -2.253898855997249484e-06 1.756186364218592644e-03 5.261797341518104076e-04 8.123418083414435387e-04
1.076000000000000000e+03 7.481055259704589844e+00 7.211366653442382812e+00 5.634142085909843445e-02 -2.721468918025493622e-02 8.738020434975624084e-03 -1.341269258409738541e-02
1.077000000000000000e+03 4.194676971435546875e+01 3.503999710083007812e+01 1.087064447347074747e-04 2.025736495852470398e-03 6.403329316526651382e-04 1.071019447408616543e-03
1.078000000000000000e+03 1.198293399810791016e+01 4.695042133331298828e+00 1.261644065380096436e-01 1.805899292230606079e-01 9.202630072832107544e-02 -1.527112722396850586e-01
1.079000000000000000e+03 1.056688308715820312e+01 5.020846366882324219e+00 1.386917084455490112e-01 7.084359880536794662e-03 4.373282194137573242e-02 -8.345881104469299316e-02
1.080000000000000000e+03 1.158923149108886719e+01 5.064279556274414062e+00 1.192998811602592468e-01 1.116309612989425659e-01 6.927925348281860352e-02 -1.218441128730773926e-01
1.081000000000000000e+03 4.764001846313476562e+01 4.175396347045898438e+01 3.108603123109787703e-04 7.025168451946228743e-05 1.143335975939407945e-04 -3.344902870594523847e-05
1.082000000000000000e+03 4.458040618896484375e+01 3.765213775634765625e+01 -1.797459844965487719e-05 9.728029253892600536e-04 2.864484849851578474e-04 2.967374166473746300e-04
1.083000000000000000e+03 4.327077484130859375e+01 4.145416259765625000e+01 -1.029990889946930110e-04 2.529299817979335785e-03 7.278902339749038219e-04 1.346057688351720572e-04
1.084000000000000000e+03 4.160827636718750000e+01 3.704775619506835938e+01 -1.549397129565477371e-04 2.853145124390721321e-03 8.094616350717842579e-04 1.054259948432445526e-03
1.085000000000000000e+03 4.038451671600341797e+00 7.254745960235595703e+00 1.981458626687526703e-02 -4.020380601286888123e-02 -6.116765551269054413e-03 1.462505199015140533e-02
1.086000000000000000e+03 8.178939819335937500e+00 2.729543495178222656e+01 -4.425379913300275803e-03 1.056521944701671600e-02 1.841951743699610233e-03 -8.200380019843578339e-03
1.087000000000000000e+03 9.115760803222656250e+00 3.051279067993164062e+01 -4.157694056630134583e-03 1.179430633783340454e-02 2.290983684360980988e-03 -6.015480495989322662e-03
1.088000000000000000e+03 6.050086498260498047e+00 2.377279472351074219e+01 -3.584690624848008156e-03 3.848566440865397453e-03 7.916273898445069790e-05 -1.065754238516092300e-02
1.089000000000000000e+03 5.895226001739501953e+00 2.254767608642578125e+01 -4.144187550991773605e-03 2.849136246368288994e-03 -3.885154146701097488e-04 -1.198363211005926132e-02
1.090000000000000000e+03 7.376890659332275391e+00 2.463492393493652344e+01 -4.575129598379135132e-03 8.638452738523483276e-03 1.218997058458626270e-03 -1.033616624772548676e-02
1.091000000000000000e+03 6.145071506500244141e+00 1.738637351989746094e+01 -3.445537062361836433e-03 1.644158503040671349e-03 -5.404135445132851601e-04 -1.706607639789581299e-02
1.092000000000000000e+03 6.090518474578857422e+00 1.878149414062500000e+01 -3.652791958302259445e-03 1.943425741046667099e-03 -5.128099001012742519e-04 -1.587121933698654175e-02
1.093000000000000000e+03 6.027890205383300781e+00 1.458955287933349609e+01 9.134681313298642635e-04 -1.809749286621809006e-03 -2.688843524083495140e-04 -1.874975115060806274e-02
1.094000000000000000e+03 6.120359420776367188e+00 1.597068786621093750e+01 -1.400585286319255829e-03 3.729885793291032314e-04 -3.082790062762796879e-04 -1.843807660043239594e-02
1.095000000000000000e+03 5.894583225250244141e+00 2.134625053405761719e+01 -3.669130615890026093e-03 1.993661746382713318e-03 -5.026406724937260151e-04 -1.308844797313213348e-02
1.096000000000000000e+03 6.589345455169677734e+00 2.636951255798339844e+01 -3.451249562203884125e-03 6.529449485242366791e-03 9.234600001946091652e-04 -8.754624985158443451e-03
1.097000000000000000e+03 5.929875850677490234e+00 9.597149848937988281e+00 2.465499751269817352e-02 -2.001053653657436371e-02 1.393338199704885483e-03 -1.127360388636589050e-02
1.098000000000000000e+03 6.220145225524902344e+00 8.542410850524902344e+00 3.465209156274795532e-02 -2.715642750263214111e-02 2.248699078336358070e-03 -8.441355079412460327e-03
1.099000000000000000e+03 4.800214767456054688e+00 8.449836730957031250e+00 2.403783239424228668e-02 -3.499509394168853760e-02 -3.287177998572587967e-03 2.002764958888292313e-03
1.100000000000000000e+03 4.477381515502929688e+01 3.967127227783203125e+01 2.532403777877334505e-05 1.379442634060978889e-03 4.214300133753567934e-04 3.421804576646536589e-04
1.101000000000000000e+03 6.505968475341796875e+01 4.065631103515625000e+01 4.381808196285419399e-07 7.570077286800369620e-06 2.402477548457682133e-06 -8.820964580991130788e-07
1.102000000000000000e+03 1.934755134582519531e+01 1.233485794067382812e+01 1.687678135931491852e-02 4.134370386600494385e-02 1.746614463627338409e-02 2.652186155319213867e-02
1.103000000000000000e+03 1.874460411071777344e+01 1.131553745269775391e+01 1.940554194152355194e-02 4.608178511261940002e-02 1.964619755744934082e-02 3.028682619333267212e-02
1.104000000000000000e+03 1.665351486206054688e+01 8.751406669616699219e+00 2.619677409529685974e-02 7.234790176153182983e-02 2.956340275704860687e-02 4.201530292630195618e-02
1.105000000000000000e+03 1.547353267669677734e+01 8.696885108947753906e+00 1.540594920516014099e-02 9.604230523109436035e-02 3.343447670340538025e-02 3.629367053508758545e-02
1.106000000000000000e+03 1.560599040985107422e+01 8.232813835144042969e+00 2.156625501811504364e-02 9.601266682147979736e-02 3.527367487549781799e-02 4.242414608597755432e-02
1.107000000000000000e+03 3.428214645385742188e+01 2.720937919616699219e+01 2.879986306652426720e-03 8.181138895452022552e-03 3.318337490782141685e-03 5.195795092731714249e-03
1.108000000000000000e+03 1.697030067443847656e+01 9.525497436523437500e+00 2.202528156340122223e-02 6.502535939216613770e-02 2.611519396305084229e-02 3.744106739759445190e-02
1.109000000000000000e+03 1.638763809204101562e+01 9.065155982971191406e+00 2.150909043848514557e-02 7.525040954351425171e-02 2.902784943580627441e-02 3.988599404692649841e-02
1.110000000000000000e+03 2.344060325622558594e+01 1.598900794982910156e+01 1.219086442142724991e-02 2.438776940107345581e-02 1.097359042614698410e-02 1.808800175786018372e-02
1.111000000000000000e+03 1.392437744140625000e+01 7.038602352142333984e+00 1.236090436577796936e-02 1.629184484481811523e-01 5.258380249142646790e-02 1.950998604297637939e-02
1.112000000000000000e+03 3.214836120605468750e+01 2.645410728454589844e+01 2.598188817501068115e-03 1.025351043790578842e-02 3.855509683489799500e-03 6.068754475563764572e-03
1.113000000000000000e+03 3.259538269042968750e+01 2.451901435852050781e+01 4.395611584186553955e-03 9.112515486776828766e-03 4.052438307553529739e-03 6.623724475502967834e-03
1.114000000000000000e+03 2.022399902343750000e+01 1.284076404571533203e+01 1.659399457275867462e-02 3.636214137077331543e-02 1.588684134185314178e-02 2.525731921195983887e-02
1.115000000000000000e+03 1.838827896118164062e+01 1.156180095672607422e+01 1.637968234717845917e-02 4.822571948170661926e-02 1.938161998987197876e-02 2.965565025806427002e-02
1.116000000000000000e+03 2.039542007446289062e+01 1.326380252838134766e+01 1.591677404940128326e-02 3.566881641745567322e-02 1.547567732632160187e-02 2.399920485913753510e-02
1.117000000000000000e+03 2.510654449462890625e+01 1.809803771972656250e+01 9.605941362679004669e-03 2.035350352525711060e-02 8.987833745777606964e-03 1.441080402582883835e-02
1.118000000000000000e+03 2.433110427856445312e+01 1.716864585876464844e+01 1.068141683936119080e-02 2.197734266519546509e-02 9.797628037631511688e-03 1.599365286529064178e-02
1.119000000000000000e+03 2.058725547790527344e+01 1.370179080963134766e+01 1.434705778956413269e-02 3.468769788742065430e-02 1.471042633056640625e-02 2.298025600612163544e-02
1.120000000000000000e+03 1.726605033874511719e+01 9.756940841674804688e+00 2.240931987762451172e-02 6.217119842767715454e-02 2.537415549159049988e-02 3.591835126280784607e-02
1.121000000000000000e+03 2.812971496582031250e+01 2.085684204101562500e+01 6.968306843191385269e-03 1.462265849113464355e-02 6.477289367467164993e-03 1.059215608984231949e-02
1.122000000000000000e+03 3.266222381591796875e+01 2.596731948852539062e+01 3.221154445782303810e-03 9.559777565300464630e-03 3.834279719740152359e-03 6.150349974632263184e-03
1.123000000000000000e+03 2.750389099121093750e+01 2.085516738891601562e+01 6.498750764876604080e-03 1.580762863159179688e-02 6.691913586109876633e-03 1.084393821656703949e-02
1.124000000000000000e+03 2.709919357299804688e+01 2.021102142333984375e+01 7.276475895196199417e-03 1.650533080101013184e-02 7.134541869163513184e-03 1.151793822646141052e-02
1.125000000000000000e+03 2.674523353576660156e+01 1.941311645507812500e+01 8.353901095688343048e-03 1.705404371023178101e-02 7.622383534908294678e-03 1.244174502789974213e-02
1.126000000000000000e+03 2.560978126525878906e+01 1.823719978332519531e+01 9.847464971244335175e-03 1.908695138990879059e-02 8.680325001478195190e-03 1.398051343858242035e-02
1.127000000000000000e+03 2.926874542236328125e+01 2.266376113891601562e+01 4.927242174744606018e-03 1.322211604565382004e-02 5.444807466119527817e-03 9.016290307044982910e-03
1.128000000000000000e+03 2.284937095642089844e+01 1.700144767761230469e+01 8.957567624747753143e-03 2.645665407180786133e-02 1.062426622956991196e-02 1.634517498314380646e-02
1.129000000000000000e+03 2.612841606140136719e+01 1.888052177429199219e+01 8.933659642934799194e-03 1.822706498205661774e-02 8.148217573761940002e-03 1.314857695251703262e-02
1.130000000000000000e+03 2.852775955200195312e+01 2.195671653747558594e+01 5.465189460664987564e-03 1.430017314851284027e-02 5.929608829319477081e-03 9.747027419507503510e-03
1.131000000000000000e+03 1.963623237609863281e+01 1.264893054962158203e+01 1.575400121510028839e-02 3.929199278354644775e-02 1.651379838585853577e-02 2.593407779932022095e-02
1.132000000000000000e+03 3.414084625244140625e+01 2.811836814880371094e+01 2.192683285102248192e-03 8.507958613336086273e-03 3.210192546248435974e-03 4.859637469053268433e-03
1.133000000000000000e+03 2.477807426452636719e+01 1.740178489685058594e+01 1.079857442528009415e-02 2.074691839516162872e-02 9.463647380471229553e-03 1.538910716772079468e-02
1.134000000000000000e+03 1.667238616943359375e+01 9.293847084045410156e+00 2.213851362466812134e-02 7.139218598604202271e-02 2.805920876562595367e-02 3.811337426304817200e-02
1.135000000000000000e+03 1.900288200378417969e+01 1.210077476501464844e+01 1.621737517416477203e-02 4.319652542471885681e-02 1.782417111098766327e-02 2.784462459385395050e-02
1.136000000000000000e+03 1.896067237854003906e+01 1.155881023406982422e+01 1.836468093097209930e-02 4.370823130011558533e-02 1.862187311053276062e-02 2.979853004217147827e-02
1.137000000000000000e+03 2.584824180603027344e+01 1.857322883605957031e+01 9.485374204814434052e-03 1.875938847661018372e-02 8.473428897559642792e-03 1.353001873940229416e-02
1.138000000000000000e+03 2.965267372131347656e+01 2.240252113342285156e+01 5.465198773890733719e-03 1.248078979551792145e-02 5.383796524256467819e-03 8.986459113657474518e-03
1.139000000000000000e+03 2.238580513000488281e+01 1.476584243774414062e+01 1.445613056421279907e-02 2.783274091780185699e-02 1.268666144460439682e-02 2.022855170071125031e-02
1.140000000000000000e+03 2.540077972412109375e+01 1.789292335510253906e+01 1.049822289496660233e-02 1.952257938683032990e-02 9.006240405142307281e-03 1.448208652436733246e-02
1.141000000000000000e+03 3.342345428466796875e+01 2.687383651733398438e+01 2.760924398899078369e-03 8.960181847214698792e-03 3.516331780701875687e-03 5.486224777996540070e-03
1.142000000000000000e+03 3.304489898681640625e+01 2.645644569396972656e+01 2.964390674605965614e-03 9.280011057853698730e-03 3.673320636153221130e-03 5.792902782559394836e-03
1.143000000000000000e+03 3.220945358276367188e+01 2.545968818664550781e+01 3.495122306048870087e-03 9.890276007354259491e-03 4.015619400888681412e-03 6.542232353240251541e-03
1.144000000000000000e+03 3.041513252258300781e+01 2.336660194396972656e+01 4.593407735228538513e-03 1.157680060714483261e-02 4.851062316447496414e-03 8.215354755520820618e-03
1.145000000000000000e+03 1.806787300109863281e+01 1.128588199615478516e+01 1.684223674237728119e-02 5.193229392170906067e-02 2.063235826790332794e-02 2.989039011299610138e-02
1.146000000000000000e+03 3.379406356811523438e+01 2.763768005371093750e+01 2.343335188925266266e-03 8.790881372988224030e-03 3.340265015140175819e-03 5.103454925119876862e-03
1.147000000000000000e+03 3.384627151489257812e+01 2.721868133544921875e+01 2.687990665435791016e-03 8.621050976216793060e-03 3.392712445929646492e-03 5.288177635520696640e-03
1.148000000000000000e+03 2.209914016723632812e+01 1.501228713989257812e+01 1.336775813251733780e-02 2.889712899923324585e-02 1.267946604639291763e-02 1.951237767934799194e-02
1.149000000000000000e+03 3.082404899597167969e+01 2.413989257812500000e+01 4.089854191988706589e-03 1.123802550137042999e-02 4.598363768309354782e-03 7.672213483601808548e-03
1.150000000000000000e+03 3.125339126586914062e+01 2.393128395080566406e+01 4.514669068157672882e-03 1.046062260866165161e-02 4.492587409913539886e-03 7.625418249517679214e-03
1.151000000000000000e+03 2.188096809387207031e+01 1.479371452331542969e+01 1.348136179149150848e-02 2.969632297754287720e-02 1.295330561697483063e-02 2.042020112276077271e-02
1.152000000000000000e+03 2.907608032226562500e+01 2.220019531250000000e+01 5.483103450387716293e-03 1.331412605941295624e-02 5.639168899506330490e-03 9.302966296672821045e-03
1.153000000000000000e+03 2.276943016052246094e+01 1.598283100128173828e+01 1.118967402726411819e-02 2.672004513442516327e-02 1.137291546911001205e-02 1.815367117524147034e-02
1.154000000000000000e+03 2.228060913085937500e+01 1.531655311584472656e+01 1.263876166194677353e-02 2.822572737932205200e-02 1.225934643298387527e-02 1.931886374950408936e-02
1.155000000000000000e+03 2.122710227966308594e+01 1.437715435028076172e+01 1.354281418025493622e-02 3.188595175743103027e-02 1.362862903624773026e-02 2.129700407385826111e-02
1.156000000000000000e+03 2.504002761840820312e+01 1.728313064575195312e+01 1.145439781248569489e-02 2.012158930301666260e-02 9.472795762121677399e-03 1.554178167134523392e-02
1.157000000000000000e+03 3.534182357788085938e+01 2.876676177978515625e+01 2.073634648695588112e-03 7.427755743265151978e-03 2.850417047739028931e-03 4.253873135894536972e-03
1.158000000000000000e+03 3.570161056518554688e+01 2.906832313537597656e+01 1.924012904055416584e-03 7.181262131780385971e-03 2.731582615524530411e-03 4.091198556125164032e-03
1.159000000000000000e+03 3.560298919677734375e+01 2.958789253234863281e+01 1.598359667696058750e-03 7.409578654915094376e-03 2.702381461858749390e-03 3.937109373509883881e-03
1.160000000000000000e+03 1.737381172180175781e+01 1.083022689819335938e+01 1.613530889153480530e-02 5.928932875394821167e-02 2.262739092111587524e-02 3.082658164203166962e-02
1.161000000000000000e+03 1.762933921813964844e+01 1.050462055206298828e+01 1.885733939707279205e-02 5.620349198579788208e-02 2.251824922859668732e-02 3.299868851900100708e-02
1.162000000000000000e+03 1.731657791137695312e+01 1.028501319885253906e+01 1.899122446775436401e-02 6.100057438015937805e-02 2.399753965437412262e-02 3.331539034843444824e-02
1.163000000000000000e+03 1.304279804229736328e+01 5.785287380218505859e+00 2.319999970495700836e-02 2.388106137514114380e-01 7.860318571329116821e-02 -4.455267637968063354e-02
1.164000000000000000e+03 1.340541267395019531e+01 5.724124431610107422e+00 1.181920804083347321e-02 2.538329362869262695e-01 7.969564199447631836e-02 -1.258222293108701706e-02
1.165000000000000000e+03 1.482935905456542969e+01 8.041316986083984375e+00 1.387230772525072098e-02 1.173638552427291870e-01 3.937084972858428955e-02 3.445255756378173828e-02
1.166000000000000000e+03 1.438903331756591797e+01 7.625403881072998047e+00 1.302277296781539917e-02 1.354580670595169067e-01 4.454425349831581116e-02 2.790634520351886749e-02
1.167000000000000000e+03 3.015866279602050781e+01 2.304573059082031250e+01 4.933468066155910492e-03 1.190368644893169403e-02 5.051146261394023895e-03 8.524243719875812531e-03
1.168000000000000000e+03 3.093541336059570312e+01 2.461215209960937500e+01 3.646712517365813255e-03 1.124676596373319626e-02 4.468043334782123566e-03 7.421102840453386307e-03
1.169000000000000000e+03 1.350672245025634766e+01 6.377217769622802734e+00 1.176334638148546219e-02 2.054740637540817261e-01 6.517121940851211548e-02 -1.495661912485957146e-03
1.170000000000000000e+03 9.970723152160644531e+00 5.558998584747314453e+00 1.116177961230278015e-01 -6.621124688535928726e-03 3.149900212883949280e-02 -5.925384908914566040e-02
1.171000000000000000e+03 1.229835128784179688e+01 5.099394321441650391e+00 8.085594326257705688e-02 2.164193540811538696e-01 8.918259292840957642e-02 -1.195429190993309021e-01
1.172000000000000000e+03 3.102899360656738281e+01 2.347050666809082031e+01 4.787907004356384277e-03 1.061535347253084183e-02 4.620978143066167831e-03 7.913902401924133301e-03
1.173000000000000000e+03 3.144126701354980469e+01 2.446060943603515625e+01 4.037649370729923248e-03 1.048593688756227493e-02 4.357075784355401993e-03 7.225167471915483475e-03
1.174000000000000000e+03 4.086045074462890625e+01 3.472728729248046875e+01 1.108982760342769325e-04 2.966445637866854668e-03 9.232031879946589470e-04 1.379409339278936386e-03
1.175000000000000000e+03 3.729847335815429688e+01 3.137368011474609375e+01 8.789362036623060703e-04 5.760303232818841934e-03 1.991771860048174858e-03 2.963460981845855713e-03
1.176000000000000000e+03 3.615924072265625000e+01 3.008744049072265625e+01 1.362360198982059956e-03 6.967878900468349457e-03 2.499071881175041199e-03 3.654209431260824203e-03
1.177000000000000000e+03 3.694013214111328125e+01 3.092246437072753906e+01 9.802459971979260445e-04 6.225842051208019257e-03 2.161826472729444504e-03 3.182955319061875343e-03
1.178000000000000000e+03 7.112447261810302734e+00 5.126030921936035156e+00 5.650192499160766602e-02 -6.253515183925628662e-02 -1.809967914596199989e-03 3.178514167666435242e-02
1.179000000000000000e+03 5.514160633087158203e+00 8.064314842224121094e+00 3.070181608200073242e-02 -3.155245259404182434e-02 -2.551912330090999603e-04 4.595027712639421225e-04
1.180000000000000000e+03 8.214303016662597656e+00 4.986940860748291016e+00 8.810084313154220581e-02 -7.050423324108123779e-02 5.278984550386667252e-03 1.552092470228672028e-02
1.181000000000000000e+03 7.005531787872314453e+00 6.052812099456787109e+00 5.870939791202545166e-02 -4.978488758206367493e-02 2.677352167665958405e-03 1.039669103920459747e-02
1.182000000000000000e+03 5.292021274566650391e+00 6.813312530517578125e+00 3.161422163248062134e-02 -4.003017395734786987e-02 -2.524785930290818214e-03 1.437317486852407455e-02
1.183000000000000000e+03 6.435912609100341797e+00 6.609722614288330078e+00 4.772503301501274109e-02 -4.061302170157432556e-02 2.133602974936366081e-03 7.752530276775360107e-03
1.184000000000000000e+03 3.611632919311523438e+01 2.966631889343261719e+01 1.643174211494624615e-03 6.865951698273420334e-03 2.552737714722752571e-03 3.804473904892802238e-03
1.185000000000000000e+03 3.649158477783203125e+01 2.983179664611816406e+01 1.628572936169803143e-03 6.422538310289382935e-03 2.415333408862352371e-03 3.549162996932864189e-03
1.186000000000000000e+03 9.462010383605957031e+00 4.944537162780761719e+00 1.268484592437744141e-01 -5.455042049288749695e-02 2.168941497802734375e-02 -3.001663833856582642e-02
1.187000000000000000e+03 8.771661758422851562e+00 5.648900508880615234e+00 9.498389810323715210e-02 -4.373314231634140015e-02 1.537522580474615097e-02 -1.992721296846866608e-02
1.188000000000000000e+03 8.100020408630371094e+00 5.679503440856933594e+00 8.266192674636840820e-02 -5.274558439850807190e-02 8.974902331829071045e-03 -2.274524886161088943e-03
1.189000000000000000e+03 4.107428741455078125e+01 3.339345169067382812e+01 4.867321695201098919e-04 2.334699500352144241e-03 8.464294951409101486e-04 1.413303194567561150e-03
1.190000000000000000e+03 3.801739501953125000e+01 3.193700981140136719e+01 6.874137907288968563e-04 5.231162067502737045e-03 1.775572774931788445e-03 2.661513397470116615e-03
1.191000000000000000e+03 4.094443130493164062e+01 3.397386169433593750e+01 3.383887233212590218e-04 2.706280443817377090e-03 9.134007268585264683e-04 1.420715590938925743e-03
1.192000000000000000e+03 3.796249008178710938e+01 3.123918724060058594e+01 1.082987291738390923e-03 5.088496487587690353e-03 1.851445063948631287e-03 2.815491985529661179e-03
1.193000000000000000e+03 3.870348739624023438e+01 3.182977676391601562e+01 8.895102073438465595e-04 4.409006331115961075e-03 1.589554944075644016e-03 2.405436476692557335e-03
1.194000000000000000e+03 3.925271224975585938e+01 3.304698181152343750e+01 4.056086181662976742e-04 4.132152069360017776e-03 1.361328177154064178e-03 1.997030340135097504e-03
1.195000000000000000e+03 1.005099201202392578e+01 4.952834606170654297e+00 1.396506577730178833e-01 -2.910195663571357727e-02 3.316460922360420227e-02 -6.037713959813117981e-02
1.196000000000000000e+03 8.113653182983398438e+00 7.186242580413818359e+00 6.291995942592620850e-02 -1.984546333551406860e-02 1.292234845459461212e-02 -2.348104678094387054e-02
1.197000000000000000e+03 1.098283672332763672e+01 5.139365673065185547e+00 1.331427991390228271e-01 4.479643329977989197e-02 5.338177084922790527e-02 -1.048485562205314636e-01
1.198000000000000000e+03 1.273765659332275391e+01 7.026737689971923828e+00 1.586677506566047668e-02 1.628081798553466797e-01 5.360248684883117676e-02 -3.230957686901092529e-02
1.199000000000000000e+03 1.048131656646728516e+01 5.537680625915527344e+00 1.139571890234947205e-01 2.280834876000881195e-02 4.102966189384460449e-02 -8.015675097703933716e-02
1.200000000000000000e+03 4.117273712158203125e+01 3.843778610229492188e+01 -2.958924742415547371e-04 3.349663689732551575e-03 9.161313646472990513e-04 8.199646254070103168e-04
1.201000000000000000e+03 4.300388717651367188e+01 3.714770889282226562e+01 -6.220528302947059274e-05 2.007893286645412445e-03 5.837064236402511597e-04 7.167166331782937050e-04
1.202000000000000000e+03 6.914515495300292969e+00 2.778841018676757812e+01 -3.718299791216850281e-03 7.514608092606067657e-03 1.138892490416765213e-03 -7.862822152674198151e-03
1.203000000000000000e+03 7.249876499176025391e+00 2.932299041748046875e+01 -3.283274825662374496e-03 8.632654324173927307e-03 1.604813733138144016e-03 -6.742215715348720551e-03
1.204000000000000000e+03 1.065564155578613281e+01 2.971216201782226562e+01 -5.441448651254177094e-03 1.424393523484468460e-02 2.640746068209409714e-03 -5.909189581871032715e-03
1.205000000000000000e+03 6.792145729064941406e+00 2.238398551940917969e+01 -4.637397360056638718e-03 6.238845642656087875e-03 4.804345371667295694e-04 -1.211983710527420044e-02
1.206000000000000000e+03 8.415575027465820312e+00 2.412228584289550781e+01 -5.902707111090421677e-03 1.182216871529817581e-02 1.775838551111519337e-03 -1.057516038417816162e-02
1.207000000000000000e+03 7.082401752471923828e+00 2.020809364318847656e+01 -5.089043173938989639e-03 7.591297850012779236e-03 7.506764377467334270e-04 -1.450605783611536026e-02
1.208000000000000000e+03 6.970615386962890625e+00 1.314731597900390625e+01 4.940284881740808487e-03 4.975170828402042389e-03 2.974636619910597801e-03 -2.060960046947002411e-02
1.209000000000000000e+03 6.874620914459228516e+00 1.193648242950439453e+01 1.126288529485464096e-02 1.260690158233046532e-03 3.757072612643241882e-03 -2.136696875095367432e-02
1.210000000000000000e+03 5.935157299041748047e+00 1.327132320404052734e+01 5.129846278578042984e-03 -5.080249626189470291e-03 1.487907684349920601e-05 -1.915618218481540680e-02
1.211000000000000000e+03 7.085540294647216797e+00 8.762912750244140625e+00 3.621947020292282104e-02 -1.340466178953647614e-02 6.844442803412675858e-03 -1.765964180231094360e-02
1.212000000000000000e+03 8.006160736083984375e+00 1.296927833557128906e+01 5.499018356204032898e-03 1.609756052494049072e-02 6.478973664343357086e-03 -2.288662828505039215e-02
1.213000000000000000e+03 7.087217807769775391e+00 1.444185256958007812e+01 1.249865279532968998e-03 7.967366836965084076e-03 2.765169600024819374e-03 -2.056530304253101349e-02
1.214000000000000000e+03 7.293367862701416016e+00 1.737053108215332031e+01 -4.097921773791313171e-03 9.760786779224872589e-03 1.698859501630067825e-03 -1.736772619187831879e-02
1.215000000000000000e+03 1.804703903198242188e+01 1.249795532226562500e+01 1.140965893864631653e-02 5.001541599631309509e-02 1.842752285301685333e-02 2.481363900005817413e-02
1.216000000000000000e+03 1.371231269836425781e+01 6.727308273315429688e+00 7.245420943945646286e-03 1.841969490051269531e-01 5.743271112442016602e-02 1.477563194930553436e-02
1.217000000000000000e+03 1.336583328247070312e+01 7.009691715240478516e+00 9.848594665527343750e-03 1.729585677385330200e-01 5.484214797616004944e-02 -5.584920756518840790e-03
1.218000000000000000e+03 1.613395309448242188e+01 8.846524238586425781e+00 2.105541527271270752e-02 8.204221725463867188e-02 3.092928975820541382e-02 4.008525237441062927e-02
1.219000000000000000e+03 3.424379730224609375e+01 2.766786384582519531e+01 2.490751910954713821e-03 8.298134431242942810e-03 3.236665856093168259e-03 5.031178239732980728e-03
1.220000000000000000e+03 2.226135444641113281e+01 1.689686203002929688e+01 8.231736719608306885e-03 2.826458960771560669e-02 1.094889827072620392e-02 1.638311520218849182e-02
1.221000000000000000e+03 2.302233314514160156e+01 1.632914161682128906e+01 1.087992172688245773e-02 2.597156167030334473e-02 1.105544529855251312e-02 1.740872487425804138e-02
1.222000000000000000e+03 1.701560592651367188e+01 1.005745315551757812e+01 1.852689497172832489e-02 6.354428082704544067e-02 2.462135255336761475e-02 3.435676544904708862e-02
1.223000000000000000e+03 1.585053634643554688e+01 9.081251144409179688e+00 1.606102474033832550e-02 8.506865799427032471e-02 3.033890575170516968e-02 3.628689423203468323e-02
1.224000000000000000e+03 2.014273262023925781e+01 1.388449573516845703e+01 1.293930597603321075e-02 3.663694113492965698e-02 1.487287413328886032e-02 2.242918871343135834e-02
1.225000000000000000e+03 1.519532680511474609e+01 8.176355361938476562e+00 1.645977608859539032e-02 1.095355898141860962e-01 3.779860958456993103e-02 3.864004090428352356e-02
1.226000000000000000e+03 2.086888313293457031e+01 1.408890533447265625e+01 1.411242969334125519e-02 3.369655832648277283e-02 1.434269640594720840e-02 2.186105214059352875e-02
1.227000000000000000e+03 2.362925338745117188e+01 1.756035995483398438e+01 8.724734187126159668e-03 2.404960431158542633e-02 9.832302108407020569e-03 1.561551354825496674e-02
1.228000000000000000e+03 2.325479507446289062e+01 1.781521987915039062e+01 7.766675669699907303e-03 2.516198344528675079e-02 9.878598153591156006e-03 1.513560302555561066e-02
1.229000000000000000e+03 3.452268600463867188e+01 2.827277183532714844e+01 2.146973274648189545e-03 8.182300254702568054e-03 3.098781919106841087e-03 4.701428581029176712e-03
1.230000000000000000e+03 3.398854827880859375e+01 2.854936408996582031e+01 1.702709007076919079e-03 8.810705505311489105e-03 3.154024248942732811e-03 4.706554580479860306e-03
1.231000000000000000e+03 1.902558326721191406e+01 1.268815994262695312e+01 1.363564096391201019e-02 4.292656853795051575e-02 1.696866378188133240e-02 2.563351951539516449e-02
1.232000000000000000e+03 1.983530235290527344e+01 1.303990745544433594e+01 1.537072099745273590e-02 3.830916061997413635e-02 1.610396429896354675e-02 2.455666288733482361e-02
1.233000000000000000e+03 2.251244544982910156e+01 1.564598178863525391e+01 1.210845261812210083e-02 2.767260186374187469e-02 1.193431671708822250e-02 1.855400204658508301e-02
1.234000000000000000e+03 2.989341545104980469e+01 2.273867034912109375e+01 5.136812105774879456e-03 1.218379847705364227e-02 5.196183454245328903e-03 8.735955692827701569e-03
1.235000000000000000e+03 2.842282676696777344e+01 2.162930107116699219e+01 5.989341996610164642e-03 1.425114553421735764e-02 6.072146352380514145e-03 9.985414333641529083e-03
1.236000000000000000e+03 2.760300254821777344e+01 2.127014541625976562e+01 5.877474322915077209e-03 1.579968072474002838e-02 6.503146607428789139e-03 1.052091550081968307e-02
1.237000000000000000e+03 2.784459686279296875e+01 2.057781028747558594e+01 7.139249704778194427e-03 1.504684798419475555e-02 6.655829492956399918e-03 1.100795157253742218e-02
1.238000000000000000e+03 2.465214729309082031e+01 1.790261077880859375e+01 9.471902623772621155e-03 2.126456424593925476e-02 9.220940060913562775e-03 1.476859208196401596e-02
1.239000000000000000e+03 2.305234909057617188e+01 1.740179443359375000e+01 8.174003101885318756e-03 2.579959109425544739e-02 1.019207853823900223e-02 1.589230448007583618e-02
1.240000000000000000e+03 1.928729057312011719e+01 1.291272926330566406e+01 1.412956789135932922e-02 4.147072881460189819e-02 1.668008975684642792e-02 2.475095167756080627e-02
1.241000000000000000e+03 2.664346313476562500e+01 2.059322738647460938e+01 6.140388548374176025e-03 1.755481399595737457e-02 7.108560763299465179e-03 1.128903124481439590e-02
1.242000000000000000e+03 2.732379531860351562e+01 2.050741767883300781e+01 6.876270752400159836e-03 1.614709384739398956e-02 6.907009519636631012e-03 1.126157958060503006e-02
1.243000000000000000e+03 2.682557487487792969e+01 1.997214889526367188e+01 7.345198187977075577e-03 1.701970398426055908e-02 7.309470325708389282e-03 1.189908199012279510e-02
1.244000000000000000e+03 2.665271377563476562e+01 2.027908325195312500e+01 6.712926086038351059e-03 1.752561517059803009e-02 7.271562702953815460e-03 1.152133103460073471e-02
1.245000000000000000e+03 2.581318664550781250e+01 1.926743698120117188e+01 7.929541170597076416e-03 1.912662573158740997e-02 8.116849698126316071e-03 1.280262880027294159e-02
1.246000000000000000e+03 2.650909805297851562e+01 1.977173042297363281e+01 7.594025693833827972e-03 1.774653792381286621e-02 7.602169178426265717e-03 1.208426244556903839e-02
1.247000000000000000e+03 1.607764244079589844e+01 9.373046875000000000e+00 1.694511063396930695e-02 8.084723353385925293e-02 2.933770418167114258e-02 3.504716977477073669e-02
1.248000000000000000e+03 3.260072326660156250e+01 2.645925903320312500e+01 2.799246227368712425e-03 9.835631586611270905e-03 3.790463553741574287e-03 5.909177474677562714e-03
1.249000000000000000e+03 3.343856430053710938e+01 2.724934768676757812e+01 2.543417504057288170e-03 9.069057181477546692e-03 3.483742242678999901e-03 5.378214642405509949e-03
1.250000000000000000e+03 3.219574356079101562e+01 2.595244407653808594e+01 3.033339045941829681e-03 1.014011446386575699e-02 3.952036146074533463e-03 6.243050098419189453e-03
1.251000000000000000e+03 2.157142639160156250e+01 1.461315345764160156e+01 1.388544868677854538e-02 3.087322600185871124e-02 1.342760212719440460e-02 2.056801132857799530e-02
1.252000000000000000e+03 2.616721343994140625e+01 1.954693603515625000e+01 7.533997297286987305e-03 1.835348084568977356e-02 7.766243070363998413e-03 1.248656865209341049e-02
1.253000000000000000e+03 3.156290435791015625e+01 2.503535652160644531e+01 3.572922199964523315e-03 1.052801217883825302e-02 4.230280406773090363e-03 6.942492444068193436e-03
1.254000000000000000e+03 2.792090606689453125e+01 2.211877250671386719e+01 4.806678742170333862e-03 1.541571691632270813e-02 6.066718604415655136e-03 9.760561399161815643e-03
1.255000000000000000e+03 2.000453567504882812e+01 1.344045734405517578e+01 1.406900305300951004e-02 3.729204460978507996e-02 1.540831383317708969e-02 2.371491678059101105e-02
1.256000000000000000e+03 2.458230972290039062e+01 1.841061210632324219e+01 8.122464641928672791e-03 2.164780534803867340e-02 8.931081742048263550e-03 1.413204241544008255e-02
1.257000000000000000e+03 2.493540382385253906e+01 1.774505996704101562e+01 1.031486131250858307e-02 2.054762840270996094e-02 9.258747100830078125e-03 1.496512349694967270e-02
1.258000000000000000e+03 3.440029144287109375e+01 2.863259887695312500e+01 1.887940219603478909e-03 8.415282703936100006e-03 3.090966958552598953e-03 4.603739827871322632e-03
1.259000000000000000e+03 1.893707656860351562e+01 1.306269645690917969e+01 1.209997758269309998e-02 4.344221949577331543e-02 1.666265912353992462e-02 2.427102066576480865e-02
1.260000000000000000e+03 1.415840244293212891e+01 7.324150085449218750e+00 9.945404715836048126e-03 1.484588086605072021e-01 4.752126708626747131e-02 2.571591362357139587e-02
1.261000000000000000e+03 1.361456203460693359e+01 7.304146289825439453e+00 6.307671777904033661e-03 1.586526483297348022e-01 4.948809742927551270e-02 8.441444486379623413e-03
1.262000000000000000e+03 3.025650215148925781e+01 2.394763755798339844e+01 3.991826903074979782e-03 1.198381371796131134e-02 4.792692139744758606e-03 7.977709174156188965e-03
1.263000000000000000e+03 1.945722579956054688e+01 1.324606800079345703e+01 1.327120885252952576e-02 4.008957743644714355e-02 1.600823551416397095e-02 2.420129068195819855e-02
1.264000000000000000e+03 2.263295936584472656e+01 1.662554740905761719e+01 9.271388873457908630e-03 2.715802006423473358e-02 1.092882268130779266e-02 1.711180619895458221e-02
1.265000000000000000e+03 2.176224708557128906e+01 1.514086246490478516e+01 1.207826752215623856e-02 3.035714849829673767e-02 1.273062452673912048e-02 1.950512640178203583e-02
1.266000000000000000e+03 3.301155471801757812e+01 2.692168617248535156e+01 2.559795742854475975e-03 9.519277140498161316e-03 3.623721888288855553e-03 5.580076482146978378e-03
1.267000000000000000e+03 2.953389358520507812e+01 2.306459045410156250e+01 4.569291602820158005e-03 1.296378485858440399e-02 5.259922705590724945e-03 8.739543147385120392e-03
1.268000000000000000e+03 1.500007343292236328e+01 7.628467082977294922e+00 1.874471642076969147e-02 1.215507835149765015e-01 4.208865016698837280e-02 4.071819409728050232e-02
1.269000000000000000e+03 2.239716148376464844e+01 1.626606750488281250e+01 1.006521098315715790e-02 2.800227887928485870e-02 1.142024621367454529e-02 1.747122406959533691e-02
1.270000000000000000e+03 2.214241027832031250e+01 1.590777778625488281e+01 1.032794266939163208e-02 2.885776758193969727e-02 1.175571326166391373e-02 1.824265904724597931e-02
1.271000000000000000e+03 1.708482551574707031e+01 1.116237735748291016e+01 1.257404591888189316e-02 6.023198738694190979e-02 2.184181101620197296e-02 2.881093136966228485e-02
1.272000000000000000e+03 3.491198348999023438e+01 2.901371002197265625e+01 1.774755772203207016e-03 7.967379875481128693e-03 2.922640647739171982e-03 4.311959259212017059e-03
1.273000000000000000e+03 1.542833328247070312e+01 9.181776046752929688e+00 1.337871141731739044e-02 9.106458723545074463e-02 3.133298829197883606e-02 3.173261508345603943e-02
1.274000000000000000e+03 1.671280860900878906e+01 9.828040122985839844e+00 1.862434297800064087e-02 6.935286521911621094e-02 2.639316394925117493e-02 3.458035364747047424e-02
1.275000000000000000e+03 3.095375823974609375e+01 2.515147781372070312e+01 3.164606634527444839e-03 1.147409807890653610e-02 4.391611088067293167e-03 7.059333845973014832e-03
1.276000000000000000e+03 1.422327136993408203e+01 8.078278541564941406e+00 8.505218662321567535e-03 1.297984868288040161e-01 4.149111360311508179e-02 2.004702389240264893e-02
1.277000000000000000e+03 1.407486534118652344e+01 7.821671485900878906e+00 7.554537151008844376e-03 1.356691867113113403e-01 4.296711459755897522e-02 1.926954276859760284e-02
1.278000000000000000e+03 1.324956893920898438e+01 6.081061363220214844e+00 1.171079464256763458e-02 2.216130197048187256e-01 6.999713927507400513e-02 -1.470397971570491791e-02
1.279000000000000000e+03 8.752833366394042969e+00 6.350609779357910156e+00 8.327034860849380493e-02 -2.532282844185829163e-02 1.738425530493259430e-02 -3.006725572049617767e-02
1.280000000000000000e+03 3.008808708190917969e+01 2.360321235656738281e+01 4.227010067552328110e-03 1.216441672295331955e-02 4.917427897453308105e-03 8.190152235329151154e-03
1.281000000000000000e+03 3.064049911499023438e+01 2.372811317443847656e+01 4.387022927403450012e-03 1.133688446134328842e-02 4.717172123491764069e-03 7.973682135343551636e-03
1.282000000000000000e+03 6.619669437408447266e+00 7.700428009033203125e+00 4.390783607959747314e-02 -2.945285663008689880e-02 4.336494021117687225e-03 -5.535770207643508911e-03
1.283000000000000000e+03 4.164348983764648438e+01 3.451103591918945312e+01 2.079111873172223568e-04 2.141244942322373390e-03 7.047468097880482674e-04 1.132574980147182941e-03
1.284000000000000000e+03 3.929792022705078125e+01 3.399115371704101562e+01 5.309775224304758012e-05 4.409860819578170776e-03 1.338887610472738743e-03 1.803539111278951168e-03
1.285000000000000000e+03 1.248718357086181641e+01 5.569800376892089844e+00 4.641315713524818420e-02 2.230897545814514160e-01 8.085087686777114868e-02 -8.862652629613876343e-02
1.286000000000000000e+03 7.486360073089599609e+00 5.537804126739501953e+00 6.883753836154937744e-02 -5.513498932123184204e-02 4.110765643417835236e-03 1.306310668587684631e-02
1.287000000000000000e+03 6.950687408447265625e+00 7.029991149902343750e+00 5.258250236511230469e-02 -3.833153098821640015e-02 4.275291226804256439e-03 -2.134514041244983673e-03
1.288000000000000000e+03 3.644366455078125000e+01 3.053946304321289062e+01 1.136461505666375160e-03 6.663605570793151855e-03 2.340020146220922470e-03 3.422411158680915833e-03
1.289000000000000000e+03 8.880313873291015625e+00 7.876004695892333984e+00 5.300554633140563965e-02 7.294595707207918167e-03 1.809004321694374084e-02 -3.757327795028686523e-02
1.290000000000000000e+03 1.185056400299072266e+01 5.425066947937011719e+00 8.744080364704132080e-02 1.521324962377548218e-01 7.187198847532272339e-02 -1.173475906252861023e-01
1.291000000000000000e+03 9.395611763000488281e+00 5.598695755004882812e+00 1.077465787529945374e-01 -2.922221831977367401e-02 2.355730719864368439e-02 -4.125590622425079346e-02
1.292000000000000000e+03 4.199081802368164062e+01 3.609781265258789062e+01 -1.889567647594958544e-05 2.441900549456477165e-03 7.269014604389667511e-04 1.042018528096377850e-03
1.293000000000000000e+03 3.821680831909179688e+01 3.307403182983398438e+01 1.878323091659694910e-04 5.403549410402774811e-03 1.677414518781006336e-03 2.339863916859030724e-03
1.294000000000000000e+03 3.736843872070312500e+01 3.200250244140625000e+01 5.765819223597645760e-04 5.885571707040071487e-03 1.938646193593740463e-03 2.822056878358125687e-03
1.295000000000000000e+03 3.857815933227539062e+01 3.450890731811523438e+01 -2.192216779803857207e-04 5.254065617918968201e-03 1.510453177616000175e-03 1.906026271171867847e-03
1.296000000000000000e+03 7.720789432525634766e+00 9.777819633483886719e+00 2.651842124760150909e-02 3.652439219877123833e-03 9.051258675754070282e-03 -2.427540533244609833e-02
1.297000000000000000e+03 1.091176509857177734e+01 5.511260509490966797e+00 1.102978363633155823e-01 5.126355588436126709e-02 4.846841841936111450e-02 -9.182960540056228638e-02
1.298000000000000000e+03 3.997875595092773438e+01 3.455815887451171875e+01 6.094889977248385549e-05 3.724107053130865097e-03 1.135516795329749584e-03 1.569858635775744915e-03
1.299000000000000000e+03 8.356398582458496094e+00 1.757106781005859375e+01 -5.428252741694450378e-03 1.719026640057563782e-02 3.528604051098227501e-03 -1.651866361498832703e-02
1.300000000000000000e+03 7.048851966857910156e+00 2.345287895202636719e+01 -4.895624238997697830e-03 7.165508810430765152e-03 6.809653714299201965e-04 -1.147929858416318893e-02
1.301000000000000000e+03 8.887543678283691406e+00 2.533598709106445312e+01 -5.581570323556661606e-03 1.301293913275003433e-02 2.229410456493496895e-03 -9.460349567234516144e-03
1.302000000000000000e+03 6.851208209991455078e+00 2.138330650329589844e+01 -4.944012034684419632e-03 7.097073830664157867e-03 6.459185387939214706e-04 -1.351560652256011963e-02
1.303000000000000000e+03 1.215155410766601562e+01 8.580269813537597656e+00 1.092115789651870728e-02 1.082014292478561401e-01 3.573677688837051392e-02 -2.850563637912273407e-02
1.304000000000000000e+03 6.823364734649658203e+00 1.079359531402587891e+01 1.782278902828693390e-02 -3.209260292351245880e-03 4.384058993309736252e-03 -1.975018158555030823e-02
1.305000000000000000e+03 7.545972347259521484e+00 2.194609451293945312e+01 -5.740013439208269119e-03 9.460749104619026184e-03 1.116220722906291485e-03 -1.260443963110446930e-02
1.306000000000000000e+03 8.102333068847656250e+00 1.422245025634765625e+01 -1.586766884429380298e-04 1.722636260092258453e-02 5.120305810123682022e-03 -2.021691761910915375e-02
1.307000000000000000e+03 3.986800003051757812e+01 4.022625350952148438e+01 -7.244804874062538147e-04 4.702158272266387939e-03 1.193303265608847141e-03 5.428979638963937759e-04
1.308000000000000000e+03 7.185150623321533203e+00 1.883432388305664062e+01 -5.225055385380983353e-03 8.799160830676555634e-03 1.072231447324156761e-03 -1.573771052062511444e-02
1.309000000000000000e+03 8.157586097717285156e+00 2.028458023071289062e+01 -6.312794983386993408e-03 1.359959226101636887e-02 2.186038997024297714e-03 -1.388942077755928040e-02
1.310000000000000000e+03 9.414026260375976562e+00 2.665596008300781250e+01 -5.807707551866769791e-03 1.345513295382261276e-02 2.294227480888366699e-03 -8.260756731033325195e-03
1.311000000000000000e+03 8.336493492126464844e+00 1.550246524810791016e+01 -2.652332419529557228e-03 1.874046958982944489e-02 4.826440941542387009e-03 -1.912644691765308380e-02
1.312000000000000000e+03 1.005568695068359375e+01 6.756309509277343750e+00 7.142271101474761963e-02 2.884037606418132782e-02 3.007892519235610962e-02 -5.746283009648323059e-02
1.313000000000000000e+03 3.326918792724609375e+01 2.805535507202148438e+01 1.822959282435476780e-03 9.468764998018741608e-03 3.387517295777797699e-03 5.058301147073507309e-03
1.314000000000000000e+03 1.503576660156250000e+01 8.655000686645507812e+00 1.252590492367744446e-02 1.037818789482116699e-01 3.489233553409576416e-02 3.166075423359870911e-02
1.315000000000000000e+03 1.615148353576660156e+01 9.922134399414062500e+00 1.433641463518142700e-02 7.692740112543106079e-02 2.737914584577083588e-02 3.179400041699409485e-02
1.316000000000000000e+03 2.770331954956054688e+01 2.170895385742187500e+01 5.269371438771486282e-03 1.572337374091148376e-02 6.297823041677474976e-03 1.014937926083803177e-02
1.317000000000000000e+03 2.436119842529296875e+01 1.809694480895996094e+01 8.714790455996990204e-03 2.218097075819969177e-02 9.268729016184806824e-03 1.458510383963584900e-02
1.318000000000000000e+03 2.246018028259277344e+01 1.727360153198242188e+01 7.483236026018857956e-03 2.756040543317794800e-02 1.051309239119291306e-02 1.599938608705997467e-02
1.319000000000000000e+03 2.795935630798339844e+01 2.122185134887695312e+01 6.232541054487228394e-03 1.501659583300352097e-02 6.374740973114967346e-03 1.045488007366657257e-02
1.320000000000000000e+03 2.547746849060058594e+01 1.892642784118652344e+01 8.123355917632579803e-03 1.972626149654388428e-02 8.354884572327136993e-03 1.330264005810022354e-02
1.321000000000000000e+03 1.675982284545898438e+01 1.036120223999023438e+01 1.554451324045658112e-02 6.707183271646499634e-02 2.478490397334098816e-02 3.161994740366935730e-02
1.322000000000000000e+03 1.582256889343261719e+01 9.719165802001953125e+00 1.292963977903127670e-02 8.114038407802581787e-02 2.822100743651390076e-02 3.179334476590156555e-02
1.323000000000000000e+03 3.306611633300781250e+01 2.737715911865234375e+01 2.245743060484528542e-03 9.516516700387001038e-03 3.528678091242909431e-03 5.379902198910713196e-03
1.324000000000000000e+03 3.334652709960937500e+01 2.761426162719726562e+01 2.146619372069835663e-03 9.304231032729148865e-03 3.435255028307437897e-03 5.270554684102535248e-03
1.325000000000000000e+03 2.716804695129394531e+01 2.142461776733398438e+01 5.277797114104032516e-03 1.670928299427032471e-02 6.596123799681663513e-03 1.053882017731666565e-02
1.326000000000000000e+03 2.649114227294921875e+01 2.114708518981933594e+01 5.091860424727201462e-03 1.801871694624423981e-02 6.933173164725303650e-03 1.089755538851022720e-02
1.327000000000000000e+03 2.712152290344238281e+01 2.100965881347656250e+01 5.855180788785219193e-03 1.681410893797874451e-02 6.800787057727575302e-03 1.087474264204502106e-02
1.328000000000000000e+03 2.382982063293457031e+01 1.796409225463867188e+01 8.293475024402141571e-03 2.356274239718914032e-02 9.556865319609642029e-03 1.487583201378583908e-02
1.329000000000000000e+03 2.095010566711425781e+01 1.480342197418212891e+01 1.177693158388137817e-02 3.331960365176200867e-02 1.352896075695753098e-02 2.013836428523063660e-02
1.330000000000000000e+03 2.188365554809570312e+01 1.553359985351562500e+01 1.135861687362194061e-02 2.981548570096492767e-02 1.235223002731800079e-02 1.878517866134643555e-02
1.331000000000000000e+03 1.907519721984863281e+01 1.344497203826904297e+01 1.127446535974740982e-02 4.252243787050247192e-02 1.613907143473625183e-02 2.301716804504394531e-02
1.332000000000000000e+03 1.757668495178222656e+01 1.325059127807617188e+01 6.248840130865573883e-03 5.122956261038780212e-02 1.724351942539215088e-02 2.112568542361259460e-02
1.333000000000000000e+03 1.836983680725097656e+01 1.218223953247070312e+01 1.350987982004880905e-02 4.776939749717712402e-02 1.838378235697746277e-02 2.717967517673969269e-02
1.334000000000000000e+03 2.054027366638183594e+01 1.454435729980468750e+01 1.143808383494615555e-02 3.469800204038619995e-02 1.384082622826099396e-02 2.096428908407688141e-02
1.335000000000000000e+03 2.135962486267089844e+01 1.504262447357177734e+01 1.165088359266519547e-02 3.136492893099784851e-02 1.290474366396665573e-02 1.981951482594013214e-02
1.336000000000000000e+03 2.488042640686035156e+01 1.859363365173339844e+01 8.258393034338951111e-03 2.103621885180473328e-02 8.788383565843105316e-03 1.375652570277452469e-02
1.337000000000000000e+03 2.482084465026855469e+01 1.823113822937011719e+01 9.092101827263832092e-03 2.093544043600559235e-02 9.008263237774372101e-03 1.437036413699388504e-02
1.338000000000000000e+03 1.705850219726562500e+01 1.059702682495117188e+01 1.554069016128778458e-02 6.193939223885536194e-02 2.324402518570423126e-02 3.153890371322631836e-02
1.339000000000000000e+03 1.493283748626708984e+01 9.199322700500488281e+00 8.238107897341251373e-03 9.932830929756164551e-02 3.226992487907409668e-02 2.567996270954608917e-02
1.340000000000000000e+03 3.267719268798828125e+01 2.820056915283203125e+01 1.497732708230614662e-03 1.010498031973838806e-02 3.480813931673765182e-03 5.168322473764419556e-03
1.341000000000000000e+03 3.122161293029785156e+01 2.640394020080566406e+01 2.196495421230792999e-03 1.141501683741807938e-02 4.083453677594661713e-03 6.388445850461721420e-03
1.342000000000000000e+03 2.984225845336914062e+01 2.334656524658203125e+01 4.290085285902023315e-03 1.257349085062742233e-02 5.059072747826576233e-03 8.451599627733230591e-03
1.343000000000000000e+03 3.174683189392089844e+01 2.596482467651367188e+01 2.821525093168020248e-03 1.056075096130371094e-02 4.014682956039905548e-03 6.385745014995336533e-03
1.344000000000000000e+03 2.882826805114746094e+01 2.295918464660644531e+01 4.301263485103845596e-03 1.411064062267541885e-02 5.523571278899908066e-03 9.004835970699787140e-03
1.345000000000000000e+03 2.525553703308105469e+01 1.851002502441406250e+01 8.871768601238727570e-03 2.009792439639568329e-02 8.690907619893550873e-03 1.381755154579877853e-02
1.346000000000000000e+03 1.961699295043945312e+01 1.359953403472900391e+01 1.250475365668535233e-02 3.936884179711341858e-02 1.556207891553640366e-02 2.296081371605396271e-02
1.347000000000000000e+03 1.770982170104980469e+01 1.105838584899902344e+01 1.603102870285511017e-02 5.474540591239929199e-02 2.123292908072471619e-02 3.079536929726600647e-02
1.348000000000000000e+03 1.868925285339355469e+01 1.247286224365234375e+01 1.392992213368415833e-02 4.556590318679809570e-02 1.784874685108661652e-02 2.574597485363483429e-02
1.349000000000000000e+03 2.111985015869140625e+01 1.549150466918945312e+01 1.004003174602985382e-02 3.247978538274765015e-02 1.275594439357519150e-02 1.870564743876457214e-02
1.350000000000000000e+03 2.860658454895019531e+01 2.243823432922363281e+01 4.825015086680650711e-03 1.435724925249814987e-02 5.754679441452026367e-03 9.383959695696830750e-03
1.351000000000000000e+03 3.258312988281250000e+01 2.755780220031738281e+01 1.910559833049774170e-03 1.014961767941713333e-02 3.618053160607814789e-03 5.442833993583917618e-03
1.352000000000000000e+03 3.255856704711914062e+01 2.698371315002441406e+01 2.342608058825135231e-03 1.000957749783992767e-02 3.705655690282583237e-03 5.750271026045084000e-03
1.353000000000000000e+03 2.204139900207519531e+01 1.653306007385253906e+01 8.517609909176826477e-03 2.901036106050014496e-02 1.125839073210954666e-02 1.715798303484916687e-02
1.354000000000000000e+03 2.178651428222656250e+01 1.617423629760742188e+01 9.300079196691513062e-03 2.996916696429252625e-02 1.178077422082424164e-02 1.749689690768718719e-02
1.355000000000000000e+03 3.563083648681640625e+01 3.020247268676757812e+01 1.112362137064337730e-03 7.520741317421197891e-03 2.589931013062596321e-03 3.771173767745494843e-03
1.356000000000000000e+03 3.439419174194335938e+01 2.907148551940917969e+01 1.486029359512031078e-03 8.541197516024112701e-03 3.008168190717697144e-03 4.443708807229995728e-03
1.357000000000000000e+03 3.437252044677734375e+01 2.960351753234863281e+01 1.191730611026287079e-03 8.699593134224414825e-03 2.967396983876824379e-03 4.256336484104394913e-03
1.358000000000000000e+03 1.302250194549560547e+01 7.337432861328125000e+00 9.198109619319438934e-03 1.536496877670288086e-01 4.885433986783027649e-02 -1.511467900127172470e-02
1.359000000000000000e+03 1.312286949157714844e+01 6.695579051971435547e+00 1.093705464154481888e-02 1.831202656030654907e-01 5.821719765663146973e-02 -1.688268594443798065e-02
1.360000000000000000e+03 2.416421890258789062e+01 1.773576545715332031e+01 9.113487787544727325e-03 2.257743477821350098e-02 9.507277049124240875e-03 1.521143782883882523e-02
1.361000000000000000e+03 2.448099517822265625e+01 1.754944801330566406e+01 1.017735898494720459e-02 2.161861211061477661e-02 9.538791142404079437e-03 1.537022180855274200e-02
1.362000000000000000e+03 1.622547149658203125e+01 1.041698169708251953e+01 1.204323954880237579e-02 7.278838008642196655e-02 2.544948644936084747e-02 2.920709922909736633e-02
1.363000000000000000e+03 1.640130043029785156e+01 9.602934837341308594e+00 1.755299791693687439e-02 7.309264689683914185e-02 2.719369158148765564e-02 3.545679152011871338e-02
1.364000000000000000e+03 3.047228050231933594e+01 2.466455841064453125e+01 3.365590935572981834e-03 1.201843749731779099e-02 4.615208599716424942e-03 7.488103117793798447e-03
1.365000000000000000e+03 3.499066925048828125e+01 2.959100341796875000e+01 1.365841482765972614e-03 8.021471090614795685e-03 2.816193737089633942e-03 4.137271083891391754e-03
1.366000000000000000e+03 1.677013969421386719e+01 1.149822330474853516e+01 1.004803925752639771e-02 6.257155537605285645e-02 2.178587764501571655e-02 2.567469887435436249e-02
1.367000000000000000e+03 1.677164840698242188e+01 1.091349315643310547e+01 1.275932695716619492e-02 6.494840979576110840e-02 2.331232093274593353e-02 2.871732227504253387e-02
1.368000000000000000e+03 1.331033992767333984e+01 7.619153976440429688e+00 7.672976702451705933e-03 1.481319069862365723e-01 4.674146696925163269e-02 -4.729826934635639191e-03
1.369000000000000000e+03 1.386019897460937500e+01 7.570305824279785156e+00 9.151866659522056580e-03 1.463873833417892456e-01 4.666177183389663696e-02 1.352442242205142975e-02
1.370000000000000000e+03 1.438697910308837891e+01 8.292165756225585938e+00 8.538601920008659363e-03 1.197706013917922974e-01 3.849276155233383179e-02 2.445463649928569794e-02
1.371000000000000000e+03 1.449901008605957031e+01 7.970931529998779297e+00 1.025815308094024658e-02 1.261539906263351440e-01 4.092364385724067688e-02 2.851365506649017334e-02
1.372000000000000000e+03 1.648203849792480469e+01 1.066073989868164062e+01 1.203746814280748367e-02 6.791982799768447876e-02 2.398718707263469696e-02 2.920387871563434601e-02
1.373000000000000000e+03 2.930036354064941406e+01 2.477533340454101562e+01 2.541435183957219124e-03 1.371486391872167587e-02 4.876889754086732864e-03 7.789972703903913498e-03
1.374000000000000000e+03 3.874586105346679688e+01 3.243537139892578125e+01 6.032100645825266838e-04 4.617067985236644745e-03 1.566083403304219246e-03 2.322054002434015274e-03
1.375000000000000000e+03 3.042339134216308594e+01 2.429594993591308594e+01 3.715418744832277298e-03 1.192408800125122070e-02 4.691852256655693054e-03 7.807662710547447205e-03
1.376000000000000000e+03 3.037570953369140625e+01 2.512703323364257812e+01 2.831979189068078995e-03 1.223087776452302933e-02 4.518856760114431381e-03 7.318657822906970978e-03
1.377000000000000000e+03 2.985994911193847656e+01 2.416125679016113281e+01 3.440664149820804596e-03 1.281830668449401855e-02 4.877691157162189484e-03 7.999664172530174255e-03
1.378000000000000000e+03 7.410361289978027344e+00 6.590289115905761719e+00 6.362729519605636597e-02 -3.853057324886322021e-02 7.529017049819231033e-03 -4.857412073761224747e-03
1.379000000000000000e+03 3.371519088745117188e+01 2.803435134887695312e+01 2.058230573311448097e-03 8.896841667592525482e-03 3.286521881818771362e-03 4.997917916625738144e-03
1.380000000000000000e+03 1.832647323608398438e+01 1.281461429595947266e+01 1.075879856944084167e-02 4.711751639842987061e-02 1.736289449036121368e-02 2.454450726509094238e-02
1.381000000000000000e+03 1.741230773925781250e+01 1.140588188171386719e+01 1.348672434687614441e-02 5.740464106202125549e-02 2.126741036772727966e-02 2.822453901171684265e-02
1.382000000000000000e+03 3.667143249511718750e+01 3.148443794250488281e+01 5.951083730906248093e-04 6.749603431671857834e-03 2.203413518145680428e-03 3.090005367994308472e-03
1.383000000000000000e+03 3.930941390991210938e+01 3.538048553466796875e+01 -2.756066387519240379e-04 4.638603422790765762e-03 1.308899023570120335e-03 1.553217647597193718e-03
1.384000000000000000e+03 3.506117630004882812e+01 3.176284790039062500e+01 2.432370820315554738e-05 8.527730591595172882e-03 2.565616508945822716e-03 3.393906168639659882e-03
1.385000000000000000e+03 8.066693305969238281e+00 6.417841434478759766e+00 7.146635651588439941e-02 -3.600198030471801758e-02 1.063931360840797424e-02 -1.334713678807020187e-02
1.386000000000000000e+03 7.322430133819580078e+00 7.927894115447998047e+00 4.785607010126113892e-02 -2.210580743849277496e-02 7.725079543888568878e-03 -1.604348048567771912e-02
1.387000000000000000e+03 3.207715225219726562e+01 2.699451446533203125e+01 2.222266979515552521e-03 1.053613796830177307e-02 3.827521577477455139e-03 5.870692431926727295e-03
1.388000000000000000e+03 1.161675930023193359e+01 6.115473270416259766e+00 6.530734896659851074e-02 1.244409382343292236e-01 5.692448839545249939e-02 -9.068945050239562988e-02
1.389000000000000000e+03 1.205583858489990234e+01 5.839972972869873047e+00 5.760167911648750305e-02 1.676173806190490723e-01 6.756571680307388306e-02 -9.085446596145629883e-02
1.390000000000000000e+03 3.167884254455566406e+01 2.554298591613769531e+01 3.147756215184926987e-03 1.064862869679927826e-02 4.138915333896875381e-03 6.633800920099020004e-03
1.391000000000000000e+03 4.119482803344726562e+01 3.553253555297851562e+01 -1.936840817506890744e-05 2.878817729651927948e-03 8.578348206356167793e-04 1.254542963579297066e-03
1.392000000000000000e+03 9.974434852600097656e+00 6.161898136138916016e+00 9.175819158554077148e-02 1.325676962733268738e-02 3.150448948144912720e-02 -6.158810108900070190e-02
1.393000000000000000e+03 9.449290275573730469e+00 6.931844234466552734e+00 7.121402025222778320e-02 9.124116972088813782e-03 2.410143986344337463e-02 -4.769451543688774109e-02
1.394000000000000000e+03 1.051113605499267578e+01 6.056077003479003906e+00 9.049263596534729004e-02 3.806806728243827820e-02 3.856821358203887939e-02 -7.305528968572616577e-02
1.395000000000000000e+03 8.609757423400878906e+00 9.112375259399414062e+00 3.458964824676513672e-02 1.457278802990913391e-02 1.474873069673776627e-02 -3.233363851904869080e-02
1.396000000000000000e+03 7.709225654602050781e+00 1.073836708068847656e+01 1.971462927758693695e-02 7.266297936439514160e-03 8.094278164207935333e-03 -2.477258816361427307e-02
1.397000000000000000e+03 7.864568233489990234e+00 1.178892517089843750e+01 1.099255401641130447e-02 1.278980728238821030e-02 7.134708110243082047e-03 -2.328527346253395081e-02
1.398000000000000000e+03 9.315593719482421875e+00 1.888559341430664062e+01 -7.272747810930013657e-03 2.061227895319461823e-02 4.001859109848737717e-03 -1.370461471378803253e-02
1.399000000000000000e+03 8.277556419372558594e+00 1.895822143554687500e+01 -6.172573659569025040e-03 1.445397641509771347e-02 2.484420780092477798e-03 -1.524355076253414154e-02
1.400000000000000000e+03 3.875831222534179688e+01 3.298066329956054688e+01 3.511112590786069632e-04 4.773228429257869720e-03 1.537301926873624325e-03 2.167772501707077026e-03
1.401000000000000000e+03 3.592720413208007812e+01 3.159045028686523438e+01 3.491253592073917389e-04 7.502179592847824097e-03 2.355391392484307289e-03 3.285686718299984932e-03
1.402000000000000000e+03 7.922706604003906250e+00 8.876893043518066406e+00 3.901023045182228088e-02 -1.762037398293614388e-03 1.117445807904005051e-02 -2.663665637373924255e-02
1.403000000000000000e+03 9.216983795166015625e+00 1.782176971435546875e+01 -6.310074124485254288e-03 2.149764634668827057e-02 4.556271713227033615e-03 -1.511188410222530365e-02
1.404000000000000000e+03 7.985977172851562500e+00 2.299448013305664062e+01 -5.547981243580579758e-03 1.123802643269300461e-02 1.707013463601469994e-03 -1.166404224932193756e-02
1.405000000000000000e+03 1.000518512725830078e+01 2.811046600341796875e+01 -5.356521345674991608e-03 1.415716484189033508e-02 2.640193095430731773e-03 -7.094422355294227600e-03
1.406000000000000000e+03 8.635667800903320312e+00 2.881591987609863281e+01 -4.624665714800357819e-03 1.111419964581727982e-02 1.946860109455883503e-03 -7.142643909901380539e-03
1.407000000000000000e+03 9.954777717590332031e+00 2.465093231201171875e+01 -6.821376737207174301e-03 1.608206517994403839e-02 2.778206719085574150e-03 -9.137243032455444336e-03
1.408000000000000000e+03 1.057650756835937500e+01 2.588604736328125000e+01 -6.473023910075426102e-03 1.686417125165462494e-02 3.117344342172145844e-03 -7.996957749128341675e-03
1.409000000000000000e+03 2.731523132324218750e+01 2.188932228088378906e+01 4.653201438486576080e-03 1.655384153127670288e-02 6.362113170325756073e-03 1.008999813348054886e-02
1.410000000000000000e+03 2.820862770080566406e+01 2.187161254882812500e+01 5.387299694120883942e-03 1.487672701478004456e-02 6.079208105802536011e-03 9.883665479719638824e-03
1.411000000000000000e+03 3.335706710815429688e+01 2.883334159851074219e+01 1.316106878221035004e-03 9.525744244456291199e-03 3.252555383369326591e-03 4.783682990819215775e-03
1.412000000000000000e+03 1.973990821838378906e+01 1.394438743591308594e+01 1.143122836947441101e-02 3.861901164054870605e-02 1.501507218927145004e-02 2.216677367687225342e-02
1.413000000000000000e+03 1.942920494079589844e+01 1.410070323944091797e+01 1.017697155475616455e-02 4.024861752986907959e-02 1.512767653912305832e-02 2.135913260281085968e-02
1.414000000000000000e+03 2.146669769287109375e+01 1.645711708068847656e+01 7.750172633677721024e-03 3.081064112484455109e-02 1.156824454665184021e-02 1.719584688544273376e-02
1.415000000000000000e+03 1.592674732208251953e+01 1.026295185089111328e+01 1.045767962932586670e-02 7.599002122879028320e-02 2.593431062996387482e-02 2.821533754467964172e-02
1.416000000000000000e+03 1.541923809051513672e+01 9.679911613464355469e+00 9.592247195541858673e-03 8.706872910261154175e-02 2.899829298257827759e-02 2.802485972642898560e-02
1.417000000000000000e+03 2.010066032409667969e+01 1.437332153320312500e+01 1.113954558968544006e-02 3.692730143666267395e-02 1.442005392163991928e-02 2.103126607835292816e-02
1.418000000000000000e+03 8.749690055847167969e+00 1.140867233276367188e+01 1.222585886716842651e-02 2.492098324000835419e-02 1.114405225962400436e-02 -2.648083865642547607e-02
1.419000000000000000e+03 1.465392494201660156e+01 8.498489379882812500e+00 1.011927053332328796e-02 1.133588403463363647e-01 3.704343363642692566e-02 2.579520829021930695e-02
1.420000000000000000e+03 2.265682792663574219e+01 1.767059707641601562e+01 7.134913001209497452e-03 2.689467929303646088e-02 1.020887773483991623e-02 1.525798439979553223e-02
1.421000000000000000e+03 2.223896026611328125e+01 1.793413734436035156e+01 5.743265151977539062e-03 2.799498289823532104e-02 1.012147404253482819e-02 1.484257727861404419e-02
1.422000000000000000e+03 2.631650733947753906e+01 2.019232559204101562e+01 6.494628265500068665e-03 1.815389096736907959e-02 7.394555956125259399e-03 1.181675586849451065e-02
1.423000000000000000e+03 2.405727958679199219e+01 1.834514236450195312e+01 7.598853204399347305e-03 2.299784496426582336e-02 9.179009124636650085e-03 1.441539265215396881e-02
1.424000000000000000e+03 2.372086715698242188e+01 1.862880897521972656e+01 6.754715926945209503e-03 2.389027923345565796e-02 9.193498641252517700e-03 1.396859809756278992e-02
1.425000000000000000e+03 1.969816017150878906e+01 1.428618812561035156e+01 1.020409073680639267e-02 3.846549987792968750e-02 1.460087765008211136e-02 2.133847586810588837e-02
1.426000000000000000e+03 2.669316291809082031e+01 2.162085151672363281e+01 4.523027688264846802e-03 1.772537268698215485e-02 6.674520205706357956e-03 1.042925938963890076e-02
1.427000000000000000e+03 2.681473922729492188e+01 2.090818214416503906e+01 5.746351089328527451e-03 1.728077791631221771e-02 6.908138748258352280e-03 1.103862002491950989e-02
1.428000000000000000e+03 2.630316925048828125e+01 2.067373085021972656e+01 5.686550401151180267e-03 1.841609552502632141e-02 7.230793591588735580e-03 1.135581545531749725e-02
1.429000000000000000e+03 2.589239692687988281e+01 2.082774543762207031e+01 5.130892153829336166e-03 1.915566064417362213e-02 7.285966072231531143e-03 1.129227690398693085e-02
1.430000000000000000e+03 1.557223415374755859e+01 1.007731342315673828e+01 9.584730491042137146e-03 8.229292929172515869e-02 2.756329812109470367e-02 2.601979486644268036e-02
1.431000000000000000e+03 3.387734603881835938e+01 2.900172805786132812e+01 1.442061155103147030e-03 9.057183749973773956e-03 3.149773459881544113e-03 4.606399685144424438e-03
1.432000000000000000e+03 3.499047470092773438e+01 3.025049972534179688e+01 9.321384713985025883e-04 8.195094764232635498e-03 2.738170092925429344e-03 3.852392314001917839e-03
1.433000000000000000e+03 2.772999954223632812e+01 2.274200439453125000e+01 3.780355677008628845e-03 1.604340784251689911e-02 5.947129335254430771e-03 9.436728432774543762e-03
1.434000000000000000e+03 2.149235153198242188e+01 1.580723667144775391e+01 9.563278406858444214e-03 3.092290088534355164e-02 1.214585360139608383e-02 1.841817051172256470e-02
1.435000000000000000e+03 2.433429908752441406e+01 1.869773674011230469e+01 7.429906167089939117e-03 2.244169265031814575e-02 8.961479179561138153e-03 1.385104469954967499e-02
1.436000000000000000e+03 2.592484283447265625e+01 1.999445915222167969e+01 6.562488619238138199e-03 1.902269013226032257e-02 7.675553672015666962e-03 1.195726450532674789e-02
1.437000000000000000e+03 1.852903366088867188e+01 1.321284198760986328e+01 1.058822218328714371e-02 4.559265077114105225e-02 1.685426197946071625e-02 2.312891371548175812e-02
1.438000000000000000e+03 1.742123413085937500e+01 1.199973773956298828e+01 1.101200003176927567e-02 5.574379488825798035e-02 2.002673782408237457e-02 2.563360333442687988e-02
1.439000000000000000e+03 2.044252395629882812e+01 1.569078731536865234e+01 7.923657074570655823e-03 3.485739976167678833e-02 1.283431705087423325e-02 1.793594099581241608e-02
1.440000000000000000e+03 2.069742012023925781e+01 1.524983596801757812e+01 9.557865560054779053e-03 3.390955924987792969e-02 1.304022781550884247e-02 1.939241401851177216e-02
1.441000000000000000e+03 2.549674797058105469e+01 1.970783615112304688e+01 6.509636528789997101e-03 1.989494264125823975e-02 7.921373471617698669e-03 1.249577011913061142e-02
1.442000000000000000e+03 2.309072494506835938e+01 1.851074790954589844e+01 6.054568570107221603e-03 2.551354840397834778e-02 9.470434859395027161e-03 1.407773420214653015e-02
1.443000000000000000e+03 2.974742126464843750e+01 2.371889114379882812e+01 3.947409335523843765e-03 1.287089940160512924e-02 5.045492667704820633e-03 8.298567496240139008e-03
1.444000000000000000e+03 1.924324035644531250e+01 1.379763412475585938e+01 1.033091824501752853e-02 4.105573892593383789e-02 1.541599724441766739e-02 2.231360226869583130e-02
1.445000000000000000e+03 2.873807716369628906e+01 2.375992584228515625e+01 3.276813542470335960e-03 1.444584131240844727e-02 5.316796246916055679e-03 8.482657372951507568e-03
1.446000000000000000e+03 2.189335823059082031e+01 1.714458274841308594e+01 6.801430601626634598e-03 2.926272898912429810e-02 1.081924792379140854e-02 1.601999253034591675e-02
1.447000000000000000e+03 3.121052551269531250e+01 2.693203735351562500e+01 1.705621369183063507e-03 1.168840378522872925e-02 4.018207546323537827e-03 6.065735593438148499e-03
1.448000000000000000e+03 3.279633712768554688e+01 2.887242317199707031e+01 1.059773727320134640e-03 1.014336477965116501e-02 3.360941773280501366e-03 4.848408047109842300e-03
1.449000000000000000e+03 2.082945823669433594e+01 1.590635871887207031e+01 7.852492853999137878e-03 3.311794623732566833e-02 1.229113247245550156e-02 1.791759766638278961e-02
1.450000000000000000e+03 1.524563312530517578e+01 1.044316577911376953e+01 6.093773990869522095e-03 8.062335848808288574e-02 2.601514011621475220e-02 2.238849550485610962e-02
1.451000000000000000e+03 3.133541488647460938e+01 2.587536239624023438e+01 2.754601184278726578e-03 1.116776652634143829e-02 4.176710266619920731e-03 6.570407189428806305e-03
1.452000000000000000e+03 2.983231735229492188e+01 2.497528266906738281e+01 2.763887634500861168e-03 1.305078063160181046e-02 4.744400735944509506e-03 7.527002599090337753e-03
1.453000000000000000e+03 1.382205390930175781e+01 8.048177719116210938e+00 7.030085660517215729e-03 1.344025731086730957e-01 4.242979735136032104e-02 1.014969032257795334e-02
1.454000000000000000e+03 2.117429924011230469e+01 1.616009330749511719e+01 8.144214749336242676e-03 3.211289644241333008e-02 1.207713410258293152e-02 1.737418025732040405e-02
1.455000000000000000e+03 3.209516906738281250e+01 2.913033103942871094e+01 5.651976680383086205e-04 1.099849306046962738e-02 3.469107206910848618e-03 4.906689748167991638e-03
1.456000000000000000e+03 2.839721870422363281e+01 2.336043548583984375e+01 3.489474998787045479e-03 1.488298084586858749e-02 5.511736497282981873e-03 8.817974478006362915e-03
1.457000000000000000e+03 1.645528602600097656e+01 1.122696590423583984e+01 8.953432552516460419e-03 6.574957072734832764e-02 2.241090126335620880e-02 2.597917430102825165e-02
1.458000000000000000e+03 1.592201328277587891e+01 1.061354351043701172e+01 8.661172352731227875e-03 7.431259751319885254e-02 2.489213086664676666e-02 2.608842402696609497e-02
1.459000000000000000e+03 1.143895053863525391e+01 5.707640647888183594e+00 8.857128769159317017e-02 1.044097617268562317e-01 5.789431557059288025e-02 -9.840535372495651245e-02
1.460000000000000000e+03 1.288251590728759766e+01 6.369085311889648438e+00 1.866331137716770172e-02 1.963427960872650146e-01 6.450182944536209106e-02 -3.700330108404159546e-02
1.461000000000000000e+03 3.008575820922851562e+01 2.452855873107910156e+01 3.201040904968976974e-03 1.256685331463813782e-02 4.730368033051490784e-03 7.721300236880779266e-03
1.462000000000000000e+03 1.805740165710449219e+01 1.190349388122558594e+01 1.389079913496971130e-02 5.124029517173767090e-02 1.953932829201221466e-02 2.727515622973442078e-02
1.463000000000000000e+03 1.867950439453125000e+01 1.365186977386474609e+01 8.966607972979545593e-03 4.400105029344558716e-02 1.589029841125011444e-02 2.202296629548072815e-02
1.464000000000000000e+03 2.937086486816406250e+01 2.381147193908691406e+01 3.623876720666885376e-03 1.339656487107276917e-02 5.106132477521896362e-03 8.363389410078525543e-03
1.465000000000000000e+03 1.774083518981933594e+01 1.164769458770751953e+01 1.312999520450830460e-02 5.348123610019683838e-02 1.998336985707283020e-02 2.821102179586887360e-02
1.466000000000000000e+03 3.169295692443847656e+01 2.643205451965332031e+01 2.465068129822611809e-03 1.081043388694524765e-02 3.982650581747293472e-03 6.184151396155357361e-03
1.467000000000000000e+03 3.194586181640625000e+01 2.761147308349609375e+01 1.545010018162429333e-03 1.087039709091186523e-02 3.724622074514627457e-03 5.630851723253726959e-03
1.468000000000000000e+03 3.083885002136230469e+01 2.575508308410644531e+01 2.561677480116486549e-03 1.172142941504716873e-02 4.284931812435388565e-03 6.840909365564584732e-03
1.469000000000000000e+03 1.811063003540039062e+01 1.344118785858154297e+01 7.663466967642307281e-03 4.775045067071914673e-02 1.662417501211166382e-02 2.193111553788185120e-02
1.470000000000000000e+03 4.033759689331054688e+01 3.631631088256835938e+01 -1.926160766743123531e-04 3.717480693012475967e-03 1.057459390722215176e-03 1.263755024410784245e-03
1.471000000000000000e+03 3.825638198852539062e+01 3.372030639648437500e+01 -7.017825555521994829e-05 5.457907449454069138e-03 1.616318710148334503e-03 2.119750250130891800e-03
1.472000000000000000e+03 3.749073028564453125e+01 3.487362670898437500e+01 -5.954738589935004711e-04 6.504270713776350021e-03 1.772639108821749687e-03 2.090860856696963310e-03
1.473000000000000000e+03 3.163455772399902344e+01 2.692419433593750000e+01 2.018969273194670677e-03 1.091012917459011078e-02 3.878729417920112610e-03 5.969713907688856125e-03
1.474000000000000000e+03 3.578828430175781250e+01 3.084290695190429688e+01 7.341579766944050789e-04 7.518317550420761108e-03 2.475742716342210770e-03 3.474354976788163185e-03
1.475000000000000000e+03 2.906957435607910156e+01 2.894350624084472656e+01 -7.542960811406373978e-04 1.423881482332944870e-02 4.045355599373579025e-03 5.252296570688486099e-03
1.476000000000000000e+03 1.275940322875976562e+01 8.358410835266113281e+00 7.537172641605138779e-03 1.226044073700904846e-01 3.904247283935546875e-02 -1.743755303323268890e-02
1.477000000000000000e+03 1.125708961486816406e+01 5.361560821533203125e+00 1.103515699505805969e-01 8.955863118171691895e-02 5.997306108474731445e-02 -1.109338328242301941e-01
1.478000000000000000e+03 3.501369857788085938e+01 3.095787620544433594e+01 4.141960234846919775e-04 8.372411131858825684e-03 2.635982120409607887e-03 3.692832542583346367e-03
1.479000000000000000e+03 1.431914997100830078e+01 8.833626747131347656e+00 5.702227819710969925e-03 1.114286780357360840e-01 3.513927012681961060e-02 1.949172094464302063e-02
1.480000000000000000e+03 8.791419029235839844e+00 7.088856220245361328e+00 6.526125967502593994e-02 -8.020772598683834076e-03 1.717214658856391907e-02 -3.333206102252006531e-02
1.481000000000000000e+03 1.061652565002441406e+01 6.569785594940185547e+00 7.274800539016723633e-02 5.544976517558097839e-02 3.845933079719543457e-02 -7.157257199287414551e-02
1.482000000000000000e+03 1.095023441314697266e+01 7.561565399169921875e+00 4.146905243396759033e-02 7.720965147018432617e-02 3.560361266136169434e-02 -5.681341886520385742e-02
1.483000000000000000e+03 9.011113166809082031e+00 1.290729236602783203e+01 3.498737933114171028e-03 2.770099788904190063e-02 9.359920397400856018e-03 -2.211248129606246948e-02
1.484000000000000000e+03 9.793496131896972656e+00 2.000503158569335938e+01 -7.452093064785003662e-03 2.136444672942161560e-02 4.173705819994211197e-03 -1.262810640037059784e-02
1.485000000000000000e+03 9.394356727600097656e+00 2.350363922119140625e+01 -6.542556919157505035e-03 1.580573618412017822e-02 2.778953639790415764e-03 -1.047064177691936493e-02
1.486000000000000000e+03 3.737392425537109375e+01 3.376912307739257812e+01 -2.990727662108838558e-04 6.464553065598011017e-03 1.849644118919968605e-03 2.421416109427809715e-03
1.487000000000000000e+03 9.926131248474121094e+00 1.289311885833740234e+01 1.694200676865875721e-03 3.840047121047973633e-02 1.202840078622102737e-02 -2.126300707459449768e-02
1.488000000000000000e+03 8.093458175659179688e+00 8.007467269897460938e+00 4.792166501283645630e-02 -6.159922108054161072e-03 1.252852287143468857e-02 -2.619239315390586853e-02
1.489000000000000000e+03 9.073590278625488281e+00 1.399063014984130859e+01 -3.980698238592594862e-04 2.663509361445903778e-02 7.871107198297977448e-03 -2.050471305847167969e-02
1.490000000000000000e+03 8.868388175964355469e+00 1.650265312194824219e+01 -5.593126174062490463e-03 2.079674415290355682e-02 4.561085253953933716e-03 -1.666829921305179596e-02
1.491000000000000000e+03 8.863409042358398438e+00 2.242042350769042969e+01 -6.683164741843938828e-03 1.427023764699697495e-02 2.276121871545910835e-03 -1.164092402905225754e-02
1.492000000000000000e+03 3.667736816406250000e+01 4.134278869628906250e+01 -1.545148668810725212e-03 7.328580133616924286e-03 1.735029509291052818e-03 3.284970589447766542e-04
1.493000000000000000e+03 9.799175262451171875e+00 1.149648761749267578e+01 9.155021980404853821e-03 3.983556106686592102e-02 1.469717454165220261e-02 -2.567233145236968994e-02
1.494000000000000000e+03 2.205563545227050781e+01 1.752807044982910156e+01 6.454488262534141541e-03 2.861340530216693878e-02 1.052036788314580917e-02 1.528985705226659775e-02
1.495000000000000000e+03 2.556001091003417969e+01 2.152887916564941406e+01 3.633273532614111900e-03 1.983639039099216461e-02 7.040899246931076050e-03 1.058076787739992142e-02
1.496000000000000000e+03 2.508072090148925781e+01 1.935951805114746094e+01 6.980068515986204147e-03 2.075626514852046967e-02 8.320900611579418182e-03 1.288014836609363556e-02
1.497000000000000000e+03 1.433176612854003906e+01 1.030146121978759766e+01 3.108201315626502037e-03 8.936229348182678223e-02 2.774114720523357391e-02 1.309501472860574722e-02
1.498000000000000000e+03 1.947358322143554688e+01 1.465157032012939453e+01 8.632938377559185028e-03 3.946552053093910217e-02 1.442953757941722870e-02 1.979136839509010315e-02
1.499000000000000000e+03 2.319843101501464844e+01 1.968411827087402344e+01 3.785330569371581078e-03 2.495482191443443298e-02 8.622045628726482391e-03 1.243064086884260178e-02
1.500000000000000000e+03 2.567396736145019531e+01 2.038819885253906250e+01 5.608487408608198166e-03 1.953676901757717133e-02 7.543576881289482117e-03 1.179985050112009048e-02
1.501000000000000000e+03 1.392656230926513672e+01 9.003146171569824219e+00 4.741058684885501862e-03 1.110575646162033081e-01 3.473958745598793030e-02 1.006162911653518677e-02
1.502000000000000000e+03 1.358355045318603516e+01 7.860721588134765625e+00 5.525946151465177536e-03 1.399202197790145874e-01 4.363384842872619629e-02 6.454270333051681519e-03
1.503000000000000000e+03 1.396643161773681641e+01 9.343808174133300781e+00 3.010258777067065239e-03 1.060029789805412292e-01 3.270397335290908813e-02 9.894582442939281464e-03
1.504000000000000000e+03 2.604123306274414062e+01 2.135087585449218750e+01 4.276720341295003891e-03 1.894716359674930573e-02 6.967165041714906693e-03 1.069127023220062256e-02
1.505000000000000000e+03 2.723546981811523438e+01 2.382519149780273438e+01 2.156623639166355133e-03 1.686311513185501099e-02 5.705921910703182220e-03 8.561744354665279388e-03
1.506000000000000000e+03 2.708914375305175781e+01 2.258266067504882812e+01 3.486802102997899055e-03 1.712152734398841858e-02 6.182498764246702194e-03 9.615296497941017151e-03
1.507000000000000000e+03 2.170760345458984375e+01 1.678705215454101562e+01 7.529002148658037186e-03 3.004890866577625275e-02 1.127337291836738586e-02 1.640740595757961273e-02
1.508000000000000000e+03 2.469271850585937500e+01 1.900449943542480469e+01 7.067654281854629517e-03 2.149827219545841217e-02 8.569777943193912506e-03 1.347199827432632446e-02
1.509000000000000000e+03 1.912711334228515625e+01 1.439406490325927734e+01 8.171614259481430054e-03 4.098455980420112610e-02 1.474685315042734146e-02 2.057217247784137726e-02
1.510000000000000000e+03 1.616405677795410156e+01 1.093792819976806641e+01 9.394094347953796387e-03 7.069423049688339233e-02 2.402649819850921631e-02 2.567808516323566437e-02
1.511000000000000000e+03 1.020228290557861328e+01 1.052075004577636719e+01 1.330573204904794693e-02 4.930432513356208801e-02 1.878301613032817841e-02 -2.979920990765094757e-02
1.512000000000000000e+03 2.432523155212402344e+01 1.938647460937500000e+01 6.070041097700595856e-03 2.239815704524517059e-02 8.540459908545017242e-03 1.292963791638612747e-02
1.513000000000000000e+03 1.886730003356933594e+01 1.405280685424804688e+01 8.723206818103790283e-03 4.276958107948303223e-02 1.544783730059862137e-02 2.083039470016956329e-02
1.514000000000000000e+03 1.793986892700195312e+01 1.306958961486816406e+01 8.917984552681446075e-03 4.958726838231086731e-02 1.755157485604286194e-02 2.268126048147678375e-02
1.515000000000000000e+03 2.020447158813476562e+01 1.613716125488281250e+01 5.923592019826173782e-03 3.501048311591148376e-02 1.228022295981645584e-02 1.699902303516864777e-02
1.516000000000000000e+03 3.376637268066406250e+01 2.951020622253417969e+01 9.471059311181306839e-04 9.311462752521038055e-03 3.077570581808686256e-03 4.437368363142013550e-03
1.517000000000000000e+03 2.501500892639160156e+01 2.067731857299804688e+01 4.395266063511371613e-03 2.091927826404571533e-02 7.594363298267126083e-03 1.136046368628740311e-02
1.518000000000000000e+03 2.487551307678222656e+01 2.023842620849609375e+01 5.139363929629325867e-03 2.114837802946567535e-02 7.886322215199470520e-03 1.198367122560739517e-02
1.519000000000000000e+03 2.906356048583984375e+01 2.409460639953613281e+01 3.075732849538326263e-03 1.396397501230239868e-02 5.111912265419960022e-03 8.215011097490787506e-03
1.520000000000000000e+03 2.765590667724609375e+01 2.344383049011230469e+01 2.819216344505548477e-03 1.615296117961406708e-02 5.691653117537498474e-03 8.855500258505344391e-03
1.521000000000000000e+03 3.067480850219726562e+01 2.704398155212402344e+01 1.419925480149686337e-03 1.225190702825784683e-02 4.101549740880727768e-03 6.219962611794471741e-03
1.522000000000000000e+03 2.140638732910156250e+01 1.700908851623535156e+01 6.407302338629961014e-03 3.072237782180309296e-02 1.113890390843153000e-02 1.612716168165206909e-02
1.523000000000000000e+03 2.091407394409179688e+01 1.650496864318847656e+01 6.499342620372772217e-03 3.248675167560577393e-02 1.169582828879356384e-02 1.671419292688369751e-02
1.524000000000000000e+03 2.058216476440429688e+01 1.631362533569335938e+01 6.510356906801462173e-03 3.398521244525909424e-02 1.214867178350687027e-02 1.670159399509429932e-02
1.525000000000000000e+03 2.943974494934082031e+01 2.425559806823730469e+01 3.200780833140015602e-03 1.341539714485406876e-02 4.984853323549032211e-03 7.992405444383621216e-03
1.526000000000000000e+03 2.838555908203125000e+01 2.421112632751464844e+01 2.534576226025819778e-03 1.505413930863142014e-02 5.276614800095558167e-03 8.285700343549251556e-03
1.527000000000000000e+03 1.149675750732421875e+01 7.308563232421875000e+00 3.445839509367942810e-02 1.043072789907455444e-01 4.162970185279846191e-02 -5.585948005318641663e-02
1.528000000000000000e+03 1.269423580169677734e+01 7.706281185150146484e+00 1.130312774330377579e-02 1.381514221429824829e-01 4.483636468648910522e-02 -2.432721666991710663e-02
1.529000000000000000e+03 2.347337913513183594e+01 1.822719573974609375e+01 7.036920171231031418e-03 2.452783100306987762e-02 9.469425305724143982e-03 1.463173795491456985e-02
1.530000000000000000e+03 1.580526447296142578e+01 1.122000408172607422e+01 5.690359976142644882e-03 7.096001505851745605e-02 2.299511246383190155e-02 2.225710637867450714e-02
1.531000000000000000e+03 2.802852630615234375e+01 2.304345893859863281e+01 3.716070204973220825e-03 1.544739678502082825e-02 5.749040283262729645e-03 9.090599603950977325e-03
1.532000000000000000e+03 1.552964591979980469e+01 1.083835506439208984e+01 6.747855339199304581e-03 7.664436101913452148e-02 2.501766383647918701e-02 2.211567573249340057e-02
1.533000000000000000e+03 1.375144577026367188e+01 8.690663337707519531e+00 3.810732625424861908e-03 1.184071600437164307e-01 3.666536882519721985e-02 8.568431250751018524e-03
1.534000000000000000e+03 3.141937637329101562e+01 2.739849090576171875e+01 1.518415287137031555e-03 1.142294704914093018e-02 3.882408840581774712e-03 5.782461259514093399e-03
1.535000000000000000e+03 2.800695800781250000e+01 2.383136749267578125e+01 2.695101778954267502e-03 1.566666923463344574e-02 5.508530884981155396e-03 8.537494577467441559e-03
1.536000000000000000e+03 1.711062622070312500e+01 1.238090896606445312e+01 7.512995973229408264e-03 5.609029158949851990e-02 1.908098533749580383e-02 2.335502207279205322e-02
1.537000000000000000e+03 1.611472511291503906e+01 1.154492855072021484e+01 6.774793379008769989e-03 6.738594919443130493e-02 2.224822342395782471e-02 2.220138534903526306e-02
1.538000000000000000e+03 1.225481414794921875e+01 6.270696640014648438e+00 3.633328154683113098e-02 1.726608723402023315e-01 6.269824504852294922e-02 -6.993856281042098999e-02
1.539000000000000000e+03 3.069267845153808594e+01 2.638653755187988281e+01 1.927701523527503014e-03 1.220007613301277161e-02 4.238333087414503098e-03 6.468603387475013733e-03
1.540000000000000000e+03 3.022619247436523438e+01 2.569803237915039062e+01 2.327323425561189651e-03 1.265292707830667496e-02 4.494075197726488113e-03 6.999155972152948380e-03
1.541000000000000000e+03 2.961389923095703125e+01 2.557560348510742188e+01 1.981049077585339546e-03 1.345558930188417435e-02 4.630991723388433456e-03 7.262744475156068802e-03
1.542000000000000000e+03 3.820057678222656250e+01 3.611853408813476562e+01 -7.208044407889246941e-04 6.038164254277944565e-03 1.595207955688238144e-03 1.630056998692452908e-03
1.543000000000000000e+03 1.774157142639160156e+01 1.276480865478515625e+01 8.903986774384975433e-03 5.080754682421684265e-02 1.791346073150634766e-02 2.364501357078552246e-02
1.544000000000000000e+03 1.826019287109375000e+01 1.387346076965332031e+01 7.362803444266319275e-03 4.602902010083198547e-02 1.601754687726497650e-02 2.046341635286808014e-02
1.545000000000000000e+03 1.709555816650390625e+01 1.175600910186767578e+01 9.859462268650531769e-03 5.826103687286376953e-02 2.043614909052848816e-02 2.602089196443557739e-02
1.546000000000000000e+03 1.302868843078613281e+01 7.977450370788574219e+00 7.170876488089561462e-03 1.327546089887619019e-01 4.197764769196510315e-02 -1.063760556280612946e-02
1.547000000000000000e+03 1.442613506317138672e+01 9.266291618347167969e+00 6.617532111704349518e-03 1.021933183073997498e-01 3.264325484633445740e-02 1.810982450842857361e-02
1.548000000000000000e+03 1.491620159149169922e+01 9.756270408630371094e+00 7.141966838389635086e-03 9.118212759494781494e-02 2.949722856283187866e-02 2.195518836379051208e-02
1.549000000000000000e+03 2.687373733520507812e+01 2.211102294921875000e+01 4.009296651929616928e-03 1.737390086054801941e-02 6.414959207177162170e-03 9.970037266612052917e-03
1.550000000000000000e+03 2.751517677307128906e+01 2.233246994018554688e+01 4.156289622187614441e-03 1.624928042292594910e-02 6.121671292930841446e-03 9.661175310611724854e-03
1.551000000000000000e+03 8.509321212768554688e+00 1.056748294830322266e+01 1.911899074912071228e-02 1.786069944500923157e-02 1.109390705823898315e-02 -2.696361951529979706e-02
1.552000000000000000e+03 8.419103622436523438e+00 9.794863700866699219e+00 2.747002430260181427e-02 1.286049745976924896e-02 1.209915708750486374e-02 -2.923637442290782928e-02
1.553000000000000000e+03 2.734612846374511719e+01 2.303248214721679688e+01 3.224766347557306290e-03 1.662149839103221893e-02 5.953879561275243759e-03 9.183035232126712799e-03
1.554000000000000000e+03 3.362819290161132812e+01 3.009887886047363281e+01 6.283054826781153679e-04 9.567518718540668488e-03 3.058747155591845512e-03 4.273951984941959381e-03
1.555000000000000000e+03 3.343310546875000000e+01 3.078314971923828125e+01 1.914579843287356198e-05 9.980935603380203247e-03 3.000024473294615746e-03 4.089231602847576141e-03
1.556000000000000000e+03 1.113888931274414062e+01 6.360606193542480469e+00 6.864806264638900757e-02 8.501397073268890381e-02 4.609860852360725403e-02 -7.839432358741760254e-02
1.557000000000000000e+03 1.020471954345703125e+01 1.850316810607910156e+01 -7.476712577044963837e-03 2.623168565332889557e-02 5.626491736620664597e-03 -1.280235033482313156e-02
1.558000000000000000e+03 1.064749622344970703e+01 1.940978813171386719e+01 -8.175904862582683563e-03 2.579463273286819458e-02 5.285618361085653305e-03 -1.104525011032819748e-02
1.559000000000000000e+03 3.609289932250976562e+01 3.244080352783203125e+01 -8.649694791529327631e-05 7.614368572831153870e-03 2.258361550047993660e-03 2.946662018075585365e-03
1.560000000000000000e+03 3.412888336181640625e+01 3.178810501098632812e+01 -3.135245060548186302e-04 9.427451528608798981e-03 2.734178211539983749e-03 3.637491259723901749e-03
1.561000000000000000e+03 9.590078353881835938e+00 7.597711086273193359e+00 5.400847271084785461e-02 2.402727678418159485e-02 2.341072447597980499e-02 -4.544948041439056396e-02
1.562000000000000000e+03 3.407336044311523438e+01 3.282201766967773438e+01 -7.643803837709128857e-04 9.613358415663242340e-03 2.654693322256207466e-03 3.216164652258157730e-03
1.563000000000000000e+03 1.020398235321044922e+01 7.334468364715576172e+00 5.689246952533721924e-02 4.409055411815643311e-02 3.029490821063518524e-02 -5.694138258695602417e-02
1.564000000000000000e+03 1.337911605834960938e+01 8.934239387512207031e+00 3.911095671355724335e-03 1.138058081269264221e-01 3.531507030129432678e-02 -6.390776834450662136e-04
1.565000000000000000e+03 9.987535476684570312e+00 1.379872703552246094e+01 -1.847939449362456799e-03 3.667980805039405823e-02 1.044956035912036896e-02 -1.824007742106914520e-02
1.566000000000000000e+03 1.136903858184814453e+01 1.157728481292724609e+01 9.740091627463698387e-04 5.978268384933471680e-02 1.822700724005699158e-02 -1.743321307003498077e-02
1.567000000000000000e+03 1.096776866912841797e+01 1.801431274414062500e+01 -8.033478632569313049e-03 3.012111969292163849e-02 6.626292597502470016e-03 -1.092870067805051804e-02
1.568000000000000000e+03 9.247245788574218750e+00 1.200685596466064453e+01 7.296994328498840332e-03 2.956407889723777771e-02 1.105832215398550034e-02 -2.436123974621295929e-02
1.569000000000000000e+03 1.015100002288818359e+01 1.468766403198242188e+01 -3.765299916267395020e-03 3.477689623832702637e-02 9.303478524088859558e-03 -1.699342578649520874e-02
1.570000000000000000e+03 9.288449287414550781e+00 1.501646900177001953e+01 -3.580008633434772491e-03 2.737891487777233124e-02 7.139672059565782547e-03 -1.796194538474082947e-02
1.571000000000000000e+03 3.603753280639648438e+01 3.524939346313476562e+01 -1.060044975019991398e-03 7.934355176985263824e-03 2.062293235212564468e-03 2.224225783720612526e-03
1.572000000000000000e+03 3.654892730712890625e+01 3.329713821411132812e+01 -2.846424758899956942e-04 7.155917119234800339e-03 2.061382401734590530e-03 2.624230226501822472e-03
1.573000000000000000e+03 9.170030593872070312e+00 8.596719741821289062e+00 3.880004212260246277e-02 2.090730704367160797e-02 1.791220530867576599e-02 -3.603268414735794067e-02
1.574000000000000000e+03 1.163320350646972656e+01 2.501393318176269531e+01 -7.490816991776227951e-03 1.973434351384639740e-02 3.673058003187179565e-03 -7.235871162265539169e-03
1.575000000000000000e+03 1.094737720489501953e+01 2.387490653991699219e+01 -7.324222940951585770e-03 1.982911489903926849e-02 3.751467447727918625e-03 -8.627184666693210602e-03
1.576000000000000000e+03 1.129626941680908203e+01 2.723485946655273438e+01 -6.616234313696622849e-03 1.700415462255477905e-02 3.116376232355833054e-03 -6.660485174506902695e-03
1.577000000000000000e+03 1.215604686737060547e+01 2.868993186950683594e+01 -6.192243192344903946e-03 1.742468029260635376e-02 3.369730897247791290e-03 -5.389112513512372971e-03
1.578000000000000000e+03 9.696836471557617188e+00 2.175216674804687500e+01 -7.269427645951509476e-03 1.883725449442863464e-02 3.470347961410880089e-03 -1.141285151243209839e-02
1.579000000000000000e+03 1.130721282958984375e+01 6.827472209930419922e+00 5.141359567642211914e-02 9.917038679122924805e-02 4.517519474029541016e-02 -7.093631476163864136e-02
1.580000000000000000e+03 1.335514068603515625e+01 8.226725578308105469e+00 5.605952814221382141e-03 1.299957036972045898e-01 4.068049788475036621e-02 -1.626105397008359432e-03
1.581000000000000000e+03 2.620363807678222656e+01 2.186406326293945312e+01 3.772902768105268478e-03 1.861722394824028015e-02 6.717038340866565704e-03 1.025816425681114197e-02
1.582000000000000000e+03 2.547447586059570312e+01 2.101258659362792969e+01 4.250188823789358139e-03 2.017375081777572632e-02 7.327181752771139145e-03 1.104750577360391617e-02
1.583000000000000000e+03 1.484286403656005859e+01 1.027048587799072266e+01 4.390121903270483017e-03 8.713702112436294556e-02 2.745814248919487000e-02 1.847646385431289673e-02
1.584000000000000000e+03 1.987409019470214844e+01 1.484435367584228516e+01 8.725086227059364319e-03 3.719939291477203369e-02 1.377734448760747910e-02 1.985137909650802612e-02
1.585000000000000000e+03 1.875805854797363281e+01 1.476926136016845703e+01 6.238563917577266693e-03 4.237464815378189087e-02 1.458396390080451965e-02 1.847316510975360870e-02
1.586000000000000000e+03 2.531472206115722656e+01 2.016597938537597656e+01 5.755407270044088364e-03 2.040933445096015930e-02 7.849422283470630646e-03 1.199323683977127075e-02
1.587000000000000000e+03 9.937843322753906250e+00 1.210504531860351562e+01 3.344617551192641258e-03 4.048360884189605713e-02 1.314846705645322800e-02 -2.209239639341831207e-02
1.588000000000000000e+03 2.465089225769042969e+01 1.978090858459472656e+01 5.482325330376625061e-03 2.170336805284023285e-02 8.155708201229572296e-03 1.247257366776466370e-02
1.589000000000000000e+03 2.567644119262695312e+01 2.209994697570800781e+01 2.880065701901912689e-03 1.963326893746852875e-02 6.754000205546617508e-03 9.997776709496974945e-03
1.590000000000000000e+03 2.349264907836914062e+01 2.008096504211425781e+01 3.689317498356103897e-03 2.423374354839324951e-02 8.376917801797389984e-03 1.191782858222723007e-02
1.591000000000000000e+03 2.400707817077636719e+01 1.901460075378417969e+01 6.204020697623491287e-03 2.312693186104297638e-02 8.799285627901554108e-03 1.350755244493484497e-02
1.592000000000000000e+03 1.157817459106445312e+01 7.789916038513183594e+00 2.757008001208305359e-02 1.016684994101524353e-01 3.877157345414161682e-02 -4.733250290155410767e-02
1.593000000000000000e+03 1.843762207031250000e+01 1.435276031494140625e+01 6.030915305018424988e-03 4.413161426782608032e-02 1.504875905811786652e-02 1.950343139469623566e-02
1.594000000000000000e+03 2.536066818237304688e+01 2.058025741577148438e+01 4.811854567378759384e-03 2.038643136620521545e-02 7.559485733509063721e-03 1.160875894129276276e-02
1.595000000000000000e+03 2.446014785766601562e+01 2.051794815063476562e+01 3.960825037211179733e-03 2.216098830103874207e-02 7.836543954908847809e-03 1.162905618548393250e-02
1.596000000000000000e+03 2.118836212158203125e+01 1.674063873291015625e+01 6.646612659096717834e-03 3.164614364504814148e-02 1.148782670497894287e-02 1.621643453836441040e-02
1.597000000000000000e+03 1.979283714294433594e+01 1.595346736907958984e+01 5.740416236221790314e-03 3.686141967773437500e-02 1.278054993599653244e-02 1.683295890688896179e-02
1.598000000000000000e+03 2.388170433044433594e+01 2.206389236450195312e+01 1.146695110946893692e-03 2.278175577521324158e-02 7.178535219281911850e-03 9.789085946977138519e-03
1.599000000000000000e+03 1.771267700195312500e+01 1.361521339416503906e+01 6.274400278925895691e-03 4.925080016255378723e-02 1.665756106376647949e-02 2.015022747218608856e-02
1.600000000000000000e+03 1.368495464324951172e+01 8.344459533691406250e+00 5.997272208333015442e-03 1.254540830850601196e-01 3.943540528416633606e-02 7.092445623129606247e-03
1.601000000000000000e+03 2.096105384826660156e+01 1.701299476623535156e+01 5.456451792269945145e-03 3.191736340522766113e-02 1.121214497834444046e-02 1.569485291838645935e-02
1.602000000000000000e+03 2.072576522827148438e+01 1.683951950073242188e+01 5.404098890721797943e-03 3.318968787789344788e-02 1.157813612371683121e-02 1.570408232510089874e-02
1.603000000000000000e+03 1.961743354797363281e+01 1.528952980041503906e+01 7.094643544405698776e-03 3.818072006106376648e-02 1.358260959386825562e-02 1.819558441638946533e-02
1.604000000000000000e+03 1.334068965911865234e+01 9.636733055114746094e+00 2.185471588745713234e-03 1.010526418685913086e-01 3.097143396735191345e-02 -1.135172788053750992e-03
1.605000000000000000e+03 2.880670356750488281e+01 2.454379272460937500e+01 2.541708527132868767e-03 1.450509577989578247e-02 5.114041268825531006e-03 8.002657443284988403e-03
1.606000000000000000e+03 2.759720230102539062e+01 2.428513336181640625e+01 1.880905125290155411e-03 1.628882996737957001e-02 5.450920667499303818e-03 8.265648037195205688e-03
1.607000000000000000e+03 1.438361835479736328e+01 9.788487434387207031e+00 3.289944259449839592e-03 9.571663290262222290e-02 2.970197424292564392e-02 1.547584496438503265e-02
1.608000000000000000e+03 3.007020950317382812e+01 2.635845375061035156e+01 1.606592326425015926e-03 1.293241884559392929e-02 4.361703060567378998e-03 6.714036688208580017e-03
1.609000000000000000e+03 2.286360168457031250e+01 1.808579254150390625e+01 6.406068801879882812e-03 2.622689306735992432e-02 9.789888747036457062e-03 1.476961001753807068e-02
1.610000000000000000e+03 2.334445381164550781e+01 1.893312835693359375e+01 5.418143700808286667e-03 2.478212118148803711e-02 9.060079231858253479e-03 1.355726830661296844e-02
1.611000000000000000e+03 1.247813320159912109e+01 6.674330711364746094e+00 2.204907871782779694e-02 1.662752032279968262e-01 5.649728327989578247e-02 -4.537044093012809753e-02
1.612000000000000000e+03 1.233350753784179688e+01 7.409884452819824219e+00 1.783832535147666931e-02 1.346581876277923584e-01 4.574895650148391724e-02 -3.720969334244728088e-02
1.613000000000000000e+03 1.575762462615966797e+01 1.188732528686523438e+01 3.486454486846923828e-03 6.682261079549789429e-02 2.109271846711635590e-02 1.902913115918636322e-02
1.614000000000000000e+03 2.003485870361328125e+01 1.549085330963134766e+01 7.277050055563449860e-03 3.610337898135185242e-02 1.301412843167781830e-02 1.835427433252334595e-02
1.615000000000000000e+03 1.676976013183593750e+01 1.211687755584716797e+01 7.660828530788421631e-03 6.000701338052749634e-02 2.030035294592380524e-02 2.281640097498893738e-02
1.616000000000000000e+03 1.508327007293701172e+01 1.117498302459716797e+01 2.456130459904670715e-03 7.638748735189437866e-02 2.365308627486228943e-02 1.687665656208992004e-02
1.617000000000000000e+03 1.484478282928466797e+01 1.074330806732177734e+01 3.594257403165102005e-03 8.110424131155014038e-02 2.540954947471618652e-02 1.600658334791660309e-02
1.618000000000000000e+03 2.801322364807128906e+01 2.471696281433105469e+01 1.820316188968718052e-03 1.570816710591316223e-02 5.258545279502868652e-03 7.921806536614894867e-03
1.619000000000000000e+03 1.704275894165039062e+01 1.308603000640869141e+01 5.078455433249473572e-03 5.412249639630317688e-02 1.776028610765933990e-02 2.031987719237804413e-02
1.620000000000000000e+03 1.542193603515625000e+01 1.155049419403076172e+01 3.746433416381478310e-03 7.170762121677398682e-02 2.263621613383293152e-02 1.771005615592002869e-02
1.621000000000000000e+03 2.938755989074707031e+01 2.626167869567871094e+01 1.369809848256409168e-03 1.389302872121334076e-02 4.578851629048585892e-03 6.805247627198696136e-03
1.622000000000000000e+03 2.639737892150878906e+01 2.237068557739257812e+01 3.189632901921868324e-03 1.836469210684299469e-02 6.466297432780265808e-03 9.820462204515933990e-03
1.623000000000000000e+03 1.609295463562011719e+01 1.219513130187988281e+01 4.629965405911207199e-03 6.387595832347869873e-02 2.055177837610244751e-02 1.932195760309696198e-02
1.624000000000000000e+03 2.646434020996093750e+01 2.366691780090332031e+01 1.706591341644525528e-03 1.812812872231006622e-02 5.950415972620248795e-03 8.655023761093616486e-03
1.625000000000000000e+03 2.244850349426269531e+01 1.835815811157226562e+01 5.344727542251348495e-03 2.728656306862831116e-02 9.789386764168739319e-03 1.414918154478073120e-02
1.626000000000000000e+03 2.150821495056152344e+01 1.733661079406738281e+01 5.844850558787584305e-03 3.024342842400074005e-02 1.082648336887359619e-02 1.539506576955318451e-02
1.627000000000000000e+03 2.031057357788085938e+01 1.721703338623046875e+01 3.805921413004398346e-03 3.398532047867774963e-02 1.133737247437238693e-02 1.474619656801223755e-02
1.628000000000000000e+03 2.997876548767089844e+01 2.710144233703613281e+01 9.897691197693347931e-04 1.318325567990541458e-02 4.251907579600811005e-03 6.193818524479866028e-03
1.629000000000000000e+03 1.309550571441650391e+01 8.619244575500488281e+00 4.894372541457414627e-03 1.171853467822074890e-01 3.662391752004623413e-02 -5.925049073994159698e-03
1.630000000000000000e+03 3.084119415283203125e+01 2.773587989807128906e+01 9.640034404583275318e-04 1.218906603753566742e-02 3.945920616388320923e-03 5.749339703470468521e-03
1.631000000000000000e+03 3.105963325500488281e+01 2.851705169677734375e+01 5.459148087538778782e-04 1.198583282530307770e-02 3.759524086490273476e-03 5.358666181564331055e-03
1.632000000000000000e+03 1.202441596984863281e+01 7.020822525024414062e+00 2.917078323662281036e-02 1.360521465539932251e-01 4.956687986850738525e-02 -5.561150982975959778e-02
1.633000000000000000e+03 3.316331863403320312e+01 2.931985282897949219e+01 9.133171988651156425e-04 9.929937310516834259e-03 3.252976341173052788e-03 4.656048491597175598e-03
1.634000000000000000e+03 3.191631317138671875e+01 2.833544731140136719e+01 1.062637194991111755e-03 1.110588852316141129e-02 3.650557715445756912e-03 5.286287516355514526e-03
1.635000000000000000e+03 2.086947441101074219e+01 1.755504035949707031e+01 4.162223543971776962e-03 3.194068372249603271e-02 1.083087176084518433e-02 1.467378251254558563e-02
1.636000000000000000e+03 3.231233215332031250e+01 2.990247726440429688e+01 2.017956721829250455e-04 1.084229815751314163e-02 3.313228255137801170e-03 4.525448661297559738e-03
1.637000000000000000e+03 9.500868797302246094e+00 1.091633796691894531e+01 1.313486788421869278e-02 3.615371510386466980e-02 1.478657498955726624e-02 -2.797202393412590027e-02
1.638000000000000000e+03 8.999715805053710938e+00 9.611337661743164062e+00 2.726816013455390930e-02 2.453840523958206177e-02 1.554196979850530624e-02 -3.212118521332740784e-02
1.639000000000000000e+03 9.915791511535644531e+00 1.767918014526367188e+01 -7.338224444538354874e-03 2.567987330257892609e-02 5.502494517713785172e-03 -1.319323107600212097e-02
1.640000000000000000e+03 9.518760681152343750e+00 1.707773208618164062e+01 -6.075002718716859818e-03 2.502404712140560150e-02 5.684713367372751236e-03 -1.548148598521947861e-02
1.641000000000000000e+03 1.076919651031494141e+01 7.077648162841796875e+00 5.417538434267044067e-02 6.663551181554794312e-02 3.624326735734939575e-02 -6.193798407912254333e-02
1.642000000000000000e+03 1.191170787811279297e+01 9.106094360351562500e+00 1.048507355153560638e-02 9.105592221021652222e-02 3.046229854226112366e-02 -2.580887265503406525e-02
1.643000000000000000e+03 1.168583488464355469e+01 1.750500488281250000e+01 -7.883033715188503265e-03 3.509164601564407349e-02 8.162583224475383759e-03 -9.468407370150089264e-03
1.644000000000000000e+03 1.192983341217041016e+01 1.956931877136230469e+01 -8.543273434042930603e-03 2.968206629157066345e-02 6.341638043522834778e-03 -8.082200773060321808e-03
1.645000000000000000e+03 1.095481967926025391e+01 1.449296951293945312e+01 -4.772324115037918091e-03 4.201776161789894104e-02 1.117363106459379196e-02 -1.370655652135610580e-02
1.646000000000000000e+03 1.066407680511474609e+01 1.191602516174316406e+01 3.183820284903049469e-03 5.026025697588920593e-02 1.603322289884090424e-02 -2.104151993989944458e-02
1.647000000000000000e+03 2.902935791015625000e+01 2.537474822998046875e+01 1.922765979543328285e-03 1.426336634904146194e-02 4.855840001255273819e-03 7.424153853207826614e-03
1.648000000000000000e+03 3.518764877319335938e+01 3.272629165649414062e+01 -4.126226995140314102e-04 8.495411835610866547e-03 2.424836624413728714e-03 3.158512758091092110e-03
1.649000000000000000e+03 3.315256881713867188e+01 3.160009384155273438e+01 -4.581319517455995083e-04 1.034163590520620346e-02 2.965051215142011642e-03 3.776904894039034843e-03
1.650000000000000000e+03 1.013354969024658203e+01 1.655815124511718750e+01 -7.220371160656213760e-03 2.908571623265743256e-02 6.559603847563266754e-03 -1.398774050176143646e-02
1.651000000000000000e+03 3.554085922241210938e+01 3.387185287475585938e+01 -7.980942609719932079e-04 8.317730389535427094e-03 2.255890984088182449e-03 2.663690596818923950e-03
1.652000000000000000e+03 9.837075233459472656e+00 8.230108261108398438e+00 4.291499406099319458e-02 3.821780532598495483e-02 2.433983981609344482e-02 -4.600968956947326660e-02
1.653000000000000000e+03 1.049714469909667969e+01 2.102738380432128906e+01 -8.030438795685768127e-03 2.216913364827632904e-02 4.241608083248138428e-03 -1.033432316035032272e-02
1.654000000000000000e+03 1.031574153900146484e+01 2.279524612426757812e+01 -7.607367821037769318e-03 1.900856569409370422e-02 3.420359222218394279e-03 -9.781283326447010040e-03
1.655000000000000000e+03 1.338259887695312500e+01 2.514772415161132812e+01 -7.817024365067481995e-03 2.269692532718181610e-02 4.463970195502042770e-03 -4.869115538895130157e-03
1.656000000000000000e+03 1.243100357055664062e+01 2.621496582031250000e+01 -7.131987717002630234e-03 2.013761922717094421e-02 3.901689546182751656e-03 -6.037645973265171051e-03
1.657000000000000000e+03 3.669583892822265625e+01 3.679280471801757812e+01 -1.262740232050418854e-03 7.505532354116439819e-03 1.872837659902870655e-03 1.706820330582559109e-03
1.658000000000000000e+03 1.288368415832519531e+01 3.029115104675292969e+01 -6.168752908706665039e-03 1.715458929538726807e-02 3.295751055702567101e-03 -4.176480695605278015e-03
1.659000000000000000e+03 1.138591480255126953e+01 3.148829460144042969e+01 -4.996404051780700684e-03 1.455103792250156403e-02 2.866389928385615349e-03 -4.895804915577173233e-03
1.660000000000000000e+03 1.126587772369384766e+01 2.030530738830566406e+01 -8.310164324939250946e-03 2.656081132590770721e-02 5.475193727761507034e-03 -9.732002392411231995e-03
1.661000000000000000e+03 3.784692764282226562e+01 3.842687606811523438e+01 -1.111303688958287239e-03 6.660321261733770370e-03 1.664705341681838036e-03 1.111947349272668362e-03
1.662000000000000000e+03 3.200596618652343750e+01 3.933745193481445312e+01 -3.095032880082726479e-03 1.150764990597963333e-02 2.523785224184393883e-03 1.012862776406109333e-03
1.663000000000000000e+03 1.919100379943847656e+01 1.506033897399902344e+01 6.313598714768886566e-03 3.968099132180213928e-02 1.379837747663259506e-02 1.860748417675495148e-02
1.664000000000000000e+03 2.505727005004882812e+01 2.109233283996582031e+01 3.689685836434364319e-03 2.086345851421356201e-02 7.365942932665348053e-03 1.107252109795808792e-02
1.665000000000000000e+03 1.041790771484375000e+01 7.884880542755126953e+00 4.177228733897209167e-02 5.411999672651290894e-02 2.876768633723258972e-02 -4.944568872451782227e-02
1.666000000000000000e+03 1.791673278808593750e+01 1.454445075988769531e+01 4.430481232702732086e-03 4.585535451769828796e-02 1.508575119078159332e-02 1.772798225283622742e-02
1.667000000000000000e+03 2.420219421386718750e+01 2.011912536621093750e+01 4.489730577915906906e-03 2.268047258257865906e-02 8.151060901582241058e-03 1.201889384537935257e-02
1.668000000000000000e+03 2.039825630187988281e+01 1.674005889892578125e+01 4.891480784863233566e-03 3.394972160458564758e-02 1.165236067026853561e-02 1.587848365306854248e-02
1.669000000000000000e+03 2.000570297241210938e+01 1.660750389099121094e+01 4.597111139446496964e-03 3.545164316892623901e-02 1.201462652534246445e-02 1.565999351441860199e-02
1.670000000000000000e+03 1.075373744964599609e+01 1.275650596618652344e+01 -9.069187217392027378e-04 4.798070713877677917e-02 1.412213686853647232e-02 -1.749780029058456421e-02
1.671000000000000000e+03 2.306395912170410156e+01 2.046498489379882812e+01 2.233939012512564659e-03 2.503783628344535828e-02 8.181532844901084900e-03 1.134988758713006973e-02
1.672000000000000000e+03 2.391629028320312500e+01 1.973084449768066406e+01 4.664212930947542191e-03 2.329685725271701813e-02 8.388320915400981903e-03 1.249970775097608566e-02
1.673000000000000000e+03 1.781015777587890625e+01 1.404262924194335938e+01 5.013125948607921600e-03 4.781622067093849182e-02 1.584880426526069641e-02 1.915735565125942230e-02
1.674000000000000000e+03 2.471636962890625000e+01 2.091224479675292969e+01 3.765420056879520416e-03 2.154158242046833038e-02 7.592100650072097778e-03 1.114795263856649399e-02
1.675000000000000000e+03 2.440180397033691406e+01 2.121124458312988281e+01 2.893206197768449783e-03 2.208947017788887024e-02 7.494802586734294891e-03 1.082332804799079895e-02
1.676000000000000000e+03 2.118030738830566406e+01 1.727584457397460938e+01 5.331947468221187592e-03 3.141742199659347534e-02 1.102481037378311157e-02 1.525054965168237686e-02
1.677000000000000000e+03 1.201992702484130859e+01 7.885727882385253906e+00 1.842830330133438110e-02 1.173471584916114807e-01 4.073264077305793762e-02 -3.932810947299003601e-02
1.678000000000000000e+03 1.081962585449218750e+01 1.363769435882568359e+01 -2.466466743499040604e-03 4.399466142058372498e-02 1.245845854282379150e-02 -1.608762890100479126e-02
1.679000000000000000e+03 2.658991050720214844e+01 2.519739532470703125e+01 2.161019656341522932e-04 1.783750392496585846e-02 5.416081752628087997e-03 7.507972419261932373e-03
1.680000000000000000e+03 1.382623481750488281e+01 9.808945655822753906e+00 2.583105117082595825e-03 9.667228162288665771e-02 2.977661602199077606e-02 7.122138049453496933e-03
1.681000000000000000e+03 1.671303749084472656e+01 1.341069602966308594e+01 3.354088403284549713e-03 5.514229089021682739e-02 1.754891313612461090e-02 1.764638163149356842e-02
1.682000000000000000e+03 1.733753013610839844e+01 1.371188354492187500e+01 4.367265850305557251e-03 5.106091871857643127e-02 1.662845537066459656e-02 1.883263699710369110e-02
1.683000000000000000e+03 1.504805183410644531e+01 1.193486022949218750e+01 7.877423195168375969e-04 7.000571489334106445e-02 2.123803831636905670e-02 1.414923369884490967e-02
1.684000000000000000e+03 2.600999450683593750e+01 2.396834373474121094e+01 9.256701450794935226e-04 1.886280253529548645e-02 5.936541594564914703e-03 8.386137895286083221e-03
1.685000000000000000e+03 2.159779548645019531e+01 1.775078201293945312e+01 5.061914678663015366e-03 2.987063303589820862e-02 1.047976408153772354e-02 1.484704483300447464e-02
1.686000000000000000e+03 1.985708618164062500e+01 1.711152076721191406e+01 3.035200061276555061e-03 3.489394858479499817e-02 1.137874461710453033e-02 1.444870233535766602e-02
1.687000000000000000e+03 1.642833518981933594e+01 1.248545265197753906e+01 4.426720552146434784e-03 5.987939238548278809e-02 1.929183304309844971e-02 2.021121233701705933e-02
1.688000000000000000e+03 1.421907615661621094e+01 1.135790824890136719e+01 -4.144262129557318985e-05 7.651047408580780029e-02 2.294070832431316376e-02 8.694382384419441223e-03
1.689000000000000000e+03 1.676502037048339844e+01 1.276838970184326172e+01 5.660079885274171829e-03 5.719190090894699097e-02 1.885559409856796265e-02 2.026700228452682495e-02
1.690000000000000000e+03 2.757524299621582031e+01 2.526829147338867188e+01 9.532984695397317410e-04 1.628663390874862671e-02 5.171979777514934540e-03 7.583344820886850357e-03
1.691000000000000000e+03 1.539714622497558594e+01 1.226311683654785156e+01 1.771939685568213463e-03 6.706105172634124756e-02 2.064989693462848663e-02 1.498187799006700516e-02
1.692000000000000000e+03 2.849130821228027344e+01 2.509026718139648438e+01 1.744125387631356716e-03 1.495464146137237549e-02 5.009630229324102402e-03 7.690008264034986496e-03
1.693000000000000000e+03 2.201076507568359375e+01 1.862727546691894531e+01 3.933522384613752365e-03 2.831057272851467133e-02 9.673228487372398376e-03 1.353276986628770828e-02
1.694000000000000000e+03 1.724466896057128906e+01 1.339967060089111328e+01 5.459730047732591629e-03 5.226254835724830627e-02 1.731668412685394287e-02 1.969356648623943329e-02
1.695000000000000000e+03 3.220675277709960938e+01 3.114042282104492188e+01 -6.415595998987555504e-04 1.123312953859567642e-02 3.177470993250608444e-03 4.082910250872373581e-03
1.696000000000000000e+03 2.917535972595214844e+01 2.705801582336425781e+01 4.782001487910747528e-04 1.421111728996038437e-02 4.406795371323823929e-03 6.373961456120014191e-03
1.697000000000000000e+03 2.999716186523437500e+01 2.790320777893066406e+01 3.784490691032260656e-04 1.315562985837459564e-02 4.060223698616027832e-03 5.777309648692607880e-03
1.698000000000000000e+03 1.776844596862792969e+01 1.565995311737060547e+01 1.163126551546156406e-03 4.352964088320732117e-02 1.340783014893531799e-02 1.422283053398132324e-02
1.699000000000000000e+03 2.069781684875488281e+01 1.718085289001464844e+01 4.557781387120485306e-03 3.279949724674224854e-02 1.120718289166688919e-02 1.508528273552656174e-02
1.700000000000000000e+03 1.019589519500732422e+01 8.841565132141113281e+00 2.785938419401645660e-02 5.068470537662506104e-02 2.356322668492794037e-02 -3.953587636351585388e-02
1.701000000000000000e+03 9.576531410217285156e+00 9.233339309692382812e+00 2.867911010980606079e-02 3.679492697119712830e-02 1.964221149682998657e-02 -3.715794533491134644e-02
1.702000000000000000e+03 2.616115760803222656e+01 2.316599845886230469e+01 1.947868266142904758e-03 1.883650198578834534e-02 6.235311273485422134e-03 9.152912534773349762e-03
1.703000000000000000e+03 2.834798049926757812e+01 2.686334228515625000e+01 2.544274902902543545e-04 1.533428765833377838e-02 4.676614888012409210e-03 6.515897810459136963e-03
1.704000000000000000e+03 9.907494544982910156e+00 9.881110191345214844e+00 1.931760832667350769e-02 4.397644102573394775e-02 1.898821443319320679e-02 -3.244480863213539124e-02
1.705000000000000000e+03 9.235288619995117188e+00 1.025922584533691406e+01 1.969731971621513367e-02 3.202011063694953918e-02 1.551522873342037201e-02 -3.127383440732955933e-02
1.706000000000000000e+03 1.432793712615966797e+01 1.082964897155761719e+01 8.481300319544970989e-04 8.322327584028244019e-02 2.522142045199871063e-02 1.083139795809984207e-02
1.707000000000000000e+03 1.142328834533691406e+01 8.227444648742675781e+00 2.257671020925045013e-02 9.175796806812286377e-02 3.430040180683135986e-02 -4.213471338152885437e-02
1.708000000000000000e+03 1.250269794464111328e+01 8.743784904479980469e+00 7.848292589187622070e-03 1.083224937319755554e-01 3.485123440623283386e-02 -1.963373273611068726e-02
1.709000000000000000e+03 1.058082866668701172e+01 1.723841476440429688e+01 -7.174565456807613373e-03 3.040699660778045654e-02 6.969729438424110413e-03 -1.284570153802633286e-02
1.710000000000000000e+03 1.037568283081054688e+01 1.546772575378417969e+01 -5.720248445868492126e-03 3.388837724924087524e-02 8.450439199805259705e-03 -1.472588349133729935e-02
1.711000000000000000e+03 1.157651805877685547e+01 1.349470520019531250e+01 -4.044790286570787430e-03 5.087064206600189209e-02 1.404775585979223251e-02 -1.232474856078624725e-02
1.712000000000000000e+03 2.871338272094726562e+01 2.605639076232910156e+01 1.006377860903739929e-03 1.473612803965806961e-02 4.722751677036285400e-03 7.042512763291597366e-03
1.713000000000000000e+03 3.272731399536132812e+01 3.046741104125976562e+01 5.174110265215858817e-05 1.056508719921112061e-02 3.185048466548323631e-03 4.309295210987329483e-03
1.714000000000000000e+03 1.118879985809326172e+01 2.201669692993164062e+01 -7.910408079624176025e-03 2.310767024755477905e-02 4.559178836643695831e-03 -9.050227701663970947e-03
1.715000000000000000e+03 1.128563785552978516e+01 1.668922042846679688e+01 -7.858534343540668488e-03 3.524964302778244019e-02 8.217332884669303894e-03 -1.070573832839727402e-02
1.716000000000000000e+03 3.256422424316406250e+01 3.392243194580078125e+01 -1.687463256530463696e-03 1.114621572196483612e-02 2.837625565007328987e-03 3.027381142601370811e-03
1.717000000000000000e+03 2.933428382873535156e+01 2.995736885070800781e+01 -1.234548515640199184e-03 1.406748685985803604e-02 3.849881468340754509e-03 4.742867778986692429e-03
1.718000000000000000e+03 1.078398036956787109e+01 1.604677009582519531e+01 -6.261760834604501724e-03 3.539638593792915344e-02 8.740387856960296631e-03 -1.301702391356229782e-02
1.719000000000000000e+03 3.126604080200195312e+01 2.938519096374511719e+01 5.263426646706648171e-05 1.198315806686878204e-02 3.610737854614853859e-03 4.922922234982252121e-03
1.720000000000000000e+03 1.046013641357421875e+01 1.118112850189208984e+01 6.717260461300611496e-03 5.031412467360496521e-02 1.710941642522811890e-02 -2.422499470412731171e-02
1.721000000000000000e+03 1.284235954284667969e+01 1.138374519348144531e+01 -8.711906266398727894e-04 7.550379633903503418e-02 2.238978073000907898e-02 -6.245838012546300888e-03
1.722000000000000000e+03 1.926776695251464844e+01 1.740261268615722656e+01 1.399474218487739563e-03 3.613853827118873596e-02 1.126140449196100235e-02 1.316156797111034393e-02
1.723000000000000000e+03 1.296985626220703125e+01 1.927581024169921875e+01 -8.471616543829441071e-03 3.365680575370788574e-02 7.555556949228048325e-03 -5.130411591380834579e-03
1.724000000000000000e+03 3.411342239379882812e+01 3.407560729980468750e+01 -1.324778655543923378e-03 9.707509540021419525e-03 2.514819381758570671e-03 2.849268261343240738e-03
1.725000000000000000e+03 3.284840011596679688e+01 3.263767623901367188e+01 -1.160311046987771988e-03 1.074160169810056686e-02 2.874387195333838463e-03 3.467863891273736954e-03
1.726000000000000000e+03 1.431675338745117188e+01 2.610143852233886719e+01 -7.445241790264844894e-03 2.301205322146415710e-02 4.670043010264635086e-03 -3.703702474012970924e-03
1.727000000000000000e+03 1.341280364990234375e+01 2.742778396606445312e+01 -7.177881430834531784e-03 2.006980776786804199e-02 3.867577994242310524e-03 -4.538876935839653015e-03
1.728000000000000000e+03 3.427335357666015625e+01 3.556728363037109375e+01 -1.689995639026165009e-03 9.736569598317146301e-03 2.413972280919551849e-03 2.305731642991304398e-03
1.729000000000000000e+03 3.536214828491210938e+01 3.918650054931640625e+01 -1.907338155433535576e-03 8.672771975398063660e-03 2.029630122706294060e-03 1.106660114601254463e-03
1.730000000000000000e+03 1.187523269653320312e+01 2.303521156311035156e+01 -8.163795806467533112e-03 2.287216670811176300e-02 4.412510897964239120e-03 -7.506123743951320648e-03
1.731000000000000000e+03 1.249371147155761719e+01 3.343803787231445312e+01 -5.294056609272956848e-03 1.500930637121200562e-02 2.914574928581714630e-03 -3.407658310607075691e-03
1.732000000000000000e+03 2.568869209289550781e+01 2.352989387512207031e+01 1.267038518562912941e-03 1.947605796158313751e-02 6.222928874194622040e-03 8.688217028975486755e-03
1.733000000000000000e+03 2.504334259033203125e+01 2.162766838073730469e+01 2.975806593894958496e-03 2.094134129583835602e-02 7.175144739449024200e-03 1.039876416325569153e-02
1.734000000000000000e+03 1.288339519500732422e+01 1.005810451507568359e+01 9.082141332328319550e-04 9.009425342082977295e-02 2.730073966085910797e-02 -6.687984336167573929e-03
1.735000000000000000e+03 2.408415603637695312e+01 2.084902954101562500e+01 3.202677005901932716e-03 2.277858182787895203e-02 7.794377859681844711e-03 1.113788224756717682e-02
1.736000000000000000e+03 2.039448165893554688e+01 1.773055839538574219e+01 2.841112669557332993e-03 3.324432298541069031e-02 1.082563027739524841e-02 1.382268685847520828e-02
1.737000000000000000e+03 1.434801578521728516e+01 1.205154705047607422e+01 -1.465918030589818954e-03 7.064810395240783691e-02 2.075465582311153412e-02 7.833131588995456696e-03
1.738000000000000000e+03 1.735994911193847656e+01 1.459632778167724609e+01 2.135440474376082420e-03 4.835075512528419495e-02 1.514585874974727631e-02 1.610688492655754089e-02
1.739000000000000000e+03 1.467599678039550781e+01 1.159222126007080078e+01 8.058403618633747101e-04 7.517246901988983154e-02 2.279349416494369507e-02 1.150616630911827087e-02
1.740000000000000000e+03 1.328534984588623047e+01 1.240361881256103516e+01 -2.655275864526629448e-03 6.688822060823440552e-02 1.926988363265991211e-02 -1.767659094184637070e-03
1.741000000000000000e+03 2.224695777893066406e+01 1.907969856262207031e+01 3.657149616628885269e-03 2.745511010289192200e-02 9.333677589893341064e-03 1.293440628796815872e-02
1.742000000000000000e+03 2.378923034667968750e+01 2.046669578552246094e+01 3.219914389774203300e-03 2.343248017132282257e-02 7.995718158781528473e-03 1.155187655240297318e-02
1.743000000000000000e+03 1.877733230590820312e+01 1.740809440612792969e+01 2.060083934338763356e-04 3.779374063014984131e-02 1.139992475509643555e-02 1.219520717859268188e-02
1.744000000000000000e+03 1.375419330596923828e+01 1.034523487091064453e+01 3.549320681486278772e-04 9.024881571531295776e-02 2.718112431466579437e-02 5.260433070361614227e-03
1.745000000000000000e+03 1.732045555114746094e+01 1.411903190612792969e+01 3.538240445777773857e-03 4.932151362299919128e-02 1.585792563855648041e-02 1.742149330675601959e-02
1.746000000000000000e+03 1.253013324737548828e+01 9.630159378051757812e+00 4.862397909164428711e-03 9.468619525432586670e-02 2.986457757651805878e-02 -1.543084532022476196e-02
1.747000000000000000e+03 1.891982269287109375e+01 1.552523231506347656e+01 4.694080911576747894e-03 4.046963527798652649e-02 1.354911457747220993e-02 1.677595824003219604e-02
1.748000000000000000e+03 1.957153129577636719e+01 1.643977546691894531e+01 3.831279231235384941e-03 3.661478310823440552e-02 1.213381811976432800e-02 1.559951435774564743e-02
1.749000000000000000e+03 1.573892498016357422e+01 1.257246875762939453e+01 1.604472170583903790e-03 6.287465989589691162e-02 1.934373937547206879e-02 1.630639657378196716e-02
1.750000000000000000e+03 1.172429847717285156e+01 1.435713958740234375e+01 -5.041766446083784103e-03 4.722695425152778625e-02 1.265555620193481445e-02 -1.103648543357849121e-02
1.751000000000000000e+03 2.109283447265625000e+01 1.799392700195312500e+01 3.758457722142338753e-03 3.104102425277233124e-02 1.043984480202198029e-02 1.398675981909036636e-02
1.752000000000000000e+03 1.178916740417480469e+01 8.390392303466796875e+00 1.672517694532871246e-02 9.648012369871139526e-02 3.396159037947654724e-02 -3.351448103785514832e-02
1.753000000000000000e+03 1.640323829650878906e+01 1.314135265350341797e+01 2.463568234816193581e-03 5.694914609193801880e-02 1.782381534576416016e-02 1.742403209209442139e-02
1.754000000000000000e+03 2.713438796997070312e+01 2.474492073059082031e+01 1.168449642136693001e-03 1.696961745619773865e-02 5.441420245915651321e-03 7.851099595427513123e-03
1.755000000000000000e+03 2.551507759094238281e+01 2.409787368774414062e+01 4.146611609030514956e-04 1.959672570228576660e-02 6.003416143357753754e-03 8.268086239695549011e-03
1.756000000000000000e+03 2.362301445007324219e+01 1.934060859680175781e+01 5.214576143771409988e-03 2.403880283236503601e-02 8.776013739407062531e-03 1.294152997434139252e-02
1.757000000000000000e+03 1.607600402832031250e+01 1.286398315429687500e+01 2.699438016861677170e-03 6.043147668242454529e-02 1.893927343189716339e-02 1.669847592711448669e-02
1.758000000000000000e+03 1.370514297485351562e+01 1.127463817596435547e+01 -1.201758859679102898e-03 7.915192842483520508e-02 2.338504977524280548e-02 2.551535144448280334e-03
1.759000000000000000e+03 1.399134254455566406e+01 1.244907188415527344e+01 -2.273225225508213043e-03 6.826761364936828613e-02 1.979831606149673462e-02 3.714053193107247353e-03
1.760000000000000000e+03 1.684610557556152344e+01 1.402222728729248047e+01 2.083331579342484474e-03 5.232960358262062073e-02 1.632388122379779816e-02 1.615072414278984070e-02
1.761000000000000000e+03 2.567988777160644531e+01 2.482834625244140625e+01 -1.904403616208583117e-04 1.932576298713684082e-02 5.740596912801265717e-03 7.600766140967607498e-03
1.762000000000000000e+03 1.573063850402832031e+01 1.326647281646728516e+01 -6.453214155044406652e-05 5.912073701620101929e-02 1.771686226129531860e-02 1.386443804949522018e-02
1.763000000000000000e+03 1.644260787963867188e+01 1.378569602966308594e+01 1.185683882795274258e-03 5.403835698962211609e-02 1.656721159815788269e-02 1.543822512030601501e-02
1.764000000000000000e+03 1.608102798461914062e+01 1.353276443481445312e+01 9.715051855891942978e-04 5.730263516306877136e-02 1.748224161565303802e-02 1.446668617427349091e-02
1.765000000000000000e+03 2.267927932739257812e+01 1.879969596862792969e+01 4.647558089345693588e-03 2.653340063989162445e-02 9.354287758469581604e-03 1.355746854096651077e-02
1.766000000000000000e+03 2.411127090454101562e+01 2.155530738830566406e+01 2.103032078593969345e-03 2.262306399643421173e-02 7.417829241603612900e-03 1.030219905078411102e-02
1.767000000000000000e+03 2.504202842712402344e+01 2.502593612670898438e+01 -7.704169256612658501e-04 1.994186826050281525e-02 5.751435644924640656e-03 7.354223635047674179e-03
1.768000000000000000e+03 2.248230743408203125e+01 1.956007957458496094e+01 2.890791278332471848e-03 2.673337236046791077e-02 8.887249045073986053e-03 1.229334063827991486e-02
1.769000000000000000e+03 2.131180191040039062e+01 1.846113967895507812e+01 3.140103071928024292e-03 3.011038899421691895e-02 9.975147433578968048e-03 1.338214613497257233e-02
1.770000000000000000e+03 1.966010475158691406e+01 1.754598045349121094e+01 2.000254113227128983e-03 3.521621599793434143e-02 1.116494089365005493e-02 1.339494157582521439e-02
1.771000000000000000e+03 2.780871772766113281e+01 2.910604667663574219e+01 -1.627015764825046062e-03 1.583117246627807617e-02 4.261246882379055023e-03 5.076181609183549881e-03
1.772000000000000000e+03 1.277401256561279297e+01 8.969150543212890625e+00 5.165222566574811935e-03 1.083700135350227356e-01 3.406057134270668030e-02 -1.307952310889959335e-02
1.773000000000000000e+03 1.114108371734619141e+01 9.184229850769042969e+00 1.557008922100067139e-02 7.386668026447296143e-02 2.683103084564208984e-02 -3.390954434871673584e-02
1.774000000000000000e+03 1.938608741760253906e+01 1.693813896179199219e+01 2.386227482929825783e-03 3.689632192254066467e-02 1.178476493805646896e-02 1.407710369676351547e-02
1.775000000000000000e+03 1.936370849609375000e+01 1.575311946868896484e+01 5.042929667979478836e-03 3.813431784510612488e-02 1.295317430049180984e-02 1.702978275716304779e-02
1.776000000000000000e+03 1.237114048004150391e+01 9.179213523864746094e+00 5.839914549142122269e-03 9.961815923452377319e-02 3.163742274045944214e-02 -1.943804696202278137e-02
1.777000000000000000e+03 2.703263282775878906e+01 2.585853385925292969e+01 9.584608778823167086e-05 1.700730435550212860e-02 5.130944773554801941e-03 7.000379264354705811e-03
1.778000000000000000e+03 2.880979156494140625e+01 3.161527633666992188e+01 -2.316532889381051064e-03 1.450500078499317169e-02 3.656540531665086746e-03 3.910290077328681946e-03
1.779000000000000000e+03 1.089536571502685547e+01 1.014212131500244141e+01 1.026196684688329697e-02 6.259707361459732056e-02 2.185771241784095764e-02 -2.702640555799007416e-02
1.780000000000000000e+03 2.903103256225585938e+01 2.796647453308105469e+01 -2.284860238432884216e-04 1.442333683371543884e-02 4.258455242961645126e-03 5.719936452805995941e-03
1.781000000000000000e+03 3.012574577331542969e+01 2.874765968322753906e+01 -9.936272545019164681e-05 1.316820923238992691e-02 3.920653834939002991e-03 5.326336249709129333e-03
1.782000000000000000e+03 1.180961894989013672e+01 1.529690647125244141e+01 -6.850998848676681519e-03 4.345475137233734131e-02 1.098112575709819794e-02 -9.650751017034053802e-03
1.783000000000000000e+03 1.114178943634033203e+01 7.978152751922607422e+00 3.082954511046409607e-02 8.311088383197784424e-02 3.418212756514549255e-02 -4.893481731414794922e-02
1.784000000000000000e+03 1.204110527038574219e+01 1.622453117370605469e+01 -7.259673904627561569e-03 4.078980907797813416e-02 1.005904003977775574e-02 -8.506788872182369232e-03
1.785000000000000000e+03 1.106388664245605469e+01 1.534877872467041016e+01 -6.130672059953212738e-03 3.894590213894844055e-02 9.844568558037281036e-03 -1.268101204186677933e-02
1.786000000000000000e+03 3.035945129394531250e+01 2.964766502380371094e+01 -4.895394667983055115e-04 1.285070646554231644e-02 3.708350239321589470e-03 4.886675160378217697e-03
1.787000000000000000e+03 3.157258224487304688e+01 3.032987785339355469e+01 -3.928798250854015350e-04 1.175193674862384796e-02 3.407716983929276466e-03 4.496319685131311417e-03
1.788000000000000000e+03 1.334720420837402344e+01 1.103018569946289062e+01 -1.058878027833998203e-03 8.022923767566680908e-02 2.375110611319541931e-02 4.185079014860093594e-04
1.789000000000000000e+03 1.205992412567138672e+01 1.826805877685546875e+01 -8.393748663365840912e-03 3.351169824600219727e-02 7.535385433584451675e-03 -7.811906747519969940e-03
1.790000000000000000e+03 2.977850532531738281e+01 3.092509841918945312e+01 -1.538547920063138008e-03 1.367585081607103348e-02 3.641190938651561737e-03 4.297721199691295624e-03
1.791000000000000000e+03 1.739241409301757812e+01 1.509620666503906250e+01 1.450282521545886993e-03 4.637554660439491272e-02 1.434774883091449738e-02 1.472771540284156799e-02
1.792000000000000000e+03 1.245583534240722656e+01 1.891678047180175781e+01 -8.357195183634757996e-03 3.363045305013656616e-02 7.581977173686027527e-03 -6.940004881471395493e-03
1.793000000000000000e+03 1.235084915161132812e+01 1.041594791412353516e+01 2.311657648533582687e-03 8.254595100879669189e-02 2.545728161931037903e-02 -1.364338584244251251e-02
1.794000000000000000e+03 1.380528831481933594e+01 1.083316135406494141e+01 4.840120673179626465e-04 8.331725746393203735e-02 2.514038234949111938e-02 4.365596454590559006e-03
1.795000000000000000e+03 1.265804481506347656e+01 2.019468879699707031e+01 -8.555225096642971039e-03 3.078908100724220276e-02 6.670156493782997131e-03 -6.373111624270677567e-03
1.796000000000000000e+03 2.810268783569335938e+01 2.572189140319824219e+01 9.873711969703435898e-04 1.560995448380708694e-02 4.979197867214679718e-03 7.252668030560016632e-03
1.797000000000000000e+03 1.278617858886718750e+01 2.215917205810546875e+01 -8.219174109399318695e-03 2.685080468654632568e-02 5.589488893747329712e-03 -6.176607683300971985e-03
1.798000000000000000e+03 1.203890514373779297e+01 2.117215538024902344e+01 -8.623833768069744110e-03 2.669500932097434998e-02 5.421352572739124298e-03 -7.458938285708427429e-03
1.799000000000000000e+03 1.504662799835205078e+01 2.498744583129882812e+01 -7.788468152284622192e-03 2.485225722193717957e-02 5.119137000292539597e-03 -2.624240005388855934e-03
1.800000000000000000e+03 1.427635860443115234e+01 2.249429130554199219e+01 -7.988555356860160828e-03 2.847199141979217529e-02 6.145030725747346878e-03 -3.391181817278265953e-03
1.801000000000000000e+03 2.977943420410156250e+01 3.264205169677734375e+01 -2.238877583295106888e-03 1.354894693940877914e-02 3.393020713701844215e-03 3.517151344567537308e-03
1.802000000000000000e+03 1.428892803192138672e+01 2.998491096496582031e+01 -6.730902940034866333e-03 1.910784468054771423e-02 3.713082289323210716e-03 -3.358187153935432434e-03
1.803000000000000000e+03 1.381337642669677734e+01 3.160256195068359375e+01 -5.777815822511911392e-03 1.725636422634124756e-02 3.443564521148800850e-03 -3.197501646354794502e-03
1.804000000000000000e+03 9.622024536132812500e+00 3.245714569091796875e+01 -4.306441172957420349e-03 1.219561137259006500e-02 2.366750966757535934e-03 -4.939781036227941513e-03
1.805000000000000000e+03 3.034732627868652344e+01 3.487450790405273438e+01 -2.768784062936902046e-03 1.303965877741575241e-02 3.081262577325105667e-03 2.667075255885720253e-03
1.806000000000000000e+03 1.315443992614746094e+01 1.054331684112548828e+01 7.993472972884774208e-04 8.630850166082382202e-02 2.613235451281070709e-02 -3.783358493819832802e-03
1.807000000000000000e+03 2.370099449157714844e+01 2.123938369750976562e+01 2.041457686573266983e-03 2.331597357988357544e-02 7.607229519635438919e-03 1.058355625718832016e-02
1.808000000000000000e+03 1.200361633300781250e+01 1.257636260986328125e+01 -3.060056827962398529e-03 5.930347368121147156e-02 1.687302626669406891e-02 -1.057153008878231049e-02
1.809000000000000000e+03 1.664037322998046875e+01 1.502311801910400391e+01 -5.928941536694765091e-04 4.887583479285240173e-02 1.448488142341375351e-02 1.264575496315956116e-02
1.810000000000000000e+03 1.791329956054687500e+01 1.511069583892822266e+01 2.758808666840195656e-03 4.500040039420127869e-02 1.432776171714067459e-02 1.602568477392196655e-02
1.811000000000000000e+03 1.503450298309326172e+01 1.267301177978515625e+01 -9.266512934118509293e-04 6.485515087842941284e-02 1.917855069041252136e-02 1.159438770264387131e-02
1.812000000000000000e+03 1.279335880279541016e+01 1.275947856903076172e+01 -4.113606177270412445e-03 6.274351477622985840e-02 1.758897304534912109e-02 -4.788818769156932831e-03
1.813000000000000000e+03 2.056691551208496094e+01 1.826344108581542969e+01 2.110084518790245056e-03 3.217490389943122864e-02 1.028549578040838242e-02 1.293308753520250320e-02
1.814000000000000000e+03 1.354093933105468750e+01 2.038904571533203125e+01 -8.263593539595603943e-03 3.145693615078926086e-02 6.958002690225839615e-03 -4.246344789862632751e-03
1.815000000000000000e+03 2.292951965332031250e+01 1.924928283691406250e+01 4.369420930743217468e-03 2.568524889647960663e-02 9.016401134431362152e-03 1.290462631732225418e-02
1.816000000000000000e+03 1.690587425231933594e+01 1.472590160369873047e+01 9.422937873750925064e-04 4.955461621284484863e-02 1.514907367527484894e-02 1.427580323070287704e-02
1.817000000000000000e+03 2.528809547424316406e+01 2.302102088928222656e+01 1.325756311416625977e-03 2.028962969779968262e-02 6.484615616500377655e-03 9.129783138632774353e-03
1.818000000000000000e+03 1.468953609466552734e+01 1.235462951660156250e+01 -8.138991543091833591e-04 6.899949163198471069e-02 2.045567706227302551e-02 9.576413780450820923e-03
1.819000000000000000e+03 1.244412422180175781e+01 1.429773807525634766e+01 -5.750711541622877121e-03 5.160598456859588623e-02 1.375658158212900162e-02 -7.048863917589187622e-03
1.820000000000000000e+03 1.659340095520019531e+01 1.442726325988769531e+01 3.849928907584398985e-04 5.097782239317893982e-02 1.540884468704462051e-02 1.429636403918266296e-02
1.821000000000000000e+03 2.288560104370117188e+01 2.097480583190917969e+01 1.427210052497684956e-03 2.521109767258167267e-02 7.991492748260498047e-03 1.056184712797403336e-02
1.822000000000000000e+03 2.338066864013671875e+01 2.082910346984863281e+01 2.303169807419180870e-03 2.406778186559677124e-02 7.911285385489463806e-03 1.078971847891807556e-02
1.823000000000000000e+03 2.332966804504394531e+01 2.411380958557128906e+01 -1.630929415114223957e-03 2.270343527197837830e-02 6.321751978248357773e-03 7.366453763097524643e-03
1.824000000000000000e+03 2.419535255432128906e+01 2.293963050842285156e+01 4.618956299964338541e-04 2.198110148310661316e-02 6.732899229973554611e-03 9.056191891431808472e-03
1.825000000000000000e+03 1.538196659088134766e+01 1.298036193847656250e+01 5.315323869581334293e-05 6.263884156942367554e-02 1.880759745836257935e-02 1.252073701471090317e-02
1.826000000000000000e+03 1.399941349029541016e+01 1.180828475952148438e+01 -1.291345222853124142e-03 7.407069206237792969e-02 2.183380350470542908e-02 5.333105567842721939e-03
1.827000000000000000e+03 2.081109619140625000e+01 1.877264785766601562e+01 1.877260277979075909e-03 3.109007701277732849e-02 9.890201501548290253e-03 1.238142047077417374e-02
1.828000000000000000e+03 1.913231658935546875e+01 1.853907966613769531e+01 -7.877217722125351429e-04 3.485542908310890198e-02 1.022031251341104507e-02 1.076509337872266769e-02
1.829000000000000000e+03 1.617471122741699219e+01 1.418890476226806641e+01 -1.752815151121467352e-04 5.407583341002464294e-02 1.617016643285751343e-02 1.297479216009378433e-02
1.830000000000000000e+03 1.577591323852539062e+01 1.395525360107421875e+01 -1.151373377069830894e-03 5.550238490104675293e-02 1.630530320107936859e-02 1.206890400499105453e-02
1.831000000000000000e+03 1.502160549163818359e+01 1.342392158508300781e+01 -2.377365948632359505e-03 6.013518571853637695e-02 1.732734590768814087e-02 9.429372847080230713e-03
1.832000000000000000e+03 2.201545715332031250e+01 1.981714630126953125e+01 2.092407550662755966e-03 2.743588946759700775e-02 8.858488872647285461e-03 1.169429812580347061e-02
1.833000000000000000e+03 2.272853851318359375e+01 2.006878089904785156e+01 2.655380172654986382e-03 2.581012248992919922e-02 8.539651520550251007e-03 1.162943709641695023e-02
1.834000000000000000e+03 1.181239604949951172e+01 1.062310981750488281e+01 3.166311187669634819e-03 7.367508858442306519e-02 2.305242046713829041e-02 -1.858466491103172302e-02
1.835000000000000000e+03 2.634067535400390625e+01 2.644225311279296875e+01 -1.010703737847507000e-03 1.800309494137763977e-02 5.097717046737670898e-03 6.538356188684701920e-03
1.836000000000000000e+03 1.933244705200195312e+01 1.781163215637207031e+01 6.585440714843571186e-04 3.548946604132652283e-02 1.084440294653177261e-02 1.229031383991241455e-02
1.837000000000000000e+03 1.822938156127929688e+01 1.581498050689697266e+01 2.065068809315562248e-03 4.235572740435600281e-02 1.332623884081840515e-02 1.465195324271917343e-02
1.838000000000000000e+03 2.508354568481445312e+01 2.230763435363769531e+01 2.053622622042894363e-03 2.064261771738529205e-02 6.808871868997812271e-03 9.785410016775131226e-03
1.839000000000000000e+03 1.113955593109130859e+01 8.676504135131835938e+00 2.206994779407978058e-02 7.575792819261550903e-02 2.934836409986019135e-02 -3.810066357254981995e-02
1.840000000000000000e+03 2.761388969421386719e+01 2.645397186279296875e+01 6.849980763945495710e-06 1.612836681306362152e-02 4.840564914047718048e-03 6.762752309441566467e-03
1.841000000000000000e+03 1.912141227722167969e+01 1.625467300415039062e+01 3.385679796338081360e-03 3.877652436494827271e-02 1.264866068959236145e-02 1.531171426177024841e-02
1.842000000000000000e+03 1.351194000244140625e+01 1.751342201232910156e+01 -8.092194795608520508e-03 4.062802717089653015e-02 9.760749526321887970e-03 -3.158154664561152458e-03
1.843000000000000000e+03 1.867581367492675781e+01 1.603808784484863281e+01 2.683677943423390388e-03 4.010475054383277893e-02 1.283652801066637039e-02 1.535413134843111038e-02
1.844000000000000000e+03 2.695519828796386719e+01 2.732751655578613281e+01 -1.055408618412911892e-03 1.695084385573863983e-02 4.768630489706993103e-03 5.975472740828990936e-03
1.845000000000000000e+03 1.055808448791503906e+01 9.489976882934570312e+00 1.958230324089527130e-02 6.006989255547523499e-02 2.389565855264663696e-02 -3.567733615636825562e-02
1.846000000000000000e+03 1.256272125244140625e+01 1.510593414306640625e+01 -6.577790714800357819e-03 4.749778658151626587e-02 1.227599848061800003e-02 -6.594019941985607147e-03
1.847000000000000000e+03 3.068152809143066406e+01 3.061295890808105469e+01 -8.697364828549325466e-04 1.260457560420036316e-02 3.520451718941330910e-03 4.417624324560165405e-03
1.848000000000000000e+03 1.317155838012695312e+01 1.668180847167968750e+01 -7.534489966928958893e-03 4.290826618671417236e-02 1.061213389039039612e-02 -4.045830573886632919e-03
1.849000000000000000e+03 1.144721984863281250e+01 1.270690917968750000e+01 -1.523292274214327335e-03 5.395689234137535095e-02 1.573007926344871521e-02 -1.509688142687082291e-02
1.850000000000000000e+03 1.170292758941650391e+01 1.211150741577148438e+01 -3.436411207076162100e-04 5.996195971965789795e-02 1.788549683988094330e-02 -1.506263017654418945e-02
1.851000000000000000e+03 2.416024208068847656e+01 2.386795234680175781e+01 -6.555639556609094143e-04 2.181585878133773804e-02 6.348088383674621582e-03 7.995126768946647644e-03
1.852000000000000000e+03 1.431375026702880859e+01 1.277867412567138672e+01 -2.842172281816601753e-03 6.497791409492492676e-02 1.864072121679782867e-02 6.023704539984464645e-03
1.853000000000000000e+03 1.888119316101074219e+01 1.800033950805664062e+01 -5.502083222381770611e-04 3.624977543950080872e-02 1.070987060666084290e-02 1.113756559789180756e-02
1.854000000000000000e+03 1.507466602325439453e+01 2.194767951965332031e+01 -7.958798669278621674e-03 3.042798303067684174e-02 6.740755401551723480e-03 -1.464386703446507454e-03
1.855000000000000000e+03 1.115924167633056641e+01 1.083875560760498047e+01 6.615269929170608521e-03 6.213014200329780579e-02 2.062362432479858398e-02 -2.307601645588874817e-02
1.856000000000000000e+03 1.274944877624511719e+01 1.783476448059082031e+01 -8.116712793707847595e-03 3.758009150624275208e-02 8.839013054966926575e-03 -6.051584612578153610e-03
1.857000000000000000e+03 1.336429882049560547e+01 1.564434146881103516e+01 -6.980638485401868820e-03 4.762695357203483582e-02 1.219389494508504868e-02 -3.407582873478531837e-03
1.858000000000000000e+03 1.362557220458984375e+01 1.933447837829589844e+01 -8.475311100482940674e-03 3.495548292994499207e-02 7.944052107632160187e-03 -3.868973581120371819e-03
1.859000000000000000e+03 2.792226409912109375e+01 2.787462425231933594e+01 -9.081859607249498367e-04 1.575332880020141602e-02 4.453543107956647873e-03 5.838479846715927124e-03
1.860000000000000000e+03 1.276828002929687500e+01 1.592105484008789062e+01 -7.533565163612365723e-03 4.482794180512428284e-02 1.118831336498260498e-02 -5.422689951956272125e-03
1.861000000000000000e+03 3.106149673461914062e+01 3.342323303222656250e+01 -2.150400774553418159e-03 1.244759745895862579e-02 3.089159028604626656e-03 3.248920431360602379e-03
1.862000000000000000e+03 1.374636268615722656e+01 2.150474739074707031e+01 -8.522019721567630768e-03 2.959333173930644989e-02 6.321393884718418121e-03 -4.124473780393600464e-03
1.863000000000000000e+03 1.419919300079345703e+01 2.417160606384277344e+01 -7.736513856798410416e-03 2.551675774157047272e-02 5.334073211997747421e-03 -3.750966629013419151e-03
1.864000000000000000e+03 1.595532321929931641e+01 2.564580917358398438e+01 -7.247206754982471466e-03 2.472170442342758179e-02 5.242349114269018173e-03 -1.588996034115552902e-03
1.865000000000000000e+03 1.473305034637451172e+01 2.831949424743652344e+01 -6.933695171028375626e-03 2.088297531008720398e-02 4.184783902019262314e-03 -3.294294467195868492e-03
1.866000000000000000e+03 1.547922897338867188e+01 3.218818664550781250e+01 -6.302377209067344666e-03 1.829398795962333679e-02 3.597483271732926369e-03 -2.260786248371005058e-03
1.867000000000000000e+03 2.943568801879882812e+01 3.660529327392578125e+01 -3.630450926721096039e-03 1.369977276772260666e-02 3.020796459168195724e-03 2.000085311010479927e-03
1.868000000000000000e+03 2.446656417846679688e+01 2.230077171325683594e+01 1.555497176013886929e-03 2.176269143819808960e-02 6.995456293225288391e-03 9.614267386496067047e-03
1.869000000000000000e+03 2.230426216125488281e+01 2.166869163513183594e+01 -1.673887454671785235e-04 2.575648762285709381e-02 7.676729466766119003e-03 9.394882246851921082e-03
1.870000000000000000e+03 2.299251937866210938e+01 2.208372306823730469e+01 1.276021066587418318e-04 2.433050051331520081e-02 7.337430957704782486e-03 9.288067929446697235e-03
1.871000000000000000e+03 1.358180427551269531e+01 1.172832584381103516e+01 -1.219483208842575550e-03 7.335153967142105103e-02 2.163961715996265411e-02 1.501494785770773888e-03
1.872000000000000000e+03 1.371116256713867188e+01 1.212360000610351562e+01 -3.009957727044820786e-03 7.010655105113983154e-02 2.012897841632366180e-02 2.252099104225635529e-03
1.873000000000000000e+03 1.357538700103759766e+01 1.282021427154541016e+01 -3.902352647855877876e-03 6.401812285184860229e-02 1.803473010659217834e-02 6.456649280153214931e-04
1.874000000000000000e+03 2.181204605102539062e+01 1.933933258056640625e+01 2.271680394187569618e-03 2.839072234928607941e-02 9.198720566928386688e-03 1.222546678036451340e-02
1.875000000000000000e+03 1.844434547424316406e+01 1.526560783386230469e+01 3.899264615029096603e-03 4.226214066147804260e-02 1.384842209517955780e-02 1.692158728837966919e-02
1.876000000000000000e+03 2.038727760314941406e+01 1.917366600036621094e+01 1.996862265514209867e-04 3.171415999531745911e-02 9.574153460562229156e-03 1.130935270339250565e-02
1.877000000000000000e+03 1.540715885162353516e+01 2.060814666748046875e+01 -7.608607411384582520e-03 3.319094330072402954e-02 7.674701046198606491e-03 7.831317816453520209e-06
1.878000000000000000e+03 1.630347251892089844e+01 1.482659816741943359e+01 -1.126810209825634956e-03 5.092752724885940552e-02 1.494021527469158173e-02 1.180630922317504883e-02
1.879000000000000000e+03 2.289462471008300781e+01 2.156240272521972656e+01 6.815802189521491528e-04 2.473347634077072144e-02 7.624517194926738739e-03 9.938699193298816681e-03
1.880000000000000000e+03 1.466001701354980469e+01 1.311057949066162109e+01 -2.175275934860110283e-03 6.342858821153640747e-02 1.837599277496337891e-02 7.548034656792879105e-03
1.881000000000000000e+03 1.465006351470947266e+01 1.391108131408691406e+01 -3.382595721632242203e-03 5.843437090516090393e-02 1.651553250849246979e-02 5.948141682893037796e-03
1.882000000000000000e+03 2.468156814575195312e+01 2.345280838012695312e+01 4.807545046787708998e-04 2.106220275163650513e-02 6.462887395173311234e-03 8.660186082124710083e-03
1.883000000000000000e+03 1.384569168090820312e+01 1.402427101135253906e+01 -4.732059314846992493e-03 5.732676386833190918e-02 1.577841117978096008e-02 7.667854661121964455e-04
1.884000000000000000e+03 1.306827545166015625e+01 1.190633296966552734e+01 -3.068310441449284554e-03 7.142284512519836426e-02 2.050635963678359985e-02 -2.635968150570988655e-03
1.885000000000000000e+03 1.548051834106445312e+01 1.442503833770751953e+01 -2.459957264363765717e-03 5.460955947637557983e-02 1.564488001167774200e-02 9.035747498273849487e-03
1.886000000000000000e+03 1.568048954010009766e+01 1.509542274475097656e+01 -3.118255408480763435e-03 5.111620575189590454e-02 1.439938507974147797e-02 8.507724851369857788e-03
1.887000000000000000e+03 1.888274192810058594e+01 1.680858993530273438e+01 1.442983513697981834e-03 3.818780556321144104e-02 1.188923604786396027e-02 1.376938726752996445e-02
1.888000000000000000e+03 2.112844085693359375e+01 1.921359443664550781e+01 1.460677827708423138e-03 2.985359542071819305e-02 9.394281543791294098e-03 1.191743463277816772e-02
1.889000000000000000e+03 1.991890716552734375e+01 1.889906501770019531e+01 3.316526999697089195e-04 3.300103917717933655e-02 9.999807924032211304e-03 1.131535135209560394e-02
1.890000000000000000e+03 1.153187465667724609e+01 8.852329254150390625e+00 1.493540592491626740e-02 8.844090253114700317e-02 3.101289272308349609e-02 -3.304148837924003601e-02
1.891000000000000000e+03 1.152116584777832031e+01 9.670518875122070312e+00 1.023007743060588837e-02 7.870008796453475952e-02 2.667905017733573914e-02 -2.723702043294906616e-02
1.892000000000000000e+03 1.687432289123535156e+01 1.555359363555908203e+01 -7.662828429602086544e-04 4.661342129111289978e-02 1.375414151698350906e-02 1.225749030709266663e-02
1.893000000000000000e+03 2.218168067932128906e+01 2.037089347839355469e+01 1.267294981516897678e-03 2.682107686996459961e-02 8.426511660218238831e-03 1.091275364160537720e-02
1.894000000000000000e+03 1.832019996643066406e+01 1.820559883117675781e+01 -1.877562142908573151e-03 3.710056841373443604e-02 1.056690234690904617e-02 9.876906871795654297e-03
1.895000000000000000e+03 1.363480472564697266e+01 1.841950416564941406e+01 -7.981203496456146240e-03 3.742692247033119202e-02 8.833715692162513733e-03 -3.184781409800052643e-03
1.896000000000000000e+03 1.199309253692626953e+01 1.004446887969970703e+01 5.118439439684152603e-03 7.991468906402587891e-02 2.550993859767913818e-02 -1.844894699752330780e-02
1.897000000000000000e+03 1.072584056854248047e+01 8.393190383911132812e+00 3.019692003726959229e-02 6.818927824497222900e-02 2.951586060225963593e-02 -4.621963202953338623e-02
1.898000000000000000e+03 2.493576049804687500e+01 2.420223236083984375e+01 -1.675186213105916977e-04 2.051963284611701965e-02 6.105634383857250214e-03 7.937592454254627228e-03
1.899000000000000000e+03 2.366550254821777344e+01 2.262273788452148438e+01 4.021748900413513184e-04 2.308798208832740784e-02 7.047047372907400131e-03 9.154062718152999878e-03
1.900000000000000000e+03 2.635301780700683594e+01 2.945026588439941406e+01 -2.577700419351458549e-03 1.711815595626831055e-02 4.362136591225862503e-03 4.638665355741977692e-03
1.901000000000000000e+03 3.054425239562988281e+01 3.160635757446289062e+01 -1.550487941130995750e-03 1.283635664731264114e-02 3.385760588571429253e-03 4.003409761935472488e-03
1.902000000000000000e+03 1.223956584930419922e+01 1.318745422363281250e+01 -3.766293404623866081e-03 5.749978497624397278e-02 1.612004637718200684e-02 -9.431568905711174011e-03
1.903000000000000000e+03 1.200370311737060547e+01 1.120894813537597656e+01 1.441496773622930050e-03 7.016260176897048950e-02 2.148122899234294891e-02 -1.512069161981344223e-02
1.904000000000000000e+03 1.505686664581298828e+01 1.419968223571777344e+01 -3.418973181396722794e-03 5.583724007010459900e-02 1.572548039257526398e-02 7.807092741131782532e-03
1.905000000000000000e+03 1.435133266448974609e+01 1.738568305969238281e+01 -7.262611761689186096e-03 4.189898073673248291e-02 1.039091125130653381e-02 -1.771566312527284026e-04
1.906000000000000000e+03 1.805245399475097656e+01 1.700019836425781250e+01 -8.107632165774703026e-04 4.004267975687980652e-02 1.176957506686449051e-02 1.178617682307958603e-02
1.907000000000000000e+03 1.439444637298583984e+01 2.020020103454589844e+01 -8.194062858819961548e-03 3.364723548293113708e-02 7.635952439159154892e-03 -2.049303846433758736e-03
1.908000000000000000e+03 3.163524246215820312e+01 3.215278625488281250e+01 -1.273228670470416546e-03 1.186825148761272430e-02 3.178506623953580856e-03 3.744844347238540649e-03
1.909000000000000000e+03 1.636665153503417969e+01 2.011421966552734375e+01 -6.579793058335781097e-03 3.486086800694465637e-02 8.484322577714920044e-03 2.680881414562463760e-03
1.910000000000000000e+03 2.594480705261230469e+01 2.560219955444335938e+01 -5.215825513005256653e-04 1.858282834291458130e-02 5.418373737484216690e-03 7.078434806317090988e-03
1.911000000000000000e+03 1.626005172729492188e+01 2.888057327270507812e+01 -6.887441966682672501e-03 2.114178985357284546e-02 4.276304505765438080e-03 -1.732248812913894653e-03
1.912000000000000000e+03 1.492897033691406250e+01 2.333948898315429688e+01 -8.045078255236148834e-03 2.749768458306789398e-02 5.835781805217266083e-03 -2.269564662128686905e-03
1.913000000000000000e+03 1.572253417968750000e+01 2.407124137878417969e+01 -7.207635790109634399e-03 2.696980163455009460e-02 5.928649567067623138e-03 -1.220391597598791122e-03
1.914000000000000000e+03 1.673004722595214844e+01 2.732392692565917969e+01 -6.880543660372495651e-03 2.312198840081691742e-02 4.872433375567197800e-03 -1.035065506584942341e-03
1.915000000000000000e+03 2.589969825744628906e+01 2.805636978149414062e+01 -2.247880678623914719e-03 1.802601851522922516e-02 4.733440931886434555e-03 5.345818586647510529e-03
1.916000000000000000e+03 2.816735649108886719e+01 3.040211868286132812e+01 -2.096498617902398109e-03 1.526679378002882004e-02 3.951088525354862213e-03 4.421575926244258881e-03
1.917000000000000000e+03 3.226892852783203125e+01 4.145093917846679688e+01 -3.085043048486113548e-03 1.139299478381872177e-02 2.492385450750589371e-03 2.907748857978731394e-04
1.918000000000000000e+03 2.751565551757812500e+01 4.117008590698242188e+01 -4.695456940680742264e-03 1.482968963682651520e-02 3.040269715711474419e-03 4.082450759597122669e-04
1.919000000000000000e+03 2.155007553100585938e+01 1.998495101928710938e+01 8.982308791019022465e-04 2.841218002140522003e-02 8.793123066425323486e-03 1.094549335539340973e-02
1.920000000000000000e+03 2.161385536193847656e+01 2.114468002319335938e+01 -4.601531254593282938e-04 2.744522877037525177e-02 8.095522411167621613e-03 9.537492878735065460e-03
1.921000000000000000e+03 1.841477775573730469e+01 1.658118629455566406e+01 9.506478090770542622e-04 4.019311070442199707e-02 1.234312821179628372e-02 1.316205784678459167e-02
1.922000000000000000e+03 1.609197807312011719e+01 1.525560855865478516e+01 -2.179941162467002869e-03 4.885604977607727051e-02 1.400283258408308029e-02 9.993603453040122986e-03
1.923000000000000000e+03 1.697141265869140625e+01 1.510744476318359375e+01 9.948513616109266877e-05 4.820801690220832825e-02 1.449225004762411118e-02 1.365409698337316513e-02
1.924000000000000000e+03 1.590502548217773438e+01 1.462444591522216797e+01 -1.807514112442731857e-03 5.194640159606933594e-02 1.504166610538959503e-02 1.081497222185134888e-02
1.925000000000000000e+03 1.258504867553710938e+01 1.088762950897216797e+01 -1.369900419376790524e-04 7.899405062198638916e-02 2.365711703896522522e-02 -9.083145298063755035e-03
1.926000000000000000e+03 1.390660285949707031e+01 1.319857692718505859e+01 -3.445038339123129845e-03 6.256376951932907104e-02 1.773561909794807434e-02 2.101616002619266510e-03
1.927000000000000000e+03 1.301330471038818359e+01 1.407632827758789062e+01 -5.250661633908748627e-03 5.482434853911399841e-02 1.487210579216480255e-02 -3.896592650562524796e-03
1.928000000000000000e+03 1.321361541748046875e+01 1.501125431060791016e+01 -6.339521147310733795e-03 5.036090314388275146e-02 1.320641487836837769e-02 -2.989764092490077019e-03
1.929000000000000000e+03 1.339548873901367188e+01 1.447237586975097656e+01 -5.823880899697542191e-03 5.314846709370613098e-02 1.419737655669450760e-02 -1.564059290103614330e-03
1.930000000000000000e+03 1.522249698638916016e+01 1.496127986907958984e+01 -3.838638775050640106e-03 5.165435001254081726e-02 1.434471365064382553e-02 6.916788872331380844e-03
1.931000000000000000e+03 2.314795112609863281e+01 2.259145736694335938e+01 -1.881131902337074280e-04 2.386494725942611694e-02 7.103050127625465393e-03 8.926161564886569977e-03
1.932000000000000000e+03 1.939602088928222656e+01 1.900866889953613281e+01 -8.765310049057006836e-04 3.396781161427497864e-02 9.927383624017238617e-03 1.039900816977024078e-02
1.933000000000000000e+03 1.588843536376953125e+01 2.188507652282714844e+01 -7.555737625807523727e-03 3.104404546320438385e-02 7.046492304652929306e-03 1.121083187172189355e-04
1.934000000000000000e+03 1.426612186431884766e+01 1.356567382812500000e+01 -4.053682554513216019e-03 5.952261760830879211e-02 1.664068177342414856e-02 4.432731773704290390e-03
1.935000000000000000e+03 2.073111152648925781e+01 1.962059020996093750e+01 4.079567152075469494e-04 3.036915883421897888e-02 9.233134798705577850e-03 1.082509849220514297e-02
1.936000000000000000e+03 1.969406509399414062e+01 1.933262062072753906e+01 -1.310381805524230003e-03 3.269972279667854309e-02 9.416802786290645599e-03 9.982699528336524963e-03
1.937000000000000000e+03 1.800518226623535156e+01 1.630826759338378906e+01 3.047204227186739445e-04 4.177216440439224243e-02 1.262306608259677887e-02 1.329098362475633621e-02
1.938000000000000000e+03 2.110210800170898438e+01 1.995215034484863281e+01 2.071995986625552177e-04 2.925016917288303375e-02 8.837210945785045624e-03 1.073630806058645248e-02
1.939000000000000000e+03 1.852142333984375000e+01 1.889839363098144531e+01 -2.382753649726510048e-03 3.537877276539802551e-02 9.898805059492588043e-03 8.876043371856212616e-03
1.940000000000000000e+03 1.769706916809082031e+01 1.837327957153320312e+01 -3.204081440344452858e-03 3.785860911011695862e-02 1.039635855704545975e-02 8.288660086691379547e-03
1.941000000000000000e+03 2.158390045166015625e+01 2.051280784606933594e+01 3.961921029258519411e-04 2.769890055060386658e-02 8.428527973592281342e-03 1.032500807195901871e-02
1.942000000000000000e+03 1.226517677307128906e+01 1.172614765167236328e+01 -1.782019506208598614e-03 6.746474653482437134e-02 1.970481686294078827e-02 -1.068722084164619446e-02
1.943000000000000000e+03 1.433318233489990234e+01 1.836066436767578125e+01 -7.660215254873037338e-03 3.853005543351173401e-02 9.260952472686767578e-03 -1.258964533917605877e-03
1.944000000000000000e+03 2.435635757446289062e+01 2.439677429199218750e+01 -8.128748158924281597e-04 2.124055102467536926e-02 6.128302775323390961e-03 7.710875943303108215e-03
1.945000000000000000e+03 1.262639427185058594e+01 1.366708946228027344e+01 -5.296940449625253677e-03 5.512422695755958557e-02 1.494818553328514099e-02 -6.048293784260749817e-03
1.946000000000000000e+03 2.519182205200195312e+01 2.590520477294921875e+01 -1.420044107362627983e-03 1.964605040848255157e-02 5.467801820486783981e-03 6.610993295907974243e-03
1.947000000000000000e+03 2.449393844604492188e+01 2.842611694335937500e+01 -3.299575299024581909e-03 1.919539831578731537e-02 4.768746905028820038e-03 4.605893045663833618e-03
1.948000000000000000e+03 2.544958496093750000e+01 2.690142822265625000e+01 -1.796857919543981552e-03 1.882826350629329681e-02 5.109421908855438232e-03 6.048989482223987579e-03
1.949000000000000000e+03 1.373995113372802734e+01 1.616784858703613281e+01 -7.275951094925403595e-03 4.551826789975166321e-02 1.147269550710916519e-02 -1.367266988381743431e-03
1.950000000000000000e+03 1.376885223388671875e+01 1.487241268157958984e+01 -5.561525467783212662e-03 5.217971280217170715e-02 1.398545689880847931e-02 5.794366006739437580e-05
1.951000000000000000e+03 2.520084571838378906e+01 3.166725921630859375e+01 -4.008173476904630661e-03 1.751874200999736786e-02 4.053170792758464813e-03 3.169576870277523994e-03
1.952000000000000000e+03 1.432830429077148438e+01 1.927875137329101562e+01 -7.902246899902820587e-03 3.550235927104949951e-02 8.280034177005290985e-03 -1.859820913523435593e-03
1.953000000000000000e+03 1.735866737365722656e+01 1.649913406372070312e+01 -1.707687857560813427e-03 4.304619878530502319e-02 1.240155287086963654e-02 1.129775121808052063e-02
1.954000000000000000e+03 1.563551425933837891e+01 1.601916694641113281e+01 -4.255153238773345947e-03 4.711800813674926758e-02 1.285885646939277649e-02 6.904214154928922653e-03
1.955000000000000000e+03 1.591707992553710938e+01 1.568219089508056641e+01 -3.377384040504693985e-03 4.870895668864250183e-02 1.359947212040424347e-02 8.460095152258872986e-03
1.956000000000000000e+03 1.555391311645507812e+01 2.264274787902832031e+01 -7.386714220046997070e-03 2.920607849955558777e-02 6.545809563249349594e-03 -9.664103272370994091e-04
1.957000000000000000e+03 1.470044136047363281e+01 2.109622764587402344e+01 -7.853251881897449493e-03 3.195824101567268372e-02 7.231496740132570267e-03 -1.770602772012352943e-03
1.958000000000000000e+03 1.631938552856445312e+01 2.321215820312500000e+01 -7.566880434751510620e-03 2.863789349794387817e-02 6.321304012089967728e-03 -8.003845141502097249e-05
1.959000000000000000e+03 1.699189567565917969e+01 2.588023948669433594e+01 -7.031236775219440460e-03 2.490233257412910461e-02 5.361328832805156708e-03 -1.757729478413239121e-04
1.960000000000000000e+03 2.873880004882812500e+01 3.383358764648437500e+01 -3.174449549987912178e-03 1.435952540487051010e-02 3.355522640049457550e-03 2.937730168923735619e-03
1.961000000000000000e+03 2.399822998046875000e+01 3.449594116210937500e+01 -5.041136872023344040e-03 1.738890632987022400e-02 3.704330883920192719e-03 1.711341436021029949e-03
1.962000000000000000e+03 1.572038936614990234e+01 3.046180534362792969e+01 -6.638009101152420044e-03 1.996791176497936249e-02 3.998970612883567810e-03 -2.451228909194469452e-03
1.963000000000000000e+03 1.820851898193359375e+01 1.753286743164062500e+01 -9.532226831652224064e-04 3.851093351840972900e-02 1.126731373369693756e-02 1.089348364621400833e-02
1.964000000000000000e+03 2.226992034912109375e+01 2.101024055480957031e+01 6.835521198809146881e-04 2.606856077909469604e-02 8.025634102523326874e-03 1.018748432397842407e-02
1.965000000000000000e+03 1.471684646606445312e+01 1.479022026062011719e+01 -4.468745552003383636e-03 5.363172665238380432e-02 1.474889460951089859e-02 4.587171133607625961e-03
1.966000000000000000e+03 1.347058773040771484e+01 1.362397003173828125e+01 -5.105911754071712494e-03 5.823982879519462585e-02 1.594017446041107178e-02 -4.853143182117491961e-04
1.967000000000000000e+03 1.515107727050781250e+01 1.754067611694335938e+01 -6.268177181482315063e-03 4.230765998363494873e-02 1.081184484064579010e-02 2.541350899264216423e-03
1.968000000000000000e+03 1.939134025573730469e+01 1.977627754211425781e+01 -1.724098226986825466e-03 3.255460411310195923e-02 9.249151684343814850e-03 8.964382112026214600e-03
1.969000000000000000e+03 1.424701023101806641e+01 1.445275878906250000e+01 -5.134057719260454178e-03 5.436557531356811523e-02 1.476945541799068451e-02 3.016722621396183968e-03
1.970000000000000000e+03 1.889949989318847656e+01 1.944851493835449219e+01 -2.542572328820824623e-03 3.381124883890151978e-02 9.380602277815341949e-03 8.684270083904266357e-03
1.971000000000000000e+03 2.006193161010742188e+01 1.957325935363769531e+01 -4.995787749066948891e-04 3.184467926621437073e-02 9.403529576957225800e-03 1.025999616831541061e-02
1.972000000000000000e+03 1.720506858825683594e+01 1.611138343811035156e+01 -8.583122398704290390e-04 4.401019588112831116e-02 1.294556446373462677e-02 1.170321647077798843e-02
1.973000000000000000e+03 1.774299621582031250e+01 1.671046829223632812e+01 -5.852075992152094841e-04 4.152060300111770630e-02 1.228061877191066742e-02 1.145882159471511841e-02
1.974000000000000000e+03 1.761066436767578125e+01 1.767534828186035156e+01 -2.457387279719114304e-03 3.966908529400825500e-02 1.116350945085287094e-02 9.451787918806076050e-03
1.975000000000000000e+03 2.383893775939941406e+01 2.436901855468750000e+01 -1.189847942441701889e-03 2.201108820736408234e-02 6.246371660381555557e-03 7.422180380672216415e-03
1.976000000000000000e+03 2.373405456542968750e+01 2.349170112609863281e+01 -5.391828017309308052e-04 2.252020500600337982e-02 6.594306323677301407e-03 8.217894472181797028e-03
1.977000000000000000e+03 2.165892982482910156e+01 2.183488082885742188e+01 -1.099821063689887524e-03 2.652430720627307892e-02 7.627345621585845947e-03 8.652392774820327759e-03
1.978000000000000000e+03 2.333589744567871094e+01 2.308787727355957031e+01 -6.576060550287365913e-04 2.327327243983745575e-02 6.784699857234954834e-03 8.342215791344642639e-03
1.979000000000000000e+03 2.364107131958007812e+01 2.508880615234375000e+01 -2.074897987768054008e-03 2.190598659217357635e-02 5.949326790869235992e-03 6.758764386177062988e-03
1.980000000000000000e+03 1.252759265899658203e+01 1.223928737640380859e+01 -2.373149152845144272e-03 6.517136096954345703e-02 1.883946359157562256e-02 -8.504869416356086731e-03
1.981000000000000000e+03 1.698773193359375000e+01 1.769267272949218750e+01 -3.773311385884881020e-03 4.029676690697669983e-02 1.095703709870576859e-02 7.768519222736358643e-03
1.982000000000000000e+03 1.502911663055419922e+01 1.921543884277343750e+01 -7.393227890133857727e-03 3.668276593089103699e-02 8.786860853433609009e-03 2.198244765168055892e-04
1.983000000000000000e+03 2.097707366943359375e+01 2.053406143188476562e+01 -5.397843196988105774e-04 2.916567586362361908e-02 8.587767370045185089e-03 9.733424521982669830e-03
1.984000000000000000e+03 1.792255210876464844e+01 2.007700538635253906e+01 -4.399539902806282043e-03 3.385343402624130249e-02 8.836167864501476288e-03 6.067784503102302551e-03
1.985000000000000000e+03 1.391443157196044922e+01 1.548818111419677734e+01 -6.002525333315134048e-03 4.978786408901214600e-02 1.313560176640748978e-02 7.466982933692634106e-04
1.986000000000000000e+03 1.649532890319824219e+01 1.671668434143066406e+01 -3.695271909236907959e-03 4.369109496474266052e-02 1.199874654412269592e-02 8.347540162503719330e-03
1.987000000000000000e+03 1.647707939147949219e+01 1.543249893188476562e+01 -1.590198487974703312e-03 4.854370653629302979e-02 1.408605184406042099e-02 1.120868977159261703e-02
1.988000000000000000e+03 1.441756916046142578e+01 1.640675735473632812e+01 -6.459993310272693634e-03 4.592737182974815369e-02 1.184021402150392532e-02 1.037309528328478336e-03
1.989000000000000000e+03 1.554739761352539062e+01 1.557824420928955078e+01 -3.751040901988744736e-03 4.842467233538627625e-02 1.340208947658538818e-02 7.051854860037565231e-03
1.990000000000000000e+03 2.338818168640136719e+01 2.172866821289062500e+01 1.048812759108841419e-03 2.399579063057899475e-02 7.513381075114011765e-03 9.928998537361621857e-03
1.991000000000000000e+03 1.504323577880859375e+01 1.839051246643066406e+01 -7.246014662086963654e-03 3.895787522196769714e-02 9.513557888567447662e-03 8.082853746600449085e-04
1.992000000000000000e+03 1.512919712066650391e+01 1.629211425781250000e+01 -5.357278045266866684e-03 4.625117033720016479e-02 1.226816792041063309e-02 4.019132815301418304e-03
1.993000000000000000e+03 1.659686851501464844e+01 2.479987907409667969e+01 -7.307175546884536743e-03 2.615904621779918671e-02 5.655561108142137527e-03 -3.826924948953092098e-04
1.994000000000000000e+03 2.757442474365234375e+01 3.249517822265625000e+01 -3.165575210005044937e-03 1.549168117344379425e-02 3.697831649333238602e-03 3.325491677969694138e-03
1.995000000000000000e+03 2.301366233825683594e+01 3.023333168029785156e+01 -4.711925983428955078e-03 1.952756382524967194e-02 4.444691352546215057e-03 2.997660310938954353e-03
1.996000000000000000e+03 2.475274467468261719e+01 2.994180297851562500e+01 -3.763952292501926422e-03 1.855621486902236938e-02 4.437678493559360504e-03 3.855329006910324097e-03
1.997000000000000000e+03 2.435019493103027344e+01 2.514303207397460938e+01 -1.411920296959578991e-03 2.100525423884391785e-02 5.878000054508447647e-03 6.937875878065824509e-03
1.998000000000000000e+03 2.735041809082031250e+01 3.523777770996093750e+01 -3.947778604924678802e-03 1.524857431650161743e-02 3.390238620340824127e-03 2.200629329308867455e-03
1.999000000000000000e+03 1.815532684326171875e+01 2.763820266723632812e+01 -6.615461315959692001e-03 2.299325913190841675e-02 4.913339391350746155e-03 4.572948382701724768e-04
2.000000000000000000e+03 1.628772544860839844e+01 1.590243530273437500e+01 -2.703181002289056778e-03 4.641301557421684265e-02 1.311295013874769211e-02 9.240672923624515533e-03
2.001000000000000000e+03 1.507712841033935547e+01 1.558478736877441406e+01 -4.925103858113288879e-03 4.977916926145553589e-02 1.345621980726718903e-02 4.990754649043083191e-03
2.002000000000000000e+03 2.241381835937500000e+01 2.227873992919921875e+01 -6.828242330811917782e-04 2.506838925182819366e-02 7.315669208765029907e-03 8.760850876569747925e-03
2.003000000000000000e+03 2.095519828796386719e+01 2.123710632324218750e+01 -1.423824694938957691e-03 2.821804396808147430e-02 8.038265630602836609e-03 8.793313987553119659e-03
2.004000000000000000e+03 1.783332061767578125e+01 1.917534255981445312e+01 -3.769581206142902374e-03 3.592642024159431458e-02 9.647051803767681122e-03 7.218259852379560471e-03
2.005000000000000000e+03 1.826488113403320312e+01 2.075961112976074219e+01 -4.847419913858175278e-03 3.249687701463699341e-02 8.294836618006229401e-03 5.656142253428697586e-03
2.006000000000000000e+03 1.702306556701660156e+01 2.124732017517089844e+01 -6.305493880063295364e-03 3.221117705106735229e-02 7.771704811602830887e-03 3.062714589759707451e-03
2.007000000000000000e+03 1.759031105041503906e+01 1.711653518676757812e+01 -1.809181529097259045e-03 4.034054279327392578e-02 1.155940815806388855e-02 1.029972638934850693e-02
2.008000000000000000e+03 2.035838317871093750e+01 2.054380798339843750e+01 -1.454579061828553677e-03 2.994757890701293945e-02 8.547900244593620300e-03 9.186993353068828583e-03
2.009000000000000000e+03 2.279821395874023438e+01 2.389312171936035156e+01 -1.817768090404570103e-03 2.351562492549419403e-02 6.509357132017612457e-03 7.229884155094623566e-03
2.010000000000000000e+03 2.260025405883789062e+01 2.283097648620605469e+01 -1.027905265800654888e-03 2.449191547930240631e-02 7.039202842861413956e-03 8.255788125097751617e-03
2.011000000000000000e+03 1.572458839416503906e+01 1.922045326232910156e+01 -6.818486843258142471e-03 3.689203783869743347e-02 9.022065438330173492e-03 2.010521478950977325e-03
2.012000000000000000e+03 1.641250991821289062e+01 1.848919296264648438e+01 -5.283242091536521912e-03 3.865506500005722046e-02 1.001154631376266479e-02 5.044595804065465927e-03
2.013000000000000000e+03 1.985478591918945312e+01 1.997299957275390625e+01 -1.781115191988646984e-03 3.148155286908149719e-02 8.910131640732288361e-03 9.161098860204219818e-03
2.014000000000000000e+03 2.031181144714355469e+01 1.994934082031250000e+01 -8.846402051858603954e-04 3.090951777994632721e-02 9.007463231682777405e-03 9.875893592834472656e-03
2.015000000000000000e+03 1.569037914276123047e+01 1.996011161804199219e+01 -6.872144062072038651e-03 3.525476157665252686e-02 8.514785207808017731e-03 1.571176457218825817e-03
2.016000000000000000e+03 1.574124908447265625e+01 1.846395492553710938e+01 -6.227273028343915939e-03 3.945169597864151001e-02 9.967327117919921875e-03 3.370292251929640770e-03
2.017000000000000000e+03 1.673807525634765625e+01 1.609042549133300781e+01 -1.829242100939154625e-03 4.564792662858963013e-02 1.314560510218143463e-02 1.047643739730119705e-02
2.018000000000000000e+03 1.598515129089355469e+01 1.638745498657226562e+01 -3.982886672019958496e-03 4.619016498327255249e-02 1.266218349337577820e-02 7.218632381409406662e-03
2.019000000000000000e+03 1.706534767150878906e+01 1.698529624938964844e+01 -2.499658148735761642e-03 4.222719743847846985e-02 1.191826164722442627e-02 9.179236367344856262e-03
2.020000000000000000e+03 1.551516819000244141e+01 1.686856269836425781e+01 -5.607833154499530792e-03 4.410581663250923157e-02 1.154939550906419754e-02 4.702023696154356003e-03
2.021000000000000000e+03 1.612808036804199219e+01 2.099941825866699219e+01 -6.836865097284317017e-03 3.299799188971519470e-02 7.848338223993778229e-03 1.302262302488088608e-03
2.022000000000000000e+03 1.835189628601074219e+01 2.435598754882812500e+01 -6.230962462723255157e-03 2.684027887880802155e-02 6.182794924825429916e-03 2.399316523224115372e-03
2.023000000000000000e+03 1.580445194244384766e+01 1.776834106445312500e+01 -5.701686255633831024e-03 4.080300405621528625e-02 1.053039543330669403e-02 4.221679177135229111e-03
2.024000000000000000e+03 1.608920288085937500e+01 1.724681091308593750e+01 -4.429582506418228149e-03 4.245609045028686523e-02 1.140795275568962097e-02 5.923868622630834579e-03
2.025000000000000000e+03 2.189439582824707031e+01 2.499236488342285156e+01 -3.378122113645076752e-03 2.383075468242168427e-02 6.135789677500724792e-03 5.754924844950437546e-03
2.026000000000000000e+03 2.330708503723144531e+01 3.224628067016601562e+01 -5.028480663895606995e-03 1.858827285468578339e-02 4.067937377840280533e-03 2.224233234301209450e-03
2.027000000000000000e+03 2.435880851745605469e+01 2.713576126098632812e+01 -2.752565313130617142e-03 2.004198729991912842e-02 5.186826456338167191e-03 5.356885027140378952e-03
2.028000000000000000e+03 1.673263740539550781e+01 2.226694297790527344e+01 -6.586209405213594437e-03 3.047288581728935242e-02 7.166003342717885971e-03 1.532139256596565247e-03
2.029000000000000000e+03 1.826871871948242188e+01 2.592408180236816406e+01 -6.290892604738473892e-03 2.491034381091594696e-02 5.585835315287113190e-03 1.208587433211505413e-03
2.030000000000000000e+03 1.724941253662109375e+01 2.387769317626953125e+01 -6.566880736500024796e-03 2.775766886770725250e-02 6.357236299663782120e-03 1.137520768679678440e-03
2.031000000000000000e+03 2.131695175170898438e+01 3.515468215942382812e+01 -5.722451955080032349e-03 1.798372715711593628e-02 3.678382840007543564e-03 7.349938387051224709e-04
2.032000000000000000e+03 2.432942581176757812e+01 2.605359649658203125e+01 -2.159444382414221764e-03 2.049227058887481689e-02 5.499847698956727982e-03 6.311688572168350220e-03
2.033000000000000000e+03 2.314043045043945312e+01 2.708735275268554688e+01 -3.699714317917823792e-03 2.113627456128597260e-02 5.230968352407217026e-03 4.837362095713615417e-03
2.034000000000000000e+03 1.937937927246093750e+01 2.995258140563964844e+01 -6.207184400409460068e-03 2.100966684520244598e-02 4.440744873136281967e-03 8.068265742622315884e-04
2.035000000000000000e+03 1.776331520080566406e+01 2.944761085510253906e+01 -6.386517081409692764e-03 2.132321521639823914e-02 4.481009673327207565e-03 -3.837568801827728748e-04
2.036000000000000000e+03 1.715215492248535156e+01 2.021141052246093750e+01 -5.433121696114540100e-03 3.449610248208045959e-02 8.718894794583320618e-03 4.438855685293674469e-03
2.037000000000000000e+03 2.177884292602539062e+01 2.253801536560058594e+01 -1.709622680209577084e-03 2.581086941063404083e-02 7.230374030768871307e-03 7.951225154101848602e-03
2.038000000000000000e+03 2.029367065429687500e+01 2.127690696716308594e+01 -2.289518015459179878e-03 2.943630144000053406e-02 8.144035004079341888e-03 7.941964082419872284e-03
2.039000000000000000e+03 1.944557571411132812e+01 2.315889739990234375e+01 -4.751109052449464798e-03 2.786023356020450592e-02 6.932736840099096298e-03 4.929033108055591583e-03
2.040000000000000000e+03 1.638202476501464844e+01 1.776788711547851562e+01 -4.806763026863336563e-03 4.090351238846778870e-02 1.082902494817972183e-02 6.163895130157470703e-03
2.041000000000000000e+03 1.705763053894042969e+01 1.845565795898437500e+01 -4.242266062647104263e-03 3.840471059083938599e-02 1.024873275309801102e-02 6.679099984467029572e-03
2.042000000000000000e+03 1.642097854614257812e+01 1.926996040344238281e+01 -5.751529708504676819e-03 3.699826076626777649e-02 9.374018758535385132e-03 4.148235544562339783e-03
2.043000000000000000e+03 1.961995697021484375e+01 2.124048042297363281e+01 -3.284951439127326012e-03 3.021070547401905060e-02 8.077725768089294434e-03 7.332164794206619263e-03
2.044000000000000000e+03 2.340344047546386719e+01 2.598501205444335938e+01 -2.725131344050168991e-03 2.170826867222785950e-02 5.694941151887178421e-03 5.769070703536272049e-03
2.045000000000000000e+03 2.201893806457519531e+01 2.316624641418457031e+01 -1.929658697918057442e-03 2.503854967653751373e-02 6.932666990906000137e-03 7.509288843721151352e-03
2.046000000000000000e+03 2.136458969116210938e+01 2.820045089721679688e+01 -5.155588965862989426e-03 2.179492264986038208e-02 4.991800058633089066e-03 3.029237035661935806e-03
2.047000000000000000e+03 1.711726188659667969e+01 1.927257347106933594e+01 -4.988540895283222198e-03 3.642499446868896484e-02 9.430935606360435486e-03 5.566280800849199295e-03
2.048000000000000000e+03 1.915666770935058594e+01 2.036672592163085938e+01 -3.126946743577718735e-03 3.212858736515045166e-02 8.700492791831493378e-03 7.841711863875389099e-03
2.049000000000000000e+03 1.761750411987304688e+01 2.270116043090820312e+01 -6.362520623952150345e-03 2.952731214463710785e-02 6.949437316507101059e-03 2.647437620908021927e-03
2.050000000000000000e+03 1.971861648559570312e+01 2.786905670166015625e+01 -5.784132517874240875e-03 2.278395742177963257e-02 5.099947564303874969e-03 1.815961324609816074e-03
2.051000000000000000e+03 1.874059104919433594e+01 3.230067825317382812e+01 -6.098886486142873764e-03 1.934094727039337158e-02 3.972617909312248230e-03 -2.982672012876719236e-04
2.052000000000000000e+03 2.096892356872558594e+01 2.200074768066406250e+01 -2.212364459410309792e-03 2.765071578323841095e-02 7.631505373865365982e-03 7.791074924170970917e-03
2.053000000000000000e+03 1.857342910766601562e+01 2.008504104614257812e+01 -3.325114725157618523e-03 3.363126516342163086e-02 9.091844782233238220e-03 7.489528041332960129e-03
2.054000000000000000e+03 1.974719429016113281e+01 2.053013038635253906e+01 -2.175359288230538368e-03 3.117021918296813965e-02 8.698457852005958557e-03 8.329058997333049774e-03
2.055000000000000000e+03 2.298683929443359375e+01 2.485167121887207031e+01 -2.257740590721368790e-03 2.276303246617317200e-02 6.151587702333927155e-03 6.568167358636856079e-03
2.056000000000000000e+03 1.950252342224121094e+01 2.210487174987792969e+01 -3.896536538377404213e-03 2.942650951445102692e-02 7.658991962671279907e-03 5.964947398751974106e-03
2.057000000000000000e+03 1.893876075744628906e+01 2.108207702636718750e+01 -3.781141946092247963e-03 3.146954625844955444e-02 8.306520991027355194e-03 6.439370568841695786e-03
2.058000000000000000e+03 2.244821548461914062e+01 2.450047683715820312e+01 -2.570331329479813576e-03 2.332487888634204865e-02 6.226364057511091232e-03 6.500198971480131149e-03
2.059000000000000000e+03 2.097804069519042969e+01 2.557967185974121094e+01 -4.568723961710929871e-03 2.408391050994396210e-02 5.854555871337652206e-03 4.326273221522569656e-03
2.060000000000000000e+03 1.789436912536621094e+01 2.160066413879394531e+01 -5.234743468463420868e-03 3.145110607147216797e-02 7.864909246563911438e-03 4.268294665962457657e-03
2.061000000000000000e+03 2.601060867309570312e+01 3.349455642700195312e+01 -4.197233356535434723e-03 1.649041846394538879e-02 3.687955439090728760e-03 2.595237456262111664e-03
2.062000000000000000e+03 1.853917312622070312e+01 2.303771781921386719e+01 -5.311612039804458618e-03 2.889901399612426758e-02 7.076220121234655380e-03 3.793853102251887321e-03
2.063000000000000000e+03 1.871891403198242188e+01 2.195437622070312500e+01 -4.900345578789710999e-03 3.009477071464061737e-02 7.558327633887529373e-03 5.161804612725973129e-03
2.064000000000000000e+03 2.187549209594726562e+01 2.665275382995605469e+01 -4.199356772005558014e-03 2.264607883989810944e-02 5.534016527235507965e-03 4.227038938552141190e-03
2.065000000000000000e+03 1.810459518432617188e+01 3.512665176391601562e+01 -5.952874664217233658e-03 1.762200519442558289e-02 3.500739345327019691e-03 -6.154610891826450825e-04
2.066000000000000000e+03 1.969874763488769531e+01 2.600180625915527344e+01 -5.583934020251035690e-03 2.446716092526912689e-02 5.664968397468328476e-03 2.938980469480156898e-03
2.067000000000000000e+03 2.025132369995117188e+01 2.210687065124511719e+01 -3.124098991975188255e-03 2.827368117868900299e-02 7.544874679297208786e-03 6.984451320022344589e-03
2.068000000000000000e+03 2.107433700561523438e+01 2.283881568908691406e+01 -2.755463588982820511e-03 2.648435905575752258e-02 7.118668872863054276e-03 6.881567183881998062e-03
2.069000000000000000e+03 2.053389167785644531e+01 2.422054862976074219e+01 -4.199796356260776520e-03 2.576143853366374969e-02 6.468493025749921799e-03 5.078354384750127792e-03
2.070000000000000000e+03 1.949326324462890625e+01 2.443563652038574219e+01 -5.150248296558856964e-03 2.638247422873973846e-02 6.369668059051036835e-03 3.739991458132863045e-03
2.071000000000000000e+03 2.029691505432128906e+01 2.307931137084960938e+01 -3.850486129522323608e-03 2.740712277591228485e-02 7.066990714520215988e-03 5.887135397642850876e-03
2.072000000000000000e+03 2.189833450317382812e+01 2.421977996826171875e+01 -2.882665023207664490e-03 2.435017004609107971e-02 6.440251599997282028e-03 6.183217279613018036e-03
2.073000000000000000e+03 2.137157821655273438e+01 2.370556068420410156e+01 -3.210213733837008476e-03 2.533028461039066315e-02 6.636021193116903305e-03 6.325230468064546585e-03
2.074000000000000000e+03 2.297306251525878906e+01 2.849933433532714844e+01 -4.202418494969606400e-03 2.056293375790119171e-02 4.908154252916574478e-03 3.779553342610597610e-03
2.075000000000000000e+03 2.110614204406738281e+01 3.254252624511718750e+01 -5.708651151508092880e-03 1.897523924708366394e-02 3.979976288974285126e-03 1.147514558397233486e-03
2.076000000000000000e+03 3.843403577804565430e+00 3.625257110595703125e+01 -6.972994306124746799e-04 6.577548105269670486e-03 1.764074550010263920e-03 -2.025028457865118980e-03
2.077000000000000000e+03 9.927679061889648438e+00 3.770841979980468750e+01 -3.412274178117513657e-03 1.193625666201114655e-02 2.557194791734218597e-03 -2.300535095855593681e-03
2.078000000000000000e+03 1.781713676452636719e+01 3.820728683471679688e+01 -5.713813006877899170e-03 1.668683625757694244e-02 3.291907254606485367e-03 -5.834324401803314686e-04
2.079000000000000000e+03 2.537571334838867188e+01 3.690423965454101562e+01 -4.977005068212747574e-03 1.616255939006805420e-02 3.355666063725948334e-03 1.324807642959058285e-03
2.080000000000000000e+03 1.289576339721679688e+01 4.104678726196289062e+01 -4.276272375136613846e-03 1.375059597194194794e-02 2.842297079041600227e-03 -5.364935495890676975e-04
2.081000000000000000e+03 5.081036376953125000e+01 3.812463378906250000e+01 -3.122267662547528744e-04 -9.580788901075720787e-05 -1.224103907588869333e-04 -1.740021398290991783e-04
2.082000000000000000e+03 5.034035110473632812e+01 3.783232498168945312e+01 -4.434798320289701223e-04 -1.277405972359701991e-04 -1.713661331450566649e-04 -2.209883532486855984e-04
2.083000000000000000e+03 7.073813629150390625e+01 3.583421325683593750e+01 5.613400162474135868e-07 1.670572487455501687e-06 6.695737511108745821e-07 7.989565631305595161e-08
2.084000000000000000e+03 7.007168579101562500e+01 3.568094253540039062e+01 5.366338768908462953e-07 -2.019039584411075339e-06 -4.447217065717268270e-07 4.616975672888656845e-07
2.085000000000000000e+03 6.945513916015625000e+01 3.566603469848632812e+01 6.674842438769701403e-07 1.930588723553228192e-06 7.794218959134013858e-07 1.149993877902488748e-07
2.086000000000000000e+03 6.878969573974609375e+01 3.576348495483398438e+01 8.361998737882458954e-08 -8.986603461380582303e-07 -2.445121083383128280e-07 2.536044405587745132e-07
2.087000000000000000e+03 6.729331207275390625e+01 3.602858352661132812e+01 1.547060008988410118e-07 -4.640300517166906502e-07 -9.279721524535489152e-08 -2.173019169049439370e-07
2.088000000000000000e+03 6.430935668945312500e+01 3.622515869140625000e+01 2.343784444747143425e-06 -3.576635208446532488e-06 -3.698552575315261493e-07 2.307498107256833464e-06
2.089000000000000000e+03 6.534697723388671875e+01 3.723905944824218750e+01 -1.182745336336665787e-06 -8.128291142384114210e-07 -5.986723294881812762e-07 -1.115777422455721535e-06
2.090000000000000000e+03 3.228429031372070312e+01 2.199212265014648438e+01 6.042868364602327347e-03 7.006589323282241821e-03 3.914837259799242020e-03 6.776507478207349777e-03
2.091000000000000000e+03 4.140463638305664062e+01 3.218270874023437500e+01 9.850043570622801781e-04 1.417417544871568680e-03 7.207266171462833881e-04 1.213225303217768669e-03
2.092000000000000000e+03 4.318859481811523438e+01 3.367887878417968750e+01 2.103750884998589754e-04 6.007429328747093678e-04 2.433354093227535486e-04 4.184421268291771412e-04
2.093000000000000000e+03 4.647368240356445312e+01 3.606058120727539062e+01 -3.891476080752909184e-04 -1.744368055369704962e-04 -1.690753269940614700e-04 -2.621444582473486662e-04
2.094000000000000000e+03 4.826156234741210938e+01 3.719651412963867188e+01 -6.545048672705888748e-04 -1.816415897337719798e-04 -2.508439356461167336e-04 -2.865482820197939873e-04
2.095000000000000000e+03 1.501758480072021484e+01 9.276078939437866211e-01 7.842231273651123047e+00 1.206565737724304199e+00 2.714639186859130859e+00 -2.967433929443359375e+00
2.096000000000000000e+03 1.986051177978515625e+01 1.150774955749511719e+01 2.197958715260028839e-02 3.742965683341026306e-02 1.782277226448059082e-02 2.854991145431995392e-02
2.097000000000000000e+03 1.323131561279296875e+01 4.134694576263427734e+00 6.784402579069137573e-02 4.772055745124816895e-01 1.635148823261260986e-01 -1.294533759355545044e-01
2.098000000000000000e+03 1.190220737457275391e+01 2.913411617279052734e+00 4.171895384788513184e-01 -1.776467263698577881e-02 1.198274567723274231e-01 -1.878390759229660034e-01
2.099000000000000000e+03 6.006542968750000000e+01 3.837547302246093750e+01 -4.324946985434507951e-06 -3.803955223702359945e-06 -2.438670662741060369e-06 7.493839007111091632e-07
2.100000000000000000e+03 6.955815887451171875e+01 3.713981246948242188e+01 4.707118534952314803e-07 -7.472424385923659429e-07 -8.295916842371298117e-08 1.347056922895717435e-06
2.101000000000000000e+03 5.401676940917968750e+01 3.982780075073242188e+01 -2.996358853124547750e-05 2.556256731622852385e-05 -1.320306296292983461e-06 -1.114138467528391629e-05
2.102000000000000000e+03 2.421131896972656250e+01 1.574255466461181641e+01 1.401657890528440475e-02 2.147820778191089630e-02 1.064843591302633286e-02 1.816441677510738373e-02
2.103000000000000000e+03 1.165375804901123047e+01 3.332257270812988281e+00 3.385117352008819580e-01 7.026373408734798431e-03 1.036614328622817993e-01 -1.705641150474548340e-01
2.104000000000000000e+03 3.370212173461914062e+01 2.470908355712890625e+01 4.629243630915880203e-03 7.962115108966827393e-03 3.777407808229327202e-03 6.215126719325780869e-03
2.105000000000000000e+03 4.957896423339843750e+01 3.827783966064453125e+01 -2.875907230190932751e-04 -8.220316522056236863e-05 -1.109381628339178860e-04 -2.880212850868701935e-04
2.106000000000000000e+03 4.051837158203125000e+01 3.217583847045898438e+01 9.422238799743354321e-04 2.354652388021349907e-03 9.890628280118107796e-04 1.648828852921724319e-03
2.107000000000000000e+03 1.506170177459716797e+01 5.374514102935791016e+00 5.547042936086654663e-02 1.352147608995437622e-01 5.720555409789085388e-02 8.987358957529067993e-02
2.108000000000000000e+03 1.471789360046386719e+01 5.832587242126464844e+00 3.449657931923866272e-02 1.668455600738525391e-01 6.040264293551445007e-02 7.208870351314544678e-02
2.109000000000000000e+03 1.112841129302978516e+01 4.105668544769287109e+00 2.093591690063476562e-01 2.808939199894666672e-03 6.365042924880981445e-02 -1.183024570345878601e-01
2.110000000000000000e+03 4.218138504028320312e+01 3.429333496093750000e+01 2.504439034964889288e-04 1.661747344769537449e-03 5.736573948524892330e-04 1.000575139187276363e-03
2.111000000000000000e+03 4.075436019897460938e+01 3.277846145629882812e+01 7.236419478431344032e-04 2.374090254306793213e-03 9.293196490034461021e-04 1.543680555187165737e-03
2.112000000000000000e+03 4.034434509277343750e+01 3.258662033081054688e+01 7.774670375511050224e-04 2.661577658727765083e-03 1.031713443808257580e-03 1.683000125922262669e-03
2.113000000000000000e+03 3.564244842529296875e+01 2.758740997314453125e+01 3.136827377602458000e-03 6.708835717290639877e-03 2.953698858618736267e-03 4.624876659363508224e-03
2.114000000000000000e+03 3.542411041259765625e+01 2.738692474365234375e+01 3.175926627591252327e-03 6.921789143234491348e-03 3.029314568266272545e-03 4.834532272070646286e-03
2.115000000000000000e+03 3.331361007690429688e+01 2.472912025451660156e+01 4.485621582716703415e-03 8.354010991752147675e-03 3.851889865472912788e-03 6.324032787233591080e-03
2.116000000000000000e+03 1.833145332336425781e+01 1.089249134063720703e+01 1.946558058261871338e-02 4.897952452301979065e-02 2.053353190422058105e-02 3.186302259564399719e-02
2.117000000000000000e+03 1.123087024688720703e+01 4.772631168365478516e+00 1.509301215410232544e-01 6.908038258552551270e-02 6.600315123796463013e-02 -1.246929988265037537e-01
2.118000000000000000e+03 4.181664466857910156e+00 4.173730850219726562e+00 2.625477733090519905e-03 -3.467289358377456665e-02 -9.614224545657634735e-03 4.027815908193588257e-02
2.119000000000000000e+03 1.868068885803222656e+01 1.185428714752197266e+01 1.660437509417533875e-02 4.601962864398956299e-02 1.878720149397850037e-02 2.795032970607280731e-02
2.120000000000000000e+03 3.677839660644531250e+01 3.212926864624023438e+01 3.255962801631540060e-04 6.661300547420978546e-03 2.096069045364856720e-03 2.916949335485696793e-03
2.121000000000000000e+03 3.767340087890625000e+01 3.295471191406250000e+01 1.994388876482844353e-04 5.930804181843996048e-03 1.839072909206151962e-03 2.567803021520376205e-03
2.122000000000000000e+03 1.266775894165039062e+01 5.999710559844970703e+00 2.681801468133926392e-02 2.078253328800201416e-01 7.039300352334976196e-02 -5.362357199192047119e-02
2.123000000000000000e+03 3.534754943847656250e+01 2.772365379333496094e+01 2.908359747380018234e-03 7.147093769162893295e-03 3.016636008396744728e-03 4.693767521530389786e-03
2.124000000000000000e+03 3.470757293701171875e+01 2.679435539245605469e+01 3.279763506725430489e-03 7.592954672873020172e-03 3.261815290898084641e-03 5.194059573113918304e-03
2.125000000000000000e+03 2.367477226257324219e+01 1.642510986328125000e+01 1.175294071435928345e-02 2.371775172650814056e-02 1.064120791852474213e-02 1.726947538554668427e-02
2.126000000000000000e+03 3.813821411132812500e+01 3.253642654418945312e+01 4.536384076345711946e-04 5.310540087521076202e-03 1.729253563098609447e-03 2.493613632395863533e-03
2.127000000000000000e+03 3.713964843750000000e+01 3.261720657348632812e+01 1.655467931414023042e-04 6.295210216194391251e-03 1.938227098435163498e-03 2.736670430749654770e-03
2.128000000000000000e+03 2.479388809204101562e+01 1.643557739257812500e+01 1.320900954306125641e-02 2.013583667576313019e-02 1.000345405191183090e-02 1.669746637344360352e-02
2.129000000000000000e+03 1.180517482757568359e+01 6.560346126556396484e+00 4.377898201346397400e-02 1.313146352767944336e-01 5.252808332443237305e-02 -7.044095546007156372e-02
2.130000000000000000e+03 3.294338607788085938e+01 2.478170013427734375e+01 4.343634005635976791e-03 8.755008690059185028e-03 3.929592669010162354e-03 6.431893911212682724e-03
2.131000000000000000e+03 2.398867225646972656e+01 1.734155082702636719e+01 9.949218481779098511e-03 2.295994758605957031e-02 9.872749447822570801e-03 1.577101647853851318e-02
2.132000000000000000e+03 2.344115447998046875e+01 1.713883972167968750e+01 9.610814042389392853e-03 2.459168434143066406e-02 1.026074960827827454e-02 1.619018428027629852e-02
2.133000000000000000e+03 3.611248016357421875e+01 2.902088356018066406e+01 2.068352419883012772e-03 6.762912031263113022e-03 2.649379195645451546e-03 3.922780510038137436e-03
2.134000000000000000e+03 3.481381607055664062e+01 2.799455070495605469e+01 2.502685645595192909e-03 7.798329927027225494e-03 3.090304788202047348e-03 4.762453492730855942e-03
2.135000000000000000e+03 1.774208831787109375e+01 1.223463821411132812e+01 1.066903490573167801e-02 5.237035825848579407e-02 1.891181804239749908e-02 2.585196495056152344e-02
2.136000000000000000e+03 1.746154022216796875e+01 1.256875514984130859e+01 8.768450468778610229e-03 5.385716632008552551e-02 1.878768578171730042e-02 2.313699759542942047e-02
2.137000000000000000e+03 1.543184661865234375e+01 2.684983253479003906e+01 -7.412610575556755066e-03 2.283377572894096375e-02 4.626349546015262604e-03 -2.467703772708773613e-03
2.138000000000000000e+03 9.387042045593261719e+00 6.260960102081298828e+00 8.687214553356170654e-02 -9.144553914666175842e-03 2.331827767193317413e-02 -4.377263411879539490e-02
2.139000000000000000e+03 1.741452980041503906e+01 1.291205215454101562e+01 7.315303664654493332e-03 5.325031653046607971e-02 1.816968619823455811e-02 2.217268012464046478e-02
2.140000000000000000e+03 3.475738525390625000e+01 2.856968879699707031e+01 2.050796058028936386e-03 7.976504974067211151e-03 3.008190309628844261e-03 4.543170798569917679e-03
2.141000000000000000e+03 3.353221893310546875e+01 2.840288925170898438e+01 1.710736891254782677e-03 9.279275313019752502e-03 3.297003451734781265e-03 4.915886092931032181e-03
2.142000000000000000e+03 1.531399154663085938e+01 7.797039508819580078e+00 2.061638422310352325e-02 1.082809194922447205e-01 3.866919130086898804e-02 4.353440180420875549e-02
2.143000000000000000e+03 1.099967956542968750e+01 5.918088912963867188e+00 9.027272462844848633e-02 7.117503881454467773e-02 4.843432828783988953e-02 -9.040760993957519531e-02
2.144000000000000000e+03 2.523348999023437500e+01 1.710520744323730469e+01 1.225863117724657059e-02 1.918846368789672852e-02 9.434128180146217346e-03 1.562422141432762146e-02
2.145000000000000000e+03 1.646380233764648438e+01 1.012978553771972656e+01 1.474454626441001892e-02 6.993838399648666382e-02 2.540487982332706451e-02 3.222066164016723633e-02
2.146000000000000000e+03 1.240574932098388672e+01 8.120802879333496094e+00 1.132924575358629227e-02 1.203211694955825806e-01 3.949512541294097900e-02 -2.619098499417304993e-02
2.147000000000000000e+03 2.253196334838867188e+01 2.564881515502929688e+01 -3.409613622352480888e-03 2.284291200339794159e-02 5.829989444464445114e-03 5.610567051917314529e-03
2.148000000000000000e+03 1.397714424133300781e+01 8.258069992065429688e+00 6.018884014338254929e-03 1.259203553199768066e-01 3.958177193999290466e-02 1.639026030898094177e-02
2.149000000000000000e+03 1.411459541320800781e+01 8.526213645935058594e+00 7.031400222331285477e-03 1.209172159433364868e-01 3.838458657264709473e-02 1.662220619618892670e-02
2.150000000000000000e+03 3.296770477294921875e+01 2.987192344665527344e+01 4.407477681525051594e-04 1.019205804914236069e-02 3.189841751009225845e-03 4.463023506104946136e-03
2.151000000000000000e+03 2.235062789916992188e+01 2.363514900207519531e+01 -2.226523356512188911e-03 2.441617101430892944e-02 6.656893994659185410e-03 7.263065781444311142e-03
2.152000000000000000e+03 2.625786590576171875e+01 2.455460929870605469e+01 6.798881804570555687e-04 1.832376793026924133e-02 5.701096728444099426e-03 7.952289655804634094e-03
2.153000000000000000e+03 2.178840637207031250e+01 1.819056892395019531e+01 4.562500864267349243e-03 2.912757731974124908e-02 1.010702364146709442e-02 1.412112172693014145e-02
2.154000000000000000e+03 1.643852615356445312e+01 1.183990383148193359e+01 6.500238087028264999e-03 6.285408139228820801e-02 2.080629579722881317e-02 2.294020541012287140e-02
2.155000000000000000e+03 1.701023864746093750e+01 1.364207458496093750e+01 3.603567369282245636e-03 5.218313261866569519e-02 1.673601008951663971e-02 1.822180859744548798e-02
2.156000000000000000e+03 2.520618247985839844e+01 1.757186889648437500e+01 1.096959132701158524e-02 1.977683603763580322e-02 9.223927743732929230e-03 1.502038910984992981e-02
2.157000000000000000e+03 1.362919998168945312e+01 9.231837272644042969e+00 3.084138734266161919e-03 1.067058220505714417e-01 3.293698653578758240e-02 5.467791575938463211e-03
2.158000000000000000e+03 2.822006034851074219e+01 2.137480163574218750e+01 6.246054079383611679e-03 1.454473845660686493e-02 6.237237714231014252e-03 1.019948814064264297e-02
2.159000000000000000e+03 2.663690948486328125e+01 2.286276626586914062e+01 2.869044663384556770e-03 1.785527169704437256e-02 6.217294838279485703e-03 9.371061809360980988e-03
2.160000000000000000e+03 1.730691146850585938e+01 1.559977912902832031e+01 1.152773475041612983e-04 4.573966190218925476e-02 1.375648099929094315e-02 1.314026582986116409e-02
2.161000000000000000e+03 1.761378669738769531e+01 1.612903213500976562e+01 1.598578091943636537e-04 4.337388649582862854e-02 1.306012365967035294e-02 1.278421841561794281e-02
2.162000000000000000e+03 2.156383705139160156e+01 1.890143775939941406e+01 2.905969042330980301e-03 2.924240566790103912e-02 9.644513018429279327e-03 1.285130530595779419e-02
2.163000000000000000e+03 2.283088111877441406e+01 2.334222793579101562e+01 -1.260375953279435635e-03 2.374062873423099518e-02 6.744076032191514969e-03 7.923307828605175018e-03
2.164000000000000000e+03 1.539334201812744141e+01 1.370482540130615234e+01 -1.340761897154152393e-03 5.851609259843826294e-02 1.715259999036788940e-02 1.048757508397102356e-02
2.165000000000000000e+03 1.301122760772705078e+01 9.296422958374023438e+00 3.167020855471491814e-03 1.037857905030250549e-01 3.208584338426589966e-02 -6.742174737155437469e-03
2.166000000000000000e+03 8.307963371276855469e+00 2.140046310424804688e+01 -6.034151650965213776e-03 1.288009528070688248e-02 2.053783275187015533e-03 -1.282358914613723755e-02
2.167000000000000000e+03 9.034914016723632812e+00 2.075556564331054688e+01 -6.973524112254381180e-03 1.667249202728271484e-02 2.909690607339143753e-03 -1.283509004861116409e-02
2.168000000000000000e+03 1.138772106170654297e+01 1.881785392761230469e+01 -8.205242455005645752e-03 3.042051941156387329e-02 6.664583459496498108e-03 -9.964849799871444702e-03
2.169000000000000000e+03 1.508490943908691406e+01 1.998305130004882812e+01 -7.547143381088972092e-03 3.456480801105499268e-02 8.105299435555934906e-03 -4.756480338983237743e-04
2.170000000000000000e+03 2.587604713439941406e+01 2.266205596923828125e+01 2.480784896761178970e-03 1.918187178671360016e-02 6.498797331005334854e-03 9.566959924995899200e-03
2.171000000000000000e+03 2.140446472167968750e+01 1.958660125732421875e+01 1.629888778552412987e-03 2.902760915458202362e-02 9.197249077260494232e-03 1.167815923690795898e-02
2.172000000000000000e+03 2.812956047058105469e+01 2.257601356506347656e+01 4.316311795264482498e-03 1.514580007642507553e-02 5.838633514940738678e-03 9.391856379806995392e-03
2.173000000000000000e+03 2.454508781433105469e+01 2.166919898986816406e+01 2.451409352943301201e-03 2.163852006196975708e-02 7.226978894323110580e-03 1.041861530393362045e-02
2.174000000000000000e+03 1.994038963317871094e+01 1.790418243408203125e+01 1.951843034476041794e-03 3.396276012063026428e-02 1.077438052743673325e-02 1.321175135672092438e-02
2.175000000000000000e+03 2.913289070129394531e+01 2.339697837829589844e+01 3.897785441949963570e-03 1.366273220628499985e-02 5.268155597150325775e-03 8.592586033046245575e-03
2.176000000000000000e+03 2.800428199768066406e+01 2.156480407714843750e+01 5.648124963045120239e-03 1.516291592270135880e-02 6.243312265723943710e-03 1.014527585357427597e-02
2.177000000000000000e+03 2.001168823242187500e+01 1.838926887512207031e+01 8.542551659047603607e-04 3.326586261391639709e-02 1.023603510111570358e-02 1.221335399895906448e-02
2.178000000000000000e+03 1.311509037017822266e+01 1.321419525146484375e+01 -3.834674600511789322e-03 6.075242534279823303e-02 1.707532443106174469e-02 -3.329828847199678421e-03
2.179000000000000000e+03 1.450714015960693359e+01 1.552792739868164062e+01 -5.748568568378686905e-03 5.004883930087089539e-02 1.329008117318153381e-02 2.741124713793396950e-03
2.180000000000000000e+03 9.659919738769531250e+00 1.587648105621337891e+01 -4.707819782197475433e-03 2.846386283636093140e-02 7.126812823116779327e-03 -1.655727997422218323e-02
2.181000000000000000e+03 1.299048805236816406e+01 1.855393981933593750e+01 -8.565821684896945953e-03 3.615509718656539917e-02 8.276782929897308350e-03 -5.210059229284524918e-03
2.182000000000000000e+03 1.241600036621093750e+01 1.706231689453125000e+01 -8.305426687002182007e-03 3.858414292335510254e-02 9.083614684641361237e-03 -6.886314135044813156e-03
2.183000000000000000e+03 1.957982254028320312e+01 1.819642448425292969e+01 3.862806188408285379e-04 3.479992970824241638e-02 1.055586338043212891e-02 1.187951397150754929e-02
2.184000000000000000e+03 2.705084419250488281e+01 2.069630813598632812e+01 6.449820939451456070e-03 1.670453883707523346e-02 6.946307606995105743e-03 1.117824018001556396e-02
2.185000000000000000e+03 2.688114738464355469e+01 2.044292640686035156e+01 6.633998360484838486e-03 1.691325381398200989e-02 7.064175326377153397e-03 1.140377949923276901e-02
2.186000000000000000e+03 1.440327930450439453e+01 9.627801179885864258e-01 2.449599504470825195e+00 1.461282491683959961e+00 1.173264503479003906e+00 -1.313893437385559082e+00
2.187000000000000000e+03 5.393112182617187500e+01 3.704850006103515625e+01 -1.576133217895403504e-05 3.464802375674480572e-06 -3.688958940983866341e-06 4.811286089534405619e-06
2.188000000000000000e+03 5.391917800903320312e+01 3.675205993652343750e+01 1.330872601101873443e-05 6.608083822357002646e-06 5.975042768113780767e-06 -8.729097316972911358e-06
2.189000000000000000e+03 5.396785354614257812e+01 3.615478134155273438e+01 1.317535975431383122e-06 6.731337407472892664e-07 5.972009375909692608e-07 -6.062176112209272105e-07
2.190000000000000000e+03 5.445458221435546875e+01 3.599697494506835938e+01 1.587391921020753216e-06 4.619098774583108025e-07 6.147905082798388321e-07 -1.468223445044714026e-06
2.191000000000000000e+03 5.519176483154296875e+01 3.570814514160156250e+01 2.812943876051576808e-06 3.412879777897614986e-06 1.867747187134227715e-06 -2.638643536556628533e-06
2.192000000000000000e+03 5.536387252807617188e+01 3.642910766601562500e+01 9.785174370335880667e-06 2.510829745006049052e-06 3.688801371026784182e-06 -8.127358341880608350e-06
2.193000000000000000e+03 5.406144714355468750e+01 3.579942321777343750e+01 -5.461528189698583446e-07 -3.637027248259983025e-07 -2.729566688230988802e-07 3.744040952824434498e-07
2.194000000000000000e+03 5.430342483520507812e+01 3.649026489257812500e+01 1.022592277877265587e-05 6.782733635191107169e-06 5.102597242512274534e-06 -8.501358934154268354e-06
2.195000000000000000e+03 5.451508712768554688e+01 3.678883361816406250e+01 -4.706282652477966622e-06 6.259735982894198969e-06 4.660359422814508434e-07 -3.096475211350480095e-06
2.196000000000000000e+03 5.393361663818359375e+01 3.646799087524414062e+01 -5.090933427709387615e-06 -1.974322913156356663e-06 -2.119576947734458372e-06 3.047667632927186787e-06
2.197000000000000000e+03 1.114653110504150391e+01 1.993262022733688354e-01 -8.459804058074951172e-01 -8.140045404434204102e-02 -2.782142460346221924e-01 2.898732125759124756e-01
2.198000000000000000e+03 1.121876430511474609e+01 9.378392100334167480e-01 -3.080082535743713379e-01 -2.395186573266983032e-01 -1.642580777406692505e-01 3.505048155784606934e-01
2.199000000000000000e+03 1.040455722808837891e+01 3.265222907066345215e-01 -6.314505338668823242e-01 -9.905891865491867065e-02 -2.191528230905532837e-01 1.912890672683715820e-01
2.200000000000000000e+03 1.188854217529296875e+01 7.071893662214279175e-02 -1.178429603576660156e+00 -1.685864031314849854e-01 -4.041047990322113037e-01 4.084791541099548340e-01
2.201000000000000000e+03 1.271423625946044922e+01 6.772393584251403809e-01 -3.447879850864410400e-01 -3.385963141918182373e-01 -2.050152868032455444e-01 6.172121167182922363e-01
2.202000000000000000e+03 1.263056278228759766e+01 -5.929099395871162415e-02 -1.621454834938049316e+00 -1.181995496153831482e-01 -5.218963027000427246e-01 5.367692112922668457e-01
2.203000000000000000e+03 1.047107124328613281e+01 1.066026568412780762e+00 -2.661650180816650391e-01 -1.639708429574966431e-01 -1.290407627820968628e-01 2.511607110500335693e-01
2.204000000000000000e+03 1.196649551391601562e+01 8.082405924797058105e-01 -3.069746792316436768e-01 -2.614083290100097656e-01 -1.705149114131927490e-01 4.557936489582061768e-01
2.205000000000000000e+03 9.729189872741699219e+00 1.127164006233215332e+00 -2.374154478311538696e-01 -1.206361800432205200e-01 -1.074154824018478394e-01 2.010598778724670410e-01
2.206000000000000000e+03 8.895327568054199219e+00 3.831142783164978027e-01 -2.974985241889953613e-01 -1.948418281972408295e-02 -9.509481489658355713e-02 5.081811919808387756e-02
2.207000000000000000e+03 8.136641502380371094e+00 3.810498118400573730e-01 -2.096927762031555176e-01 7.698411936871707439e-04 -6.267688423395156860e-02 3.414538875222206116e-02
2.208000000000000000e+03 6.620836257934570312e+00 3.807878792285919189e-01 -1.089068949222564697e-01 2.344713080674409866e-03 -3.196865692734718323e-02 1.779727078974246979e-02
2.209000000000000000e+03 5.863288402557373047e+00 3.777014017105102539e-01 -7.807194441556930542e-02 -5.552821327000856400e-03 -2.508743107318878174e-02 1.225582789629697800e-02
2.210000000000000000e+03 5.318059444427490234e+00 1.113148808479309082e+00 -5.583028495311737061e-02 -9.172463789582252502e-03 -1.950082369148731232e-02 2.988800033926963806e-02
2.211000000000000000e+03 4.347115039825439453e+00 3.710395395755767822e-01 -3.588172048330307007e-02 -3.240152494981884956e-03 -1.173656154423952103e-02 7.091191131621599197e-03
2.212000000000000000e+03 2.831676959991455078e+00 3.606979846954345703e-01 -1.094066351652145386e-02 -2.040911931544542313e-03 -3.894472727552056313e-03 3.885220270603895187e-03
2.213000000000000000e+03 2.076213359832763672e+00 3.580279946327209473e-01 -3.837472526356577873e-03 1.289851206820458174e-04 -1.112546189688146114e-03 2.807028358802199364e-03
2.214000000000000000e+03 2.380638122558593750e+00 1.098027944564819336e+00 -1.076535601168870926e-02 -4.890080541372299194e-03 -4.696630872786045074e-03 9.621356613934040070e-03
2.215000000000000000e+03 1.333085298538208008e+00 3.664900958538055420e-01 -8.429589797742664814e-04 -1.283299643546342850e-03 -6.378775578923523426e-04 6.632303702645003796e-04
2.216000000000000000e+03 1.660440564155578613e+00 1.106490135192871094e+00 -5.249459296464920044e-03 -3.174418117851018906e-03 -2.527163363993167877e-03 5.772910546511411667e-03
2.217000000000000000e+03 6.547182202339172363e-01 3.947406113147735596e-01 4.344151238910853863e-04 2.815942279994487762e-04 2.148027997463941574e-04 6.033348618075251579e-04
2.218000000000000000e+03 3.519233465194702148e-01 9.575628638267517090e-01 -7.181941764429211617e-04 -6.952973199076950550e-04 -4.240474372636526823e-04 9.012062218971550465e-05
2.219000000000000000e+03 3.113171100616455078e+00 1.100697994232177734e+00 -1.862877793610095978e-02 -2.025212394073605537e-03 -6.196197122335433960e-03 1.400713901966810226e-02
2.220000000000000000e+03 3.588829517364501953e+00 3.677253723144531250e-01 -2.149136923253536224e-02 1.054083928465843201e-03 -6.131185218691825867e-03 6.344486027956008911e-03
2.221000000000000000e+03 5.105357170104980469e+00 3.731488585472106934e-01 -5.410522967576980591e-02 1.803481369279325008e-03 -1.569052413105964661e-02 1.042845472693443298e-02
2.222000000000000000e+03 6.053060531616210938e+00 1.117701411247253418e+00 -7.530030608177185059e-02 -4.989816341549158096e-03 -2.408703602850437164e-02 3.841134905815124512e-02
2.223000000000000000e+03 7.522262096405029297e+00 1.121038317680358887e+00 -1.299215704202651978e-01 -1.376343797892332077e-02 -4.310550168156623840e-02 6.670437753200531006e-02
2.224000000000000000e+03 7.378351211547851562e+00 3.810383677482604980e-01 -1.509237587451934814e-01 -9.521503001451492310e-03 -4.813358187675476074e-02 2.275208570063114166e-02
2.225000000000000000e+03 8.257620811462402344e+00 1.121049761772155762e+00 -1.683223694562911987e-01 -3.501822054386138916e-02 -6.100217625498771667e-02 9.281630069017410278e-02
2.226000000000000000e+03 8.993377685546875000e+00 1.123114228248596191e+00 -2.186193615198135376e-01 -4.900267347693443298e-02 -8.028661459684371948e-02 1.378017812967300415e-01
2.227000000000000000e+03 9.654070854187011719e+00 3.871639966964721680e-01 -4.522512257099151611e-01 -2.926629222929477692e-02 -1.444552540779113770e-01 1.014168485999107361e-01
2.228000000000000000e+03 6.787677288055419922e+00 1.120787858963012695e+00 -9.923826158046722412e-02 -1.642775908112525940e-02 -3.469980508089065552e-02 5.016840621829032898e-02
2.229000000000000000e+03 4.582747936248779297e+00 1.111039519309997559e+00 -4.049920290708541870e-02 -2.518886467441916466e-03 -1.290542632341384888e-02 2.368953265249729156e-02
2.230000000000000000e+03 3.847393035888671875e+00 1.107725381851196289e+00 -2.798668481409549713e-02 -5.857679061591625214e-03 -1.015330944210290909e-02 1.817158423364162445e-02
2.231000000000000000e+03 1.005004048347473145e+00 1.134740591049194336e+00 -2.233583945780992508e-03 -3.573056310415267944e-03 -1.741992076858878136e-03 2.461012918502092361e-03
2.232000000000000000e+03 9.574274063110351562e+00 -3.935540616512298584e-01 -1.345925382338464260e-03 2.575710095698013902e-05 -3.960504545830190182e-04 3.778491372941061854e-05
2.233000000000000000e+03 8.789978027343750000e+00 -3.986168801784515381e-01 -1.390253659337759018e-03 1.314342534897150472e-05 -4.131330933887511492e-04 4.873908892477629706e-06
2.234000000000000000e+03 8.686211585998535156e+00 -1.138616919517517090e+00 -2.368046989431604743e-04 8.418087963946163654e-05 -4.578714651870541275e-05 3.967400698456913233e-05
2.235000000000000000e+03 8.006248474121093750e+00 -3.998050093650817871e-01 -1.375831663608551025e-03 9.398784641234669834e-06 -4.099298676010221243e-04 -2.698213575058616698e-05
2.236000000000000000e+03 7.223060607910156250e+00 -3.997795581817626953e-01 -1.318714930675923824e-03 -3.144926949971704744e-06 -3.965579380746930838e-04 -2.725984268181491643e-05
2.237000000000000000e+03 6.439927577972412109e+00 -4.006183743476867676e-01 -1.248042797669768333e-03 2.303005567227955908e-05 -3.675038460642099380e-04 -4.984958286513574421e-05
2.238000000000000000e+03 5.657042503356933594e+00 -4.034312665462493896e-01 -1.135846483521163464e-03 -9.773904821486212313e-06 -3.436861152295023203e-04 -6.344208668451756239e-05
2.239000000000000000e+03 4.874185085296630859e+00 -4.075828790664672852e-01 -9.994220454245805740e-04 2.955266791104804724e-05 -2.909608010668307543e-04 -7.986785203684121370e-05
2.240000000000000000e+03 4.091480255126953125e+00 -4.106692969799041748e-01 -8.271971018984913826e-04 -1.517850159871159121e-05 -2.527126925997436047e-04 -1.004850273602642119e-04
2.241000000000000000e+03 3.310033082962036133e+00 -4.133046567440032959e-01 -6.296289502643048763e-04 2.293479519721586257e-05 -1.820082397898659110e-04 -1.027092876029200852e-04
2.242000000000000000e+03 2.531398296356201172e+00 -4.163123965263366699e-01 -4.239052359480410814e-04 -2.448136365273967385e-05 -1.345159835182130337e-04 -1.112526879296638072e-04
2.243000000000000000e+03 6.962535381317138672e-01 -1.126455783843994141e+00 -3.014233698195312172e-05 -7.067011756589636207e-05 -3.024373654625378549e-05 -9.064733603736385703e-05
2.244000000000000000e+03 3.739950358867645264e-01 -5.643373131752014160e-01 -1.054045605997089297e-05 -3.590518099372275174e-05 -1.393369075231021270e-05 -2.017077895288821310e-05
2.245000000000000000e+03 9.497249603271484375e+00 -1.133554100990295410e+00 -1.468197442591190338e-04 6.016009501763619483e-05 -2.599789513624273241e-05 1.360544556519016623e-04
2.246000000000000000e+03 7.875741004943847656e+00 -1.139804959297180176e+00 -3.381568240001797676e-04 -1.107141633838182315e-05 -1.047684709192253649e-04 2.035553552559576929e-05
2.247000000000000000e+03 7.065812587738037109e+00 -1.139779567718505859e+00 -4.463499062694609165e-04 7.418045424856245518e-05 -1.116508356062695384e-04 -4.731921217171475291e-05
2.248000000000000000e+03 6.255938053131103516e+00 -1.140618443489074707e+00 -4.743725876323878765e-04 4.826690087611495983e-07 -1.421669730916619301e-04 -7.563577673863619566e-05
2.249000000000000000e+03 5.446311473846435547e+00 -1.143431305885314941e+00 -4.941819934174418449e-04 7.412012928398326039e-05 -1.260185672435909510e-04 -1.394118735333904624e-04
2.250000000000000000e+03 4.636712551116943359e+00 -1.147582888603210449e+00 -4.492118314374238253e-04 7.196421165645006113e-07 -1.345476484857499599e-04 -1.751579256961122155e-04
2.251000000000000000e+03 3.827266693115234375e+00 -1.150669336318969727e+00 -4.070297291036695242e-04 6.653335731243714690e-05 -1.021489151753485203e-04 -2.280496992170810699e-04
2.252000000000000000e+03 3.019078254699707031e+00 -1.153304696083068848e+00 -3.102687478531152010e-04 -3.286460923845879734e-05 -1.029400082188658416e-04 -2.597522980067878962e-04
2.253000000000000000e+03 2.213702201843261719e+00 -1.156312346458435059e+00 -2.132108784280717373e-04 -8.683972737344447523e-06 -6.656845653196796775e-05 -2.377979253651574254e-04
2.254000000000000000e+03 1.420517802238464355e+00 -1.151062846183776855e+00 -1.229740009875968099e-04 -1.039452690747566521e-04 -6.807578029111027718e-05 -2.129840868292376399e-04
2.255000000000000000e+03 1.764955043792724609e+00 -4.110628962516784668e-01 -2.276938612340018153e-04 -1.400841847498668358e-05 -7.251068745972588658e-05 -7.818770245648920536e-05
2.256000000000000000e+03 1.067432165145874023e+00 -3.864558041095733643e-01 -8.852055907482281327e-05 -2.652383045642636716e-06 -2.735188172664493322e-05 -4.929484930471517146e-05
2.257000000000000000e+03 1.107046413421630859e+01 -5.791122317314147949e-01 -1.426358358003199100e-03 -1.051241051754914224e-04 -4.594447382260113955e-04 2.019747043959796429e-04
2.258000000000000000e+03 1.172848224639892578e+01 -1.444193720817565918e+00 8.385511464439332485e-04 -7.356309652095660567e-06 2.493584470357745886e-04 4.130241723032668233e-05
2.259000000000000000e+03 1.026795482635498047e+01 -1.192459702491760254e+00 1.206824151722685201e-07 1.284871250391006470e-04 3.858234413200989366e-05 4.100642036064527929e-05
2.260000000000000000e+03 1.245870399475097656e+01 -1.572161674499511719e+00 1.555985887534916401e-03 -1.669796183705329895e-04 4.167018923908472061e-04 7.339248259086161852e-05
2.261000000000000000e+03 1.254237651824951172e+01 -8.356313705444335938e-01 -1.516607124358415604e-03 -2.420658565824851394e-04 -5.276018637232482433e-04 1.503438688814640045e-04
2.262000000000000000e+03 1.180643558502197266e+01 -7.066720724105834961e-01 -1.420213840901851654e-03 7.607166480738669634e-05 -4.032426513731479645e-04 2.837745996657758951e-04
2.263000000000000000e+03 1.099823093414306641e+01 -1.317625284194946289e+00 4.464832600206136703e-04 8.725008228793740273e-06 1.365624775644391775e-04 1.438364852219820023e-04
2.264000000000000000e+03 1.033446884155273438e+01 -4.529553353786468506e-01 -1.334101776592433453e-03 7.754591933917254210e-05 -3.769667528104037046e-04 1.871706626843661070e-04
2.265000000000000000e+03 1.412816143035888672e+01 -9.967193007469177246e-01 -2.139079850167036057e-03 -4.287942138034850359e-04 -7.703622104600071907e-04 -2.938217658083885908e-04
2.266000000000000000e+03 1.524391746520996094e+01 -1.466321945190429688e+00 1.632375526241958141e-03 -1.622569514438509941e-03 2.941805632872274145e-06 -1.948339398950338364e-03
2.267000000000000000e+03 1.616965675354003906e+01 -1.725686669349670410e+00 1.169133093208074570e-02 -2.497414359822869301e-03 2.758175134658813477e-03 1.381013425998389721e-03
2.268000000000000000e+03 1.574865627288818359e+01 -1.673639893531799316e+00 1.115193869918584824e-02 -2.002989174798130989e-03 2.744684927165508270e-03 1.355791580863296986e-03
2.269000000000000000e+03 1.561703586578369141e+01 -9.138993620872497559e-01 -8.078665472567081451e-03 -1.804179861210286617e-03 -2.964853774756193161e-03 -2.194164553657174110e-03
2.270000000000000000e+03 1.330834674835205078e+01 -9.333403110504150391e-01 -1.675790990702807903e-03 7.734803511993959546e-05 -4.795328713953495026e-04 5.984759627608582377e-05
2.271000000000000000e+03 1.325672912597656250e+01 -1.671557903289794922e+00 2.413499169051647186e-03 -2.129372296622022986e-04 6.601685890927910805e-04 -1.103387767216190696e-04
2.272000000000000000e+03 1.414637279510498047e+01 -1.739302992820739746e+00 3.878827439621090889e-03 -5.748533294536173344e-04 9.911922970786690712e-04 -2.833498001564294100e-04
2.273000000000000000e+03 1.646326637268066406e+01 -1.909508228302001953e+00 1.871110685169696808e-02 2.011475618928670883e-03 6.216775160282850266e-03 6.328693125396966934e-03
2.274000000000000000e+03 1.419766807556152344e+01 -2.838388085365295410e-01 -3.571334600448608398e+00 1.389998346567153931e-01 -1.029700398445129395e+00 8.232500553131103516e-01
2.275000000000000000e+03 1.352537155151367188e+01 5.852731466293334961e-01 7.165501266717910767e-02 -2.064163684844970703e-01 -4.042840376496315002e-02 6.498807668685913086e-01
2.276000000000000000e+03 1.342303657531738281e+01 -1.497735083103179932e-01 -2.426372528076171875e+00 -2.108140289783477783e-01 -7.911559343338012695e-01 7.176132202148437500e-01
2.277000000000000000e+03 1.515072631835937500e+01 6.366986036300659180e-01 4.531987667083740234e+00 9.507586359977722168e-01 1.644823908805847168e+00 -8.046447038650512695e-01
2.278000000000000000e+03 1.436956024169921875e+01 6.066150665283203125e-01 1.723538160324096680e+00 7.935823798179626465e-01 7.551361918449401855e-01 -2.152728438377380371e-01
2.279000000000000000e+03 2.157444953918457031e+01 4.003563880920410156e+00 -7.929391860961914062e-01 -6.739955544471740723e-01 -4.400804042816162109e-01 -7.883837819099426270e-01
2.280000000000000000e+03 2.389948272705078125e+01 5.596093177795410156e+00 -3.162224531173706055e+00 -1.576803326606750488e+00 -1.421708345413208008e+00 -2.188352108001708984e+00
2.281000000000000000e+03 2.412474632263183594e+01 4.887040615081787109e+00 1.620033144950866699e+00 7.866784930229187012e-02 5.096102952957153320e-01 7.105017304420471191e-01
2.282000000000000000e+03 1.590177440643310547e+01 -5.061372518539428711e-01 -3.328655958175659180e+00 -1.126051917672157288e-01 -1.032378315925598145e+00 -1.045278787612915039e+00
2.283000000000000000e+03 1.952704048156738281e+01 2.294429063796997070e+00 5.793073773384094238e-01 -5.055686831474304199e-01 2.212161011993885040e-02 -2.266618609428405762e-01
2.284000000000000000e+03 2.090116500854492188e+01 2.502764463424682617e+00 -2.137264460325241089e-01 -2.285082787275314331e-01 -1.326704174280166626e-01 -2.599157691001892090e-01
2.285000000000000000e+03 2.118369483947753906e+01 2.726105928421020508e+00 2.816188037395477295e-01 -8.938045799732208252e-02 5.767150223255157471e-02 -4.583191871643066406e-02
2.286000000000000000e+03 2.619468307495117188e+01 6.949645519256591797e+00 -2.037360668182373047e+00 -1.331996798515319824e+00 -1.010807156562805176e+00 -1.600515365600585938e+00
2.287000000000000000e+03 2.673808860778808594e+01 7.608308792114257812e+00 -3.245812416076660156e+00 -2.081011772155761719e+00 -1.598047256469726562e+00 -2.568491458892822266e+00
2.288000000000000000e+03 2.781131172180175781e+01 8.301882743835449219e+00 -2.420962333679199219e+00 -8.980478644371032715e-01 -9.957030415534973145e-01 -1.798252582550048828e+00
2.289000000000000000e+03 2.843750381469726562e+01 8.249814033508300781e+00 -1.278436541557312012e+00 1.071633458137512207e+00 -6.204090267419815063e-02 -3.099504113197326660e-01
2.290000000000000000e+03 2.872324943542480469e+01 8.505600929260253906e+00 -1.532537102699279785e+00 -1.403282955288887024e-02 -4.639709889888763428e-01 -1.296841800212860107e-01
2.291000000000000000e+03 2.901180076599121094e+01 8.513568878173828125e+00 -1.239674925804138184e+00 6.146934032440185547e-01 -1.874944418668746948e-01 2.461307346820831299e-01
2.292000000000000000e+03 2.951800727844238281e+01 8.114252090454101562e+00 8.515930920839309692e-02 5.988138914108276367e-01 2.051919549703598022e-01 7.533324956893920898e-01
2.293000000000000000e+03 2.974779701232910156e+01 7.457363605499267578e+00 1.022790908813476562e+00 6.443990021944046021e-02 3.261692523956298828e-01 3.252029716968536377e-01
2.294000000000000000e+03 2.969834518432617188e+01 6.596699714660644531e+00 5.828345417976379395e-01 3.565365672111511230e-01 2.818113267421722412e-01 -2.805535197257995605e-01
2.295000000000000000e+03 2.914324760437011719e+01 6.185403347015380859e+00 1.551062017679214478e-01 5.678607821464538574e-01 2.168900966644287109e-01 -1.112650260329246521e-01
2.296000000000000000e+03 2.731749725341796875e+01 6.180770397186279297e+00 -9.976304322481155396e-02 -6.479916721582412720e-02 -4.936866462230682373e-02 -8.204609900712966919e-02
2.297000000000000000e+03 2.667770767211914062e+01 5.437873363494873047e+00 -3.288437379524111748e-03 -3.367330506443977356e-02 -1.108852308243513107e-02 -2.322427183389663696e-02
2.298000000000000000e+03 2.510387229919433594e+01 4.538621902465820312e+00 2.852695249021053314e-02 -4.236226435750722885e-03 7.287217769771814346e-03 6.244902964681386948e-03
2.299000000000000000e+03 2.605690193176269531e+01 5.097530364990234375e+00 8.454932831227779388e-03 -2.025403082370758057e-02 -3.539729630574584007e-03 -1.150180771946907043e-02
2.300000000000000000e+03 2.561135482788085938e+01 5.157556533813476562e+00 -2.680926991160959005e-05 -6.034424062818288803e-03 -1.818370074033737183e-03 -5.000349599868059158e-03
2.301000000000000000e+03 2.728079605102539062e+01 4.737926959991455078e+00 7.021880894899368286e-02 -1.704113371670246124e-02 1.595330238342285156e-02 2.358713746070861816e-02
2.302000000000000000e+03 2.848536109924316406e+01 5.469244956970214844e+00 8.038341999053955078e-02 1.519598811864852905e-01 6.970299035310745239e-02 7.240176200866699219e-02
2.303000000000000000e+03 2.787462043762207031e+01 6.200993061065673828e+00 -7.292533293366432190e-03 -1.172318011522293091e-01 -3.735730051994323730e-02 -6.017605960369110107e-02
2.304000000000000000e+03 2.660818672180175781e+01 6.537590503692626953e+00 1.891059041023254395e+00 4.580451846122741699e-01 7.047312855720520020e-01 9.803370833396911621e-01
2.305000000000000000e+03 2.734742164611816406e+01 6.542398452758789062e+00 4.351153373718261719e+00 1.576101064682006836e+00 1.778176426887512207e+00 2.639892578125000000e+00
2.306000000000000000e+03 2.703376388549804688e+01 6.653264045715332031e+00 2.544516563415527344e+00 9.851160645484924316e-01 1.058889746665954590e+00 1.578622937202453613e+00
2.307000000000000000e+03 2.627173042297363281e+01 4.064880847930908203e+00 5.786925926804542542e-02 -1.675405539572238922e-02 1.233456097543239594e-02 1.173984073102474213e-02
2.308000000000000000e+03 2.386675453186035156e+01 2.603332996368408203e+00 5.801692605018615723e-02 -3.415769664570689201e-03 1.638034731149673462e-02 1.895464956760406494e-02
2.309000000000000000e+03 2.220455932617187500e+01 3.039056539535522461e+00 7.287473231554031372e-02 2.543785423040390015e-02 2.949377521872520447e-02 4.399047046899795532e-02
2.310000000000000000e+03 2.217053604125976562e+01 1.547746300697326660e+00 5.000827088952064514e-02 6.647940259426832199e-03 1.699686422944068909e-02 3.289169445633888245e-02
2.311000000000000000e+03 2.025352096557617188e+01 4.149144887924194336e-01 1.060793362557888031e-02 5.462407693266868591e-02 1.956960372626781464e-02 5.666636303067207336e-02
2.312000000000000000e+03 1.814858818054199219e+01 4.918190240859985352e-01 -1.795719750225543976e-02 -3.937234170734882355e-03 -6.568329408764839172e-03 -9.563660249114036560e-03
2.313000000000000000e+03 1.820799827575683594e+01 -8.796090483665466309e-01 2.394763939082622528e-02 2.516197226941585541e-02 1.473288331180810928e-02 1.582843251526355743e-02
2.314000000000000000e+03 2.170348358154296875e+01 2.723834276199340820e+00 7.698091119527816772e-02 2.924381196498870850e-02 3.186741471290588379e-02 4.711868613958358765e-02
2.315000000000000000e+03 2.102823257446289062e+01 2.260757684707641602e+00 7.419211417436599731e-02 3.002027980983257294e-02 3.126371651887893677e-02 4.762129485607147217e-02
2.316000000000000000e+03 1.607972335815429688e+01 -8.520542383193969727e-01 -1.221816148608922958e-02 -6.308975163847208023e-03 -5.558141041547060013e-03 -6.424417719244956970e-03
2.317000000000000000e+03 1.663420677185058594e+01 -1.785859823226928711e+00 1.674711331725120544e-02 1.128796022385358810e-03 5.362772848457098007e-03 6.146347150206565857e-03
2.318000000000000000e+03 1.890606498718261719e+01 -4.218147695064544678e-01 2.104806900024414062e-02 4.524020850658416748e-02 1.988648250699043274e-02 2.273064851760864258e-02
2.319000000000000000e+03 2.062004280090332031e+01 6.062549352645874023e-01 1.393246278166770935e-02 4.022672399878501892e-02 1.624775491654872894e-02 5.905644595623016357e-02
2.320000000000000000e+03 2.088251113891601562e+01 1.380865573883056641e+00 3.806477412581443787e-02 3.193651884794235229e-02 2.100038900971412659e-02 4.895022511482238770e-02
2.321000000000000000e+03 2.300205802917480469e+01 2.110841751098632812e+00 5.636657774448394775e-02 9.314306662417948246e-04 1.718940213322639465e-02 2.507318183779716492e-02
2.322000000000000000e+03 2.438932991027832031e+01 2.960635662078857422e+00 5.698429420590400696e-02 -7.130104117095470428e-03 1.495625730603933334e-02 1.549996249377727509e-02
2.323000000000000000e+03 2.521880340576171875e+01 3.450610637664794922e+00 5.573995038866996765e-02 -1.132101006805896759e-02 1.332568190991878510e-02 1.224447973072528839e-02
2.324000000000000000e+03 2.289822006225585938e+01 3.422800064086914062e+00 6.362979114055633545e-02 2.035897597670555115e-02 2.519663050770759583e-02 3.661926090717315674e-02
2.325000000000000000e+03 2.307255363464355469e+01 3.524418592453002930e+00 6.093817204236984253e-02 2.002276852726936340e-02 2.428828179836273193e-02 3.455677628517150879e-02
2.326000000000000000e+03 2.407131767272949219e+01 4.178638458251953125e+00 4.099616035819053650e-02 1.189621351659297943e-02 1.586771197617053986e-02 2.212831564247608185e-02
2.327000000000000000e+03 1.780109024047851562e+01 1.569384574890136719e+00 3.365500688552856445e+00 9.867028594017028809e-01 1.305661082267761230e+00 1.781092405319213867e+00
2.328000000000000000e+03 2.510248374938964844e+01 4.799768447875976562e+00 1.624275743961334229e-02 -9.698963258415460587e-04 4.581858403980731964e-03 5.608994513750076294e-03
2.329000000000000000e+03 2.383655929565429688e+01 3.735404729843139648e+00 5.159276351332664490e-02 8.323803544044494629e-03 1.797497086226940155e-02 2.350907400250434875e-02
2.330000000000000000e+03 2.356903648376464844e+01 3.872204303741455078e+00 5.134494602680206299e-02 1.576383225619792938e-02 2.013263292610645294e-02 2.897723764181137085e-02
2.331000000000000000e+03 2.272424316406250000e+01 3.322763919830322266e+00 6.645310670137405396e-02 2.216237038373947144e-02 2.658464387059211731e-02 3.847465664148330688e-02
2.332000000000000000e+03 2.186722183227539062e+01 2.835867881774902344e+00 7.596822082996368408e-02 2.764455787837505341e-02 3.108383528888225555e-02 4.667027667164802551e-02
2.333000000000000000e+03 1.797665786743164062e+01 3.892868459224700928e-01 -1.919168233871459961e-02 -5.638432689011096954e-03 -7.449034601449966431e-03 -1.096680760383605957e-02
2.334000000000000000e+03 1.780901718139648438e+01 2.828388810157775879e-01 -1.940177194774150848e-02 -6.585895083844661713e-03 -7.796300109475851059e-03 -1.184010412544012070e-02
2.335000000000000000e+03 1.786056327819824219e+01 -7.438153028488159180e-01 1.423275191336870193e-02 1.272189058363437653e-02 8.086392655968666077e-03 7.658432237803936005e-03
2.336000000000000000e+03 1.490975666046142578e+01 -9.672126770019531250e-01 -3.128294600173830986e-03 4.919341299682855606e-04 -7.909081759862601757e-04 -5.036366055719554424e-04
2.337000000000000000e+03 1.553082847595214844e+01 -5.301201939582824707e-01 -4.816107749938964844e+00 3.410972654819488525e-01 -1.342503190040588379e+00 -1.694840751588344574e-02
2.338000000000000000e+03 2.761780357360839844e+01 7.930091857910156250e+00 -1.666249632835388184e+00 -5.387265086174011230e-01 -6.614928245544433594e-01 -1.282225489616394043e+00
2.339000000000000000e+03 2.491459465026855469e+01 6.318172931671142578e+00 -3.133564949035644531e+00 -1.883679747581481934e+00 -1.505173444747924805e+00 -2.497634410858154297e+00
2.340000000000000000e+03 2.509618377685546875e+01 5.497509956359863281e+00 2.161645174026489258e+00 7.481545805931091309e-01 8.729399442672729492e-01 1.039526581764221191e+00
2.341000000000000000e+03 2.355752754211425781e+01 5.373759746551513672e+00 -3.067160367965698242e+00 -1.408853054046630859e+00 -1.342803955078125000e+00 -2.034774780273437500e+00
2.342000000000000000e+03 2.223781585693359375e+01 4.491950511932373047e+00 -1.472395658493041992e+00 -8.668752312660217285e-01 -7.017812728881835938e-01 -1.144273042678833008e+00
2.343000000000000000e+03 2.086944961547851562e+01 3.572295188903808594e+00 -2.816153168678283691e-01 -3.939772248268127441e-01 -2.026777714490890503e-01 -4.351502060890197754e-01
2.344000000000000000e+03 2.071192550659179688e+01 3.059936761856079102e+00 3.002556860446929932e-01 -5.207791328430175781e-01 -6.615703552961349487e-02 -3.621923923492431641e-01
2.345000000000000000e+03 2.016724014282226562e+01 3.137828350067138672e+00 4.623191356658935547e-01 -1.380724608898162842e-01 9.727400541305541992e-02 2.937536500394344330e-02
2.346000000000000000e+03 2.013880538940429688e+01 2.411051511764526367e+00 -4.085136950016021729e-02 -6.848070025444030762e-01 -2.176975160837173462e-01 -5.717697143554687500e-01
2.347000000000000000e+03 1.905813980102539062e+01 1.327856063842773438e+00 -3.258533954620361328e+00 -1.184666752815246582e+00 -1.332960247993469238e+00 -1.894144892692565918e+00
2.348000000000000000e+03 1.744436645507812500e+01 1.317501544952392578e+00 3.730578184127807617e+00 9.882474541664123535e-01 1.415647745132446289e+00 1.784588813781738281e+00
2.349000000000000000e+03 1.628603553771972656e+01 8.226152062416076660e-01 5.239112854003906250e+00 5.357931256294250488e-01 1.732471823692321777e+00 1.687339305877685547e+00
2.350000000000000000e+03 1.592049598693847656e+01 7.100230455398559570e-01 5.409037590026855469e+00 7.020972371101379395e-01 1.833340406417846680e+00 1.108762741088867188e+00
2.351000000000000000e+03 1.661206626892089844e+01 8.281219750642776489e-03 -4.361496448516845703e+00 -8.425893187522888184e-01 -1.561225771903991699e+00 -2.259075641632080078e+00
2.352000000000000000e+03 1.869659805297851562e+01 1.178386449813842773e+00 -3.358590841293334961e+00 -1.456882476806640625e+00 -1.444641947746276855e+00 -2.106503725051879883e+00
2.353000000000000000e+03 1.813349723815917969e+01 1.811456799507141113e+00 3.024931907653808594e+00 8.623751997947692871e-01 1.166192173957824707e+00 1.654324531555175781e+00
2.354000000000000000e+03 1.867108726501464844e+01 1.794123888015747070e+00 1.092958450317382812e+00 -2.533294260501861572e-01 2.518887221813201904e-01 1.407450437545776367e-01
2.355000000000000000e+03 2.021986579895019531e+01 2.136486768722534180e+00 -9.438348412513732910e-01 -5.685745477676391602e-01 -4.537228047847747803e-01 -7.275246977806091309e-01
2.356000000000000000e+03 2.072131156921386719e+01 2.411337137222290039e+00 -3.835988044738769531e-01 -2.913260757923126221e-01 -2.024774700403213501e-01 -3.562619984149932861e-01
2.357000000000000000e+03 2.134403800964355469e+01 2.867102384567260742e+00 5.349268317222595215e-01 -6.655887514352798462e-02 1.405103951692581177e-01 5.818194150924682617e-02
2.358000000000000000e+03 2.052456855773925781e+01 3.346909999847412109e+00 4.145072400569915771e-02 -3.169481754302978516e-01 -8.264923840761184692e-02 -2.251849323511123657e-01
2.359000000000000000e+03 2.190268898010253906e+01 3.133645534515380859e+00 1.035232186317443848e+00 2.414491921663284302e-01 3.830044269561767578e-01 4.688391387462615967e-01
2.360000000000000000e+03 2.170759963989257812e+01 3.228340387344360352e+00 8.387354016304016113e-01 -1.816609650850296021e-01 1.971223205327987671e-01 1.451021432876586914e-01
2.361000000000000000e+03 2.218294525146484375e+01 3.758147478103637695e+00 5.942929983139038086e-01 -3.059613704681396484e-01 8.649949729442596436e-02 -8.157561719417572021e-02
2.362000000000000000e+03 2.309049415588378906e+01 3.885665655136108398e+00 2.177362203598022461e+00 6.715666055679321289e-01 8.546786904335021973e-01 1.142491221427917480e+00
2.363000000000000000e+03 2.343356513977050781e+01 4.924833297729492188e+00 -8.273066878318786621e-01 -8.847187161445617676e-01 -5.136076211929321289e-01 -9.744625091552734375e-01
2.364000000000000000e+03 2.389833259582519531e+01 4.438695907592773438e+00 3.108453989028930664e+00 8.883074522018432617e-01 1.199028372764587402e+00 1.628964424133300781e+00
2.365000000000000000e+03 2.493483924865722656e+01 5.057234764099121094e+00 3.695852041244506836e+00 1.199948787689208984e+00 1.468740224838256836e+00 2.183607578277587891e+00
2.366000000000000000e+03 2.634406471252441406e+01 5.882075309753417969e+00 4.315965652465820312e+00 1.449980974197387695e+00 1.729784011840820312e+00 2.567511558532714844e+00
2.367000000000000000e+03 2.651717948913574219e+01 6.223111629486083984e+00 3.479886293411254883e+00 1.073464274406433105e+00 1.366005182266235352e+00 2.006954431533813477e+00
2.368000000000000000e+03 2.752372932434082031e+01 6.642493247985839844e+00 4.348854064941406250e+00 1.607697248458862305e+00 1.786965370178222656e+00 2.661840200424194336e+00
2.369000000000000000e+03 2.770738792419433594e+01 6.731254100799560547e+00 4.410688400268554688e+00 1.642000675201416016e+00 1.815806746482849121e+00 2.636742830276489258e+00
2.370000000000000000e+03 2.837801170349121094e+01 8.509162902832031250e+00 -1.977086782455444336e+00 1.347730308771133423e-01 -5.526941418647766113e-01 -9.376963376998901367e-01
2.371000000000000000e+03 2.877238655090332031e+01 8.255836486816406250e+00 -6.233432888984680176e-01 1.120375156402587891e+00 1.491095721721649170e-01 4.074964225292205811e-01
2.372000000000000000e+03 2.819168090820312500e+01 8.265731811523437500e+00 -1.807216882705688477e+00 3.470429778099060059e-02 -5.317537784576416016e-01 -9.219281673431396484e-01
2.373000000000000000e+03 2.762212753295898438e+01 6.936492919921875000e+00 3.061104059219360352e+00 1.141106247901916504e+00 1.260663151741027832e+00 1.874361157417297363e+00
2.374000000000000000e+03 2.782902908325195312e+01 6.540134429931640625e+00 -1.846462041139602661e-01 -1.389432996511459351e-01 -9.707685559988021851e-02 -1.662328094244003296e-01
2.375000000000000000e+03 2.816375541687011719e+01 6.255253791809082031e+00 6.250304728746414185e-02 -8.946526050567626953e-02 -8.088664151728153229e-03 -1.025696983560919762e-03
2.376000000000000000e+03 2.855319404602050781e+01 6.142180919647216797e+00 9.741146862506866455e-02 1.954236179590225220e-01 8.785052597522735596e-02 9.417729824781417847e-02
2.377000000000000000e+03 2.994088172912597656e+01 7.355839729309082031e+00 9.322507977485656738e-01 -1.566957496106624603e-02 2.749743759632110596e-01 1.655239909887313843e-01
2.378000000000000000e+03 2.965469932556152344e+01 6.280673980712890625e+00 3.705556690692901611e-01 4.419924616813659668e-01 2.437644302845001221e-01 -3.093202114105224609e-01
2.379000000000000000e+03 2.813894844055175781e+01 5.262156963348388672e+00 8.381470292806625366e-02 5.866246670484542847e-02 4.274315014481544495e-02 6.285361200571060181e-02
2.380000000000000000e+03 2.796563339233398438e+01 5.154746055603027344e+00 8.129191398620605469e-02 2.803919836878776550e-02 3.279933333396911621e-02 5.266030132770538330e-02
2.381000000000000000e+03 2.745028686523437500e+01 4.845677852630615234e+00 7.193956524133682251e-02 -9.626828134059906006e-03 1.869382150471210480e-02 2.815837226808071136e-02
2.382000000000000000e+03 2.690469741821289062e+01 4.545875072479248047e+00 6.201487034559249878e-02 -1.876310072839260101e-02 1.297553163021802902e-02 1.595870405435562134e-02
2.383000000000000000e+03 2.642532920837402344e+01 4.458956241607666016e+00 5.164743587374687195e-02 -2.195975743234157562e-02 8.906303904950618744e-03 6.951123941689729691e-03
2.384000000000000000e+03 2.658790779113769531e+01 4.286829948425292969e+00 5.783142521977424622e-02 -1.771449111402034760e-02 1.203508023172616959e-02 1.354399975389242172e-02
2.385000000000000000e+03 2.574311637878417969e+01 3.786098003387451172e+00 5.540063604712486267e-02 -1.467269100248813629e-02 1.221838314086198807e-02 1.076075434684753418e-02
2.386000000000000000e+03 2.541836547851562500e+01 3.930738449096679688e+00 5.010520666837692261e-02 -1.287134923040866852e-02 1.117015723139047623e-02 8.926007896661758423e-03
2.387000000000000000e+03 2.420208168029785156e+01 2.860757350921630859e+00 5.774796381592750549e-02 -5.147994961589574814e-03 1.577999070286750793e-02 1.688207499682903290e-02
2.388000000000000000e+03 2.345994377136230469e+01 2.607226133346557617e+00 5.865634605288505554e-02 -1.640535920159891248e-04 1.754768751561641693e-02 2.239783480763435364e-02
2.389000000000000000e+03 2.318541145324707031e+01 2.221759319305419922e+00 5.723375827074050903e-02 8.751353598199784756e-04 1.743266917765140533e-02 2.354349568486213684e-02
2.390000000000000000e+03 2.254116249084472656e+01 2.054912328720092773e+00 5.778332427144050598e-02 7.366993464529514313e-03 1.954509504139423370e-02 3.002202883362770081e-02
2.391000000000000000e+03 2.216105842590332031e+01 1.763288617134094238e+00 5.379693582653999329e-02 8.705330081284046173e-03 1.875068061053752899e-02 3.399943932890892029e-02
2.392000000000000000e+03 2.199205207824707031e+01 1.458675265312194824e+00 4.754131287336349487e-02 5.773669574409723282e-03 1.599449478089809418e-02 3.728286176919937134e-02
2.393000000000000000e+03 2.183944702148437500e+01 1.690778493881225586e+00 5.249763280153274536e-02 1.470110472291707993e-02 2.015962079167366028e-02 3.742595389485359192e-02
2.394000000000000000e+03 2.182098770141601562e+01 1.338136911392211914e+00 4.468980059027671814e-02 1.184702478349208832e-02 1.696104742586612701e-02 3.843510895967483521e-02
2.395000000000000000e+03 2.131197357177734375e+01 1.024908065795898438e+00 3.365298360586166382e-02 1.576603017747402191e-02 1.482570450752973557e-02 4.826004803180694580e-02
2.396000000000000000e+03 2.114123344421386719e+01 9.171155691146850586e-01 3.039816766977310181e-02 2.293309569358825684e-02 1.599937863647937775e-02 5.295656993985176086e-02
2.397000000000000000e+03 2.067724800109863281e+01 9.409630894660949707e-01 2.210558019578456879e-02 3.522089123725891113e-02 1.719794049859046936e-02 5.221395194530487061e-02
2.398000000000000000e+03 2.001682472229003906e+01 1.637134432792663574e+00 4.538381472229957581e-02 2.608162537217140198e-02 2.143963240087032318e-02 3.328879550099372864e-02
2.399000000000000000e+03 2.044163322448730469e+01 5.099294185638427734e-01 1.291237678378820419e-02 4.886200651526451111e-02 1.853231526911258698e-02 5.635494366288185120e-02
2.400000000000000000e+03 1.973522758483886719e+01 4.402073472738265991e-02 1.148800924420356750e-02 6.604370474815368652e-02 2.325951308012008667e-02 3.916615247726440430e-02
2.401000000000000000e+03 2.007245063781738281e+01 2.987338006496429443e-01 1.400981331244111061e-03 6.459836661815643311e-02 1.979980431497097015e-02 5.105298012495040894e-02
2.402000000000000000e+03 1.928709983825683594e+01 -2.650651633739471436e-01 1.942543871700763702e-02 5.830468237400054932e-02 2.331903576850891113e-02 2.666564844548702240e-02
2.403000000000000000e+03 1.904242515563964844e+01 -6.172461062669754028e-02 1.192708127200603485e-02 4.515665024518966675e-02 1.712511852383613586e-02 2.210700325667858124e-02
2.404000000000000000e+03 1.837055206298828125e+01 -4.188842475414276123e-01 1.180234551429748535e-02 2.212329395115375519e-02 1.017769146710634232e-02 1.243553403764963150e-02
2.405000000000000000e+03 1.854799652099609375e+01 -6.623200178146362305e-01 2.126860804855823517e-02 3.274134546518325806e-02 1.620298624038696289e-02 1.862800121307373047e-02
2.406000000000000000e+03 1.837671661376953125e+01 -7.712314128875732422e-01 1.964699663221836090e-02 2.857082150876522064e-02 1.446534600108861923e-02 1.691050454974174500e-02
2.407000000000000000e+03 2.547790527343750000e+01 6.817430019378662109e+00 -3.947281360626220703e+00 -1.957941293716430664e+00 -1.771566867828369141e+00 -2.789244413375854492e+00
2.408000000000000000e+03 2.751976966857910156e+01 8.118475914001464844e+00 -2.626369237899780273e+00 -1.548324823379516602e+00 -1.252408266067504883e+00 -2.097075462341308594e+00
2.409000000000000000e+03 2.774594306945800781e+01 8.091825485229492188e+00 -1.899504780769348145e+00 -7.651247382164001465e-01 -7.993888258934020996e-01 -1.396334290504455566e+00
2.410000000000000000e+03 2.639754867553710938e+01 7.404555320739746094e+00 -3.559660434722900391e+00 -2.260893821716308594e+00 -1.746166229248046875e+00 -2.721820354461669922e+00
2.411000000000000000e+03 2.606106948852539062e+01 7.185231208801269531e+00 -3.971330165863037109e+00 -2.272091388702392578e+00 -1.873026490211486816e+00 -2.924558877944946289e+00
2.412000000000000000e+03 2.798363685607910156e+01 8.158415794372558594e+00 -1.888624191284179688e+00 -3.131218254566192627e-01 -6.605237722396850586e-01 -1.199667334556579590e+00
2.413000000000000000e+03 2.766287040710449219e+01 7.594291687011718750e+00 -1.047233045101165771e-01 1.459350436925888062e-01 1.236352510750293732e-02 -3.348270654678344727e-01
2.414000000000000000e+03 2.922995376586914062e+01 8.264119148254394531e+00 -4.296760261058807373e-01 5.591634511947631836e-01 3.884622082114219666e-02 6.734338998794555664e-01
2.415000000000000000e+03 2.787303733825683594e+01 7.956303119659423828e+00 -1.338551521301269531e+00 1.758106797933578491e-01 -3.488222360610961914e-01 -9.606673121452331543e-01
2.416000000000000000e+03 2.732738494873046875e+01 7.844492435455322266e+00 -2.114120483398437500e+00 -1.187586307525634766e+00 -9.905120134353637695e-01 -1.729247093200683594e+00
2.417000000000000000e+03 2.705543899536132812e+01 7.530703067779541016e+00 -1.626233339309692383e+00 -1.050533294677734375e+00 -8.030300140380859375e-01 -1.325631976127624512e+00
2.418000000000000000e+03 2.968653678894042969e+01 7.849141120910644531e+00 5.636533498764038086e-01 2.622061967849731445e-01 2.477578669786453247e-01 4.952138364315032959e-01
2.419000000000000000e+03 2.835629081726074219e+01 6.176811218261718750e+00 1.012485697865486145e-01 3.472081571817398071e-02 4.079081490635871887e-02 7.100031524896621704e-02
2.420000000000000000e+03 2.950033187866210938e+01 6.448091506958007812e+00 4.618006944656372070e-01 5.791459083557128906e-01 3.122839927673339844e-01 -3.898000121116638184e-01
2.421000000000000000e+03 2.894675827026367188e+01 6.136587142944335938e+00 9.871349483728408813e-02 5.005717873573303223e-01 1.797855794429779053e-01 -2.108361758291721344e-02
2.422000000000000000e+03 2.874980735778808594e+01 6.135490417480468750e+00 8.561114966869354248e-02 3.660623431205749512e-01 1.355020403861999512e-01 7.884076982736587524e-02
2.423000000000000000e+03 2.767642974853515625e+01 6.402858257293701172e+00 -1.380458772182464600e-01 -1.142110228538513184e-01 -7.567706704139709473e-02 -1.273286789655685425e-01
2.424000000000000000e+03 2.937743759155273438e+01 6.025830745697021484e+00 1.884401440620422363e-01 4.682945311069488525e-01 1.970204114913940430e-01 -1.386002004146575928e-01
2.425000000000000000e+03 2.971186447143554688e+01 7.641345977783203125e+00 1.197698593139648438e+00 1.267929077148437500e-01 3.973474502563476562e-01 5.202576518058776855e-01
2.426000000000000000e+03 1.572074985504150391e+01 2.189624011516571045e-01 -1.803369261324405670e-02 1.461619019508361816e+00 4.330756068229675293e-01 -4.025875627994537354e-01
2.427000000000000000e+03 2.408654022216796875e+01 4.547325134277343750e+00 3.310021400451660156e+00 9.142882227897644043e-01 1.267292857170104980e+00 1.744563221931457520e+00
2.428000000000000000e+03 2.037843704223632812e+01 2.863221883773803711e+00 3.536025583744049072e-01 -5.158903002738952637e-01 -4.868631437420845032e-02 -3.136943578720092773e-01
2.429000000000000000e+03 2.261888504028320312e+01 3.930613756179809570e+00 1.234671354293823242e+00 -4.416329041123390198e-02 3.571524322032928467e-01 3.395445346832275391e-01
2.430000000000000000e+03 2.189883041381835938e+01 4.254463672637939453e+00 -1.085622310638427734e+00 -7.322844266891479492e-01 -5.453720092773437500e-01 -9.623818397521972656e-01
2.431000000000000000e+03 1.715502357482910156e+01 2.484077364206314087e-01 -4.808243751525878906e+00 -1.549692273139953613e+00 -1.907380819320678711e+00 -3.051285505294799805e+00
2.432000000000000000e+03 1.699773979187011719e+01 1.264773458242416382e-01 -4.918359756469726562e+00 -1.359404683113098145e+00 -1.883329272270202637e+00 -2.744998693466186523e+00
2.433000000000000000e+03 1.885128974914550781e+01 2.235883474349975586e+00 2.087139844894409180e+00 4.621183276176452637e-01 7.647774815559387207e-01 9.696009159088134766e-01
2.434000000000000000e+03 1.847843170166015625e+01 2.026584863662719727e+00 2.619220972061157227e+00 6.118351221084594727e-01 9.693167805671691895e-01 1.341893076896667480e+00
2.435000000000000000e+03 2.543092918395996094e+01 5.707922935485839844e+00 1.803122520446777344e+00 3.480755090713500977e-01 6.453593969345092773e-01 9.596595168113708496e-01
2.436000000000000000e+03 2.457446861267089844e+01 5.008879184722900391e+00 2.854839563369750977e+00 6.055152416229248047e-01 1.038106441497802734e+00 1.363895893096923828e+00
2.437000000000000000e+03 2.325514793395996094e+01 3.987225294113159180e+00 2.374743700027465820e+00 6.534836292266845703e-01 9.084682464599609375e-01 1.212235450744628906e+00
2.438000000000000000e+03 2.463901519775390625e+01 4.825169563293457031e+00 3.493103504180908203e+00 1.222572445869445801e+00 1.414702773094177246e+00 2.215046405792236328e+00
2.439000000000000000e+03 2.104832649230957031e+01 2.598700046539306641e+00 1.518489420413970947e-02 -1.483595371246337891e-01 -3.995238989591598511e-02 -1.163098141551017761e-01
2.440000000000000000e+03 2.219436645507812500e+01 3.388534784317016602e+00 1.452891588211059570e+00 2.970145046710968018e-01 5.249718427658081055e-01 6.173591017723083496e-01
2.441000000000000000e+03 2.275546455383300781e+01 3.693754434585571289e+00 1.893767833709716797e+00 4.666306972503662109e-01 7.081195712089538574e-01 9.779781699180603027e-01
2.442000000000000000e+03 2.191262245178222656e+01 3.660018205642700195e+00 4.577515125274658203e-01 -3.691246211528778076e-01 2.658807486295700073e-02 -1.952361017465591431e-01
2.443000000000000000e+03 2.427522277832031250e+01 4.646494388580322266e+00 3.511688470840454102e+00 9.802149534225463867e-01 1.347571015357971191e+00 1.883009910583496094e+00
2.444000000000000000e+03 2.446111488342285156e+01 4.740173339843750000e+00 3.611801385879516602e+00 1.059312701225280762e+00 1.401334166526794434e+00 2.071594953536987305e+00
2.445000000000000000e+03 2.528694915771484375e+01 5.271379947662353516e+00 3.839641571044921875e+00 1.347890138626098633e+00 1.556259512901306152e+00 2.167885541915893555e+00
2.446000000000000000e+03 2.717264175415039062e+01 6.434658527374267578e+00 4.331284523010253906e+00 1.491439461708068848e+00 1.746817231178283691e+00 2.598127365112304688e+00
2.447000000000000000e+03 1.733164405822753906e+01 3.668887019157409668e-01 -4.903402328491210938e+00 -2.010866165161132812e+00 -2.074280500411987305e+00 -2.829242467880249023e+00
2.448000000000000000e+03 1.705279922485351562e+01 1.104628801345825195e+00 4.249227523803710938e+00 9.293540120124816895e-01 1.553574442863464355e+00 1.696673750877380371e+00
2.449000000000000000e+03 1.820470809936523438e+01 1.020192623138427734e+00 -2.305419683456420898e+00 -1.442432522773742676e+00 -1.124355673789978027e+00 -1.966157793998718262e+00
2.450000000000000000e+03 1.934757041931152344e+01 1.523654103279113770e+00 -2.361249446868896484e+00 -1.159550070762634277e+00 -1.056239843368530273e+00 -1.596594572067260742e+00
2.451000000000000000e+03 1.620856475830078125e+01 -2.564688026905059814e-01 -3.896304845809936523e+00 -1.010503530502319336e+00 -1.472042560577392578e+00 -1.617492675781250000e+00
2.452000000000000000e+03 1.637600135803222656e+01 -1.055432707071304321e-01 -4.169736862182617188e+00 -8.419632911682128906e-01 -1.503510117530822754e+00 -1.921388626098632812e+00
2.453000000000000000e+03 1.682551574707031250e+01 6.590063869953155518e-02 -4.609920024871826172e+00 -1.252667546272277832e+00 -1.758776187896728516e+00 -2.422575950622558594e+00
2.454000000000000000e+03 2.681288909912109375e+01 6.210831165313720703e+00 4.174432754516601562e+00 1.618418216705322266e+00 1.737855315208435059e+00 2.588164091110229492e+00
2.455000000000000000e+03 2.041065216064453125e+01 2.207756280899047852e+00 -7.840111851692199707e-01 -4.598875045776367188e-01 -3.731696009635925293e-01 -5.903971195220947266e-01
2.456000000000000000e+03 1.647114562988281250e+01 -6.173247694969177246e-01 -1.218436472117900848e-02 -6.709148641675710678e-03 -5.668053869158029556e-03 -9.039385244250297546e-03
2.457000000000000000e+03 2.714648437500000000e+01 6.079617023468017578e+00 -8.329390734434127808e-02 -5.657687038183212280e-02 -4.196123406291007996e-02 -6.833036243915557861e-02
2.458000000000000000e+03 2.610667991638183594e+01 3.989916086196899414e+00 5.594233423471450806e-02 -1.657657884061336517e-02 1.180972624570131302e-02 1.054136268794536591e-02
2.459000000000000000e+03 1.833070755004882812e+01 5.895792841911315918e-01 -1.631023548543453217e-02 -2.334170509129762650e-03 -5.593322217464447021e-03 -7.452714256942272186e-03
2.460000000000000000e+03 2.237835693359375000e+01 3.131584405899047852e+00 7.104306668043136597e-02 2.509859018027782440e-02 2.884249761700630188e-02 4.191900044679641724e-02
2.461000000000000000e+03 1.764385032653808594e+01 1.744001954793930054e-01 -1.953059621155261993e-02 -7.326104678213596344e-03 -8.057010360062122345e-03 -1.214106380939483643e-02
2.462000000000000000e+03 1.916730690002441406e+01 1.125744342803955078e+00 5.602030083537101746e-03 1.185728702694177628e-02 5.237794946879148483e-03 9.915750473737716675e-03
2.463000000000000000e+03 2.649093246459960938e+01 5.643176078796386719e+00 -3.083896450698375702e-02 -2.813002653419971466e-02 -1.769069768488407135e-02 -3.051103278994560242e-02
2.464000000000000000e+03 2.631550598144531250e+01 5.527283191680908203e+00 -2.414275333285331726e-02 -2.357426472008228302e-02 -1.431510597467422485e-02 -2.403432317078113556e-02
2.465000000000000000e+03 2.612833976745605469e+01 5.438388347625732422e+00 -1.825072057545185089e-02 -1.780852675437927246e-02 -1.081777457147836685e-02 -1.756519451737403870e-02
2.466000000000000000e+03 2.492999267578125000e+01 4.705292224884033203e+00 2.116468921303749084e-02 3.076330525800585747e-03 7.272305898368358612e-03 9.169559925794601440e-03
2.467000000000000000e+03 2.546989440917968750e+01 4.657116889953613281e+00 2.528980001807212830e-02 -9.635829366743564606e-03 4.696190822869539261e-03 1.551044522784650326e-03
2.468000000000000000e+03 2.545153236389160156e+01 5.036966800689697266e+00 6.880426313728094101e-03 -3.798576304689049721e-03 9.245550609193742275e-04 -1.614399021491408348e-03
2.469000000000000000e+03 2.459490013122558594e+01 4.509659290313720703e+00 2.971401624381542206e-02 6.838774308562278748e-03 1.096583716571331024e-02 1.468578167259693146e-02
2.470000000000000000e+03 2.469862174987792969e+01 4.145606040954589844e+00 4.049931094050407410e-02 -1.012690598145127296e-03 1.184598635882139206e-02 1.240588538348674774e-02
2.471000000000000000e+03 2.373550224304199219e+01 3.974582195281982422e+00 4.784622043371200562e-02 1.483719050884246826e-02 1.880502328276634216e-02 2.651267498731613159e-02
2.472000000000000000e+03 2.424369049072265625e+01 4.286685943603515625e+00 3.726296126842498779e-02 9.506504982709884644e-03 1.403083931654691696e-02 1.981272548437118530e-02
2.473000000000000000e+03 2.339944267272949219e+01 3.365537881851196289e+00 5.907401069998741150e-02 1.102251280099153519e-02 2.102895639836788177e-02 2.739802934229373932e-02
2.474000000000000000e+03 1.737028121948242188e+01 -1.417335867881774902e+00 1.956620067358016968e-02 9.581229649484157562e-03 8.744228631258010864e-03 1.061297766864299774e-02
2.475000000000000000e+03 1.628935050964355469e+01 -7.278177142143249512e-01 -1.146542839705944061e-02 -6.226408295333385468e-03 -5.307551007717847824e-03 -8.197879418730735779e-03
2.476000000000000000e+03 1.664281463623046875e+01 -5.031195878982543945e-01 -1.336336508393287659e-02 -6.848963908851146698e-03 -6.063698790967464447e-03 -9.913540445268154144e-03
2.477000000000000000e+03 2.750169563293457031e+01 6.282786369323730469e+00 -1.193396076560020447e-01 -9.575002640485763550e-02 -6.452689319849014282e-02 -9.725322574377059937e-02
2.478000000000000000e+03 2.573222351074218750e+01 4.982469081878662109e+00 1.168373227119445801e-02 -1.178557798266410828e-02 -3.055350680369883776e-05 -5.244425497949123383e-03
2.479000000000000000e+03 2.255205917358398438e+01 3.223788022994995117e+00 6.860603392124176025e-02 2.298993058502674103e-02 2.747878991067409515e-02 4.059993103146553040e-02
2.480000000000000000e+03 2.247628593444824219e+01 2.902311563491821289e+00 6.841561943292617798e-02 1.874544657766819000e-02 2.614831924438476562e-02 3.762639686465263367e-02
2.481000000000000000e+03 2.120512962341308594e+01 2.366119623184204102e+00 7.544082403182983398e-02 3.017255105078220367e-02 3.168401122093200684e-02 4.790793359279632568e-02
2.482000000000000000e+03 1.982842826843261719e+01 1.562138557434082031e+00 3.955050930380821228e-02 2.118954434990882874e-02 1.822201721370220184e-02 3.007609583437442780e-02
2.483000000000000000e+03 1.685240936279296875e+01 -8.052365779876708984e-01 8.937308302847668529e-05 -3.221677150577306747e-03 -9.396912064403295517e-04 -3.147307317703962326e-03
2.484000000000000000e+03 2.866297340393066406e+01 5.560963630676269531e+00 7.872547954320907593e-02 2.127136737108230591e-01 8.743174374103546143e-02 6.667953729629516602e-02
2.485000000000000000e+03 2.709033966064453125e+01 4.650040626525878906e+00 6.522622704505920410e-02 -1.735937222838401794e-02 1.436005719006061554e-02 1.815467700362205505e-02
2.486000000000000000e+03 1.701620674133300781e+01 -1.598754167556762695e+00 1.797008700668811798e-02 4.973395727574825287e-03 6.883044727146625519e-03 8.361385203897953033e-03
2.487000000000000000e+03 1.990662193298339844e+01 1.681541800498962402e-01 1.019815821200609207e-02 6.914860755205154419e-02 2.380402944982051849e-02 3.983903303742408752e-02
2.488000000000000000e+03 2.402393531799316406e+01 2.738673686981201172e+00 5.792175978422164917e-02 -5.171038676053285599e-03 1.582521572709083557e-02 1.779805868864059448e-02
2.489000000000000000e+03 2.919072723388671875e+01 5.915001869201660156e+00 1.210703924298286438e-01 4.708310365676879883e-01 1.775704324245452881e-01 -8.310209214687347412e-02
2.490000000000000000e+03 2.800765800476074219e+01 5.494798660278320312e+00 8.421802520751953125e-02 7.892990484833717346e-03 2.763330377638339996e-02 4.754517972469329834e-02
2.491000000000000000e+03 2.761833190917968750e+01 4.951700210571289062e+00 7.346498221158981323e-02 -1.295475405640900135e-03 2.165085263550281525e-02 3.448246419429779053e-02
2.492000000000000000e+03 2.456723022460937500e+01 3.055789470672607422e+00 5.739528313279151917e-02 -7.592514622956514359e-03 1.494083087891340256e-02 1.508315186947584152e-02
2.493000000000000000e+03 2.249617195129394531e+01 1.752540349960327148e+00 5.320873111486434937e-02 5.027688574045896530e-03 1.747092604637145996e-02 3.003018163144588470e-02
2.494000000000000000e+03 2.233315849304199219e+01 1.638239860534667969e+00 5.059009790420532227e-02 4.116515163332223892e-03 1.641198433935642242e-02 3.128409385681152344e-02
2.495000000000000000e+03 2.148179817199707031e+01 1.128484606742858887e+00 3.664060309529304504e-02 1.518722809851169586e-02 1.554834935814142227e-02 4.657446220517158508e-02
2.496000000000000000e+03 2.096979713439941406e+01 8.090916872024536133e-01 2.541759051382541656e-02 2.402982115745544434e-02 1.483422331511974335e-02 5.478515103459358215e-02
2.497000000000000000e+03 2.354416084289550781e+01 2.388252258300781250e+00 5.782064422965049744e-02 -1.999279484152793884e-03 1.674640923738479614e-02 2.076450735330581665e-02
2.498000000000000000e+03 2.522423934936523438e+01 4.140122890472412109e+00 4.335762187838554382e-02 -9.842660278081893921e-03 1.005448866635560989e-02 8.012820035219192505e-03
2.499000000000000000e+03 2.577788734436035156e+01 4.142484188079833984e+00 4.960540682077407837e-02 -1.664712280035018921e-02 9.887485764920711517e-03 6.713018286973237991e-03
2.500000000000000000e+03 2.091345596313476562e+01 1.713690042495727539e+00 5.045155063271522522e-02 3.122436255216598511e-02 2.450277470052242279e-02 4.598513245582580566e-02
2.501000000000000000e+03 2.337233734130859375e+01 2.300741434097290039e+00 5.720479413866996765e-02 -1.901382929645478725e-03 1.659102365374565125e-02 2.223132178187370300e-02
2.502000000000000000e+03 2.489199066162109375e+01 3.406341314315795898e+00 5.498786643147468567e-02 -9.406208060681819916e-03 1.367449760437011719e-02 1.280659250915050507e-02
2.503000000000000000e+03 2.883820724487304688e+01 5.658454418182373047e+00 7.668988406658172607e-02 2.917013764381408691e-01 1.105173751711845398e-01 4.491337761282920837e-02
2.504000000000000000e+03 2.854191970825195312e+01 5.962574481964111328e+00 9.872149676084518433e-02 1.908727586269378662e-01 8.687827736139297485e-02 9.166277199983596802e-02
2.505000000000000000e+03 2.817785644531250000e+01 5.623554706573486328e+00 9.054582566022872925e-02 4.264014959335327148e-02 3.995579108595848083e-02 6.355549395084381104e-02
2.506000000000000000e+03 2.474594879150390625e+01 3.141265630722045898e+00 5.667706951498985291e-02 -9.253461845219135284e-03 1.422708202153444290e-02 1.400422677397727966e-02
2.507000000000000000e+03 2.469014930725097656e+01 3.378220081329345703e+00 5.494990572333335876e-02 -7.060270756483078003e-03 1.436689030379056931e-02 1.411456335335969925e-02
2.508000000000000000e+03 2.319405364990234375e+01 2.760295867919921875e+00 6.140339374542236328e-02 5.924539640545845032e-03 2.019838057458400726e-02 2.628907375037670135e-02
2.509000000000000000e+03 2.271275901794433594e+01 2.695827960968017578e+00 6.421486288309097290e-02 1.210358086973428726e-02 2.289553359150886536e-02 3.179061412811279297e-02
2.510000000000000000e+03 2.165103340148925781e+01 1.230265378952026367e+00 4.137691482901573181e-02 8.463430218398571014e-03 1.495210360735654831e-02 4.319668933749198914e-02
2.511000000000000000e+03 2.101836776733398438e+01 1.156368136405944824e+00 3.295052051544189453e-02 2.527781948447227478e-02 1.746850274503231049e-02 4.922034591436386108e-02
2.512000000000000000e+03 1.959152603149414062e+01 -8.714351803064346313e-02 1.641601137816905975e-02 6.630564481019973755e-02 2.481649629771709442e-02 3.298835828900337219e-02
2.513000000000000000e+03 1.910376167297363281e+01 -3.396536111831665039e-01 1.886631548404693604e-02 4.639809578657150269e-02 1.957932300865650177e-02 2.458623051643371582e-02
2.514000000000000000e+03 1.737996482849121094e+01 -1.082728028297424316e+00 1.356965955346822739e-02 6.250799633562564850e-03 5.946137942373752594e-03 7.098659873008728027e-03
2.515000000000000000e+03 1.665299797058105469e+01 -1.366106986999511719e+00 1.054394990205764771e-02 -1.307246275246143341e-03 2.771011088043451309e-03 3.288160776719450951e-03
2.516000000000000000e+03 2.560299110412597656e+01 4.036937236785888672e+00 4.938698559999465942e-02 -1.458203140646219254e-02 1.044148672372102737e-02 8.264146745204925537e-03
2.517000000000000000e+03 2.556997489929199219e+01 3.676821708679199219e+00 5.565872415900230408e-02 -1.375243254005908966e-02 1.257188711315393448e-02 1.125578209757804871e-02
2.518000000000000000e+03 2.267225265502929688e+01 1.856473326683044434e+00 5.378934368491172791e-02 1.420757500454783440e-03 1.656302995979785919e-02 2.782791294157505035e-02
2.519000000000000000e+03 1.875694274902343750e+01 1.500918716192245483e-01 4.085633903741836548e-03 2.503264322876930237e-02 8.735483512282371521e-03 1.233731769025325775e-02
2.520000000000000000e+03 1.945619201660156250e+01 -1.930207461118698120e-01 1.770105026662349701e-02 6.483952701091766357e-02 2.476217225193977356e-02 3.289409354329109192e-02
2.521000000000000000e+03 2.010481643676757812e+01 1.357575654983520508e+00 2.819687686860561371e-02 3.709266707301139832e-02 1.958686299622058868e-02 3.954127058386802673e-02
2.522000000000000000e+03 1.841072654724121094e+01 5.619067698717117310e-02 5.004822160117328167e-04 1.519279927015304565e-02 4.707984626293182373e-03 5.796422716230154037e-03
2.523000000000000000e+03 2.293848037719726562e+01 3.778915882110595703e+00 1.973547697067260742e+00 5.437155961990356445e-01 7.551789879798889160e-01 1.107768058776855469e+00
2.524000000000000000e+03 2.319155120849609375e+01 4.172224521636962891e+00 1.771668195724487305e+00 2.728647887706756592e-01 6.133599281311035156e-01 7.562403082847595215e-01
2.525000000000000000e+03 2.230008888244628906e+01 2.838378667831420898e+00 7.024107873439788818e-02 2.174855954945087433e-02 2.759689092636108398e-02 3.944999352097511292e-02
2.526000000000000000e+03 2.168866348266601562e+01 2.394690036773681641e+00 6.980962306261062622e-02 2.492708899080753326e-02 2.842101268470287323e-02 4.274877160787582397e-02
2.527000000000000000e+03 1.698645019531250000e+01 5.031378865242004395e-01 -1.146088957786560059e+00 -1.959051042795181274e-01 -4.025982320308685303e-01 -7.759478092193603516e-01
2.528000000000000000e+03 1.666123962402343750e+01 9.482248425483703613e-01 4.863939762115478516e+00 7.102544307708740234e-01 1.672258377075195312e+00 1.648312449455261230e+00
2.529000000000000000e+03 1.766868972778320312e+01 5.414660573005676270e-01 -4.558951377868652344e+00 -1.940220594406127930e+00 -1.949751615524291992e+00 -2.966405868530273438e+00
2.530000000000000000e+03 2.321248054504394531e+01 5.169775009155273438e+00 -2.786719799041748047e+00 -1.206382274627685547e+00 -1.197930574417114258e+00 -1.839433550834655762e+00
2.531000000000000000e+03 2.459815216064453125e+01 6.050763130187988281e+00 -3.101477861404418945e+00 -1.862965941429138184e+00 -1.489333152770996094e+00 -2.317392587661743164e+00
2.532000000000000000e+03 2.424361228942871094e+01 5.820015430450439453e+00 -3.147445917129516602e+00 -1.707042574882507324e+00 -1.456346511840820312e+00 -2.274284839630126953e+00
2.533000000000000000e+03 2.288629722595214844e+01 4.957085609436035156e+00 -2.316086053848266602e+00 -1.067703366279602051e+00 -1.015136837959289551e+00 -1.623503923416137695e+00
2.534000000000000000e+03 2.257455825805664062e+01 4.721637248992919922e+00 -1.800988674163818359e+00 -9.612532854080200195e-01 -8.286725878715515137e-01 -1.373383998870849609e+00
2.535000000000000000e+03 1.947818183898925781e+01 2.024142265319824219e+00 -1.490237265825271606e-01 -7.666525244712829590e-01 -2.747028768062591553e-01 -6.189637184143066406e-01
2.536000000000000000e+03 1.982610702514648438e+01 2.928222179412841797e+00 7.971637248992919922e-01 3.152783215045928955e-02 2.486074715852737427e-01 3.283788859844207764e-01
2.537000000000000000e+03 2.083228874206542969e+01 2.681646585464477539e+00 1.612482219934463501e-01 -4.047867059707641602e-01 -7.306154072284698486e-02 -2.760888636112213135e-01
2.538000000000000000e+03 1.949709129333496094e+01 2.715226173400878906e+00 1.132887482643127441e+00 2.487289011478424072e-01 4.144849181175231934e-01 5.448682904243469238e-01
2.539000000000000000e+03 1.919207572937011719e+01 2.472609281539916992e+00 1.598431229591369629e+00 3.655622005462646484e-01 5.891979932785034180e-01 7.577884197235107422e-01
2.540000000000000000e+03 2.121676445007324219e+01 3.790680646896362305e+00 -6.088700890541076660e-01 -5.849646925926208496e-01 -3.581504225730895996e-01 -5.860680341720581055e-01
2.541000000000000000e+03 2.519695091247558594e+01 6.583257198333740234e+00 -3.535913944244384766e+00 -1.884843945503234863e+00 -1.626227378845214844e+00 -2.655907392501831055e+00
2.542000000000000000e+03 1.563149452209472656e+01 6.393854022026062012e-01 5.664677143096923828e+00 1.140683293342590332e+00 2.041608095169067383e+00 1.719790250062942505e-01
2.543000000000000000e+03 2.067097282409667969e+01 2.069600105285644531e+00 6.841726601123809814e-02 3.033142164349555969e-02 2.962460741400718689e-02 4.548402503132820129e-02
2.544000000000000000e+03 1.747878456115722656e+01 6.543330848217010498e-02 -1.886351406574249268e-02 -7.477934937924146652e-03 -7.902435027062892914e-03 -1.229146681725978851e-02
2.545000000000000000e+03 2.746684837341308594e+01 5.217572212219238281e+00 6.443633139133453369e-02 -2.808615192770957947e-02 1.090505439788103104e-02 1.567609235644340515e-02
2.546000000000000000e+03 2.720285987854003906e+01 7.952029705047607422e+00 -2.970065832138061523e+00 -1.924570441246032715e+00 -1.468390822410583496e+00 -2.291593313217163086e+00
2.547000000000000000e+03 2.720083045959472656e+01 7.676205158233642578e+00 -1.870339155197143555e+00 -1.212819695472717285e+00 -9.249476194381713867e-01 -1.538872599601745605e+00
2.548000000000000000e+03 2.689942932128906250e+01 7.720446586608886719e+00 -3.157883167266845703e+00 -2.015739440917968750e+00 -1.552086710929870605e+00 -2.549237728118896484e+00
2.549000000000000000e+03 2.759079551696777344e+01 7.387093544006347656e+00 6.489275693893432617e-01 2.400832772254943848e-01 2.667032778263092041e-01 2.664847075939178467e-01
2.550000000000000000e+03 2.735442161560058594e+01 8.031585693359375000e+00 -2.791044235229492188e+00 -1.397894501686096191e+00 -1.256681561470031738e+00 -2.144941091537475586e+00
2.551000000000000000e+03 2.757423591613769531e+01 7.161364555358886719e+00 1.750378251075744629e+00 7.545219659805297852e-01 7.514700889587402344e-01 1.024373650550842285e+00
2.552000000000000000e+03 1.913147354125976562e+01 1.708049178123474121e+00 -9.414628744125366211e-01 -8.848933577537536621e-01 -5.479068756103515625e-01 -1.030212402343750000e+00
2.553000000000000000e+03 1.783256149291992188e+01 6.709766387939453125e-01 -4.445822238922119141e+00 -1.864790439605712891e+00 -1.893183827400207520e+00 -2.782538414001464844e+00
2.554000000000000000e+03 2.203362846374511719e+01 3.262252807617187500e+00 1.225422859191894531e+00 2.553462982177734375e-01 4.442307353019714355e-01 5.605427622795104980e-01
2.555000000000000000e+03 2.494200134277343750e+01 5.372527599334716797e+00 2.091041803359985352e+00 5.237017869949340820e-01 7.844231128692626953e-01 1.224894762039184570e+00
2.556000000000000000e+03 2.355599021911621094e+01 4.197517395019531250e+00 2.743699312210083008e+00 8.088970184326171875e-01 1.065778851509094238e+00 1.469395637512207031e+00
2.557000000000000000e+03 1.835742568969726562e+01 9.198219180107116699e-01 -3.829651832580566406e+00 -1.485693573951721191e+00 -1.594603657722473145e+00 -2.507896900177001953e+00
2.558000000000000000e+03 1.981208992004394531e+01 1.908708810806274414e+00 -1.217381477355957031e+00 -7.520254850387573242e-01 -5.908221006393432617e-01 -1.057628393173217773e+00
2.559000000000000000e+03 1.889168930053710938e+01 1.260418415069580078e+00 -3.263012170791625977e+00 -1.231527686119079590e+00 -1.348361968994140625e+00 -2.015511512756347656e+00
2.560000000000000000e+03 2.579296684265136719e+01 5.605371475219726562e+00 4.014310836791992188e+00 1.447593808174133301e+00 1.638571381568908691e+00 2.343484640121459961e+00
2.561000000000000000e+03 2.328168487548828125e+01 4.355839252471923828e+00 1.450429201126098633e+00 -8.115164004266262054e-03 4.326942265033721924e-01 4.262129664421081543e-01
2.562000000000000000e+03 1.962993812561035156e+01 1.788683295249938965e+00 -1.594619274139404297e+00 -9.572476744651794434e-01 -7.655600905418395996e-01 -1.173600196838378906e+00
2.563000000000000000e+03 2.154427337646484375e+01 2.975977420806884766e+00 6.778126358985900879e-01 -5.120975896716117859e-02 1.879808753728866577e-01 1.975954324007034302e-01
2.564000000000000000e+03 2.562596130371093750e+01 5.488987922668457031e+00 3.937009334564208984e+00 1.321925759315490723e+00 1.577680587768554688e+00 2.383543014526367188e+00
2.565000000000000000e+03 2.240906715393066406e+01 3.824522256851196289e+00 1.003964304924011230e+00 -1.746890693902969360e-01 2.487825602293014526e-01 1.733202040195465088e-01
2.566000000000000000e+03 1.945355224609375000e+01 1.662100911140441895e+00 -1.692662954330444336e+00 -9.844681024551391602e-01 -8.031393289566040039e-01 -1.440540075302124023e+00
2.567000000000000000e+03 2.344686126708984375e+01 4.526854038238525391e+00 1.222355484962463379e+00 -1.270766854286193848e-01 3.285836577415466309e-01 2.551954090595245361e-01
2.568000000000000000e+03 2.002790832519531250e+01 2.680840253829956055e+00 5.392098426818847656e-01 -4.945771992206573486e-01 1.338978298008441925e-02 -1.826845109462738037e-01
2.569000000000000000e+03 1.999521446228027344e+01 2.037484884262084961e+00 -1.098788499832153320e+00 -7.347419261932373047e-01 -5.500591397285461426e-01 -8.554593324661254883e-01
2.570000000000000000e+03 2.472340774536132812e+01 5.524893760681152344e+00 1.054591238498687744e-01 -4.850000739097595215e-01 -1.138622835278511047e-01 -1.605940610170364380e-01
2.571000000000000000e+03 1.850706863403320312e+01 1.045880794525146484e+00 -3.488952159881591797e+00 -1.529171586036682129e+00 -1.505437135696411133e+00 -2.331176757812500000e+00
2.572000000000000000e+03 1.807388114929199219e+01 1.353222250938415527e+00 9.357523918151855469e-01 -4.612528681755065918e-01 1.423498541116714478e-01 -8.540602773427963257e-02
2.573000000000000000e+03 2.476775360107421875e+01 5.282151699066162109e+00 1.829753518104553223e+00 3.489407896995544434e-01 6.536083221435546875e-01 9.625325202941894531e-01
2.574000000000000000e+03 1.802577590942382812e+01 7.688775658607482910e-01 -4.312752246856689453e+00 -1.667104840278625488e+00 -1.793957114219665527e+00 -2.730115413665771484e+00
2.575000000000000000e+03 1.751261901855468750e+01 4.459056854248046875e-01 -4.828715324401855469e+00 -1.481286168098449707e+00 -1.893000483512878418e+00 -3.036720514297485352e+00
2.576000000000000000e+03 1.748308944702148438e+01 7.161186337471008301e-01 -1.375666141510009766e+00 -6.104661226272583008e-01 -5.958396792411804199e-01 -1.362481594085693359e+00
2.577000000000000000e+03 2.175073432922363281e+01 3.445808649063110352e+00 5.676740407943725586e-01 -3.541928529739379883e-01 6.404435634613037109e-02 -8.952977508306503296e-02
2.578000000000000000e+03 2.698365974426269531e+01 6.330865859985351562e+00 4.284834861755371094e+00 1.609432935714721680e+00 1.768280267715454102e+00 2.507320642471313477e+00
2.579000000000000000e+03 2.316289901733398438e+01 4.730809688568115234e+00 -6.071519851684570312e-01 -7.607744932174682617e-01 -4.103779494762420654e-01 -8.436748981475830078e-01
2.580000000000000000e+03 2.390306663513183594e+01 4.072781562805175781e+00 4.433734342455863953e-02 1.288538705557584763e-02 1.716681942343711853e-02 2.452823147177696228e-02
2.581000000000000000e+03 2.434104156494140625e+01 4.051373481750488281e+00 4.303115978837013245e-02 4.571359138935804367e-03 1.428075507283210754e-02 1.715476810932159424e-02
2.582000000000000000e+03 1.749348831176757812e+01 -2.773938775062561035e-01 -5.509140901267528534e-03 -2.231961116194725037e-03 -2.322330605238676071e-03 -5.317260511219501495e-03
2.583000000000000000e+03 1.681100463867187500e+01 -3.843196630477905273e-01 -1.459640543907880783e-02 -7.148941978812217712e-03 -6.523604039102792740e-03 -1.044491399079561234e-02
2.584000000000000000e+03 2.064845657348632812e+01 1.720833301544189453e+00 5.224123969674110413e-02 3.153951466083526611e-02 2.513422630727291107e-02 4.442500695586204529e-02
2.585000000000000000e+03 2.354714202880859375e+01 3.523911237716674805e+00 5.614202842116355896e-02 1.069457363337278366e-02 2.005098015069961548e-02 2.653956785798072815e-02
2.586000000000000000e+03 2.284470939636230469e+01 3.051742553710937500e+00 6.497583538293838501e-02 1.494458504021167755e-02 2.397612482309341431e-02 3.354053571820259094e-02
2.587000000000000000e+03 2.114830780029296875e+01 1.961969375610351562e+00 5.962891876697540283e-02 2.734269760549068451e-02 2.609148435294628143e-02 4.437550157308578491e-02
2.588000000000000000e+03 2.664954948425292969e+01 5.772653579711914062e+00 -4.207560047507286072e-02 -3.118679486215114594e-02 -2.197871915996074677e-02 -3.957311809062957764e-02
2.589000000000000000e+03 2.085013771057128906e+01 2.169435262680053711e+00 7.167825102806091309e-02 2.967347763478755951e-02 3.040551953017711639e-02 4.734022915363311768e-02
2.590000000000000000e+03 2.347192382812500000e+01 2.782396554946899414e+00 6.059060245752334595e-02 1.345616416074335575e-03 1.858086697757244110e-02 2.257427386939525604e-02
2.591000000000000000e+03 2.442706489562988281e+01 4.389493942260742188e+00 3.351240605115890503e-02 8.240816183388233185e-03 1.252596639096736908e-02 1.690116152167320251e-02
2.592000000000000000e+03 1.697849273681640625e+01 -2.681143581867218018e-01 -1.588989607989788055e-02 -7.791270967572927475e-03 -7.104349788278341293e-03 -1.102202571928501129e-02
2.593000000000000000e+03 1.953655624389648438e+01 1.334767699241638184e+00 1.884390041232109070e-02 1.708781532943248749e-02 1.077951490879058838e-02 2.029285766184329987e-02
2.594000000000000000e+03 1.868786430358886719e+01 5.500091910362243652e-01 -5.365406628698110580e-03 1.054733246564865112e-02 1.554577727802097797e-03 4.646295215934514999e-03
2.595000000000000000e+03 1.882062339782714844e+01 9.368521571159362793e-01 -5.086068063974380493e-03 3.888685954734683037e-03 -3.592146094888448715e-04 -1.969111617654561996e-04
2.596000000000000000e+03 2.038509559631347656e+01 1.609160423278808594e+00 4.527887701988220215e-02 3.326720744371414185e-02 2.356382645666599274e-02 4.281560704112052917e-02
2.597000000000000000e+03 2.033870124816894531e+01 1.899681448936462402e+00 5.863674730062484741e-02 2.613895758986473083e-02 2.543271146714687347e-02 4.143468290567398071e-02
2.598000000000000000e+03 1.850164413452148438e+01 7.063417434692382812e-01 -1.379326451569795609e-02 -1.018597627989947796e-03 -4.443558398634195328e-03 -5.317498929798603058e-03
2.599000000000000000e+03 2.476949882507324219e+01 4.374063491821289062e+00 3.355187177658081055e-02 8.459741366095840931e-04 1.031935401260852814e-02 1.090000104159116745e-02
2.600000000000000000e+03 2.643661117553710938e+01 5.221018314361572266e+00 1.089644711464643478e-02 -3.089500963687896729e-02 -5.999568849802017212e-03 -1.603468880057334900e-02
2.601000000000000000e+03 1.714562606811523438e+01 -1.553380340337753296e-01 -1.682751439511775970e-02 -7.539646700024604797e-03 -7.310148328542709351e-03 -1.189069915562868118e-02
2.602000000000000000e+03 2.687044715881347656e+01 5.361169338226318359e+00 2.010556496679782867e-02 -4.513086378574371338e-02 -7.507589645683765411e-03 -2.079032361507415771e-02
2.603000000000000000e+03 2.709128570556640625e+01 5.285356521606445312e+00 3.842264041304588318e-02 -4.369851574301719666e-02 -1.582762575708329678e-03 -1.004190370440483093e-02
2.604000000000000000e+03 2.118954086303710938e+01 1.274497270584106445e+00 3.799022361636161804e-02 2.441862225532531738e-02 1.872265338897705078e-02 4.843334481120109558e-02
2.605000000000000000e+03 2.019433784484863281e+01 1.759514331817626953e+00 4.976692423224449158e-02 2.644597738981246948e-02 2.286387048661708832e-02 3.803414851427078247e-02
2.606000000000000000e+03 2.018190765380859375e+01 1.064736366271972656e+00 1.773743890225887299e-02 3.991739824414253235e-02 1.729645207524299622e-02 4.262264072895050049e-02
2.607000000000000000e+03 1.935871696472167969e+01 1.216935992240905762e+00 1.195258367806673050e-02 1.512356009334325790e-02 8.122843690216541290e-03 1.556484121829271317e-02
2.608000000000000000e+03 2.539921188354492188e+01 3.561335802078247070e+00 5.532634258270263672e-02 -1.256656926125288010e-02 1.282793190330266953e-02 1.160164177417755127e-02
2.609000000000000000e+03 1.571566581726074219e+01 -1.323912382125854492e+00 1.205305918119847775e-03 -2.820600057020783424e-03 -4.845882649533450603e-04 -2.775912405923008919e-03
2.610000000000000000e+03 2.263900375366210938e+01 2.504871845245361328e+00 6.273878365755081177e-02 1.076623238623142242e-02 2.205150574445724487e-02 3.102989681065082550e-02
2.611000000000000000e+03 2.800488471984863281e+01 5.848486900329589844e+00 7.346171140670776367e-02 -3.222145140171051025e-02 1.237207744270563126e-02 2.825724706053733826e-02
2.612000000000000000e+03 1.719545364379882812e+01 -1.510667562484741211e+00 1.882110536098480225e-02 9.008948691189289093e-03 8.349016308784484863e-03 9.582531638443470001e-03
2.613000000000000000e+03 1.787138938903808594e+01 -1.097423791885375977e+00 2.090409398078918457e-02 1.922168582677841187e-02 1.203773356974124908e-02 1.352170109748840332e-02
2.614000000000000000e+03 2.079612731933593750e+01 7.050688266754150391e-01 2.181705832481384277e-02 3.569227084517478943e-02 1.725279912352561951e-02 5.913948640227317810e-02
2.615000000000000000e+03 2.169133377075195312e+01 1.558170557022094727e+00 4.882712662220001221e-02 1.295175682753324509e-02 1.853366568684577942e-02 4.073240980505943298e-02
2.616000000000000000e+03 2.729758262634277344e+01 5.097759246826171875e+00 5.933811515569686890e-02 -3.082197532057762146e-02 8.554841391742229462e-03 1.228157710283994675e-02
2.617000000000000000e+03 2.415109443664550781e+01 3.541301012039184570e+00 5.334512144327163696e-02 8.467034203931689262e-04 1.625754684209823608e-02 1.869462244212627411e-02
2.618000000000000000e+03 2.448440170288085938e+01 3.341402530670166016e+00 5.499139055609703064e-02 -5.476297810673713684e-03 1.485452800989151001e-02 1.530946325510740280e-02
2.619000000000000000e+03 1.683305740356445312e+01 -1.691916942596435547e+00 1.911130547523498535e-02 3.943879157304763794e-03 6.916555576026439667e-03 6.742687895894050598e-03
2.620000000000000000e+03 2.622740745544433594e+01 7.297908306121826172e+00 -3.727502107620239258e+00 -2.207616090774536133e+00 -1.780535459518432617e+00 -2.848950862884521484e+00
2.621000000000000000e+03 2.697657012939453125e+01 5.983730792999267578e+00 -6.903156638145446777e-02 -4.637856408953666687e-02 -3.462304174900054932e-02 -5.646916106343269348e-02
2.622000000000000000e+03 2.779113769531250000e+01 5.052097320556640625e+00 7.749737799167633057e-02 1.216158922761678696e-02 2.689769119024276733e-02 4.189128801226615906e-02
2.623000000000000000e+03 2.248469924926757812e+01 4.194937229156494141e+00 3.651129314675927162e-03 -5.599702000617980957e-01 -1.668957173824310303e-01 -4.507809877395629883e-01
2.624000000000000000e+03 2.810100364685058594e+01 6.046474933624267578e+00 7.888231426477432251e-02 -4.444045946002006531e-02 1.033255551010370255e-02 2.310075238347053528e-02
2.625000000000000000e+03 2.771772384643554688e+01 5.859869003295898438e+00 3.756823018193244934e-02 -6.620083749294281006e-02 -8.589780889451503754e-03 -1.208669319748878479e-02
2.626000000000000000e+03 2.727552604675292969e+01 5.811677932739257812e+00 -1.001491304486989975e-02 -6.541594862937927246e-02 -2.262925729155540466e-02 -4.567873850464820862e-02
2.627000000000000000e+03 1.802574157714843750e+01 -6.289025545120239258e-01 1.167300343513488770e-02 1.496841479092836380e-02 7.992425002157688141e-03 9.540657512843608856e-03
2.628000000000000000e+03 2.210570907592773438e+01 2.492837190628051758e+00 6.765114516019821167e-02 1.892283931374549866e-02 2.597219496965408325e-02 3.857523202896118164e-02
2.629000000000000000e+03 2.677413558959960938e+01 6.737572669982910156e+00 1.295112729072570801e+00 3.218081891536712646e-01 4.850762784481048584e-01 7.186074256896972656e-01
2.630000000000000000e+03 2.137590599060058594e+01 2.484710216522216797e+00 7.633541524410247803e-02 2.987765893340110779e-02 3.186392039060592651e-02 4.826893657445907593e-02
2.631000000000000000e+03 2.203787803649902344e+01 2.063200950622558594e+00 6.024549156427383423e-02 1.474262215197086334e-02 2.249643392860889435e-02 3.581738471984863281e-02
2.632000000000000000e+03 2.509796905517578125e+01 3.919186592102050781e+00 4.846026375889778137e-02 -9.048807434737682343e-03 1.182343717664480209e-02 1.048893015831708908e-02
2.633000000000000000e+03 2.195049285888671875e+01 1.871048808097839355e+00 5.514592677354812622e-02 1.335107441991567612e-02 2.054909989237785339e-02 3.699741885066032410e-02
2.634000000000000000e+03 2.650942611694335938e+01 5.975653648376464844e+00 4.326851367950439453e+00 1.569278359413146973e+00 1.768838882446289062e+00 2.625702857971191406e+00
2.635000000000000000e+03 2.526243782043457031e+01 3.778376102447509766e+00 5.164230242371559143e-02 -1.166520453989505768e-02 1.199312973767518997e-02 1.026026438921689987e-02
2.636000000000000000e+03 2.581404304504394531e+01 5.989075660705566406e+00 1.899702310562133789e+00 4.792470932006835938e-01 7.136847972869873047e-01 9.219085574150085449e-01
2.637000000000000000e+03 2.056393432617187500e+01 2.613148450851440430e+00 7.762987166643142700e-02 -5.249646306037902832e-01 -1.342004388570785522e-01 -4.101964533329010010e-01
2.638000000000000000e+03 2.220507812500000000e+01 4.010235309600830078e+00 7.709051016718149185e-03 -5.260140299797058105e-01 -1.554915010929107666e-01 -4.340482056140899658e-01
2.639000000000000000e+03 2.517549514770507812e+01 5.827631950378417969e+00 8.877835422754287720e-02 -1.438516378402709961e-01 -1.652198284864425659e-02 -9.845703840255737305e-02
2.640000000000000000e+03 2.293656158447265625e+01 4.501118659973144531e+00 -1.034083962440490723e-01 -5.741621255874633789e-01 -2.032711505889892578e-01 -5.325598120689392090e-01
2.641000000000000000e+03 2.442124557495117188e+01 5.519610404968261719e+00 -8.187668323516845703e-01 -8.894309401512145996e-01 -5.124593377113342285e-01 -8.150182962417602539e-01
2.642000000000000000e+03 2.104181480407714844e+01 3.073762416839599609e+00 3.556960225105285645e-01 -4.859449863433837891e-01 -3.907468914985656738e-02 -3.071102797985076904e-01
2.643000000000000000e+03 2.142096900939941406e+01 3.482760190963745117e+00 2.394294887781143188e-01 -5.702661871910095215e-01 -9.925101697444915771e-02 -3.795865178108215332e-01
2.644000000000000000e+03 2.412429046630859375e+01 5.373105525970458984e+00 -1.113441944122314453e+00 -9.483350515365600586e-01 -6.185331344604492188e-01 -1.005954504013061523e+00
2.645000000000000000e+03 2.116611099243164062e+01 3.312534093856811523e+00 2.256798893213272095e-01 -5.832297801971435547e-01 -1.072649657726287842e-01 -3.776040077209472656e-01
2.646000000000000000e+03 1.517877674102783203e+01 2.289497256278991699e-01 3.098933994770050049e-01 1.251408576965332031e+00 4.683905839920043945e-01 -3.181543946266174316e-01
2.647000000000000000e+03 2.783670806884765625e+01 5.383440017700195312e+00 7.590989023447036743e-02 -6.059790030121803284e-03 2.095502987504005432e-02 3.397502750158309937e-02
2.648000000000000000e+03 1.819314384460449219e+01 -5.126250386238098145e-01 1.391448639333248138e-02 1.871198974549770355e-02 9.787943214178085327e-03 1.110352855175733566e-02
2.649000000000000000e+03 2.597503852844238281e+01 5.709755897521972656e+00 4.115315914154052734e+00 1.402700781822204590e+00 1.655404925346374512e+00 2.374883413314819336e+00
2.650000000000000000e+03 1.796308708190917969e+01 1.059279084205627441e+00 -6.057040095329284668e-01 -8.424044847488403320e-01 -4.344325363636016846e-01 -1.060167551040649414e+00
2.651000000000000000e+03 2.720183753967285156e+01 6.784772396087646484e+00 2.427539348602294922e+00 8.377129435539245605e-01 9.795756936073303223e-01 1.527763843536376953e+00
2.652000000000000000e+03 1.673983955383300781e+01 5.516457557678222656e-01 -6.642180681228637695e-02 2.255751490592956543e-01 4.774600639939308167e-02 -1.331517696380615234e-01
2.653000000000000000e+03 2.389292526245117188e+01 4.802043437957763672e+00 1.378652691841125488e+00 3.266104310750961304e-02 4.233941137790679932e-01 3.752574324607849121e-01
2.654000000000000000e+03 1.610945892333984375e+01 3.070570528507232666e-01 1.779099106788635254e-01 4.122194647789001465e-01 1.770388185977935791e-01 -1.433380693197250366e-01
2.655000000000000000e+03 2.368414306640625000e+01 3.659442424774169922e+00 5.399059131741523743e-02 1.083514466881752014e-02 1.944772154092788696e-02 2.548220567405223846e-02
2.656000000000000000e+03 2.561004066467285156e+01 4.838339805603027344e+00 1.718129031360149384e-02 -1.031630579382181168e-02 2.059495542198419571e-03 -2.619924023747444153e-03
2.657000000000000000e+03 2.371541023254394531e+01 2.803117275238037109e+00 5.885180458426475525e-02 -1.212188974022865295e-03 1.729188486933708191e-02 2.028537727892398834e-02
2.658000000000000000e+03 2.558269309997558594e+01 4.275063514709472656e+00 4.268572106957435608e-02 -1.454829983413219452e-02 8.441225625574588776e-03 4.776644054800271988e-03
2.659000000000000000e+03 2.534510612487792969e+01 4.405199050903320312e+00 3.594477847218513489e-02 -9.917912073433399200e-03 7.808059919625520706e-03 4.996313713490962982e-03
2.660000000000000000e+03 2.360383987426757812e+01 3.146109819412231445e+00 5.910546705126762390e-02 4.605650436133146286e-03 1.911333575844764709e-02 2.356990054249763489e-02
2.661000000000000000e+03 2.136069869995117188e+01 1.376713991165161133e+00 4.168390482664108276e-02 1.828659139573574066e-02 1.799114979803562164e-02 4.534145444631576538e-02
2.662000000000000000e+03 1.911192321777343750e+01 8.317236304283142090e-01 -6.217464688234031200e-04 2.039444446563720703e-02 5.931809078902006149e-03 1.206598617136478424e-02
2.663000000000000000e+03 2.709817886352539062e+01 5.751211166381835938e+00 -1.387316640466451645e-02 -5.641513690352439880e-02 -2.108649164438247681e-02 -4.102063551545143127e-02
2.664000000000000000e+03 2.756222724914550781e+01 5.541855812072753906e+00 5.430777743458747864e-02 -4.771615192294120789e-02 1.977488165721297264e-03 1.992706209421157837e-03
2.665000000000000000e+03 1.706620979309082031e+01 -1.017040967941284180e+00 6.828594952821731567e-03 5.241032340563833714e-04 2.205809345468878746e-03 2.296405378729104996e-03
2.666000000000000000e+03 2.030491447448730469e+01 7.856969833374023438e-01 1.225581299513578415e-02 4.785768687725067139e-02 1.803405024111270905e-02 5.209289118647575378e-02
2.667000000000000000e+03 2.607737541198730469e+01 4.842619895935058594e+00 2.692081220448017120e-02 -2.269478514790534973e-02 1.267808140255510807e-03 -6.408804561942815781e-03
2.668000000000000000e+03 2.666492843627929688e+01 4.805519580841064453e+00 4.715998098254203796e-02 -2.793017588555812836e-02 5.768941249698400497e-03 1.660486450418829918e-03
2.669000000000000000e+03 2.630720329284667969e+01 4.768382549285888672e+00 3.777496889233589172e-02 -2.604977972805500031e-02 3.517556702718138695e-03 -2.813029568642377853e-03
2.670000000000000000e+03 2.283657073974609375e+01 1.973399281501770020e+00 5.571573600172996521e-02 2.191775478422641754e-03 1.737225428223609924e-02 2.619265019893646240e-02
2.671000000000000000e+03 2.334562683105468750e+01 2.934128522872924805e+00 6.110814586281776428e-02 6.273578386753797531e-03 2.021451666951179504e-02 2.535497769713401794e-02
2.672000000000000000e+03 1.984938049316406250e+01 5.231701135635375977e-01 5.032570101320743561e-03 5.325983464717864990e-02 1.748772151768207550e-02 4.213533550500869751e-02
2.673000000000000000e+03 2.011395072937011719e+01 7.077939510345458984e-01 7.304992992430925369e-03 4.836364835500717163e-02 1.670059189200401306e-02 4.671312123537063599e-02
2.674000000000000000e+03 1.963491249084472656e+01 7.110378742218017578e-01 3.720539622008800507e-03 4.284501820802688599e-02 1.396966725587844849e-02 3.128699958324432373e-02
2.675000000000000000e+03 1.723280715942382812e+01 -1.188942551612854004e+00 1.467509381473064423e-02 6.075369194149971008e-03 6.225138902664184570e-03 6.000659428536891937e-03
2.676000000000000000e+03 1.616164016723632812e+01 -1.410947084426879883e+00 8.187198080122470856e-03 -3.638439113274216652e-03 1.364627736620604992e-03 -5.279507604427635670e-05
2.677000000000000000e+03 2.569254302978515625e+01 4.493881225585937500e+00 3.684670105576515198e-02 -1.573474518954753876e-02 6.333587225526571274e-03 2.037240425124764442e-03
2.678000000000000000e+03 1.685601615905761719e+01 -1.279227972030639648e+00 1.146610081195831299e-02 8.277019369415938854e-04 3.688140772283077240e-03 3.687931224703788757e-03
2.679000000000000000e+03 1.799986267089843750e+01 -2.705654203891754150e-01 2.130843000486493111e-03 7.551140617579221725e-03 2.904595108702778816e-03 2.913721837103366852e-03
2.680000000000000000e+03 2.143686676025390625e+01 1.690131187438964844e+00 5.206051841378211975e-02 2.117585763335227966e-02 2.197091281414031982e-02 4.213898628950119019e-02
2.681000000000000000e+03 2.634053611755371094e+01 6.562598705291748047e+00 6.539410948753356934e-01 -1.383134126663208008e-01 1.546883136034011841e-01 2.589728534221649170e-01
2.682000000000000000e+03 2.582064056396484375e+01 6.539969921112060547e+00 -1.329844832420349121e+00 -9.513201713562011719e-01 -6.843494772911071777e-01 -1.145579218864440918e+00
2.683000000000000000e+03 2.690040969848632812e+01 7.386531829833984375e+00 -1.582222819328308105e+00 -1.067024707794189453e+00 -7.947742938995361328e-01 -1.300159335136413574e+00
2.684000000000000000e+03 2.739855003356933594e+01 6.886539459228515625e+00 2.613525390625000000e+00 9.813430309295654297e-01 1.078460454940795898e+00 1.560588240623474121e+00
2.685000000000000000e+03 2.546012306213378906e+01 6.374949455261230469e+00 -1.604475736618041992e+00 -1.078235268592834473e+00 -8.048133254051208496e-01 -1.409669041633605957e+00
2.686000000000000000e+03 2.576717567443847656e+01 6.282899379730224609e+00 -1.581716351211071014e-02 -2.573588192462921143e-01 -8.195278793573379517e-02 -2.579974234104156494e-01
2.687000000000000000e+03 2.224742889404296875e+01 2.353343725204467773e+00 6.408604234457015991e-02 1.572004891932010651e-02 2.394182607531547546e-02 3.538262471556663513e-02
2.688000000000000000e+03 1.846948242187500000e+01 3.501643538475036621e-01 -4.941992927342653275e-03 9.854840114712715149e-03 1.473854179494082928e-03 2.331590745598077774e-03
2.689000000000000000e+03 2.635047340393066406e+01 7.097494602203369141e+00 -2.285274505615234375e+00 -1.459775567054748535e+00 -1.123515009880065918e+00 -1.720454216003417969e+00
2.690000000000000000e+03 1.812079811096191406e+01 1.768802553415298462e-01 -8.107999339699745178e-03 2.740613184869289398e-03 -1.610215753316879272e-03 -2.761103212833404541e-03
2.691000000000000000e+03 2.571139526367187500e+01 6.977231502532958984e+00 -4.084283351898193359e+00 -2.162585973739624023e+00 -1.874060869216918945e+00 -2.889615297317504883e+00
2.692000000000000000e+03 2.285479354858398438e+01 4.230628013610839844e+00 6.660070419311523438e-01 -2.890922725200653076e-01 1.130744218826293945e-01 -4.195250943303108215e-02
2.693000000000000000e+03 1.606735420227050781e+01 -3.954804837703704834e-01 -3.104023933410644531e+00 -2.350516170263290405e-01 -1.001722693443298340e+00 -1.844841718673706055e+00
2.694000000000000000e+03 1.644632148742675781e+01 -1.453485488891601562e+00 1.200000569224357605e-02 -2.031179610639810562e-03 2.990647917613387108e-03 2.195410430431365967e-03
2.695000000000000000e+03 1.625562286376953125e+01 -1.167083740234375000e+00 -1.031085266731679440e-04 -5.041067954152822495e-03 -1.543252845294773579e-03 -4.878587205894291401e-04
2.696000000000000000e+03 1.906036376953125000e+01 1.955818653106689453e+00 4.870106577873229980e-01 -4.082856774330139160e-01 2.361749485135078430e-02 -2.863025963306427002e-01
2.697000000000000000e+03 1.830961990356445312e+01 -2.198664695024490356e-01 8.140103891491889954e-03 1.547542586922645569e-02 7.084658835083246231e-03 9.184861555695533752e-03
2.698000000000000000e+03 1.897157478332519531e+01 5.663049221038818359e-01 9.731153259053826332e-04 2.280517108738422394e-02 7.133485749363899231e-03 1.485005021095275879e-02
2.699000000000000000e+03 2.714145660400390625e+01 5.515115261077880859e+00 2.058147825300693512e-02 -5.104906111955642700e-02 -9.140274487435817719e-03 -2.124666422605514526e-02
2.700000000000000000e+03 2.736359596252441406e+01 5.513992786407470703e+00 3.968834131956100464e-02 -5.362142994999885559e-02 -4.179926589131355286e-03 -1.072137244045734406e-02
2.701000000000000000e+03 2.710399055480957031e+01 7.190565109252929688e+00 -1.832679100334644318e-02 -9.439835697412490845e-02 -3.381754457950592041e-02 -4.463037103414535522e-02
2.702000000000000000e+03 2.526805114746093750e+01 6.093179225921630859e+00 -8.475767970085144043e-01 -5.878381133079528809e-01 -4.306244850158691406e-01 -8.209082484245300293e-01
2.703000000000000000e+03 2.039383125305175781e+01 1.114218592643737793e+00 2.220009639859199524e-02 4.063013195991516113e-02 1.884906738996505737e-02 4.750455170869827271e-02
2.704000000000000000e+03 2.417414855957031250e+01 3.933209896087646484e+00 4.654090106487274170e-02 5.283401813358068466e-03 1.554729044437408447e-02 1.946787163615226746e-02
2.705000000000000000e+03 2.251664733886718750e+01 2.358477115631103516e+00 6.243396177887916565e-02 1.131674088537693024e-02 2.212521061301231384e-02 3.207977488636970520e-02
2.706000000000000000e+03 1.867271995544433594e+01 3.759214282035827637e-01 -4.372918512672185898e-03 1.488810777664184570e-02 3.154556732624769211e-03 7.957783527672290802e-03
2.707000000000000000e+03 1.949674224853515625e+01 9.525567889213562012e-01 8.322564885020256042e-03 3.338917717337608337e-02 1.251352299004793167e-02 2.619665116071701050e-02
2.708000000000000000e+03 1.783939170837402344e+01 -3.905213475227355957e-01 4.733549896627664566e-03 6.372648756951093674e-03 3.331859596073627472e-03 2.250830642879009247e-03
2.709000000000000000e+03 2.321898460388183594e+01 3.217948198318481445e+00 6.123602762818336487e-02 1.139615289866924286e-02 2.178965508937835693e-02 2.910938858985900879e-02
2.710000000000000000e+03 2.300796318054199219e+01 2.877877712249755859e+00 6.309758871793746948e-02 1.032262947410345078e-02 2.202606387436389923e-02 2.917505986988544464e-02
2.711000000000000000e+03 2.580160903930664062e+01 4.695583820343017578e+00 2.886022813618183136e-02 -1.656282693147659302e-02 3.689220407977700233e-03 -1.996132312342524529e-03
2.712000000000000000e+03 2.489657402038574219e+01 4.026909351348876953e+00 4.471158608794212341e-02 -5.625476129353046417e-03 1.172583270817995071e-02 1.090693660080432892e-02
2.713000000000000000e+03 1.720486450195312500e+01 -8.704810738563537598e-01 6.397005636245012283e-03 1.463880180381238461e-03 2.358265686780214310e-03 9.599844343028962612e-04
2.714000000000000000e+03 1.967807006835937500e+01 1.468261122703552246e+00 2.814511768519878387e-02 1.901200413703918457e-02 1.414713636040687561e-02 2.523429132997989655e-02
2.715000000000000000e+03 1.999178695678710938e+01 9.750122427940368652e-01 1.335179992020130157e-02 4.254699125885963440e-02 1.676963642239570618e-02 4.148501157760620117e-02
2.716000000000000000e+03 1.881453514099121094e+01 -1.145941466093063354e-01 8.021418005228042603e-03 3.082096390426158905e-02 1.165271457284688950e-02 1.572410203516483307e-02
2.717000000000000000e+03 2.476461601257324219e+01 3.816526651382446289e+00 4.937285184860229492e-02 -5.491495132446289062e-03 1.316440664231777191e-02 1.291130669414997101e-02
2.718000000000000000e+03 2.222923851013183594e+01 2.596244335174560547e+00 6.822291016578674316e-02 1.973278261721134186e-02 2.638670802116394043e-02 3.791691362857818604e-02
2.719000000000000000e+03 2.157818603515625000e+01 1.730562210083007812e+00 5.265804380178451538e-02 1.812035590410232544e-02 2.123351953923702240e-02 4.205131903290748596e-02
2.720000000000000000e+03 1.753607368469238281e+01 -9.707576036453247070e-01 1.423559524118900299e-02 8.884798735380172729e-03 6.936118472367525101e-03 7.057745009660720825e-03
2.721000000000000000e+03 1.557396507263183594e+01 -2.852958738803863525e-01 -3.629130601882934570e+00 1.063565254211425781e+00 -7.696695923805236816e-01 -6.707890629768371582e-01
2.722000000000000000e+03 1.580789661407470703e+01 -2.014942407608032227e+00 1.486545056104660034e-02 -9.477813728153705597e-04 4.175300709903240204e-03 3.067663405090570450e-03
2.723000000000000000e+03 2.779977416992187500e+01 6.011123180389404297e+00 2.488751895725727081e-02 -9.066854417324066162e-02 -1.973430812358856201e-02 -3.316885977983474731e-02
2.724000000000000000e+03 2.430105209350585938e+01 3.707533121109008789e+00 5.082212388515472412e-02 6.888426141813397408e-04 1.545329019427299500e-02 1.723021455109119415e-02
2.725000000000000000e+03 1.976152992248535156e+01 8.037325739860534668e-01 8.340882137417793274e-03 4.141560569405555725e-02 1.492694672197103500e-02 3.379533812403678894e-02
2.726000000000000000e+03 2.400750732421875000e+01 3.809019565582275391e+00 4.972621798515319824e-02 7.359200157225131989e-03 1.712562516331672668e-02 2.142827212810516357e-02
2.727000000000000000e+03 2.676595687866210938e+01 6.886943340301513672e+00 5.361281037330627441e-01 -5.029128864407539368e-02 1.457510441541671753e-01 2.703281044960021973e-01
2.728000000000000000e+03 2.651888465881347656e+01 7.204801559448242188e+00 -2.182439565658569336e+00 -1.461362361907958984e+00 -1.093140602111816406e+00 -1.653121232986450195e+00
2.729000000000000000e+03 1.628826141357421875e+01 -2.017508745193481445e+00 1.850538514554500580e-02 1.118264277465641499e-03 5.887094419449567795e-03 5.881329067051410675e-03
2.730000000000000000e+03 2.591839790344238281e+01 4.346871852874755859e+00 4.609169811010360718e-02 -1.865793764591217041e-02 8.230128325521945953e-03 4.864989314228296280e-03
2.731000000000000000e+03 1.501998519897460938e+01 -1.876763939857482910e+00 7.759483531117439270e-03 -7.276526885107159615e-04 2.109549241140484810e-03 -2.472644519002642483e-05
2.732000000000000000e+03 2.733472442626953125e+01 7.141497611999511719e+00 1.015873432159423828e+00 4.104965329170227051e-01 4.279109835624694824e-01 6.887742280960083008e-01
2.733000000000000000e+03 2.684387207031250000e+01 6.556024074554443359e+00 2.398067474365234375e+00 9.475423693656921387e-01 1.003682971000671387e+00 1.427783608436584473e+00
2.734000000000000000e+03 2.666568374633789062e+01 6.083534240722656250e+00 4.239772796630859375e+00 1.594277977943420410e+00 1.750215172767639160e+00 2.643131256103515625e+00
2.735000000000000000e+03 2.625601196289062500e+01 6.063596248626708984e+00 3.098370313644409180e+00 9.218060970306396484e-01 1.206052899360656738e+00 1.760908603668212891e+00
2.736000000000000000e+03 2.616489219665527344e+01 5.798119544982910156e+00 4.237902164459228516e+00 1.408858895301818848e+00 1.694028258323669434e+00 2.441888093948364258e+00
2.737000000000000000e+03 2.606442070007324219e+01 6.034417629241943359e+00 2.527065992355346680e+00 7.056253552436828613e-01 9.698074460029602051e-01 1.394546985626220703e+00
2.738000000000000000e+03 2.558020401000976562e+01 5.873181343078613281e+00 1.711338043212890625e+00 3.433716595172882080e-01 6.164129376411437988e-01 7.612953782081604004e-01
2.739000000000000000e+03 2.528006172180175781e+01 5.593722820281982422e+00 2.020476102828979492e+00 5.573943257331848145e-01 7.733611464500427246e-01 1.103645443916320801e+00
2.740000000000000000e+03 2.545791816711425781e+01 5.377339839935302734e+00 3.951224088668823242e+00 1.272338747978210449e+00 1.567068815231323242e+00 2.265994548797607422e+00
2.741000000000000000e+03 2.511786651611328125e+01 5.163075447082519531e+00 3.691670417785644531e+00 1.296738624572753906e+00 1.496522665023803711e+00 2.217524528503417969e+00
2.742000000000000000e+03 2.478065109252929688e+01 4.935214519500732422e+00 3.690287113189697266e+00 1.367515444755554199e+00 1.517340779304504395e+00 2.035922288894653320e+00
2.743000000000000000e+03 2.434786415100097656e+01 4.955834388732910156e+00 1.981599330902099609e+00 3.339590430259704590e-01 6.946675181388854980e-01 1.046386957168579102e+00
2.744000000000000000e+03 2.371851730346679688e+01 4.320669174194335938e+00 2.903352260589599609e+00 8.381953835487365723e-01 1.122464299201965332e+00 1.559184670448303223e+00
2.745000000000000000e+03 2.365928649902343750e+01 4.679716110229492188e+00 1.179402112960815430e+00 -1.038732454180717468e-01 3.226586580276489258e-01 2.569814324378967285e-01
2.746000000000000000e+03 2.341914558410644531e+01 4.077101707458496094e+00 2.552229881286621094e+00 7.026759982109069824e-01 9.764717817306518555e-01 1.411432266235351562e+00
2.747000000000000000e+03 2.287387466430664062e+01 3.978004455566406250e+00 1.641852736473083496e+00 9.658157080411911011e-02 5.215302705764770508e-01 6.024141311645507812e-01
2.748000000000000000e+03 2.257127761840820312e+01 3.593299865722656250e+00 1.745576500892639160e+00 4.112446308135986328e-01 6.470463275909423828e-01 8.627884387969970703e-01
2.749000000000000000e+03 2.238205909729003906e+01 3.494225025177001953e+00 1.580683350563049316e+00 2.945286631584167480e-01 5.625635981559753418e-01 7.690619230270385742e-01
2.750000000000000000e+03 2.175230789184570312e+01 3.041884422302246094e+00 8.112317323684692383e-01 6.762908399105072021e-02 2.636582553386688232e-01 3.743252456188201904e-01
2.751000000000000000e+03 2.091606521606445312e+01 2.871060132980346680e+00 3.619759380817413330e-01 -4.468842148780822754e-01 -2.547248639166355133e-02 -2.790683507919311523e-01
2.752000000000000000e+03 2.039735031127929688e+01 2.418879747390747070e+00 -1.751246601343154907e-01 -5.501201152801513672e-01 -2.175734341144561768e-01 -5.249987244606018066e-01
2.753000000000000000e+03 2.056420326232910156e+01 2.295139312744140625e+00 -5.505479574203491211e-01 -3.323673605918884277e-01 -2.648746073246002197e-01 -4.592807292938232422e-01
2.754000000000000000e+03 1.985025787353515625e+01 2.300310134887695312e+00 -1.881044730544090271e-02 -7.997653484344482422e-01 -2.455727458000183105e-01 -6.204665303230285645e-01
2.755000000000000000e+03 1.921669578552246094e+01 1.422919631004333496e+00 -2.873412847518920898e+00 -1.097081899642944336e+00 -1.191148400306701660e+00 -1.972292304039001465e+00
2.756000000000000000e+03 1.834779357910156250e+01 1.595245122909545898e+00 1.436782479286193848e+00 -2.427677661180496216e-01 3.582043945789337158e-01 2.882698178291320801e-01
2.757000000000000000e+03 1.854553031921386719e+01 1.398307919502258301e+00 -8.467444181442260742e-01 -1.047147512435913086e+00 -5.681676268577575684e-01 -1.069568395614624023e+00
2.758000000000000000e+03 1.820831489562988281e+01 8.324990868568420410e-01 -4.185171127319335938e+00 -1.699723243713378906e+00 -1.765468358993530273e+00 -2.584035873413085938e+00
2.759000000000000000e+03 1.684770965576171875e+01 3.050752580165863037e-01 -2.630580663681030273e+00 -9.047608375549316406e-01 -1.060602426528930664e+00 -1.978912472724914551e+00
2.760000000000000000e+03 1.643051910400390625e+01 4.287737011909484863e-01 4.260748624801635742e-01 1.107401326298713684e-01 1.610444933176040649e-01 -1.779423356056213379e-01
2.761000000000000000e+03 1.508499240875244141e+01 -1.196102350950241089e-01 -2.854027748107910156e+00 4.835747182369232178e-01 -7.111359238624572754e-01 8.325248211622238159e-02
2.762000000000000000e+03 1.489139747619628906e+01 -4.429558813571929932e-01 -5.197271347045898438e+00 -1.371664106845855713e-01 -1.600331306457519531e+00 5.119946599006652832e-01
2.763000000000000000e+03 1.458994865417480469e+01 1.278747320175170898e-01 -9.071578979492187500e-01 2.350121438503265381e-01 -2.016437202692031860e-01 5.898922681808471680e-01
2.764000000000000000e+03 2.798352813720703125e+01 6.378621101379394531e+00 -3.891521319746971130e-02 -1.439361274242401123e-01 -5.485540255904197693e-02 -1.011955142021179199e-01
2.765000000000000000e+03 2.744732856750488281e+01 5.919847488403320312e+00 -9.535961784422397614e-03 -8.603084832429885864e-02 -2.867004275321960449e-02 -5.414931848645210266e-02
2.766000000000000000e+03 2.681096076965332031e+01 5.881733417510986328e+00 -5.596637353301048279e-02 -3.768052533268928528e-02 -2.809406816959381104e-02 -4.651064798235893250e-02
2.767000000000000000e+03 2.695290946960449219e+01 5.657287120819091797e+00 -1.124987564980983734e-02 -4.645882174372673035e-02 -1.731260865926742554e-02 -3.556165844202041626e-02
2.768000000000000000e+03 2.680890464782714844e+01 5.554503917694091797e+00 -1.086273323744535446e-02 -4.027644172310829163e-02 -1.534175314009189606e-02 -2.984587848186492920e-02
2.769000000000000000e+03 2.595121192932128906e+01 5.348055839538574219e+00 -1.244853809475898743e-02 -1.209716405719518661e-02 -7.363710552453994751e-03 -1.346597913652658463e-02
2.770000000000000000e+03 2.624352073669433594e+01 5.168264389038085938e+00 7.607913110405206680e-03 -2.422895841300487518e-02 -4.986313637346029282e-03 -1.439472660422325134e-02
2.771000000000000000e+03 2.577732086181640625e+01 5.259509563446044922e+00 -6.536793895065784454e-03 -9.403466247022151947e-03 -4.782078322023153305e-03 -8.987332694232463837e-03
2.772000000000000000e+03 2.587140464782714844e+01 5.063723564147949219e+00 8.266297169029712677e-03 -1.409004721790552139e-02 -1.747125061228871346e-03 -8.081407286226749420e-03
2.773000000000000000e+03 2.528497123718261719e+01 4.897889137268066406e+00 1.257824990898370743e-02 -2.529248595237731934e-03 3.014700487256050110e-03 2.069101901724934578e-03
2.774000000000000000e+03 2.476001930236816406e+01 4.607118606567382812e+00 2.460221946239471436e-02 4.590719938278198242e-03 8.757881820201873779e-03 1.154996734112501144e-02
2.775000000000000000e+03 2.340548515319824219e+01 3.757633924484252930e+00 5.500222370028495789e-02 1.763415895402431488e-02 2.179091423749923706e-02 3.086327016353607178e-02
2.776000000000000000e+03 2.324150848388671875e+01 3.638243675231933594e+00 5.792693421244621277e-02 1.819952391088008881e-02 2.283793874084949493e-02 3.312069550156593323e-02
2.777000000000000000e+03 2.301863098144531250e+01 3.138655900955200195e+00 6.317240744829177856e-02 1.400346122682094574e-02 2.315275929868221283e-02 3.109270147979259491e-02
2.778000000000000000e+03 2.266702651977539062e+01 2.957285165786743164e+00 6.667313724756240845e-02 1.695313863456249237e-02 2.508788369596004486e-02 3.491590917110443115e-02
2.779000000000000000e+03 2.203386688232421875e+01 2.941110372543334961e+00 7.490947842597961426e-02 2.757940441370010376e-02 3.074666485190391541e-02 4.506933689117431641e-02
2.780000000000000000e+03 2.213482093811035156e+01 2.759301662445068359e+00 7.116387039422988892e-02 2.208072319626808167e-02 2.797337807714939117e-02 4.130614548921585083e-02
2.781000000000000000e+03 2.154034233093261719e+01 2.606009721755981445e+00 7.704459130764007568e-02 2.897839806973934174e-02 3.180689737200737000e-02 4.797679930925369263e-02
2.782000000000000000e+03 2.183447265625000000e+01 2.533674716949462891e+00 7.136317342519760132e-02 2.357116341590881348e-02 2.848030067980289459e-02 4.287891462445259094e-02
2.783000000000000000e+03 2.136129570007324219e+01 2.078829288482666016e+00 6.308930367231369019e-02 2.627384848892688751e-02 2.680894546210765839e-02 4.346424713730812073e-02
2.784000000000000000e+03 2.154104804992675781e+01 2.237478971481323242e+00 6.673483550548553467e-02 2.398276142776012421e-02 2.721527777612209320e-02 4.324353113770484924e-02
2.785000000000000000e+03 2.077692985534667969e+01 1.859538793563842773e+00 5.577019229531288147e-02 3.104914911091327667e-02 2.604580298066139221e-02 4.331415519118309021e-02
2.786000000000000000e+03 2.049374771118164062e+01 1.987400770187377930e+00 6.608815491199493408e-02 2.899739146232604980e-02 2.852566353976726532e-02 4.291963577270507812e-02
2.787000000000000000e+03 2.048386955261230469e+01 1.801054954528808594e+00 5.219552665948867798e-02 3.030916303396224976e-02 2.475140616297721863e-02 4.330289363861083984e-02
2.788000000000000000e+03 2.034474945068359375e+01 1.374484896659851074e+00 3.098408691585063934e-02 3.311125934123992920e-02 1.922860369086265564e-02 4.203189536929130554e-02
2.789000000000000000e+03 1.986848831176757812e+01 1.354785084724426270e+00 2.260283380746841431e-02 2.866577170789241791e-02 1.538058184087276459e-02 3.300536051392555237e-02
2.790000000000000000e+03 1.977758979797363281e+01 1.160026073455810547e+00 1.953568682074546814e-02 3.397985920310020447e-02 1.605466380715370178e-02 3.290307149291038513e-02
2.791000000000000000e+03 1.899002265930175781e+01 1.033178091049194336e+00 -1.113587873987853527e-03 7.159175816923379898e-03 1.813676324672996998e-03 4.842591471970081329e-03
2.792000000000000000e+03 1.865701293945312500e+01 8.324456810951232910e-01 -9.941946715116500854e-03 -8.428247383562847972e-05 -3.007868770509958267e-03 -2.601100131869316101e-03
2.793000000000000000e+03 1.796325874328613281e+01 6.934621185064315796e-02 -8.750959299504756927e-03 5.629645311273634434e-04 -2.456398447975516319e-03 -3.694493090733885765e-03
2.794000000000000000e+03 1.781099510192871094e+01 -4.681610688567161560e-02 -7.706030737608671188e-03 -3.194202727172523737e-04 -2.407635329291224480e-03 -4.455314017832279205e-03
2.795000000000000000e+03 1.731255149841308594e+01 -4.446045309305191040e-02 -1.831145957112312317e-02 -7.763864938169717789e-03 -7.822597399353981018e-03 -1.204794365912675858e-02
2.796000000000000000e+03 1.716968917846679688e+01 -5.165702104568481445e-01 -3.760218154639005661e-03 -3.313404275104403496e-03 -2.122086705639958382e-03 -5.013276357203722000e-03
2.797000000000000000e+03 1.733124160766601562e+01 -3.948403298854827881e-01 -5.380305927246809006e-03 -3.317553084343671799e-03 -2.609357703477144241e-03 -4.895174875855445862e-03
2.798000000000000000e+03 1.700969696044921875e+01 -6.479260325431823730e-01 -2.332556527107954025e-03 -4.208735655993223190e-03 -1.962387701496481895e-03 -4.083525389432907104e-03
2.799000000000000000e+03 1.667558479309082031e+01 -9.449340701103210449e-01 2.413217298453673720e-04 -3.654153319075703621e-03 -1.023849472403526306e-03 -2.355616539716720581e-03
2.800000000000000000e+03 2.749036979675292969e+01 7.732102394104003906e+00 -1.201470255851745605e+00 -6.579865813255310059e-01 -5.578370690345764160e-01 -1.046109437942504883e+00
2.801000000000000000e+03 2.737743186950683594e+01 7.516111850738525391e+00 -5.918021202087402344e-01 -3.118435740470886230e-01 -2.710937261581420898e-01 -5.703009963035583496e-01
2.802000000000000000e+03 2.775899505615234375e+01 7.781839847564697266e+00 -7.296854853630065918e-01 -1.231038719415664673e-01 -2.558368146419525146e-01 -7.306204438209533691e-01
2.803000000000000000e+03 2.767353057861328125e+01 8.236301422119140625e+00 -2.649458408355712891e+00 -1.095607161521911621e+00 -1.123519659042358398e+00 -1.886635184288024902e+00
2.804000000000000000e+03 2.705670928955078125e+01 7.836090087890625000e+00 -2.908417701721191406e+00 -1.885183334350585938e+00 -1.438080310821533203e+00 -2.408874750137329102e+00
2.805000000000000000e+03 2.657050704956054688e+01 7.504411220550537109e+00 -3.382264375686645508e+00 -2.238644838333129883e+00 -1.686272740364074707e+00 -2.696567773818969727e+00
2.806000000000000000e+03 2.671600341796875000e+01 7.279695510864257812e+00 -1.786044836044311523e+00 -1.180803775787353516e+00 -8.900545835494995117e-01 -1.332702279090881348e+00
2.807000000000000000e+03 2.589096641540527344e+01 7.078425884246826172e+00 -3.985344409942626953e+00 -2.199014425277709961e+00 -1.855307579040527344e+00 -2.942789316177368164e+00
2.808000000000000000e+03 2.600694847106933594e+01 6.826173305511474609e+00 -2.150718212127685547e+00 -1.393580198287963867e+00 -1.063289523124694824e+00 -1.653442263603210449e+00
2.809000000000000000e+03 2.562108039855957031e+01 6.621604919433593750e+00 -2.323669433593750000e+00 -1.447591900825500488e+00 -1.131378412246704102e+00 -1.891136646270751953e+00
2.810000000000000000e+03 2.579959106445312500e+01 6.754337787628173828e+00 -2.489366531372070312e+00 -1.561743736267089844e+00 -1.215333104133605957e+00 -1.849774122238159180e+00
2.811000000000000000e+03 2.861095428466796875e+01 8.252856254577636719e+00 -1.110778689384460449e+00 7.567176818847656250e-01 -1.062182858586311340e-01 -2.435289472341537476e-01
2.812000000000000000e+03 2.853674888610839844e+01 8.360008239746093750e+00 -1.269406437873840332e+00 9.218155145645141602e-01 -1.042772755026817322e-01 -3.452216386795043945e-01
2.813000000000000000e+03 2.883415985107421875e+01 8.333746910095214844e+00 -8.100364804267883301e-01 8.672562241554260254e-01 1.716592349112033844e-02 7.358762025833129883e-01
2.814000000000000000e+03 2.870514488220214844e+01 8.375977516174316406e+00 -1.335750699043273926e+00 2.762909531593322754e-01 -3.178379237651824951e-01 -2.502282857894897461e-01
2.815000000000000000e+03 1.971903610229492188e+01 2.516002416610717773e+00 8.766232132911682129e-01 -3.595595657825469971e-01 1.551190912723541260e-01 2.338568493723869324e-02
2.816000000000000000e+03 2.373731422424316406e+01 5.086797237396240234e+00 -7.419598102569580078e-01 -7.944752573966979980e-01 -4.609305262565612793e-01 -8.526479005813598633e-01
2.817000000000000000e+03 2.900718116760253906e+01 8.279201507568359375e+00 -7.779613137245178223e-01 1.074544072151184082e+00 8.897481858730316162e-02 5.113440155982971191e-01
2.818000000000000000e+03 2.995883560180664062e+01 7.631362438201904297e+00 8.516235947608947754e-01 -4.037118703126907349e-02 2.433757185935974121e-01 3.575640320777893066e-01
2.819000000000000000e+03 2.986109924316406250e+01 7.173797130584716797e+00 1.058172345161437988e+00 1.038007624447345734e-02 3.205657005310058594e-01 -1.236852724105119705e-02
2.820000000000000000e+03 2.977012825012207031e+01 7.303269386291503906e+00 1.337854981422424316e+00 1.132613327354192734e-02 4.047543108463287354e-01 5.121118202805519104e-02
2.821000000000000000e+03 1.753824615478515625e+01 -1.313276886940002441e+00 2.063451148569583893e-02 1.364880707114934921e-02 1.028499566018581390e-02 1.091138832271099091e-02
2.822000000000000000e+03 1.770430946350097656e+01 -1.205825805664062500e+00 1.939212903380393982e-02 1.448311097919940948e-02 1.016257237643003464e-02 1.283762045204639435e-02
2.823000000000000000e+03 1.803942489624023438e+01 -9.887551069259643555e-01 2.121788822114467621e-02 2.130638249218463898e-02 1.275728177279233932e-02 1.611057668924331665e-02
2.824000000000000000e+03 1.769699668884277344e+01 -8.576623797416687012e-01 1.348873786628246307e-02 9.409924969077110291e-03 6.869598757475614548e-03 8.139933459460735321e-03
2.825000000000000000e+03 1.871887207031250000e+01 -5.354961752891540527e-01 1.872675679624080658e-02 3.455540537834167480e-02 1.598464883863925934e-02 1.939098909497261047e-02
2.826000000000000000e+03 1.851503944396972656e+01 -2.948162555694580078e-01 1.167633011937141418e-02 2.645293623208999634e-02 1.143878046423196793e-02 1.359845604747533798e-02
2.827000000000000000e+03 1.856393241882324219e+01 1.237389743328094482e-01 2.813902683556079865e-04 1.814034394919872284e-02 5.526519846171140671e-03 9.603578597307205200e-03
2.828000000000000000e+03 1.924990653991699219e+01 -5.019795522093772888e-02 1.206099800765514374e-02 4.692028462886810303e-02 1.769438572227954865e-02 2.455943822860717773e-02
2.829000000000000000e+03 1.943012428283691406e+01 -4.136993363499641418e-02 1.319035422056913376e-02 6.156897172331809998e-02 2.242779731750488281e-02 3.019063174724578857e-02
2.830000000000000000e+03 1.920506477355957031e+01 2.889018356800079346e-01 5.377592984586954117e-03 4.155345633625984192e-02 1.407931465655565262e-02 2.178543806076049805e-02
2.831000000000000000e+03 1.935403060913085938e+01 1.091038063168525696e-01 7.799151353538036346e-03 5.110560357570648193e-02 1.767142675817012787e-02 2.744163386523723602e-02
2.832000000000000000e+03 1.970587158203125000e+01 3.779152035713195801e-01 3.430353943258523941e-03 5.662628635764122009e-02 1.801699213683605194e-02 3.748178109526634216e-02
2.833000000000000000e+03 2.085043907165527344e+01 1.039960861206054688e+00 2.842206880450248718e-02 3.345005959272384644e-02 1.856163889169692993e-02 5.345745384693145752e-02
2.834000000000000000e+03 2.049315261840820312e+01 8.613141179084777832e-01 1.832007430493831635e-02 4.196619242429733276e-02 1.808588020503520966e-02 5.258697643876075745e-02
2.835000000000000000e+03 2.152845191955566406e+01 1.460379362106323242e+00 4.540157318115234375e-02 1.822840794920921326e-02 1.908899471163749695e-02 4.219235852360725403e-02
2.836000000000000000e+03 2.228789710998535156e+01 2.100796222686767578e+00 6.022816523909568787e-02 1.166305691003799438e-02 2.156736701726913452e-02 3.339235484600067139e-02
2.837000000000000000e+03 2.268266296386718750e+01 2.183539867401123047e+00 5.833308026194572449e-02 5.290172062814235687e-03 1.908697560429573059e-02 2.869483083486557007e-02
2.838000000000000000e+03 2.282362365722656250e+01 2.349183797836303711e+00 6.069874390959739685e-02 6.175895687192678452e-03 2.006239257752895355e-02 2.808118239045143127e-02
2.839000000000000000e+03 2.291903305053710938e+01 2.602031946182250977e+00 6.187278404831886292e-02 7.933913730084896088e-03 2.094200998544692993e-02 2.844801172614097595e-02
2.840000000000000000e+03 2.312372589111328125e+01 2.517670631408691406e+00 6.047149375081062317e-02 3.699212800711393356e-03 1.925121247768402100e-02 2.571601048111915588e-02
2.841000000000000000e+03 2.329864883422851562e+01 2.554312467575073242e+00 5.939353629946708679e-02 2.029629889875650406e-03 1.842695102095603943e-02 2.343870885670185089e-02
2.842000000000000000e+03 2.370875740051269531e+01 2.486496210098266602e+00 5.722505599260330200e-02 -3.575022798031568527e-03 1.609501056373119354e-02 1.971375383436679840e-02
2.843000000000000000e+03 2.360039710998535156e+01 2.670200109481811523e+00 5.899119377136230469e-02 -1.955024927156046033e-04 1.763870753347873688e-02 2.121170982718467712e-02
2.844000000000000000e+03 2.383144950866699219e+01 2.970955133438110352e+00 5.846931412816047668e-02 -3.995143051724880934e-04 1.742094010114669800e-02 2.006839215755462646e-02
2.845000000000000000e+03 2.428691291809082031e+01 3.261617898941040039e+00 5.639019981026649475e-02 -3.540270961821079254e-03 1.585497893393039703e-02 1.692520081996917725e-02
2.846000000000000000e+03 2.491758537292480469e+01 3.217509746551513672e+00 5.665964633226394653e-02 -9.567989036440849304e-03 1.412749756127595901e-02 1.356847397983074188e-02
2.847000000000000000e+03 2.506211090087890625e+01 3.325509548187255859e+00 5.608340352773666382e-02 -1.065636053681373596e-02 1.362811308354139328e-02 1.290429383516311646e-02
2.848000000000000000e+03 2.508978843688964844e+01 3.686359405517578125e+00 5.234006047248840332e-02 -9.946950711309909821e-03 1.271793339401483536e-02 1.145298406481742859e-02
2.849000000000000000e+03 2.592293930053710938e+01 3.904886245727539062e+00 5.504131689667701721e-02 -1.585409976541996002e-02 1.175616495311260223e-02 1.068491302430629730e-02
2.850000000000000000e+03 2.642688369750976562e+01 4.173763751983642578e+00 5.757570639252662659e-02 -1.709700562059879303e-02 1.214361004531383514e-02 1.220262143760919571e-02
2.851000000000000000e+03 2.612514495849609375e+01 4.211234092712402344e+00 5.235842615365982056e-02 -1.832256838679313660e-02 1.021075807511806488e-02 7.960611954331398010e-03
2.852000000000000000e+03 2.628206062316894531e+01 4.349055767059326172e+00 5.139710754156112671e-02 -2.005927823483943939e-02 9.401348419487476349e-03 7.968368940055370331e-03
2.853000000000000000e+03 2.674450492858886719e+01 4.412423610687255859e+00 5.923267826437950134e-02 -1.800721697509288788e-02 1.236763782799243927e-02 1.372663211077451706e-02
2.854000000000000000e+03 2.653885078430175781e+01 4.620157718658447266e+00 5.038026347756385803e-02 -2.423111721873283386e-02 7.844744250178337097e-03 5.678761284798383713e-03
2.855000000000000000e+03 2.699238395690917969e+01 4.901086807250976562e+00 5.223927274346351624e-02 -2.702220529317855835e-02 7.565120700746774673e-03 7.359365466982126236e-03
2.856000000000000000e+03 2.765724372863769531e+01 5.295273303985595703e+00 6.910271942615509033e-02 -2.143653295934200287e-02 1.429985649883747101e-02 2.511228248476982117e-02
2.857000000000000000e+03 2.831085968017578125e+01 5.369943618774414062e+00 8.385903388261795044e-02 1.011260375380516052e-01 5.549551919102668762e-02 7.219209522008895874e-02
2.858000000000000000e+03 2.837192344665527344e+01 5.715072154998779297e+00 9.306729584932327271e-02 1.008981764316558838e-01 5.818964168429374695e-02 7.880534231662750244e-02
2.859000000000000000e+03 2.900979804992675781e+01 5.785435676574707031e+00 8.899702131748199463e-02 3.893158137798309326e-01 1.434938460588455200e-01 2.594779478386044502e-03
2.860000000000000000e+03 2.888737106323242188e+01 5.938385963439941406e+00 9.341507405042648315e-02 3.903669714927673340e-01 1.451346129179000854e-01 2.353980951011180878e-02
2.861000000000000000e+03 2.932737922668457031e+01 6.294694900512695312e+00 3.080478608608245850e-01 5.549244284629821777e-01 2.588917016983032227e-01 -2.670084238052368164e-01
2.862000000000000000e+03 2.987050247192382812e+01 6.886860370635986328e+00 9.457390904426574707e-01 1.383762508630752563e-01 3.252345919609069824e-01 -1.889435499906539917e-01
2.863000000000000000e+03 2.857546615600585938e+01 5.763775825500488281e+00 8.861611783504486084e-02 1.996260881423950195e-01 8.647266030311584473e-02 8.023829758167266846e-02
2.864000000000000000e+03 2.832865715026855469e+01 5.965070724487304688e+00 9.556747227907180786e-02 5.959868058562278748e-02 4.654984548687934875e-02 7.172855734825134277e-02
2.865000000000000000e+03 1.585226917266845703e+01 -1.314679533243179321e-01 -3.585204601287841797e+00 1.224779129028320312e+00 -7.081276774406433105e-01 -1.068965315818786621e+00
2.866000000000000000e+03 2.700904464721679688e+01 6.986386775970458984e+00 5.970611572265625000e-01 1.951478868722915649e-01 2.376627177000045776e-01 3.786484897136688232e-01
2.867000000000000000e+03 1.915440750122070312e+01 1.539692163467407227e+00 -1.749138712882995605e+00 -1.081791043281555176e+00 -8.492789268493652344e-01 -1.555522799491882324e+00
2.868000000000000000e+03 1.895336532592773438e+01 1.434279918670654297e+00 -2.092769145965576172e+00 -1.270715951919555664e+00 -1.009045481681823730e+00 -1.796247124671936035e+00
2.869000000000000000e+03 1.832626342773437500e+01 1.212554574012756348e+00 -1.605013847351074219e+00 -1.150017380714416504e+00 -8.265093564987182617e-01 -1.392361521720886230e+00
2.870000000000000000e+03 1.881803703308105469e+01 1.581102371215820312e+00 -5.509383082389831543e-01 -8.122415542602539062e-01 -4.089539647102355957e-01 -9.359128475189208984e-01
2.871000000000000000e+03 1.720338821411132812e+01 7.016548514366149902e-01 -6.196872591972351074e-01 -3.177410960197448730e-01 -2.812285125255584717e-01 -6.774473786354064941e-01
2.872000000000000000e+03 1.766154289245605469e+01 9.660823345184326172e-01 -3.023682534694671631e-01 -7.526209354400634766e-01 -3.164967596530914307e-01 -7.629738450050354004e-01
2.873000000000000000e+03 2.660479927062988281e+01 6.350921630859375000e+00 2.694970846176147461e+00 8.105273246765136719e-01 1.051649451255798340e+00 1.623141646385192871e+00
2.874000000000000000e+03 2.639602661132812500e+01 6.356693744659423828e+00 1.832320928573608398e+00 3.747147023677825928e-01 6.621106863021850586e-01 1.029784083366394043e+00
2.875000000000000000e+03 2.637787246704101562e+01 6.789946079254150391e+00 -5.800068974494934082e-01 -5.954650044441223145e-01 -3.526415824890136719e-01 -5.571910142898559570e-01
2.876000000000000000e+03 2.639554023742675781e+01 6.124566555023193359e+00 3.409393548965454102e+00 1.015306591987609863e+00 1.327410101890563965e+00 1.992584705352783203e+00
2.877000000000000000e+03 2.626122474670410156e+01 6.240300655364990234e+00 2.136079788208007812e+00 4.902029931545257568e-01 7.878848314285278320e-01 1.141629695892333984e+00
2.878000000000000000e+03 2.605123901367187500e+01 6.284544944763183594e+00 1.354623794555664062e+00 1.349881738424301147e-01 4.468835890293121338e-01 5.761608481407165527e-01
2.879000000000000000e+03 2.451865959167480469e+01 5.238244056701660156e+00 1.427102923393249512e+00 1.122304722666740417e-01 4.618000388145446777e-01 5.764478445053100586e-01
2.880000000000000000e+03 2.402710723876953125e+01 5.146443367004394531e+00 -2.147078365087509155e-01 -6.951714158058166504e-01 -2.729637920856475830e-01 -4.677001237869262695e-01
2.881000000000000000e+03 2.145628166198730469e+01 3.227499723434448242e+00 6.036701798439025879e-01 -2.506562173366546631e-01 1.059041991829872131e-01 -2.916281856596469879e-02
2.882000000000000000e+03 2.426770591735839844e+01 5.176071166992187500e+00 9.153273701667785645e-01 -3.075973093509674072e-01 1.823190152645111084e-01 1.199616119265556335e-01
2.883000000000000000e+03 2.872770690917968750e+01 5.972564697265625000e+00 9.110455960035324097e-02 3.188811242580413818e-01 1.229957044124603271e-01 6.650412827730178833e-02
2.884000000000000000e+03 2.875193977355957031e+01 5.821742534637451172e+00 8.788770437240600586e-02 2.868427336215972900e-01 1.124191284179687500e-01 6.287878006696701050e-02
2.885000000000000000e+03 2.641004180908203125e+01 4.976247310638427734e+00 2.869221568107604980e-02 -2.991581521928310394e-02 -3.670798323582857847e-04 -8.957636542618274689e-03
2.886000000000000000e+03 2.677645301818847656e+01 4.986546516418457031e+00 4.197914525866508484e-02 -3.226873278617858887e-02 2.913124160841107368e-03 -3.865787875838577747e-04
2.887000000000000000e+03 2.664482498168945312e+01 5.213761329650878906e+00 1.737205311655998230e-02 -3.392718359827995300e-02 -4.966538865119218826e-03 -1.755044236779212952e-02
2.888000000000000000e+03 2.723494148254394531e+01 7.353139877319335938e+00 -4.113671481609344482e-01 -3.687080144882202148e-01 -2.340225577354431152e-01 -4.411535263061523438e-01
2.889000000000000000e+03 2.647268295288085938e+01 6.952697277069091797e+00 -1.168729901313781738e+00 -9.423775076866149902e-01 -6.333321928977966309e-01 -9.476457834243774414e-01
2.890000000000000000e+03 2.488064193725585938e+01 5.748773574829101562e+00 -2.559015154838562012e-01 -5.002574324607849121e-01 -2.268476933240890503e-01 -4.351602792739868164e-01
2.891000000000000000e+03 2.606977462768554688e+01 6.554043769836425781e+00 -4.074093997478485107e-01 -4.874143600463867188e-01 -2.684471309185028076e-01 -3.760818243026733398e-01
2.892000000000000000e+03 1.970203399658203125e+01 9.767117500305175781e-01 7.410945370793342590e-03 3.435007110238075256e-02 1.252830401062965393e-02 3.320558369159698486e-02
2.893000000000000000e+03 2.451392555236816406e+01 4.150055408477783203e+00 3.975064679980278015e-02 2.639628015458583832e-03 1.271708309650421143e-02 1.452166587114334106e-02
2.894000000000000000e+03 2.222106933593750000e+01 1.953441381454467773e+00 5.653238669037818909e-02 1.052808575332164764e-02 2.011814154684543610e-02 3.331159800291061401e-02
2.895000000000000000e+03 2.499477386474609375e+01 4.285282135009765625e+00 3.747176378965377808e-02 -5.083863157778978348e-03 9.716370142996311188e-03 8.413286879658699036e-03
2.896000000000000000e+03 2.772571945190429688e+01 5.587497234344482422e+00 6.653051823377609253e-02 -3.677790611982345581e-02 8.925784379243850708e-03 1.553105376660823822e-02
2.897000000000000000e+03 2.786710739135742188e+01 5.700411319732666016e+00 6.951357424259185791e-02 -3.147784247994422913e-02 1.141071971505880356e-02 2.039931155741214752e-02
2.898000000000000000e+03 2.761308097839355469e+01 6.036466598510742188e+00 -4.682711791247129440e-03 -1.016135886311531067e-01 -3.188889101147651672e-02 -6.040706112980842590e-02
2.899000000000000000e+03 2.683716011047363281e+01 5.168988704681396484e+00 3.467974439263343811e-02 -4.061143845319747925e-02 -1.779508078470826149e-03 -1.151506975293159485e-02
2.900000000000000000e+03 2.701836776733398438e+01 5.092906475067138672e+00 4.496794193983078003e-02 -3.436432778835296631e-02 3.181084757670760155e-03 -3.309006569907069206e-04
2.901000000000000000e+03 2.715846061706542969e+01 4.960176944732666016e+00 5.633365735411643982e-02 -2.535971067845821381e-02 9.292183443903923035e-03 1.079593878239393234e-02
2.902000000000000000e+03 2.239185333251953125e+01 1.953694581985473633e+00 5.562784895300865173e-02 6.745385937392711639e-03 1.871197111904621124e-02 3.086572326719760895e-02
2.903000000000000000e+03 2.253596496582031250e+01 2.679699420928955078e+00 6.626047939062118530e-02 1.596778444945812225e-02 2.466847933828830719e-02 3.475640341639518738e-02
2.904000000000000000e+03 2.059241485595703125e+01 1.542418837547302246e+00 3.896498307585716248e-02 3.171598166227340698e-02 2.120428904891014099e-02 4.458577930927276611e-02
2.905000000000000000e+03 1.705965614318847656e+01 -1.238278031349182129e+00 1.298458129167556763e-02 2.106274710968136787e-03 4.527256824076175690e-03 4.317905288189649582e-03
2.906000000000000000e+03 1.735778236389160156e+01 -7.449176907539367676e-01 5.225469358265399933e-03 1.421218970790505409e-03 1.994006568565964699e-03 1.413690741173923016e-03
2.907000000000000000e+03 1.751641082763671875e+01 -6.253772377967834473e-01 5.326197482645511627e-03 3.446877934038639069e-03 2.631922485306859016e-03 1.053698128089308739e-03
2.908000000000000000e+03 1.767763137817382812e+01 -5.077363848686218262e-01 3.695946186780929565e-03 4.275228362530469894e-03 2.391352318227291107e-03 2.180276671424508095e-03
2.909000000000000000e+03 1.858691024780273438e+01 -9.391445666551589966e-02 8.127215318381786346e-03 2.426377870142459869e-02 9.717298671603202820e-03 1.292448118329048157e-02
2.910000000000000000e+03 1.897811508178710938e+01 2.083240002393722534e-01 2.394671784713864326e-03 3.198301792144775391e-02 1.031330693513154984e-02 1.687082089483737946e-02
2.911000000000000000e+03 1.828685569763183594e+01 2.713023126125335693e-01 -7.904591970145702362e-03 3.292774781584739685e-03 -1.383545110002160072e-03 -9.252827148884534836e-04
2.912000000000000000e+03 2.410520935058593750e+01 3.153629302978515625e+00 5.689836665987968445e-02 -2.784229349344968796e-03 1.623424142599105835e-02 1.785389706492424011e-02
2.913000000000000000e+03 2.391318130493164062e+01 3.180729627609252930e+00 5.768253281712532043e-02 4.858141182921826839e-04 1.745050400495529175e-02 2.030454762279987335e-02
2.914000000000000000e+03 2.399816131591796875e+01 3.385308742523193359e+00 5.592560768127441406e-02 1.947683515027165413e-03 1.736198738217353821e-02 2.024235017597675323e-02
2.915000000000000000e+03 2.488282585144042969e+01 3.632354021072387695e+00 5.246764421463012695e-02 -8.124837651848793030e-03 1.330284215509891510e-02 1.258018705993890762e-02
2.916000000000000000e+03 2.444554328918457031e+01 3.841858625411987305e+00 4.759117588400840759e-02 -6.417185650207102299e-04 1.408483646810054779e-02 1.528336945921182632e-02
2.917000000000000000e+03 2.601859092712402344e+01 4.594632148742675781e+00 3.982607647776603699e-02 -2.127146720886230469e-02 5.566383246332406998e-03 4.372837138362228870e-04
2.918000000000000000e+03 2.623686027526855469e+01 4.541726589202880859e+00 4.519883543252944946e-02 -2.203792706131935120e-02 6.948272231966257095e-03 3.330118488520383835e-03
2.919000000000000000e+03 1.928930854797363281e+01 8.976932168006896973e-01 2.417787909507751465e-03 2.340865507721900940e-02 7.747932802885770798e-03 1.934317685663700104e-02
2.920000000000000000e+03 1.927956962585449219e+01 6.948968768119812012e-01 4.600713029503822327e-03 3.075592964887619019e-02 1.060699298977851868e-02 2.195842936635017395e-02
2.921000000000000000e+03 1.991943740844726562e+01 6.985806822776794434e-01 9.126976132392883301e-03 5.290067195892333984e-02 1.860829442739486694e-02 4.017259553074836731e-02
2.922000000000000000e+03 2.460322952270507812e+01 3.955327272415161133e+00 4.619951546192169189e-02 -1.638556248508393764e-03 1.336828712373971939e-02 1.401006337255239487e-02
2.923000000000000000e+03 2.382778739929199219e+01 3.521178722381591797e+00 5.458640679717063904e-02 5.604855716228485107e-03 1.805737800896167755e-02 2.201414108276367188e-02
2.924000000000000000e+03 2.198137664794921875e+01 2.655979156494140625e+00 7.198903709650039673e-02 2.408621646463871002e-02 2.882257662713527679e-02 4.198112711310386658e-02
2.925000000000000000e+03 2.185815811157226562e+01 2.212323427200317383e+00 6.378349661827087402e-02 1.914109848439693451e-02 2.487737871706485748e-02 3.957541659474372864e-02
2.926000000000000000e+03 2.198051834106445312e+01 2.364504098892211914e+00 6.661387532949447632e-02 1.998669467866420746e-02 2.598017081618309021e-02 3.879639133810997009e-02
2.927000000000000000e+03 2.148756027221679688e+01 1.866619586944580078e+00 5.518815666437149048e-02 2.114064618945121765e-02 2.289864048361778259e-02 4.150960966944694519e-02
2.928000000000000000e+03 2.106024551391601562e+01 1.529556989669799805e+00 4.404040798544883728e-02 2.629537507891654968e-02 2.110073529183864594e-02 4.553906247019767761e-02
2.929000000000000000e+03 2.125181007385253906e+01 1.653330326080322266e+00 4.944480955600738525e-02 2.529764920473098755e-02 2.242273837327957153e-02 4.441536962985992432e-02
2.930000000000000000e+03 2.094637107849121094e+01 1.918027877807617188e+00 5.832507461309432983e-02 2.917772904038429260e-02 2.625084109604358673e-02 4.486962035298347473e-02
2.931000000000000000e+03 2.076650810241699219e+01 1.574730277061462402e+00 4.118339344859123230e-02 3.217267617583274841e-02 2.200682088732719421e-02 4.469899833202362061e-02
2.932000000000000000e+03 2.587970352172851562e+01 4.881956577301025391e+00 1.907187700271606445e-02 -1.669444516301155090e-02 7.132294704206287861e-04 -6.319674663245677948e-03
2.933000000000000000e+03 1.765451049804687500e+01 -1.619453579187393188e-01 -7.448667194694280624e-03 -1.625159522518515587e-03 -2.722148085013031960e-03 -4.837178625166416168e-03
2.934000000000000000e+03 1.812890052795410156e+01 -1.340038925409317017e-01 1.148134935647249222e-03 9.135331958532333374e-03 3.085040021687746048e-03 3.016244852915406227e-03
2.935000000000000000e+03 1.826277923583984375e+01 -2.977999858558177948e-02 -8.537088870070874691e-04 9.398180991411209106e-03 2.563341753557324409e-03 4.312686156481504440e-03
2.936000000000000000e+03 1.880193901062011719e+01 6.758607029914855957e-01 -7.972182705998420715e-03 1.155483722686767578e-02 1.074796426109969616e-03 4.110926762223243713e-03
2.937000000000000000e+03 1.894854354858398438e+01 7.549192905426025391e-01 -4.386509303003549576e-03 1.542370393872261047e-02 3.311158157885074615e-03 8.970293216407299042e-03
2.938000000000000000e+03 2.678519821166992188e+01 7.062376022338867188e+00 -6.414977908134460449e-01 -5.777997970581054688e-01 -3.657892942428588867e-01 -5.379799604415893555e-01
2.939000000000000000e+03 2.690731239318847656e+01 6.818960189819335938e+00 1.214430570602416992e+00 4.948187172412872314e-01 5.127748250961303711e-01 7.341871261596679688e-01
2.940000000000000000e+03 2.660069084167480469e+01 7.038652420043945312e+00 -1.193194627761840820e+00 -9.099496603012084961e-01 -6.309432387351989746e-01 -9.151812791824340820e-01
2.941000000000000000e+03 2.659112930297851562e+01 6.734062194824218750e+00 8.437687158584594727e-01 2.444540336728096008e-02 2.604642510414123535e-01 4.158254861831665039e-01
2.942000000000000000e+03 2.661147308349609375e+01 6.894548892974853516e+00 -3.299344778060913086e-01 -4.486715793609619141e-01 -2.335818111896514893e-01 -3.271368145942687988e-01
2.943000000000000000e+03 2.073003196716308594e+01 1.245025277137756348e+00 3.184624016284942627e-02 3.097869455814361572e-02 1.884748041629791260e-02 4.749948158860206604e-02
2.944000000000000000e+03 2.058207511901855469e+01 1.154570817947387695e+00 2.669087611138820648e-02 3.705045953392982483e-02 1.912240125238895416e-02 4.949106276035308838e-02
2.945000000000000000e+03 2.174007797241210938e+01 2.035988092422485352e+00 6.082801893353462219e-02 2.007551677525043488e-02 2.427105978131294250e-02 3.925642743706703186e-02
2.946000000000000000e+03 1.986181449890136719e+01 8.778309226036071777e-01 7.665285374969244003e-03 4.535457119345664978e-02 1.590595766901969910e-02 3.954552114009857178e-02
2.947000000000000000e+03 1.949866867065429688e+01 5.670157074928283691e-01 2.276359358802437782e-03 4.495757445693016052e-02 1.417018007487058640e-02 2.901968173682689667e-02
2.948000000000000000e+03 1.954581260681152344e+01 2.329013496637344360e-01 7.238292135298252106e-03 5.578019097447395325e-02 1.890554465353488922e-02 3.022534772753715515e-02
2.949000000000000000e+03 2.056551742553710938e+01 1.350121736526489258e+00 3.360034897923469543e-02 3.813801705837249756e-02 2.152151055634021759e-02 4.743874445557594299e-02
2.950000000000000000e+03 2.213665390014648438e+01 2.220813751220703125e+00 6.190462782979011536e-02 1.485821511596441269e-02 2.302885241806507111e-02 3.561927005648612976e-02
2.951000000000000000e+03 2.759283638000488281e+01 5.736433982849121094e+00 4.115810245275497437e-02 -6.040919199585914612e-02 -5.775325931608676910e-03 -9.357387199997901917e-03
2.952000000000000000e+03 1.647349929809570312e+01 -1.049277424812316895e+00 -9.050103108165785670e-05 -3.759414190426468849e-03 -1.154974568635225296e-03 -2.118155593052506447e-03
2.953000000000000000e+03 2.371811103820800781e+01 3.334536314010620117e+00 5.754911154508590698e-02 5.152437370270490646e-03 1.881046406924724579e-02 2.295184321701526642e-02
2.954000000000000000e+03 1.918312644958496094e+01 5.033789277076721191e-01 -1.224659616127610207e-03 3.375846520066261292e-02 9.760141372680664062e-03 1.928842440247535706e-02
2.955000000000000000e+03 2.467941284179687500e+01 3.614620447158813477e+00 5.235808342695236206e-02 -5.662656389176845551e-03 1.400862820446491241e-02 1.413256581872701645e-02
2.956000000000000000e+03 1.937634086608886719e+01 4.028036594390869141e-01 3.404004266485571861e-03 4.516320303082466125e-02 1.457016170024871826e-02 2.770758792757987976e-02
2.957000000000000000e+03 1.885597801208496094e+01 4.195890128612518311e-01 -1.183922358904965222e-04 2.401330135762691498e-02 7.168472744524478912e-03 1.313776802271604538e-02
2.958000000000000000e+03 2.240024375915527344e+01 2.218441963195800781e+00 6.044301018118858337e-02 1.047732774168252945e-02 2.127610146999359131e-02 3.224263712763786316e-02
2.959000000000000000e+03 2.447861862182617188e+01 3.615789175033569336e+00 5.288074538111686707e-02 -3.266229061409831047e-03 1.488435547798871994e-02 1.584752276539802551e-02
2.960000000000000000e+03 2.235301589965820312e+01 2.481110811233520508e+00 6.509606540203094482e-02 1.502938847988843918e-02 2.403763681650161743e-02 3.480169177055358887e-02
2.961000000000000000e+03 2.166055107116699219e+01 1.858121275901794434e+00 5.559386312961578369e-02 1.867837272584438324e-02 2.228167094290256500e-02 4.040294885635375977e-02
2.962000000000000000e+03 2.237258148193359375e+01 2.643537998199462891e+00 6.688226014375686646e-02 1.664589345455169678e-02 2.505844458937644958e-02 3.629030287265777588e-02
2.963000000000000000e+03 2.353147506713867188e+01 2.949220895767211914e+00 6.005447357892990112e-02 3.751515876501798630e-03 1.914179697632789612e-02 2.367017231881618500e-02
2.964000000000000000e+03 2.845718574523925781e+01 7.030216693878173828e+00 -1.156224131584167480e+00 -9.379081130027770996e-01 -6.282396912574768066e-01 -9.922094941139221191e-01
2.965000000000000000e+03 2.829931449890136719e+01 6.909000873565673828e+00 -5.599649548530578613e-01 -3.309444189071655273e-01 -2.672728002071380615e-01 -4.492528736591339111e-01
2.966000000000000000e+03 2.814144515991210938e+01 6.787785530090332031e+00 -3.698661029338836670e-01 -2.509620189666748047e-01 -1.862484365701675415e-01 -2.979864776134490967e-01
2.967000000000000000e+03 2.798357582092285156e+01 6.666570186614990234e+00 -2.615253627300262451e-01 -1.729135066270828247e-01 -1.303316503763198853e-01 -2.189981937408447266e-01
2.968000000000000000e+03 2.849719047546386719e+01 6.987525463104248047e+00 -2.839649021625518799e-01 -8.032989501953125000e-01 -3.261791467666625977e-01 -4.897968769073486328e-01
2.969000000000000000e+03 2.836599349975585938e+01 6.837849140167236328e+00 -2.254061847925186157e-01 -4.953049421310424805e-01 -2.162133306264877319e-01 -3.343136310577392578e-01
2.970000000000000000e+03 2.823479461669921875e+01 6.688172817230224609e+00 -1.252477020025253296e-01 -2.461974918842315674e-01 -1.114335581660270691e-01 -2.003196179866790771e-01
2.971000000000000000e+03 2.810359573364257812e+01 6.538496494293212891e+00 -7.390684634447097778e-02 -2.055895775556564331e-01 -8.384892344474792480e-02 -1.402745693922042847e-01
2.972000000000000000e+03 2.854475593566894531e+01 6.953455924987792969e+00 2.283071912825107574e-02 -4.346530735492706299e-01 -1.235467046499252319e-01 -1.553980559110641479e-01
2.973000000000000000e+03 2.844526672363281250e+01 6.781066894531250000e+00 2.000657469034194946e-02 -3.293751776218414307e-01 -9.281058609485626221e-02 -5.767747759819030762e-02
2.974000000000000000e+03 2.834577941894531250e+01 6.608678340911865234e+00 4.253917187452316284e-02 -2.148406803607940674e-01 -5.169045180082321167e-02 -6.920883059501647949e-02
2.975000000000000000e+03 2.824629020690917969e+01 6.436289310455322266e+00 4.613190516829490662e-02 -1.244728490710258484e-01 -2.350228466093540192e-02 -2.719105966389179230e-02
2.976000000000000000e+03 2.859805107116699219e+01 6.929316997528076172e+00 1.555005013942718506e-01 1.697029359638690948e-02 5.174124240875244141e-02 9.129001200199127197e-02
2.977000000000000000e+03 2.853409385681152344e+01 6.740835666656494141e+00 8.952486515045166016e-02 -1.629265025258064270e-02 2.196966484189033508e-02 8.742387592792510986e-02
2.978000000000000000e+03 2.847013473510742188e+01 6.552354335784912109e+00 1.107187345623970032e-01 -9.883403778076171875e-03 3.025059960782527924e-02 8.361249417066574097e-02
2.979000000000000000e+03 2.840617561340332031e+01 6.363872528076171875e+00 1.032402291893959045e-01 5.609665066003799438e-03 3.265496715903282166e-02 6.405357271432876587e-02
2.980000000000000000e+03 2.865503120422363281e+01 6.916035652160644531e+00 1.475482583045959473e-01 5.421844720840454102e-01 2.069198191165924072e-01 1.584832370281219482e-01
2.981000000000000000e+03 2.862905883789062500e+01 6.718699932098388672e+00 1.038591861724853516e-01 3.510957658290863037e-01 1.364864856004714966e-01 1.371772140264511108e-01
2.982000000000000000e+03 2.860308647155761719e+01 6.521364212036132812e+00 1.100626885890960693e-01 2.510701417922973633e-01 1.083398461341857910e-01 1.218180879950523376e-01
2.983000000000000000e+03 2.857711601257324219e+01 6.324028491973876953e+00 1.041568294167518616e-01 2.192486226558685303e-01 9.702163189649581909e-02 1.173355132341384888e-01
2.984000000000000000e+03 2.871350669860839844e+01 6.914121627807617188e+00 1.315214931964874268e-01 1.058243393898010254e+00 3.569294512271881104e-01 4.633615165948867798e-02
2.985000000000000000e+03 2.872651863098144531e+01 6.715509891510009766e+00 1.072245389223098755e-01 6.856328845024108887e-01 2.378572374582290649e-01 5.523653700947761536e-02
2.986000000000000000e+03 2.873953056335449219e+01 6.516898155212402344e+00 1.053925454616546631e-01 5.339069962501525879e-01 1.917898505926132202e-01 7.445667684078216553e-02
2.987000000000000000e+03 2.875254249572753906e+01 6.318286418914794922e+00 9.767249226570129395e-02 4.232048690319061279e-01 1.562632173299789429e-01 6.888133287429809570e-02
2.988000000000000000e+03 2.877123260498046875e+01 6.923648357391357422e+00 1.751671135425567627e-01 1.445210099220275879e+00 4.861131608486175537e-01 -2.250618934631347656e-01
2.989000000000000000e+03 2.882272911071777344e+01 6.731388092041015625e+00 1.803233772516250610e-01 9.683493375778198242e-01 3.446018099784851074e-01 -1.253871023654937744e-01
2.990000000000000000e+03 2.887422561645507812e+01 6.539127349853515625e+00 1.387685239315032959e-01 7.276357412338256836e-01 2.599212825298309326e-01 -6.282839179039001465e-02
2.991000000000000000e+03 2.892572212219238281e+01 6.346867084503173828e+00 1.243575215339660645e-01 6.181787252426147461e-01 2.227608710527420044e-01 -3.518728539347648621e-02
2.992000000000000000e+03 2.882599258422851562e+01 6.944250583648681641e+00 4.353930950164794922e-01 1.660210847854614258e+00 6.286811828613281250e-01 -5.990637540817260742e-01
2.993000000000000000e+03 2.891399574279785156e+01 6.765724658966064453e+00 3.033016026020050049e-01 1.099509358406066895e+00 4.208432734012603760e-01 -3.432860672473907471e-01
2.994000000000000000e+03 2.900199890136718750e+01 6.587198734283447266e+00 2.728888094425201416e-01 8.750102519989013672e-01 3.443697094917297363e-01 -2.566064894199371338e-01
2.995000000000000000e+03 2.909000015258789062e+01 6.408672809600830078e+00 2.183311879634857178e-01 6.804867982864379883e-01 2.696453928947448730e-01 -1.867751032114028931e-01
2.996000000000000000e+03 2.887568473815917969e+01 6.975136280059814453e+00 7.614079713821411133e-01 1.634846210479736328e+00 7.188762426376342773e-01 -9.500082135200500488e-01
2.997000000000000000e+03 2.899681282043457031e+01 6.817201137542724609e+00 6.422508955001831055e-01 1.126230239868164062e+00 5.305443406105041504e-01 -5.702398419380187988e-01
2.998000000000000000e+03 2.911794281005859375e+01 6.659265518188476562e+00 4.166891574859619141e-01 8.648020625114440918e-01 3.844473659992218018e-01 -4.147163629531860352e-01
2.999000000000000000e+03 2.923907279968261719e+01 6.501330375671386719e+00 4.060541987419128418e-01 7.306342720985412598e-01 3.410065472126007080e-01 -3.677342236042022705e-01
3.000000000000000000e+03 2.891839790344238281e+01 7.015120029449462891e+00 1.404106616973876953e+00 1.461634993553161621e+00 8.597224950790405273e-01 -1.155508160591125488e+00
3.001000000000000000e+03 2.906800079345703125e+01 6.883840560913085938e+00 9.059518575668334961e-01 9.999436736106872559e-01 5.717686414718627930e-01 -7.512443661689758301e-01
3.002000000000000000e+03 2.921760559082031250e+01 6.752560615539550781e+00 8.139333724975585938e-01 7.794804573059082031e-01 4.780241549015045166e-01 -5.298326015472412109e-01
3.003000000000000000e+03 2.936721229553222656e+01 6.621281147003173828e+00 5.235816836357116699e-01 6.322326064109802246e-01 3.467442989349365234e-01 -4.190194010734558105e-01
3.004000000000000000e+03 2.895249176025390625e+01 7.062665939331054688e+00 1.939922213554382324e+00 1.116913437843322754e+00 9.170506596565246582e-01 -1.230509161949157715e+00
3.005000000000000000e+03 2.912482643127441406e+01 6.963083744049072266e+00 1.393486499786376953e+00 8.496795296669006348e-01 6.729497909545898438e-01 -7.589063048362731934e-01
3.006000000000000000e+03 2.929716110229492188e+01 6.863501071929931641e+00 1.049152135848999023e+00 5.939599275588989258e-01 4.929336309432983398e-01 -6.192417740821838379e-01
3.007000000000000000e+03 2.946949577331542969e+01 6.763918876647949219e+00 9.957364797592163086e-01 4.605070352554321289e-01 4.368730485439300537e-01 -4.088004529476165771e-01
3.008000000000000000e+03 2.897665977478027344e+01 7.115948200225830078e+00 2.591143608093261719e+00 8.568435311317443848e-01 1.034396171569824219e+00 -1.025889158248901367e+00
3.009000000000000000e+03 2.916510581970214844e+01 7.051887512207031250e+00 1.728598117828369141e+00 5.987145900726318359e-01 6.981937885284423828e-01 -7.115395069122314453e-01
3.010000000000000000e+03 2.935355186462402344e+01 6.987826824188232422e+00 1.406726956367492676e+00 4.525837898254394531e-01 5.577932000160217285e-01 -5.030353665351867676e-01
3.011000000000000000e+03 2.954199981689453125e+01 6.923766136169433594e+00 1.203106284141540527e+00 3.075245618820190430e-01 4.531892836093902588e-01 -4.794240593910217285e-01
3.012000000000000000e+03 2.898997116088867188e+01 7.172920703887939453e+00 2.983731746673583984e+00 5.723143815994262695e-01 1.066813826560974121e+00 -7.432584166526794434e-01
3.013000000000000000e+03 2.918729400634765625e+01 7.146841526031494141e+00 2.126900911331176758e+00 4.832867085933685303e-01 7.830562591552734375e-01 -4.527878463268280029e-01
3.014000000000000000e+03 2.938461494445800781e+01 7.120762348175048828e+00 1.610375642776489258e+00 2.549912035465240479e-01 5.596100687980651855e-01 -3.624944090843200684e-01
3.015000000000000000e+03 2.958193588256835938e+01 7.094683170318603516e+00 1.268580794334411621e+00 2.586535513401031494e-01 4.581702947616577148e-01 -2.350608557462692261e-01
3.016000000000000000e+03 2.899191665649414062e+01 7.231395721435546875e+00 3.321586132049560547e+00 6.294382810592651367e-01 1.185307383537292480e+00 -2.660748064517974854e-01
3.017000000000000000e+03 2.919053649902343750e+01 7.244299411773681641e+00 2.300899982452392578e+00 2.684460580348968506e-01 7.708038091659545898e-01 -2.022614181041717529e-01
3.018000000000000000e+03 2.938915443420410156e+01 7.257203578948974609e+00 1.806822776794433594e+00 2.812186777591705322e-01 6.264124512672424316e-01 -3.367568179965019226e-02
3.019000000000000000e+03 2.958777427673339844e+01 7.270107746124267578e+00 1.340083003044128418e+00 4.635859653353691101e-02 4.159324765205383301e-01 6.557449698448181152e-02
3.020000000000000000e+03 2.898242187500000000e+01 7.289126873016357422e+00 3.369296550750732422e+00 5.278588533401489258e-01 1.169146537780761719e+00 1.264448761940002441e-01
3.021000000000000000e+03 2.917471122741699219e+01 7.340518474578857422e+00 2.439909696578979492e+00 4.655704498291015625e-01 8.716440200805664062e-01 1.885299384593963623e-01
3.022000000000000000e+03 2.936699867248535156e+01 7.391910076141357422e+00 1.785445213317871094e+00 1.128946691751480103e-01 5.695019960403442383e-01 2.486495971679687500e-01
3.023000000000000000e+03 2.955928802490234375e+01 7.443301677703857422e+00 1.509068489074707031e+00 1.497730612754821777e-01 4.976524710655212402e-01 3.614593744277954102e-01
3.024000000000000000e+03 2.896185111999511719e+01 7.343897819519042969e+00 3.373681306838989258e+00 9.278863072395324707e-01 1.290470361709594727e+00 4.961609244346618652e-01
3.025000000000000000e+03 2.914042282104492188e+01 7.431803703308105469e+00 2.362640857696533203e+00 3.985088467597961426e-01 8.283449411392211914e-01 5.326874256134033203e-01
3.026000000000000000e+03 2.931899642944335938e+01 7.519709587097167969e+00 1.738323569297790527e+00 4.212127625942230225e-01 6.478608846664428711e-01 5.827998518943786621e-01
3.027000000000000000e+03 2.949757194519042969e+01 7.607614994049072266e+00 1.247880697250366211e+00 9.773347526788711548e-02 4.036842286586761475e-01 5.063317418098449707e-01
3.028000000000000000e+03 2.893099212646484375e+01 7.393605232238769531e+00 3.213429450988769531e+00 1.021689414978027344e+00 1.270535707473754883e+00 7.730405926704406738e-01
3.029000000000000000e+03 2.908899307250976562e+01 7.514648914337158203e+00 2.233236074447631836e+00 7.959557175636291504e-01 9.087575674057006836e-01 8.296465277671813965e-01
3.030000000000000000e+03 2.924699401855468750e+01 7.635693073272705078e+00 1.537174105644226074e+00 4.623850286006927490e-01 5.998677611351013184e-01 8.329904079437255859e-01
3.031000000000000000e+03 2.940499496459960938e+01 7.756736755371093750e+00 8.914958238601684570e-01 5.578457117080688477e-01 4.348024427890777588e-01 8.252316713333129883e-01
3.032000000000000000e+03 2.889103126525878906e+01 7.436339855194091797e+00 3.093133926391601562e+00 1.503199338912963867e+00 1.378900051116943359e+00 9.051856994628906250e-01
3.033000000000000000e+03 2.902239227294921875e+01 7.585873603820800781e+00 1.981904149055480957e+00 8.982979059219360352e-01 8.640606403350830078e-01 1.074021577835083008e+00
3.034000000000000000e+03 2.915375137329101562e+01 7.735406875610351562e+00 1.208846926689147949e+00 9.189932346343994141e-01 6.383520960807800293e-01 9.658710360527038574e-01
3.035000000000000000e+03 2.928511238098144531e+01 7.884940624237060547e+00 8.407006859779357910e-01 5.884582400321960449e-01 4.287476837635040283e-01 1.069427847862243652e+00
3.036000000000000000e+03 2.884350395202636719e+01 7.470460414886474609e+00 2.869829893112182617e+00 1.642337799072265625e+00 1.353650331497192383e+00 1.076017141342163086e+00
3.037000000000000000e+03 2.894317817687988281e+01 7.642741680145263672e+00 1.751050472259521484e+00 1.372441649436950684e+00 9.370476603507995605e-01 1.062678456306457520e+00
3.038000000000000000e+03 2.904285430908203125e+01 7.815021991729736328e+00 8.571696281433105469e-01 1.007410287857055664e+00 5.593739748001098633e-01 1.143435239791870117e+00
3.039000000000000000e+03 2.914253044128417969e+01 7.987303256988525391e+00 5.699169635772705078e-01 9.391798377037048340e-01 4.527290463447570801e-01 8.182152509689331055e-01
3.040000000000000000e+03 2.879023361206054688e+01 7.494657516479492188e+00 2.848661184310913086e+00 1.992622017860412598e+00 1.452384948730468750e+00 1.047978162765502930e+00
3.041000000000000000e+03 2.885439682006835938e+01 7.683069229125976562e+00 1.363704919815063477e+00 1.623973369598388672e+00 8.963034749031066895e-01 1.122131109237670898e+00
3.042000000000000000e+03 2.891856002807617188e+01 7.871481418609619141e+00 6.514145135879516602e-01 1.304538726806640625e+00 5.867859721183776855e-01 9.177888631820678711e-01
3.043000000000000000e+03 2.898272323608398438e+01 8.059893608093261719e+00 -1.236239969730377197e-01 1.001027345657348633e+00 2.632209956645965576e-01 7.136395573616027832e-01
3.044000000000000000e+03 2.873326873779296875e+01 7.508000850677490234e+00 2.739998579025268555e+00 2.275105237960815430e+00 1.504531145095825195e+00 1.011686563491821289e+00
3.045000000000000000e+03 2.875945472717285156e+01 7.705308437347412109e+00 1.164067983627319336e+00 1.844886183738708496e+00 9.026862382888793945e-01 9.726691246032714844e-01
3.046000000000000000e+03 2.878564071655273438e+01 7.902615547180175781e+00 3.034448325634002686e-01 1.517139911651611328e+00 5.461754202842712402e-01 7.320964932441711426e-01
3.047000000000000000e+03 2.881182670593261719e+01 8.099923133850097656e+00 -5.468562841415405273e-01 1.227825999259948730e+00 2.042909115552902222e-01 4.575079381465911865e-01
3.048000000000000000e+03 2.867479515075683594e+01 7.509978294372558594e+00 2.491460323333740234e+00 2.443870544433593750e+00 1.480599284172058105e+00 9.274032115936279297e-01
3.049000000000000000e+03 2.866199874877929688e+01 7.708603858947753906e+00 1.263449668884277344e+00 2.033292293548583984e+00 9.890226125717163086e-01 7.443563342094421387e-01
3.050000000000000000e+03 2.864920234680175781e+01 7.907229900360107422e+00 -1.099147796630859375e-01 1.584022998809814453e+00 4.422324597835540771e-01 5.047309994697570801e-01
3.051000000000000000e+03 2.863640785217285156e+01 8.105855941772460938e+00 -6.137552261352539062e-01 1.343097209930419922e+00 2.188025861978530884e-01 2.624454498291015625e-01
3.052000000000000000e+03 2.861705780029296875e+01 7.500514030456542969e+00 2.793809652328491211e+00 2.685708284378051758e+00 1.643855333328247070e+00 8.297575712203979492e-01
3.053000000000000000e+03 2.856577110290527344e+01 7.692830562591552734e+00 1.013695120811462402e+00 2.023561716079711914e+00 9.111770391464233398e-01 4.323368966579437256e-01
3.054000000000000000e+03 2.851448440551757812e+01 7.885146617889404297e+00 2.001503705978393555e-01 1.642408490180969238e+00 5.527676939964294434e-01 3.453456163406372070e-01
3.055000000000000000e+03 2.846319770812988281e+01 8.077463150024414062e+00 -1.091055870056152344e+00 1.009611606597900391e+00 -2.443327195942401886e-02 -1.068148761987686157e-01
3.056000000000000000e+03 2.856227684020996094e+01 7.479971885681152344e+00 2.901695728302001953e+00 2.590478658676147461e+00 1.647652268409729004e+00 5.195349454879760742e-01
3.057000000000000000e+03 2.847446632385253906e+01 7.658593177795410156e+00 1.310963153839111328e+00 2.041749954223632812e+00 1.005813956260681152e+00 3.681798279285430908e-01
3.058000000000000000e+03 2.838665962219238281e+01 7.837214469909667969e+00 2.267999202013015747e-01 1.406863689422607422e+00 4.900990724563598633e-01 1.288195326924324036e-02
3.059000000000000000e+03 2.829885101318359375e+01 8.015835762023925781e+00 -8.294754028320312500e-01 1.229883313179016113e+00 1.201223507523536682e-01 -2.273781150579452515e-01
3.060000000000000000e+03 2.851255226135253906e+01 7.449139595031738281e+00 3.101725816726684570e+00 2.460965871810913086e+00 1.668807506561279297e+00 3.457721173763275146e-01
3.061000000000000000e+03 2.839159393310546875e+01 7.607206821441650391e+00 1.846088886260986328e+00 1.825941085815429688e+00 1.101608991622924805e+00 3.299597203731536865e-01
3.062000000000000000e+03 2.827063560485839844e+01 7.765273571014404297e+00 3.040885925292968750e-01 1.324897766113281250e+00 4.886959195137023926e-01 -1.329523175954818726e-01
3.063000000000000000e+03 2.814967727661132812e+01 7.923340797424316406e+00 -3.078894913196563721e-01 9.625152349472045898e-01 1.963877230882644653e-01 -1.630168110132217407e-01
3.064000000000000000e+03 2.846979522705078125e+01 7.409202575683593750e+00 3.916791200637817383e+00 2.320328712463378906e+00 1.871135950088500977e+00 4.274793863296508789e-01
3.065000000000000000e+03 2.832033348083496094e+01 7.540644645690917969e+00 2.098862171173095703e+00 1.421903252601623535e+00 1.056229591369628906e+00 2.437804192304611206e-01
3.066000000000000000e+03 2.817087173461914062e+01 7.672087192535400391e+00 9.475103616714477539e-01 1.361092686653137207e+00 6.925809383392333984e-01 1.970756351947784424e-01
3.067000000000000000e+03 2.802140998840332031e+01 7.803529262542724609e+00 -1.797970384359359741e-01 2.680630981922149658e-01 2.647982165217399597e-02 -4.386787414550781250e-01
3.068000000000000000e+03 2.843564987182617188e+01 7.361693859100341797e+00 4.354893684387207031e+00 1.573225378990173340e+00 1.778435707092285156e+00 4.848586022853851318e-01
3.069000000000000000e+03 2.826342201232910156e+01 7.461463451385498047e+00 2.808756828308105469e+00 1.549090266227722168e+00 1.307354092597961426e+00 6.410936117172241211e-01
3.070000000000000000e+03 2.809119606018066406e+01 7.561233043670654297e+00 1.412412047386169434e+00 7.985861897468566895e-01 6.632994413375854492e-01 3.054964542388916016e-01
3.071000000000000000e+03 2.791897010803222656e+01 7.661002635955810547e+00 3.296492397785186768e-01 6.333324313163757324e-01 2.888945043087005615e-01 -1.674664020538330078e-01
3.072000000000000000e+03 2.841142272949218750e+01 7.308437824249267578e+00 5.119037151336669922e+00 1.552833914756774902e+00 2.001561403274536133e+00 9.728733897209167480e-01
3.073000000000000000e+03 2.822304725646972656e+01 7.372703552246093750e+00 3.238223791122436523e+00 1.049682378768920898e+00 1.286371827125549316e+00 9.839113950729370117e-01
3.074000000000000000e+03 2.803466987609863281e+01 7.436968803405761719e+00 2.130875587463378906e+00 1.043488860130310059e+00 9.523093104362487793e-01 7.307721376419067383e-01
3.075000000000000000e+03 2.784629249572753906e+01 7.501234531402587891e+00 9.198018908500671387e-01 5.037344694137573242e-01 4.270609021186828613e-01 2.630956172943115234e-01
3.076000000000000000e+03 2.839804840087890625e+01 7.251480102539062500e+00 5.462498664855957031e+00 1.027642965316772461e+00 1.947042584419250488e+00 1.615932345390319824e+00
3.077000000000000000e+03 2.820075607299804688e+01 7.277773380279541016e+00 3.816558122634887695e+00 1.298606038093566895e+00 1.534549236297607422e+00 1.488491177558898926e+00
3.078000000000000000e+03 2.800346374511718750e+01 7.304067134857177734e+00 2.685118436813354492e+00 8.475238084793090820e-01 1.059792637825012207e+00 1.192087531089782715e+00
3.079000000000000000e+03 2.780616950988769531e+01 7.330360889434814453e+00 1.840222477912902832e+00 9.020439386367797852e-01 8.226799368858337402e-01 8.909332752227783203e-01
3.080000000000000000e+03 2.839603996276855469e+01 7.193007469177246094e+00 5.707543849945068359e+00 1.259428739547729492e+00 2.090091705322265625e+00 2.297783851623535156e+00
3.081000000000000000e+03 2.819740867614746094e+01 7.180319309234619141e+00 4.139765739440917969e+00 1.188631653785705566e+00 1.598519206047058105e+00 2.036812305450439453e+00
3.082000000000000000e+03 2.799877548217773438e+01 7.167631149291992188e+00 3.353595495223999023e+00 1.242244124412536621e+00 1.378751873970031738e+00 1.714144229888916016e+00
3.083000000000000000e+03 2.780014228820800781e+01 7.154942989349365234e+00 2.676341533660888672e+00 9.052051305770874023e-01 1.074463963508605957e+00 1.476945042610168457e+00
3.084000000000000000e+03 2.840547180175781250e+01 7.135265827178955078e+00 5.464740753173828125e+00 1.386253118515014648e+00 2.055298089981079102e+00 2.995542287826538086e+00
3.085000000000000000e+03 2.821312904357910156e+01 7.084083080291748047e+00 4.482250690460205078e+00 1.546059966087341309e+00 1.808493137359619141e+00 2.415485858917236328e+00
3.086000000000000000e+03 2.802078437805175781e+01 7.032900810241699219e+00 3.998813629150390625e+00 1.337889552116394043e+00 1.601010918617248535e+00 2.271594285964965820e+00
3.087000000000000000e+03 2.782843971252441406e+01 6.981718063354492188e+00 3.508800745010375977e+00 1.329428076744079590e+00 1.451468586921691895e+00 2.110251903533935547e+00
3.088000000000000000e+03 2.842598533630371094e+01 7.080472469329833984e+00 5.045176982879638672e+00 1.815886616706848145e+00 2.058319091796875000e+00 3.162881612777709961e+00
3.089000000000000000e+03 2.824731636047363281e+01 6.992761135101318359e+00 4.903561592102050781e+00 1.695876598358154297e+00 1.979831457138061523e+00 2.822394132614135742e+00
3.090000000000000000e+03 2.806864738464355469e+01 6.905049324035644531e+00 4.561693191528320312e+00 1.680410385131835938e+00 1.872631072998046875e+00 2.754446983337402344e+00
3.091000000000000000e+03 2.788997840881347656e+01 6.817337989807128906e+00 4.480805397033691406e+00 1.587965965270996094e+00 1.820631384849548340e+00 2.704085350036621094e+00
3.092000000000000000e+03 5.296611404418945312e+01 3.414536666870117188e+01 -1.056993132806383073e-04 -6.689771544188261032e-05 -5.177910861675627530e-05 -1.072643353836610913e-04
3.093000000000000000e+03 5.177042770385742188e+01 3.189836883544921875e+01 -1.019076094962656498e-03 -5.077483365312218666e-04 -4.580473469104617834e-04 -7.359627052210271358e-04
3.094000000000000000e+03 5.935350799560546875e+01 3.214620208740234375e+01 -1.748512964695692062e-03 1.601935073267668486e-04 -4.764958284795284271e-04 -5.571804285864345729e-05
3.095000000000000000e+03 5.275609588623046875e+01 3.377256393432617188e+01 -1.954960753209888935e-04 -1.281954464502632618e-04 -9.710745507618412375e-05 -1.454414887120947242e-04
3.096000000000000000e+03 4.948694229125976562e+01 3.019453430175781250e+01 -1.682853209786117077e-03 -1.362088136374950409e-03 -9.134823922067880630e-04 -1.500236918218433857e-03
3.097000000000000000e+03 4.610922622680664062e+01 2.580169486999511719e+01 -5.326608661562204361e-03 -2.531353384256362915e-03 -2.357388613745570183e-03 -3.822742961347103119e-03
3.098000000000000000e+03 4.602982711791992188e+01 1.923216629028320312e+01 -1.503326185047626495e-02 2.866278169676661491e-03 -3.650095080956816673e-03 -2.542044268921017647e-03
3.099000000000000000e+03 4.685857772827148438e+01 1.046015739440917969e+01 -8.134455420076847076e-03 5.823716521263122559e-03 -6.932216929271817207e-04 1.210357807576656342e-02
3.100000000000000000e+03 4.826661682128906250e+01 -1.565118670463562012e+00 1.107402145862579346e-02 4.833290819078683853e-03 4.772193729877471924e-03 -1.289032516069710255e-03
3.101000000000000000e+03 4.750078582763671875e+01 -8.405508041381835938e+00 5.117608699947595596e-03 1.451279595494270325e-02 5.889121443033218384e-03 -6.490214262157678604e-03
3.102000000000000000e+03 4.545858383178710938e+01 -1.444829368591308594e+01 1.524089835584163666e-03 2.237380109727382660e-02 7.169367279857397079e-03 -7.507801987230777740e-03
3.103000000000000000e+03 4.753937149047851562e+01 -1.867581558227539062e+01 1.658623223192989826e-03 2.376991137862205505e-02 7.628560531884431839e-03 -5.706243216991424561e-03
3.104000000000000000e+03 4.666125869750976562e+01 -2.192783546447753906e+01 2.548571210354566574e-03 2.732765674591064453e-02 8.962868712842464447e-03 -6.487067788839340210e-03
3.105000000000000000e+03 4.765632247924804688e+01 -3.022370719909667969e+01 6.648531649261713028e-03 3.890226781368255615e-02 1.366524025797843933e-02 -5.789005197584629059e-03
3.106000000000000000e+03 4.459477615356445312e+01 -3.759958267211914062e+01 8.731515263207256794e-04 5.618631094694137573e-02 1.711783930659294128e-02 3.939847229048609734e-04
3.107000000000000000e+03 4.325123977661132812e+01 -3.928079986572265625e+01 -2.093003876507282257e-02 5.587984807789325714e-03 -4.602616187185049057e-03 3.085322212427854538e-03
3.108000000000000000e+03 3.830688476562500000e+01 -4.149144744873046875e+01 -1.919662207365036011e-02 -9.160298854112625122e-03 -8.507075719535350800e-03 -2.333224052563309669e-03
3.109000000000000000e+03 3.819980621337890625e+01 -3.876203536987304688e+01 -2.127580717206001282e-02 -8.211674168705940247e-03 -8.846243843436241150e-03 6.172541994601488113e-03
3.110000000000000000e+03 3.250850296020507812e+01 -3.261107635498046875e+01 -6.856064777821302414e-03 -9.248363785445690155e-03 -4.831328522413969040e-03 6.628241855651140213e-03
3.111000000000000000e+03 3.002754974365234375e+01 -2.775415802001953125e+01 -2.951834117993712425e-03 -8.350841701030731201e-03 -3.390802768990397453e-03 4.150330089032649994e-03
3.112000000000000000e+03 2.873679161071777344e+01 -2.539553451538085938e+01 -2.401097677648067474e-03 -7.075516972690820694e-03 -2.842984395101666451e-03 3.761643311008810997e-03
3.113000000000000000e+03 2.694451522827148438e+01 -2.160210418701171875e+01 -1.484328997321426868e-03 -5.133201368153095245e-03 -1.985259121283888817e-03 3.076289314776659012e-03
3.114000000000000000e+03 2.635879325866699219e+01 -2.034429359436035156e+01 -1.683175447396934032e-03 -4.549122415482997894e-03 -1.869689323939383030e-03 2.521429909393191338e-03
3.115000000000000000e+03 2.625046348571777344e+01 -2.358856201171875000e+01 -1.999323023483157158e-03 -4.110155161470174789e-03 -1.832843525335192680e-03 3.440984059125185013e-03
3.116000000000000000e+03 2.463279914855957031e+01 -2.759755516052246094e+01 -3.404949093237519264e-03 -2.029948635026812553e-03 -1.630469341762363911e-03 3.871172200888395309e-03
3.117000000000000000e+03 2.265086364746093750e+01 -4.094928359985351562e+01 -5.454312078654766083e-03 1.574995461851358414e-03 -1.163795008324086666e-03 7.890779525041580200e-04
3.118000000000000000e+03 2.747123718261718750e+01 -4.121274566650390625e+01 -7.749836426228284836e-03 -1.805921201594173908e-03 -2.866727299988269806e-03 4.018131003249436617e-04
3.119000000000000000e+03 3.208747100830078125e+01 1.264825153350830078e+01 -1.275691986083984375e-01 -1.112895756959915161e-01 -7.165763527154922485e-02 -1.102040335536003113e-01
3.120000000000000000e+03 3.072800445556640625e+01 1.119823360443115234e+01 -3.353420794010162354e-01 -1.872610151767730713e-01 -1.567809283733367920e-01 -2.507978975772857666e-01
3.121000000000000000e+03 3.155893898010253906e+01 1.206264305114746094e+01 -1.959805339574813843e-01 -1.529981791973114014e-01 -1.046936139464378357e-01 -1.579899489879608154e-01
3.122000000000000000e+03 3.851736831665039062e+01 1.977675819396972656e+01 -1.114833634346723557e-02 -1.369079761207103729e-02 -7.451740093529224396e-03 -1.186155527830123901e-02
3.123000000000000000e+03 3.263850021362304688e+01 1.320982742309570312e+01 -1.011477187275886536e-01 -8.230670541524887085e-02 -5.503632873296737671e-02 -8.537223935127258301e-02
3.124000000000000000e+03 3.235812759399414062e+01 1.293265533447265625e+01 -1.024533808231353760e-01 -8.631409704685211182e-02 -5.663024261593818665e-02 -1.032482087612152100e-01
3.125000000000000000e+03 4.283671569824218750e+01 -7.331264972686767578e+00 5.547928623855113983e-03 1.925281435251235962e-02 7.440222892910242081e-03 -1.260230038315057755e-02
3.126000000000000000e+03 4.198194885253906250e+01 -9.535949826240539551e-01 2.261374704539775848e-02 7.201021537184715271e-03 8.944430388510227203e-03 -1.242845505475997925e-02
3.127000000000000000e+03 4.138351440429687500e+01 -2.938231527805328369e-01 2.623333409428596497e-02 5.560206249356269836e-03 9.538061916828155518e-03 -1.286034751683473587e-02
3.128000000000000000e+03 4.124439620971679688e+01 1.351000499725341797e+01 -3.285666555166244507e-02 1.043569762259721756e-02 -6.726290099322795868e-03 4.731273278594017029e-03
3.129000000000000000e+03 3.931375122070312500e+01 2.065804290771484375e+01 -9.478828869760036469e-03 -9.361996315419673920e-03 -5.652247462421655655e-03 -1.018420327454805374e-02
3.130000000000000000e+03 3.903993225097656250e+01 2.037215995788574219e+01 -1.022529508918523788e-02 -1.086909696459770203e-02 -6.328317802399396896e-03 -1.021420303732156754e-02
3.131000000000000000e+03 3.108063316345214844e+01 1.090751743316650391e+01 -4.260108768939971924e-01 -9.955784678459167480e-02 -1.576706171035766602e-01 -2.048928290605545044e-01
3.132000000000000000e+03 3.079333496093750000e+01 7.312980175018310547e+00 5.407352447509765625e-01 -5.129538476467132568e-02 1.468319594860076904e-01 1.280175447463989258e-01
3.133000000000000000e+03 2.961849594116210938e+01 5.777433395385742188e+00 1.651237756013870239e-01 4.005969762802124023e-01 1.697162240743637085e-01 -1.561484634876251221e-01
3.134000000000000000e+03 3.079569435119628906e+01 6.409614562988281250e+00 4.437901973724365234e-01 4.758429899811744690e-02 1.474123448133468628e-01 -9.845853596925735474e-02
3.135000000000000000e+03 2.558786964416503906e+01 -4.130401611328125000e+00 -3.584318980574607849e-02 -2.994768880307674408e-02 -1.973726414144039154e-02 3.575836867094039917e-02
3.136000000000000000e+03 2.742012023925781250e+01 -6.291623592376708984e+00 -2.191670238971710205e-02 -1.652778871357440948e-02 -1.153334788978099823e-02 2.142229676246643066e-02
3.137000000000000000e+03 2.833289909362792969e+01 -5.755801200866699219e+00 -2.728471346199512482e-02 -1.077298584277741611e-04 -8.217733353376388550e-03 1.415201742202043533e-02
3.138000000000000000e+03 3.388103866577148438e+01 -1.361349678039550781e+01 2.511805389076471329e-03 2.054508775472640991e-02 6.917067803442478180e-03 -8.304169401526451111e-03
3.139000000000000000e+03 3.862387466430664062e+01 -1.701510620117187500e+01 3.675117157399654388e-03 2.552244253456592560e-02 8.759267628192901611e-03 -1.069830916821956635e-02
3.140000000000000000e+03 4.078258132934570312e+01 -9.059384346008300781e+00 1.340412534773349762e-03 2.395830862224102020e-02 7.589616347104310989e-03 -1.285838987678289413e-02
3.141000000000000000e+03 3.927735519409179688e+01 -1.163152599334716797e+01 -6.684412946924567223e-04 2.565910294651985168e-02 7.497198414057493210e-03 -1.076276972889900208e-02
3.142000000000000000e+03 4.104220199584960938e+01 -6.877869129180908203e+00 5.084895528852939606e-03 2.167921140789985657e-02 8.029231801629066467e-03 -1.500363368541002274e-02
3.143000000000000000e+03 3.390321350097656250e+01 6.308522701263427734e+00 1.521627455949783325e-01 -3.467447310686111450e-02 3.524648025631904602e-02 3.178231418132781982e-02
3.144000000000000000e+03 3.152559661865234375e+01 -5.083688735961914062e+00 -1.782995648682117462e-02 3.356023505330085754e-02 4.719083663076162338e-03 -8.599404245615005493e-03
3.145000000000000000e+03 3.347444534301757812e+01 -5.573754787445068359e+00 -1.045644190162420273e-02 3.570767864584922791e-02 7.575371302664279938e-03 -1.508637890219688416e-02
3.146000000000000000e+03 1.959068870544433594e+01 -3.263645470142364502e-01 2.808518521487712860e-02 6.976431608200073242e-02 2.935485169291496277e-02 3.303535655140876770e-02
3.147000000000000000e+03 1.909546661376953125e+01 -7.074493169784545898e-01 2.832687646150588989e-02 5.510537326335906982e-02 2.502967417240142822e-02 3.026789426803588867e-02
3.148000000000000000e+03 1.928422927856445312e+01 -6.043059229850769043e-01 3.124515339732170105e-02 6.522595137357711792e-02 2.894133143126964569e-02 3.281074389815330505e-02
3.149000000000000000e+03 1.582403659820556641e+01 -2.495601654052734375e+00 1.814912445843219757e-02 2.307837130501866341e-03 6.137088872492313385e-03 6.752605549991130829e-03
3.150000000000000000e+03 1.170134639739990234e+01 -2.205718040466308594e+00 3.345452481880784035e-03 -1.458802726119756699e-04 9.598716278560459614e-04 5.500334664247930050e-04
3.151000000000000000e+03 1.096372222900390625e+01 -2.092970848083496094e+00 2.358092227950692177e-03 1.103257964132353663e-04 7.405254291370511055e-04 3.528423840180039406e-04
3.152000000000000000e+03 6.257220745086669922e+00 -1.199857425689697266e+01 9.859259007498621941e-04 5.363909527659416199e-03 1.904950593598186970e-03 4.929855465888977051e-03
3.153000000000000000e+03 7.193899154663085938e+00 -1.845627212524414062e+01 -7.683964795432984829e-04 9.147361852228641510e-03 2.513689454644918442e-03 5.265538580715656281e-03
3.154000000000000000e+03 9.200863838195800781e+00 -2.416646194458007812e+01 -1.427409588359296322e-03 1.030931994318962097e-02 2.664573024958372116e-03 4.438248462975025177e-03
3.155000000000000000e+03 7.539205074310302734e+00 -2.974345970153808594e+01 -1.054816413670778275e-03 1.225903164595365524e-02 3.361264476552605629e-03 2.846170216798782349e-03
3.156000000000000000e+03 9.423972129821777344e+00 -3.812002182006835938e+01 -1.332018291577696800e-03 1.192731969058513641e-02 3.178590442985296249e-03 1.118115265853703022e-03
3.157000000000000000e+03 1.765391540527343750e+01 -4.090821075439453125e+01 -3.729666117578744888e-03 5.062384065240621567e-03 3.998154134023934603e-04 4.628204042091965675e-04
3.158000000000000000e+03 1.276798152923583984e+01 -2.851108932495117188e+01 -2.384769963100552559e-03 8.455314673483371735e-03 1.821163459680974483e-03 3.811027389019727707e-03
3.159000000000000000e+03 1.997572135925292969e+01 -2.280308914184570312e+01 -3.103235270828008652e-03 3.308952553197741508e-03 6.171518180053681135e-05 3.751013660803437233e-03
3.160000000000000000e+03 1.547663497924804688e+01 -1.460321140289306641e+01 -2.307608025148510933e-03 1.056516822427511215e-02 2.477267989888787270e-03 6.284000352025032043e-03
3.161000000000000000e+03 2.232809257507324219e+01 -1.319489860534667969e+01 -8.691237308084964752e-04 1.601773081347346306e-03 2.197948051616549492e-04 -3.799047553911805153e-04
3.162000000000000000e+03 1.981566429138183594e+01 -8.232329368591308594e+00 2.882721018977463245e-04 2.094223909080028534e-02 6.369153037667274475e-03 -4.879636224359273911e-03
3.163000000000000000e+03 1.921457481384277344e+01 -1.014769840240478516e+01 -1.437095575965940952e-03 1.552043668925762177e-02 4.225002136081457138e-03 5.480255349539220333e-04
3.164000000000000000e+03 1.946888160705566406e+01 -6.883602619171142578e+00 2.518935129046440125e-03 3.159364685416221619e-02 1.023377478122711182e-02 -3.143631154671311378e-03
3.165000000000000000e+03 1.734954071044921875e+01 -3.867538690567016602e+00 2.102207206189632416e-02 3.209316730499267578e-02 1.593457162380218506e-02 2.156271971762180328e-02
3.166000000000000000e+03 1.022842502593994141e+01 -1.981399297714233398e+00 1.702159992419183254e-03 1.092055754270404577e-05 5.139241693541407585e-04 4.002566856797784567e-04
3.167000000000000000e+03 6.212625980377197266e+00 -1.901063561439514160e+00 2.050766051979735494e-04 1.145058049587532878e-04 9.587472595740109682e-05 -2.436612339806742966e-05
3.168000000000000000e+03 1.795709729194641113e+00 -1.355467605590820312e+01 1.531714369775727391e-04 5.028713960200548172e-03 1.554565620608627796e-03 1.813860144466161728e-03
3.169000000000000000e+03 1.896614551544189453e+00 -2.052204132080078125e+01 -1.767702633515000343e-04 1.133051700890064240e-02 3.346123965457081795e-03 1.729195006191730499e-03
3.170000000000000000e+03 7.364163994789123535e-01 -2.484165763854980469e+01 -1.091504309442825615e-04 1.552756037563085556e-02 4.625522997230291367e-03 5.408020806498825550e-04
3.171000000000000000e+03 7.139752507209777832e-01 -3.192583274841308594e+01 1.004671430564485490e-04 1.946365647017955780e-02 5.869236774742603302e-03 2.825531119015067816e-04
3.172000000000000000e+03 2.886820316314697266e+00 -3.779770278930664062e+01 -1.827427913667634130e-04 1.856132969260215759e-02 5.513575859367847443e-03 1.376207219436764717e-04
3.173000000000000000e+03 8.104495406150817871e-01 -3.729299926757812500e+01 -1.774148586264345795e-05 2.054479904472827911e-02 6.158117670565843582e-03 -1.141559914685785770e-04
3.174000000000000000e+03 4.843990325927734375e+01 -3.785526275634765625e+01 -4.540816880762577057e-03 4.152638465166091919e-02 1.109567098319530487e-02 -1.255093608051538467e-02
3.175000000000000000e+03 5.782337951660156250e+01 -4.082587814331054688e+01 -1.022162381559610367e-03 1.713337749242782593e-02 4.833364393562078476e-03 -5.793488235212862492e-04
3.176000000000000000e+03 6.258362579345703125e+01 -3.753679275512695312e+01 8.119200356304645538e-04 5.398481618613004684e-03 1.863120472989976406e-03 -3.575729206204414368e-04
3.177000000000000000e+03 6.973535919189453125e+01 -3.647843170166015625e+01 6.062680040486156940e-04 -9.821058250963687897e-03 -2.764436881989240646e-03 5.730811390094459057e-04
3.178000000000000000e+03 7.845864868164062500e+01 -4.023534393310546875e+01 2.945041051134467125e-04 -2.757201343774795532e-02 -8.183252997696399689e-03 -8.064730209298431873e-04
3.179000000000000000e+03 7.750468444824218750e+01 -3.687970733642578125e+01 4.712386289611458778e-04 -2.590951323509216309e-02 -7.631482090801000595e-03 1.835961370488803368e-06
3.180000000000000000e+03 7.928834533691406250e+01 -3.338909149169921875e+01 1.501880324212834239e-04 -2.927120774984359741e-02 -8.736305870115756989e-03 4.823031486012041569e-05
3.181000000000000000e+03 7.198489379882812500e+01 -2.698944282531738281e+01 5.728657706640660763e-04 -1.386154536157846451e-02 -3.986604046076536179e-03 1.533018075861036777e-03
3.182000000000000000e+03 6.513034820556640625e+01 -1.627949333190917969e+01 1.299260416999459267e-03 -2.299075014889240265e-03 -2.999443968292325735e-04 3.092362778261303902e-03
3.183000000000000000e+03 5.919705963134765625e+01 -1.060904788970947266e+01 2.248122124001383781e-03 3.860967233777046204e-03 1.832726760767400265e-03 2.416006522253155708e-03
3.184000000000000000e+03 4.595664978027343750e+01 -1.339165306091308594e+01 2.010330557823181152e-03 2.079221419990062714e-02 6.840763613581657410e-03 -7.120834663510322571e-03
3.185000000000000000e+03 7.789814758300781250e+01 -3.050309944152832031e+01 -4.005116716143675148e-05 -2.580616250634193420e-02 -7.753863930702209473e-03 4.188536258880048990e-04
3.186000000000000000e+03 7.934133911132812500e+01 -2.504038619995117188e+01 -9.610504093870986253e-06 -2.740920148789882660e-02 -8.225644007325172424e-03 1.952114835148677230e-04
3.187000000000000000e+03 7.334865570068359375e+01 -1.892804527282714844e+01 3.708672302309423685e-04 -1.498167961835861206e-02 -4.383243620395660400e-03 2.264967653900384903e-03
3.188000000000000000e+03 6.826872253417968750e+01 -1.083521175384521484e+01 8.307446260005235672e-04 -6.618946325033903122e-03 -1.736460486426949501e-03 3.895006841048598289e-03
3.189000000000000000e+03 4.802626800537109375e+01 -6.829408645629882812e+00 6.598460022360086441e-03 1.208428572863340378e-02 5.604823585599660873e-03 -5.616115406155586243e-03
3.190000000000000000e+03 7.803816223144531250e+01 -2.351093673706054688e+01 3.237261989852413535e-05 -2.444270066916942596e-02 -7.323098368942737579e-03 6.314830388873815536e-04
3.191000000000000000e+03 7.937620544433593750e+01 -1.808065795898437500e+01 2.323302396689541638e-05 -2.482177689671516418e-02 -7.439563050866127014e-03 2.841037057805806398e-04
3.192000000000000000e+03 7.331102752685546875e+01 -1.251033020019531250e+01 2.806750126183032990e-04 -1.335777528584003448e-02 -3.923130221664905548e-03 2.784978365525603294e-03
3.193000000000000000e+03 6.656036376953125000e+01 -1.110743880271911621e+00 8.435217896476387978e-04 -4.132183734327554703e-03 -9.865985484793782234e-04 5.443031899631023407e-03
3.194000000000000000e+03 6.081084823608398438e+01 7.062783241271972656e-01 1.730632968246936798e-03 -3.960136091336607933e-04 4.003857902716845274e-04 6.044005043804645538e-03
3.195000000000000000e+03 4.795119476318359375e+01 -4.748748838901519775e-01 1.191612333059310913e-02 3.944042138755321503e-03 4.758049733936786652e-03 -2.729821717366576195e-04
3.196000000000000000e+03 7.814979553222656250e+01 -1.654651832580566406e+01 5.235808566794730723e-05 -2.205241285264492035e-02 -6.600016262382268906e-03 8.559265406802296638e-04
3.197000000000000000e+03 7.937297058105468750e+01 -1.113496875762939453e+01 -1.467566198698477820e-05 -2.127836272120475769e-02 -6.387911736965179443e-03 3.561940393410623074e-04
3.198000000000000000e+03 7.256247711181640625e+01 -4.364471912384033203e+00 3.481957537587732077e-04 -1.005990616977214813e-02 -2.913512988016009331e-03 3.746745642274618149e-03
3.199000000000000000e+03 6.568711090087890625e+01 1.397855877876281738e+00 6.183330551721155643e-04 -3.230574540793895721e-03 -7.836724398657679558e-04 5.900200456380844116e-03
3.200000000000000000e+03 6.096652603149414062e+01 7.995373725891113281e+00 -1.185178174637258053e-03 2.235510328318923712e-04 -2.884881396312266588e-04 7.045012433081865311e-03
3.201000000000000000e+03 4.649127960205078125e+01 1.121658325195312500e+01 -1.081803720444440842e-02 6.544610485434532166e-03 -1.282027922570705414e-03 1.148337498307228088e-02
3.202000000000000000e+03 7.813600921630859375e+01 -1.239558219909667969e+01 5.164333742868620902e-06 -2.011855691671371460e-02 -6.034018006175756454e-03 9.813791839405894279e-04
3.203000000000000000e+03 7.937468719482421875e+01 -4.162599563598632812e+00 2.838371801772154868e-05 -1.699681393802165985e-02 -5.090528633445501328e-03 4.135460767429322004e-04
3.204000000000000000e+03 7.332747650146484375e+01 2.258443355560302734e+00 5.416253770818002522e-05 -8.179171942174434662e-03 -2.437502844259142876e-03 3.873589448630809784e-03
3.205000000000000000e+03 6.483214569091796875e+01 8.904169082641601562e+00 -1.207432476803660393e-03 -1.320057199336588383e-03 -7.582469261251389980e-04 6.184078287333250046e-03
3.206000000000000000e+03 5.504613113403320312e+01 2.032246971130371094e+01 -7.372968364506959915e-03 3.019867697730660439e-03 -1.305930200032889843e-03 2.098197815939784050e-03
3.207000000000000000e+03 4.587042617797851562e+01 1.981227302551269531e+01 -1.436828076839447021e-02 2.082956023514270782e-03 -3.685597563162446022e-03 -3.226021537557244301e-03
3.208000000000000000e+03 7.810681152343750000e+01 -5.388425827026367188e+00 4.834417632082477212e-05 -1.634169183671474457e-02 -4.888004623353481293e-03 1.187851885333657265e-03
3.209000000000000000e+03 7.938508605957031250e+01 2.798840284347534180e+00 -1.834218892327044159e-05 -1.205890718847513199e-02 -3.623174969106912613e-03 4.530585138127207756e-04
3.210000000000000000e+03 7.340081787109375000e+01 9.115280151367187500e+00 -3.139208711218088865e-04 -5.300930235534906387e-03 -1.684455317445099354e-03 3.631052328273653984e-03
3.211000000000000000e+03 6.752900695800781250e+01 1.608996772766113281e+01 -1.931682694703340530e-03 -1.015234971418976784e-03 -8.840752998366951942e-04 4.119813907891511917e-03
3.212000000000000000e+03 5.829115295410156250e+01 2.698614120483398438e+01 -3.667304757982492447e-03 1.005585654638707638e-03 -7.985157426446676254e-04 3.399779961910098791e-04
3.213000000000000000e+03 4.688945007324218750e+01 2.772661399841308594e+01 -3.160599386319518089e-03 -2.320458646863698959e-03 -1.644317409954965115e-03 -2.782353898510336876e-03
3.214000000000000000e+03 7.816272735595703125e+01 1.610258221626281738e+00 -1.150488515122560784e-05 -1.199874840676784515e-02 -3.603076096624135971e-03 1.298637711443006992e-03
3.215000000000000000e+03 7.818518066406250000e+01 1.133675956726074219e+01 -3.500239108689129353e-05 -5.831236951053142548e-03 -1.759871840476989746e-03 1.117820385843515396e-03
3.216000000000000000e+03 7.350196075439453125e+01 1.604305839538574219e+01 -6.228759884834289551e-04 -2.785325283184647560e-03 -1.022460404783487320e-03 2.674659946933388710e-03
3.217000000000000000e+03 6.515825653076171875e+01 2.739380073547363281e+01 -2.053770469501614571e-03 1.882574288174510002e-04 -5.596539122052490711e-04 1.092301099561154842e-03
3.218000000000000000e+03 5.944080352783203125e+01 3.277507400512695312e+01 -1.590691157616674900e-03 9.854391100816428661e-05 -4.476441827137023211e-04 -3.270744127803482115e-05
3.219000000000000000e+03 5.855611038208007812e+01 2.762064743041992188e+01 -3.399040084332227707e-03 8.679395541548728943e-04 -7.593301706947386265e-04 2.618699800223112106e-04
3.220000000000000000e+03 7.939295959472656250e+01 1.114237785339355469e+01 -2.066861816274467856e-05 -6.185632199048995972e-03 -1.861890312284231186e-03 3.912672691512852907e-04
3.221000000000000000e+03 7.824891662597656250e+01 1.826484680175781250e+01 -6.972883420530706644e-05 -2.453103661537170410e-03 -7.568497676402330399e-04 7.176844519563019276e-04
3.222000000000000000e+03 7.399071502685546875e+01 2.300187873840332031e+01 -5.596757982857525349e-04 -1.095749088563024998e-03 -4.966274718753993511e-04 1.310028368607163429e-03
3.223000000000000000e+03 6.400881958007812500e+01 3.230384826660156250e+01 -1.513449940830469131e-03 5.378924470278434455e-06 -4.524213145487010479e-04 2.761810901574790478e-04
3.224000000000000000e+03 6.324523162841796875e+01 3.236701583862304688e+01 -1.575873116962611675e-03 1.716400220175273716e-05 -4.676127573475241661e-04 2.395232877461239696e-04
3.225000000000000000e+03 6.019866561889648438e+01 3.267766189575195312e+01 -1.630058628506958485e-03 7.960165385156869888e-05 -4.651370982173830271e-04 2.851861245289910585e-05
3.226000000000000000e+03 7.941494750976562500e+01 1.808554649353027344e+01 -6.564021987287560478e-06 -2.417134353891015053e-03 -7.271094946190714836e-04 2.468214661348611116e-04
3.227000000000000000e+03 7.855371093750000000e+01 2.505034828186035156e+01 -3.749014285858720541e-05 -5.157415289431810379e-04 -1.659694971749559045e-04 2.426747523713856936e-04
3.228000000000000000e+03 6.936249542236328125e+01 3.207962799072265625e+01 -7.719000568613409996e-04 -3.355339140398427844e-05 -2.416360366623848677e-04 3.183626977261155844e-04
3.229000000000000000e+03 7.011018371582031250e+01 3.136911773681640625e+01 -7.391913677565753460e-04 -6.143713835626840591e-05 -2.401885576546192169e-04 4.003425710834562778e-04
3.230000000000000000e+03 6.859893798828125000e+01 3.209056472778320312e+01 -8.898078231140971184e-04 -3.285143975517712533e-05 -2.767977712210267782e-04 3.354912914801388979e-04
3.231000000000000000e+03 7.958546447753906250e+01 3.056305313110351562e+01 -4.997347332391655073e-06 8.107602479867637157e-05 2.282360401295591146e-05 -3.681162979773944244e-06
3.232000000000000000e+03 7.951829528808593750e+01 2.774739265441894531e+01 -9.725887139211408794e-06 1.500121697972645052e-06 -2.467729700583731756e-06 3.340355397085659206e-05
3.233000000000000000e+03 7.540188598632812500e+01 3.212386322021484375e+01 -9.588093962520360947e-05 -4.557219290290959179e-05 -4.243593866704031825e-05 6.254247273318469524e-05
3.234000000000000000e+03 7.240373229980468750e+01 3.207910156250000000e+01 -3.525053907651454210e-04 -4.400678881211206317e-05 -1.189536560559645295e-04 2.063221763819456100e-04
3.235000000000000000e+03 2.203485870361328125e+01 6.128008365631103516e-01 2.846171148121356964e-02 -4.606294445693492889e-03 7.156624924391508102e-03 3.886155411601066589e-02
3.236000000000000000e+03 2.251183319091796875e+01 1.356609940528869629e+00 4.700614511966705322e-02 2.555905084591358900e-04 1.417852006852626801e-02 2.904045768082141876e-02
3.237000000000000000e+03 2.291728782653808594e+01 1.323643684387207031e+00 4.416090250015258789e-02 -5.816699005663394928e-03 1.150326058268547058e-02 2.384967543184757233e-02
3.238000000000000000e+03 2.268450927734375000e+01 1.496901154518127441e+00 4.752179607748985291e-02 -1.924735261127352715e-03 1.367911789566278458e-02 2.732615731656551361e-02
3.239000000000000000e+03 2.992935562133789062e+01 -9.530518531799316406e+00 -3.749037394300103188e-03 4.031770396977663040e-03 8.481989789288491011e-05 8.653962286189198494e-04
3.240000000000000000e+03 3.318230056762695312e+01 -1.237425136566162109e+01 -4.915822646580636501e-04 1.913147047162055969e-02 5.591966211795806885e-03 -7.139385212212800980e-03
3.241000000000000000e+03 3.491600799560546875e+01 -1.780008316040039062e+01 7.261914666742086411e-03 2.325639128684997559e-02 9.155492298305034637e-03 -1.265362277626991272e-02
3.242000000000000000e+03 3.593567276000976562e+01 -1.717668151855468750e+01 5.058220122009515762e-03 2.408382669091224670e-02 8.742613717913627625e-03 -1.194558013230562210e-02
3.243000000000000000e+03 4.069825363159179688e+01 -2.522529983520507812e+01 8.492152206599712372e-03 3.137427568435668945e-02 1.195992808789014816e-02 -1.624758727848529816e-02
3.244000000000000000e+03 4.042905426025390625e+01 -2.720062637329101562e+01 1.069610938429832458e-02 3.200160712003707886e-02 1.280931476503610611e-02 -1.855481974780559540e-02
3.245000000000000000e+03 4.377494430541992188e+01 -2.737798690795898438e+01 6.296678911894559860e-03 3.812564909458160400e-02 1.332669891417026520e-02 -1.436781883239746094e-02
3.246000000000000000e+03 4.193365478515625000e+01 -2.945151329040527344e+01 1.313523110002279282e-02 3.886684775352478027e-02 1.560062356293201447e-02 -2.203695662319660187e-02
3.247000000000000000e+03 4.270356369018554688e+01 -3.055532455444335938e+01 1.338344067335128784e-02 4.433396458625793457e-02 1.731522195041179657e-02 -2.312859334051609039e-02
3.248000000000000000e+03 4.476121902465820312e+01 -3.493529510498046875e+01 1.040826644748449326e-02 7.893467694520950317e-02 2.680288255214691162e-02 -1.347812637686729431e-02
3.249000000000000000e+03 4.600310897827148438e+01 -3.641455459594726562e+01 8.810164406895637512e-03 5.372626334428787231e-02 1.876092888414859772e-02 -1.227233372628688812e-02
3.250000000000000000e+03 3.736230087280273438e+01 -3.765167617797851562e+01 -7.203271146863698959e-03 -6.083995103836059570e-03 -3.986179828643798828e-03 9.322090074419975281e-03
3.251000000000000000e+03 2.374851799011230469e+01 -1.553667736053466797e+01 -1.484312932007014751e-03 -1.318559632636606693e-03 -8.408617577515542507e-04 1.056953682564198971e-03
3.252000000000000000e+03 2.338446426391601562e+01 -1.731346321105957031e+01 -1.891519990749657154e-03 -5.125920288264751434e-04 -7.212336058728396893e-04 1.579076517373323441e-03
3.253000000000000000e+03 2.039036369323730469e+01 9.519572556018829346e-02 1.516370568424463272e-03 6.160303205251693726e-02 1.893582008779048920e-02 6.834166496992111206e-02
3.254000000000000000e+03 6.442456054687500000e+01 2.817904663085937500e+01 -2.071016700938344002e-03 2.229965175502002239e-04 -5.544060841202735901e-04 8.949473849497735500e-04
3.255000000000000000e+03 7.062939453125000000e+01 2.768946075439453125e+01 -9.753732010722160339e-04 -2.863887930288910866e-04 -3.785285807680338621e-04 9.362605051137506962e-04
3.256000000000000000e+03 4.920019149780273438e+01 2.991607284545898438e+01 -1.840289565734565258e-03 -1.476408098824322224e-03 -9.950093226507306099e-04 -1.659266767092049122e-03
3.257000000000000000e+03 3.990225219726562500e+01 2.065509033203125000e+01 -1.090666092932224274e-02 -8.155605755746364594e-03 -5.718679632991552353e-03 -1.051350403577089310e-02
3.258000000000000000e+03 4.629555511474609375e+01 2.719556808471679688e+01 -3.385508898645639420e-03 -2.634791657328605652e-03 -1.806090236641466618e-03 -3.083151765167713165e-03
3.259000000000000000e+03 5.807617568969726562e+01 2.118292999267578125e+01 -5.553090944886207581e-03 2.169213956221938133e-03 -1.015163143165409565e-03 2.323360415175557137e-03
3.260000000000000000e+03 6.633310699462890625e+01 1.566030216217041016e+01 -2.220527501776814461e-03 -6.546488730236887932e-04 -8.625529007986187935e-04 4.433209542185068130e-03
3.261000000000000000e+03 7.223271179199218750e+01 1.933105278015136719e+01 -9.068488143384456635e-04 -1.661832560785114765e-03 -7.706044125370681286e-04 2.382244449108839035e-03
3.262000000000000000e+03 4.087560272216796875e+01 1.371185016632080078e+01 -3.601659461855888367e-02 1.007589325308799744e-02 -7.782210130244493484e-03 2.973895752802491188e-03
3.263000000000000000e+03 3.311000061035156250e+01 1.262499427795410156e+01 -1.388402283191680908e-01 -4.458754137158393860e-02 -5.502833425998687744e-02 -7.812479138374328613e-02
3.264000000000000000e+03 6.033679962158203125e+01 8.565927505493164062e+00 -1.516241696663200855e-03 7.189710158854722977e-04 -2.391812158748507500e-04 7.150966208428144455e-03
3.265000000000000000e+03 6.730528259277343750e+01 8.781121253967285156e+00 -8.905493305064737797e-04 -2.555957296863198280e-03 -1.033951994031667709e-03 5.633166525512933731e-03
3.266000000000000000e+03 7.190579986572265625e+01 1.235584163665771484e+01 -6.952447583898901939e-04 -3.552403766661882401e-03 -1.274294569157063961e-03 3.789527574554085732e-03
3.267000000000000000e+03 5.986513137817382812e+01 3.264337301254272461e+00 1.178232952952384949e-03 1.278784766327589750e-04 3.918334259651601315e-04 6.734169088304042816e-03
3.268000000000000000e+03 6.658467864990234375e+01 2.127465486526489258e+00 4.038614570163190365e-04 -3.688919823616743088e-03 -9.855175158008933067e-04 5.818525329232215881e-03
3.269000000000000000e+03 7.171707153320312500e+01 5.563390731811523438e+00 -1.544895931147038937e-04 -5.874279886484146118e-03 -1.808630884625017643e-03 4.480688367038965225e-03
3.270000000000000000e+03 5.967520523071289062e+01 -4.830611705780029297e+00 2.709277439862489700e-03 1.294160843826830387e-03 1.201031496748328209e-03 3.988912329077720642e-03
3.271000000000000000e+03 6.586869812011718750e+01 -3.613528013229370117e+00 1.150348805822432041e-03 -3.787312889471650124e-03 -7.910892018117010593e-04 5.112377926707267761e-03
3.272000000000000000e+03 7.180146789550781250e+01 -2.455584526062011719e+00 3.556283481884747744e-04 -8.721064776182174683e-03 -2.509630983695387840e-03 4.189737141132354736e-03
3.273000000000000000e+03 1.141538715362548828e+01 -9.531558990478515625e+00 3.627905389294028282e-03 6.763399112969636917e-03 3.117391373962163925e-03 8.162832818925380707e-03
3.274000000000000000e+03 1.960187339782714844e+01 -1.797180175781250000e+01 -2.940186066552996635e-03 5.189167335629463196e-03 6.746943108737468719e-04 2.936417004093527794e-03
3.275000000000000000e+03 6.491246223449707031e+00 -1.786964035034179688e+01 -6.332101766020059586e-04 8.947575464844703674e-03 2.494309563189744949e-03 5.083799827843904495e-03
3.276000000000000000e+03 5.732948184013366699e-01 -1.073084926605224609e+01 -2.383316859777551144e-05 1.738874241709709167e-03 5.145122995600104332e-04 4.843789793085306883e-04
3.277000000000000000e+03 1.833061790466308594e+01 -2.105950736999511719e+01 -3.067586803808808327e-03 5.319762974977493286e-03 6.756528746336698532e-04 3.854831913486123085e-03
3.278000000000000000e+03 2.743115234375000000e+01 -2.629115867614746094e+01 -2.221276750788092613e-03 -5.508364178240299225e-03 -2.318892395123839378e-03 3.954788204282522202e-03
3.279000000000000000e+03 6.221693158149719238e-01 -1.774900436401367188e+01 7.257621473399922252e-05 9.040735661983489990e-03 2.733993576839566231e-03 6.640719948336482048e-04
3.280000000000000000e+03 1.807101440429687500e+01 -2.874307823181152344e+01 -3.077727975323796272e-03 4.751889966428279877e-03 5.022485856898128986e-04 3.715528640896081924e-03
3.281000000000000000e+03 5.861222743988037109e+00 -3.256388473510742188e+01 -6.127491360530257225e-04 1.435946207493543625e-02 4.124013707041740417e-03 1.783764222636818886e-03
3.282000000000000000e+03 3.177045631408691406e+01 -3.141636276245117188e+01 -4.738964140415191650e-03 -9.841834194958209991e-03 -4.374239593744277954e-03 6.909551098942756653e-03
3.283000000000000000e+03 6.908562779426574707e-01 -2.340849304199218750e+01 7.634968642378225923e-05 1.443300303071737289e-02 4.352805670350790024e-03 5.705392686650156975e-04
3.284000000000000000e+03 6.910752654075622559e-01 -3.050816917419433594e+01 -1.106477211578749120e-04 1.885648444294929504e-02 5.623750854283571243e-03 3.041265590582042933e-04
3.285000000000000000e+03 6.733387756347656250e+01 -4.086071777343750000e+01 5.978991976007819176e-04 -4.808435216546058655e-03 -1.263160724192857742e-03 1.633719657547771931e-04
3.286000000000000000e+03 7.158374023437500000e+01 -3.462585449218750000e+01 4.654190561268478632e-04 -1.397479418665170670e-02 -4.052812699228525162e-03 5.845369305461645126e-04
3.287000000000000000e+03 6.785581207275390625e+01 -2.397794723510742188e+01 1.100597321055829525e-03 -6.201459560543298721e-03 -1.530258683487772942e-03 2.097151009365916252e-03
3.288000000000000000e+03 5.847034454345703125e+01 -1.991482162475585938e+01 2.232937142252922058e-03 8.425422944128513336e-03 3.197508165612816811e-03 1.291569438762962818e-03
3.289000000000000000e+03 6.251740646362304688e+01 -4.090571212768554688e+01 3.752928751055151224e-04 6.324789021164178848e-03 2.010024618357419968e-03 -3.218499477952718735e-04
3.290000000000000000e+03 6.587291717529296875e+01 -3.251277160644531250e+01 1.444096444174647331e-03 -1.825112150982022285e-03 -1.143047193181701005e-04 4.585977294482290745e-04
3.291000000000000000e+03 5.338370895385742188e+01 -2.482007408142089844e+01 3.552830312401056290e-03 1.929750666022300720e-02 6.855101324617862701e-03 -7.800698513165116310e-04
3.292000000000000000e+03 4.740706253051757812e+01 -2.514510726928710938e+01 3.088908968493342400e-03 3.112362697720527649e-02 1.026376057416200638e-02 -6.463038269430398941e-03
3.293000000000000000e+03 4.822553253173828125e+01 -3.271259307861328125e+01 1.069796830415725708e-02 3.928226605057716370e-02 1.499407086521387100e-02 -6.671155337244272232e-03
3.294000000000000000e+03 7.165396118164062500e+01 -3.166578102111816406e+01 5.986040923744440079e-04 -1.377203408628702164e-02 -3.952029161155223846e-03 8.985663880594074726e-04
3.295000000000000000e+03 6.648281097412109375e+01 -3.069679260253906250e+01 1.100110239349305630e-03 -3.309741849079728127e-03 -6.628894479945302010e-04 8.333851583302021027e-04
3.296000000000000000e+03 5.815194320678710938e+01 -2.854958534240722656e+01 3.262534737586975098e-03 1.096149440854787827e-02 4.267208743840456009e-03 -3.045687335543334484e-04
3.297000000000000000e+03 7.000930786132812500e+01 -2.294888687133789062e+01 7.541718077845871449e-04 -9.829428046941757202e-03 -2.722576726227998734e-03 2.241647802293300629e-03
3.298000000000000000e+03 6.285942840576171875e+01 -2.499212837219238281e+01 1.886247075162827969e-03 2.287875162437558174e-03 1.252236659638583660e-03 1.767547568306326866e-03
3.299000000000000000e+03 5.459175491333007812e+01 -2.415146446228027344e+01 3.095028689131140709e-03 1.683434844017028809e-02 5.978813394904136658e-03 -5.790108698420226574e-04
3.300000000000000000e+03 3.561014175415039062e+01 -1.897940254211425781e+01 7.382985204458236694e-03 2.481302805244922638e-02 9.658804163336753845e-03 -1.389221753925085068e-02
3.301000000000000000e+03 4.309856414794921875e+01 -2.157425498962402344e+01 3.696815110743045807e-03 2.911913022398948669e-02 9.844783693552017212e-03 -1.060627587139606476e-02
3.302000000000000000e+03 7.234001159667968750e+01 -1.516074275970458984e+01 4.508795391302555799e-04 -1.255320291966199875e-02 -3.630697028711438179e-03 2.816861029714345932e-03
3.303000000000000000e+03 6.606959533691406250e+01 -1.899605751037597656e+01 1.212866045534610748e-03 -3.448655596002936363e-03 -6.707368302159011364e-04 2.868021139875054359e-03
3.304000000000000000e+03 5.376953887939453125e+01 -2.175949287414550781e+01 2.336369128897786140e-03 1.708494499325752258e-02 5.826394539326429367e-03 -8.702104096300899982e-04
3.305000000000000000e+03 3.282258224487304688e+01 -1.423617172241210938e+01 4.568469710648059845e-03 1.786371693015098572e-02 6.729656364768743515e-03 -9.820033796131610870e-03
3.306000000000000000e+03 7.159742736816406250e+01 -8.784579277038574219e+00 4.453696601558476686e-04 -1.019751653075218201e-02 -2.925643930211663246e-03 3.604961559176445007e-03
3.307000000000000000e+03 6.656255340576171875e+01 -1.220998668670654297e+01 1.150760683231055737e-03 -4.455589223653078079e-03 -9.914485272020101547e-04 3.665499854832887650e-03
3.308000000000000000e+03 5.293385696411132812e+01 -1.199365997314453125e+01 2.783975098282098770e-03 1.194970216602087021e-02 4.420103039592504501e-03 -1.638569636270403862e-03
3.309000000000000000e+03 5.199769592285156250e+01 3.279338455200195312e+01 -4.453610163182020187e-04 -4.210889746900647879e-04 -2.599349827505648136e-04 -4.454075242392718792e-04
3.310000000000000000e+03 5.418633651733398438e+01 3.368053436279296875e+01 -6.074506673030555248e-04 -2.411018249404150993e-05 -1.894682645797729492e-04 -2.623867767397314310e-04
3.311000000000000000e+03 5.147167587280273438e+01 3.218276977539062500e+01 -7.078765193000435829e-04 -6.429195054806768894e-04 -4.052387957926839590e-04 -6.750585162080824375e-04
3.312000000000000000e+03 5.119642639160156250e+01 3.188797378540039062e+01 -8.554369560442864895e-04 -7.486682152375578880e-04 -4.812315455637872219e-04 -7.850934634916484356e-04
3.313000000000000000e+03 5.173876571655273438e+01 3.248458862304687500e+01 -5.784881068393588066e-04 -5.460884422063827515e-04 -3.373729705344885588e-04 -5.497555830515921116e-04
3.314000000000000000e+03 5.006017684936523438e+01 3.075249099731445312e+01 -1.397241023369133472e-03 -1.131551573053002357e-03 -7.586377905681729317e-04 -1.244977815076708794e-03
3.315000000000000000e+03 5.091580581665039062e+01 3.159904289245605469e+01 -9.856198448687791824e-04 -8.340663043782114983e-04 -5.459058447740972042e-04 -9.095400455407798290e-04
3.316000000000000000e+03 4.891243743896484375e+01 2.963862419128417969e+01 -2.042738953605294228e-03 -1.621193252503871918e-03 -1.099179615266621113e-03 -1.795861637219786644e-03
3.317000000000000000e+03 4.833271789550781250e+01 2.909135818481445312e+01 -2.436330774798989296e-03 -1.840624841861426830e-03 -1.283086719922721386e-03 -2.086468040943145752e-03
3.318000000000000000e+03 4.804119491577148438e+01 2.882170867919921875e+01 -2.591334749013185501e-03 -1.911992672830820084e-03 -1.350998296402394772e-03 -2.239749999716877937e-03
3.319000000000000000e+03 4.775090026855468750e+01 2.855322647094726562e+01 -2.787359524518251419e-03 -2.027471782639622688e-03 -1.444449415430426598e-03 -2.342029241845011711e-03
3.320000000000000000e+03 4.862335205078125000e+01 2.936351585388183594e+01 -2.226292854174971581e-03 -1.719982596114277840e-03 -1.183882588520646095e-03 -1.962278503924608231e-03
3.321000000000000000e+03 4.462039566040039062e+01 2.546785545349121094e+01 -5.212925840169191360e-03 -4.549144301563501358e-03 -2.928620902821421623e-03 -4.902348387986421585e-03
3.322000000000000000e+03 4.545078277587890625e+01 2.635462379455566406e+01 -3.990829456597566605e-03 -3.519861726090312004e-03 -2.253207378089427948e-03 -3.694927785545587540e-03
3.323000000000000000e+03 4.401213455200195312e+01 2.493212890625000000e+01 -6.270515266805887222e-03 -4.958560690283775330e-03 -3.368722740560770035e-03 -5.650853738188743591e-03
3.324000000000000000e+03 4.370989227294921875e+01 2.466883468627929688e+01 -6.786900106817483902e-03 -5.243902560323476791e-03 -3.609240753576159477e-03 -5.781782791018486023e-03
3.325000000000000000e+03 4.341056060791015625e+01 2.440537071228027344e+01 -7.002482190728187561e-03 -5.179536528885364532e-03 -3.654605709016323090e-03 -6.147471256554126740e-03
3.326000000000000000e+03 4.431725692749023438e+01 2.519713973999023438e+01 -5.874000955373048782e-03 -4.910148214548826218e-03 -3.235244657844305038e-03 -5.186047870665788651e-03
3.327000000000000000e+03 4.311320495605468750e+01 2.414143943786621094e+01 -7.378068752586841583e-03 -5.501717794686555862e-03 -3.863936057314276695e-03 -6.216470617800951004e-03
3.328000000000000000e+03 4.252203369140625000e+01 2.361054420471191406e+01 -7.826808840036392212e-03 -5.967947654426097870e-03 -4.138426855206489563e-03 -6.704745348542928696e-03
3.329000000000000000e+03 4.193499374389648438e+01 2.307259559631347656e+01 -8.563567884266376495e-03 -6.810205988585948944e-03 -4.612132441252470016e-03 -7.445196155458688736e-03
3.330000000000000000e+03 4.164296340942382812e+01 2.280305099487304688e+01 -8.949154987931251526e-03 -7.026192266494035721e-03 -4.792604129761457443e-03 -8.129390887916088104e-03
3.331000000000000000e+03 4.134993743896484375e+01 2.253500938415527344e+01 -9.897273965179920197e-03 -7.576345931738615036e-03 -5.242086015641689301e-03 -8.303225040435791016e-03
3.332000000000000000e+03 4.100939941406250000e+01 2.175109481811523438e+01 -1.047646533697843552e-02 -7.011862937361001968e-03 -5.246498622000217438e-03 -8.872101083397865295e-03
3.333000000000000000e+03 4.075743484497070312e+01 2.200531959533691406e+01 -1.071603223681449890e-02 -7.626849226653575897e-03 -5.502864252775907516e-03 -8.669441565871238708e-03
3.334000000000000000e+03 4.017044448852539062e+01 2.147514915466308594e+01 -1.044334843754768372e-02 -7.865270599722862244e-03 -5.492585711181163788e-03 -8.797456510365009308e-03
3.335000000000000000e+03 3.988219451904296875e+01 2.120798301696777344e+01 -9.747461415827274323e-03 -7.885824888944625854e-03 -5.289985798299312592e-03 -9.420472197234630585e-03
3.336000000000000000e+03 3.959560012817382812e+01 2.093636131286621094e+01 -1.012540049850940704e-02 -8.945306763052940369e-03 -5.721211899071931839e-03 -9.271086193621158600e-03
3.337000000000000000e+03 3.826535415649414062e+01 1.946944236755371094e+01 -1.118196547031402588e-02 -1.483655348420143127e-02 -7.805556058883666992e-03 -1.364514138549566269e-02
3.338000000000000000e+03 3.881069183349609375e+01 1.954249382019042969e+01 -1.271369494497776031e-02 -1.173730101436376572e-02 -7.335298694670200348e-03 -1.334563829004764557e-02
3.339000000000000000e+03 3.751787567138671875e+01 1.853221511840820312e+01 -1.665386743843555450e-02 -2.059903740882873535e-02 -1.117587089538574219e-02 -1.757802627980709076e-02
3.340000000000000000e+03 3.700838470458984375e+01 1.791403007507324219e+01 -2.093063667416572571e-02 -2.335719950497150421e-02 -1.328635122627019882e-02 -2.096428908407688141e-02
3.341000000000000000e+03 3.731786727905273438e+01 1.767218017578125000e+01 -2.252620644867420197e-02 -1.918681338429450989e-02 -1.251390576362609863e-02 -2.119291946291923523e-02
3.342000000000000000e+03 3.674832534790039062e+01 1.760925102233886719e+01 -2.177486941218376160e-02 -2.383042499423027039e-02 -1.368158776313066483e-02 -2.351250685751438141e-02
3.343000000000000000e+03 3.488689804077148438e+01 1.551125049591064453e+01 -4.134998470544815063e-02 -3.922659158706665039e-02 -2.417297288775444031e-02 -3.797774389386177063e-02
3.344000000000000000e+03 3.434467697143554688e+01 1.491891765594482422e+01 -4.984621331095695496e-02 -4.765155166387557983e-02 -2.924933098256587982e-02 -4.621245339512825012e-02
3.345000000000000000e+03 3.407100677490234375e+01 1.462090015411376953e+01 -5.348235368728637695e-02 -5.088214203715324402e-02 -3.130934759974479675e-02 -5.461947992444038391e-02
3.346000000000000000e+03 3.379420852661132812e+01 1.432541656494140625e+01 -6.525281816720962524e-02 -5.966173484921455383e-02 -3.747436776757240295e-02 -5.827418714761734009e-02
3.347000000000000000e+03 3.351002502441406250e+01 1.403610229492187500e+01 -7.156874984502792358e-02 -6.166069954633712769e-02 -3.996883332729339600e-02 -6.898748874664306641e-02
3.348000000000000000e+03 3.292686462402343750e+01 1.348245334625244141e+01 -8.791003376245498657e-02 -6.959211081266403198e-02 -4.725064337253570557e-02 -8.353902399539947510e-02
3.349000000000000000e+03 3.128689575195312500e+01 1.177127361297607422e+01 -2.336676716804504395e-01 -1.601563096046447754e-01 -1.181471943855285645e-01 -1.979278028011322021e-01
3.350000000000000000e+03 3.050820350646972656e+01 8.970028877258300781e+00 -4.454942047595977783e-01 2.203431278467178345e-01 -6.754532456398010254e-02 2.241682261228561401e-01
3.351000000000000000e+03 3.009214210510253906e+01 9.567763328552246094e+00 -7.555527091026306152e-01 1.218305677175521851e-01 -1.901166439056396484e-01 -1.457483023405075073e-01
3.352000000000000000e+03 2.943383789062500000e+01 1.004770755767822266e+01 -8.227819204330444336e-01 -2.306628078222274780e-01 -3.160334229469299316e-01 -6.336989998817443848e-01
3.353000000000000000e+03 2.914036750793457031e+01 9.879010200500488281e+00 -9.035299420356750488e-01 -7.047302126884460449e-01 -4.824780523777008057e-01 -8.228196501731872559e-01
3.354000000000000000e+03 2.886811828613281250e+01 9.647815704345703125e+00 -1.052371263504028320e+00 -8.271039724349975586e-01 -5.638425946235656738e-01 -8.957373499870300293e-01
3.355000000000000000e+03 2.959766960144042969e+01 9.138315200805664062e+00 -1.041893482208251953e+00 3.280221521854400635e-01 -2.141613960266113281e-01 4.573947750031948090e-03
3.356000000000000000e+03 2.864689064025878906e+01 9.398505210876464844e+00 -1.303886651992797852e+00 -9.520004391670227051e-01 -6.767660975456237793e-01 -1.126345276832580566e+00
3.357000000000000000e+03 2.809104347229003906e+01 8.767459869384765625e+00 -2.868431091308593750e+00 -1.137062191963195801e+00 -1.201647996902465820e+00 -1.772647261619567871e+00
3.358000000000000000e+03 2.771314430236816406e+01 8.554718017578125000e+00 -3.243314266204833984e+00 -1.550743222236633301e+00 -1.438217282295227051e+00 -2.675792694091796875e+00
3.359000000000000000e+03 2.727044486999511719e+01 8.159401893615722656e+00 -3.311795234680175781e+00 -2.249475002288818359e+00 -1.668381094932556152e+00 -2.658955097198486328e+00
3.360000000000000000e+03 2.691504478454589844e+01 7.947954177856445312e+00 -4.218547821044921875e+00 -2.659900188446044922e+00 -2.063534498214721680e+00 -2.995357275009155273e+00
3.361000000000000000e+03 2.632411575317382812e+01 7.528631687164306641e+00 -4.732850074768066406e+00 -2.566638231277465820e+00 -2.189846515655517578e+00 -3.391730070114135742e+00
3.362000000000000000e+03 2.598514938354492188e+01 7.301605224609375000e+00 -5.172192096710205078e+00 -2.686495780944824219e+00 -2.357606172561645508e+00 -3.463524580001831055e+00
3.363000000000000000e+03 2.616884040832519531e+01 7.426892280578613281e+00 -4.532511711120605469e+00 -3.004052639007568359e+00 -2.260969400405883789e+00 -3.663424253463745117e+00
3.364000000000000000e+03 2.648079872131347656e+01 7.650259971618652344e+00 -4.367233753204345703e+00 -2.879654407501220703e+00 -2.174066543579101562e+00 -3.651422739028930664e+00
3.365000000000000000e+03 2.664255332946777344e+01 7.755462169647216797e+00 -4.600492477416992188e+00 -2.998842954635620117e+00 -2.279800653457641602e+00 -3.284939527511596680e+00
3.366000000000000000e+03 2.673055458068847656e+01 7.884849071502685547e+00 -4.150563716888427734e+00 -2.928215980529785156e+00 -2.123634099960327148e+00 -3.641465425491333008e+00
3.367000000000000000e+03 2.707941627502441406e+01 8.053482055664062500e+00 -3.681430578231811523e+00 -2.402588367462158203e+00 -1.825205683708190918e+00 -3.066250801086425781e+00
3.368000000000000000e+03 2.733055496215820312e+01 8.364067077636718750e+00 -3.903030395507812500e+00 -2.731667518615722656e+00 -1.990409374237060547e+00 -3.167994022369384766e+00
3.369000000000000000e+03 2.755177116394042969e+01 8.395695686340332031e+00 -3.658184766769409180e+00 -1.943330168724060059e+00 -1.680454492568969727e+00 -2.481729745864868164e+00
3.370000000000000000e+03 2.878825187683105469e+01 5.364470481872558594e+00 7.066731154918670654e-02 2.316850423812866211e-01 9.070570766925811768e-02 4.674997180700302124e-02
3.371000000000000000e+03 2.813946723937988281e+01 4.929859161376953125e+00 7.911524921655654907e-02 6.940724700689315796e-02 4.455674812197685242e-02 5.948861315846443176e-02
3.372000000000000000e+03 2.896986770629882812e+01 5.459137916564941406e+00 7.218262553215026855e-02 2.957096397876739502e-01 1.103676781058311462e-01 2.197574079036712646e-02
3.373000000000000000e+03 2.859707832336425781e+01 4.985912322998046875e+00 7.027320563793182373e-02 1.546008139848709106e-01 6.746220588684082031e-02 5.723124369978904724e-02
3.374000000000000000e+03 2.846105957031250000e+01 4.880220413208007812e+00 7.088708877563476562e-02 1.302622258663177490e-01 6.034479290246963501e-02 5.933658406138420105e-02
3.375000000000000000e+03 2.660160827636718750e+01 3.956520318984985352e+00 6.355522572994232178e-02 -1.235758792608976364e-02 1.535929180681705475e-02 1.824197359383106232e-02
3.376000000000000000e+03 2.690196800231933594e+01 4.212358951568603516e+00 6.594233959913253784e-02 -1.189049240201711655e-02 1.621555350720882416e-02 2.233018353581428528e-02
3.377000000000000000e+03 2.589677429199218750e+01 3.507132291793823242e+00 5.952578783035278320e-02 -1.271988172084093094e-02 1.404177211225032806e-02 1.440548803657293320e-02
3.378000000000000000e+03 2.080744934082031250e+01 3.272464573383331299e-01 2.154012396931648254e-02 3.540188446640968323e-02 1.708260178565979004e-02 6.548643112182617188e-02
3.379000000000000000e+03 2.019295501708984375e+01 2.344528213143348694e-02 1.235843542963266373e-02 8.595430850982666016e-02 2.949382364749908447e-02 5.079624056816101074e-02
3.380000000000000000e+03 2.022215461730957031e+01 -4.679160118103027344e-01 4.357955977320671082e-02 1.089373528957366943e-01 4.575507342815399170e-02 6.147723272442817688e-02
3.381000000000000000e+03 1.987430572509765625e+01 -1.173398345708847046e-01 1.749838516116142273e-02 7.701338082551956177e-02 2.835353091359138489e-02 3.943202272057533264e-02
3.382000000000000000e+03 1.874628448486328125e+01 -9.831814765930175781e-01 2.903575822710990906e-02 4.625758901238441467e-02 2.258800528943538666e-02 2.560763433575630188e-02
3.383000000000000000e+03 1.893458747863769531e+01 -8.441256880760192871e-01 3.061555698513984680e-02 5.516614764928817749e-02 2.573451213538646698e-02 2.966224774718284607e-02
3.384000000000000000e+03 1.816972351074218750e+01 -1.678602218627929688e+00 2.964510768651962280e-02 3.631434962153434753e-02 1.978783681988716125e-02 2.528781630098819733e-02
3.385000000000000000e+03 1.819826889038085938e+01 -1.413006067276000977e+00 2.979219518601894379e-02 3.210660442709922791e-02 1.856963895261287689e-02 2.442534640431404114e-02
3.386000000000000000e+03 1.839092063903808594e+01 -1.403647303581237793e+00 3.300254419445991516e-02 3.488912060856819153e-02 2.036749944090843201e-02 2.470349520444869995e-02
3.387000000000000000e+03 1.789127159118652344e+01 -1.461379528045654297e+00 2.673733606934547424e-02 2.464035898447036743e-02 1.541330851614475250e-02 1.817885413765907288e-02
3.388000000000000000e+03 1.739155578613281250e+01 -1.790533423423767090e+00 2.396138571202754974e-02 1.395743153989315033e-02 1.137564517557621002e-02 1.373896002769470215e-02
3.389000000000000000e+03 1.753927230834960938e+01 -1.655795931816101074e+00 2.374873496592044830e-02 1.892924867570400238e-02 1.280339527875185013e-02 1.440047379583120346e-02
3.390000000000000000e+03 1.704989814758300781e+01 -2.082457304000854492e+00 2.429555729031562805e-02 1.044815033674240112e-02 1.042311266064643860e-02 1.296825334429740906e-02
3.391000000000000000e+03 1.663563728332519531e+01 -2.349551200866699219e+00 2.315049432218074799e-02 6.965522654354572296e-03 9.034804999828338623e-03 1.057120505720376968e-02
3.392000000000000000e+03 1.749488449096679688e+01 -2.274535417556762695e+00 2.832893095910549164e-02 2.269679121673107147e-02 1.530771609395742416e-02 1.960549131035804749e-02
3.393000000000000000e+03 1.637330436706542969e+01 -2.459639310836791992e+00 2.247869595885276794e-02 4.529880359768867493e-03 8.102572523057460785e-03 1.038594078272581100e-02
3.394000000000000000e+03 1.675778388977050781e+01 -2.910481929779052734e+00 2.546279691159725189e-02 1.413355395197868347e-02 1.187890488654375076e-02 1.682233065366744995e-02
3.395000000000000000e+03 1.244532871246337891e+01 -2.311707973480224609e+00 4.549528006464242935e-03 -5.733381840400397778e-05 1.347658224403858185e-03 6.250286824069917202e-04
3.396000000000000000e+03 1.325437736511230469e+01 -2.386590480804443359e+00 6.229123100638389587e-03 -4.523075476754456758e-04 1.733044744469225407e-03 8.610408985987305641e-04
3.397000000000000000e+03 1.412452697753906250e+01 -2.432066679000854492e+00 9.029898792505264282e-03 9.346307706437073648e-06 2.711773617193102837e-03 1.627667457796633244e-03
3.398000000000000000e+03 1.097679138183593750e+01 -2.890701055526733398e+00 4.283320624381303787e-03 -5.027027145843021572e-05 1.269915024749934673e-03 1.226478256285190582e-03
3.399000000000000000e+03 9.462036132812500000e+00 -1.913447618484497070e+00 1.156206359155476093e-03 1.569120358908548951e-04 3.939355374313890934e-04 2.535698586143553257e-04
3.400000000000000000e+03 8.657801628112792969e+00 -1.894103884696960449e+00 8.597135310992598534e-04 6.531547842314466834e-05 2.775086904875934124e-04 2.843886613845825195e-04
3.401000000000000000e+03 7.845564365386962891e+00 -1.887696623802185059e+00 5.698160966858267784e-04 1.273531524930149317e-04 2.091507776640355587e-04 1.398744061589241028e-04
3.402000000000000000e+03 7.029999732971191406e+00 -1.890554308891296387e+00 3.833880182355642319e-04 6.843545270385220647e-05 1.355470303678885102e-04 1.000060728983953595e-04
3.403000000000000000e+03 5.393970489501953125e+00 -1.919049263000488281e+00 9.634124580770730972e-05 9.766675793798640370e-05 5.820240403409115970e-05 -7.156962965382263064e-05
3.404000000000000000e+03 4.573736190795898438e+00 -1.945125102996826172e+00 1.291015632887138054e-05 9.830857015913352370e-05 3.336561712785623968e-05 -1.920857612276449800e-04
3.405000000000000000e+03 6.310923099517822266e+00 -2.699446916580200195e+00 8.953885408118367195e-04 1.694859092822298408e-04 3.194623277522623539e-04 2.269906690344214439e-04
3.406000000000000000e+03 3.754255294799804688e+00 -1.979385733604431152e+00 -2.092499562422744930e-05 8.172880188794806600e-05 1.824114224291406572e-05 -2.189110964536666870e-04
3.407000000000000000e+03 2.101691722869873047e+00 -2.076893329620361328e+00 -3.449528230703435838e-05 -7.334777910728007555e-05 -3.235291660530492663e-05 -2.965478051919490099e-04
3.408000000000000000e+03 1.265394806861877441e+00 -2.140593051910400391e+00 -1.970079392776824534e-05 -1.794240524759516120e-04 -5.973745282972231507e-05 -2.468698658049106598e-04
3.409000000000000000e+03 4.232078492641448975e-01 -2.189421415328979492e+00 -1.488555335527053103e-05 -3.124283975921571255e-04 -9.819418482948094606e-05 -9.190477430820465088e-05
3.410000000000000000e+03 2.076620340347290039e+00 -4.162833023071289062e+01 3.123429196421056986e-04 1.996691338717937469e-02 6.083777174353599548e-03 -8.712956332601606846e-05
3.411000000000000000e+03 5.210047721862792969e+00 -3.747417068481445312e+01 -3.828509070444852114e-04 1.643817685544490814e-02 4.816597793251276016e-03 1.177275553345680237e-03
3.412000000000000000e+03 1.061382174491882324e+00 -3.864159393310546875e+01 -1.221872662426903844e-05 2.034608088433742523e-02 6.100158672779798508e-03 -1.299082650803029537e-04
3.413000000000000000e+03 6.808755993843078613e-01 -3.477625656127929688e+01 1.197771853185258806e-04 2.033614926040172577e-02 6.136777810752391815e-03 1.784728665370494127e-04
3.414000000000000000e+03 7.959405183792114258e-01 -3.338945007324218750e+01 -1.532954483991488814e-04 1.996861211955547333e-02 5.944595206528902054e-03 2.488155732862651348e-04
3.415000000000000000e+03 7.179277539253234863e-01 -2.910635375976562500e+01 2.370658876316156238e-05 1.815731823444366455e-02 5.454307422041893005e-03 3.835394163616001606e-04
3.416000000000000000e+03 7.597633004188537598e-01 -2.770336341857910156e+01 -9.405773744219914079e-05 1.734364777803421021e-02 5.174877122044563293e-03 4.611560434568673372e-04
3.417000000000000000e+03 7.677456736564636230e-01 -2.628008842468261719e+01 5.642432006425224245e-05 1.648821122944355011e-02 4.963390529155731201e-03 4.828773380722850561e-04
3.418000000000000000e+03 6.544935107231140137e-01 -2.198668289184570312e+01 -8.856473868945613503e-05 1.320629566907882690e-02 3.935319371521472931e-03 5.831786547787487507e-04
3.419000000000000000e+03 6.352129578590393066e-01 -2.057104682922363281e+01 6.984572974033653736e-05 1.190315745770931244e-02 3.591900924220681190e-03 6.053685210645198822e-04
3.420000000000000000e+03 1.875238776206970215e+00 -1.912051391601562500e+01 1.349202830169815570e-05 1.015366148203611374e-02 3.050145925953984261e-03 1.822814112529158592e-03
3.421000000000000000e+03 6.170203685760498047e-01 -1.634191894531250000e+01 -7.980514055816456676e-05 7.512585725635290146e-03 2.229834208264946938e-03 6.721050594933331013e-04
3.422000000000000000e+03 6.080983281135559082e-01 -1.493679046630859375e+01 8.519251423422247171e-05 5.979316774755716324e-03 1.819352852180600166e-03 6.644326495006680489e-04
3.423000000000000000e+03 5.954322814941406250e-01 -1.353278064727783203e+01 -5.090620834380388260e-05 4.458226263523101807e-03 1.322195981629192829e-03 6.275469786487519741e-04
3.424000000000000000e+03 1.834951877593994141e+00 -1.493900775909423828e+01 -5.369484642869792879e-05 6.293477956205606461e-03 1.871934975497424603e-03 1.901178970001637936e-03
3.425000000000000000e+03 5.777421593666076660e-01 -9.333711624145507812e+00 9.564168431097641587e-05 6.788378232158720493e-04 2.323438384337350726e-04 3.848966152872890234e-04
3.426000000000000000e+03 6.052170395851135254e-01 -7.930415630340576172e+00 1.922137198562268168e-05 -8.697406155988574028e-05 -2.032580596278421581e-05 2.547162002883851528e-04
3.427000000000000000e+03 5.506497859954833984e+00 -2.748062610626220703e+00 6.723530241288244724e-04 2.241571201011538506e-04 2.689530374482274055e-04 8.420105586992576718e-05
3.428000000000000000e+03 5.649451732635498047e+00 -3.550354719161987305e+00 1.183261047117412090e-03 3.214689204469323158e-04 4.514189786277711391e-04 3.964837233070284128e-04
3.429000000000000000e+03 7.207980346679687500e+01 -4.093143844604492188e+01 2.275269944220781326e-04 -1.433960348367691040e-02 -4.233622923493385315e-03 9.718512592371553183e-05
3.430000000000000000e+03 1.277388381958007812e+01 -4.111693954467773438e+01 -2.181009156629443169e-03 9.175790473818778992e-03 2.098434371873736382e-03 4.085374239366501570e-04
3.431000000000000000e+03 7.964875030517578125e+01 3.192055130004882812e+01 1.285361008740437683e-06 5.249274909147061408e-05 1.613343374629039317e-05 -1.140657695941627026e-05
3.432000000000000000e+03 7.824521636962890625e+01 3.202270126342773438e+01 -7.583408205391606316e-06 -8.260803042503539473e-06 -4.753263510792749003e-06 -2.921878876804839820e-05
3.433000000000000000e+03 7.711930847167968750e+01 2.860593605041503906e+01 -1.161528489319607615e-04 -2.429077285341918468e-04 -1.077181732398457825e-04 1.821267214836552739e-04
3.434000000000000000e+03 7.951434326171875000e+01 2.498439216613769531e+01 -1.402863381372299045e-05 -3.337345260661095381e-04 -1.043289448716677725e-04 8.407962741330265999e-05
3.435000000000000000e+03 7.946735382080078125e+01 2.223560714721679688e+01 -1.936832995852455497e-05 -9.563281200826168060e-04 -2.927089517470449209e-04 1.452325377613306046e-04
3.436000000000000000e+03 7.944514465332031250e+01 2.085528182983398438e+01 -6.409127308870665729e-06 -1.371871214359998703e-03 -4.134841146878898144e-04 1.766110945027321577e-04
3.437000000000000000e+03 7.833525085449218750e+01 2.101973915100097656e+01 -6.659148493781685829e-05 -1.495304168201982975e-03 -4.685687017627060413e-04 5.192161188460886478e-04
3.438000000000000000e+03 7.940633392333984375e+01 1.669905281066894531e+01 -2.149111969629302621e-05 -3.044691169634461403e-03 -9.198546758852899075e-04 2.819531655404716730e-04
3.439000000000000000e+03 7.940196228027343750e+01 1.531085491180419922e+01 -4.296767656342126429e-06 -3.739380976185202599e-03 -1.123103313148021698e-03 3.095774154644459486e-04
3.440000000000000000e+03 7.939884948730468750e+01 1.392223262786865234e+01 -2.037794183706864715e-05 -4.498108755797147751e-03 -1.355545944534242153e-03 3.405383322387933731e-04
3.441000000000000000e+03 7.820128631591796875e+01 1.411531448364257812e+01 -4.664515654440037906e-05 -4.322494380176067352e-03 -1.310741761699318886e-03 9.767160518094897270e-04
3.442000000000000000e+03 7.939012908935546875e+01 9.752303123474121094e+00 4.193884251435520127e-06 -7.099680136889219284e-03 -2.128646010532975197e-03 4.063833039253950119e-04
3.443000000000000000e+03 7.938861846923828125e+01 8.361607551574707031e+00 -1.936430089699570090e-05 -8.052026852965354919e-03 -2.421417506411671638e-03 4.271529614925384521e-04
3.444000000000000000e+03 7.938752746582031250e+01 6.970664024353027344e+00 1.091624017135472968e-05 -9.030207991600036621e-03 -2.705787541344761848e-03 4.322607419453561306e-04
3.445000000000000000e+03 7.938650512695312500e+01 5.579730033874511719e+00 -1.957549102371558547e-05 -1.002954412251710892e-02 -3.014735877513885498e-03 4.465925158001482487e-04
3.446000000000000000e+03 7.816543579101562500e+01 5.774751663208007812e+00 1.452383230571285821e-06 -9.273539297282695770e-03 -2.781626069918274879e-03 1.277661765925586224e-03
3.447000000000000000e+03 7.938466644287109375e+01 1.409365177154541016e+00 1.901656287373043597e-05 -1.307546626776456833e-02 -3.916935063898563385e-03 4.468530241865664721e-04
3.448000000000000000e+03 7.938484191894531250e+01 1.884873211383819580e-02 -1.691784746071789414e-05 -1.408965326845645905e-02 -4.231971222907304764e-03 4.497136105783283710e-04
3.449000000000000000e+03 7.938346862792968750e+01 -1.372856736183166504e+00 2.643246079969685525e-05 -1.508519891649484634e-02 -4.517629742622375488e-03 4.326323396526277065e-04
3.450000000000000000e+03 7.815757751464843750e+01 -1.171850562095642090e+00 3.236861175537342206e-06 -1.379463635385036469e-02 -4.137419629842042923e-03 1.272859168238937855e-03
3.451000000000000000e+03 7.937098693847656250e+01 -5.557060718536376953e+00 -1.854103902587667108e-05 -1.790720783174037933e-02 -5.377724766731262207e-03 4.083703679498285055e-04
3.452000000000000000e+03 7.936849975585937500e+01 -6.952145099639892578e+00 2.617280370031949133e-05 -1.879235915839672089e-02 -5.629855673760175705e-03 3.949611855205148458e-04
3.453000000000000000e+03 7.936809539794921875e+01 -8.347021102905273438e+00 -1.442485063307685778e-05 -1.965039409697055817e-02 -5.899445619434118271e-03 3.860595461446791887e-04
3.454000000000000000e+03 7.810038757324218750e+01 -8.203289031982421875e+00 5.449813397717662156e-05 -1.791520230472087860e-02 -5.358211230486631393e-03 1.117732608690857887e-03
3.455000000000000000e+03 7.937580108642578125e+01 -1.252349376678466797e+01 2.889870847866404802e-05 -2.204740047454833984e-02 -6.605550181120634079e-03 3.367199096828699112e-04
3.456000000000000000e+03 7.937741851806640625e+01 -1.391249370574951172e+01 -1.567597246321383864e-05 -2.278633601963520050e-02 -6.840603426098823547e-03 3.258466313127428293e-04
3.457000000000000000e+03 7.937854003906250000e+01 -1.530235099792480469e+01 2.754934030235745013e-05 -2.349438518285751343e-02 -7.040050812065601349e-03 3.088865778408944607e-04
3.458000000000000000e+03 7.937870788574218750e+01 -1.669168472290039062e+01 -1.408213483955478296e-05 -2.417282015085220337e-02 -7.256071083247661591e-03 2.972558140754699707e-04
3.459000000000000000e+03 7.814107513427734375e+01 -1.792634773254394531e+01 5.002311809221282601e-06 -2.260725945234298706e-02 -6.780677475035190582e-03 8.152743102982640266e-04
3.460000000000000000e+03 7.935974884033203125e+01 -2.086297416687011719e+01 1.920804788824170828e-05 -2.599510736763477325e-02 -7.792769465595483780e-03 2.500715490896254778e-04
3.461000000000000000e+03 7.935076141357421875e+01 -2.225891113281250000e+01 -2.599405888759065419e-06 -2.651462517678737640e-02 -7.955167442560195923e-03 2.327468537259846926e-04
3.462000000000000000e+03 7.934459686279296875e+01 -2.365221405029296875e+01 2.414010123175103217e-05 -2.698213979601860046e-02 -8.087400346994400024e-03 2.089075278490781784e-04
3.463000000000000000e+03 7.802530670166015625e+01 -2.489586448669433594e+01 5.464764035423286259e-05 -2.483233250677585602e-02 -7.433305494487285614e-03 5.787338013760745525e-04
3.464000000000000000e+03 7.932892608642578125e+01 -2.781777572631835938e+01 1.403150417900178581e-05 -2.818592637777328491e-02 -8.451568894088268280e-03 1.629053149372339249e-04
3.465000000000000000e+03 7.931415557861328125e+01 -2.921907997131347656e+01 1.252768197446130216e-05 -2.849215641617774963e-02 -8.543888106942176819e-03 1.379056338919326663e-04
3.466000000000000000e+03 7.930097961425781250e+01 -3.061816215515136719e+01 -2.201586767114349641e-06 -2.875697426497936249e-02 -8.627752773463726044e-03 1.267411425942555070e-04
3.467000000000000000e+03 7.789121246337890625e+01 -3.188596153259277344e+01 6.426347681554034352e-05 -2.588093094527721405e-02 -7.745000533759593964e-03 3.019626601599156857e-04
3.468000000000000000e+03 7.929724121093750000e+01 -3.200550842285156250e+01 -4.189912942820228636e-05 -2.906001359224319458e-02 -8.730573579668998718e-03 1.759226288413628936e-04
3.469000000000000000e+03 7.923048400878906250e+01 -3.610073852539062500e+01 1.433412980986759067e-04 -2.923841960728168488e-02 -8.728523738682270050e-03 -8.333960431627929211e-05
3.470000000000000000e+03 7.907707977294921875e+01 -3.742455673217773438e+01 1.235598465427756310e-04 -2.884795330464839935e-02 -8.617318235337734222e-03 -3.109886019956320524e-04
3.471000000000000000e+03 7.867655181884765625e+01 -3.878663253784179688e+01 2.282158529851585627e-04 -2.819988690316677094e-02 -8.391501381993293762e-03 -5.694040446542203426e-04
3.472000000000000000e+03 7.800856018066406250e+01 -4.173819732666015625e+01 -1.097954576835036278e-03 -2.707961574196815491e-02 -8.453271351754665375e-03 -3.059834416490048170e-04
3.473000000000000000e+03 7.894604492187500000e+01 3.197676277160644531e+01 -2.746125119301723316e-06 2.276518353028222919e-05 6.005717295920476317e-06 -2.811143167491536587e-05
3.474000000000000000e+03 7.837873840332031250e+01 3.011104393005371094e+01 -2.376795964664779603e-05 -3.089540041401050985e-05 -1.639900801819749177e-05 1.454912035114830360e-05
3.475000000000000000e+03 7.755126953125000000e+01 3.205312728881835938e+01 -1.804408020689152181e-05 -2.324170600331854075e-05 -1.238573531736619771e-05 -1.778080695657990873e-05
3.476000000000000000e+03 7.685879516601562500e+01 3.209389114379882812e+01 -3.284545891801826656e-05 -4.136303323321044445e-05 -2.226254582637920976e-05 3.425487671293581116e-09
3.477000000000000000e+03 7.465928649902343750e+01 3.211291122436523438e+01 -1.434657751815393567e-04 -4.664160587708465755e-05 -5.703221177100203931e-05 9.909475920721888542e-05
3.478000000000000000e+03 7.391175842285156250e+01 3.209839630126953125e+01 -2.005246788030490279e-04 -4.564769915305078030e-05 -7.385171193163841963e-05 1.323559263255447149e-04
3.479000000000000000e+03 7.088724517822265625e+01 3.206807708740234375e+01 -5.467793671414256096e-04 -3.936763823730871081e-05 -1.758441067067906260e-04 2.704290673136711121e-04
3.480000000000000000e+03 7.164617156982421875e+01 3.207268905639648438e+01 -4.456683818716555834e-04 -4.256226748111657798e-05 -1.464692031731829047e-04 2.409903972875326872e-04
3.481000000000000000e+03 6.706946563720703125e+01 3.213007736206054688e+01 -1.126004499383270741e-03 -2.580796535767149180e-05 -3.455437254160642624e-04 3.459256840869784355e-04
3.482000000000000000e+03 6.477359771728515625e+01 3.225083160400390625e+01 -1.432735007256269455e-03 -4.462911419977899641e-06 -4.311593947932124138e-04 3.041896270588040352e-04
3.483000000000000000e+03 6.630422210693359375e+01 3.216781234741210938e+01 -1.236117794178426266e-03 -1.958784559974446893e-05 -3.767117159441113472e-04 3.382756840437650681e-04
3.484000000000000000e+03 6.248218917846679688e+01 3.243311691284179688e+01 -1.621931558474898338e-03 2.996571129187941551e-05 -4.775897541549056768e-04 1.964728871826082468e-04
3.485000000000000000e+03 6.171904754638671875e+01 3.250245666503906250e+01 -1.647240598686039448e-03 4.545833508018404245e-05 -4.805346834473311901e-04 1.454766170354560018e-04
3.486000000000000000e+03 6.095749664306640625e+01 3.258395004272460938e+01 -1.652382197789847851e-03 6.252546154428273439e-05 -4.769570368807762861e-04 9.001671423902735114e-05
3.487000000000000000e+03 5.791766357421875000e+01 3.298875427246093750e+01 -1.431343960575759411e-03 1.209160400321707129e-04 -3.931283717975020409e-04 -1.542198297102004290e-04
3.488000000000000000e+03 5.638106155395507812e+01 3.323365020751953125e+01 -1.176107791252434254e-03 1.129801312345080078e-04 -3.189383132848888636e-04 -2.535442472435534000e-04
3.489000000000000000e+03 5.561686325073242188e+01 3.335804748535156250e+01 -1.017623348161578178e-03 7.944459503050893545e-05 -2.814536273945122957e-04 -2.788330311886966228e-04
3.490000000000000000e+03 5.225193023681640625e+01 3.310897064208984375e+01 -3.501167229842394590e-04 -3.010974905919283628e-04 -1.953642640728503466e-04 -3.337018133606761694e-04
3.491000000000000000e+03 2.448618316650390625e+01 -3.123401880264282227e+00 -4.722614213824272156e-02 -3.818736225366592407e-02 -2.562405169010162354e-02 3.829491883516311646e-02
3.492000000000000000e+03 2.832667160034179688e+01 -7.303359985351562500e+00 -1.991814374923706055e-02 -1.170907635241746902e-02 -9.488166309893131256e-03 1.421885564923286438e-02
3.493000000000000000e+03 2.997053909301757812e+01 -7.809019565582275391e+00 -1.642916165292263031e-02 9.329489432275295258e-03 -2.129901433363556862e-03 4.586885683238506317e-03
3.494000000000000000e+03 2.917867279052734375e+01 -8.375694274902343750e+00 -8.748929947614669800e-03 -3.499311162158846855e-03 -3.674472216516733170e-03 7.780909072607755661e-03
3.495000000000000000e+03 3.135627174377441406e+01 -1.187742996215820312e+01 9.322774130851030350e-04 1.171298976987600327e-02 3.793580224737524986e-03 -5.441695451736450195e-03
3.496000000000000000e+03 3.422653198242187500e+01 -1.661730957031250000e+01 6.100034806877374649e-03 2.190501987934112549e-02 8.401516824960708618e-03 -1.215143781155347824e-02
3.497000000000000000e+03 3.629372406005859375e+01 -2.016640281677246094e+01 8.159615099430084229e-03 2.655125968158245087e-02 1.041326206177473068e-02 -1.415035873651504517e-02
3.498000000000000000e+03 3.762095642089843750e+01 -2.255115509033203125e+01 7.869136519730091095e-03 2.664056792855262756e-02 1.035291142761707306e-02 -1.462547294795513153e-02
3.499000000000000000e+03 3.902285385131835938e+01 -2.488069152832031250e+01 1.004145573824644089e-02 2.979479357600212097e-02 1.195087470114231110e-02 -1.686113886535167694e-02
3.500000000000000000e+03 4.138903045654296875e+01 -2.633437156677246094e+01 8.264997042715549469e-03 3.327181935310363770e-02 1.246104575693607330e-02 -1.707206480205059052e-02
3.501000000000000000e+03 4.211304092407226562e+01 -2.740899085998535156e+01 8.558431640267372131e-03 3.619701415300369263e-02 1.342663355171680450e-02 -1.779179833829402924e-02
3.502000000000000000e+03 4.348167037963867188e+01 -3.163704490661621094e+01 1.328052114695310593e-02 5.084976553916931152e-02 1.923908665776252747e-02 -2.479837276041507721e-02
3.503000000000000000e+03 4.425351333618164062e+01 -3.268690109252929688e+01 1.384703628718852997e-02 6.636613607406616211e-02 2.406395226716995239e-02 -2.213748730719089508e-02
3.504000000000000000e+03 4.548044204711914062e+01 -3.346815490722656250e+01 1.267001964151859283e-02 6.297984719276428223e-02 2.269496023654937744e-02 -1.262884959578514099e-02
3.505000000000000000e+03 4.470624923706054688e+01 -3.626754760742187500e+01 2.325568813830614090e-03 7.700379937887191772e-02 2.379881031811237335e-02 -2.832116559147834778e-03
3.506000000000000000e+03 3.648339462280273438e+01 -3.673232269287109375e+01 -9.687960147857666016e-03 -7.478265557438135147e-03 -5.149867385625839233e-03 5.836148280650377274e-03
3.507000000000000000e+03 3.439725112915039062e+01 -3.479660034179687500e+01 -7.387911900877952576e-03 -7.770725060254335403e-03 -4.547591321170330048e-03 6.409794557839632034e-03
3.508000000000000000e+03 3.341896057128906250e+01 -3.371752548217773438e+01 -5.911583546549081802e-03 -7.968094199895858765e-03 -4.163903184235095978e-03 7.288572844117879868e-03
3.509000000000000000e+03 3.061227989196777344e+01 -2.894076156616210938e+01 -2.236470812931656837e-03 -9.020532481372356415e-03 -3.377101151272654533e-03 5.279888398945331573e-03
3.510000000000000000e+03 3.116058921813964844e+01 -3.017171096801757812e+01 -4.540476482361555099e-03 -1.001215353608131409e-02 -4.365789238363504410e-03 5.543677601963281631e-03
3.511000000000000000e+03 2.811548805236816406e+01 -2.414288330078125000e+01 -1.824280712753534317e-03 -6.534143816679716110e-03 -2.507527358829975128e-03 3.700264263898134232e-03
3.512000000000000000e+03 2.938442420959472656e+01 -2.659322547912597656e+01 -1.726562622934579849e-03 -7.410313468426465988e-03 -2.741062780842185020e-03 4.283502232283353806e-03
3.513000000000000000e+03 2.752755546569824219e+01 -2.286895751953125000e+01 -1.924885902553796768e-03 -5.939388647675514221e-03 -2.359282458201050758e-03 3.182561369612812996e-03
3.514000000000000000e+03 2.575382423400878906e+01 -1.910293006896972656e+01 -1.152372336946427822e-03 -3.586662467569112778e-03 -1.421710476279258728e-03 2.516014268621802330e-03
3.515000000000000000e+03 2.512188148498535156e+01 -1.788544654846191406e+01 -1.571222092024981976e-03 -3.002312500029802322e-03 -1.372060389257967472e-03 1.854617381468415260e-03
3.516000000000000000e+03 2.273089218139648438e+01 -1.615910911560058594e+01 -1.311887521296739578e-03 1.087408280000090599e-03 -6.734375347150489688e-05 1.623589778319001198e-03
3.517000000000000000e+03 2.302721977233886719e+01 -1.437618446350097656e+01 -4.581840476021170616e-04 3.226429107598960400e-04 -4.066233668709173799e-05 1.030711806379258633e-03
3.518000000000000000e+03 2.095311164855957031e+01 -1.079190444946289062e+01 -3.135914084850810468e-05 7.660420145839452744e-03 2.288718242198228836e-03 -2.636421704664826393e-03
3.519000000000000000e+03 2.030224037170410156e+01 -9.546488761901855469e+00 1.790903159417212009e-03 1.476359926164150238e-02 4.966350737959146500e-03 -2.968472661450505257e-03
3.520000000000000000e+03 1.817208862304687500e+01 -3.203802347183227539e+00 2.783564478158950806e-02 5.468925088644027710e-02 2.475746721029281616e-02 2.259983122348785400e-02
3.521000000000000000e+03 2.990562438964843750e+01 5.489403724670410156e+00 1.716553270816802979e-01 3.145000338554382324e-01 1.458466053009033203e-01 -1.589021533727645874e-01
3.522000000000000000e+03 2.936569786071777344e+01 5.652412414550781250e+00 1.129252761602401733e-01 3.726241290569305420e-01 1.456648260354995728e-01 -7.264168560504913330e-02
3.523000000000000000e+03 2.874598312377929688e+01 5.088868141174316406e+00 6.699397414922714233e-02 1.951036602258682251e-01 7.862929254770278931e-02 4.552273452281951904e-02
3.524000000000000000e+03 2.782737541198730469e+01 4.681850910186767578e+00 7.801295816898345947e-02 3.419553115963935852e-02 3.366254642605781555e-02 4.831678047776222229e-02
3.525000000000000000e+03 2.696214866638183594e+01 3.921716213226318359e+00 6.724876165390014648e-02 -2.787050325423479080e-03 1.933851279318332672e-02 2.639875747263431549e-02
3.526000000000000000e+03 2.626216506958007812e+01 3.731909036636352539e+00 6.071474030613899231e-02 -1.228715386241674423e-02 1.452827546745538712e-02 1.589690707623958588e-02
3.527000000000000000e+03 2.096226310729980469e+01 4.771432578563690186e-01 1.995615847408771515e-02 2.186505310237407684e-02 1.254636328667402267e-02 6.058611720800399780e-02
3.528000000000000000e+03 2.174523544311523438e+01 9.773142933845520020e-01 3.454395756125450134e-02 5.244706757366657257e-03 1.193659938871860504e-02 4.322825372219085693e-02
3.529000000000000000e+03 2.122376632690429688e+01 -8.836928606033325195e-01 -2.097743004560470581e-02 -1.349406130611896515e-02 -1.034144777804613113e-02 3.812550380825996399e-02
3.530000000000000000e+03 2.002091407775878906e+01 -3.698153793811798096e-02 1.540232170373201370e-02 6.980367004871368408e-02 2.556179650127887726e-02 4.651477932929992676e-02
3.531000000000000000e+03 1.947191619873046875e+01 -4.799166321754455566e-01 2.912373095750808716e-02 6.824804097414016724e-02 2.921153232455253601e-02 3.514285758137702942e-02
3.532000000000000000e+03 1.981045722961425781e+01 -3.578845262527465820e-01 2.939384430646896362e-02 8.185654133558273315e-02 3.337511792778968811e-02 4.203812032938003540e-02
3.533000000000000000e+03 1.935330581665039062e+01 -8.759337067604064941e-01 3.310991078615188599e-02 7.187471538782119751e-02 3.149538859724998474e-02 3.714930266141891479e-02
3.534000000000000000e+03 1.859009933471679688e+01 -1.416429996490478516e+00 3.503793850541114807e-02 5.002606287598609924e-02 2.551919966936111450e-02 3.009745106101036072e-02
3.535000000000000000e+03 1.722732162475585938e+01 -1.935790419578552246e+00 2.576232142746448517e-02 1.362132467329502106e-02 1.181509345769882202e-02 1.291771233081817627e-02
3.536000000000000000e+03 2.745217132568359375e+01 4.418958663940429688e+00 7.142269611358642578e-02 1.117540430277585983e-02 2.477942965924739838e-02 3.590085729956626892e-02
3.537000000000000000e+03 2.168276596069335938e+01 7.726088166236877441e-01 3.324153646826744080e-02 4.518142901360988617e-03 1.132790371775627136e-02 4.277914762496948242e-02
3.538000000000000000e+03 2.338759613037109375e+01 -2.234288454055786133e+00 -4.840114712715148926e-02 -3.851742669939994812e-02 -2.607557177543640137e-02 4.978583380579948425e-02
3.539000000000000000e+03 2.810007476806640625e+01 4.425877094268798828e+00 6.969144195318222046e-02 7.257317751646041870e-02 4.267938435077667236e-02 5.148227512836456299e-02
3.540000000000000000e+03 2.675984191894531250e+01 4.090457439422607422e+00 6.450688838958740234e-02 -1.197343505918979645e-02 1.576003618538379669e-02 1.946027576923370361e-02
3.541000000000000000e+03 2.642265701293945312e+01 3.848321676254272461e+00 6.187693402171134949e-02 -1.219017338007688522e-02 1.490602828562259674e-02 1.670710183680057526e-02
3.542000000000000000e+03 2.626826667785644531e+01 3.268027305603027344e+00 6.232682615518569946e-02 -7.469485979527235031e-03 1.645720191299915314e-02 1.938484609127044678e-02
3.543000000000000000e+03 2.603531455993652344e+01 3.199530124664306641e+00 6.067709624767303467e-02 -9.671733714640140533e-03 1.530160848051309586e-02 1.660512760281562805e-02
3.544000000000000000e+03 2.504778671264648438e+01 3.029806375503540039e+00 5.738757923245429993e-02 -1.082906406372785568e-02 1.396755408495664597e-02 1.356363017112016678e-02
3.545000000000000000e+03 2.437584877014160156e+01 2.527842760086059570e+00 5.662412568926811218e-02 -9.324649348855018616e-03 1.418984308838844299e-02 1.550183072686195374e-02
3.546000000000000000e+03 2.329717063903808594e+01 1.974796772003173828e+00 5.361707136034965515e-02 -4.294839687645435333e-03 1.479666866362094879e-02 2.174827642738819122e-02
3.547000000000000000e+03 2.313185119628906250e+01 1.878502011299133301e+00 5.332363396883010864e-02 -1.812372705899178982e-03 1.545337773859500885e-02 2.283013612031936646e-02
3.548000000000000000e+03 2.158136749267578125e+01 4.676674306392669678e-01 2.659383788704872131e-02 -3.982112684752792120e-04 7.858688011765480042e-03 4.575689509510993958e-02
3.549000000000000000e+03 2.124889755249023438e+01 7.207090258598327637e-01 2.744257636368274689e-02 1.349271461367607117e-02 1.228058710694313049e-02 5.348904803395271301e-02
3.550000000000000000e+03 2.238238334655761719e+01 5.435275435447692871e-01 2.932075597345829010e-02 -1.644533313810825348e-02 3.862626617774367332e-03 3.095622919499874115e-02
3.551000000000000000e+03 1.792855072021484375e+01 -2.269827127456665039e+00 2.617442607879638672e-02 4.195441305637359619e-02 2.043865248560905457e-02 2.681235410273075104e-02
3.552000000000000000e+03 1.706820678710937500e+01 -2.731693983078002930e+00 2.716481499373912811e-02 1.669386401772499084e-02 1.315760333091020584e-02 1.717340573668479919e-02
3.553000000000000000e+03 2.231215667724609375e+01 1.274170756340026855e+00 4.351650178432464600e-02 -4.452780995052307844e-04 1.292136684060096741e-02 3.219712898135185242e-02
3.554000000000000000e+03 2.474992370605468750e+01 2.755342245101928711e+00 5.706549063324928284e-02 -1.015793159604072571e-02 1.407226733863353729e-02 1.422139536589384079e-02
3.555000000000000000e+03 2.401224899291992188e+01 2.320968389511108398e+00 5.570128560066223145e-02 -7.688395678997039795e-03 1.440386660397052765e-02 1.691934838891029358e-02
3.556000000000000000e+03 1.896565055847167969e+01 -4.144492626190185547e+00 8.360444568097591400e-03 8.277925103902816772e-02 2.734190970659255981e-02 1.147038303315639496e-02
3.557000000000000000e+03 4.761299896240234375e+01 2.714129638671875000e+01 -3.980671986937522888e-03 -1.762576284818351269e-03 -1.722974586300551891e-03 -2.819468965753912926e-03
3.558000000000000000e+03 4.659541320800781250e+01 2.745892333984375000e+01 -3.330836538225412369e-03 -2.516865497455000877e-03 -1.754310564137995243e-03 -2.857093000784516335e-03
3.559000000000000000e+03 3.100780677795410156e+01 1.148621845245361328e+01 -2.907740771770477295e-01 -1.839228272438049316e-01 -1.424090713262557983e-01 -2.158080935478210449e-01
3.560000000000000000e+03 3.260774612426757812e+01 1.265636157989501953e+01 -1.376840919256210327e-01 -7.079180330038070679e-02 -6.254276633262634277e-02 -9.552908688783645630e-02
3.561000000000000000e+03 3.288481903076171875e+01 1.291684627532958984e+01 -1.124685034155845642e-01 -5.982004106044769287e-02 -5.168656259775161743e-02 -9.073632955551147461e-02
3.562000000000000000e+03 3.182366180419921875e+01 1.235689830780029297e+01 -1.443082094192504883e-01 -1.227839365601539612e-01 -8.012764155864715576e-02 -1.414042413234710693e-01
3.563000000000000000e+03 3.234757232666015625e+01 1.238570022583007812e+01 -1.506660580635070801e-01 -7.185025513172149658e-02 -6.675489246845245361e-02 -1.154161021113395691e-01
3.564000000000000000e+03 3.317732238769531250e+01 1.317190742492675781e+01 -1.081656888127326965e-01 -5.903059616684913635e-02 -5.015888810157775879e-02 -7.524380832910537720e-02
3.565000000000000000e+03 3.877486038208007812e+01 2.007816886901855469e+01 -9.799319319427013397e-03 -1.170552056282758713e-02 -6.451451685279607773e-03 -1.153074018657207489e-02
3.566000000000000000e+03 5.147768402099609375e+01 3.161031532287597656e+01 -1.138705061748623848e-03 -5.941101699136197567e-04 -5.198445869609713554e-04 -8.493221248500049114e-04
3.567000000000000000e+03 2.978096389770507812e+01 1.023925304412841797e+01 -7.300075292587280273e-01 -2.421706914901733398e-01 -2.916534543037414551e-01 -4.272101521492004395e-01
3.568000000000000000e+03 5.363477706909179688e+01 3.252346420288085938e+01 -1.107038697227835655e-03 -5.667701771017163992e-05 -3.491147072054445744e-04 -5.316772731021046638e-04
3.569000000000000000e+03 3.801632690429687500e+01 1.915821838378906250e+01 -1.321930997073650360e-02 -1.709622703492641449e-02 -9.094661101698875427e-03 -1.434326265007257462e-02
3.570000000000000000e+03 3.933628082275390625e+01 2.011592674255371094e+01 -1.141690835356712341e-02 -9.655908681452274323e-03 -6.321845110505819321e-03 -1.171155739575624466e-02
3.571000000000000000e+03 5.063207244873046875e+01 3.131446266174316406e+01 -1.129976473748683929e-03 -9.367984021082520485e-04 -6.200324278324842453e-04 -1.014644978567957878e-03
3.572000000000000000e+03 5.118415069580078125e+01 3.132630729675292969e+01 -1.275125308893620968e-03 -6.992128910496830940e-04 -5.923014250583946705e-04 -9.484803886152803898e-04
3.573000000000000000e+03 4.105452346801757812e+01 2.226943016052246094e+01 -1.015861704945564270e-02 -7.367836311459541321e-03 -5.257936194539070129e-03 -8.875741623342037201e-03
3.574000000000000000e+03 2.997584915161132812e+01 8.505063056945800781e+00 -3.089177906513214111e-01 3.020268976688385010e-01 -2.067266497761011124e-03 4.540059566497802734e-01
3.575000000000000000e+03 4.392474746704101562e+01 2.438105583190917969e+01 -7.072145584970712662e-03 -4.573095124214887619e-03 -3.493572352454066277e-03 -5.735992453992366791e-03
3.576000000000000000e+03 4.186898803710937500e+01 2.254351806640625000e+01 -9.875534102320671082e-03 -6.424642633646726608e-03 -4.890053067356348038e-03 -7.697355933487415314e-03
3.577000000000000000e+03 3.855865097045898438e+01 1.924153900146484375e+01 -1.456064730882644653e-02 -1.345185935497283936e-02 -8.403751999139785767e-03 -1.377029903233051300e-02
3.578000000000000000e+03 3.726512145996093750e+01 1.822162628173828125e+01 -1.776201091706752777e-02 -2.148984745144844055e-02 -1.177555695176124573e-02 -2.007941156625747681e-02
3.579000000000000000e+03 5.324268341064453125e+01 3.345733642578125000e+01 -4.919949569739401340e-04 -1.149668532889336348e-04 -1.820885518100112677e-04 -3.056222049053758383e-04
3.580000000000000000e+03 5.250608825683593750e+01 3.343409347534179688e+01 -2.599403669591993093e-04 -1.870365958893671632e-04 -1.340930903097614646e-04 -2.406026469543576241e-04
3.581000000000000000e+03 4.578035736083984375e+01 2.606152725219726562e+01 -4.653120879083871841e-03 -2.951601054519414902e-03 -2.281416673213243484e-03 -3.897683229297399521e-03
3.582000000000000000e+03 4.518186569213867188e+01 2.605698776245117188e+01 -4.262644797563552856e-03 -3.810447640717029572e-03 -2.421927638351917267e-03 -4.115446936339139938e-03
3.583000000000000000e+03 3.470023345947265625e+01 1.457075119018554688e+01 -5.888007208704948425e-02 -3.299204260110855103e-02 -2.756163477897644043e-02 -4.762925952672958374e-02
3.584000000000000000e+03 3.461663818359375000e+01 1.521564388275146484e+01 -4.241082817316055298e-02 -4.070253297686576843e-02 -2.493400871753692627e-02 -4.403494670987129211e-02
3.585000000000000000e+03 4.600357437133789062e+01 2.692362785339355469e+01 -3.585423808544874191e-03 -2.926053712144494057e-03 -1.953443279489874840e-03 -3.212015610188245773e-03
3.586000000000000000e+03 4.572302627563476562e+01 2.664346122741699219e+01 -3.669772529974579811e-03 -3.132678801193833351e-03 -2.040735445916652679e-03 -3.503626678138971329e-03
3.587000000000000000e+03 5.034660720825195312e+01 3.103266906738281250e+01 -1.254723058082163334e-03 -1.020733732730150223e-03 -6.826370372436940670e-04 -1.138974446803331375e-03
3.588000000000000000e+03 5.089182281494140625e+01 3.104534339904785156e+01 -1.398117281496524811e-03 -7.810017559677362442e-04 -6.537357112392783165e-04 -1.069298246875405312e-03
3.589000000000000000e+03 3.776784133911132812e+01 1.884512519836425781e+01 -1.385465078055858612e-02 -1.834050565958023071e-02 -9.658547118306159973e-03 -1.658412627875804901e-02
3.590000000000000000e+03 3.622256851196289062e+01 1.700500488281250000e+01 -2.571572735905647278e-02 -2.649097517132759094e-02 -1.566201075911521912e-02 -2.716236375272274017e-02
3.591000000000000000e+03 3.706751632690429688e+01 1.735729598999023438e+01 -2.602970786392688751e-02 -2.075517550110816956e-02 -1.403546519577503204e-02 -2.203014679253101349e-02
3.592000000000000000e+03 3.831001663208007812e+01 1.893306732177734375e+01 -1.510634832084178925e-02 -1.424421742558479309e-02 -8.805169723927974701e-03 -1.555965095758438110e-02
3.593000000000000000e+03 3.989773559570312500e+01 2.011619567871093750e+01 -1.265977881848812103e-02 -8.053119294345378876e-03 -6.213869433850049973e-03 -1.157210860401391983e-02
3.594000000000000000e+03 4.304089355468750000e+01 2.360220718383789062e+01 -8.105728775262832642e-03 -5.280902143567800522e-03 -4.015989135950803757e-03 -6.449481472373008728e-03
3.595000000000000000e+03 4.222792434692382812e+01 2.334233856201171875e+01 -7.948131300508975983e-03 -6.144258659332990646e-03 -4.227716941386461258e-03 -7.213376928120851517e-03
3.596000000000000000e+03 4.362529754638671875e+01 2.412696266174316406e+01 -7.481457199901342392e-03 -4.925438202917575836e-03 -3.722068620845675468e-03 -5.885030608624219894e-03
3.597000000000000000e+03 4.973313140869140625e+01 2.993074607849121094e+01 -1.986455870792269707e-03 -1.164026441983878613e-03 -9.451446239836513996e-04 -1.554562477394938469e-03
3.598000000000000000e+03 3.015572357177734375e+01 1.053578567504882812e+01 -5.926662087440490723e-01 -1.846362501382827759e-01 -2.331907302141189575e-01 -3.415916562080383301e-01
3.599000000000000000e+03 4.977348327636718750e+01 3.047331047058105469e+01 -1.522052800282835960e-03 -1.226878841407597065e-03 -8.246795041486620903e-04 -1.379446708597242832e-03
3.600000000000000000e+03 5.060091400146484375e+01 3.076596832275390625e+01 -1.542225596494972706e-03 -8.860343368723988533e-04 -7.284779567271471024e-04 -1.172387506812810898e-03
3.601000000000000000e+03 5.290530776977539062e+01 3.311931610107421875e+01 -5.825052503496408463e-04 -1.889224367914721370e-04 -2.314283046871423721e-04 -4.004278162028640509e-04
3.602000000000000000e+03 3.595787811279296875e+01 1.670460700988769531e+01 -2.968871593475341797e-02 -2.924449555575847626e-02 -1.767996326088905334e-02 -2.789723873138427734e-02
3.603000000000000000e+03 3.648631668090820312e+01 1.730656242370605469e+01 -2.508118189871311188e-02 -2.588368207216262817e-02 -1.528945937752723694e-02 -2.420173957943916321e-02
3.604000000000000000e+03 4.281705474853515625e+01 2.387669372558593750e+01 -7.475302554666996002e-03 -5.509389564394950867e-03 -3.895407775416970253e-03 -6.597033701837062836e-03
3.605000000000000000e+03 4.274925231933593750e+01 2.333657646179199219e+01 -8.304934948682785034e-03 -5.316301714628934860e-03 -4.086371045559644699e-03 -6.918220315128564835e-03
3.606000000000000000e+03 4.829927444458007812e+01 2.855772209167480469e+01 -2.903927117586135864e-03 -1.715442282147705555e-03 -1.385810901410877705e-03 -2.206924138590693474e-03
3.607000000000000000e+03 4.046179580688476562e+01 2.174070167541503906e+01 -1.026397757232189178e-02 -7.277778349816799164e-03 -5.262526683509349823e-03 -9.096738882362842560e-03
3.608000000000000000e+03 4.245571517944335938e+01 2.307036590576171875e+01 -8.878550492227077484e-03 -5.770637653768062592e-03 -4.394756630063056946e-03 -7.085211109369993210e-03
3.609000000000000000e+03 4.216130828857421875e+01 2.280542945861816406e+01 -9.139112196862697601e-03 -5.890083499252796173e-03 -4.508758895099163055e-03 -7.591823581606149673e-03
3.610000000000000000e+03 3.210047149658203125e+01 1.210155487060546875e+01 -1.929983794689178467e-01 -8.394155651330947876e-02 -8.308198302984237671e-02 -1.204187124967575073e-01
3.611000000000000000e+03 4.490883255004882812e+01 2.575566864013671875e+01 -4.783541429787874222e-03 -4.276798572391271591e-03 -2.718101954087615013e-03 -4.432023502886295319e-03
3.612000000000000000e+03 3.961743545532226562e+01 1.985877990722656250e+01 -1.380750816315412521e-02 -9.127836674451828003e-03 -6.880603265017271042e-03 -1.172030996531248093e-02
3.613000000000000000e+03 4.333234405517578125e+01 2.386636924743652344e+01 -7.682227063924074173e-03 -4.907427821308374405e-03 -3.776896512135863304e-03 -6.301856134086847305e-03
3.614000000000000000e+03 3.411284255981445312e+01 1.397565650939941406e+01 -7.581894099712371826e-02 -3.952026367187500000e-02 -3.460176289081573486e-02 -5.762943997979164124e-02
3.615000000000000000e+03 3.440846252441406250e+01 1.427350711822509766e+01 -7.052700966596603394e-02 -3.874440118670463562e-02 -3.278142586350440979e-02 -4.933402314782142639e-02
3.616000000000000000e+03 3.569243240356445312e+01 1.640512657165527344e+01 -3.027531504631042480e-02 -3.001791238784790039e-02 -1.808796823024749756e-02 -3.163286671042442322e-02
3.617000000000000000e+03 4.915749359130859375e+01 2.937704658508300781e+01 -2.342355903238058090e-03 -1.380199100822210312e-03 -1.116766477935016155e-03 -1.819235505536198616e-03
3.618000000000000000e+03 4.802168655395507812e+01 2.828974151611328125e+01 -3.029542742297053337e-03 -1.792725292034447193e-03 -1.446680398657917976e-03 -2.364212414249777794e-03
3.619000000000000000e+03 5.031082916259765625e+01 3.048708152770996094e+01 -1.672787126153707504e-03 -9.670631843619048595e-04 -7.919550989754498005e-04 -1.302394666709005833e-03
3.620000000000000000e+03 3.046580314636230469e+01 1.086743164062500000e+01 -4.905517399311065674e-01 -2.121208310127258301e-01 -2.108017653226852417e-01 -2.570567429065704346e-01
3.621000000000000000e+03 4.717581558227539062e+01 2.800518989562988281e+01 -3.101829206570982933e-03 -2.236511558294296265e-03 -1.601502299308776855e-03 -2.598191844299435616e-03
3.622000000000000000e+03 3.631168746948242188e+01 1.641222381591796875e+01 -3.223739936947822571e-02 -2.323126234114170074e-02 -1.664059795439243317e-02 -2.856437675654888153e-02
3.623000000000000000e+03 3.542541885375976562e+01 1.610586166381835938e+01 -3.527459502220153809e-02 -3.356002271175384521e-02 -2.065038494765758514e-02 -3.232493624091148376e-02
3.624000000000000000e+03 3.605571746826171875e+01 1.610044860839843750e+01 -3.765277191996574402e-02 -2.520836144685745239e-02 -1.885833963751792908e-02 -2.941930294036865234e-02
3.625000000000000000e+03 3.579535675048828125e+01 1.578831863403320312e+01 -3.869029507040977478e-02 -2.576848678290843964e-02 -1.933763548731803894e-02 -3.340355306863784790e-02
3.626000000000000000e+03 5.002147674560546875e+01 3.020851707458496094e+01 -1.835834817029535770e-03 -1.078021246939897537e-03 -8.741568308323621750e-04 -1.413717633113265038e-03
3.627000000000000000e+03 4.944524383544921875e+01 2.965370559692382812e+01 -2.175246132537722588e-03 -1.286675920709967613e-03 -1.038576592691242695e-03 -1.669705612584948540e-03
3.628000000000000000e+03 4.746248245239257812e+01 2.828224754333496094e+01 -2.911544637754559517e-03 -2.097044838592410088e-03 -1.502576866187155247e-03 -2.501401817426085472e-03
3.629000000000000000e+03 2.902198600769042969e+01 8.916118621826171875e+00 -1.627361655235290527e+00 4.947785437107086182e-01 -3.397749066352844238e-01 -2.234689146280288696e-01
3.630000000000000000e+03 5.350086975097656250e+01 3.390966415405273438e+01 -3.404472372494637966e-04 -7.795728015480563045e-05 -1.255213574040681124e-04 -1.976270432351157069e-04
3.631000000000000000e+03 7.614151000976562500e+01 3.212062835693359375e+01 -6.009712524246424437e-05 -4.630716648534871638e-05 -3.192128497175872326e-05 3.250877853133715689e-05
3.632000000000000000e+03 7.675031280517578125e+01 3.125237846374511719e+01 -8.135832467814907432e-05 -8.185782644432038069e-05 -4.896484460914507508e-05 4.490098945097997785e-05
3.633000000000000000e+03 7.883706665039062500e+01 3.081201362609863281e+01 -1.278356012335279956e-05 1.733845238049980253e-05 1.366467586194630712e-06 -1.382297523377928883e-05
3.634000000000000000e+03 7.952130889892578125e+01 2.915831565856933594e+01 -5.347455498849740252e-06 6.689241854473948479e-05 1.846348823164589703e-05 1.181992047349922359e-05
3.635000000000000000e+03 5.868247604370117188e+01 3.287676620483398438e+01 -1.520817633718252182e-03 1.109303848352283239e-04 -4.229661717545241117e-04 -9.434214007342234254e-05
3.636000000000000000e+03 5.488986587524414062e+01 3.350841140747070312e+01 -8.346813847310841084e-04 1.599780807737261057e-05 -2.456050715409219265e-04 -2.848924195859581232e-04
3.637000000000000000e+03 5.325172042846679688e+01 3.277836608886718750e+01 -8.315314189530909061e-04 -1.267769112018868327e-04 -2.874924975913017988e-04 -4.883834626525640488e-04
3.638000000000000000e+03 1.099973011016845703e+01 -3.674334764480590820e+00 5.679028574377298355e-03 6.226549157872796059e-04 1.890505081973969936e-03 2.217915141955018044e-03
3.639000000000000000e+03 9.472805023193359375e+00 -2.725830793380737305e+00 2.577528590336441994e-03 8.599373541073873639e-05 7.990566664375364780e-04 8.088126196525990963e-04
3.640000000000000000e+03 1.173242092132568359e+01 -2.984179258346557617e+00 5.494745913892984390e-03 2.770182909443974495e-04 1.731529249809682369e-03 1.476952224038541317e-03
3.641000000000000000e+03 7.315933990478515625e+01 3.208687210083007812e+01 -2.707688836380839348e-04 -4.704717503045685589e-05 -9.534481796436011791e-05 1.713729870971292257e-04
3.642000000000000000e+03 7.536307525634765625e+01 3.138935470581054688e+01 -1.601942203706130385e-04 -8.239394082920625806e-05 -7.277644908754155040e-05 1.119930602726526558e-04
3.643000000000000000e+03 7.777620697021484375e+01 2.945188903808593750e+01 -6.767333252355456352e-05 -1.260973949683830142e-04 -5.813121606479398906e-05 7.783414912410080433e-05
3.644000000000000000e+03 7.390401458740234375e+01 3.137491226196289062e+01 -2.741830248851329088e-04 -8.816301124170422554e-05 -1.087038108380511403e-04 1.987981086131185293e-04
3.645000000000000000e+03 7.858201599121093750e+01 2.637851715087890625e+01 -4.521645314525812864e-05 -3.109248937107622623e-04 -1.068424098775722086e-04 1.715761172818019986e-04
3.646000000000000000e+03 7.012590789794921875e+01 3.207042694091796875e+01 -6.574770086444914341e-04 -3.678606663015671074e-05 -2.082789142150431871e-04 2.977719996124505997e-04
3.647000000000000000e+03 7.164027404785156250e+01 3.136069297790527344e+01 -5.289466935209929943e-04 -7.569377339677885175e-05 -1.813921408029273152e-04 3.315915819257497787e-04
3.648000000000000000e+03 7.240030670166015625e+01 3.136299324035644531e+01 -4.360860330052673817e-04 -8.148340566549450159e-05 -1.552708272356539965e-04 2.906286390498280525e-04
3.649000000000000000e+03 7.464302062988281250e+01 3.138467407226562500e+01 -2.104580053128302097e-04 -8.303450158564373851e-05 -8.804775279713794589e-05 1.490230497438460588e-04
3.650000000000000000e+03 6.783468627929687500e+01 3.210415649414062500e+01 -1.008474384434521198e-03 -2.934712392743676901e-05 -3.113464626949280500e-04 3.429524076636880636e-04
3.651000000000000000e+03 6.857487487792968750e+01 3.139920043945312500e+01 -9.661889052949845791e-04 -4.520159563980996609e-05 -3.034171531908214092e-04 4.415425646584481001e-04
3.652000000000000000e+03 6.931742858886718750e+01 3.067982292175292969e+01 -9.281544480472803116e-04 -7.542026287410408258e-05 -3.010724030900746584e-04 5.311209824867546558e-04
3.653000000000000000e+03 6.553907012939453125e+01 3.220802688598632812e+01 -1.340232207439839840e-03 -1.361954491585493088e-05 -4.061555082444101572e-04 3.257556236349046230e-04
3.654000000000000000e+03 6.780509185791015625e+01 3.142210769653320312e+01 -1.082008820958435535e-03 -3.672919774544425309e-05 -3.356214147061109543e-04 4.510606231633573771e-04
3.655000000000000000e+03 6.934307098388671875e+01 3.138206863403320312e+01 -8.523773867636919022e-04 -5.422956382972188294e-05 -2.719820768106728792e-04 4.268860211595892906e-04
3.656000000000000000e+03 6.088095855712890625e+01 3.194297599792480469e+01 -1.771897310391068459e-03 1.194180222228169441e-04 -4.957437631674110889e-04 9.718623914523050189e-05
3.657000000000000000e+03 5.714792633056640625e+01 3.311008071899414062e+01 -1.310064108110964298e-03 1.181352490675635636e-04 -3.575786540750414133e-04 -2.092708309646695852e-04
3.658000000000000000e+03 6.011639785766601562e+01 3.203986740112304688e+01 -1.774262753315269947e-03 1.419485197402536869e-04 -4.896942991763353348e-04 2.242933442175853997e-05
3.659000000000000000e+03 6.157224655151367188e+01 3.120664978027343750e+01 -1.882355310954153538e-03 1.593347551533952355e-04 -5.169062060303986073e-04 2.076267264783382416e-04
3.660000000000000000e+03 6.318448257446289062e+01 3.170669174194335938e+01 -1.659467001445591450e-03 5.391099330154247582e-05 -4.816668224520981312e-04 2.945575106423348188e-04
3.661000000000000000e+03 6.164813232421875000e+01 3.185567665100097656e+01 -1.754013588652014732e-03 9.674509783508256078e-05 -4.971805610693991184e-04 1.707937917672097683e-04
3.662000000000000000e+03 6.241625976562500000e+01 3.177743721008300781e+01 -1.713811652734875679e-03 7.500390347559005022e-05 -4.916423349641263485e-04 2.356053155381232500e-04
3.663000000000000000e+03 6.395349884033203125e+01 3.164251518249511719e+01 -1.587588922120630741e-03 3.510570604703389108e-05 -4.657449899241328239e-04 3.430627111811190844e-04
3.664000000000000000e+03 6.472382354736328125e+01 3.158562469482421875e+01 -1.504261279478669167e-03 1.679471097304485738e-05 -4.462399519979953766e-04 3.846320905722677708e-04
3.665000000000000000e+03 6.549461364746093750e+01 3.153601837158203125e+01 -1.408435753546655178e-03 1.560725991112121847e-06 -4.220625269226729870e-04 4.143728583585470915e-04
3.666000000000000000e+03 6.626473236083984375e+01 3.149210739135742188e+01 -1.306077232584357262e-03 -1.325940684182569385e-05 -3.958009765483438969e-04 4.371432878542691469e-04
3.667000000000000000e+03 3.039394187927246094e+01 7.890824317932128906e+00 4.672670066356658936e-01 7.254154235124588013e-02 1.619425565004348755e-01 4.021083414554595947e-01
3.668000000000000000e+03 3.034256172180175781e+01 6.730527877807617188e+00 6.753525733947753906e-01 6.421604752540588379e-02 2.218705862760543823e-01 -1.260770708322525024e-01
3.669000000000000000e+03 2.998411560058593750e+01 6.128181934356689453e+00 3.711185157299041748e-01 3.138204514980316162e-01 2.054816931486129761e-01 -2.451329976320266724e-01
3.670000000000000000e+03 3.133818817138671875e+01 1.119319152832031250e+01 -3.296251893043518066e-01 -8.434040099382400513e-02 -1.241896748542785645e-01 -1.817269772291183472e-01
3.671000000000000000e+03 2.933538436889648438e+01 5.301521301269531250e+00 8.821268379688262939e-02 3.102130293846130371e-01 1.195277124643325806e-01 -3.954822570085525513e-02
3.672000000000000000e+03 3.047909164428710938e+01 5.939738750457763672e+00 3.614045083522796631e-01 1.723249554634094238e-01 1.601188331842422485e-01 -1.834612637758255005e-01
3.673000000000000000e+03 5.782474899291992188e+01 3.239006423950195312e+01 -1.627130084671080112e-03 1.776115095708519220e-04 -4.348555812612175941e-04 -2.048446476692333817e-04
3.674000000000000000e+03 5.772653579711914062e+01 3.178721809387207031e+01 -1.847284263931214809e-03 2.449183084536343813e-04 -4.807098011951893568e-04 -2.377231285208836198e-04
3.675000000000000000e+03 5.630727386474609375e+01 3.266589355468750000e+01 -1.403629430569708347e-03 1.503993989899754524e-04 -3.759690152946859598e-04 -3.225857799407094717e-04
3.676000000000000000e+03 5.485219955444335938e+01 3.293739700317382812e+01 -1.076231477782130241e-03 4.701659054262563586e-05 -3.087644581682980061e-04 -3.883881145156919956e-04
3.677000000000000000e+03 5.556597518920898438e+01 3.280429077148437500e+01 -1.258105156011879444e-03 1.064115422195754945e-04 -3.455080732237547636e-04 -3.567581588868051767e-04
3.678000000000000000e+03 8.697318077087402344e+00 -2.682228088378906250e+00 1.917695393785834312e-03 2.702658821363002062e-04 6.563884089700877666e-04 5.726308445446193218e-04
3.679000000000000000e+03 7.908248424530029297e+00 -2.665200233459472656e+00 1.520028687082231045e-03 1.422777568222954869e-04 4.986919229850172997e-04 5.054567591287195683e-04
3.680000000000000000e+03 7.112025737762451172e+00 -2.671884775161743164e+00 1.131620141677558422e-03 2.542969596106559038e-04 4.157751391176134348e-04 3.138342872262001038e-04
3.681000000000000000e+03 2.932199954986572266e+00 -2.021510362625122070e+00 -5.836811760673299432e-05 4.085117689101025462e-05 -5.255082669464172795e-06 -3.058756701648235321e-04
3.682000000000000000e+03 4.696878433227539062e+00 -2.824575662612915039e+00 4.969551810063421726e-04 2.124127349816262722e-04 2.128103660652413964e-04 1.475762564950855449e-05
3.683000000000000000e+03 1.995128154754638672e+00 -6.783024311065673828e+00 2.654553391039371490e-04 4.848555254284292459e-04 2.250932739116251469e-04 5.422054673545062542e-04
3.684000000000000000e+03 6.799439191818237305e-01 -6.483416080474853516e+00 8.011822501430287957e-05 -5.077694659121334553e-04 -1.282953744521364570e-04 1.356890570605173707e-04
3.685000000000000000e+03 2.525254964828491211e+00 -4.193390369415283203e+00 3.387727192603051662e-04 2.112426591338589787e-04 1.650046178838238120e-04 3.221727820346131921e-05
3.686000000000000000e+03 4.759412705898284912e-01 -3.571594715118408203e+00 2.180421142838895321e-05 -5.780483479611575603e-04 -1.668732293182983994e-04 -7.758978608762845397e-05
3.687000000000000000e+03 1.498922634124755859e+01 -2.468312740325927734e+00 1.222885772585868835e-02 -4.863403737545013428e-04 3.522755112498998642e-03 2.851282479241490364e-03
3.688000000000000000e+03 1.498956108093261719e+01 -3.167248487472534180e+00 1.622779481112957001e-02 2.449994208291172981e-03 5.603337194770574570e-03 6.823377683758735657e-03
3.689000000000000000e+03 1.420420360565185547e+01 -3.937977552413940430e+00 1.402653288096189499e-02 2.896058373153209686e-03 5.076777655631303787e-03 7.210566196590662003e-03
3.690000000000000000e+03 1.250295066833496094e+01 -3.064874410629272461e+00 7.063291501253843307e-03 -1.766803616192191839e-04 2.065983368083834648e-03 1.993282232433557510e-03
3.691000000000000000e+03 1.331414699554443359e+01 -3.121251583099365234e+00 9.435029700398445129e-03 4.701697616837918758e-04 2.971559995785355568e-03 2.885789843276143074e-03
3.692000000000000000e+03 2.000936889648437500e+01 -1.244456529617309570e+00 5.638852342963218689e-02 1.460736691951751709e-01 6.073865666985511780e-02 8.047437667846679688e-02
3.693000000000000000e+03 2.229889106750488281e+01 -1.476411819458007812e+00 -7.501085847616195679e-02 -4.197253286838531494e-02 -3.509501740336418152e-02 4.146443679928779602e-02
3.694000000000000000e+03 2.107947158813476562e+01 2.241051048040390015e-01 2.719767391681671143e-02 1.439922302961349487e-02 1.247906964272260666e-02 6.579688191413879395e-02
3.695000000000000000e+03 4.469474792480468750e+01 -3.908779525756835938e+01 -1.662572287023067474e-02 4.404183477163314819e-02 8.224832825362682343e-03 -4.298086278140544891e-03
3.696000000000000000e+03 4.606956100463867188e+01 -3.756634140014648438e+01 -3.333367174491286278e-03 5.094327777624130249e-02 1.428297348320484161e-02 -1.374136656522750854e-02
3.697000000000000000e+03 1.771216011047363281e+01 -1.569234848022460938e+00 2.424859255552291870e-02 2.069943211972713470e-02 1.348440721631050110e-02 1.767680607736110687e-02
3.698000000000000000e+03 4.169868850708007812e+01 -3.974177169799804688e+01 -3.450941294431686401e-02 -3.085900098085403442e-04 -1.044540014117956161e-02 3.012832487002015114e-03
3.699000000000000000e+03 4.211154174804687500e+01 -4.158725357055664062e+01 -2.295512892305850983e-02 5.406786222010850906e-03 -5.264502484351396561e-03 4.159563686698675156e-03
3.700000000000000000e+03 3.972167587280273438e+01 -3.957994079589843750e+01 -3.457734733819961548e-02 -5.147380288690328598e-03 -1.191741786897182465e-02 4.521043971180915833e-03
3.701000000000000000e+03 4.628003692626953125e+01 -3.525324630737304688e+01 1.249405927956104279e-02 5.035209655761718750e-02 1.885384693741798401e-02 -1.134372036904096603e-02
3.702000000000000000e+03 3.064199256896972656e+01 -1.070412254333496094e+01 1.092555066861677915e-05 9.114402346312999725e-03 2.737598260864615440e-03 -2.195498906075954437e-03
3.703000000000000000e+03 2.995900917053222656e+01 -6.225080013275146484e+00 -2.266083657741546631e-02 1.706607267260551453e-02 -1.678429078310728073e-03 3.605675650760531425e-03
3.704000000000000000e+03 1.913920974731445312e+01 -5.521612644195556641e+00 -7.587407890241593122e-05 4.713770747184753418e-02 1.411854941397905350e-02 -2.531198086217045784e-03
3.705000000000000000e+03 3.831200408935546875e+01 -2.372030830383300781e+01 8.651589974761009216e-03 2.732226066291332245e-02 1.079215575009584427e-02 -1.593788340687751770e-02
3.706000000000000000e+03 3.696165466308593750e+01 -2.135998153686523438e+01 7.583678234368562698e-03 2.717038989067077637e-02 1.042622048407793045e-02 -1.460112072527408600e-02
3.707000000000000000e+03 3.063196563720703125e+01 -3.353367233276367188e+01 -5.062036216259002686e-03 -6.751669570803642273e-03 -3.544111736118793488e-03 5.242958199232816696e-03
3.708000000000000000e+03 1.996050834655761719e+01 -1.144235420227050781e+01 -9.939759038388729095e-04 1.133336499333381653e-02 3.101816633716225624e-03 4.753594985231757164e-04
3.709000000000000000e+03 2.164303207397460938e+01 -1.199928760528564453e+01 5.144538008607923985e-04 4.487531725317239761e-03 1.500595710240304470e-03 -6.145245279185473919e-04
3.710000000000000000e+03 2.840264892578125000e+01 -3.506506443023681641e+00 -2.371878549456596375e-02 1.912180520594120026e-02 -1.379094319418072701e-03 5.826651118695735931e-03
3.711000000000000000e+03 2.438335418701171875e+01 -1.543907284736633301e+00 -2.945828624069690704e-02 -2.140809036791324615e-02 -1.525991316884756088e-02 2.646863833069801331e-02
3.712000000000000000e+03 3.164917373657226562e+01 -3.482053375244140625e+01 -6.782018579542636871e-03 -6.973495706915855408e-03 -4.126654472202062607e-03 5.031884647905826569e-03
3.713000000000000000e+03 1.876001167297363281e+01 -8.708123207092285156e+00 2.446487778797745705e-04 2.271597646176815033e-02 6.888187956064939499e-03 2.322409767657518387e-03
3.714000000000000000e+03 3.548061752319335938e+01 -3.819498825073242188e+01 -1.080955285578966141e-02 -6.132431793957948685e-03 -5.082595627754926682e-03 8.231019601225852966e-03
3.715000000000000000e+03 3.246178817749023438e+01 -1.114151668548583984e+01 -1.982708228752017021e-03 1.764923892915248871e-02 4.699958954006433487e-03 -4.729596432298421860e-03
3.716000000000000000e+03 3.208909606933593750e+01 -1.305366611480712891e+01 3.701369510963559151e-03 1.499778497964143753e-02 5.609746091067790985e-03 -7.319572381675243378e-03
3.717000000000000000e+03 2.977678489685058594e+01 -3.061887168884277344e+01 -4.012465476989746094e-03 -7.186712697148323059e-03 -3.359753405675292015e-03 5.232014693319797516e-03
3.718000000000000000e+03 2.655304527282714844e+01 -5.213497638702392578e+00 -3.300032019615173340e-02 -2.504328265786170959e-02 -1.741308160126209259e-02 2.687743678689002991e-02
3.719000000000000000e+03 4.707619857788085938e+01 -3.416523742675781250e+01 1.083563733845949173e-02 4.459901899099349976e-02 1.663039624691009521e-02 -8.465385995805263519e-03
3.720000000000000000e+03 2.401623344421386719e+01 -1.848297691345214844e+01 -1.437478233128786087e-03 -1.089149503968656063e-03 -7.579883094877004623e-04 2.351019298657774925e-03
3.721000000000000000e+03 2.445910072326660156e+01 -1.669670677185058594e+01 -8.766936371102929115e-04 -1.852497691288590431e-03 -8.187573985196650028e-04 1.921168412081897259e-03
3.722000000000000000e+03 2.571421051025390625e+01 -2.225938034057617188e+01 -2.213012659922242165e-03 -3.670054720714688301e-03 -1.764920190908014774e-03 2.903169486671686172e-03
3.723000000000000000e+03 2.548512458801269531e+01 -2.564365386962890625e+01 -2.326605841517448425e-03 -3.117901273071765900e-03 -1.633352134376764297e-03 3.643586067482829094e-03
3.724000000000000000e+03 2.197784805297851562e+01 2.389646768569946289e-01 2.127770148217678070e-02 -9.143738076090812683e-03 3.640189068391919136e-03 3.810458630323410034e-02
3.725000000000000000e+03 2.944977951049804688e+01 -2.941800308227539062e+01 -4.175123292952775955e-03 -7.451117038726806641e-03 -3.487872192636132240e-03 4.793040454387664795e-03
3.726000000000000000e+03 2.138013267517089844e+01 -1.383236026763916016e+01 -1.152466516941785812e-03 4.637489560991525650e-03 1.045507029630243778e-03 8.626939379610121250e-04
3.727000000000000000e+03 2.893671989440917969e+01 -2.844957542419433594e+01 -2.547485753893852234e-03 -6.853681523352861404e-03 -2.820350229740142822e-03 4.854985512793064117e-03
3.728000000000000000e+03 2.632541656494140625e+01 -3.374605417251586914e+00 -3.349133953452110291e-02 -9.755243547260761261e-03 -1.297397445887327194e-02 2.229743637144565582e-02
3.729000000000000000e+03 2.518070602416992188e+01 -2.095775413513183594e+01 -1.684518763795495033e-03 -2.759237540885806084e-03 -1.333126914687454700e-03 2.948580542579293251e-03
3.730000000000000000e+03 3.932402420043945312e+01 -2.295739936828613281e+01 7.069534156471490860e-03 2.893511950969696045e-02 1.080139633268117905e-02 -1.472994964569807053e-02
3.731000000000000000e+03 3.972013473510742188e+01 -2.604672622680664062e+01 9.836418554186820984e-03 3.066950850188732147e-02 1.215177867561578751e-02 -1.762600243091583252e-02
3.732000000000000000e+03 2.814835357666015625e+01 -2.749983978271484375e+01 -3.238844918087124825e-03 -6.154687143862247467e-03 -2.818059641867876053e-03 4.144368693232536316e-03
3.733000000000000000e+03 4.289598464965820312e+01 -2.842931365966796875e+01 8.427451364696025848e-03 3.975558653473854065e-02 1.445491146296262741e-02 -1.758898794651031494e-02
3.734000000000000000e+03 4.461707305908203125e+01 -3.026633834838867188e+01 7.189545314759016037e-03 5.076519399881362915e-02 1.738642156124114990e-02 -1.507578324526548386e-02
3.735000000000000000e+03 2.764091873168945312e+01 -4.702586174011230469e+00 -2.905783802270889282e-02 -3.554759023245424032e-04 -8.823994547128677368e-03 1.643187180161476135e-02
3.736000000000000000e+03 4.555945968627929688e+01 -3.108214569091796875e+01 7.094702683389186859e-03 4.756791517138481140e-02 1.639878563582897186e-02 -8.250516839325428009e-03
3.737000000000000000e+03 4.116460800170898438e+01 -2.833691787719726562e+01 1.163367647677659988e-02 3.405791148543357849e-02 1.370747573673725128e-02 -2.011845819652080536e-02
3.738000000000000000e+03 2.068261909484863281e+01 -1.265236949920654297e+01 -1.667467877268791199e-03 6.703652907162904739e-03 1.510855508968234062e-03 -2.513302897568792105e-04
3.739000000000000000e+03 2.592214202880859375e+01 -2.604235172271728516e+00 -2.977892197668552399e-02 -1.557550020515918732e-02 -1.360632665455341339e-02 1.903399825096130371e-02
3.740000000000000000e+03 3.353298187255859375e+01 -1.542687416076660156e+01 6.264246068894863129e-03 2.052508853375911713e-02 8.036800660192966461e-03 -1.080316118896007538e-02
3.741000000000000000e+03 3.429883575439453125e+01 -1.177150440216064453e+01 -1.508899382315576077e-03 2.249410934746265411e-02 6.295563187450170517e-03 -7.425150834023952484e-03
3.742000000000000000e+03 2.233224296569824219e+01 -1.789351272583007812e+01 -1.872842665761709213e-03 1.561133423820137978e-03 -9.351278276881203055e-05 2.254164079204201698e-03
3.743000000000000000e+03 3.661622619628906250e+01 -1.833810424804687500e+01 6.206796970218420029e-03 2.518662251532077789e-02 9.418025612831115723e-03 -1.220737211406230927e-02
3.744000000000000000e+03 3.525234222412109375e+01 -1.601439476013183594e+01 5.100470036268234253e-03 2.287605032324790955e-02 8.392956107854843140e-03 -1.082016620784997940e-02
3.745000000000000000e+03 3.538946151733398438e+01 -3.585306549072265625e+01 -6.254970096051692963e-03 -6.774210836738348007e-03 -3.908754326403141022e-03 7.423154078423976898e-03
3.746000000000000000e+03 1.856874084472656250e+01 -7.304478168487548828e+00 -2.768920676317065954e-04 2.978116087615489960e-02 8.851280435919761658e-03 1.406165305525064468e-03
3.747000000000000000e+03 3.762229537963867188e+01 -1.768819808959960938e+01 4.373158793896436691e-03 2.537301369011402130e-02 8.923851884901523590e-03 -1.155534386634826660e-02
3.748000000000000000e+03 3.167519760131835938e+01 -9.979031562805175781e+00 -5.558019038289785385e-03 1.529392600059509277e-02 2.920772181823849678e-03 -2.531763864681124687e-03
3.749000000000000000e+03 3.119860458374023438e+01 -3.853464508056640625e+01 -9.364568628370761871e-03 -4.390395712107419968e-03 -4.126489162445068359e-03 3.833761671558022499e-03
3.750000000000000000e+03 3.082613372802734375e+01 -8.881337165832519531e+00 -8.590280078351497650e-03 1.300517190247774124e-02 1.324467593804001808e-03 1.504855928942561150e-03
3.751000000000000000e+03 7.674311828613281250e+01 -3.794945144653320312e+01 6.101912586018443108e-04 -2.497188001871109009e-02 -7.308506406843662262e-03 5.243931082077324390e-04
3.752000000000000000e+03 7.926952362060546875e+01 -3.475614547729492188e+01 -8.315343438880518079e-05 -2.932181581854820251e-02 -8.821491152048110962e-03 9.244981811207253486e-06
3.753000000000000000e+03 7.801194763183593750e+01 -2.766351127624511719e+01 7.676103996345773339e-05 -2.541098371148109436e-02 -7.600266952067613602e-03 5.051986081525683403e-04
3.754000000000000000e+03 7.933724212646484375e+01 -2.642669486999511719e+01 1.190612965729087591e-05 -2.781737037003040314e-02 -8.341639302670955658e-03 1.924291718751192093e-04
3.755000000000000000e+03 7.809516143798828125e+01 -2.070623779296875000e+01 3.134591679554432631e-05 -2.360315620899200439e-02 -7.071543019264936447e-03 7.329031359404325485e-04
3.756000000000000000e+03 7.936936950683593750e+01 -1.947033882141113281e+01 -5.532654540729708970e-06 -2.543199621140956879e-02 -7.631259039044380188e-03 2.662227198015898466e-04
3.757000000000000000e+03 7.936994934082031250e+01 -9.742350578308105469e+00 2.788304300338495523e-05 -2.047879435122013092e-02 -6.135273724794387817e-03 3.673186874948441982e-04
3.758000000000000000e+03 7.812426757812500000e+01 -1.101047706604003906e+01 5.331756256055086851e-05 -1.941450871527194977e-02 -5.808357149362564087e-03 1.022222801111638546e-03
3.759000000000000000e+03 7.937952423095703125e+01 -2.767225027084350586e+00 -1.876272472145501524e-05 -1.605641283094882965e-02 -4.822552669793367386e-03 4.304366884753108025e-04
3.760000000000000000e+03 7.812268829345703125e+01 -3.982135295867919922e+00 3.674278787002549507e-06 -1.551778428256511688e-02 -4.654232878237962723e-03 1.216637901961803436e-03
3.761000000000000000e+03 7.938585662841796875e+01 4.188828468322753906e+00 1.600110044819302857e-05 -1.104048173874616623e-02 -3.307344159111380577e-03 4.454271111171692610e-04
3.762000000000000000e+03 7.816268157958984375e+01 2.996142387390136719e+00 1.646833516133483499e-05 -1.109000574797391891e-02 -3.322061151266098022e-03 1.299407798796892166e-03
3.763000000000000000e+03 7.939615631103515625e+01 1.253248214721679688e+01 -1.469174094381742179e-06 -5.314305890351533890e-03 -1.594732515513896942e-03 3.629871935117989779e-04
3.764000000000000000e+03 7.817776489257812500e+01 9.948359489440917969e+00 -4.691177673521451652e-05 -6.649463437497615814e-03 -2.008912619203329086e-03 1.181958243250846863e-03
3.765000000000000000e+03 7.942793273925781250e+01 1.947131729125976562e+01 -2.237139415228739381e-05 -1.858204137533903122e-03 -5.641726311296224594e-04 2.141942386515438557e-04
3.766000000000000000e+03 7.822481536865234375e+01 1.688416290283203125e+01 -5.308288746164180338e-05 -3.020006231963634491e-03 -9.219267521984875202e-04 8.091752533800899982e-04
3.767000000000000000e+03 7.840135955810546875e+01 2.238117980957031250e+01 -4.629015529644675553e-05 -1.109440228901803493e-03 -3.467191127128899097e-04 4.154733032919466496e-04
3.768000000000000000e+03 7.952257537841796875e+01 2.636081504821777344e+01 -5.396417691372334957e-06 -1.288767816731706262e-04 -4.028196053695864975e-05 5.545996828004717827e-05
3.769000000000000000e+03 7.744610595703125000e+01 3.104917907714843750e+01 -5.240518294158391654e-05 -6.227591802598908544e-05 -3.440433283685706556e-05 1.454370249120984226e-05
3.770000000000000000e+03 7.847801208496093750e+01 2.372764396667480469e+01 -5.168500501895323396e-05 -7.838723831810057163e-04 -2.506672171875834465e-04 3.295540518593043089e-04
3.771000000000000000e+03 7.949246978759765625e+01 2.361182975769042969e+01 -5.331843567546457052e-06 -6.104818894527852535e-04 -1.847441162681207061e-04 1.107264979509636760e-04
3.772000000000000000e+03 7.828411102294921875e+01 1.964635658264160156e+01 -5.464240166475065053e-05 -1.946351258084177971e-03 -6.002981099300086498e-04 6.175528978928923607e-04
3.773000000000000000e+03 7.714263153076171875e+01 1.981915473937988281e+01 -1.582758559379726648e-04 -1.955914543941617012e-03 -6.342570995911955833e-04 9.833782678470015526e-04
3.774000000000000000e+03 7.821082305908203125e+01 1.550062656402587891e+01 -6.653374293819069862e-05 -3.643042640760540962e-03 -1.112872967496514320e-03 8.980045095086097717e-04
3.775000000000000000e+03 7.819286346435546875e+01 1.272727489471435547e+01 -5.889983003726229072e-05 -5.055781919509172440e-03 -1.534404465928673744e-03 1.055278815329074860e-03
3.776000000000000000e+03 7.699681854248046875e+01 1.290263271331787109e+01 -1.184735301649197936e-04 -4.756500478833913803e-03 -1.462492160499095917e-03 1.660643261857330799e-03
3.777000000000000000e+03 7.817266082763671875e+01 8.558917999267578125e+00 -1.528230495750904083e-05 -7.498778402805328369e-03 -2.254218328744173050e-03 1.219002646394073963e-03
3.778000000000000000e+03 7.816295623779296875e+01 4.384366512298583984e+00 -2.353429954382590950e-05 -1.017853803932666779e-02 -3.060621675103902817e-03 1.298477407544851303e-03
3.779000000000000000e+03 7.816251373291015625e+01 2.215074896812438965e-01 2.732333632593508810e-05 -1.289768051356077194e-02 -3.861107164993882179e-03 1.280980766750872135e-03
3.780000000000000000e+03 7.814317321777343750e+01 -2.573619365692138672e+00 4.817312947125174105e-05 -1.467411126941442490e-02 -4.387781489640474319e-03 1.237662625499069691e-03
3.781000000000000000e+03 7.809852600097656250e+01 -6.795846462249755859e+00 3.398203489268780686e-06 -1.713806204497814178e-02 -5.140399560332298279e-03 1.155609497800469398e-03
3.782000000000000000e+03 7.811111450195312500e+01 -9.609943389892578125e+00 1.157036604126915336e-05 -1.867965608835220337e-02 -5.600425880402326584e-03 1.070123049430549145e-03
3.783000000000000000e+03 7.814358520507812500e+01 -1.377779197692871094e+01 5.462619810714386404e-05 -2.079767733812332153e-02 -6.222915370017290115e-03 9.410768980160355568e-04
3.784000000000000000e+03 7.694467926025390625e+01 -1.506840419769287109e+01 1.025872697937302291e-04 -1.950739137828350067e-02 -5.821441300213336945e-03 1.417430583387613297e-03
3.785000000000000000e+03 7.812337493896484375e+01 -1.931195449829101562e+01 6.036700142431072891e-05 -2.312460355460643768e-02 -6.919270846992731094e-03 7.925648242235183716e-04
3.786000000000000000e+03 7.679806518554687500e+01 -2.196618843078613281e+01 1.004783480311743915e-04 -2.167658507823944092e-02 -6.472832057625055313e-03 1.083682174794375896e-03
3.787000000000000000e+03 7.802207183837890625e+01 -2.627673339843750000e+01 2.145472535630688071e-06 -2.513959072530269623e-02 -7.541233208030462265e-03 5.272522103041410446e-04
3.788000000000000000e+03 7.667276763916015625e+01 -2.892606925964355469e+01 1.643623108975589275e-04 -2.290686033666133881e-02 -6.822749506682157516e-03 6.752822082489728928e-04
3.789000000000000000e+03 7.786227416992187500e+01 -3.325129699707031250e+01 1.126663992181420326e-04 -2.600044570863246918e-02 -7.766333874315023422e-03 3.524578642100095749e-04
3.790000000000000000e+03 7.565065765380859375e+01 -4.057307815551757812e+01 -9.542872430756688118e-05 -2.339953184127807617e-02 -7.048488594591617584e-03 9.559182799421250820e-04
3.791000000000000000e+03 7.815426635742187500e+01 3.096947288513183594e+01 -3.390281926840543747e-05 -3.035446206922642887e-05 -1.927718403749167919e-05 -3.349841335875680670e-06
3.792000000000000000e+03 1.430231213569641113e+00 -4.003878021240234375e+01 -1.344556949334219098e-04 2.008771710097789764e-02 5.985978525131940842e-03 -2.560596913099288940e-04
3.793000000000000000e+03 6.070718169212341309e-01 -3.601838302612304688e+01 -2.058314421446993947e-04 2.065222337841987610e-02 6.133917253464460373e-03 5.656595749314874411e-05
3.794000000000000000e+03 2.331698179244995117e+00 -3.327431488037109375e+01 -1.581575343152508140e-04 1.814096234738826752e-02 5.394841078668832779e-03 7.633235654793679714e-04
3.795000000000000000e+03 2.171767950057983398e+00 -2.922313690185546875e+01 -2.967013861052691936e-04 1.671229675412178040e-02 4.924678709357976913e-03 1.086604665033519268e-03
3.796000000000000000e+03 4.035906791687011719e+00 -2.630728149414062500e+01 -2.767290279734879732e-04 1.372164674103260040e-02 4.033475182950496674e-03 2.369293710216879845e-03
3.797000000000000000e+03 2.262520313262939453e+00 -3.661382675170898438e+01 -3.328418824821710587e-04 1.899955607950687408e-02 5.600014235824346542e-03 2.557953121140599251e-04
3.798000000000000000e+03 1.731905698776245117e+00 -9.467439651489257812e+00 1.526023115729913116e-04 1.691422541625797749e-03 5.532074719667434692e-04 1.152357785031199455e-03
3.799000000000000000e+03 1.857643127441406250e+00 -1.632654190063476562e+01 7.016814197413623333e-05 7.609861437231302261e-03 2.304008929058909416e-03 1.941611873917281628e-03
3.800000000000000000e+03 3.781947851181030273e+00 -3.897865295410156250e+01 -2.638786390889436007e-04 1.836227253079414368e-02 5.429518409073352814e-03 4.425475781317800283e-04
3.801000000000000000e+03 4.185265064239501953e+00 -3.670520019531250000e+01 -7.340278825722634792e-04 1.719800755381584167e-02 4.939193837344646454e-03 6.579376058652997017e-04
3.802000000000000000e+03 1.681640505790710449e+00 -3.541546249389648438e+01 -9.883146412903442979e-05 1.936951093375682831e-02 5.781203974038362503e-03 1.929883001139387488e-04
3.803000000000000000e+03 2.087172269821166992e+00 -3.190495681762695312e+01 -1.107109637814573944e-04 1.792231202125549316e-02 5.343480501323938370e-03 8.324561640620231628e-04
3.804000000000000000e+03 2.341997385025024414e+00 -2.783283996582031250e+01 -3.667742566904053092e-05 1.596220210194587708e-02 4.777657333761453629e-03 1.285889418795704842e-03
3.805000000000000000e+03 2.347247838973999023e+00 -2.633756065368652344e+01 -2.304157096659764647e-04 1.515069045126438141e-02 4.476082511246204376e-03 1.485673012211918831e-03
3.806000000000000000e+03 4.635066509246826172e+00 -2.293153572082519531e+01 -5.206073983572423458e-04 1.179603021591901779e-02 3.382626920938491821e-03 3.166897222399711609e-03
3.807000000000000000e+03 2.208536863327026367e+00 -2.481997299194335938e+01 -6.206355465110391378e-05 1.427836343646049500e-02 4.264889750629663467e-03 1.576106762513518333e-03
3.808000000000000000e+03 6.264599561691284180e-01 -1.915877532958984375e+01 -9.734067134559154510e-05 1.050491537898778915e-02 3.122272202745079994e-03 6.343512795865535736e-04
3.809000000000000000e+03 1.867343306541442871e+00 -1.772034835815429688e+01 -1.426683302270248532e-04 8.884275332093238831e-03 2.622482134029269218e-03 1.895113615319132805e-03
3.810000000000000000e+03 1.752230048179626465e+00 -1.217721271514892578e+01 5.142759982845745981e-05 3.767753019928932190e-03 1.145754125900566578e-03 1.634761458262801170e-03
3.811000000000000000e+03 3.014215230941772461e+00 -1.355505847930908203e+01 9.924849291564896703e-05 5.443191155791282654e-03 1.662731869146227837e-03 2.846367890015244484e-03
3.812000000000000000e+03 5.817408561706542969e-01 -1.213028430938720703e+01 9.675369801698252559e-05 3.032179782167077065e-03 9.386800229549407959e-04 5.665347562171518803e-04
3.813000000000000000e+03 1.723557114601135254e+00 -1.081416034698486328e+01 2.369700232520699501e-04 2.657091012224555016e-03 8.682183106429874897e-04 1.427044277079403400e-03
3.814000000000000000e+03 4.870205402374267578e+00 -3.663794279098510742e+00 9.581748745404183865e-04 3.596539027057588100e-04 3.953486157115548849e-04 2.660537138581275940e-04
3.815000000000000000e+03 3.079275131225585938e+00 -3.038581132888793945e+00 2.556226390879601240e-04 1.373690465698018670e-04 1.178975071525201201e-04 -1.496569602750241756e-04
3.816000000000000000e+03 1.390732407569885254e+00 -3.410805225372314453e+00 7.554993499070405960e-05 -2.923127904068678617e-04 -6.502885662484914064e-05 -1.989600714296102524e-04
3.817000000000000000e+03 6.251596808433532715e-01 -5.002863407135009766e+00 4.436104791238903999e-05 -6.583519862033426762e-04 -1.841972843976691365e-04 1.553652691654860973e-05
3.818000000000000000e+03 2.298713302612304688e+01 1.509437918663024902e+00 4.771078005433082581e-02 -5.187622737139463425e-03 1.275694742798805237e-02 2.459446340799331665e-02
3.819000000000000000e+03 2.552997970581054688e+01 3.337685823440551758e+00 5.828751623630523682e-02 -1.235688757151365280e-02 1.377918850630521774e-02 1.334398612380027771e-02
3.820000000000000000e+03 2.654239463806152344e+01 3.300188064575195312e+00 6.308273226022720337e-02 -2.555921208113431931e-03 1.815804280340671539e-02 2.191695384681224823e-02
3.821000000000000000e+03 2.457069778442382812e+01 2.624475955963134766e+00 5.739310756325721741e-02 -9.312865324318408966e-03 1.442407257854938507e-02 1.497917342931032181e-02
3.822000000000000000e+03 2.353441429138183594e+01 1.828149437904357910e+00 5.112131312489509583e-02 -7.734251208603382111e-03 1.301611866801977158e-02 1.970981806516647339e-02
3.823000000000000000e+03 2.282219505310058594e+01 4.785579442977905273e-01 2.828749641776084900e-02 -1.270151138305664062e-02 4.675795324146747589e-03 2.394155971705913544e-02
3.824000000000000000e+03 1.685564231872558594e+01 -2.221302270889282227e+00 2.496237680315971375e-02 9.587077423930168152e-03 1.036483608186244965e-02 1.258420385420322418e-02
3.825000000000000000e+03 2.787389183044433594e+01 4.015740394592285156e+00 6.749504059553146362e-02 5.124804750084877014e-02 3.562292456626892090e-02 4.383087903261184692e-02
3.826000000000000000e+03 2.705248069763183594e+01 4.297769069671630859e+00 6.770287454128265381e-02 -6.260268390178680420e-03 1.843278296291828156e-02 2.480803057551383972e-02
3.827000000000000000e+03 2.916012763977050781e+01 5.553018569946289062e+00 8.399137854576110840e-02 3.507266938686370850e-01 1.304154247045516968e-01 -2.945949696004390717e-02
3.828000000000000000e+03 2.827036476135253906e+01 4.573370456695556641e+00 6.980912387371063232e-02 9.590984880924224854e-02 4.971569031476974487e-02 5.438055843114852905e-02
3.829000000000000000e+03 2.534320831298828125e+01 2.976852893829345703e+00 5.830749869346618652e-02 -1.133554987609386444e-02 1.409158390015363693e-02 1.397250778973102570e-02
3.830000000000000000e+03 2.373381614685058594e+01 1.811723947525024414e+00 5.110006034374237061e-02 -8.609320968389511108e-03 1.274722162634134293e-02 1.793085224926471710e-02
3.831000000000000000e+03 2.570927429199218750e+01 3.420324802398681641e+00 5.838424712419509888e-02 -1.250752154737710953e-02 1.376301795244216919e-02 1.359987352043390274e-02
3.832000000000000000e+03 2.515713500976562500e+01 2.697864532470703125e+00 5.756740272045135498e-02 -1.116785500198602676e-02 1.391986384987831116e-02 1.396421249955892563e-02
3.833000000000000000e+03 2.419136238098144531e+01 2.427769660949707031e+00 5.613023787736892700e-02 -7.662646006792783737e-03 1.454027742147445679e-02 1.630991324782371521e-02
3.834000000000000000e+03 2.396052551269531250e+01 1.860472917556762695e+00 5.113791301846504211e-02 -9.966496378183364868e-03 1.235142536461353302e-02 1.661303825676441193e-02
3.835000000000000000e+03 1.730981826782226562e+01 -2.520879268646240234e+00 2.904665097594261169e-02 2.181987650692462921e-02 1.525995787233114243e-02 1.820762269198894501e-02
3.836000000000000000e+03 2.765320777893066406e+01 4.537916660308837891e+00 7.483118772506713867e-02 2.110161818563938141e-02 2.877984195947647095e-02 4.222613573074340820e-02
3.837000000000000000e+03 2.706279182434082031e+01 4.097437858581542969e+00 6.724755465984344482e-02 -2.917886245995759964e-03 1.929890178143978119e-02 2.644199132919311523e-02
3.838000000000000000e+03 2.383225631713867188e+01 2.219078779220581055e+00 5.618251860141754150e-02 -6.036839447915554047e-03 1.504370383918285370e-02 1.814395003020763397e-02
3.839000000000000000e+03 2.682257843017578125e+01 3.769627809524536133e+00 6.635435670614242554e-02 -2.807771321386098862e-03 1.906397379934787750e-02 2.445525303483009338e-02
3.840000000000000000e+03 2.323281860351562500e+01 1.704132556915283203e+00 5.047558620572090149e-02 -5.559834185987710953e-03 1.347472611814737320e-02 2.134689129889011383e-02
3.841000000000000000e+03 2.195556640625000000e+01 1.022745966911315918e+00 3.875460848212242126e-02 -1.565616577863693237e-03 1.115669775754213333e-02 3.839865326881408691e-02
3.842000000000000000e+03 2.129942131042480469e+01 5.526948571205139160e-01 2.977267839014530182e-02 1.025700941681861877e-02 1.200890634208917618e-02 5.805289745330810547e-02
3.843000000000000000e+03 2.017977714538574219e+01 -2.369171977043151855e-01 2.099547535181045532e-02 8.221863210201263428e-02 3.096423111855983734e-02 4.548130929470062256e-02
3.844000000000000000e+03 4.723084259033203125e+01 2.739331817626953125e+01 -3.691842779517173767e-03 -2.078212331980466843e-03 -1.731016556732356548e-03 -2.797430381178855896e-03
3.845000000000000000e+03 3.906903076171875000e+01 1.983416557312011719e+01 -1.266593486070632935e-02 -1.107940264046192169e-02 -7.123601157218217850e-03 -1.190286688506603241e-02
3.846000000000000000e+03 4.019202041625976562e+01 2.091883659362792969e+01 -1.130047161132097244e-02 -8.035846985876560211e-03 -5.800895858556032181e-03 -9.652999229729175568e-03
3.847000000000000000e+03 3.935168838500976562e+01 1.959010505676269531e+01 -1.386013627052307129e-02 -9.456456638872623444e-03 -6.994978059083223343e-03 -1.295003574341535568e-02
3.848000000000000000e+03 4.079773330688476562e+01 2.090577507019042969e+01 -1.218170952051877975e-02 -6.969170179218053818e-03 -5.745263770222663879e-03 -9.455189108848571777e-03
3.849000000000000000e+03 3.467554092407226562e+01 1.313015651702880859e+01 -9.834155440330505371e-02 -8.805988356471061707e-03 -3.214426338672637939e-02 -4.190499708056449890e-02
3.850000000000000000e+03 3.185373878479003906e+01 1.180476284027099609e+01 -2.210424691438674927e-01 -8.170135319232940674e-02 -9.082314372062683105e-02 -1.421656459569931030e-01
3.851000000000000000e+03 3.260811996459960938e+01 1.214078330993652344e+01 -1.821792721748352051e-01 -4.665379226207733154e-02 -6.864991784095764160e-02 -9.348991513252258301e-02
3.852000000000000000e+03 2.899024009704589844e+01 9.372073173522949219e+00 -1.436908602714538574e+00 -5.212450027465820312e-01 -5.874460935592651367e-01 -9.594185948371887207e-01
3.853000000000000000e+03 3.909673690795898438e+01 1.930888938903808594e+01 -1.552561577409505844e-02 -1.072165556252002716e-02 -7.874181494116783142e-03 -1.322496961802244186e-02
3.854000000000000000e+03 4.656877136230468750e+01 2.636793899536132812e+01 -4.608602728694677353e-03 -2.310457872226834297e-03 -2.075718250125646591e-03 -3.394065890461206436e-03
3.855000000000000000e+03 4.157925033569335938e+01 2.228320693969726562e+01 -1.000468432903289795e-02 -6.557110231369733810e-03 -4.968538414686918259e-03 -8.221683092415332794e-03
3.856000000000000000e+03 4.658779525756835938e+01 2.689176177978515625e+01 -3.964693751186132431e-03 -2.448760438710451126e-03 -1.924036303535103798e-03 -3.175262361764907837e-03
3.857000000000000000e+03 4.552939605712890625e+01 2.574639892578125000e+01 -5.184807814657688141e-03 -3.189754206687211990e-03 -2.512368606403470039e-03 -4.083640407770872116e-03
3.858000000000000000e+03 3.806249618530273438e+01 1.861942100524902344e+01 -1.762309111654758453e-02 -1.607045717537403107e-02 -1.010806392878293991e-02 -1.619280874729156494e-02
3.859000000000000000e+03 3.884847259521484375e+01 1.901487922668457031e+01 -1.598359458148479462e-02 -1.116508897393941879e-02 -8.144604973495006561e-03 -1.468759123235940933e-02
3.860000000000000000e+03 4.267903137207031250e+01 2.279203033447265625e+01 -9.344615973532199860e-03 -5.012289155274629593e-03 -4.307071212679147720e-03 -7.168717216700315475e-03
3.861000000000000000e+03 4.129220962524414062e+01 2.202077865600585938e+01 -1.066306326538324356e-02 -7.030532695353031158e-03 -5.308079067617654800e-03 -8.244400843977928162e-03
3.862000000000000000e+03 4.238583755493164062e+01 2.253032493591308594e+01 -9.993571788072586060e-03 -5.456864368170499802e-03 -4.635130986571311951e-03 -7.309307809919118881e-03
3.863000000000000000e+03 3.101577568054199219e+01 8.407949447631835938e+00 -4.570591822266578674e-02 8.996853232383728027e-02 1.327878423035144806e-02 3.223432600498199463e-01
3.864000000000000000e+03 3.515665817260742188e+01 1.580758094787597656e+01 -3.572317585349082947e-02 -3.432299196720123291e-02 -2.101385034620761871e-02 -3.714077919721603394e-02
3.865000000000000000e+03 3.474104309082031250e+01 1.391414070129394531e+01 -7.787265628576278687e-02 -2.294831536710262299e-02 -3.024629130959510803e-02 -4.765894263982772827e-02
3.866000000000000000e+03 4.297192382812500000e+01 2.305725288391113281e+01 -9.082222357392311096e-03 -4.961094819009304047e-03 -4.212995059788227081e-03 -6.706801708787679672e-03
3.867000000000000000e+03 3.781493377685546875e+01 1.830343818664550781e+01 -1.857050880789756775e-02 -1.682233810424804688e-02 -1.061785407364368439e-02 -1.821950823068618774e-02
3.868000000000000000e+03 3.860375976562500000e+01 1.870963859558105469e+01 -1.825555413961410522e-02 -1.256297063082456589e-02 -9.245557710528373718e-03 -1.511510089039802551e-02
3.869000000000000000e+03 3.526598739624023438e+01 1.516662406921386719e+01 -4.758755862712860107e-02 -2.861838601529598236e-02 -2.286178432404994965e-02 -3.968109935522079468e-02
3.870000000000000000e+03 3.239380264282226562e+01 1.186196327209472656e+01 -2.014177590608596802e-01 -4.077354818582534790e-02 -7.265739142894744873e-02 -1.054996922612190247e-01
3.871000000000000000e+03 3.499019622802734375e+01 1.486368751525878906e+01 -5.545558407902717590e-02 -3.277739882469177246e-02 -2.646989561617374420e-02 -4.110775515437126160e-02
3.872000000000000000e+03 4.046798324584960938e+01 2.119053649902343750e+01 -1.068682875484228134e-02 -7.365108001977205276e-03 -5.415581166744232178e-03 -9.661911986768245697e-03
3.873000000000000000e+03 4.423821640014648438e+01 2.462594985961914062e+01 -6.824462674558162689e-03 -4.502940457314252853e-03 -3.398220986127853394e-03 -5.305191501975059509e-03
3.874000000000000000e+03 5.027494812011718750e+01 2.994831848144531250e+01 -2.109887078404426575e-03 -8.944002329371869564e-04 -9.012861992232501507e-04 -1.450608018785715103e-03
3.875000000000000000e+03 3.321921157836914062e+01 1.375557994842529297e+01 -8.495282381772994995e-02 -7.013940066099166870e-02 -4.652766883373260498e-02 -7.186223566532135010e-02
3.876000000000000000e+03 3.379994583129882812e+01 1.369448661804199219e+01 -8.814232051372528076e-02 -4.765133559703826904e-02 -4.073809459805488586e-02 -5.995183810591697693e-02
3.877000000000000000e+03 3.553270339965820312e+01 1.547579860687255859e+01 -4.526564851403236389e-02 -2.843713201582431793e-02 -2.211083471775054932e-02 -3.428015485405921936e-02
3.878000000000000000e+03 5.056549072265625000e+01 3.022458648681640625e+01 -1.964349532499909401e-03 -8.224708726629614830e-04 -8.360461215488612652e-04 -1.319311559200286865e-03
3.879000000000000000e+03 4.858396530151367188e+01 2.882816505432128906e+01 -2.699688076972961426e-03 -1.596437534317374229e-03 -1.288837753236293793e-03 -2.089860150590538979e-03
3.880000000000000000e+03 4.970001220703125000e+01 2.939765167236328125e+01 -2.450789790600538254e-03 -1.075335429050028324e-03 -1.057837624102830887e-03 -1.693398226052522659e-03
3.881000000000000000e+03 4.209711837768554688e+01 2.227578163146972656e+01 -1.013227552175521851e-02 -5.597600247710943222e-03 -4.718962591141462326e-03 -7.755106780678033829e-03
3.882000000000000000e+03 3.962387847900390625e+01 1.934848785400390625e+01 -1.624125987291336060e-02 -8.633470162749290466e-03 -7.462419103831052780e-03 -1.262234058231115341e-02
3.883000000000000000e+03 4.326193618774414062e+01 2.332239151000976562e+01 -8.534228429198265076e-03 -4.593203309923410416e-03 -3.938229754567146301e-03 -6.525116506963968277e-03
3.884000000000000000e+03 3.668231964111328125e+01 1.612891960144042969e+01 -3.836951777338981628e-02 -1.855045743286609650e-02 -1.707599312067031860e-02 -2.606886252760887146e-02
3.885000000000000000e+03 3.051132011413574219e+01 9.917184829711914062e+00 -5.829153656959533691e-01 1.322806160897016525e-02 -1.709061861038208008e-01 -8.440275490283966064e-02
3.886000000000000000e+03 4.830836105346679688e+01 2.803290748596191406e+01 -3.379929577931761742e-03 -1.569484476931393147e-03 -1.484824228100478649e-03 -2.332603326067328453e-03
3.887000000000000000e+03 4.887060546875000000e+01 2.910165405273437500e+01 -2.543805399909615517e-03 -1.509929890744388103e-03 -1.216120552271604538e-03 -1.935818814672529697e-03
3.888000000000000000e+03 4.941587448120117188e+01 2.912210083007812500e+01 -2.650613896548748016e-03 -1.186900306493043900e-03 -1.151254284195601940e-03 -1.800780533812940121e-03
3.889000000000000000e+03 3.756719970703125000e+01 1.798767662048339844e+01 -2.159062586724758148e-02 -1.858644559979438782e-02 -1.205312181264162064e-02 -1.894169859588146210e-02
3.890000000000000000e+03 2.111293411254882812e+01 6.036797165870666504e-01 2.578267268836498260e-02 2.349121868610382080e-02 1.478216797113418579e-02 5.730730667710304260e-02
3.891000000000000000e+03 2.154139137268066406e+01 8.718303591012954712e-02 1.859359443187713623e-02 -1.070033572614192963e-02 2.367977751418948174e-03 4.517659917473793030e-02
3.892000000000000000e+03 1.845423698425292969e+01 -1.666336059570312500e+00 2.974724210798740387e-02 4.666664078831672668e-02 2.292416431009769440e-02 3.009158372879028320e-02
3.893000000000000000e+03 2.062036705017089844e+01 1.795730292797088623e-01 1.341979950666427612e-02 4.175077751278877258e-02 1.655117236077785492e-02 6.996872276067733765e-02
3.894000000000000000e+03 1.896596717834472656e+01 -1.287330269813537598e+00 4.815470427274703979e-02 6.336619704961776733e-02 3.345626965165138245e-02 3.667499870061874390e-02
3.895000000000000000e+03 1.854200363159179688e+01 -1.080510616302490234e+00 3.166619688272476196e-02 4.153098538517951965e-02 2.195915579795837402e-02 2.325555123388767242e-02
3.896000000000000000e+03 5.085737991333007812e+01 3.050030517578125000e+01 -1.805802690796554089e-03 -7.232269854284822941e-04 -7.587088621221482754e-04 -1.216998905874788761e-03
3.897000000000000000e+03 4.457232284545898438e+01 2.486163139343261719e+01 -6.427199114114046097e-03 -4.041823092848062515e-03 -3.140706801787018776e-03 -5.100394133478403091e-03
3.898000000000000000e+03 4.857564163208007812e+01 2.829513931274414062e+01 -3.161838045343756676e-03 -1.466285670176148415e-03 -1.388437114655971527e-03 -2.215282293036580086e-03
3.899000000000000000e+03 4.885262680053710938e+01 2.856766700744628906e+01 -3.022949211299419403e-03 -1.388250151649117470e-03 -1.323359785601496696e-03 -2.065769629552960396e-03
3.900000000000000000e+03 3.443585586547851562e+01 1.358872699737548828e+01 -9.014573693275451660e-02 -2.740942314267158508e-02 -3.526654839515686035e-02 -4.800332710146903992e-02
3.901000000000000000e+03 3.715786743164062500e+01 1.679253196716308594e+01 -3.162015229463577271e-02 -1.747355982661247253e-02 -1.472811307758092880e-02 -2.275617793202400208e-02
3.902000000000000000e+03 4.603252410888671875e+01 2.635725212097167969e+01 -4.385164007544517517e-03 -2.827355405315756798e-03 -2.163755940273404121e-03 -3.576372750103473663e-03
3.903000000000000000e+03 5.205797958374023438e+01 3.219140625000000000e+01 -8.874494233168661594e-04 -4.025384550914168358e-04 -3.869963693432509899e-04 -6.451113731600344181e-04
3.904000000000000000e+03 4.181422424316406250e+01 2.202730941772460938e+01 -1.078359503298997879e-02 -6.071082316339015961e-03 -5.056403111666440964e-03 -7.845897227525711060e-03
3.905000000000000000e+03 4.102412414550781250e+01 2.122651100158691406e+01 -1.118882652372121811e-02 -6.672728341072797775e-03 -5.358466412872076035e-03 -9.235921315848827362e-03
3.906000000000000000e+03 5.261610794067382812e+01 3.279759216308593750e+01 -6.569474935531616211e-04 -2.373770839767530560e-04 -2.682973863556981087e-04 -4.875305749010294676e-04
3.907000000000000000e+03 5.233830642700195312e+01 3.249049377441406250e+01 -7.705626776441931725e-04 -3.222743980586528778e-04 -3.278511285316199064e-04 -5.515759112313389778e-04
3.908000000000000000e+03 4.354951477050781250e+01 2.358459281921386719e+01 -8.284203708171844482e-03 -4.599023610353469849e-03 -3.864968195557594299e-03 -6.082163192331790924e-03
3.909000000000000000e+03 4.412496948242187500e+01 2.408012008666992188e+01 -7.626101840287446976e-03 -4.221527837216854095e-03 -3.554288996383547783e-03 -5.487903486937284470e-03
3.910000000000000000e+03 3.739696121215820312e+01 1.711710739135742188e+01 -2.735974825918674469e-02 -1.653930731117725372e-02 -1.316971611231565475e-02 -2.190606296062469482e-02
3.911000000000000000e+03 3.159925079345703125e+01 1.149881172180175781e+01 -2.784236967563629150e-01 -9.159214049577713013e-02 -1.110047474503517151e-01 -1.478041559457778931e-01
3.912000000000000000e+03 5.115068435668945312e+01 3.077501296997070312e+01 -1.677955035120248795e-03 -6.508464575745165348e-04 -6.986404769122600555e-04 -1.097113592550158501e-03
3.913000000000000000e+03 4.127074432373046875e+01 2.151444435119628906e+01 -1.135127618908882141e-02 -6.616147235035896301e-03 -5.390227306634187698e-03 -8.511055260896682739e-03
3.914000000000000000e+03 5.416596984863281250e+01 3.305159759521484375e+01 -8.826766861602663994e-04 -2.319995655852835625e-05 -2.717630122788250446e-04 -3.964837815146893263e-04
3.915000000000000000e+03 4.493785476684570312e+01 2.509710121154785156e+01 -6.183875724673271179e-03 -3.698532469570636749e-03 -2.964722458273172379e-03 -4.630129318684339523e-03
3.916000000000000000e+03 3.372128677368164062e+01 1.308103370666503906e+01 -1.117609515786170959e-01 -3.655518963932991028e-02 -4.449484124779701233e-02 -6.152826920151710510e-02
3.917000000000000000e+03 5.144819259643554688e+01 3.104920387268066406e+01 -1.541269011795520782e-03 -5.502504063770174980e-04 -6.274558254517614841e-04 -1.002756878733634949e-03
3.918000000000000000e+03 5.206336593627929688e+01 3.159831047058105469e+01 -1.304304343648254871e-03 -3.720448294188827276e-04 -5.029047606512904167e-04 -8.075732039287686348e-04
3.919000000000000000e+03 5.268413925170898438e+01 3.215949249267578125e+01 -1.073986757546663284e-03 -2.174639812437817454e-04 -3.874352260027080774e-04 -6.401772261597216129e-04
3.920000000000000000e+03 5.140979766845703125e+01 3.050445556640625000e+01 -1.929528312757611275e-03 -4.981473903171718121e-04 -7.283026934601366520e-04 -1.133539946749806404e-03
3.921000000000000000e+03 5.175247573852539062e+01 3.132352638244628906e+01 -1.426205155439674854e-03 -4.732823581434786320e-04 -5.698462482541799545e-04 -8.928641327656805515e-04
3.922000000000000000e+03 3.167230033874511719e+01 1.089170837402343750e+01 -3.532133102416992188e-01 -1.075949240475893021e-02 -1.091918423771858215e-01 -9.448501467704772949e-02
3.923000000000000000e+03 3.001247596740722656e+01 5.152114868164062500e+00 1.429253369569778442e-01 2.633624374866485596e-01 1.218863278627395630e-01 -1.140801385045051575e-01
3.924000000000000000e+03 2.958577919006347656e+01 5.379676342010498047e+00 1.051420867443084717e-01 3.472249209880828857e-01 1.357101052999496460e-01 -8.726208657026290894e-02
3.925000000000000000e+03 5.360169219970703125e+01 3.302038192749023438e+01 -7.957126945257186890e-04 -8.184293255908414721e-05 -2.632666728459298611e-04 -4.132535832468420267e-04
3.926000000000000000e+03 1.024450588226318359e+01 -3.588143825531005859e+00 4.598517902195453644e-03 1.738294085953384638e-04 1.431704265996813774e-03 1.812369213439524174e-03
3.927000000000000000e+03 1.022858715057373047e+01 -2.798634290695190430e+00 3.253977512940764427e-03 2.682649646885693073e-04 1.056672772392630577e-03 8.900223183445632458e-04
3.928000000000000000e+03 7.606560516357421875e+01 3.136301040649414062e+01 -1.156193757196888328e-04 -8.164294558810070157e-05 -5.917869566474109888e-05 7.301341247512027621e-05
3.929000000000000000e+03 7.711888122558593750e+01 3.009936714172363281e+01 -9.065677295438945293e-05 -1.289173087570816278e-04 -6.587222014786675572e-05 8.425342093687504530e-05
3.930000000000000000e+03 7.852639770507812500e+01 2.776159477233886719e+01 -2.958748518722131848e-05 -1.668714394327253103e-04 -5.893767593079246581e-05 1.088709177565760911e-04
3.931000000000000000e+03 9.493301391601562500e+00 -3.515927553176879883e+00 3.606208367273211479e-03 5.030090687796473503e-04 1.232765149325132370e-03 1.407728996127843857e-03
3.932000000000000000e+03 1.415804672241210938e+01 -3.155077695846557617e+00 1.202488318085670471e-02 5.789637798443436623e-04 3.781154053285717964e-03 4.047976341098546982e-03
3.933000000000000000e+03 7.650885772705078125e+01 2.936610412597656250e+01 -1.572470064274966717e-04 -2.024700079346075654e-04 -1.079151043086312711e-04 1.831547851907089353e-04
3.934000000000000000e+03 7.533100128173828125e+01 3.064700698852539062e+01 -2.022084372583776712e-04 -1.247467007488012314e-04 -9.808654431253671646e-05 1.605581055628135800e-04
3.935000000000000000e+03 7.087620544433593750e+01 3.136199569702148438e+01 -6.323906127363443375e-04 -6.901445885887369514e-05 -2.104215236613526940e-04 3.704487171489745378e-04
3.936000000000000000e+03 7.162565612792968750e+01 3.064485931396484375e+01 -6.039326544851064682e-04 -1.158678278443403542e-04 -2.159401483368128538e-04 4.277018888387829065e-04
3.937000000000000000e+03 7.238645935058593750e+01 3.064233207702636719e+01 -5.040856776759028435e-04 -1.265747705474495888e-04 -1.891981373773887753e-04 3.774538054130971432e-04
3.938000000000000000e+03 7.315482330322265625e+01 3.136761474609375000e+01 -3.503714979160577059e-04 -8.454654016532003880e-05 -1.304754114244133234e-04 2.445770951453596354e-04
3.939000000000000000e+03 7.313906860351562500e+01 3.064037513732910156e+01 -4.168083833064883947e-04 -1.331136299995705485e-04 -1.649766054470092058e-04 3.258479991927742958e-04
3.940000000000000000e+03 6.850347900390625000e+01 3.000123405456542969e+01 -1.123122288845479488e-03 -7.245335291372612119e-05 -3.586726961657404900e-04 6.582458736374974251e-04
3.941000000000000000e+03 6.703465270996093750e+01 3.145346260070800781e+01 -1.195585122331976891e-03 -2.493403189873788506e-05 -3.661557566374540329e-04 4.469389095902442932e-04
3.942000000000000000e+03 6.776884460449218750e+01 3.073255729675292969e+01 -1.159900217317044735e-03 -4.077539051650092006e-05 -3.602026845328509808e-04 5.550326313823461533e-04
3.943000000000000000e+03 5.859025955200195312e+01 3.226284408569335938e+01 -1.704689464531838894e-03 1.744828041410073638e-04 -4.590620228555053473e-04 -1.317189307883381844e-04
3.944000000000000000e+03 6.003018569946289062e+01 3.140302658081054688e+01 -1.934577943757176399e-03 2.127175685018301010e-04 -5.165581242181360722e-04 3.221235601813532412e-05
3.945000000000000000e+03 5.706097030639648438e+01 3.252574157714843750e+01 -1.532254507765173912e-03 1.730817457428202033e-04 -4.077518242411315441e-04 -2.701416960917413235e-04
3.946000000000000000e+03 5.849365997314453125e+01 3.164787292480468750e+01 -1.899958588182926178e-03 2.446350990794599056e-04 -4.965970292687416077e-04 -1.506084372522309422e-04
3.947000000000000000e+03 7.388680267333984375e+01 3.063960647583007812e+01 -3.365887678228318691e-04 -1.359393063466995955e-04 -1.417584135197103024e-04 2.716101589612662792e-04
3.948000000000000000e+03 6.311952590942382812e+01 3.104603767395019531e+01 -1.763443578965961933e-03 1.019785850076004863e-04 -4.984394763596355915e-04 3.568295214790850878e-04
3.949000000000000000e+03 6.234547042846679688e+01 3.112208938598632812e+01 -1.832307083532214165e-03 1.302002783631905913e-04 -5.106320604681968689e-04 2.879011444747447968e-04
3.950000000000000000e+03 6.699421691894531250e+01 3.076952552795410156e+01 -1.275304472073912621e-03 -2.222847615485079587e-05 -3.892598906531929970e-04 5.525737651623785496e-04
3.951000000000000000e+03 6.544525909423828125e+01 3.086152458190917969e+01 -1.493618008680641651e-03 2.219525231339503080e-05 -4.414268187247216702e-04 5.081800045445561409e-04
3.952000000000000000e+03 6.622034454345703125e+01 3.081283760070800781e+01 -1.385887619107961655e-03 -6.291609011555010511e-09 -4.157681833021342754e-04 5.338809569366276264e-04
3.953000000000000000e+03 7.008805084228515625e+01 3.066192054748535156e+01 -8.169803768396377563e-04 -9.080745076062157750e-05 -2.723363577388226986e-04 5.068404134362936020e-04
3.954000000000000000e+03 3.143542480468750000e+01 7.777403354644775391e+00 2.512216269969940186e-01 -2.180341817438602448e-02 6.882546097040176392e-02 2.396781891584396362e-01
3.955000000000000000e+03 3.094241714477539062e+01 5.740991592407226562e+00 3.023392558097839355e-01 9.408898651599884033e-02 1.189284697175025940e-01 -1.255678683519363403e-01
3.956000000000000000e+03 5.762752914428710938e+01 3.118144989013671875e+01 -2.075562952086329460e-03 3.208643465768545866e-04 -5.264095962047576904e-04 -2.541940484661608934e-04
3.957000000000000000e+03 5.926131057739257812e+01 3.151891517639160156e+01 -1.932840328663587570e-03 2.328946720808744431e-04 -5.099836853332817554e-04 -5.826209599035792053e-05
3.958000000000000000e+03 5.551238250732421875e+01 3.222909927368164062e+01 -1.508052344433963299e-03 1.466102839913219213e-04 -4.084326210431754589e-04 -4.387081717140972614e-04
3.959000000000000000e+03 6.389397430419921875e+01 3.097774505615234375e+01 -1.684786053374409676e-03 7.357428694376721978e-05 -4.833635466638952494e-04 4.188315069768577814e-04
3.960000000000000000e+03 6.080039596557617188e+01 3.129982757568359375e+01 -1.920744194649159908e-03 1.874134904937818646e-04 -5.199991865083575249e-04 1.236441457876935601e-04
3.961000000000000000e+03 1.635024642944335938e+01 -3.065790891647338867e+00 2.206777408719062805e-02 8.950295858085155487e-03 9.305421262979507446e-03 1.328521780669689178e-02
3.962000000000000000e+03 7.201735019683837891e+00 -3.452327251434326172e+00 1.875167479738593102e-03 3.072338877245783806e-04 6.547204102389514446e-04 7.534646429121494293e-04
3.963000000000000000e+03 6.425752162933349609e+00 -3.487047672271728516e+00 1.449366798624396324e-03 4.261322610545903444e-04 5.626497440971434116e-04 5.318002658896148205e-04
3.964000000000000000e+03 8.736318588256835938e+00 -3.467117786407470703e+00 2.957255113869905472e-03 2.503620635252445936e-04 9.622851503081619740e-04 1.212239614687860012e-03
3.965000000000000000e+03 9.518204689025878906e+00 -4.294697761535644531e+00 4.517377354204654694e-03 4.876260063610970974e-04 1.501500955782830715e-03 2.279495820403099060e-03
3.966000000000000000e+03 3.890582084655761719e+00 -2.929173946380615234e+00 3.510730748530477285e-04 1.720450381981208920e-04 1.569354353705421090e-04 -1.283949823118746281e-04
3.967000000000000000e+03 3.282707691192626953e+00 -4.010822772979736328e+00 5.542344297282397747e-04 2.821897796820849180e-04 2.509272599127143621e-04 5.590379805653356016e-05
3.968000000000000000e+03 2.248539447784423828e+00 -3.194534063339233398e+00 1.380591857014223933e-04 2.050411929133133526e-08 4.142390753258951008e-05 -2.584155299700796604e-04
3.969000000000000000e+03 4.286437034606933594e+00 -7.683394908905029297e+00 1.154588884674012661e-03 1.864243997260928154e-03 9.056498529389500618e-04 1.959485700353980064e-03
3.970000000000000000e+03 1.712471842765808105e+00 -4.684568405151367188e+00 1.577941002324223518e-04 -1.013105647871270776e-04 1.694506136118434370e-05 -5.342122312868013978e-05
3.971000000000000000e+03 5.170559692382812500e+01 3.076938247680664062e+01 -1.808299100957810879e-03 -4.356364370323717594e-04 -6.731806788593530655e-04 -1.029951032251119614e-03
3.972000000000000000e+03 5.696664047241210938e+01 3.193470382690429688e+01 -1.757982536219060421e-03 2.305344387423247099e-04 -4.582344263326376677e-04 -3.165095404256135225e-04
3.973000000000000000e+03 1.683647918701171875e+01 -6.057819843292236328e+00 7.998747751116752625e-03 2.410916425287723541e-02 9.632374159991741180e-03 1.407850254327058792e-02
3.974000000000000000e+03 1.336808013916015625e+01 -3.899393796920776367e+00 1.095001865178346634e-02 1.157671678811311722e-03 3.632307052612304688e-03 5.105981137603521347e-03
3.975000000000000000e+03 1.176775264739990234e+01 -3.762994527816772461e+00 7.112108170986175537e-03 2.248121454613283277e-04 2.201076131314039230e-03 2.861247630789875984e-03
3.976000000000000000e+03 1.255389595031738281e+01 -3.840940713882446289e+00 8.991289883852005005e-03 1.037975307554006577e-03 3.008779603987932205e-03 3.791109193116426468e-03
3.977000000000000000e+03 1.820577430725097656e+01 -6.072035312652587891e+00 2.613044343888759613e-03 4.118951782584190369e-02 1.314076874405145645e-02 9.063062258064746857e-03
3.978000000000000000e+03 1.582504272460937500e+01 -3.910161018371582031e+00 1.933531835675239563e-02 1.029973011463880539e-02 8.890515193343162537e-03 1.357768569141626358e-02
3.979000000000000000e+03 2.260509872436523438e+01 -9.171267747879028320e-01 -2.465266734361648560e-02 -3.341490030288696289e-02 -1.742026954889297485e-02 2.691722474992275238e-02
3.980000000000000000e+03 1.939732551574707031e+01 -2.437035083770751953e+00 1.459811441600322723e-02 1.178123429417610168e-01 3.972313553094863892e-02 4.471205547451972961e-02
3.981000000000000000e+03 1.883292770385742188e+01 -1.540697216987609863e+00 3.674278035759925842e-02 6.239702180027961731e-02 2.974194101989269257e-02 3.945091366767883301e-02
3.982000000000000000e+03 2.294778442382812500e+01 -1.902623558044433594e+01 -2.295482438057661057e-03 1.074064202839508653e-04 -6.564228096976876259e-04 2.139221411198377609e-03
3.983000000000000000e+03 2.461848640441894531e+01 -1.969495201110839844e+01 -1.988065429031848907e-03 -2.238177927210927010e-03 -1.267872983589768410e-03 2.274103928357362747e-03
3.984000000000000000e+03 2.352030372619628906e+01 -2.020770835876464844e+01 -1.904427190311253071e-03 -4.822744231205433607e-04 -7.160104578360915184e-04 2.808988559991121292e-03
3.985000000000000000e+03 2.912745094299316406e+01 -6.769176006317138672e+00 -1.938281580805778503e-02 4.309298936277627945e-03 -4.522055387496948242e-03 8.864916861057281494e-03
3.986000000000000000e+03 2.964240455627441406e+01 -3.994271039962768555e+00 -2.133507281541824341e-02 2.918826602399349213e-02 2.355958102270960808e-03 -1.292505185119807720e-03
3.987000000000000000e+03 2.324446296691894531e+01 -2.323739242553710938e+01 -2.921054605394601822e-03 -4.888226394541561604e-04 -1.022963202558457851e-03 3.106420161202549934e-03
3.988000000000000000e+03 3.363213348388671875e+01 -1.039174842834472656e+01 -5.611830856651067734e-03 2.276838012039661407e-02 5.146964453160762787e-03 -6.441962439566850662e-03
3.989000000000000000e+03 3.372908401489257812e+01 -3.741270446777343750e+01 -1.127315219491720200e-02 -7.030537817627191544e-03 -5.491106770932674408e-03 6.404865998774766922e-03
3.990000000000000000e+03 3.578540420532226562e+01 -4.019510269165039062e+01 -1.748695224523544312e-02 -6.155870854854583740e-03 -7.092847023159265518e-03 4.200110677629709244e-03
3.991000000000000000e+03 4.373259735107421875e+01 -2.938051223754882812e+01 8.636937476694583893e-03 4.328636825084686279e-02 1.557699218392372131e-02 -1.767416298389434814e-02
3.992000000000000000e+03 2.171241569519042969e+01 -1.676280021667480469e+01 -2.320353174582123756e-03 2.346556633710861206e-03 7.861059202696196735e-06 1.579031115397810936e-03
3.993000000000000000e+03 2.736948394775390625e+01 -3.675557613372802734e+00 -2.908109128475189209e-02 4.201742354780435562e-03 -7.463804911822080612e-03 1.578413322567939758e-02
3.994000000000000000e+03 2.503734779357910156e+01 -2.284418582916259766e+00 -2.794195711612701416e-02 -2.031170949339866638e-02 -1.447609998285770416e-02 2.820959873497486115e-02
3.995000000000000000e+03 4.170394515991210938e+01 -2.438672065734863281e+01 6.037767045199871063e-03 3.176534175872802734e-02 1.134093198925256729e-02 -1.427762303501367569e-02
3.996000000000000000e+03 3.168187904357910156e+01 -8.148501396179199219e+00 -1.363996230065822601e-02 2.099487930536270142e-02 2.206475008279085159e-03 -1.991027034819126129e-03
3.997000000000000000e+03 2.681737327575683594e+01 -2.493885803222656250e+01 -2.627006731927394867e-03 -4.807179793715476990e-03 -2.230255864560604095e-03 3.498274367302656174e-03
3.998000000000000000e+03 2.687917900085449219e+01 -2.871230316162109375e+01 -3.253908595070242882e-03 -4.421710502356290817e-03 -2.302685752511024475e-03 4.300786182284355164e-03
3.999000000000000000e+03 4.462505340576171875e+01 -2.814553833007812500e+01 5.209581926465034485e-03 4.192993417382240295e-02 1.414185483008623123e-02 -1.262337714433670044e-02
4.000000000000000000e+03 3.456795883178710938e+01 -1.482873821258544922e+01 3.375806845724582672e-03 2.161749452352523804e-02 7.497990038245916367e-03 -9.969443082809448242e-03
4.001000000000000000e+03 4.302183532714843750e+01 -2.648678588867187500e+01 6.217014510184526443e-03 3.595514595508575439e-02 1.265164744108915329e-02 -1.475717034190893173e-02
4.002000000000000000e+03 3.729368591308593750e+01 -1.950348472595214844e+01 6.329190917313098907e-03 2.596963755786418915e-02 9.689648635685443878e-03 -1.299867499619722366e-02
4.003000000000000000e+03 1.897565078735351562e+01 -1.222271442413330078e+01 -2.287000650539994240e-03 1.138037443161010742e-02 2.728012157604098320e-03 1.930000958964228630e-03
4.004000000000000000e+03 1.973364448547363281e+01 -1.335782051086425781e+01 -2.129299100488424301e-03 9.118350222706794739e-03 2.096715383231639862e-03 1.815208350308239460e-03
4.005000000000000000e+03 2.926238822937011719e+01 -5.281327724456787109e+00 -2.451316826045513153e-02 1.683052815496921539e-02 -2.304791938513517380e-03 5.118379369378089905e-03
4.006000000000000000e+03 1.322386550903320312e+01 -7.370879173278808594e+00 7.256399374455213547e-03 7.361444178968667984e-03 4.385353066027164459e-03 1.003525033593177795e-02
4.007000000000000000e+03 3.864324188232421875e+01 -2.181686782836914062e+01 6.761152762919664383e-03 2.758870646357536316e-02 1.030495762825012207e-02 -1.463830657303333282e-02
4.008000000000000000e+03 3.796926879882812500e+01 -2.066576004028320312e+01 7.157909218221902847e-03 2.648674510419368744e-02 1.009339559823274612e-02 -1.352246291935443878e-02
4.009000000000000000e+03 2.043657875061035156e+01 -1.448910045623779297e+01 -2.381813246756792068e-03 5.845278967171907425e-03 1.039039692841470242e-03 1.170780742540955544e-03
4.010000000000000000e+03 7.223384857177734375e+01 -3.814847183227539062e+01 2.798791101668030024e-04 -1.451762579381465912e-02 -4.271323792636394501e-03 3.290913300588726997e-04
4.011000000000000000e+03 7.176814270019531250e+01 -2.916825675964355469e+01 6.110222893767058849e-04 -1.372340787202119827e-02 -3.933715634047985077e-03 1.296117552556097507e-03
4.012000000000000000e+03 7.645059204101562500e+01 -3.593214416503906250e+01 5.284608341753482819e-04 -2.299468778073787689e-02 -6.739868316799402237e-03 5.179437575861811638e-04
4.013000000000000000e+03 7.405593872070312500e+01 -2.305920600891113281e+01 3.493640979286283255e-04 -1.700354181230068207e-02 -4.996253177523612976e-03 1.726669957861304283e-03
4.014000000000000000e+03 7.572645568847656250e+01 -1.905457878112792969e+01 1.731304510030895472e-04 -1.891708746552467346e-02 -5.623186938464641571e-03 1.608774415217339993e-03
4.015000000000000000e+03 7.691441345214843750e+01 -1.232507896423339844e+01 9.655798203311860561e-05 -1.831281371414661407e-02 -5.464876536279916763e-03 1.552585978060960770e-03
4.016000000000000000e+03 7.681737518310546875e+01 -5.237482070922851562e+00 4.357034413260407746e-05 -1.481420546770095825e-02 -4.431190434843301773e-03 1.902202959172427654e-03
4.017000000000000000e+03 7.680066680908203125e+01 -6.669647216796875000e+00 9.211673022946342826e-05 -1.552645768970251083e-02 -4.630302079021930695e-03 1.858138362877070904e-03
4.018000000000000000e+03 7.695300292968750000e+01 1.803046226501464844e+00 2.998290983668994159e-05 -1.097315829247236252e-02 -3.282952588051557541e-03 2.045779954642057419e-03
4.019000000000000000e+03 7.695565032958984375e+01 4.183720052242279053e-01 1.278200761589687318e-05 -1.178234629333019257e-02 -3.530869260430335999e-03 2.028425689786672592e-03
4.020000000000000000e+03 7.453156280517578125e+01 1.181161975860595703e+01 -3.366416785866022110e-04 -4.638822749257087708e-03 -1.492639305070042610e-03 2.878442639485001564e-03
4.021000000000000000e+03 7.696150970458984375e+01 7.346352577209472656e+00 -3.917909634765237570e-05 -7.736982777714729309e-03 -2.332848496735095978e-03 1.981373643502593040e-03
4.022000000000000000e+03 7.584345245361328125e+01 1.583591365814208984e+01 -2.823561662808060646e-04 -3.277446841821074486e-03 -1.067940844222903252e-03 1.878798706457018852e-03
4.023000000000000000e+03 7.624128723144531250e+01 2.271192359924316406e+01 -2.456348738633096218e-04 -1.208895468153059483e-03 -4.363591142464429140e-04 9.091089596040546894e-04
4.024000000000000000e+03 7.767511749267578125e+01 2.631939888000488281e+01 -8.725229417905211449e-05 -4.343043838161975145e-04 -1.564670092193409801e-04 2.910479961428791285e-04
4.025000000000000000e+03 7.708601379394531250e+01 1.843656158447265625e+01 -1.477917103329673409e-04 -2.419518074020743370e-03 -7.701929425820708275e-04 1.131814671680331230e-03
4.026000000000000000e+03 7.698399353027343750e+01 1.151255893707275391e+01 -1.191131887026131153e-04 -5.458503961563110352e-03 -1.673285034485161304e-03 1.769852475263178349e-03
4.027000000000000000e+03 7.816924285888671875e+01 7.166442394256591797e+00 -3.422059671720489860e-05 -8.376439101994037628e-03 -2.523198025301098824e-03 1.260817050933837891e-03
4.028000000000000000e+03 7.695398712158203125e+01 5.952250480651855469e+00 -4.960321166436187923e-05 -8.537979796528816223e-03 -2.576274797320365906e-03 2.030674368143081665e-03
4.029000000000000000e+03 7.694657897949218750e+01 -9.747340679168701172e-01 5.568931374000385404e-05 -1.256905868649482727e-02 -3.754010889679193497e-03 1.999729778617620468e-03
4.030000000000000000e+03 7.681676483154296875e+01 -8.104505538940429688e+00 6.309399759629741311e-05 -1.624379493296146393e-02 -4.854210652410984039e-03 1.779998536221683025e-03
4.031000000000000000e+03 7.814945220947265625e+01 -1.516394805908203125e+01 8.227848411479499191e-06 -2.144337259232997894e-02 -6.430543493479490280e-03 8.932541240938007832e-04
4.032000000000000000e+03 7.694683074951171875e+01 -1.643688011169433594e+01 5.317687464412301779e-05 -2.004416845738887787e-02 -5.997297819703817368e-03 1.339594135060906410e-03
4.033000000000000000e+03 7.806306457519531250e+01 -2.211063575744628906e+01 6.196948379511013627e-05 -2.402774244546890259e-02 -7.189732044935226440e-03 6.821000715717673302e-04
4.034000000000000000e+03 7.673682403564453125e+01 -2.337822341918945312e+01 1.299369178013876081e-04 -2.196320332586765289e-02 -6.549980025738477707e-03 1.013243338093161583e-03
4.035000000000000000e+03 7.796278381347656250e+01 -2.907964134216308594e+01 7.319244468817487359e-05 -2.561285533010959625e-02 -7.661899086087942123e-03 4.059403436258435249e-04
4.036000000000000000e+03 7.643404388427734375e+01 -3.042154312133789062e+01 2.137378032784909010e-05 -2.268598228693008423e-02 -6.799382623285055161e-03 5.547013133764266968e-04
4.037000000000000000e+03 7.857159423828125000e+01 2.912215232849121094e+01 -4.149081723880954087e-05 -6.931897223694249988e-05 -3.324293720652349293e-05 5.443906775326468050e-05
4.038000000000000000e+03 7.652864837646484375e+01 3.050825881958007812e+01 -1.226324384333565831e-04 -1.219446785398758948e-04 -7.337313581956550479e-05 9.619948104955255985e-05
4.039000000000000000e+03 7.761097717285156250e+01 2.510975074768066406e+01 -1.114453189074993134e-04 -6.417641998268663883e-04 -2.259628527099266648e-04 4.018608015030622482e-04
4.040000000000000000e+03 7.778882598876953125e+01 -3.458663177490234375e+01 1.072622253559529781e-04 -2.631743997335433960e-02 -7.863053120672702789e-03 2.930214686784893274e-04
4.041000000000000000e+03 7.533316040039062500e+01 -3.691545104980468750e+01 3.780985134653747082e-04 -2.050156332552433014e-02 -6.037039682269096375e-03 3.639032074715942144e-04
4.042000000000000000e+03 7.745579528808593750e+01 2.386336135864257812e+01 -1.073732710210606456e-04 -8.852335740812122822e-04 -2.977820695377886295e-04 5.234333220869302750e-04
4.043000000000000000e+03 7.732672882080078125e+01 2.254275512695312500e+01 -1.401245244778692722e-04 -1.184286084026098251e-03 -3.973231941927224398e-04 6.738355732522904873e-04
4.044000000000000000e+03 7.722389984130859375e+01 2.119042587280273438e+01 -1.404797512805089355e-04 -1.547350315377116203e-03 -5.063490243628621101e-04 8.257791050709784031e-04
4.045000000000000000e+03 7.600038909912109375e+01 1.998361968994140625e+01 -2.772149164229631424e-04 -1.906151766888797283e-03 -6.550099933519959450e-04 1.304776407778263092e-03
4.046000000000000000e+03 7.701111602783203125e+01 1.429174041748046875e+01 -1.454788143746554852e-04 -4.100873600691556931e-03 -1.273905625566840172e-03 1.544829457998275757e-03
4.047000000000000000e+03 7.696683502197265625e+01 8.740513801574707031e+00 -8.188704669009894133e-05 -6.943203508853912354e-03 -2.107527339830994606e-03 1.937147579155862331e-03
4.048000000000000000e+03 7.574386596679687500e+01 6.114697456359863281e+00 -5.183011307963170111e-05 -7.834908552467823029e-03 -2.366021508350968361e-03 2.690009074285626411e-03
4.049000000000000000e+03 7.572437286376953125e+01 3.361217021942138672e+00 1.056634664564626291e-05 -9.264454245567321777e-03 -2.776166424155235291e-03 2.737666480243206024e-03
4.050000000000000000e+03 7.691350555419921875e+01 -2.383102893829345703e+00 5.046070509706623852e-05 -1.334547251462936401e-02 -3.988503478467464447e-03 1.989526208490133286e-03
4.051000000000000000e+03 7.558406066894531250e+01 -3.619935274124145508e+00 1.304666366195306182e-04 -1.267802715301513672e-02 -3.764268010854721069e-03 2.629367634654045105e-03
4.052000000000000000e+03 7.685119628906250000e+01 -9.532856941223144531e+00 1.064827301888726652e-04 -1.695475354790687561e-02 -5.054481327533721924e-03 1.699262997135519981e-03
4.053000000000000000e+03 7.565714263916015625e+01 -1.094408988952636719e+01 1.607439626241102815e-04 -1.599282771348953247e-02 -4.749624989926815033e-03 2.153256442397832870e-03
4.054000000000000000e+03 7.693260192871093750e+01 -1.369542312622070312e+01 5.078815229353494942e-05 -1.891720667481422424e-02 -5.659925751388072968e-03 1.476675504818558693e-03
4.055000000000000000e+03 7.691049957275390625e+01 -1.917313385009765625e+01 5.170819713384844363e-05 -2.095624804496765137e-02 -6.271361839026212692e-03 1.222881721332669258e-03
4.056000000000000000e+03 7.686347961425781250e+01 -2.055782890319824219e+01 1.494921307312324643e-04 -2.133112959563732147e-02 -6.354490760713815689e-03 1.180496066808700562e-03
4.057000000000000000e+03 7.672063446044921875e+01 -2.616542243957519531e+01 1.201851264340803027e-04 -2.266580983996391296e-02 -6.763687357306480408e-03 8.434104965999722481e-04
4.058000000000000000e+03 7.675327301025390625e+01 -2.753418731689453125e+01 1.101995949284173548e-04 -2.290780469775199890e-02 -6.839281413704156876e-03 6.893791141919791698e-04
4.059000000000000000e+03 7.647971343994140625e+01 -3.311421966552734375e+01 1.131082754000090063e-04 -2.297995053231716156e-02 -6.860052701085805893e-03 4.469141131266951561e-04
4.060000000000000000e+03 7.413234710693359375e+01 -3.149777603149414062e+01 2.305542002432048321e-04 -1.849770545959472656e-02 -5.480145104229450226e-03 7.444473449140787125e-04
4.061000000000000000e+03 7.647254943847656250e+01 -3.183961105346679688e+01 1.025553647195920348e-04 -2.290656976401805878e-02 -6.841204129159450531e-03 5.687015946023166180e-04
4.062000000000000000e+03 7.508417510986328125e+01 -3.856214141845703125e+01 5.478959064930677414e-04 -2.094175294041633606e-02 -6.118156947195529938e-03 4.733165842480957508e-04
4.063000000000000000e+03 2.818341255187988281e+01 -2.948463821411132812e+01 -3.751534735783934593e-03 -5.492276046425104141e-03 -2.773143351078033447e-03 4.350789822638034821e-03
4.064000000000000000e+03 3.498495101928710938e+01 -9.897933959960937500e+00 -5.300839431583881378e-03 2.618413791060447693e-02 6.264989729970693588e-03 -8.785773068666458130e-03
4.065000000000000000e+03 3.694663619995117188e+01 -1.656241035461425781e+01 4.272600170224905014e-03 2.460943348705768585e-02 8.664609864354133606e-03 -1.080383080989122391e-02
4.066000000000000000e+03 3.627015686035156250e+01 -1.543568611145019531e+01 2.792543498799204826e-03 2.388229221105575562e-02 8.002450689673423767e-03 -1.034587156027555466e-02
4.067000000000000000e+03 2.601700019836425781e+01 -2.721483039855957031e+01 -3.459961852058768272e-03 -3.672348568215966225e-03 -2.139693126082420349e-03 3.883582772687077522e-03
4.068000000000000000e+03 2.206165313720703125e+01 -1.500143432617187500e+01 -1.847270992584526539e-03 2.110127825289964676e-03 7.885706145316362381e-05 6.954957498237490654e-04
4.069000000000000000e+03 2.109168243408203125e+01 -1.562714672088623047e+01 -1.957777421921491623e-03 4.436566960066556931e-03 7.436368032358586788e-04 1.811835798434913158e-03
4.070000000000000000e+03 3.016864585876464844e+01 -3.199031066894531250e+01 -5.873517133295536041e-03 -6.784757599234580994e-03 -3.797482466325163841e-03 4.832625854760408401e-03
4.071000000000000000e+03 2.906093358993530273e+00 -3.459986877441406250e+01 -3.745016583707183599e-04 1.806770637631416321e-02 5.307961255311965942e-03 6.663594394922256470e-04
4.072000000000000000e+03 3.661851167678833008e+00 -3.281022644042968750e+01 -4.633586795534938574e-04 1.643625833094120026e-02 4.791869781911373138e-03 1.203850144520401955e-03
4.073000000000000000e+03 2.044614315032958984e+00 -3.055652427673339844e+01 4.453327164810616523e-06 1.745273545384407043e-02 5.237156990915536880e-03 8.802792290225625038e-04
4.074000000000000000e+03 3.630301952362060547e+00 -2.955223464965820312e+01 -4.362523322924971581e-04 1.552444137632846832e-02 4.526456817984580994e-03 1.671910518780350685e-03
4.075000000000000000e+03 4.100750923156738281e+00 -1.220068168640136719e+01 4.554022743832319975e-04 4.757154732942581177e-03 1.563767204061150551e-03 3.485659603029489517e-03
4.076000000000000000e+03 1.806083559989929199e+00 -8.128904342651367188e+00 3.269388980697840452e-04 9.560203179717063904e-04 3.848877677228301764e-04 8.855158230289816856e-04
4.077000000000000000e+03 4.398594856262207031e+00 -1.627608871459960938e+01 4.060414721607230604e-05 7.820258848369121552e-03 2.358258934691548347e-03 4.011791199445724487e-03
4.078000000000000000e+03 1.951103091239929199e+00 -2.192699813842773438e+01 9.990324542741291225e-06 1.243812497705221176e-02 3.734434489160776138e-03 1.656422275118529797e-03
4.079000000000000000e+03 3.110652446746826172e+00 -1.906166076660156250e+01 -2.894721692427992821e-04 9.867350570857524872e-03 2.873363438993692398e-03 2.838552696630358696e-03
4.080000000000000000e+03 2.931355714797973633e+00 -1.220604133605957031e+01 3.757613885682076216e-04 4.369888920336961746e-03 1.423695124685764313e-03 2.621213439851999283e-03
4.081000000000000000e+03 4.476481437683105469e+00 -4.688955307006835938e+00 1.031616702675819397e-03 5.388528807088732719e-04 4.711408691946417093e-04 5.455209757201373577e-04
4.082000000000000000e+03 3.201269626617431641e+00 -7.263702392578125000e+00 8.849581936374306679e-04 1.309778890572488308e-03 6.584211369045078754e-04 1.263881335034966469e-03
4.083000000000000000e+03 2.489297151565551758e+00 -5.671596527099609375e+00 4.983734688721597195e-04 4.265267634764313698e-04 2.774700697045773268e-04 3.921051393263041973e-04
4.084000000000000000e+03 4.118922233581542969e+00 -2.811072731018066406e+01 -4.869263793807476759e-04 1.440738234668970108e-02 4.176137037575244904e-03 2.170742023736238480e-03
4.085000000000000000e+03 2.872856378555297852e+00 -1.089262294769287109e+01 3.235798503737896681e-04 3.320315387099981308e-03 1.093168510124087334e-03 2.278371248394250870e-03
4.086000000000000000e+03 2.967866897583007812e+00 -8.401002883911132812e+00 5.492507480084896088e-04 1.763189211487770081e-03 6.937319994904100895e-04 1.572450739331543446e-03
4.087000000000000000e+03 3.115259885787963867e+00 -1.629766845703125000e+01 -1.414730068063363433e-04 7.685746066272258759e-03 2.263281960040330887e-03 3.015907481312751770e-03
4.088000000000000000e+03 3.086642980575561523e+00 -1.492359256744384766e+01 1.515006442787125707e-04 6.609950680285692215e-03 2.028435235843062401e-03 3.017507493495941162e-03
4.089000000000000000e+03 2.057575464248657227e+00 -2.335006523132324219e+01 -1.723823370411992073e-04 1.337830256670713425e-02 3.961776383221149445e-03 1.613345229998230934e-03
4.090000000000000000e+03 3.220758199691772461e+00 -2.180324554443359375e+01 -3.190675633959472179e-04 1.175013184547424316e-02 3.429319243878126144e-03 2.552556339651346207e-03
4.091000000000000000e+03 3.312215805053710938e+00 -3.178535652160644531e+01 -1.216954624396748841e-04 1.671317592263221741e-02 4.977444186806678772e-03 1.292852684855461121e-03
4.092000000000000000e+03 4.431747436523437500e+00 -3.191949844360351562e+01 -3.985988441854715347e-04 1.546588726341724396e-02 4.520186688750982285e-03 1.516086165793240070e-03
4.093000000000000000e+03 3.140159606933593750e+00 -2.043722343444824219e+01 -1.232507929671555758e-04 1.089590694755315781e-02 3.231796901673078537e-03 2.687348751351237297e-03
4.094000000000000000e+03 3.636680126190185547e+00 -2.466118431091308594e+01 -3.836924443021416664e-04 1.316987629979848862e-02 3.835855051875114441e-03 2.403783379122614861e-03
4.095000000000000000e+03 3.110761880874633789e+00 -1.767741012573242188e+01 -2.666785621840972453e-05 8.803200908005237579e-03 2.632959978654980659e-03 2.968790475279092789e-03
4.096000000000000000e+03 1.709464263916015625e+01 -1.013594627380371094e+01 -4.288232303224503994e-04 1.713219471275806427e-02 5.011011380702257156e-03 6.654545199126005173e-03
4.097000000000000000e+03 3.897842407226562500e+01 -1.994354629516601562e+01 5.319486372172832489e-03 2.682892233133316040e-02 9.644522331655025482e-03 -1.274854503571987152e-02
4.098000000000000000e+03 3.494626235961914062e+01 -1.305971813201904297e+01 -1.618900278117507696e-04 2.269056253135204315e-02 6.758601870387792587e-03 -8.565749973058700562e-03
4.099000000000000000e+03 3.273210525512695312e+01 -3.595647811889648438e+01 -6.734705530107021332e-03 -6.691136397421360016e-03 -4.027752671390771866e-03 6.686066742986440659e-03
4.100000000000000000e+03 4.034841537475585938e+01 -2.217011070251464844e+01 5.633658263832330704e-03 2.886074595153331757e-02 1.034832093864679337e-02 -1.365215983241796494e-02
4.101000000000000000e+03 4.001264572143554688e+01 -2.409511184692382812e+01 7.488897535949945450e-03 2.974425442516803741e-02 1.116994582116603851e-02 -1.524438243359327316e-02
4.102000000000000000e+03 4.554573059082031250e+01 -2.885938072204589844e+01 5.992540158331394196e-03 4.004728421568870544e-02 1.381194684654474258e-02 -9.024251252412796021e-03
4.103000000000000000e+03 2.872246932983398438e+01 -4.365456104278564453e+00 -2.559693902730941772e-02 1.736040972173213959e-02 -2.470958977937698364e-03 6.346709560602903366e-03
4.104000000000000000e+03 2.290522003173828125e+01 -2.186440086364746094e+01 -2.260311506688594818e-03 1.375707506667822599e-04 -6.368222529999911785e-04 3.185876877978444099e-03
4.105000000000000000e+03 2.494235610961914062e+01 -2.422954177856445312e+01 -2.802387345582246780e-03 -2.697606105357408524e-03 -1.649998128414154053e-03 3.295261645689606667e-03
4.106000000000000000e+03 2.802185058593750000e+01 -3.610338211059570312e+01 -6.387432571500539780e-03 -3.421906381845474243e-03 -2.942801686003804207e-03 3.514308715239167213e-03
4.107000000000000000e+03 2.847786712646484375e+01 -3.218736267089843750e+01 -4.551973659545183182e-03 -5.302737001329660416e-03 -2.956413198262453079e-03 4.253863357007503510e-03
4.108000000000000000e+03 2.836412811279296875e+01 -3.388026809692382812e+01 -6.083277985453605652e-03 -4.543049260973930359e-03 -3.187898313626646996e-03 4.451065789908170700e-03
4.109000000000000000e+03 1.750489807128906250e+01 -5.176932334899902344e+00 1.142586488276720047e-02 3.632320463657379150e-02 1.432472001761198044e-02 1.753791421651840210e-02
4.110000000000000000e+03 1.340271568298339844e+01 -4.710298061370849609e+00 1.168592926114797592e-02 3.394447499886155128e-03 4.524113144725561142e-03 7.298496086150407791e-03
4.111000000000000000e+03 4.671067810058593750e+01 -3.185013198852539062e+01 1.098460797220468521e-02 4.320559650659561157e-02 1.625706069171428680e-02 -7.721171248704195023e-03
4.112000000000000000e+03 4.653875732421875000e+01 -2.953964614868164062e+01 7.815990597009658813e-03 4.021108150482177734e-02 1.440812181681394577e-02 -8.923811838030815125e-03
4.113000000000000000e+03 1.773461723327636719e+01 -7.557141304016113281e+00 1.677483785897493362e-03 2.881820686161518097e-02 9.148707613348960876e-03 8.574643172323703766e-03
4.114000000000000000e+03 3.013898468017578125e+01 -4.812372207641601562e+00 -2.217685058712959290e-02 2.737862616777420044e-02 1.560532604344189167e-03 -1.807461725547909737e-03
4.115000000000000000e+03 4.714629745483398438e+01 -3.683512115478515625e+01 2.045901259407401085e-03 4.351631551980972290e-02 1.366866473108530045e-02 -1.400434598326683044e-02
4.116000000000000000e+03 4.767582702636718750e+01 -3.541334915161132812e+01 8.491795510053634644e-03 4.182895272970199585e-02 1.509622484445571899e-02 -1.058540306985378265e-02
4.117000000000000000e+03 4.902720260620117188e+01 -3.084566307067871094e+01 7.607656531035900116e-03 3.308879956603050232e-02 1.220893673598766327e-02 -4.271362442523241043e-03
4.118000000000000000e+03 5.213774681091308594e+00 -4.028986740112304688e+01 -2.021844265982508659e-04 1.653886027634143829e-02 4.901002626866102219e-03 7.134665502235293388e-04
4.119000000000000000e+03 2.333146858215332031e+01 1.502881646156311035e+00 4.825421422719955444e-02 -6.876610219478607178e-03 1.241328194737434387e-02 2.094760164618492126e-02
4.120000000000000000e+03 2.490172767639160156e+01 2.902377128601074219e+00 5.760095641016960144e-02 -1.004217378795146942e-02 1.426763460040092468e-02 1.404263731092214584e-02
4.121000000000000000e+03 2.562477302551269531e+01 3.121982574462890625e+00 5.906082689762115479e-02 -1.124829147011041641e-02 1.434376090764999390e-02 1.455405633896589279e-02
4.122000000000000000e+03 2.586355972290039062e+01 2.852530002593994141e+00 5.895788222551345825e-02 -8.371463045477867126e-03 1.517592556774616241e-02 1.646790467202663422e-02
4.123000000000000000e+03 2.613203620910644531e+01 2.889581918716430664e+00 6.045171618461608887e-02 -5.669902078807353973e-03 1.643454469740390778e-02 1.909794658422470093e-02
4.124000000000000000e+03 2.609592056274414062e+01 3.602359056472778320e+00 6.053417176008224487e-02 -1.265843678265810013e-02 1.436272077262401581e-02 1.496069226413965225e-02
4.125000000000000000e+03 2.768448448181152344e+01 3.598617553710937500e+00 6.320186704397201538e-02 4.078656807541847229e-02 3.119653090834617615e-02 3.778449073433876038e-02
4.126000000000000000e+03 2.757855987548828125e+01 4.011079788208007812e+00 6.982077658176422119e-02 2.820497378706932068e-02 2.940772473812103271e-02 4.022020846605300903e-02
4.127000000000000000e+03 2.342907142639160156e+01 1.229469180107116699e+00 4.112582281231880188e-02 -1.148574892431497574e-02 8.892023004591464996e-03 1.919190026819705963e-02
4.128000000000000000e+03 2.837304878234863281e+01 4.738838195800781250e+00 6.959033012390136719e-02 1.120890527963638306e-01 5.450381711125373840e-02 5.774253979325294495e-02
4.129000000000000000e+03 2.835563087463378906e+01 4.164326667785644531e+00 6.097852811217308044e-02 1.003354638814926147e-01 4.839419946074485779e-02 4.440320283174514771e-02
4.130000000000000000e+03 2.861460304260253906e+01 5.264771461486816406e+00 7.410299777984619141e-02 1.760113090276718140e-01 7.503429055213928223e-02 6.182654574513435364e-02
4.131000000000000000e+03 2.394199180603027344e+01 -8.815594315528869629e-01 -1.361240539699792862e-02 -2.340135909616947174e-02 -1.110412925481796265e-02 1.578828506171703339e-02
4.132000000000000000e+03 1.808700370788574219e+01 -2.003727436065673828e+00 3.253069892525672913e-02 3.892935439944267273e-02 2.143801562488079071e-02 2.730217017233371735e-02
4.133000000000000000e+03 2.973306465148925781e+01 5.059827804565429688e+00 1.048054993152618408e-01 2.806339561939239502e-01 1.156318336725234985e-01 -8.774896711111068726e-02
4.134000000000000000e+03 2.900269317626953125e+01 4.994932174682617188e+00 6.184433028101921082e-02 2.393980175256729126e-01 9.037270396947860718e-02 1.906742155551910400e-02
4.135000000000000000e+03 1.983683776855468750e+01 -5.840160250663757324e-01 3.703305870294570923e-02 8.653047680854797363e-02 3.706905990839004517e-02 4.421268776059150696e-02
4.136000000000000000e+03 2.298966789245605469e+01 1.050281405448913574e+00 4.010863602161407471e-02 -8.167867548763751984e-03 9.582230821251869202e-03 2.325221337378025055e-02
4.137000000000000000e+03 3.988264846801757812e+01 1.960221862792968750e+01 -1.477045100182294846e-02 -7.670797873288393021e-03 -6.732374895364046097e-03 -1.240543182939291000e-02
4.138000000000000000e+03 4.019655609130859375e+01 2.036434936523437500e+01 -1.286896876990795135e-02 -7.857579737901687622e-03 -6.217964459210634232e-03 -1.054101623594760895e-02
4.139000000000000000e+03 3.284286499023437500e+01 1.239326572418212891e+01 -1.470721364021301270e-01 -4.331984370946884155e-02 -5.711759626865386963e-02 -9.207806736230850220e-02
4.140000000000000000e+03 3.937714385986328125e+01 1.907841300964355469e+01 -1.661297120153903961e-02 -8.826992474496364594e-03 -7.631989195942878723e-03 -1.384360808879137039e-02
4.141000000000000000e+03 4.051958465576171875e+01 2.061136627197265625e+01 -1.202429737895727158e-02 -6.990224588662385941e-03 -5.704356823116540909e-03 -1.036860048770904541e-02
4.142000000000000000e+03 4.073492431640625000e+01 2.147214698791503906e+01 -1.103084534406661987e-02 -7.425012066960334778e-03 -5.536757409572601318e-03 -8.897123858332633972e-03
4.143000000000000000e+03 4.633263397216796875e+01 2.609857749938964844e+01 -4.857991822063922882e-03 -2.377226483076810837e-03 -2.170565305277705193e-03 -3.666029078885912895e-03
4.144000000000000000e+03 3.836080169677734375e+01 1.839597129821777344e+01 -1.913388632237911224e-02 -1.304248813539743423e-02 -9.652912616729736328e-03 -1.678011193871498108e-02
4.145000000000000000e+03 3.913708877563476562e+01 1.879214096069335938e+01 -1.864197850227355957e-02 -9.845581836998462677e-03 -8.546268567442893982e-03 -1.414724811911582947e-02
4.146000000000000000e+03 4.526673889160156250e+01 2.539997673034667969e+01 -5.652079358696937561e-03 -3.313868073746562004e-03 -2.689784159883856773e-03 -4.452729597687721252e-03
4.147000000000000000e+03 3.135052871704101562e+01 1.059839439392089844e+01 -4.027738273143768311e-01 2.464776113629341125e-02 -1.134378239512443542e-01 -9.042177349328994751e-02
4.148000000000000000e+03 4.890798950195312500e+01 2.680850791931152344e+01 -4.705382045358419418e-03 -8.027391158975660801e-04 -1.652436330914497375e-03 -2.408079570159316063e-03
4.149000000000000000e+03 4.775234603881835938e+01 2.801535224914550781e+01 -3.252622904255986214e-03 -1.898074406199157238e-03 -1.545209204778075218e-03 -2.467568963766098022e-03
4.150000000000000000e+03 4.290503311157226562e+01 2.250627708435058594e+01 -1.013554818928241730e-02 -4.592268262058496475e-03 -4.418344702571630478e-03 -6.909270305186510086e-03
4.151000000000000000e+03 4.319419860839843750e+01 2.277313232421875000e+01 -9.526241570711135864e-03 -4.222210496664047241e-03 -4.124535713344812393e-03 -6.724826525896787643e-03
4.152000000000000000e+03 4.153745269775390625e+01 2.177761650085449219e+01 -1.067751646041870117e-02 -6.243809126317501068e-03 -5.076397676020860672e-03 -8.393418043851852417e-03
4.153000000000000000e+03 3.811930847167968750e+01 1.807818412780761719e+01 -2.196315117180347443e-02 -1.447568368166685104e-02 -1.093165017664432526e-02 -1.733008027076721191e-02
4.154000000000000000e+03 3.890050125122070312e+01 1.849084472656250000e+01 -1.942358911037445068e-02 -1.007934566587209702e-02 -8.850880898535251617e-03 -1.551724690943956375e-02
4.155000000000000000e+03 4.477296066284179688e+01 2.449730300903320312e+01 -7.077673915773630142e-03 -3.591589862480759621e-03 -3.200779203325510025e-03 -4.891068208962678909e-03
4.156000000000000000e+03 4.589163208007812500e+01 2.548148155212402344e+01 -5.652806721627712250e-03 -2.597526879981160164e-03 -2.475100103765726089e-03 -4.089225549250841141e-03
4.157000000000000000e+03 3.406464767456054688e+01 1.332410907745361328e+01 -9.707807749509811401e-02 -2.762591838836669922e-02 -3.741119801998138428e-02 -5.750634148716926575e-02
4.158000000000000000e+03 3.536944580078125000e+01 1.447630119323730469e+01 -6.177882477641105652e-02 -1.986456289887428284e-02 -2.449301630258560181e-02 -3.933883085846900940e-02
4.159000000000000000e+03 4.233507156372070312e+01 2.199265480041503906e+01 -1.097885891795158386e-02 -5.110745783895254135e-03 -4.826881457120180130e-03 -7.495423778891563416e-03
4.160000000000000000e+03 3.192819023132324219e+01 1.124460887908935547e+01 -2.776530385017395020e-01 -2.737685106694698334e-02 -9.150896221399307251e-02 -1.117297634482383728e-01
4.161000000000000000e+03 3.787925720214843750e+01 1.775971412658691406e+01 -2.296683751046657562e-02 -1.489745639264583588e-02 -1.135928835719823837e-02 -1.914339698851108551e-02
4.162000000000000000e+03 4.348186111450195312e+01 2.303713607788085938e+01 -9.240104816854000092e-03 -4.209026228636503220e-03 -4.034739453345537186e-03 -6.280032917857170105e-03
4.163000000000000000e+03 4.383497619628906250e+01 2.383890724182128906e+01 -7.857483811676502228e-03 -4.247553180903196335e-03 -3.631511004641652107e-03 -5.908549763262271881e-03
4.164000000000000000e+03 4.998661041259765625e+01 2.967269515991210938e+01 -2.291525481268763542e-03 -9.988012025132775307e-04 -9.870979702100157738e-04 -1.556926988996565342e-03
4.165000000000000000e+03 5.054042816162109375e+01 2.969116973876953125e+01 -2.396913012489676476e-03 -7.376261637546122074e-04 -9.403617586940526962e-04 -1.444292720407247543e-03
4.166000000000000000e+03 4.913381195068359375e+01 2.884519004821777344e+01 -2.814540639519691467e-03 -1.267394749447703362e-03 -1.224580570124089718e-03 -1.947984215803444386e-03
4.167000000000000000e+03 5.025434494018554688e+01 2.941890525817871094e+01 -2.551276469603180885e-03 -8.002024842426180840e-04 -1.005443744361400604e-03 -1.571637578308582306e-03
4.168000000000000000e+03 3.592150878906250000e+01 1.514831447601318359e+01 -4.897981137037277222e-02 -1.943853124976158142e-02 -2.052550204098224640e-02 -3.386351093649864197e-02
4.169000000000000000e+03 3.643448638916015625e+01 1.580436420440673828e+01 -3.949590772390365601e-02 -1.865762658417224884e-02 -1.744605973362922668e-02 -2.886891551315784454e-02
4.170000000000000000e+03 3.655546951293945312e+01 1.519151687622070312e+01 -4.786619544029235840e-02 -1.293814741075038910e-02 -1.824130304157733917e-02 -2.805948257446289062e-02
4.171000000000000000e+03 3.681718063354492188e+01 1.704254913330078125e+01 -2.695464156568050385e-02 -2.120017074048519135e-02 -1.444644387811422348e-02 -2.463880926370620728e-02
4.172000000000000000e+03 5.082952117919921875e+01 2.996379661560058594e+01 -2.223153831437230110e-03 -6.462465389631688595e-04 -8.608200587332248688e-04 -1.345667638815939426e-03
4.173000000000000000e+03 4.997139739990234375e+01 2.914677619934082031e+01 -2.743389923125505447e-03 -8.967037429101765156e-04 -1.092028105631470680e-03 -1.672832993790507317e-03
4.174000000000000000e+03 3.763833618164062500e+01 1.743943023681640625e+01 -2.634295262396335602e-02 -1.620505377650260925e-02 -1.276440173387527466e-02 -1.987711340188980103e-02
4.175000000000000000e+03 4.713495254516601562e+01 2.671763992309570312e+01 -4.331150557845830917e-03 -1.971041318029165268e-03 -1.890657586045563221e-03 -3.086588345468044281e-03
4.176000000000000000e+03 4.805447006225585938e+01 2.777110290527343750e+01 -3.488044021651148796e-03 -1.649696845561265945e-03 -1.541322213597595692e-03 -2.494248328730463982e-03
4.177000000000000000e+03 4.661869430541992188e+01 2.587861251831054688e+01 -5.386915523558855057e-03 -2.041739877313375473e-03 -2.228596713393926620e-03 -3.574617672711610794e-03
4.178000000000000000e+03 4.376724624633789062e+01 2.329397392272949219e+01 -8.716315962374210358e-03 -3.881192533299326897e-03 -3.779252525418996811e-03 -6.082757376134395599e-03
4.179000000000000000e+03 4.117996597290039062e+01 2.071458244323730469e+01 -1.253856811672449112e-02 -6.074606440961360931e-03 -5.583952646702528000e-03 -9.540763683617115021e-03
4.180000000000000000e+03 4.860682678222656250e+01 2.776782417297363281e+01 -3.632464446127414703e-03 -1.310141640715301037e-03 -1.482781837694346905e-03 -2.336580073460936546e-03
4.181000000000000000e+03 5.111943435668945312e+01 3.023552322387695312e+01 -2.082832157611846924e-03 -5.851536407135426998e-04 -8.003957336768507957e-04 -1.224996987730264664e-03
4.182000000000000000e+03 4.969206619262695312e+01 2.887331390380859375e+01 -2.905182773247361183e-03 -9.630454587750136852e-04 -1.160468440502882004e-03 -1.804605009965598583e-03
4.183000000000000000e+03 4.205702209472656250e+01 2.175915908813476562e+01 -1.097685098648071289e-02 -5.287349689751863480e-03 -4.879260435700416565e-03 -7.943901233375072479e-03
4.184000000000000000e+03 4.887300109863281250e+01 2.802698898315429688e+01 -3.526483895257115364e-03 -1.234595431014895439e-03 -1.428323797881603241e-03 -2.196729183197021484e-03
4.185000000000000000e+03 3.728867721557617188e+01 1.622307205200195312e+01 -3.743606805801391602e-02 -1.329227443784475327e-02 -1.521850284188985825e-02 -2.268816530704498291e-02
4.186000000000000000e+03 3.099477005004882812e+01 1.001956558227539062e+01 -4.570732116699218750e-01 6.274345517158508301e-02 -1.182989254593849182e-01 -5.381715670228004456e-02
4.187000000000000000e+03 4.443441009521484375e+01 2.430206871032714844e+01 -7.277414668351411819e-03 -3.799206344410777092e-03 -3.322986420243978500e-03 -5.306358914822340012e-03
4.188000000000000000e+03 3.750855636596679688e+01 1.656398963928222656e+01 -3.233957663178443909e-02 -1.336425822228193283e-02 -1.371115073561668396e-02 -2.185782231390476227e-02
4.189000000000000000e+03 3.773705673217773438e+01 1.689197349548339844e+01 -3.117688558995723724e-02 -1.328221615403890610e-02 -1.333773043006658554e-02 -2.031553722918033600e-02
4.190000000000000000e+03 5.268215179443359375e+01 3.153265190124511719e+01 -1.486138906329870224e-03 -1.837662857724353671e-04 -5.009715678170323372e-04 -7.811011746525764465e-04
4.191000000000000000e+03 3.427325439453125000e+01 1.291665172576904297e+01 -1.116076335310935974e-01 -1.831229776144027710e-02 -3.897597640752792358e-02 -4.719449952244758606e-02
4.192000000000000000e+03 4.132617950439453125e+01 2.103194999694824219e+01 -1.231829356402158737e-02 -6.061726715415716171e-03 -5.514006130397319794e-03 -8.949268609285354614e-03
4.193000000000000000e+03 4.153081512451171875e+01 2.130057525634765625e+01 -1.145694870501756668e-02 -5.894008558243513107e-03 -5.205287132412195206e-03 -8.674903772771358490e-03
4.194000000000000000e+03 4.404574584960937500e+01 2.353872871398925781e+01 -8.459376171231269836e-03 -3.886504098773002625e-03 -3.703764174133539200e-03 -5.678731016814708710e-03
4.195000000000000000e+03 4.460367202758789062e+01 2.397097969055175781e+01 -7.882679812610149384e-03 -3.412546124309301376e-03 -3.388567827641963959e-03 -5.105263553559780121e-03
4.196000000000000000e+03 5.237641525268554688e+01 3.187502288818359375e+01 -1.197108067572116852e-03 -2.980969729833304882e-04 -4.485615063458681107e-04 -7.135543855838477612e-04
4.197000000000000000e+03 3.216960525512695312e+01 1.156285381317138672e+01 -2.473783642053604126e-01 -3.990408033132553101e-02 -8.618473261594772339e-02 -1.030988618731498718e-01
4.198000000000000000e+03 5.201425552368164062e+01 3.102943611145019531e+01 -1.689904602244496346e-03 -3.390096244402229786e-04 -6.086742505431175232e-04 -9.474322432652115822e-04
4.199000000000000000e+03 5.167480850219726562e+01 3.023332977294921875e+01 -2.195902401581406593e-03 -3.708042495418339968e-04 -7.700120331719517708e-04 -1.136773265898227692e-03
4.200000000000000000e+03 3.250921249389648438e+01 1.134015464782714844e+01 -2.327221482992172241e-01 -3.711613826453685760e-03 -7.093013077974319458e-02 -7.203008234500885010e-02
4.201000000000000000e+03 5.233982086181640625e+01 3.128342437744140625e+01 -1.589392777532339096e-03 -2.729758562054485083e-04 -5.587105988524854183e-04 -8.509649196639657021e-04
4.202000000000000000e+03 3.348397827148437500e+01 1.342793083190917969e+01 -9.275329858064651489e-02 -4.933173581957817078e-02 -4.262551292777061462e-02 -7.126633822917938232e-02
4.203000000000000000e+03 3.340307235717773438e+01 1.285117816925048828e+01 -1.173174604773521423e-01 -3.693247213959693909e-02 -4.627497866749763489e-02 -7.401342689990997314e-02
4.204000000000000000e+03 3.154607582092285156e+01 1.009809970855712891e+01 -3.678513169288635254e-01 3.960686177015304565e-02 -9.847334027290344238e-02 5.960394162684679031e-03
4.205000000000000000e+03 3.330466079711914062e+01 1.232369613647460938e+01 -1.468505412340164185e-01 -2.184704318642616272e-02 -5.060927569866180420e-02 -7.168113440275192261e-02
4.206000000000000000e+03 4.692204284667968750e+01 2.711742019653320312e+01 -3.795195138081908226e-03 -2.172630280256271362e-03 -1.790347625501453876e-03 -3.029271960258483887e-03
4.207000000000000000e+03 4.706240081787109375e+01 2.637737846374511719e+01 -4.826020915061235428e-03 -1.841739751398563385e-03 -2.000328153371810913e-03 -3.201867453753948212e-03
4.208000000000000000e+03 3.130766677856445312e+01 5.176027774810791016e+00 2.188374996185302734e-01 8.961647003889083862e-02 9.253618866205215454e-02 -1.101338341832160950e-01
4.209000000000000000e+03 3.122108459472656250e+01 6.821382522583007812e+00 4.191165864467620850e-01 -1.483611203730106354e-02 1.212841421365737915e-01 3.698074215208180249e-05
4.210000000000000000e+03 2.190614128112792969e+01 -1.039996519684791565e-01 9.236162528395652771e-03 -1.651984453201293945e-02 -2.185104880481958389e-03 3.796368092298507690e-02
4.211000000000000000e+03 1.734841537475585938e+01 -3.254945278167724609e+00 2.459307760000228882e-02 2.933114767074584961e-02 1.617726683616638184e-02 2.158368378877639771e-02
4.212000000000000000e+03 3.201651763916015625e+01 1.029765033721923828e+01 -2.940903604030609131e-01 5.363073199987411499e-02 -7.213788479566574097e-02 -2.201628871262073517e-03
4.213000000000000000e+03 3.092282676696777344e+01 9.447105407714843750e+00 -4.500726759433746338e-01 1.146879866719245911e-01 -1.006154045462608337e-01 7.766749709844589233e-02
4.214000000000000000e+03 3.117555427551269531e+01 6.064635276794433594e+00 3.371047675609588623e-01 5.187133699655532837e-02 1.166928336024284363e-01 -9.323732554912567139e-02
4.215000000000000000e+03 1.026142311096191406e+01 -4.364767074584960938e+00 5.425349343568086624e-03 9.786454029381275177e-04 1.921198447234928608e-03 2.779663540422916412e-03
4.216000000000000000e+03 3.137539482116699219e+01 5.648878097534179688e+00 2.710867524147033691e-01 5.975226685404777527e-02 9.925170242786407471e-02 -1.013247743248939514e-01
4.217000000000000000e+03 2.919812393188476562e+01 5.013022422790527344e+00 6.890011578798294067e-02 2.570300102233886719e-01 9.777904301881790161e-02 -3.820679616183042526e-03
4.218000000000000000e+03 1.101657772064208984e+01 -4.453034877777099609e+00 6.647737231105566025e-03 6.235853070393204689e-04 2.181396819651126862e-03 3.413949161767959595e-03
4.219000000000000000e+03 8.777318954467773438e+00 -4.248106956481933594e+00 3.634550608694553375e-03 7.867307867854833603e-04 1.326384372077882290e-03 1.847650855779647827e-03
4.220000000000000000e+03 5.483189773559570312e+01 3.235058593750000000e+01 -1.372480881400406361e-03 8.869385783327743411e-05 -3.851361107081174850e-04 -4.764083423651754856e-04
4.221000000000000000e+03 5.418334960937500000e+01 3.242325210571289062e+01 -1.248598913662135601e-03 1.004435398499481380e-05 -3.715663624461740255e-04 -5.220651510171592236e-04
4.222000000000000000e+03 7.462397766113281250e+01 3.064107322692871094e+01 -2.617295540403574705e-04 -1.390051620546728373e-04 -1.202204075525514781e-04 2.175916160922497511e-04
4.223000000000000000e+03 7.460146331787109375e+01 2.988791275024414062e+01 -3.110167162958532572e-04 -1.949217257788404822e-04 -1.517815253464505076e-04 2.928598551079630852e-04
4.224000000000000000e+03 7.588349914550781250e+01 2.876537322998046875e+01 -2.136697876267135143e-04 -2.853738551493734121e-04 -1.497130870120599866e-04 2.827763964887708426e-04
4.225000000000000000e+03 7.085778808593750000e+01 3.065033912658691406e+01 -7.058733026497066021e-04 -1.040995630319230258e-04 -2.429918531561270356e-04 4.685077292378991842e-04
4.226000000000000000e+03 7.235661315917968750e+01 2.991339683532714844e+01 -5.687204538844525814e-04 -1.772721589077264071e-04 -2.237977751065045595e-04 4.740081785712391138e-04
4.227000000000000000e+03 5.338849639892578125e+01 3.210775756835937500e+01 -1.267805811949074268e-03 -7.013276626821607351e-05 -4.013815778307616711e-04 -6.227716803550720215e-04
4.228000000000000000e+03 7.385607910156250000e+01 2.989733505249023438e+01 -3.860755241475999355e-04 -1.949702418642118573e-04 -1.743137254379689693e-04 3.524000348988920450e-04
4.229000000000000000e+03 5.994083404541015625e+01 3.076601028442382812e+01 -2.119929762557148933e-03 2.925508597400039434e-04 -5.482136621139943600e-04 6.166195817058905959e-05
4.230000000000000000e+03 6.854414367675781250e+01 3.070301437377929688e+01 -1.044618198648095131e-03 -5.969058838672935963e-05 -3.312926273792982101e-04 5.511654308065772057e-04
4.231000000000000000e+03 7.005531311035156250e+01 2.994744110107421875e+01 -8.877046057023108006e-04 -1.226875756401568651e-04 -3.031176456715911627e-04 6.112556438893079758e-04
4.232000000000000000e+03 6.219034576416015625e+01 2.980267906188964844e+01 -2.123281126841902733e-03 2.671265683602541685e-04 -5.568463820964097977e-04 4.280289867892861366e-04
4.233000000000000000e+03 6.466924285888671875e+01 3.091629219055175781e+01 -1.592487795278429985e-03 4.782827090821228921e-05 -4.633978533092886209e-04 4.674055671785026789e-04
4.234000000000000000e+03 7.298361968994140625e+01 2.840665626525878906e+01 -5.715710576623678207e-04 -3.219309728592634201e-04 -2.680506149772554636e-04 6.197356269694864750e-04
4.235000000000000000e+03 6.616838073730468750e+01 3.012854957580566406e+01 -1.477960380725562572e-03 1.577226612425874919e-05 -4.386564251035451889e-04 6.391028873622417450e-04
4.236000000000000000e+03 6.226960754394531250e+01 3.046515655517578125e+01 -1.966816838830709457e-03 1.950831501744687557e-04 -5.315201124176383018e-04 3.494901757221668959e-04
4.237000000000000000e+03 7.683103179931640625e+01 2.619064903259277344e+01 -1.564182166475802660e-04 -5.226565990597009659e-04 -2.037224476225674152e-04 4.101133672520518303e-04
4.238000000000000000e+03 7.606792449951171875e+01 3.001657295227050781e+01 -1.718611019896343350e-04 -1.708250201772898436e-04 -1.028058322845026851e-04 1.658007386140525341e-04
4.239000000000000000e+03 7.082825469970703125e+01 2.993058967590332031e+01 -7.777588907629251480e-04 -1.438449835404753685e-04 -2.764811797533184290e-04 5.756567697972059250e-04
4.240000000000000000e+03 6.928126525878906250e+01 2.997148323059082031e+01 -1.005703234113752842e-03 -9.961928299162536860e-05 -3.315967624075710773e-04 6.439982098527252674e-04
4.241000000000000000e+03 5.839596557617187500e+01 3.103144645690917969e+01 -2.118295524269342422e-03 3.231838927604258060e-04 -5.385334370657801628e-04 -1.497266493970528245e-04
4.242000000000000000e+03 6.304905319213867188e+01 3.038349342346191406e+01 -1.889424398541450500e-03 1.576142240082845092e-04 -5.195430712774395943e-04 4.321163287386298180e-04
4.243000000000000000e+03 6.382878494262695312e+01 3.030954170227050781e+01 -1.796780037693679333e-03 1.213029390783049166e-04 -5.026431172154843807e-04 5.001774989068508148e-04
4.244000000000000000e+03 5.622653198242187500e+01 3.208562469482421875e+01 -1.652211765758693218e-03 1.996416103793308139e-04 -4.357710422482341528e-04 -3.815019445028156042e-04
4.245000000000000000e+03 5.829897308349609375e+01 3.041219520568847656e+01 -2.344457898288965225e-03 4.115499614272266626e-04 -5.798724014312028885e-04 -1.363602787023410201e-04
4.246000000000000000e+03 6.071614074707031250e+01 3.065517234802246094e+01 -2.083313418552279472e-03 2.640984312165528536e-04 -5.457644583657383919e-04 1.622509589651599526e-04
4.247000000000000000e+03 6.149192810058593750e+01 3.055540275573730469e+01 -2.035676734521985054e-03 2.306384703842923045e-04 -5.415114574134349823e-04 2.614129625726491213e-04
4.248000000000000000e+03 6.694533538818359375e+01 3.007966613769531250e+01 -1.361332833766937256e-03 -1.444953613827237859e-05 -4.127347201574593782e-04 6.565293879248201847e-04
4.249000000000000000e+03 5.916675567626953125e+01 3.089139175415039062e+01 -2.127974992617964745e-03 3.137775056529790163e-04 -5.442592664621770382e-04 -4.619931132765486836e-05
4.250000000000000000e+03 5.687009429931640625e+01 3.133803176879882812e+01 -2.010179916396737099e-03 2.979313721880316734e-04 -5.136745749041438103e-04 -3.491904644761234522e-04
4.251000000000000000e+03 5.225848770141601562e+01 3.073257827758789062e+01 -1.935938256792724133e-03 -2.482820709701627493e-04 -6.552661070600152016e-04 -9.754704078659415245e-04
4.252000000000000000e+03 5.796954631805419922e+00 -4.325440883636474609e+00 1.554141868837177753e-03 6.284256232902407646e-04 6.547702359966933727e-04 7.790884119458496571e-04
4.253000000000000000e+03 6.540384292602539062e+00 -4.266053676605224609e+00 1.986383926123380661e-03 5.385726690292358398e-04 7.574869669042527676e-04 9.965219069272279739e-04
4.254000000000000000e+03 7.972031116485595703e+00 -3.445680141448974609e+00 2.283354988321661949e-03 4.715375835075974464e-04 8.264677599072456360e-04 9.106822544708848000e-04
4.255000000000000000e+03 4.002200126647949219e+00 -5.382696151733398438e+00 9.702905081212520599e-04 8.163214661180973053e-04 5.359835922718048096e-04 7.187970331870019436e-04
4.256000000000000000e+03 5.088041305541992188e+00 -4.402462482452392578e+00 1.258525648154318333e-03 5.224793567322194576e-04 5.343015072867274284e-04 5.914114881306886673e-04
4.257000000000000000e+03 4.083779335021972656e+00 -3.885423421859741211e+00 7.420863257721066475e-04 3.759946848731487989e-04 3.354242944624274969e-04 2.080917474813759327e-04
4.258000000000000000e+03 1.682922363281250000e+01 -4.485651016235351562e+00 1.700760051608085632e-02 2.354908175766468048e-02 1.216700486838817596e-02 1.837445609271526337e-02
4.259000000000000000e+03 1.648958396911621094e+01 -3.742182970046997070e+00 2.184571698307991028e-02 1.477808039635419846e-02 1.098713930696249008e-02 1.700540818274021149e-02
4.260000000000000000e+03 8.035331726074218750e+00 -4.227755069732666016e+00 3.053664928302168846e-03 5.137519910931587219e-04 1.070225145667791367e-03 1.583401812240481377e-03
4.261000000000000000e+03 5.545025253295898438e+01 3.164509201049804688e+01 -1.799039542675018311e-03 2.057140081888064742e-04 -4.779976734425872564e-04 -5.009510205127298832e-04
4.262000000000000000e+03 2.360651397705078125e+01 -1.464392185211181641e+00 -3.654795885086059570e-02 -2.932135574519634247e-02 -1.976079493761062622e-02 2.785437926650047302e-02
4.263000000000000000e+03 2.320539665222167969e+01 6.387032270431518555e-01 2.991498261690139771e-02 -1.529840473085641861e-02 4.384973552078008652e-03 2.177997492253780365e-02
4.264000000000000000e+03 1.509263896942138672e+01 -5.688879489898681641e+00 1.230897288769483566e-02 1.061386801302433014e-02 6.876852363348007202e-03 1.320315059274435043e-02
4.265000000000000000e+03 1.179032135009765625e+01 -4.548333644866943359e+00 8.071235381066799164e-03 1.543820253573358059e-03 2.884516725316643715e-03 4.373961128294467926e-03
4.266000000000000000e+03 1.258521842956542969e+01 -4.637134075164794922e+00 9.627622552216053009e-03 1.543043763376772404e-03 3.351199906319379807e-03 5.585186649113893509e-03
4.267000000000000000e+03 1.600086402893066406e+01 -4.784664154052734375e+00 1.607098802924156189e-02 1.558148302137851715e-02 9.495741687715053558e-03 1.572569273412227631e-02
4.268000000000000000e+03 1.503682231903076172e+01 -3.952422380447387695e+00 1.634556427597999573e-02 5.662230309098958969e-03 6.602338049560785294e-03 1.003278698772192001e-02
4.269000000000000000e+03 1.881147003173828125e+01 -1.416247272491455078e+01 -2.826634794473648071e-03 9.146570228040218353e-03 1.895980676636099815e-03 2.703812671825289726e-03
4.270000000000000000e+03 2.012633514404296875e+01 -1.625604248046875000e+01 -2.710576867684721947e-03 5.174401216208934784e-03 7.391473627649247646e-04 2.117334632202982903e-03
4.271000000000000000e+03 2.666331481933593750e+01 -2.675058841705322266e+00 -2.220834419131278992e-02 5.675403866916894913e-03 -4.959882237017154694e-03 1.501630898565053940e-02
4.272000000000000000e+03 2.611595535278320312e+01 -1.843314170837402344e+00 -1.495030801743268967e-02 -2.852725330740213394e-03 -5.340910051017999649e-03 1.557795330882072449e-02
4.273000000000000000e+03 2.129169845581054688e+01 -1.847826576232910156e+01 -2.644725376740098000e-03 2.597251906991004944e-03 -1.424207039235625416e-05 2.322317101061344147e-03
4.274000000000000000e+03 3.546896743774414062e+01 -1.130960083007812500e+01 -3.159841988235712051e-03 2.476532571017742157e-02 6.481645163148641586e-03 -8.485391736030578613e-03
4.275000000000000000e+03 2.746985244750976562e+01 -2.038765907287597656e+00 -1.444428879767656326e-02 1.903901435434818268e-02 1.378417829982936382e-03 9.777109138667583466e-03
4.276000000000000000e+03 2.192105293273925781e+01 -1.954722404479980469e+01 -2.231555758044123650e-03 1.836810144595801830e-03 -1.184236461995169520e-04 2.795016393065452576e-03
4.277000000000000000e+03 3.350430297851562500e+01 -8.087015151977539062e+00 -1.058529969304800034e-02 2.752725034952163696e-02 5.082585383206605911e-03 -8.016100153326988220e-03
4.278000000000000000e+03 3.272669982910156250e+01 -9.155561447143554688e+00 -8.056150749325752258e-03 2.268116921186447144e-02 4.387505352497100830e-03 -4.324533045291900635e-03
4.279000000000000000e+03 4.534286499023437500e+01 -2.686322212219238281e+01 4.988791886717081070e-03 3.606180101633071899e-02 1.231517829000949860e-02 -9.432888589799404144e-03
4.280000000000000000e+03 4.450597763061523438e+01 -2.635015106201171875e+01 4.633082076907157898e-03 3.688993304967880249e-02 1.245690416544675827e-02 -1.170666515827178955e-02
4.281000000000000000e+03 4.388389968872070312e+01 -2.565112686157226562e+01 5.045241210609674454e-03 3.483163937926292419e-02 1.196306385099887848e-02 -1.270424015820026398e-02
4.282000000000000000e+03 4.336931610107421875e+01 -2.463857841491699219e+01 4.536692053079605103e-03 3.335596621036529541e-02 1.136779785156250000e-02 -1.227298844605684280e-02
4.283000000000000000e+03 4.235616302490234375e+01 -2.546851348876953125e+01 6.586514413356781006e-03 3.363983705639839172e-02 1.206790562719106674e-02 -1.493039447814226151e-02
4.284000000000000000e+03 3.795220947265625000e+01 -1.593813037872314453e+01 2.468199003487825394e-03 2.512230724096298218e-02 8.277151733636856079e-03 -1.041622459888458252e-02
4.285000000000000000e+03 3.560083770751953125e+01 -1.427614212036132812e+01 2.331337658688426018e-03 2.317989245057106018e-02 7.653369102627038956e-03 -9.314970113337039948e-03
4.286000000000000000e+03 3.728038024902343750e+01 -1.487047863006591797e+01 2.213673898950219154e-03 2.465076930820941925e-02 8.059333078563213348e-03 -9.861017577350139618e-03
4.287000000000000000e+03 1.803157234191894531e+01 -1.317911911010742188e+01 -2.626980887725949287e-03 1.200002338737249374e-02 2.811912912875413895e-03 3.897635033354163170e-03
4.288000000000000000e+03 2.247573852539062500e+01 -2.064598464965820312e+01 -2.683305647224187851e-03 6.048075156286358833e-04 -6.235494511201977730e-04 2.631781622767448425e-03
4.289000000000000000e+03 3.966251373291015625e+01 -2.105964660644531250e+01 5.840926896780729294e-03 2.775384299457073212e-02 1.007843110710382462e-02 -1.301866862922906876e-02
4.290000000000000000e+03 2.743331527709960938e+01 -2.790914058685302734e+00 -2.345746383070945740e-02 1.174030080437660217e-02 -3.515148535370826721e-03 1.074249856173992157e-02
4.291000000000000000e+03 4.028421020507812500e+01 -1.736816596984863281e+01 3.105671145021915436e-03 2.600933052599430084e-02 8.734500035643577576e-03 -1.036205329000949860e-02
4.292000000000000000e+03 7.556125640869140625e+01 -2.181093215942382812e+01 2.776921610347926617e-04 -1.936980336904525757e-02 -5.727633368223905563e-03 1.470076269470155239e-03
4.293000000000000000e+03 7.551671600341796875e+01 -2.868873977661132812e+01 7.861414633225649595e-05 -2.085908688604831696e-02 -6.234141997992992401e-03 8.551798528060317039e-04
4.294000000000000000e+03 7.575101470947265625e+01 -7.752127051353454590e-01 5.681118273059837520e-05 -1.142594777047634125e-02 -3.410740988329052925e-03 2.654683776199817657e-03
4.295000000000000000e+03 7.576600646972656250e+01 -1.636600875854492188e+01 1.754831464495509863e-04 -1.813603378832340240e-02 -5.388165358453989029e-03 1.779609010554850101e-03
4.296000000000000000e+03 7.550793457031250000e+01 -8.070548057556152344e+00 1.898909395094960928e-04 -1.459657400846481323e-02 -4.322004970163106918e-03 2.382032806053757668e-03
4.297000000000000000e+03 7.576265716552734375e+01 -1.502232646942138672e+01 1.155576173914596438e-04 -1.765890046954154968e-02 -5.263003055006265640e-03 1.854533911682665348e-03
4.298000000000000000e+03 7.694876098632812500e+01 3.181917667388916016e+00 -1.752201387716922909e-05 -1.016441639512777328e-02 -3.054581582546234131e-03 2.056130906566977501e-03
4.299000000000000000e+03 7.445712280273437500e+01 4.909042358398437500e+00 -4.077558696735650301e-05 -7.747674360871315002e-03 -2.336534904316067696e-03 3.352324711158871651e-03
4.300000000000000000e+03 7.577436065673828125e+01 1.166937732696533203e+01 -2.001143584493547678e-04 -5.051817279309034348e-03 -1.575579517520964146e-03 2.343517728149890900e-03
4.301000000000000000e+03 7.576462554931640625e+01 8.903803825378417969e+00 -1.309287326876074076e-04 -6.378680467605590820e-03 -1.952882739715278149e-03 2.556320279836654663e-03
4.302000000000000000e+03 7.686161804199218750e+01 -3.809022426605224609e+00 9.482871246291324496e-05 -1.410808600485324860e-02 -4.203977528959512711e-03 1.943009672686457634e-03
4.303000000000000000e+03 7.448666381835937500e+01 -1.946819543838500977e+00 1.300238654948771000e-04 -1.088493037968873978e-02 -3.226471832022070885e-03 3.193429671227931976e-03
4.304000000000000000e+03 7.576237487792968750e+01 1.029084968566894531e+01 -1.835957518778741360e-04 -5.701424088329076767e-03 -1.765505992807447910e-03 2.469538711011409760e-03
4.305000000000000000e+03 7.572494506835937500e+01 4.732622146606445312e+00 -5.032281478634104133e-05 -8.542085066437721252e-03 -2.577722305431962013e-03 2.729337429627776146e-03
4.306000000000000000e+03 7.688605499267578125e+01 -1.094323730468750000e+01 4.844842987949959934e-05 -1.765316538512706757e-02 -5.281415302306413651e-03 1.620210823602974415e-03
4.307000000000000000e+03 7.570850372314453125e+01 -1.231943321228027344e+01 1.125347043853253126e-04 -1.659449003636837006e-02 -4.944586195051670074e-03 2.035657642409205437e-03
4.308000000000000000e+03 7.694815063476562500e+01 4.563750743865966797e+00 -3.214471462342771702e-06 -9.355706162750720978e-03 -2.807676093652844429e-03 2.048320136964321136e-03
4.309000000000000000e+03 7.569290924072265625e+01 -2.180861711502075195e+00 1.134502163040451705e-04 -1.207376085221767426e-02 -3.588093211874365807e-03 2.630109200254082680e-03
4.310000000000000000e+03 7.697346496582031250e+01 1.012762165069580078e+01 -8.365845860680565238e-05 -6.181899923831224442e-03 -1.879667630419135094e-03 1.852964051067829132e-03
4.311000000000000000e+03 7.580096435546875000e+01 1.305443382263183594e+01 -2.395955380052328110e-04 -4.439294338226318359e-03 -1.403667032718658447e-03 2.207757672294974327e-03
4.312000000000000000e+03 7.702659606933593750e+01 1.567631149291992188e+01 -1.382144982926547527e-04 -3.489200025796890259e-03 -1.088224351406097412e-03 1.415726961567997932e-03
4.313000000000000000e+03 7.460379791259765625e+01 -1.633382225036621094e+01 1.945648982655256987e-04 -1.628853194415569305e-02 -4.828189965337514877e-03 2.137218602001667023e-03
4.314000000000000000e+03 7.559130859375000000e+01 -9.528332710266113281e+00 1.192162671941332519e-04 -1.532050594687461853e-02 -4.560386762022972107e-03 2.252636943012475967e-03
4.315000000000000000e+03 7.591333770751953125e+01 1.860030174255371094e+01 -2.932815114036202431e-04 -2.320468192920088768e-03 -7.841248880140483379e-04 1.512381248176097870e-03
4.316000000000000000e+03 7.471133422851562500e+01 1.875704193115234375e+01 -4.471639113035053015e-04 -2.182142110541462898e-03 -7.887918036431074142e-04 1.851128297857940197e-03
4.317000000000000000e+03 7.575419616699218750e+01 -1.770793914794921875e+01 1.125004200730472803e-04 -1.856333017349243164e-02 -5.535248667001724243e-03 1.677575404755771160e-03
4.318000000000000000e+03 7.693563842773437500e+01 -1.780136299133300781e+01 9.850240166997537017e-05 -2.052673138678073883e-02 -6.128469016402959824e-03 1.287733088247478008e-03
4.319000000000000000e+03 7.586390686035156250e+01 1.722025489807128906e+01 -2.756521280389279127e-04 -2.779855392873287201e-03 -9.166522067971527576e-04 1.696359133347868919e-03
4.320000000000000000e+03 7.704876708984375000e+01 1.705747795104980469e+01 -1.601625554030761123e-04 -2.925918204709887505e-03 -9.258242207579314709e-04 1.280012656934559345e-03
4.321000000000000000e+03 7.539788055419921875e+01 -2.614454269409179688e+01 1.954448816832154989e-04 -2.008329704403877258e-02 -5.966355558484792709e-03 1.086438074707984924e-03
4.322000000000000000e+03 7.670759582519531250e+01 -2.477400588989257812e+01 8.470706234220415354e-05 -2.227082103490829468e-02 -6.655834149569272995e-03 9.402662399224936962e-04
4.323000000000000000e+03 7.542533111572265625e+01 -2.323928833007812500e+01 1.615891233086585999e-04 -1.957033574581146240e-02 -5.822624079883098602e-03 1.363343209959566593e-03
4.324000000000000000e+03 7.514105224609375000e+01 2.285635375976562500e+01 -3.853486559819430113e-04 -1.182100153528153896e-03 -4.702346341218799353e-04 1.117862411774694920e-03
4.325000000000000000e+03 7.531501770019531250e+01 -3.252607727050781250e+01 2.011932956520467997e-04 -2.075192518532276154e-02 -6.165219470858573914e-03 4.666566383093595505e-04
4.326000000000000000e+03 7.345241546630859375e+01 -3.595018005371093750e+01 4.890589043498039246e-04 -1.718253269791603088e-02 -5.008041858673095703e-03 2.527231990825384855e-04
4.327000000000000000e+03 7.668661499023437500e+01 2.522784614562988281e+01 -1.887569815153256059e-04 -6.903085741214454174e-04 -2.637196739669889212e-04 5.426176358014345169e-04
4.328000000000000000e+03 7.381542968750000000e+01 -2.918508720397949219e+01 3.353479551151394844e-04 -1.745163090527057648e-02 -5.134884733706712723e-03 1.119164866395294666e-03
4.329000000000000000e+03 7.617633056640625000e+01 -3.453430175781250000e+01 1.232552895089611411e-04 -2.247528545558452606e-02 -6.705609150230884552e-03 5.124990711919963360e-04
4.330000000000000000e+03 7.448480987548828125e+01 -3.408504867553710938e+01 9.885185136226937175e-05 -1.900701597332954407e-02 -5.672448780387639999e-03 3.632070729508996010e-04
4.331000000000000000e+03 7.639190673828125000e+01 2.406462097167968750e+01 -2.253632119391113520e-04 -9.185799863189458847e-04 -3.431829682085663080e-04 7.174736238084733486e-04
4.332000000000000000e+03 7.754388427734375000e+01 2.755457496643066406e+01 -9.515115380054339767e-05 -2.930498449131846428e-04 -1.164602945209480822e-04 2.113599621225148439e-04
4.333000000000000000e+03 7.361923980712890625e+01 2.765261650085449219e+01 -5.102391005493700504e-04 -4.148245789110660553e-04 -2.775191096588969231e-04 6.522550829686224461e-04
4.334000000000000000e+03 7.536289978027343750e+01 2.987011337280273438e+01 -2.351855800952762365e-04 -1.941717491718009114e-04 -1.288071944145485759e-04 2.331439027329906821e-04
4.335000000000000000e+03 3.829840087890625000e+01 -1.881812095642089844e+01 5.436147097498178482e-03 2.596731111407279968e-02 9.421037510037422180e-03 -1.190885994583368301e-02
4.336000000000000000e+03 4.356175899505615234e+00 -2.031916046142578125e+01 -4.974123439751565456e-04 1.047724671661853790e-02 2.993950387462973595e-03 3.507439279928803444e-03
4.337000000000000000e+03 6.567988395690917969e+00 -2.476688575744628906e+01 -8.604379254393279552e-04 1.165352482348680496e-02 3.237926168367266655e-03 3.684367751702666283e-03
4.338000000000000000e+03 3.376384735107421875e+00 -2.319011116027832031e+01 -1.414568396285176277e-04 1.256039086729288101e-02 3.725680056959390640e-03 2.467637415975332260e-03
4.339000000000000000e+03 4.466978073120117188e+00 -2.162219429016113281e+01 -3.382775175850838423e-04 1.125661376863718033e-02 3.275500843301415443e-03 3.326229751110076904e-03
4.340000000000000000e+03 4.996087074279785156e+00 -8.887083053588867188e+00 1.339310663752257824e-03 2.822648035362362862e-03 1.248587621375918388e-03 3.002801444381475449e-03
4.341000000000000000e+03 2.872541904449462891e+00 -9.623104095458984375e+00 5.845560226589441299e-04 2.465898171067237854e-03 9.151363046839833260e-04 1.951710321009159088e-03
4.342000000000000000e+03 4.373505115509033203e+00 -1.489371681213378906e+01 -9.503982255409937352e-06 6.849436555057764053e-03 2.051979769021272659e-03 3.955300897359848022e-03
4.343000000000000000e+03 4.337291240692138672e+00 -1.764371681213378906e+01 -3.548126260284334421e-04 8.767600171267986298e-03 2.523836214095354080e-03 3.875862574204802513e-03
4.344000000000000000e+03 4.307899951934814453e+00 -1.899336814880371094e+01 -2.304803347215056419e-04 9.695056825876235962e-03 2.839372958987951279e-03 3.670085221529006958e-03
4.345000000000000000e+03 5.858407020568847656e+00 -2.264351272583007812e+01 -6.538211600854992867e-04 1.129589322954416275e-02 3.192621516063809395e-03 3.839172422885894775e-03
4.346000000000000000e+03 4.933533191680908203e+00 -2.429304504394531250e+01 -4.141774843446910381e-04 1.239614654332399368e-02 3.594590816646814346e-03 3.098071552813053131e-03
4.347000000000000000e+03 3.301205635070800781e+00 -3.065045547485351562e+01 -1.003925353870727122e-04 1.633216254413127899e-02 4.869531374424695969e-03 1.343227457255125046e-03
4.348000000000000000e+03 4.244314670562744141e+00 -1.352223300933837891e+01 4.001310444436967373e-04 5.871924571692943573e-03 1.881616655737161636e-03 3.851360175758600235e-03
4.349000000000000000e+03 4.000359058380126953e+00 -1.094461441040039062e+01 7.853896822780370712e-04 3.856383264064788818e-03 1.392531907185912132e-03 3.115552477538585663e-03
4.350000000000000000e+03 3.971505880355834961e+00 -9.766400337219238281e+00 7.690188358537852764e-04 3.019837196916341782e-03 1.136656850576400757e-03 2.680667443200945854e-03
4.351000000000000000e+03 4.994216442108154297e+00 -5.883967399597167969e+00 1.551037305034697056e-03 1.045110868290066719e-03 7.788444636389613152e-04 1.343929441645741463e-03
4.352000000000000000e+03 6.006692886352539062e+00 -3.052465248107910156e+01 -9.660520590841770172e-04 1.370921637862920761e-02 3.822949249297380447e-03 2.351534087210893631e-03
4.353000000000000000e+03 4.482115268707275391e+00 -3.055027580261230469e+01 -3.327231679577380419e-04 1.524334959685802460e-02 4.473187960684299469e-03 1.816730946302413940e-03
4.354000000000000000e+03 3.122070074081420898e+00 -4.862453937530517578e+00 5.612401291728019714e-04 3.240883524995297194e-04 2.655985299497842789e-04 2.572222729213535786e-04
4.355000000000000000e+03 3.577821493148803711e+00 -6.279134273529052734e+00 7.825018838047981262e-04 9.320324170403182507e-04 5.143602611497044563e-04 9.038262651301920414e-04
4.356000000000000000e+03 2.402466392517089844e+01 -2.147130584716796875e+01 -2.469776896759867668e-03 -1.439578714780509472e-03 -1.172806718386709690e-03 2.695883391425013542e-03
4.357000000000000000e+03 2.204025077819824219e+01 -2.342266273498535156e+01 -2.573078498244285583e-03 1.006777863949537277e-03 -4.698901902884244919e-04 3.339856863021850586e-03
4.358000000000000000e+03 3.508453369140625000e+00 -3.580053329467773438e+01 -3.974575374741107225e-04 1.772538572549819946e-02 5.198378115892410278e-03 5.858236108906567097e-04
4.359000000000000000e+03 3.709980392456054688e+01 -1.219107627868652344e+01 -1.506930217146873474e-03 2.544419281184673309e-02 7.181178778409957886e-03 -9.524033404886722565e-03
4.360000000000000000e+03 4.628326034545898438e+01 -2.744458389282226562e+01 5.039884708821773529e-03 3.698365017771720886e-02 1.260706037282943726e-02 -9.109893813729286194e-03
4.361000000000000000e+03 4.381751251220703125e+01 -2.270916748046875000e+01 3.233344526961445808e-03 3.052820637822151184e-02 1.012846548110246658e-02 -1.039021927863359451e-02
4.362000000000000000e+03 4.103238296508789062e+01 -2.328076934814453125e+01 6.105912849307060242e-03 3.029320947825908661e-02 1.091973669826984406e-02 -1.397938001900911331e-02
4.363000000000000000e+03 2.253103637695312500e+01 -3.040122795104980469e+01 -4.140554927289485931e-03 2.936211822088807821e-04 -1.154080149717628956e-03 3.515252610668540001e-03
4.364000000000000000e+03 2.699089431762695312e+01 -3.155037689208984375e+01 -4.501120653003454208e-03 -3.893282031640410423e-03 -2.518320688977837563e-03 4.266062285751104355e-03
4.365000000000000000e+03 2.447598648071289062e+01 -2.281982612609863281e+01 -2.142615383490920067e-03 -1.850366708822548389e-03 -1.197894569486379623e-03 3.331583458930253983e-03
4.366000000000000000e+03 1.812986564636230469e+01 -1.105576324462890625e+01 -1.858404255472123623e-03 1.583035662770271301e-02 4.191585816442966461e-03 3.917078487575054169e-03
4.367000000000000000e+03 2.334830284118652344e+01 -2.744542312622070312e+01 -3.495297627523541451e-03 -5.714301369152963161e-04 -1.220018370077013969e-03 3.572671441361308098e-03
4.368000000000000000e+03 2.581254386901855469e+01 -9.815211296081542969e-01 -3.644685493782162666e-03 -1.717019476927816868e-03 -1.608511433005332947e-03 1.279375422745943069e-02
4.369000000000000000e+03 2.450395393371582031e+01 1.242203712463378906e+00 4.261103644967079163e-02 -1.277695409953594208e-02 8.950225077569484711e-03 1.405316404998302460e-02
4.370000000000000000e+03 4.735617828369140625e+01 -2.796246528625488281e+01 4.387813620269298553e-03 3.536367416381835938e-02 1.192544680088758469e-02 -5.670407321304082870e-03
4.371000000000000000e+03 1.657557678222656250e+01 -8.317585945129394531e+00 2.603074535727500916e-03 1.957917585968971252e-02 6.654675118625164032e-03 1.067665684968233109e-02
4.372000000000000000e+03 2.608601188659667969e+01 -3.322256469726562500e+01 -5.311098415404558182e-03 -2.379066310822963715e-03 -2.307049464434385300e-03 3.574476344510912895e-03
4.373000000000000000e+03 2.825052833557128906e+01 -3.081321334838867188e+01 -4.975647665560245514e-03 -5.270650610327720642e-03 -3.073889529332518578e-03 4.590993281453847885e-03
4.374000000000000000e+03 1.762175559997558594e+01 -8.777239799499511719e+00 -6.263155955821275711e-04 2.124941535294055939e-02 6.186929997056722641e-03 5.886300932615995407e-03
4.375000000000000000e+03 1.596601772308349609e+01 -9.466881752014160156e+00 9.984945645555853844e-04 1.634216308593750000e-02 5.202197004109621048e-03 9.213747456669807434e-03
4.376000000000000000e+03 3.076920509338378906e+01 -7.182719230651855469e+00 -1.661037281155586243e-02 1.916441880166530609e-02 7.662134012207388878e-04 8.505520527251064777e-04
4.377000000000000000e+03 3.241408538818359375e+01 -7.324404716491699219e+00 -1.349589228630065918e-02 2.735621668398380280e-02 4.158097319304943085e-03 -5.646753590553998947e-03
4.378000000000000000e+03 1.718049240112304688e+01 -1.223016166687011719e+01 -2.099044155329465866e-03 1.311496458947658539e-02 3.304776269942522049e-03 5.507620517164468765e-03
4.379000000000000000e+03 3.206738281250000000e+01 -4.108703994750976562e+01 -1.260917074978351593e-02 -3.353532403707504272e-03 -4.788810852915048599e-03 1.923618139699101448e-03
4.380000000000000000e+03 3.075316810607910156e+01 -3.639578247070312500e+01 -7.648535538464784622e-03 -5.487602669745683670e-03 -3.940841648727655411e-03 5.179136060178279877e-03
4.381000000000000000e+03 4.949896621704101562e+01 -3.577119827270507812e+01 3.863235004246234894e-03 3.566219657659530640e-02 1.185762882232666016e-02 -9.567001834511756897e-03
4.382000000000000000e+03 4.724946212768554688e+01 -4.119124603271484375e+01 -2.116403356194496155e-02 4.456915706396102905e-02 7.021537516266107559e-03 -3.977103624492883682e-03
4.383000000000000000e+03 5.021615982055664062e+01 -3.953588485717773438e+01 -9.212233126163482666e-03 3.866154700517654419e-02 8.834795095026493073e-03 -7.007129024714231491e-03
4.384000000000000000e+03 5.249003219604492188e+01 -3.381271743774414062e+01 4.997349344193935394e-03 2.571282908320426941e-02 9.213053621351718903e-03 -5.513207986950874329e-03
4.385000000000000000e+03 2.398267173767089844e+01 -2.894311332702636719e+01 -3.388247452676296234e-03 -1.107367221266031265e-03 -1.348684425465762615e-03 3.773519070819020271e-03
4.386000000000000000e+03 2.840260314941406250e+01 3.458789348602294922e+00 5.230459198355674744e-02 8.942517638206481934e-02 4.251893237233161926e-02 3.384869173169136047e-02
4.387000000000000000e+03 2.797849082946777344e+01 3.678212642669677734e+00 6.105528399348258972e-02 5.930435284972190857e-02 3.610789030790328979e-02 4.048911854624748230e-02
4.388000000000000000e+03 2.684171676635742188e+01 3.303757429122924805e+00 6.367058306932449341e-02 5.463578738272190094e-03 2.074024826288223267e-02 2.634596452116966248e-02
4.389000000000000000e+03 2.700229644775390625e+01 3.606447935104370117e+00 6.653237342834472656e-02 7.565631065517663956e-03 2.222940139472484589e-02 2.961810864508152008e-02
4.390000000000000000e+03 2.637858009338378906e+01 2.942291975021362305e+00 6.038971617817878723e-02 -1.881599077023565769e-03 1.755243539810180664e-02 2.075504139065742493e-02
4.391000000000000000e+03 2.454821777343750000e+01 1.852273583412170410e+00 5.035775154829025269e-02 -1.083975937217473984e-02 1.185539737343788147e-02 1.434022467583417892e-02
4.392000000000000000e+03 2.548622703552246094e+01 2.359198093414306641e+00 5.592896044254302979e-02 -8.924031630158424377e-03 1.410147827118635178e-02 1.518438104540109634e-02
4.393000000000000000e+03 2.416994094848632812e+01 1.980371236801147461e+00 5.315753072500228882e-02 -9.384729899466037750e-03 1.313184015452861786e-02 1.596854440867900848e-02
4.394000000000000000e+03 2.493583297729492188e+01 1.940343260765075684e+00 5.175448954105377197e-02 -1.031548902392387390e-02 1.243170071393251419e-02 1.408448349684476852e-02
4.395000000000000000e+03 2.719600868225097656e+01 3.756998062133789062e+00 6.782767176628112793e-02 1.245413441210985184e-02 2.408454008400440216e-02 3.227589651942253113e-02
4.396000000000000000e+03 2.348550605773925781e+01 1.627772331237792969e+00 4.908556863665580750e-02 -8.336497470736503601e-03 1.222472172230482101e-02 1.945162191987037659e-02
4.397000000000000000e+03 3.988714218139648438e+01 1.911160469055175781e+01 -1.710982620716094971e-02 -7.000791374593973160e-03 -7.233185227960348129e-03 -1.298611611127853394e-02
4.398000000000000000e+03 4.117429351806640625e+01 2.035281944274902344e+01 -1.369977742433547974e-02 -5.442310124635696411e-03 -5.742626264691352844e-03 -9.881087578833103180e-03
4.399000000000000000e+03 3.305280685424804688e+01 1.214501953125000000e+01 -1.693186163902282715e-01 -2.664654701948165894e-02 -5.878954753279685974e-02 -7.417071610689163208e-02
4.400000000000000000e+03 3.866607284545898438e+01 1.817775726318359375e+01 -2.202142030000686646e-02 -1.113819424062967300e-02 -9.947883896529674530e-03 -1.592121832072734833e-02
4.401000000000000000e+03 3.965472412109375000e+01 1.885348129272460938e+01 -1.887208223342895508e-02 -7.744324859231710434e-03 -7.984922267496585846e-03 -1.322214771062135696e-02
4.402000000000000000e+03 4.846087265014648438e+01 2.677981185913085938e+01 -4.686315078288316727e-03 -1.046413322910666466e-03 -1.719818566925823689e-03 -2.588751493021845818e-03
4.403000000000000000e+03 4.567837524414062500e+01 2.512269210815429688e+01 -6.340016145259141922e-03 -2.680864185094833374e-03 -2.706263912841677666e-03 -4.250708501785993576e-03
4.404000000000000000e+03 4.178403854370117188e+01 2.153477478027343750e+01 -1.159087568521499634e-02 -5.693254992365837097e-03 -5.185239017009735107e-03 -8.109763264656066895e-03
4.405000000000000000e+03 3.843410491943359375e+01 1.785907554626464844e+01 -2.310398221015930176e-02 -1.131663937121629715e-02 -1.032618619501590729e-02 -1.738641038537025452e-02
4.406000000000000000e+03 3.942817306518554688e+01 1.857586097717285156e+01 -1.953027397394180298e-02 -7.784805260598659515e-03 -8.194523863494396210e-03 -1.432552281767129898e-02
4.407000000000000000e+03 4.525796508789062500e+01 2.422245597839355469e+01 -7.608630228787660599e-03 -2.680864185094833374e-03 -3.086848184466362000e-03 -4.605321213603019714e-03
4.408000000000000000e+03 4.261737442016601562e+01 2.224305343627929688e+01 -1.036187913268804550e-02 -4.677653778344392776e-03 -4.511859733611345291e-03 -7.331838831305503845e-03
4.409000000000000000e+03 4.342181396484375000e+01 2.248800277709960938e+01 -1.024427264928817749e-02 -3.794385353103280067e-03 -4.211597144603729248e-03 -6.447782739996910095e-03
4.410000000000000000e+03 4.370162200927734375e+01 2.274836540222167969e+01 -9.674698114395141602e-03 -3.488720161840319633e-03 -3.949025645852088928e-03 -6.259714718908071518e-03
4.411000000000000000e+03 4.286585617065429688e+01 2.194313430786132812e+01 -1.119875442236661911e-02 -4.157889168709516525e-03 -4.606992937624454498e-03 -7.071606349200010300e-03
4.412000000000000000e+03 3.514326477050781250e+01 1.375578403472900391e+01 -8.081853389739990234e-02 -1.293131057173013687e-02 -2.812495455145835876e-02 -3.886570781469345093e-02
4.413000000000000000e+03 3.920427322387695312e+01 1.827950286865234375e+01 -2.185573987662792206e-02 -8.481885306537151337e-03 -9.101287461817264557e-03 -1.463657617568969727e-02
4.414000000000000000e+03 3.617590713500976562e+01 1.547942161560058594e+01 -4.655240848660469055e-02 -1.947594992816448212e-02 -1.980850659310817719e-02 -2.967213094234466553e-02
4.415000000000000000e+03 3.272143936157226562e+01 1.164927673339843750e+01 -2.148239165544509888e-01 -1.370006054639816284e-02 -6.855718791484832764e-02 -7.485157996416091919e-02
4.416000000000000000e+03 4.156730270385742188e+01 2.064001655578613281e+01 -1.337852329015731812e-02 -5.058494396507740021e-03 -5.531105678528547287e-03 -9.022157639265060425e-03
4.417000000000000000e+03 4.492118453979492188e+01 2.412133407592773438e+01 -7.644496858119964600e-03 -2.958819968625903130e-03 -3.180995117872953415e-03 -4.925121553242206573e-03
4.418000000000000000e+03 3.512764739990234375e+01 1.324104690551757812e+01 -9.106995165348052979e-02 -8.692861534655094147e-03 -2.992884442210197449e-02 -3.311141952872276306e-02
4.419000000000000000e+03 5.082393646240234375e+01 2.943373489379882812e+01 -2.649904228746891022e-03 -5.449726595543324947e-04 -9.584631188772618771e-04 -1.449780887924134731e-03
4.420000000000000000e+03 5.110799026489257812e+01 2.970251846313476562e+01 -2.496992936357855797e-03 -4.957853816449642181e-04 -8.978334954008460045e-04 -1.330994651652872562e-03
4.421000000000000000e+03 4.914200210571289062e+01 2.831096076965332031e+01 -3.296936862170696259e-03 -1.122988644056022167e-03 -1.325977616943418980e-03 -2.061848761513829231e-03
4.422000000000000000e+03 4.813053131103515625e+01 2.729472351074218750e+01 -4.010284785181283951e-03 -1.454459037631750107e-03 -1.639423193410038948e-03 -2.618368016555905342e-03
4.423000000000000000e+03 3.682901382446289062e+01 1.551224708557128906e+01 -4.594271257519721985e-02 -1.284830924123525620e-02 -1.763730682432651520e-02 -2.507464215159416199e-02
4.424000000000000000e+03 3.708225250244140625e+01 1.585470676422119141e+01 -3.942240774631500244e-02 -1.294075977057218552e-02 -1.570895127952098846e-02 -2.438523806631565094e-02
4.425000000000000000e+03 5.026243209838867188e+01 2.889761352539062500e+01 -2.990679349750280380e-03 -6.818640395067632198e-04 -1.101762987673282623e-03 -1.666243537329137325e-03
4.426000000000000000e+03 4.259029006958007812e+01 2.168367195129394531e+01 -1.138028688728809357e-02 -4.249849356710910797e-03 -4.689041059464216232e-03 -7.497800048440694809e-03
4.427000000000000000e+03 3.797068023681640625e+01 1.721701049804687500e+01 -2.734346501529216766e-02 -1.246959343552589417e-02 -1.194391772150993347e-02 -1.948201097548007965e-02
4.428000000000000000e+03 4.398541641235351562e+01 2.299405097961425781e+01 -9.409403428435325623e-03 -3.460868960246443748e-03 -3.861081786453723907e-03 -5.844025406986474991e-03
4.429000000000000000e+03 4.941600799560546875e+01 2.859547996520996094e+01 -3.118907334282994270e-03 -1.058764290064573288e-03 -1.253301510587334633e-03 -1.911112456582486629e-03
4.430000000000000000e+03 3.204067993164062500e+01 1.067995548248291016e+01 -3.148225843906402588e-01 3.065645694732666016e-02 -8.524984121322631836e-02 -3.974679857492446899e-02
4.431000000000000000e+03 4.754100418090820312e+01 2.670459365844726562e+01 -4.513962194323539734e-03 -1.644318574108183384e-03 -1.847484265454113483e-03 -2.982296049594879150e-03
4.432000000000000000e+03 3.820321655273437500e+01 1.753912544250488281e+01 -2.621116489171981812e-02 -1.235798001289367676e-02 -1.157074328511953354e-02 -1.795156486332416534e-02
4.433000000000000000e+03 4.891125106811523438e+01 2.745122146606445312e+01 -4.090927541255950928e-03 -1.012571156024932861e-03 -1.531049492768943310e-03 -2.297672908753156662e-03
4.434000000000000000e+03 5.139293670654296875e+01 2.997017288208007812e+01 -2.328776055946946144e-03 -4.192200140096247196e-04 -8.243988268077373505e-04 -1.243836944922804832e-03
4.435000000000000000e+03 4.971371459960937500e+01 2.835511398315429688e+01 -3.360047703608870506e-03 -8.240559836849570274e-04 -1.255231094546616077e-03 -1.896539703011512756e-03
4.436000000000000000e+03 4.452019119262695312e+01 2.346944808959960938e+01 -8.710031397640705109e-03 -3.117119194939732552e-03 -3.548145294189453125e-03 -5.274483468383550644e-03
4.437000000000000000e+03 4.919667053222656250e+01 2.774745750427246094e+01 -3.828983986750245094e-03 -9.208475821651518345e-04 -1.424949499778449535e-03 -2.156146569177508354e-03
4.438000000000000000e+03 4.944782638549804688e+01 2.806796455383300781e+01 -3.596093971282243729e-03 -8.979311096481978893e-04 -1.348207471892237663e-03 -2.002603840082883835e-03
4.439000000000000000e+03 3.359131240844726562e+01 1.251768493652343750e+01 -1.382754594087600708e-01 -2.308449149131774902e-02 -4.840798303484916687e-02 -6.037800386548042297e-02
4.440000000000000000e+03 4.644038772583007812e+01 2.558052444458007812e+01 -5.691655911505222321e-03 -2.052698750048875809e-03 -2.323306398466229439e-03 -3.799127181991934776e-03
4.441000000000000000e+03 4.176242446899414062e+01 2.110528373718261719e+01 -1.244895160198211670e-02 -5.310948006808757782e-03 -5.327969789505004883e-03 -8.467427454888820648e-03
4.442000000000000000e+03 3.808905029296875000e+01 1.668232917785644531e+01 -3.174115717411041260e-02 -9.528771974146366119e-03 -1.238097902387380600e-02 -1.912245899438858032e-02
4.443000000000000000e+03 4.427861022949218750e+01 2.322390174865722656e+01 -8.944034576416015625e-03 -3.114959457889199257e-03 -3.617698093876242638e-03 -5.639624781906604767e-03
4.444000000000000000e+03 4.201542282104492188e+01 2.127425003051757812e+01 -1.190101820975542068e-02 -4.915943834930658340e-03 -5.045088473707437515e-03 -8.211935870349407196e-03
4.445000000000000000e+03 3.304059982299804688e+01 1.077947044372558594e+01 -2.107254564762115479e-01 4.015747085213661194e-02 -5.117039754986763000e-02 4.680646234191954136e-04
4.446000000000000000e+03 4.561233520507812500e+01 2.426345634460449219e+01 -7.618959061801433563e-03 -2.199129899963736534e-03 -2.945426618680357933e-03 -4.480805713683366776e-03
4.447000000000000000e+03 4.474676132202148438e+01 2.365662574768066406e+01 -8.317516185343265533e-03 -2.856285078451037407e-03 -3.352140309289097786e-03 -5.152606870979070663e-03
4.448000000000000000e+03 4.503571701049804688e+01 2.374878692626953125e+01 -8.299720473587512970e-03 -2.654256066307425499e-03 -3.286192892119288445e-03 -4.848544951528310776e-03
4.449000000000000000e+03 3.189294815063476562e+01 9.580615043640136719e+00 -2.865421175956726074e-01 7.682886719703674316e-02 -6.291397660970687866e-02 8.453439176082611084e-02
4.450000000000000000e+03 4.015870285034179688e+01 1.983930397033691406e+01 -1.469339057803153992e-02 -7.538805715739727020e-03 -6.669659167528152466e-03 -1.132816821336746216e-02
4.451000000000000000e+03 5.303242111206054688e+01 3.179390525817871094e+01 -1.392869511619210243e-03 -1.291478984057903290e-04 -4.566051939036697149e-04 -6.986304651945829391e-04
4.452000000000000000e+03 5.195844650268554688e+01 3.048866081237792969e+01 -2.046816283836960793e-03 -2.978940901812165976e-04 -7.034131558611989021e-04 -1.055895816534757614e-03
4.453000000000000000e+03 5.195631790161132812e+01 2.995892524719238281e+01 -2.426664810627698898e-03 -2.163527678931131959e-04 -7.929052808322012424e-04 -1.146525959484279156e-03
4.454000000000000000e+03 4.078836059570312500e+01 2.025613975524902344e+01 -1.377901248633861542e-02 -6.524802185595035553e-03 -6.091144401580095291e-03 -1.017236430197954178e-02
4.455000000000000000e+03 3.227415466308593750e+01 1.102291679382324219e+01 -2.819032073020935059e-01 9.961043484508991241e-03 -8.158264309167861938e-02 -6.053381785750389099e-02
4.456000000000000000e+03 2.878939437866210938e+01 4.479206085205078125e+00 5.828003957867622375e-02 1.635995358228683472e-01 6.656387448310852051e-02 3.557575494050979614e-02
4.457000000000000000e+03 2.858632278442382812e+01 4.303746700286865234e+00 5.863598734140396118e-02 1.306302845478057861e-01 5.677988380193710327e-02 4.167798161506652832e-02
4.458000000000000000e+03 4.797536468505859375e+01 2.700689697265625000e+01 -4.334326367825269699e-03 -1.463692751713097095e-03 -1.739405794069170952e-03 -2.759936731308698654e-03
4.459000000000000000e+03 3.034785652160644531e+01 5.496279239654541016e+00 2.386073470115661621e-01 2.349959313869476318e-01 1.420809924602508545e-01 -1.764968037605285645e-01
4.460000000000000000e+03 3.032155990600585938e+01 5.130624294281005859e+00 1.586156189441680908e-01 2.251865416765213013e-01 1.151406466960906982e-01 -1.257342845201492310e-01
4.461000000000000000e+03 2.226919937133789062e+01 5.831353738903999329e-02 1.333625521510839462e-02 -2.304736711084842682e-02 -2.913333475589752197e-03 3.418785333633422852e-02
4.462000000000000000e+03 3.317426681518554688e+01 1.186042594909667969e+01 -1.757530719041824341e-01 -4.514284431934356689e-03 -5.408020690083503723e-02 -6.051435321569442749e-02
4.463000000000000000e+03 5.375976943969726562e+01 3.167012214660644531e+01 -1.593079068697988987e-03 9.134200809057801962e-06 -4.751834785565733910e-04 -6.701074889861047268e-04
4.464000000000000000e+03 3.391496658325195312e+01 1.270998764038085938e+01 -1.195132508873939514e-01 -1.602215878665447235e-02 -4.066062346100807190e-02 -5.584001541137695312e-02
4.465000000000000000e+03 1.099218463897705078e+01 -6.010703086853027344e+00 6.914650555700063705e-03 2.141726436093449593e-03 2.716913120821118355e-03 5.519570782780647278e-03
4.466000000000000000e+03 1.101655197143554688e+01 -5.231113910675048828e+00 7.016953080892562866e-03 1.926323981024324894e-03 2.682983176782727242e-03 4.680944606661796570e-03
4.467000000000000000e+03 3.173670387268066406e+01 7.139601707458496094e+00 3.445028066635131836e-01 -5.452994257211685181e-02 8.699186146259307861e-02 7.769986242055892944e-02
4.468000000000000000e+03 3.016993904113769531e+01 4.871447563171386719e+00 1.192181333899497986e-01 2.289454638957977295e-01 1.044490784406661987e-01 -1.026754826307296753e-01
4.469000000000000000e+03 3.082698631286621094e+01 5.346978187561035156e+00 2.516000866889953613e-01 1.416899859905242920e-01 1.179870143532752991e-01 -1.515628099441528320e-01
4.470000000000000000e+03 2.678488349914550781e+01 -1.979950785636901855e+00 -1.936255022883415222e-02 7.360965944826602936e-03 -3.600475145503878593e-03 1.111978851258754730e-02
4.471000000000000000e+03 2.492678833007812500e+01 -1.090711712837219238e+00 -1.186776626855134964e-02 -1.430988498032093048e-02 -7.853295654058456421e-03 1.525974459946155548e-02
4.472000000000000000e+03 2.546931076049804688e+01 -1.560807466506958008e+00 -1.622385904192924500e-02 -6.636865437030792236e-03 -6.858217529952526093e-03 1.868464797735214233e-02
4.473000000000000000e+03 2.928266143798828125e+01 -3.226936101913452148e+00 -2.017514780163764954e-02 3.119038604199886322e-02 3.304571146145462990e-03 -1.095140469260513783e-03
4.474000000000000000e+03 7.454554748535156250e+01 2.912554359436035156e+01 -3.421262081246823072e-04 -2.612852840684354305e-04 -1.810234534787014127e-04 3.733018529601395130e-04
4.475000000000000000e+03 5.984943771362304688e+01 3.012392425537109375e+01 -2.314906800165772438e-03 3.811439964920282364e-04 -5.801288643851876259e-04 1.031620995490811765e-04
4.476000000000000000e+03 7.305480957031250000e+01 2.916108131408691406e+01 -5.273749702610075474e-04 -2.513815998099744320e-04 -2.336269681109115481e-04 5.149924545548856258e-04
4.477000000000000000e+03 7.159806060791015625e+01 2.992090797424316406e+01 -6.666554836556315422e-04 -1.625059958314523101e-04 -2.487484598532319069e-04 5.248055676929652691e-04
4.478000000000000000e+03 7.000696563720703125e+01 2.922398567199707031e+01 -9.618414915166795254e-04 -1.582028635311871767e-04 -3.360132977832108736e-04 7.296181283891201019e-04
4.479000000000000000e+03 7.310687255859375000e+01 2.990534973144531250e+01 -4.712938389275223017e-04 -1.905552198877558112e-04 -1.985547132790088654e-04 4.146457940805703402e-04
4.480000000000000000e+03 7.230772399902343750e+01 2.917125701904296875e+01 -6.221271469257771969e-04 -2.358758792979642749e-04 -2.574009122326970100e-04 5.746535025537014008e-04
4.481000000000000000e+03 6.538938903808593750e+01 3.018282699584960938e+01 -1.589474850334227085e-03 5.015019632992334664e-05 -4.617974045686423779e-04 6.037291605025529861e-04
4.482000000000000000e+03 6.375983428955078125e+01 2.963584136962890625e+01 -1.926288590766489506e-03 1.740315055940300226e-04 -5.256771109998226166e-04 5.958573892712593079e-04
4.483000000000000000e+03 7.380346679687500000e+01 2.914657592773437500e+01 -4.279616114217787981e-04 -2.656268479768186808e-04 -2.080765407299622893e-04 4.455028392840176821e-04
4.484000000000000000e+03 7.078347778320312500e+01 2.919900321960449219e+01 -8.405687985941767693e-04 -1.880633935797959566e-04 -3.085896605625748634e-04 6.827323813922703266e-04
4.485000000000000000e+03 1.178724002838134766e+01 -5.340856552124023438e+00 8.213538676500320435e-03 1.867904211394488811e-03 3.024433040991425514e-03 5.663799121975898743e-03
4.486000000000000000e+03 7.290798187255859375e+00 -4.232389450073242188e+00 2.383874030783772469e-03 7.525728433392941952e-04 9.409340564161539078e-04 1.245582243427634239e-03
4.487000000000000000e+03 8.092326164245605469e+00 -5.018402099609375000e+00 3.456712001934647560e-03 1.121278270147740841e-03 1.373397069983184338e-03 2.222483279183506966e-03
4.488000000000000000e+03 6.844928741455078125e+01 2.929378700256347656e+01 -1.206772285513579845e-03 -8.698261081008240581e-05 -3.881264710798859596e-04 7.772789103910326958e-04
4.489000000000000000e+03 5.907168960571289062e+01 3.026021003723144531e+01 -2.346494002267718315e-03 4.023539950139820576e-04 -5.832419847138226032e-04 -1.305106070503825322e-05
4.490000000000000000e+03 6.772347259521484375e+01 3.003710556030273438e+01 -1.243880251422524452e-03 -4.545088813756592572e-05 -3.867993655148893595e-04 6.670214352197945118e-04
4.491000000000000000e+03 6.460880279541015625e+01 3.024280166625976562e+01 -1.698252977803349495e-03 8.420221274718642235e-05 -4.842152120545506477e-04 5.602944875136017799e-04
4.492000000000000000e+03 6.532753753662109375e+01 2.949787712097167969e+01 -1.698109437711536884e-03 8.050851465668529272e-05 -4.852802958339452744e-04 7.117767236195504665e-04
4.493000000000000000e+03 7.155339050292968750e+01 2.918281173706054688e+01 -7.319363066926598549e-04 -2.133131201844662428e-04 -2.835748309735208750e-04 6.355309742502868176e-04
4.494000000000000000e+03 6.610862731933593750e+01 2.943759346008300781e+01 -1.576955080963671207e-03 3.736256621778011322e-05 -4.618777311407029629e-04 7.456830353476107121e-04
4.495000000000000000e+03 6.297480010986328125e+01 2.971587562561035156e+01 -2.027076669037342072e-03 2.215657877968624234e-04 -5.416532512754201889e-04 5.156652186997234821e-04
4.496000000000000000e+03 5.743909454345703125e+01 2.996707153320312500e+01 -2.575933001935482025e-03 4.960683872923254967e-04 -6.239594076760113239e-04 -2.384384424658492208e-04
4.497000000000000000e+03 5.614045333862304688e+01 3.149566841125488281e+01 -1.904637552797794342e-03 2.588841307442635298e-04 -4.937259946018457413e-04 -4.313038079999387264e-04
4.498000000000000000e+03 5.677735900878906250e+01 3.073858451843261719e+01 -2.269531367346644402e-03 3.796434320975095034e-04 -5.669663660228252411e-04 -3.657900670077651739e-04
4.499000000000000000e+03 6.062876892089843750e+01 3.000357818603515625e+01 -2.270122058689594269e-03 3.488589136395603418e-04 -5.763788940384984016e-04 2.205965865869075060e-04
4.500000000000000000e+03 6.766741180419921875e+01 2.933604621887207031e+01 -1.330597326159477234e-03 -4.622872074833139777e-05 -4.130478191655129194e-04 7.776805432513356209e-04
4.501000000000000000e+03 5.753211212158203125e+01 3.057403755187988281e+01 -2.323694759979844093e-03 4.027880204375833273e-04 -5.762719665654003620e-04 -2.505973679944872856e-04
4.502000000000000000e+03 5.890258312225341797e+00 -5.108530998229980469e+00 1.872788416221737862e-03 7.806897629052400589e-04 7.960434304550290108e-04 1.209586393088102341e-03
4.503000000000000000e+03 5.136776447296142578e+00 -5.072793006896972656e+00 1.499069272540509701e-03 8.600624278187751770e-04 7.077394984662532806e-04 1.025202334858477116e-03
4.504000000000000000e+03 6.636957168579101562e+00 -5.041143417358398438e+00 2.246561925858259201e-03 1.107053831219673157e-03 1.006084727123379707e-03 1.556357485242187977e-03
4.505000000000000000e+03 7.369298458099365234e+00 -5.012218475341796875e+00 2.967381151393055916e-03 8.551885839551687241e-04 1.146770897321403027e-03 1.934070256538689137e-03
4.506000000000000000e+03 5.480945587158203125e+01 3.177388763427734375e+01 -1.656030886806547642e-03 1.301979937124997377e-04 -4.577498766593635082e-04 -5.609259824268519878e-04
4.507000000000000000e+03 5.421656036376953125e+01 3.185113334655761719e+01 -1.537796924822032452e-03 5.672442784998565912e-05 -4.443217476364225149e-04 -5.982749280519783497e-04
4.508000000000000000e+03 8.817511558532714844e+00 -5.030719757080078125e+00 4.232551902532577515e-03 8.865803829394280910e-04 1.535739749670028687e-03 2.673661569133400917e-03
4.509000000000000000e+03 5.604992294311523438e+01 3.089956092834472656e+01 -2.193198772147297859e-03 3.296019858680665493e-04 -5.590790533460676670e-04 -4.680104029830545187e-04
4.510000000000000000e+03 5.294997024536132812e+01 3.115532493591308594e+01 -1.782221137546002865e-03 -1.002406570478342474e-04 -5.647385260090231895e-04 -8.159507415257394314e-04
4.511000000000000000e+03 5.475290679931640625e+01 3.122034454345703125e+01 -1.983105204999446869e-03 1.924528187373653054e-04 -5.371957086026668549e-04 -6.188738043420016766e-04
4.512000000000000000e+03 1.765756034851074219e+01 -2.960885524749755859e+00 2.720049209892749786e-02 3.160247206687927246e-02 1.764088869094848633e-02 2.294889651238918304e-02
4.513000000000000000e+03 1.696080207824707031e+01 -3.460087060928344727e+00 2.241750247776508331e-02 1.896251738071441650e-02 1.241400651633739471e-02 1.750434376299381256e-02
4.514000000000000000e+03 3.150426864624023438e+01 9.016481399536132812e+00 -2.206618040800094604e-01 1.074786633253097534e-01 -3.395494073629379272e-02 1.878721266984939575e-01
4.515000000000000000e+03 3.212802124023437500e+01 7.997148513793945312e+00 1.007459536194801331e-01 1.608611084520816803e-03 3.070636838674545288e-02 1.980746388435363770e-01
4.516000000000000000e+03 1.258474731445312500e+01 -5.453714370727539062e+00 9.589688852429389954e-03 3.613169770687818527e-03 3.960857633501291275e-03 7.222328800708055496e-03
4.517000000000000000e+03 1.340523338317871094e+01 -5.556029319763183594e+00 1.071270741522312164e-02 4.493025597184896469e-03 4.561719950288534164e-03 8.953071199357509613e-03
4.518000000000000000e+03 1.579925537109375000e+01 -6.674215316772460938e+00 7.140604313462972641e-03 1.665708050131797791e-02 7.139305584132671356e-03 1.291022635996341705e-02
4.519000000000000000e+03 1.424039649963378906e+01 -4.763515949249267578e+00 1.322045642882585526e-02 4.875903017818927765e-03 5.428907927125692368e-03 9.640685282647609711e-03
4.520000000000000000e+03 2.096168518066406250e+01 -2.012905502319335938e+01 -2.821414731442928314e-03 2.688689855858683586e-03 -3.981746340286917984e-05 2.886549569666385651e-03
4.521000000000000000e+03 2.068457603454589844e+01 -1.736841011047363281e+01 -2.423953264951705933e-03 4.333719145506620407e-03 5.729297408834099770e-04 2.515397500246763229e-03
4.522000000000000000e+03 3.484336853027343750e+01 -8.450080871582031250e+00 -7.563131861388683319e-03 2.874480001628398895e-02 6.354500539600849152e-03 -1.007298287004232407e-02
4.523000000000000000e+03 1.599068927764892578e+01 -5.745556831359863281e+00 1.208676863461732864e-02 1.905348338186740875e-02 9.342075325548648834e-03 1.559738162904977798e-02
4.524000000000000000e+03 1.509780216217041016e+01 -4.795038700103759766e+00 1.518774777650833130e-02 9.150709025561809540e-03 7.301537320017814636e-03 1.214559935033321381e-02
4.525000000000000000e+03 9.543526649475097656e+00 -5.070682048797607422e+00 5.003925878554582596e-03 1.338030444458127022e-03 1.902586896903812885e-03 3.202351508662104607e-03
4.526000000000000000e+03 3.602048492431640625e+01 -1.258645725250244141e+01 -4.899420891888439655e-04 2.435439825057983398e-02 7.159336935728788376e-03 -8.932069875299930573e-03
4.527000000000000000e+03 3.642804336547851562e+01 -9.701969146728515625e+00 -4.209528211504220963e-03 2.758449874818325043e-02 7.012491114437580109e-03 -1.102558337152004242e-02
4.528000000000000000e+03 1.952167701721191406e+01 -1.517744350433349609e+01 -2.616217127069830894e-03 7.660059724003076553e-03 1.513152732513844967e-03 2.644815715029835701e-03
4.529000000000000000e+03 2.025859451293945312e+01 -1.914595222473144531e+01 -2.733062952756881714e-03 4.153841175138950348e-03 4.262335132807493210e-04 3.082437906414270401e-03
4.530000000000000000e+03 1.643500137329101562e+01 -6.914515495300292969e+00 5.596827715635299683e-03 2.128263562917709351e-02 8.063838817179203033e-03 1.264779362827539444e-02
4.531000000000000000e+03 4.585498046875000000e+01 -2.547608566284179688e+01 3.755931975319981575e-03 3.397993743419647217e-02 1.132076047360897064e-02 -9.246367961168289185e-03
4.532000000000000000e+03 4.483279800415039062e+01 -2.520704078674316406e+01 3.702192334458231926e-03 3.364918380975723267e-02 1.120541337877511978e-02 -9.611173532903194427e-03
4.533000000000000000e+03 3.151902389526367188e+01 -6.511455059051513672e+00 -1.804067939519882202e-02 2.667921222746372223e-02 2.591559896245598793e-03 -3.955994267016649246e-03
4.534000000000000000e+03 4.450905609130859375e+01 -2.392809104919433594e+01 4.001640714704990387e-03 3.180932998657226562e-02 1.074329111725091934e-02 -1.020615175366401672e-02
4.535000000000000000e+03 2.150762176513671875e+01 -2.101585578918457031e+01 -2.544253831729292870e-03 1.909264596179127693e-03 -1.904967793961986899e-04 3.152406308799982071e-03
4.536000000000000000e+03 3.662771987915039062e+01 -1.376600837707519531e+01 3.978876629844307899e-04 2.442757226526737213e-02 7.447637617588043213e-03 -9.455463849008083344e-03
4.537000000000000000e+03 7.556261444091796875e+01 -2.749299621582031250e+01 3.093897539656609297e-04 -2.060400880873203278e-02 -6.088385824114084244e-03 9.539764723740518093e-04
4.538000000000000000e+03 7.285599517822265625e+01 -3.039898109436035156e+01 5.723772919736802578e-04 -1.583005487918853760e-02 -4.577303305268287659e-03 9.911603992804884911e-04
4.539000000000000000e+03 3.929883193969726562e+01 -1.810516929626464844e+01 3.719620406627655029e-03 2.615693770349025726e-02 8.962967433035373688e-03 -1.127160619944334030e-02
4.540000000000000000e+03 3.896316146850585938e+01 -1.527375507354736328e+01 2.022496657446026802e-03 2.535290829837322235e-02 8.212621323764324188e-03 -9.990295395255088806e-03
4.541000000000000000e+03 7.567005157470703125e+01 -2.041237068176269531e+01 1.473619195166975260e-04 -1.918553560972213745e-02 -5.711452104151248932e-03 1.535666757263243198e-03
4.542000000000000000e+03 7.438009643554687500e+01 -2.161533737182617188e+01 2.809819998219609261e-04 -1.720976829528808594e-02 -5.078635644167661667e-03 1.740234438329935074e-03
4.543000000000000000e+03 7.537341308593750000e+01 -2.467425155639648438e+01 2.465631405357271433e-04 -1.980137266218662262e-02 -5.866443272680044174e-03 1.256000716239213943e-03
4.544000000000000000e+03 7.458384704589843750e+01 -1.764450836181640625e+01 2.677729062270373106e-04 -1.664398238062858582e-02 -4.912863019853830338e-03 2.054217038676142693e-03
4.545000000000000000e+03 7.574319458007812500e+01 -1.367366600036621094e+01 1.605761790415272117e-04 -1.715582981705665588e-02 -5.098576191812753677e-03 1.954366685822606087e-03
4.546000000000000000e+03 7.460088348388671875e+01 -1.502610111236572266e+01 2.427144499961286783e-04 -1.591138541698455811e-02 -4.700601100921630859e-03 2.238232176750898361e-03
4.547000000000000000e+03 7.465191650390625000e+01 1.736459159851074219e+01 -4.597579245455563068e-04 -2.568805124610662460e-03 -9.085689089260995388e-04 2.076298464089632034e-03
4.548000000000000000e+03 4.137469100952148438e+01 -2.134835243225097656e+01 4.697404336184263229e-03 2.870725840330123901e-02 1.002139877527952194e-02 -1.206845417618751526e-02
4.549000000000000000e+03 7.543697357177734375e+01 -6.580472946166992188e+00 1.192225827253423631e-04 -1.390994340181350708e-02 -4.137216135859489441e-03 2.491836668923497200e-03
4.550000000000000000e+03 7.418092346191406250e+01 -8.145341873168945312e+00 2.375330077484250069e-04 -1.306165754795074463e-02 -3.847237210720777512e-03 2.905624918639659882e-03
4.551000000000000000e+03 7.546622467041015625e+01 -5.088081836700439453e+00 1.586590660735964775e-04 -1.331170648336410522e-02 -3.945914097130298615e-03 2.575635211542248726e-03
4.552000000000000000e+03 7.452269744873046875e+01 1.043194770812988281e+01 -2.790421422105282545e-04 -5.183469038456678391e-03 -1.638753339648246765e-03 3.007658291608095169e-03
4.553000000000000000e+03 7.576033020019531250e+01 6.111387014389038086e-01 6.567626405740156770e-05 -1.071310602128505707e-02 -3.194228978827595711e-03 2.684092614799737930e-03
4.554000000000000000e+03 7.457457733154296875e+01 -5.709431171417236328e-01 1.319958537351340055e-04 -1.034686528146266937e-02 -3.064461052417755127e-03 3.220427781343460083e-03
4.555000000000000000e+03 7.574337768554687500e+01 1.989790201187133789e+00 1.270630218641599640e-05 -9.988556616008281708e-03 -2.992755267769098282e-03 2.718656556680798531e-03
4.556000000000000000e+03 7.582628631591796875e+01 1.444670677185058594e+01 -2.482662966940551996e-04 -3.835584968328475952e-03 -1.225155428983271122e-03 2.051504561677575111e-03
4.557000000000000000e+03 7.576130676269531250e+01 7.508058547973632812e+00 -1.099973014788702130e-04 -7.093793246895074844e-03 -2.161137294024229050e-03 2.648692345246672630e-03
4.558000000000000000e+03 7.452060699462890625e+01 6.277999401092529297e+00 -1.115252598538063467e-04 -7.100373506546020508e-03 -2.163569675758481026e-03 3.315315116196870804e-03
4.559000000000000000e+03 7.460029602050781250e+01 1.319126892089843750e+01 -3.583948418963700533e-04 -4.075536504387855530e-03 -1.330179278738796711e-03 2.703646197915077209e-03
4.560000000000000000e+03 7.308781433105468750e+01 5.113669872283935547e+00 -1.015344168990850449e-04 -6.804986391216516495e-03 -2.071956172585487366e-03 3.972572274506092072e-03
4.561000000000000000e+03 7.329854583740234375e+01 -1.658062696456909180e+00 2.306851383764296770e-04 -9.749472141265869141e-03 -2.855636179447174072e-03 3.686196869239211082e-03
4.562000000000000000e+03 7.287250518798828125e+01 -8.391285896301269531e+00 3.562004421837627888e-04 -1.167270168662071228e-02 -3.394950414076447487e-03 3.294751280918717384e-03
4.563000000000000000e+03 7.611284637451171875e+01 2.135692024230957031e+01 -2.699716715142130852e-04 -1.532848225906491280e-03 -5.408459692262113094e-04 1.104782684706151485e-03
4.564000000000000000e+03 7.485018157958984375e+01 2.014630889892578125e+01 -4.538074135780334473e-04 -1.797000877559185028e-03 -6.752425106242299080e-04 1.611121231690049171e-03
4.565000000000000000e+03 7.445860290527343750e+01 3.536216735839843750e+00 -2.233204577350988984e-05 -8.349043317139148712e-03 -2.511412603780627251e-03 3.358062123879790306e-03
4.566000000000000000e+03 7.458007812500000000e+01 7.899330258369445801e-01 6.355633377097547054e-05 -9.721461683511734009e-03 -2.897371537983417511e-03 3.278310643509030342e-03
4.567000000000000000e+03 7.429563903808593750e+01 -3.371837139129638672e+00 2.104949671775102615e-04 -1.129296515136957169e-02 -3.324741031974554062e-03 3.192975651472806931e-03
4.568000000000000000e+03 7.396159362792968750e+01 -6.548967838287353516e+00 2.746768004726618528e-04 -1.218124292790889740e-02 -3.571969689801335335e-03 3.122945083305239677e-03
4.569000000000000000e+03 7.456680297851562500e+01 9.040762901306152344e+00 -2.390569716226309538e-04 -5.808319896459579468e-03 -1.814212999306619167e-03 3.131595673039555550e-03
4.570000000000000000e+03 7.433550262451171875e+01 -9.616909027099609375e+00 2.510609338060021400e-04 -1.380418613553047180e-02 -4.065937362611293793e-03 2.739991061389446259e-03
4.571000000000000000e+03 7.443523406982421875e+01 -1.102410984039306641e+01 1.978303334908559918e-04 -1.440298184752464294e-02 -4.261545371264219284e-03 2.574902493506669998e-03
4.572000000000000000e+03 7.456846618652343750e+01 -1.370791625976562500e+01 1.972063473658636212e-04 -1.546197198331356049e-02 -4.579429514706134796e-03 2.336624776944518089e-03
4.573000000000000000e+03 7.452193450927734375e+01 -2.027253723144531250e+01 3.098756133113056421e-04 -1.722899265587329865e-02 -5.075735040009021759e-03 1.828193897381424904e-03
4.574000000000000000e+03 7.455401611328125000e+01 -1.896210670471191406e+01 1.916478213388472795e-04 -1.698976196348667145e-02 -5.039434414356946945e-03 1.936845947057008743e-03
4.575000000000000000e+03 7.466182708740234375e+01 1.597027111053466797e+01 -4.334393306635320187e-04 -3.031119005754590034e-03 -1.039367518387734890e-03 2.291625598445534706e-03
4.576000000000000000e+03 7.296362304687500000e+01 -3.299317550659179688e+01 5.006843712180852890e-04 -1.618777960538864136e-02 -4.706128500401973724e-03 6.002204027026891708e-04
4.577000000000000000e+03 7.499918365478515625e+01 2.151692581176757812e+01 -4.197972593829035759e-04 -1.456921920180320740e-03 -5.630157538689672947e-04 1.343612326309084892e-03
4.578000000000000000e+03 4.274943542480468750e+01 -2.354192924499511719e+01 4.870899487286806107e-03 3.143115341663360596e-02 1.089061610400676727e-02 -1.246414240449666977e-02
4.579000000000000000e+03 7.461011505126953125e+01 -2.804783058166503906e+01 2.837153733707964420e-04 -1.893919147551059723e-02 -5.596642848104238510e-03 1.092970487661659718e-03
4.580000000000000000e+03 7.396806335449218750e+01 -2.459556388854980469e+01 3.228924178984016180e-04 -1.722308620810508728e-02 -5.070058163255453110e-03 1.602935953997075558e-03
4.581000000000000000e+03 7.375420379638671875e+01 -2.721399116516113281e+01 3.498698933981359005e-04 -1.726550236344337463e-02 -5.074689630419015884e-03 1.344378571957349777e-03
4.582000000000000000e+03 7.528692626953125000e+01 2.416957092285156250e+01 -3.586667298804968596e-04 -9.237612830474972725e-04 -3.847283951472491026e-04 9.052128298208117485e-04
4.583000000000000000e+03 5.962638854980468750e+00 -2.863456916809082031e+01 -5.631347885355353355e-04 1.324337255209684372e-02 3.804071340709924698e-03 2.640258753672242165e-03
4.584000000000000000e+03 7.549752044677734375e+01 2.758428001403808594e+01 -2.865265996661037207e-04 -4.266639880370348692e-04 -2.139571734005585313e-04 4.555039922706782818e-04
4.585000000000000000e+03 7.478827667236328125e+01 2.715140533447265625e+01 -3.887607017531991005e-04 -4.786005301866680384e-04 -2.602083550300449133e-04 5.905649159103631973e-04
4.586000000000000000e+03 3.828049850463867188e+01 -1.429159832000732422e+01 7.676200475543737411e-04 2.525188773870468140e-02 7.805852685123682022e-03 -9.885395877063274384e-03
4.587000000000000000e+03 5.082153320312500000e+00 -1.094696521759033203e+01 1.022813958115875721e-03 4.142120480537414551e-03 1.549480250105261803e-03 3.826792584732174873e-03
4.588000000000000000e+03 5.020426750183105469e+00 -9.851447105407714844e+00 1.295525580644607544e-03 3.486536443233489990e-03 1.434618607163429260e-03 3.402520902454853058e-03
4.589000000000000000e+03 5.706857204437255859e+00 -2.139449310302734375e+01 -7.240316481329500675e-04 1.065496634691953659e-02 2.979280427098274231e-03 4.041793290525674820e-03
4.590000000000000000e+03 5.492844104766845703e+00 -1.767337036132812500e+01 -2.310052223037928343e-04 8.830883540213108063e-03 2.579963533207774162e-03 4.552577622234821320e-03
4.591000000000000000e+03 7.630493927001953125e+01 2.803528976440429688e+01 -1.909081183839589357e-04 -3.404575691092759371e-04 -1.594097120687365532e-04 3.110281541012227535e-04
4.592000000000000000e+03 5.530615806579589844e+00 -2.015963745117187500e+01 -4.955892218276858330e-04 1.019930560141801834e-02 2.911115065217018127e-03 4.127548076212406158e-03
4.593000000000000000e+03 5.544178009033203125e+00 -2.574658393859863281e+01 -6.707361317239701748e-04 1.259138807654380798e-02 3.576195565983653069e-03 3.014369634911417961e-03
4.594000000000000000e+03 5.224494457244873047e+00 -1.213666534423828125e+01 8.696900913491845131e-04 5.184802692383527756e-03 1.816347823478281498e-03 4.377691540867090225e-03
4.595000000000000000e+03 6.769969463348388672e+00 -2.694532775878906250e+01 -8.733475115150213242e-04 1.235405914485454559e-02 3.444213652983307838e-03 3.207545028999447823e-03
4.596000000000000000e+03 9.175188064575195312e+00 -3.132542991638183594e+01 -1.603148295544087887e-03 1.131687499582767487e-02 2.914118114858865738e-03 2.716651652008295059e-03
4.597000000000000000e+03 7.807898521423339844e+00 -3.389851379394531250e+01 -9.392849751748144627e-04 1.285446714609861374e-02 3.574554575607180595e-03 1.905674231238663197e-03
4.598000000000000000e+03 5.730740070343017578e+00 -1.484297180175781250e+01 2.337823534617200494e-04 7.205486763268709183e-03 2.231780672445893288e-03 4.965203814208507538e-03
4.599000000000000000e+03 5.424893379211425781e+00 -1.892847633361816406e+01 -6.380726699717342854e-04 9.529090486466884613e-03 2.667305292561650276e-03 4.378193989396095276e-03
4.600000000000000000e+03 7.601791858673095703e+00 -2.541300582885742188e+01 -1.141373417340219021e-03 1.126822177320718765e-02 3.038054332137107849e-03 3.836298594251275063e-03
4.601000000000000000e+03 4.691444873809814453e+00 -6.789495468139648438e+00 1.597266877070069313e-03 1.514771836809813976e-03 9.336116490885615349e-04 1.796829979866743088e-03
4.602000000000000000e+03 4.043687343597412109e+00 -8.672841072082519531e+00 1.136696315370500088e-03 2.401048550382256508e-03 1.061323448084294796e-03 2.326543675735592842e-03
4.603000000000000000e+03 4.207075119018554688e+01 -2.243809890747070312e+01 4.377616569399833679e-03 2.999071776866912842e-02 1.031049992889165878e-02 -1.229090616106987000e-02
4.604000000000000000e+03 5.207757949829101562e+00 -8.125287055969238281e+00 1.853021094575524330e-03 2.318460261449217796e-03 1.251444453373551369e-03 2.755402820184826851e-03
4.605000000000000000e+03 6.516805171966552734e+00 -8.309309005737304688e+00 2.525450894609093666e-03 2.927275607362389565e-03 1.635817927308380604e-03 3.871103283017873764e-03
4.606000000000000000e+03 4.166556549072265625e+01 -1.944962310791015625e+01 3.583483863621950150e-03 2.727733924984931946e-02 9.258246980607509613e-03 -1.063464768230915070e-02
4.607000000000000000e+03 3.763610458374023438e+01 -1.328804874420166016e+01 2.338342746952548623e-04 2.519599348306655884e-02 7.628948427736759186e-03 -9.674998931586742401e-03
4.608000000000000000e+03 2.181563377380371094e+01 -2.212170219421386719e+01 -2.944401465356349945e-03 1.240107580088078976e-03 -5.112881772220134735e-04 3.104388248175382614e-03
4.609000000000000000e+03 3.076520538330078125e+01 -5.661977291107177734e+00 -2.003552392125129700e-02 2.730541676282882690e-02 2.180967712774872780e-03 -2.950655529275536537e-03
4.610000000000000000e+03 1.715183639526367188e+01 -1.426854228973388672e+01 -2.770119346678256989e-03 1.058053877204656601e-02 2.343125874176621437e-03 4.928492009639739990e-03
4.611000000000000000e+03 1.626275634765625000e+01 -1.140331649780273438e+01 -1.211493741720914841e-03 1.403216272592544556e-02 3.846200881525874138e-03 7.133285049349069595e-03
4.612000000000000000e+03 3.392359161376953125e+01 -6.925400733947753906e+00 -1.019605714827775955e-02 3.195364400744438171e-02 6.527276244014501572e-03 -1.176015101373195648e-02
4.613000000000000000e+03 1.542122745513916016e+01 -1.259969139099121094e+01 -1.317557413130998611e-03 1.207273267209529877e-02 3.226552391424775124e-03 7.193557918071746826e-03
4.614000000000000000e+03 2.505059623718261719e+01 -3.535643386840820312e+01 -5.588184576481580734e-03 -9.542299085296690464e-04 -1.962724374607205391e-03 3.094936488196253777e-03
4.615000000000000000e+03 4.840323257446289062e+01 -2.862049484252929688e+01 6.225122604519128799e-03 3.291096538305282593e-02 1.174082607030868530e-02 -5.056974478065967560e-03
4.616000000000000000e+03 2.418922615051269531e+01 -3.198275947570800781e+01 -4.359970800578594208e-03 -8.886693394742906094e-04 -1.574591966345906258e-03 3.536802483722567558e-03
4.617000000000000000e+03 2.786203193664550781e+01 3.207975387573242188e+00 5.635806918144226074e-02 5.171363055706024170e-02 3.242151066660881042e-02 3.492289781570434570e-02
4.618000000000000000e+03 2.677362442016601562e+01 3.572450876235961914e+00 6.504000723361968994e-02 -1.619028626009821892e-04 1.946343109011650085e-02 2.468256466090679169e-02
4.619000000000000000e+03 2.730217742919921875e+01 2.642684221267700195e+00 5.362050607800483704e-02 2.840644866228103638e-02 2.460808679461479187e-02 2.784631401300430298e-02
4.620000000000000000e+03 2.500946235656738281e+01 2.288253307342529297e+00 5.515431240200996399e-02 -1.041775289922952652e-02 1.342096738517284393e-02 1.433796994388103485e-02
4.621000000000000000e+03 2.672191810607910156e+01 2.711613893508911133e+00 5.792650952935218811e-02 7.520493119955062866e-03 1.963410153985023499e-02 2.355554327368736267e-02
4.622000000000000000e+03 2.482636642456054688e+01 1.675817608833312988e+00 4.899158701300621033e-02 -1.187983434647321701e-02 1.113352552056312561e-02 1.401827763766050339e-02
4.623000000000000000e+03 2.411815452575683594e+01 1.527027964591979980e+00 4.746416211128234863e-02 -1.133102457970380783e-02 1.083994191139936447e-02 1.543722674250602722e-02
4.624000000000000000e+03 4.835078811645507812e+01 2.753831291198730469e+01 -3.864239202812314034e-03 -1.394574530422687531e-03 -1.577644026838243008e-03 -2.443961566314101219e-03
4.625000000000000000e+03 3.993415069580078125e+01 1.863827705383300781e+01 -1.957298256456851959e-02 -5.996465217322111130e-03 -7.670834194868803024e-03 -1.320339739322662354e-02
4.626000000000000000e+03 3.479971313476562500e+01 1.265140151977539062e+01 -1.100669875741004944e-01 -1.482604537159204483e-03 -3.346487879753112793e-02 -3.019784577190876007e-02
4.627000000000000000e+03 4.917972183227539062e+01 2.648208427429199219e+01 -5.035985726863145828e-03 -4.611327603925019503e-04 -1.649135607294738293e-03 -2.327777678146958351e-03
4.628000000000000000e+03 3.898203659057617188e+01 1.796736907958984375e+01 -2.291743457317352295e-02 -8.492243476212024689e-03 -9.422902949154376984e-03 -1.582513563334941864e-02
4.629000000000000000e+03 3.972738647460937500e+01 1.836930656433105469e+01 -2.156932838261127472e-02 -6.444785278290510178e-03 -8.404233492910861969e-03 -1.345744542777538300e-02
4.630000000000000000e+03 3.225388717651367188e+01 9.938838005065917969e+00 -2.742632627487182617e-01 5.758048593997955322e-02 -6.500483304262161255e-02 5.189966037869453430e-02
4.631000000000000000e+03 3.310802078247070312e+01 1.147699832916259766e+01 -1.994269490242004395e-01 8.546704426407814026e-03 -5.726407468318939209e-02 -4.672453925013542175e-02
4.632000000000000000e+03 4.627103042602539062e+01 2.526134490966796875e+01 -6.236401386559009552e-03 -2.103203441947698593e-03 -2.501881448552012444e-03 -3.936498425900936127e-03
4.633000000000000000e+03 2.393766403198242188e+01 1.283502697944641113e+00 4.286888241767883301e-02 -1.286163460463285446e-02 9.002174250781536102e-03 1.689944416284561157e-02
4.634000000000000000e+03 4.314284515380859375e+01 2.221695137023925781e+01 -1.054466329514980316e-02 -3.805773798376321793e-03 -4.305131267756223679e-03 -6.862516514956951141e-03
4.635000000000000000e+03 4.392152023315429688e+01 2.245934486389160156e+01 -1.034415699541568756e-02 -3.067380748689174652e-03 -4.023461136966943741e-03 -6.004143506288528442e-03
4.636000000000000000e+03 3.952027511596679688e+01 1.807869720458984375e+01 -2.248465456068515778e-02 -6.319915875792503357e-03 -8.641371503472328186e-03 -1.433776412159204483e-02
4.637000000000000000e+03 4.230482101440429688e+01 2.146110725402832031e+01 -1.193089690059423447e-02 -4.681969527155160904e-03 -4.983860068023204803e-03 -7.721378933638334274e-03
4.638000000000000000e+03 4.339722061157226562e+01 2.193672943115234375e+01 -1.126699242740869522e-02 -3.298269351944327354e-03 -4.369578789919614792e-03 -6.533924490213394165e-03
4.639000000000000000e+03 3.577717590332031250e+01 1.414079570770263672e+01 -7.097992300987243652e-02 -1.097404584288597107e-02 -2.458618953824043274e-02 -3.211925551295280457e-02
4.640000000000000000e+03 4.045700836181640625e+01 2.005754089355468750e+01 -1.371633168309926987e-02 -6.618960294872522354e-03 -6.100587546825408936e-03 -1.113087590783834457e-02
4.641000000000000000e+03 3.239468765258789062e+01 1.049162387847900391e+01 -2.590887844562530518e-01 3.518814966082572937e-02 -6.717018783092498779e-02 5.798589438199996948e-03
4.642000000000000000e+03 3.372563934326171875e+01 1.218035697937011719e+01 -1.415589600801467896e-01 -3.826116211712360382e-03 -4.361552372574806213e-02 -5.168361961841583252e-02
4.643000000000000000e+03 4.313869094848632812e+01 2.164628219604492188e+01 -1.161242090165615082e-02 -3.251368412747979164e-03 -4.459137097001075745e-03 -6.938458885997533798e-03
4.644000000000000000e+03 3.931382369995117188e+01 1.776826858520507812e+01 -2.503025904297828674e-02 -6.628425791859626770e-03 -9.497605264186859131e-03 -1.461564097553491592e-02
4.645000000000000000e+03 4.418949890136718750e+01 2.268435287475585938e+01 -9.874096140265464783e-03 -2.771790372207760811e-03 -3.793765790760517120e-03 -5.809032823890447617e-03
4.646000000000000000e+03 3.633501815795898438e+01 1.482882308959960938e+01 -5.630962550640106201e-02 -1.209062896668910980e-02 -2.052007615566253662e-02 -2.812867052853107452e-02
4.647000000000000000e+03 5.054221725463867188e+01 2.916532135009765625e+01 -2.832250436767935753e-03 -6.282127578742802143e-04 -1.038138987496495247e-03 -1.545462291687726974e-03
4.648000000000000000e+03 5.112675857543945312e+01 2.917237091064453125e+01 -2.918800571933388710e-03 -3.814601805061101913e-04 -9.900782024487853050e-04 -1.418731175363063812e-03
4.649000000000000000e+03 4.998582077026367188e+01 2.862906646728515625e+01 -3.193616401404142380e-03 -7.683612639084458351e-04 -1.188593334518373013e-03 -1.766104483976960182e-03
4.650000000000000000e+03 5.084837341308593750e+01 2.890807914733886719e+01 -3.075723070651292801e-03 -4.198990354780107737e-04 -1.048686564899981022e-03 -1.527930609881877899e-03
4.651000000000000000e+03 4.860316848754882812e+01 2.727926826477050781e+01 -4.182195290923118591e-03 -1.122948247939348221e-03 -1.591543084941804409e-03 -2.467787126079201698e-03
4.652000000000000000e+03 5.140338897705078125e+01 2.943688392639160156e+01 -2.748265629634261131e-03 -3.115121799055486917e-04 -9.179333574138581753e-04 -1.331439591012895107e-03
4.653000000000000000e+03 5.056728363037109375e+01 2.864612007141113281e+01 -3.267935942858457565e-03 -4.956005141139030457e-04 -1.129060983657836914e-03 -1.620936440303921700e-03
4.654000000000000000e+03 3.560789871215820312e+01 1.370486831665039062e+01 -7.682375609874725342e-02 -8.228081278502941132e-03 -2.551555074751377106e-02 -3.172033280134201050e-02
4.655000000000000000e+03 4.792981338500976562e+01 2.666823577880859375e+01 -4.632113501429557800e-03 -1.358700799755752087e-03 -1.797244301997125149e-03 -2.796403830870985985e-03
4.656000000000000000e+03 4.801187896728515625e+01 2.628175354003906250e+01 -5.098835565149784088e-03 -1.137673621997237206e-03 -1.870952779427170753e-03 -2.905211411416530609e-03
4.657000000000000000e+03 3.831893539428710938e+01 1.700481414794921875e+01 -3.037211485207080841e-02 -9.717687964439392090e-03 -1.202694047242403030e-02 -1.802861690521240234e-02
4.658000000000000000e+03 4.157262420654296875e+01 2.034801292419433594e+01 -1.393435522913932800e-02 -4.906279500573873520e-03 -5.652190186083316803e-03 -9.249377064406871796e-03
4.659000000000000000e+03 4.448297119140625000e+01 2.286902427673339844e+01 -9.630252607166767120e-03 -2.669799840077757835e-03 -3.690015757456421852e-03 -5.415854975581169128e-03
4.660000000000000000e+03 5.536808395385742188e+01 3.105752563476562500e+01 -2.077745739370584488e-03 2.705716178752481937e-04 -5.421522073447704315e-04 -5.492785712704062462e-04
4.661000000000000000e+03 4.953712463378906250e+01 2.755793380737304688e+01 -4.095233511179685593e-03 -7.019798504188656807e-04 -1.439163926988840103e-03 -2.091332571581006050e-03
4.662000000000000000e+03 3.766487503051757812e+01 1.603335571289062500e+01 -3.722063079476356506e-02 -9.702306240797042847e-03 -1.407688111066818237e-02 -2.079043723642826080e-02
4.663000000000000000e+03 3.854313278198242188e+01 1.732534980773925781e+01 -2.703142538666725159e-02 -9.028846397995948792e-03 -1.081808097660541534e-02 -1.737834885716438293e-02
4.664000000000000000e+03 4.535403442382812500e+01 2.381758308410644531e+01 -8.235925808548927307e-03 -2.198742004111409187e-03 -3.130400320515036583e-03 -4.715711344033479691e-03
4.665000000000000000e+03 3.876201629638671875e+01 1.764659500122070312e+01 -2.575771510601043701e-02 -9.205061942338943481e-03 -1.048883330076932907e-02 -1.620132476091384888e-02
4.666000000000000000e+03 5.278446578979492188e+01 3.064135169982910156e+01 -2.062464365735650063e-03 -8.895178325474262238e-05 -6.454248214140534401e-04 -9.270163718611001968e-04
4.667000000000000000e+03 3.219280624389648438e+01 8.683614730834960938e+00 -6.310585141181945801e-02 3.611017763614654541e-02 -8.098701946437358856e-03 1.910260617733001709e-01
4.668000000000000000e+03 3.244838714599609375e+01 9.280621528625488281e+00 -1.762907356023788452e-01 7.268561422824859619e-02 -3.108153492212295532e-02 1.392767578363418579e-01
4.669000000000000000e+03 4.189018630981445312e+01 2.088555717468261719e+01 -1.288152486085891724e-02 -4.677179735153913498e-03 -5.267611704766750336e-03 -8.527003228664398193e-03
4.670000000000000000e+03 4.365914535522460938e+01 2.220879936218261719e+01 -1.060611288994550705e-02 -3.072103252634406090e-03 -4.103465005755424500e-03 -6.363480817526578903e-03
4.671000000000000000e+03 2.945220565795898438e+01 4.763246536254882812e+00 7.271299511194229126e-02 2.441646754741668701e-01 9.506329894065856934e-02 -3.134633600711822510e-02
4.672000000000000000e+03 4.478949356079101562e+01 2.333805084228515625e+01 -8.898258209228515625e-03 -2.618599915876984596e-03 -3.455057507380843163e-03 -5.133441183716058731e-03
4.673000000000000000e+03 4.511090087890625000e+01 2.337557220458984375e+01 -8.908977732062339783e-03 -2.162253949791193008e-03 -3.321369411423802376e-03 -4.936275072395801544e-03
4.674000000000000000e+03 5.258549880981445312e+01 3.095858001708984375e+01 -1.856861985288560390e-03 -1.557252689963206649e-04 -6.037761922925710678e-04 -9.044642793014645576e-04
4.675000000000000000e+03 4.544017410278320312e+01 2.342461395263671875e+01 -8.843122981488704681e-03 -1.893262262456119061e-03 -3.220915561541914940e-03 -4.592742770910263062e-03
4.676000000000000000e+03 5.596506881713867188e+01 3.030624771118164062e+01 -2.483538584783673286e-03 4.181099066045135260e-04 -6.196286412887275219e-04 -4.833134298678487539e-04
4.677000000000000000e+03 5.221843338012695312e+01 3.020863342285156250e+01 -2.309541683644056320e-03 -1.866949169198051095e-04 -7.488710107281804085e-04 -1.057553221471607685e-03
4.678000000000000000e+03 5.227788162231445312e+01 2.967450904846191406e+01 -2.695080125704407692e-03 -6.970310641918331385e-05 -8.294350118376314640e-04 -1.113235484808683395e-03
4.679000000000000000e+03 3.263132858276367188e+01 1.080771255493164062e+01 -2.459404021501541138e-01 2.997696027159690857e-02 -6.478903442621231079e-02 -1.804694533348083496e-02
4.680000000000000000e+03 3.285926055908203125e+01 1.112241458892822266e+01 -2.263185977935791016e-01 1.782908476889133453e-02 -6.254685670137405396e-02 -3.809508308768272400e-02
4.681000000000000000e+03 3.262028884887695312e+01 1.016068840026855469e+01 -2.294326126575469971e-01 5.324979498982429504e-02 -5.285484343767166138e-02 2.626799792051315308e-02
4.682000000000000000e+03 4.886493682861328125e+01 2.625812721252441406e+01 -5.252536851912736893e-03 -6.027916679158806801e-04 -1.756598590873181820e-03 -2.473531523719429970e-03
4.683000000000000000e+03 3.184039688110351562e+01 5.792582035064697266e+00 2.609183788299560547e-01 2.742169797420501709e-02 8.650202304124832153e-02 -6.628416478633880615e-02
4.684000000000000000e+03 2.282457923889160156e+01 -1.912805885076522827e-01 7.552310824394226074e-03 -2.355716750025749207e-02 -4.801456816494464874e-03 2.536799013614654541e-02
4.685000000000000000e+03 4.068229293823242188e+01 1.974203872680664062e+01 -1.556779444217681885e-02 -6.015342660248279572e-03 -6.474941037595272064e-03 -1.077676285058259964e-02
4.686000000000000000e+03 4.130751037597656250e+01 1.998792839050292969e+01 -1.500164624303579330e-02 -4.952204413712024689e-03 -5.986155010759830475e-03 -9.729825891554355621e-03
4.687000000000000000e+03 2.450580024719238281e+01 -5.472336411476135254e-01 1.843319390900433064e-03 -1.675802841782569885e-02 -4.474412649869918823e-03 1.547150406986474991e-02
4.688000000000000000e+03 2.750112724304199219e+01 -1.393826842308044434e+00 -9.728419594466686249e-03 2.181152068078517914e-02 3.624930279329419136e-03 6.438056007027626038e-03
4.689000000000000000e+03 3.156848335266113281e+01 6.323534488677978516e+00 3.355064690113067627e-01 1.696686813374981284e-04 1.007028371095657349e-01 -4.667018726468086243e-02
4.690000000000000000e+03 7.119960308074951172e+00 -7.670455455780029297e+00 2.784728771075606346e-03 2.592422999441623688e-03 1.613145461305975914e-03 3.748565679416060448e-03
4.691000000000000000e+03 2.608767127990722656e+01 -4.877576231956481934e-01 6.365185137838125229e-03 3.339003538712859154e-03 2.911256626248359680e-03 1.258181035518646240e-02
4.692000000000000000e+03 5.336615753173828125e+01 3.135679817199707031e+01 -1.699221669696271420e-03 -2.024435889325104654e-05 -5.158397834748029709e-04 -7.552038296125829220e-04
4.693000000000000000e+03 3.202500152587890625e+01 6.570549488067626953e+00 2.973654866218566895e-01 -2.473962865769863129e-02 8.178775757551193237e-02 7.741725072264671326e-03
4.694000000000000000e+03 3.228895187377929688e+01 7.345932960510253906e+00 2.393756806850433350e-01 -4.901695623993873596e-02 5.710761621594429016e-02 1.291572302579879761e-01
4.695000000000000000e+03 7.431337738037109375e+01 2.757673645019531250e+01 -4.193236818537116051e-04 -4.266320611350238323e-04 -2.537867112550884485e-04 5.855908384546637535e-04
4.696000000000000000e+03 7.224215698242187500e+01 2.840912818908691406e+01 -6.815608940087258816e-04 -2.984932507388293743e-04 -2.940162376035004854e-04 6.916996790096163750e-04
4.697000000000000000e+03 6.922943878173828125e+01 2.925634384155273438e+01 -1.081322203390300274e-03 -1.230373600265011191e-04 -3.613078442867845297e-04 7.553459727205336094e-04
4.698000000000000000e+03 7.071838378906250000e+01 2.845168876647949219e+01 -9.104618220590054989e-04 -2.363430830882862210e-04 -3.440414729993790388e-04 8.094275253824889660e-04
4.699000000000000000e+03 6.915902709960937500e+01 2.853552818298339844e+01 -1.162981614470481873e-03 -1.487644331064075232e-04 -3.935238346457481384e-04 8.831505547277629375e-04
4.700000000000000000e+03 6.760156250000000000e+01 2.862936401367187500e+01 -1.423058798536658287e-03 -4.851133417105302215e-05 -4.414710274431854486e-04 9.025135077536106110e-04
4.701000000000000000e+03 5.820154190063476562e+01 2.978853416442871094e+01 -2.593707991763949394e-03 5.071393097750842571e-04 -6.259705987758934498e-04 -1.004160149022936821e-04
4.702000000000000000e+03 6.526374053955078125e+01 2.880488395690917969e+01 -1.812607166357338428e-03 1.165356661658734083e-04 -5.088214529678225517e-04 8.243038319051265717e-04
4.703000000000000000e+03 6.454413604736328125e+01 2.956370544433593750e+01 -1.813611481338739395e-03 1.278659183299168944e-04 -5.057236994616687298e-04 6.582596688531339169e-04
4.704000000000000000e+03 6.369264221191406250e+01 2.895311164855957031e+01 -2.062731189653277397e-03 2.331322757527232170e-04 -5.488796741701662540e-04 7.004771614447236061e-04
4.705000000000000000e+03 6.140843582153320312e+01 2.989715194702148438e+01 -2.200744580477476120e-03 3.105894429609179497e-04 -5.670465761795639992e-04 3.258591750636696815e-04
4.706000000000000000e+03 6.132490158081054688e+01 2.922247886657714844e+01 -2.389809349551796913e-03 3.985306248068809509e-04 -5.973835941404104233e-04 4.124366678297519684e-04
4.707000000000000000e+03 6.688767242431640625e+01 2.938368225097656250e+01 -1.455603865906596184e-03 -6.614799076487543061e-06 -4.386655928101390600e-04 7.720288122072815895e-04
4.708000000000000000e+03 6.838019561767578125e+01 2.858109092712402344e+01 -1.291520311497151852e-03 -9.773403144208714366e-05 -4.167762817814946175e-04 8.948083268478512764e-04
4.709000000000000000e+03 5.967866420745849609e+00 -5.979715347290039062e+00 2.020691987127065659e-03 1.449013943783938885e-03 1.040911767631769180e-03 1.873564207926392555e-03
4.710000000000000000e+03 6.736549377441406250e+00 -5.790310382843017578e+00 2.702887868508696556e-03 1.215010066516697407e-03 1.175369368866086006e-03 2.194725209847092628e-03
4.711000000000000000e+03 6.290217590332031250e+01 2.903777313232421875e+01 -2.183072268962860107e-03 2.909317845478653908e-04 -5.676421569660305977e-04 6.181565113365650177e-04
4.712000000000000000e+03 5.975476837158203125e+01 2.946654319763183594e+01 -2.535635139793157578e-03 4.781625757459551096e-04 -6.172417779453098774e-04 1.675547828199341893e-04
4.713000000000000000e+03 6.053871536254882812e+01 2.933423614501953125e+01 -2.467909129336476326e-03 4.437077732291072607e-04 -6.072603864595293999e-04 2.907270391006022692e-04
4.714000000000000000e+03 6.604474639892578125e+01 2.873926353454589844e+01 -1.684271148405969143e-03 5.872463225387036800e-05 -4.876639577560126781e-04 8.674453711137175560e-04
4.715000000000000000e+03 6.682391357421875000e+01 2.868128395080566406e+01 -1.552726374939084053e-03 5.572453119384590536e-06 -4.641461709979921579e-04 8.880746318027377129e-04
4.716000000000000000e+03 2.633928871154785156e+01 -1.218525290489196777e+00 -7.874426431953907013e-03 5.147358868271112442e-03 -8.181203156709671021e-04 1.294819545000791550e-02
4.717000000000000000e+03 5.809572601318359375e+01 2.916073417663574219e+01 -2.847532508894801140e-03 6.145372753962874413e-04 -6.698985816910862923e-04 -5.732405406888574362e-05
4.718000000000000000e+03 5.897437286376953125e+01 2.961878776550292969e+01 -2.573011210188269615e-03 5.015601636841893196e-04 -6.214352906681597233e-04 3.115120853180997074e-05
4.719000000000000000e+03 8.127195358276367188e+00 -5.846154689788818359e+00 3.851242363452911377e-03 1.330289407633244991e-03 1.554459566250443459e-03 3.021018812432885170e-03
4.720000000000000000e+03 7.408534049987792969e+00 -5.796097755432128906e+00 3.180270548909902573e-03 1.539757824502885342e-03 1.416008453816175461e-03 2.573932986706495285e-03
4.721000000000000000e+03 2.825150489807128906e+01 -2.712749481201171875e+00 -2.016245573759078979e-02 2.314233221113681793e-02 8.939628023654222488e-04 5.285900086164474487e-03
4.722000000000000000e+03 2.884775352478027344e+01 -1.836754441261291504e+00 -1.166066527366638184e-02 3.689953312277793884e-02 7.571660913527011871e-03 -9.908138308674097061e-04
4.723000000000000000e+03 5.669192886352539062e+01 3.014264869689941406e+01 -2.541560679674148560e-03 4.648549947887659073e-04 -6.230117287486791611e-04 -3.598548064474016428e-04
4.724000000000000000e+03 3.350991058349609375e+01 1.091422939300537109e+01 -1.897082179784774780e-01 2.829898148775100708e-02 -4.842277243733406067e-02 1.011738902889192104e-03
4.725000000000000000e+03 5.358431625366210938e+01 3.080373191833496094e+01 -2.068140311166644096e-03 7.668565376661717892e-05 -5.974363884888589382e-04 -7.932216976769268513e-04
4.726000000000000000e+03 5.249270248413085938e+01 3.044000625610351562e+01 -2.157852519303560257e-03 -1.216326927533373237e-04 -6.838455446995794773e-04 -9.817130630835890770e-04
4.727000000000000000e+03 1.174652290344238281e+01 -6.138208866119384766e+00 7.819606922566890717e-03 3.675351152196526527e-03 3.448487259447574615e-03 6.942546460777521133e-03
4.728000000000000000e+03 1.027165222167968750e+01 -5.137653827667236328e+00 5.975566804409027100e-03 1.022197306156158447e-03 2.099329372867941856e-03 3.740456886589527130e-03
4.729000000000000000e+03 9.567091941833496094e+00 -5.843601703643798828e+00 5.266893189400434494e-03 1.479628030210733414e-03 2.023956272751092911e-03 4.003957379609346390e-03
4.730000000000000000e+03 3.498467636108398438e+01 -7.160785675048828125e+00 -7.636416703462600708e-03 3.123683854937553406e-02 7.080126553773880005e-03 -1.389190834015607834e-02
4.731000000000000000e+03 3.006443595886230469e+01 -2.887170553207397461e+00 -1.541947759687900543e-02 3.994858637452125549e-02 7.358732633292675018e-03 -7.846975699067115784e-03
4.732000000000000000e+03 1.335471439361572266e+01 -6.447749137878417969e+00 9.315459057688713074e-03 7.030412089079618454e-03 4.903761204332113266e-03 1.002706680446863174e-02
4.733000000000000000e+03 3.095352363586425781e+01 -4.325842380523681641e+00 -1.785461418330669403e-02 3.587464243173599243e-02 5.406008567661046982e-03 -8.505958132445812225e-03
4.734000000000000000e+03 1.419906806945800781e+01 -6.580992221832275391e+00 9.301393292844295502e-03 8.983164094388484955e-03 5.485367495566606522e-03 1.152199041098356247e-02
4.735000000000000000e+03 1.424189472198486328e+01 -5.635075092315673828e+00 1.196424942463636398e-02 8.067443966865539551e-03 6.009507924318313599e-03 1.104045007377862930e-02
4.736000000000000000e+03 3.046408271789550781e+01 -3.586760759353637695e+00 -1.769749633967876434e-02 3.731831163167953491e-02 5.886245053261518478e-03 -8.078320883214473724e-03
4.737000000000000000e+03 1.940954780578613281e+01 -2.093724632263183594e+01 -3.048593876883387566e-03 4.518442787230014801e-03 4.409547254908829927e-04 3.572257002815604210e-03
4.738000000000000000e+03 4.938789749145507812e+01 -2.761560821533203125e+01 4.658893682062625885e-03 2.956343442201614380e-02 1.026669889688491821e-02 -3.247411223128437996e-03
4.739000000000000000e+03 4.565503311157226562e+01 -2.305442047119140625e+01 2.622362459078431129e-03 3.030912019312381744e-02 9.879444725811481476e-03 -8.222302421927452087e-03
4.740000000000000000e+03 1.488636207580566406e+01 -8.956493377685546875e+00 3.699737135320901871e-03 1.405726652592420578e-02 5.327101331204175949e-03 1.090592145919799805e-02
4.741000000000000000e+03 1.591185474395751953e+01 -7.564908981323242188e+00 5.143676884472370148e-03 1.773440279066562653e-02 6.863424088805913925e-03 1.174982823431491852e-02
4.742000000000000000e+03 3.764368820190429688e+01 -9.734384536743164062e+00 -2.551385201513767242e-03 2.717080526053905487e-02 7.385825738310813904e-03 -1.212421152740716934e-02
4.743000000000000000e+03 3.666868972778320312e+01 -1.100758075714111328e+01 -2.733026631176471710e-03 2.622486092150211334e-02 7.047550287097692490e-03 -9.844847954809665680e-03
4.744000000000000000e+03 7.051016998291015625e+01 -3.021790122985839844e+01 9.669790160842239857e-04 -1.121974550187587738e-02 -3.075829939916729927e-03 1.297073089517652988e-03
4.745000000000000000e+03 7.019542694091796875e+01 -3.296646499633789062e+01 8.324297377839684486e-04 -1.081596314907073975e-02 -2.995060058310627937e-03 1.056075911037623882e-03
4.746000000000000000e+03 7.524621582031250000e+01 2.836645317077636719e+01 -3.004723112098872662e-04 -3.468827344477176666e-04 -1.942065136972814798e-04 4.056203761138021946e-04
4.747000000000000000e+03 7.448645019531250000e+01 2.831941223144531250e+01 -3.803373838309198618e-04 -3.486025962047278881e-04 -2.186819911003112793e-04 4.783496551681309938e-04
4.748000000000000000e+03 7.184389495849609375e+01 -2.164737892150878906e+01 6.644389359280467033e-04 -1.274732407182455063e-02 -3.624865552410483360e-03 2.287258161231875420e-03
4.749000000000000000e+03 3.998142242431640625e+01 -1.919261550903320312e+01 4.478935617953538895e-03 2.677545696496963501e-02 9.376318193972110748e-03 -1.146415155380964279e-02
4.750000000000000000e+03 1.505672359466552734e+01 -7.757548332214355469e+00 5.100521724671125412e-03 1.385330036282539368e-02 5.686146672815084457e-03 1.160989329218864441e-02
4.751000000000000000e+03 7.346219635009765625e+01 -1.633389282226562500e+01 3.274274931754916906e-04 -1.454367209225893021e-02 -4.264873452484607697e-03 2.426066435873508453e-03
4.752000000000000000e+03 7.345553588867187500e+01 -1.506884670257568359e+01 3.058615839108824730e-04 -1.423349138349294662e-02 -4.178288858383893967e-03 2.544975141063332558e-03
4.753000000000000000e+03 7.344417572021484375e+01 1.892365455627441406e+01 -6.860163412056863308e-04 -1.951646758243441582e-03 -7.912989240139722824e-04 2.185392891988158226e-03
4.754000000000000000e+03 7.337692260742187500e+01 1.746038627624511719e+01 -6.671919836662709713e-04 -2.324398607015609741e-03 -8.974772063083946705e-04 2.449117833748459816e-03
4.755000000000000000e+03 7.307829284667968750e+01 -9.818555831909179688e+00 3.270261222496628761e-04 -1.230220682919025421e-02 -3.592554014176130295e-03 3.110641613602638245e-03
4.756000000000000000e+03 7.320751953125000000e+01 1.195872783660888672e+01 -4.854645812883973122e-04 -4.126642830669879913e-03 -1.383632188662886620e-03 3.389486810192465782e-03
4.757000000000000000e+03 7.321149444580078125e+01 1.051528644561767578e+01 -4.391374532133340836e-04 -4.639350343495607376e-03 -1.523546292446553707e-03 3.552714595571160316e-03
4.758000000000000000e+03 7.342587280273437500e+01 -1.760393905639648438e+01 2.868851006496697664e-04 -1.475540269166231155e-02 -4.340555053204298019e-03 2.346915425732731819e-03
4.759000000000000000e+03 7.254261779785156250e+01 -2.492624473571777344e+01 5.838573561049997807e-04 -1.458044722676277161e-02 -4.198976792395114899e-03 1.778032747097313404e-03
4.760000000000000000e+03 7.303853607177734375e+01 -2.627196121215820312e+01 5.039193783886730671e-04 -1.568274572491645813e-02 -4.553647711873054504e-03 1.489325426518917084e-03
4.761000000000000000e+03 7.452708435058593750e+01 2.158158540725708008e+00 5.428068470791913569e-05 -9.021471254527568817e-03 -2.690157387405633926e-03 3.328696824610233307e-03
4.762000000000000000e+03 7.400641632080078125e+01 -4.903559207916259766e+00 2.275206497870385647e-04 -1.161726377904415131e-02 -3.416922874748706818e-03 3.225714201107621193e-03
4.763000000000000000e+03 7.250644683837890625e+01 -6.874665260314941406e+00 3.732599725481122732e-04 -1.074392627924680710e-02 -3.111199708655476570e-03 3.552940208464860916e-03
4.764000000000000000e+03 7.343226623535156250e+01 9.323061704635620117e-01 1.246888714376837015e-04 -8.810346946120262146e-03 -2.605697372928261757e-03 3.776126308366656303e-03
4.765000000000000000e+03 7.341146087646484375e+01 7.796796798706054688e+00 -2.467453596182167530e-04 -5.880745593458414078e-03 -1.838247291743755341e-03 3.717305604368448257e-03
4.766000000000000000e+03 7.457235717773437500e+01 7.653801441192626953e+00 -1.605112192919477820e-04 -6.469681393355131149e-03 -1.989057753235101700e-03 3.217939753085374832e-03
4.767000000000000000e+03 7.451161956787109375e+01 -1.237943935394287109e+01 2.349052374484017491e-04 -1.495803520083427429e-02 -4.416939336806535721e-03 2.472712658345699310e-03
4.768000000000000000e+03 7.311102294921875000e+01 3.669721126556396484e+00 1.348643877463473473e-06 -7.396663073450326920e-03 -2.218594308942556381e-03 3.983432892709970474e-03
4.769000000000000000e+03 7.302279663085937500e+01 -2.982988119125366211e+00 2.460418909322470427e-04 -1.002875622361898422e-02 -2.934814197942614555e-03 3.702569054439663887e-03
4.770000000000000000e+03 7.339868927001953125e+01 -1.379430961608886719e+01 3.284928388893604279e-04 -1.380362082272768021e-02 -4.042538348585367203e-03 2.693595597520470619e-03
4.771000000000000000e+03 7.320726776123046875e+01 -1.119029235839843750e+01 3.439247957430779934e-04 -1.288337074220180511e-02 -3.761833766475319862e-03 2.956375945359468460e-03
4.772000000000000000e+03 7.341501617431640625e+01 -2.018664550781250000e+01 3.927208890672773123e-04 -1.532908156514167786e-02 -4.480908159166574478e-03 2.098951488733291626e-03
4.773000000000000000e+03 7.351599121093750000e+01 1.469071006774902344e+01 -5.625510239042341709e-04 -3.239030716940760612e-03 -1.140474574640393257e-03 2.875338308513164520e-03
4.774000000000000000e+03 7.465382385253906250e+01 1.457962036132812500e+01 -4.136018978897482157e-04 -3.537794807925820351e-03 -1.185419037938117981e-03 2.502350602298974991e-03
4.775000000000000000e+03 1.914344024658203125e+01 -1.684134292602539062e+01 -2.788703655824065208e-03 6.879584863781929016e-03 1.227264408953487873e-03 3.303087083622813225e-03
4.776000000000000000e+03 3.857956695556640625e+01 -1.284969139099121094e+01 -4.373810661491006613e-04 2.555465884506702423e-02 7.535183336585760117e-03 -1.002014894038438797e-02
4.777000000000000000e+03 7.140851593017578125e+01 2.763160324096679688e+01 -8.538046968169510365e-04 -3.339138056617230177e-04 -3.563155478332191706e-04 8.885930874384939671e-04
4.778000000000000000e+03 7.370863342285156250e+01 2.033105468750000000e+01 -6.332298507913947105e-04 -1.627307035960257053e-03 -6.781610427424311638e-04 1.837994786910712719e-03
4.779000000000000000e+03 8.390266418457031250e+00 -2.777778053283691406e+01 -1.238202909007668495e-03 1.134936418384313583e-02 3.033348359167575836e-03 3.432057099416851997e-03
4.780000000000000000e+03 7.006238460540771484e+00 -2.372442626953125000e+01 -9.982257615774869919e-04 1.112773176282644272e-02 3.038851777091622353e-03 4.042246378958225250e-03
4.781000000000000000e+03 7.388935089111328125e+01 2.167041778564453125e+01 -6.049876101315021515e-04 -1.361064729280769825e-03 -5.898156668990850449e-04 1.575742266140878201e-03
4.782000000000000000e+03 6.966969966888427734e+00 -2.111774444580078125e+01 -8.396921330131590366e-04 1.030181348323822021e-02 2.838636282831430435e-03 4.551265388727188110e-03
4.783000000000000000e+03 6.406520366668701172e+00 -1.884316253662109375e+01 -4.954752512276172638e-04 9.418325498700141907e-03 2.676855074241757393e-03 4.760788287967443466e-03
4.784000000000000000e+03 7.414823150634765625e+01 2.611026954650878906e+01 -4.907801048830151558e-04 -6.211105501279234886e-04 -3.335671790409833193e-04 8.183230529539287090e-04
4.785000000000000000e+03 7.213768005371093750e+01 2.672914695739746094e+01 -7.945604738779366016e-04 -4.498416092246770859e-04 -3.733206249307841063e-04 9.700972004793584347e-04
4.786000000000000000e+03 5.730100154876708984e+00 -1.631560707092285156e+01 -3.314795612823218107e-04 8.040699176490306854e-03 2.312765922397375107e-03 4.857816267758607864e-03
4.787000000000000000e+03 8.308444976806640625e+00 -9.283370018005371094e+00 3.002492245286703110e-03 4.535025451332330704e-03 2.261255169287323952e-03 5.877505056560039520e-03
4.788000000000000000e+03 6.055871963500976562e+00 -9.821245193481445312e+00 1.760237151756882668e-03 3.599760588258504868e-03 1.607999322004616261e-03 4.068946000188589096e-03
4.789000000000000000e+03 5.832661628723144531e+00 -8.820399284362792969e+00 1.822657301090657711e-03 3.104208735749125481e-03 1.478059799410402775e-03 3.559075295925140381e-03
4.790000000000000000e+03 7.341189575195312500e+01 2.471739578247070312e+01 -6.335578509606420994e-04 -7.860788027755916119e-04 -4.258909903001040220e-04 1.133474055677652359e-03
4.791000000000000000e+03 7.607410430908203125e+01 2.579571533203125000e+01 -2.404768747510388494e-04 -6.620618514716625214e-04 -2.707616367843002081e-04 5.813194438815116882e-04
4.792000000000000000e+03 5.451537609100341797e+00 -1.342112731933593750e+01 3.716392966452986002e-04 6.085091736167669296e-03 1.937019289471209049e-03 4.630565177649259567e-03
4.793000000000000000e+03 6.578044414520263672e+00 -1.317580127716064453e+01 6.915659178048372269e-04 6.410100497305393219e-03 2.130499808117747307e-03 5.449325311928987503e-03
4.794000000000000000e+03 7.372492218017578125e+01 2.838905143737792969e+01 -4.780470917467027903e-04 -3.364574222359806299e-04 -2.443513658363372087e-04 5.512653151527047157e-04
4.795000000000000000e+03 4.581528091430664062e+01 -2.083514213562011719e+01 2.133056987076997757e-03 2.746234647929668427e-02 8.878621272742748260e-03 -7.500701118260622025e-03
4.796000000000000000e+03 1.795778656005859375e+01 -1.510737323760986328e+01 -2.913941629230976105e-03 9.555094875395298004e-03 1.992346020415425301e-03 3.932825289666652679e-03
4.797000000000000000e+03 6.384899139404296875e+00 -6.869624614715576172e+00 2.611469477415084839e-03 1.819976721890270710e-03 1.329433871433138847e-03 2.706820610910654068e-03
4.798000000000000000e+03 5.703042507171630859e+00 -7.445065498352050781e+00 1.883504563011229038e-03 2.016946207731962204e-03 1.170135219581425190e-03 2.529414836317300797e-03
4.799000000000000000e+03 2.355937957763671875e+01 -2.483355140686035156e+01 -2.586271613836288452e-03 -7.161526591517031193e-04 -9.907273342832922935e-04 3.557792631909251213e-03
4.800000000000000000e+03 4.067427825927734375e+01 -2.027081108093261719e+01 4.285409115254878998e-03 2.769142203032970428e-02 9.593049064278602600e-03 -1.198023557662963867e-02
4.801000000000000000e+03 3.782140350341796875e+01 -1.081704998016357422e+01 -2.235190942883491516e-03 2.656098455190658569e-02 7.297737989574670792e-03 -1.090725231915712357e-02
4.802000000000000000e+03 4.678586196899414062e+01 -2.611771583557128906e+01 3.763304790481925011e-03 3.317383676767349243e-02 1.108114235103130341e-02 -6.363521330058574677e-03
4.803000000000000000e+03 3.628701019287109375e+01 -8.359191894531250000e+00 -4.394408315420150757e-03 2.874827757477760315e-02 7.306160405278205872e-03 -1.299805566668510437e-02
4.804000000000000000e+03 4.237933349609375000e+01 -2.049270057678222656e+01 3.317717229947447777e-03 2.820662781596183777e-02 9.457304142415523529e-03 -1.077670045197010040e-02
4.805000000000000000e+03 1.630159950256347656e+01 -1.341123485565185547e+01 -2.158211078494787216e-03 1.180799491703510284e-02 2.894935198128223419e-03 5.999013315886259079e-03
4.806000000000000000e+03 2.179604530334472656e+01 -2.696308898925781250e+01 -3.193409880623221397e-03 1.040927134454250336e-03 -6.457448471337556839e-04 3.603737335652112961e-03
4.807000000000000000e+03 7.025124073028564453e+00 -1.450052547454833984e+01 1.502450177213177085e-04 7.246080320328474045e-03 2.218897454440593719e-03 5.603822879493236542e-03
4.808000000000000000e+03 6.031421661376953125e+00 -2.383630371093750000e+01 -7.868543034419417381e-04 1.159016974270343781e-02 3.240994643419981003e-03 3.659121692180633545e-03
4.809000000000000000e+03 2.268944168090820312e+01 -3.395215988159179688e+01 -4.967651795595884323e-03 5.087623721919953823e-04 -1.337666762992739677e-03 2.916819648817181587e-03
4.810000000000000000e+03 2.712995719909667969e+01 3.353730678558349609e+00 6.334074586629867554e-02 1.557728927582502365e-02 2.367541193962097168e-02 3.003569506108760834e-02
4.811000000000000000e+03 2.663862228393554688e+01 2.985351562500000000e+00 6.075445190072059631e-02 3.160250838845968246e-03 1.917441003024578094e-02 2.360465005040168762e-02
4.812000000000000000e+03 2.623682594299316406e+01 2.585223436355590820e+00 5.740998685359954834e-02 -1.640160568058490753e-03 1.673094742000102997e-02 1.935261115431785583e-02
4.813000000000000000e+03 2.535519218444824219e+01 2.047387599945068359e+00 5.302962660789489746e-02 -8.976705372333526611e-03 1.321587618440389633e-02 1.470530591905117035e-02
4.814000000000000000e+03 2.686037826538085938e+01 2.489283084869384766e+00 5.464257299900054932e-02 1.457960251718759537e-02 2.076665312051773071e-02 2.456411905586719513e-02
4.815000000000000000e+03 2.435955619812011719e+01 1.642671346664428711e+00 4.799846559762954712e-02 -1.226290222257375717e-02 1.072066929191350937e-02 1.454736758023500443e-02
4.816000000000000000e+03 2.571584892272949219e+01 2.434674263000488281e+00 5.626137927174568176e-02 -7.855951786041259766e-03 1.452162861824035645e-02 1.581811346113681793e-02
4.817000000000000000e+03 4.682679367065429688e+01 2.613763618469238281e+01 -4.990735091269016266e-03 -1.935270498506724834e-03 -2.077801618725061417e-03 -3.430307144299149513e-03
4.818000000000000000e+03 4.677774810791015625e+01 2.540954589843750000e+01 -6.065846886485815048e-03 -1.680400688201189041e-03 -2.323874272406101227e-03 -3.622806863859295845e-03
4.819000000000000000e+03 3.354861068725585938e+01 1.137873268127441406e+01 -1.776197999715805054e-01 1.852083951234817505e-02 -4.772968590259552002e-02 -2.491557598114013672e-02
4.820000000000000000e+03 3.520038604736328125e+01 1.274317646026611328e+01 -1.009267047047615051e-01 6.388180423527956009e-03 -2.836155891418457031e-02 -2.648813091218471527e-02
4.821000000000000000e+03 4.022258758544921875e+01 1.844030570983886719e+01 -2.127692475914955139e-02 -4.829196725040674210e-03 -7.831836119294166565e-03 -1.235825847834348679e-02
4.822000000000000000e+03 4.148569869995117188e+01 1.965224838256835938e+01 -1.599770784378051758e-02 -3.756555961444973946e-03 -5.926279351115226746e-03 -9.857350029051303864e-03
4.823000000000000000e+03 4.013234329223632812e+01 1.934878158569335938e+01 -1.681765168905258179e-02 -6.935651414096355438e-03 -7.125990930944681168e-03 -1.195363234728574753e-02
4.824000000000000000e+03 4.014432907104492188e+01 1.888489532470703125e+01 -1.903033256530761719e-02 -6.060237996280193329e-03 -7.527171168476343155e-03 -1.232363935559988022e-02
4.825000000000000000e+03 4.666891479492187500e+01 2.505185508728027344e+01 -6.510499864816665649e-03 -1.536832656711339951e-03 -2.414199756458401680e-03 -3.720032749697566032e-03
4.826000000000000000e+03 4.254906082153320312e+01 2.110635948181152344e+01 -1.259019691497087479e-02 -3.650261787697672844e-03 -4.872137680649757385e-03 -7.696731947362422943e-03
4.827000000000000000e+03 4.098476409912109375e+01 1.988680267333984375e+01 -1.488304138183593750e-02 -5.188581999391317368e-03 -6.021487060934305191e-03 -1.052149012684822083e-02
4.828000000000000000e+03 3.911040496826171875e+01 1.744340515136718750e+01 -2.641011402010917664e-02 -6.349124014377593994e-03 -9.827771224081516266e-03 -1.554671674966812134e-02
4.829000000000000000e+03 4.004166412353515625e+01 1.817755317687988281e+01 -2.204040624201297760e-02 -4.616977181285619736e-03 -7.997214794158935547e-03 -1.300833933055400848e-02
4.830000000000000000e+03 4.415215682983398438e+01 2.217446708679199219e+01 -1.067909598350524902e-02 -2.388153690844774246e-03 -3.920174669474363327e-03 -5.860948935151100159e-03
4.831000000000000000e+03 2.813184738159179688e+01 4.048099040985107422e+00 6.405547261238098145e-02 7.719195634126663208e-02 4.237422719597816467e-02 4.567632451653480530e-02
4.832000000000000000e+03 2.812087631225585938e+01 3.363316774368286133e+00 5.485845357179641724e-02 7.022119313478469849e-02 3.752389550209045410e-02 3.533947840332984924e-02
4.833000000000000000e+03 3.601666641235351562e+01 1.357164573669433594e+01 -7.545857131481170654e-02 -1.677996246144175529e-03 -2.314096875488758087e-02 -2.430028654634952545e-02
4.834000000000000000e+03 2.353085327148437500e+01 8.424919247627258301e-01 3.675873950123786926e-02 -1.285615004599094391e-02 7.170776836574077606e-03 1.849345304071903229e-02
4.835000000000000000e+03 4.219403076171875000e+01 2.097526359558105469e+01 -1.293025352060794830e-02 -4.354073666036128998e-03 -5.185298155993223190e-03 -8.123227395117282867e-03
4.836000000000000000e+03 4.366528320312500000e+01 2.168047714233398438e+01 -1.158845238387584686e-02 -2.545271301642060280e-03 -4.240117035806179047e-03 -6.391057744622230530e-03
4.837000000000000000e+03 3.985284042358398438e+01 1.789261054992675781e+01 -2.415517903864383698e-02 -4.770685918629169464e-03 -8.677759207785129547e-03 -1.324859540909528732e-02
4.838000000000000000e+03 3.607159805297851562e+01 1.448317813873291016e+01 -5.906677246093750000e-02 -1.131428498774766922e-02 -2.111431770026683807e-02 -3.128375485539436340e-02
4.839000000000000000e+03 4.437309265136718750e+01 2.238683700561523438e+01 -1.049922127276659012e-02 -2.389107597991824150e-03 -3.866498824208974838e-03 -5.607230123132467270e-03
4.840000000000000000e+03 4.194218444824218750e+01 2.032648277282714844e+01 -1.431895978748798370e-02 -3.819814883172512054e-03 -5.441632121801376343e-03 -8.666424080729484558e-03
4.841000000000000000e+03 4.636162185668945312e+01 2.446116638183593750e+01 -7.370110601186752319e-03 -1.532601658254861832e-03 -2.670813584700226784e-03 -4.014013335108757019e-03
4.842000000000000000e+03 3.558808517456054688e+01 1.322532558441162109e+01 -8.685464411973953247e-02 1.905515324324369431e-03 -2.548473887145519257e-02 -2.683923207223415375e-02
4.843000000000000000e+03 3.263409805297851562e+01 9.754357337951660156e+00 -2.222905904054641724e-01 5.897049605846405029e-02 -4.899602755904197693e-02 7.675568014383316040e-02
4.844000000000000000e+03 3.712726211547851562e+01 1.520120429992675781e+01 -4.659796506166458130e-02 -7.767891511321067810e-03 -1.630975678563117981e-02 -2.378853596746921539e-02
4.845000000000000000e+03 5.198225021362304688e+01 2.942577171325683594e+01 -2.849453594535589218e-03 -1.042484873323701322e-04 -8.861105889081954956e-04 -1.221132697537541389e-03
4.846000000000000000e+03 3.751047897338867188e+01 1.567251300811767578e+01 -4.288204759359359741e-02 -8.047370240092277527e-03 -1.527882553637027740e-02 -2.167587354779243469e-02
4.847000000000000000e+03 5.226996612548828125e+01 2.915172386169433594e+01 -3.068830352276563644e-03 1.319384318776428699e-05 -9.166909148916602135e-04 -1.185651635751128197e-03
4.848000000000000000e+03 3.966500473022460938e+01 1.758672332763671875e+01 -2.534296922385692596e-02 -4.449625965207815170e-03 -8.937777951359748840e-03 -1.381677668541669846e-02
4.849000000000000000e+03 5.001580047607421875e+01 2.812271308898925781e+01 -3.645692253485321999e-03 -6.198293995112180710e-04 -1.279656542465090752e-03 -1.844031852670013905e-03
4.850000000000000000e+03 5.178589248657226562e+01 2.861699485778808594e+01 -3.401904832571744919e-03 -1.503590829088352621e-05 -1.025082194246351719e-03 -1.322926837019622326e-03
4.851000000000000000e+03 4.343893051147460938e+01 2.138924217224121094e+01 -1.232780981808900833e-02 -2.675829455256462097e-03 -4.501091782003641129e-03 -6.584135815501213074e-03
4.852000000000000000e+03 4.461140060424804688e+01 2.250720024108886719e+01 -1.025788765400648117e-02 -2.001148182898759842e-03 -3.677710657939314842e-03 -5.384115967899560928e-03
4.853000000000000000e+03 4.481954956054687500e+01 2.295787620544433594e+01 -9.504924528300762177e-03 -2.193445106968283653e-03 -3.509510774165391922e-03 -5.190942436456680298e-03
4.854000000000000000e+03 3.786804199218750000e+01 1.636064338684082031e+01 -3.590657189488410950e-02 -9.866687469184398651e-03 -1.373197697103023529e-02 -2.012519352138042450e-02
4.855000000000000000e+03 3.044644737243652344e+01 4.576007366180419922e+00 1.121913641691207886e-01 1.909583956003189087e-01 9.094492346048355103e-02 -9.306213259696960449e-02
4.856000000000000000e+03 4.864723205566406250e+01 2.655430793762207031e+01 -4.926218185573816299e-03 -7.969429716467857361e-04 -1.716948347166180611e-03 -2.553547965362668037e-03
4.857000000000000000e+03 4.920181274414062500e+01 2.707455253601074219e+01 -4.460335243493318558e-03 -6.977326120249927044e-04 -1.547420280985534191e-03 -2.269107149913907051e-03
4.858000000000000000e+03 4.975766372680664062e+01 2.785179328918457031e+01 -3.811927046626806259e-03 -6.677601486444473267e-04 -1.343906158581376076e-03 -1.977415755391120911e-03
4.859000000000000000e+03 5.116502380371093750e+01 2.864163780212402344e+01 -3.338813316076993942e-03 -2.455318463034927845e-04 -1.075303531251847744e-03 -1.474228221923112869e-03
4.860000000000000000e+03 3.441570663452148438e+01 1.248925876617431641e+01 -1.201207339763641357e-01 1.712889294140040874e-03 -3.552235290408134460e-02 -3.719790652394294739e-02
4.861000000000000000e+03 3.405036163330078125e+01 1.231260681152343750e+01 -1.364807784557342529e-01 -6.397290155291557312e-03 -4.286342114210128784e-02 -4.413434863090515137e-02
4.862000000000000000e+03 5.087453842163085938e+01 2.838660621643066406e+01 -3.503937507048249245e-03 -2.769830171018838882e-04 -1.134276157245039940e-03 -1.580600044690072536e-03
4.863000000000000000e+03 5.031261825561523438e+01 2.788781547546386719e+01 -3.870170563459396362e-03 -3.855569229926913977e-04 -1.276718219742178917e-03 -1.798872952349483967e-03
4.864000000000000000e+03 4.954406738281250000e+01 2.723493766784667969e+01 -4.356048069894313812e-03 -6.035100668668746948e-04 -1.487867441028356552e-03 -2.110542031005024910e-03
4.865000000000000000e+03 4.192420196533203125e+01 2.061910438537597656e+01 -1.349525433033704758e-02 -4.438749980181455612e-03 -5.380201153457164764e-03 -8.662198670208454132e-03
4.866000000000000000e+03 4.287487030029296875e+01 2.133909988403320312e+01 -1.239822618663311005e-02 -3.548795823007822037e-03 -4.784106742590665817e-03 -7.200994063168764114e-03
4.867000000000000000e+03 4.628170776367187500e+01 2.412759399414062500e+01 -7.855144329369068146e-03 -1.433349563740193844e-03 -2.786548342555761337e-03 -3.997414838522672653e-03
4.868000000000000000e+03 4.610806274414062500e+01 2.493807601928710938e+01 -6.572044454514980316e-03 -2.049351576715707779e-03 -2.586418762803077698e-03 -4.046954680234193802e-03
4.869000000000000000e+03 4.390850448608398438e+01 2.194075393676757812e+01 -1.128220371901988983e-02 -2.544285263866186142e-03 -4.147946834564208984e-03 -6.031834054738283157e-03
4.870000000000000000e+03 3.822848892211914062e+01 1.616105651855468750e+01 -3.613944724202156067e-02 -6.030852906405925751e-03 -1.265109051018953323e-02 -1.798598095774650574e-02
4.871000000000000000e+03 3.890886306762695312e+01 1.711666679382324219e+01 -2.940544113516807556e-02 -6.764686666429042816e-03 -1.085103861987590790e-02 -1.588895730674266815e-02
4.872000000000000000e+03 4.744344711303710938e+01 2.569822311401367188e+01 -5.804603919386863708e-03 -1.270297914743423462e-03 -2.122470643371343613e-03 -3.248499473556876183e-03
4.873000000000000000e+03 3.844926452636718750e+01 1.648210906982421875e+01 -3.430140763521194458e-02 -6.709455978125333786e-03 -1.230325922369956970e-02 -1.737437583506107330e-02
4.874000000000000000e+03 4.228496170043945312e+01 2.064801406860351562e+01 -1.359025575220584869e-02 -3.652473911643028259e-03 -5.172818899154663086e-03 -8.118039928376674652e-03
4.875000000000000000e+03 4.569298553466796875e+01 2.386659622192382812e+01 -8.192512206733226776e-03 -1.926979166455566883e-03 -3.035847563296556473e-03 -4.377295263111591339e-03
4.876000000000000000e+03 4.863199996948242188e+01 2.700462341308593750e+01 -4.449664149433374405e-03 -9.844371816143393517e-04 -1.630230341106653214e-03 -2.465811790898442268e-03
4.877000000000000000e+03 4.649987411499023438e+01 2.474123954772949219e+01 -7.022931240499019623e-03 -1.537043484859168530e-03 -2.567992312833666801e-03 -3.801829647272825241e-03
4.878000000000000000e+03 4.599861526489257812e+01 2.459758758544921875e+01 -7.184704300016164780e-03 -1.950711826793849468e-03 -2.740624826401472092e-03 -4.120544064790010452e-03
4.879000000000000000e+03 5.418658447265625000e+01 3.135738945007324219e+01 -1.851296983659267426e-03 1.043563024722971022e-04 -5.240822210907936096e-04 -6.841536960564553738e-04
4.880000000000000000e+03 4.517110061645507812e+01 2.298482894897460938e+01 -9.465433657169342041e-03 -1.870871637947857380e-03 -3.400891786441206932e-03 -4.813078325241804123e-03
4.881000000000000000e+03 5.251077651977539062e+01 2.993958854675292969e+01 -2.533730585128068924e-03 -3.272620961070060730e-05 -7.699370034970343113e-04 -1.054046442732214928e-03
4.882000000000000000e+03 5.273238372802734375e+01 3.017174530029296875e+01 -2.396266208961606026e-03 -1.324026925431098789e-05 -7.228519534692168236e-04 -9.630726999603211880e-04
4.883000000000000000e+03 3.362674713134765625e+01 1.042449569702148438e+01 -1.703016459941864014e-01 4.821074381470680237e-02 -3.662727028131484985e-02 3.521096706390380859e-02
4.884000000000000000e+03 2.989710617065429688e+01 4.720308780670166016e+00 9.323688596487045288e-02 2.372465431690216064e-01 9.914502501487731934e-02 -7.211821526288986206e-02
4.885000000000000000e+03 2.918378448486328125e+01 4.035388946533203125e+00 5.118937417864799500e-02 1.652693301439285278e-01 6.493761390447616577e-02 7.703288458287715912e-03
4.886000000000000000e+03 3.389274978637695312e+01 1.118161773681640625e+01 -1.607496291399002075e-01 3.166781365871429443e-02 -3.872454166412353516e-02 -4.580806009471416473e-03
4.887000000000000000e+03 3.371956634521484375e+01 1.181802272796630859e+01 -1.630760133266448975e-01 6.993168499320745468e-03 -4.682485014200210571e-02 -3.869140893220901489e-02
4.888000000000000000e+03 3.250479507446289062e+01 6.781076908111572266e+00 2.513216733932495117e-01 -4.505170881748199463e-02 6.188098713755607605e-02 4.364164173603057861e-02
4.889000000000000000e+03 3.068156051635742188e+01 4.951585769653320312e+00 1.649358123540878296e-01 1.822914481163024902e-01 1.041681766510009766e-01 -1.294473111629486084e-01
4.890000000000000000e+03 4.104067993164062500e+01 1.912152290344238281e+01 -1.813125610351562500e-02 -4.007790703326463699e-03 -6.641714368015527725e-03 -1.052337046712636948e-02
4.891000000000000000e+03 3.230147933959960938e+01 6.046488285064697266e+00 2.527877390384674072e-01 -1.322277914732694626e-02 7.186948508024215698e-02 -2.954919636249542236e-02
4.892000000000000000e+03 2.535145950317382812e+01 -6.381167769432067871e-01 2.275870647281408310e-03 -6.205017678439617157e-03 -1.178744016215205193e-03 1.365137659013271332e-02
4.893000000000000000e+03 3.488669204711914062e+01 1.223087501525878906e+01 -1.150669679045677185e-01 1.343919895589351654e-02 -3.048833087086677551e-02 -2.075390703976154327e-02
4.894000000000000000e+03 3.289597320556640625e+01 8.563575744628906250e+00 -5.074362736195325851e-03 2.118182368576526642e-02 4.832238424569368362e-03 1.512182205915451050e-01
4.895000000000000000e+03 2.816409492492675781e+01 -1.988499164581298828e+00 -1.391405332833528519e-02 2.644250914454460144e-02 3.758536884561181068e-03 3.631223225966095924e-03
4.896000000000000000e+03 2.690740585327148438e+01 -1.352352976799011230e+00 -5.907305516302585602e-03 1.238078996539115906e-02 1.942045288160443306e-03 1.025448646396398544e-02
4.897000000000000000e+03 3.280191802978515625e+01 7.995822906494140625e+00 6.670489907264709473e-02 -1.427997834980487823e-02 1.572747528553009033e-02 1.476708948612213135e-01
4.898000000000000000e+03 2.653376197814941406e+01 -6.868165731430053711e-01 3.655444132164120674e-03 9.434494189918041229e-03 3.926981706172227859e-03 1.045242324471473694e-02
4.899000000000000000e+03 3.121374320983886719e+01 -3.142437934875488281e+00 -1.234204694628715515e-02 4.379033297300338745e-02 9.434485808014869690e-03 -1.472939644008874893e-02
4.900000000000000000e+03 8.249885559082031250e+00 -1.035983276367187500e+01 2.292327350005507469e-03 4.968442022800445557e-03 2.178230788558721542e-03 5.973115563392639160e-03
4.901000000000000000e+03 7.290985107421875000e+01 2.763963127136230469e+01 -6.192729924805462360e-04 -4.013742727693170309e-04 -3.061941824853420258e-04 7.406098302453756332e-04
4.902000000000000000e+03 7.148959350585937500e+01 2.842278861999511719e+01 -7.863887003622949123e-04 -2.714380098041146994e-04 -3.173480217810720205e-04 7.492436561733484268e-04
4.903000000000000000e+03 7.178163909912109375e+01 2.282711791992187500e+01 -9.717003558762371540e-04 -9.364984580315649509e-04 -5.724596558138728142e-04 1.728761242702603340e-03
4.904000000000000000e+03 6.993838500976562500e+01 2.849155807495117188e+01 -1.032519387081265450e-03 -1.937781926244497299e-04 -3.678892971947789192e-04 8.470995817333459854e-04
4.905000000000000000e+03 2.903075981140136719e+01 -2.508458852767944336e+00 -1.631355844438076019e-02 3.339210152626037598e-02 5.123562645167112350e-03 -1.491360366344451904e-03
4.906000000000000000e+03 6.829846191406250000e+01 2.786385154724121094e+01 -1.381053589284420013e-03 -1.109042641473934054e-04 -4.475873720366507769e-04 1.028890488669276237e-03
4.907000000000000000e+03 6.211272430419921875e+01 2.912697601318359375e+01 -2.288423478603363037e-03 3.467157948762178421e-04 -5.825122934766113758e-04 5.177299026399850845e-04
4.908000000000000000e+03 6.284120559692382812e+01 2.834485435485839844e+01 -2.340903738513588905e-03 3.644437529146671295e-04 -5.929379840381443501e-04 7.340735173784196377e-04
4.909000000000000000e+03 5.965328979492187500e+01 2.878088760375976562e+01 -2.768766600638628006e-03 5.887551815249025822e-04 -6.540034082718193531e-04 2.448261948302388191e-04
4.910000000000000000e+03 6.598304748535156250e+01 2.803342437744140625e+01 -1.793275354430079460e-03 8.374314347747713327e-05 -5.128596676513552666e-04 9.922438766807317734e-04
4.911000000000000000e+03 6.448023223876953125e+01 2.887610244750976562e+01 -1.940894755534827709e-03 1.733815734041854739e-04 -5.302539793774485588e-04 7.726627518422901630e-04
4.912000000000000000e+03 7.424452209472656250e+01 2.519455337524414062e+01 -4.790617676917463541e-04 -7.510879077017307281e-04 -3.690449229907244444e-04 9.190477430820465088e-04
4.913000000000000000e+03 6.906967163085937500e+01 2.781187629699707031e+01 -1.245273277163505554e-03 -1.692299119895324111e-04 -4.243509611114859581e-04 1.008061575703322887e-03
4.914000000000000000e+03 7.101952552795410156e+00 -6.422706604003906250e+00 2.925802953541278839e-03 1.650641323067247868e-03 1.372933271341025829e-03 2.771665342152118683e-03
4.915000000000000000e+03 6.984669494628906250e+01 2.775454902648925781e+01 -1.111712423153221607e-03 -2.322043583262711763e-04 -4.031750431749969721e-04 9.862347505986690521e-04
4.916000000000000000e+03 6.204654693603515625e+01 2.843023300170898438e+01 -2.474347827956080437e-03 4.334211989771574736e-04 -6.122779450379312038e-04 6.337359664030373096e-04
4.917000000000000000e+03 6.520538330078125000e+01 2.810331344604492188e+01 -1.933701103553175926e-03 1.516897755209356546e-04 -5.346034304238855839e-04 9.554345742799341679e-04
4.918000000000000000e+03 6.675836181640625000e+01 2.797112083435058594e+01 -1.654592459090054035e-03 1.530914960312657058e-05 -4.917850019410252571e-04 1.021623727865517139e-03
4.919000000000000000e+03 2.454986763000488281e+01 7.549658417701721191e-01 3.075768984854221344e-02 -1.402273681014776230e-02 5.020486190915107727e-03 1.277887914329767227e-02
4.920000000000000000e+03 6.363524246215820312e+01 2.825972366333007812e+01 -2.209505764767527580e-03 2.935096854344010353e-04 -5.747988470830023289e-04 8.250315440818667412e-04
4.921000000000000000e+03 6.044742584228515625e+01 2.863473320007324219e+01 -2.693548100069165230e-03 5.482764099724590778e-04 -6.435815594159066677e-04 3.887432685587555170e-04
4.922000000000000000e+03 6.124748992919921875e+01 2.852179527282714844e+01 -2.587448339909315109e-03 4.951022565364837646e-04 -6.277038482949137688e-04 5.130491335876286030e-04
4.923000000000000000e+03 5.723280334472656250e+01 2.876732063293457031e+01 -3.113799728453159332e-03 7.062026998028159142e-04 -7.222790736705064774e-04 -1.689227647148072720e-04
4.924000000000000000e+03 5.734252929687500000e+01 2.936353302001953125e+01 -2.848318312317132950e-03 5.963678122498095036e-04 -6.755851209163665771e-04 -2.044170541921630502e-04
4.925000000000000000e+03 5.524874114990234375e+01 3.045772552490234375e+01 -2.397653646767139435e-03 3.409922355785965919e-04 -6.169984117150306702e-04 -5.896449438296258450e-04
4.926000000000000000e+03 8.116073608398437500e+00 -1.389325332641601562e+01 3.975321305915713310e-04 7.449155673384666443e-03 2.354006282985210419e-03 6.433731410652399063e-03
4.927000000000000000e+03 5.463949584960937500e+01 3.068674659729003906e+01 -2.257531741634011269e-03 2.555775572545826435e-04 -6.005862378515303135e-04 -6.690298323519527912e-04
4.928000000000000000e+03 5.661393737792968750e+01 2.955426597595214844e+01 -2.809771802276372910e-03 5.593076348304748535e-04 -6.751392502337694168e-04 -3.511887916829437017e-04
4.929000000000000000e+03 1.165579605102539062e+01 -6.920436859130859375e+00 6.994440220296382904e-03 3.954149782657623291e-03 3.284577047452330589e-03 7.412988226860761642e-03
4.930000000000000000e+03 1.026940250396728516e+01 -5.915001392364501953e+00 6.068983115255832672e-03 2.230565529316663742e-03 2.489864593371748924e-03 4.858043510466814041e-03
4.931000000000000000e+03 7.281441497802734375e+01 2.178660774230957031e+01 -7.785073248669505119e-04 -1.233051065355539322e-03 -6.034675170667469501e-04 1.750886091031134129e-03
4.932000000000000000e+03 7.195567321777343750e+01 -1.144375324249267578e+01 4.225718148518353701e-04 -1.129848044365644455e-02 -3.262772457674145699e-03 3.230822971090674400e-03
4.933000000000000000e+03 7.234156799316406250e+01 -1.635132598876953125e+01 3.981523332186043262e-04 -1.288353279232978821e-02 -3.745614085346460342e-03 2.677189651876688004e-03
4.934000000000000000e+03 1.240815830230712891e+01 -7.133366107940673828e+00 7.469219621270895004e-03 6.108901463449001312e-03 4.073436371982097626e-03 9.048142470419406891e-03
4.935000000000000000e+03 1.253405570983886719e+01 -6.291084289550781250e+00 8.603158406913280487e-03 4.200471099466085434e-03 3.841089084744453430e-03 8.195187896490097046e-03
4.936000000000000000e+03 3.219728851318359375e+01 -5.818410396575927734e+00 -1.538164261728525162e-02 3.303728625178337097e-02 5.296693183481693268e-03 -9.423283860087394714e-03
4.937000000000000000e+03 3.226423263549804688e+01 -4.513880729675292969e+00 -1.335073169320821762e-02 3.891965746879577637e-02 7.670677267014980316e-03 -1.456526480615139008e-02
4.938000000000000000e+03 1.457687950134277344e+01 -1.374752521514892578e+01 -1.577346003614366055e-03 1.092952210456132889e-02 2.805653028190135956e-03 7.151148747652769089e-03
4.939000000000000000e+03 1.661129379272460938e+01 -1.749617004394531250e+01 -3.031920408830046654e-03 8.544232696294784546e-03 1.653693732805550098e-03 4.757466260343790054e-03
4.940000000000000000e+03 1.866042709350585938e+01 -1.872476387023925781e+01 -3.063844051212072372e-03 6.263911724090576172e-03 9.600202902220189571e-04 3.655336797237396240e-03
4.941000000000000000e+03 1.869232177734375000e+01 -1.589154243469238281e+01 -3.017595736309885979e-03 7.769934367388486862e-03 1.425701542757451534e-03 3.101988229900598526e-03
4.942000000000000000e+03 1.410542964935302734e+01 -7.594548225402832031e+00 6.872862577438354492e-03 1.111625507473945618e-02 5.396735388785600662e-03 1.153115741908550262e-02
4.943000000000000000e+03 7.679845809936523438e+00 -1.942320632934570312e+01 -8.286144002340734005e-04 9.554599411785602570e-03 2.617795718833804131e-03 5.240197293460369110e-03
4.944000000000000000e+03 7.225833129882812500e+01 1.358963584899902344e+01 -7.030599517747759819e-04 -3.268991829827427864e-03 -1.191615476273000240e-03 3.447917755693197250e-03
4.945000000000000000e+03 7.196130371093750000e+01 1.024219322204589844e+01 -5.225148634053766727e-04 -4.290663637220859528e-03 -1.443953486159443855e-03 4.043222405016422272e-03
4.946000000000000000e+03 1.900956344604492188e+01 -2.204230690002441406e+01 -3.032385837286710739e-03 4.597302526235580444e-03 4.694749659392982721e-04 3.712734440341591835e-03
4.947000000000000000e+03 3.506232833862304688e+01 -6.103229522705078125e+00 -6.175314541906118393e-03 3.310650959610939026e-02 8.079358376562595367e-03 -1.656143926084041595e-02
4.948000000000000000e+03 3.302897262573242188e+01 -4.008357048034667969e+00 -8.247403427958488464e-03 4.031355679035186768e-02 9.619846008718013763e-03 -1.958160661160945892e-02
4.949000000000000000e+03 4.656031799316406250e+01 -2.415882682800292969e+01 3.217503195628523827e-03 3.021468780934810638e-02 1.002965681254863739e-02 -6.705496925860643387e-03
4.950000000000000000e+03 7.261824035644531250e+01 2.057647514343261719e+01 -8.327007526531815529e-04 -1.454984303563833237e-03 -6.863055168651044369e-04 2.032587537541985512e-03
4.951000000000000000e+03 3.956330490112304688e+01 -1.270605373382568359e+01 -3.967607699451036751e-05 2.553267963230609894e-02 7.647900842130184174e-03 -1.028601452708244324e-02
4.952000000000000000e+03 3.863609313964843750e+01 -9.700629234313964844e+00 -1.243105740286409855e-03 2.631625346839427948e-02 7.521944586187601089e-03 -1.240063738077878952e-02
4.953000000000000000e+03 1.387728214263916016e+01 -8.618213653564453125e+00 4.409146495163440704e-03 1.059074420481920242e-02 4.499967209994792938e-03 1.037365943193435669e-02
4.954000000000000000e+03 7.279687500000000000e+01 -2.251011657714843750e+01 4.347523790784180164e-04 -1.480132341384887695e-02 -4.309971351176500320e-03 1.962118083611130714e-03
4.955000000000000000e+03 7.181283569335937500e+01 -2.358158302307128906e+01 5.102616269141435623e-04 -1.328850910067558289e-02 -3.833474125713109970e-03 2.016745973378419876e-03
4.956000000000000000e+03 7.217406463623046875e+01 -1.877501106262207031e+01 4.403373750392347574e-04 -1.302018482238054276e-02 -3.773954231292009354e-03 2.519260859116911888e-03
4.957000000000000000e+03 7.240339660644531250e+01 1.598741531372070312e+01 -7.921588839963078499e-04 -2.552138641476631165e-03 -1.003289246000349522e-03 2.987698186188936234e-03
4.958000000000000000e+03 7.120368194580078125e+01 -7.499731063842773438e+00 5.407062708400189877e-04 -9.404971264302730560e-03 -2.659279387444257736e-03 3.860738594084978104e-03
4.959000000000000000e+03 7.181486511230468750e+01 -1.011859035491943359e+01 4.898414481431245804e-04 -1.084331981837749481e-02 -3.106043441221117973e-03 3.418070264160633087e-03
4.960000000000000000e+03 7.231005859375000000e+01 -1.423056125640869141e-01 2.253685524920001626e-04 -8.372513577342033386e-03 -2.444143407046794891e-03 4.153355490416288376e-03
4.961000000000000000e+03 7.235092163085937500e+01 9.059425354003906250e+00 -4.189678875263780355e-04 -4.901239182800054550e-03 -1.596062094904482365e-03 3.981620538979768753e-03
4.962000000000000000e+03 7.185640716552734375e+01 3.459836959838867188e+00 7.472432571375975385e-06 -6.692472845315933228e-03 -2.005500253289937973e-03 4.458711016923189163e-03
4.963000000000000000e+03 7.230185699462890625e+01 7.997558116912841797e+00 -3.201762156095355749e-04 -5.266215652227401733e-03 -1.675917534157633781e-03 4.127855412662029266e-03
4.964000000000000000e+03 7.221141815185546875e+01 2.218042135238647461e+00 9.233928722096607089e-05 -7.462838664650917053e-03 -2.211149781942367554e-03 4.269511904567480087e-03
4.965000000000000000e+03 7.128318786621093750e+01 -3.540388584136962891e+00 4.474007582757622004e-04 -8.482505567371845245e-03 -2.410531509667634964e-03 4.258861299604177475e-03
4.966000000000000000e+03 7.233289337158203125e+01 1.026409864425659180e+00 1.358619192615151405e-04 -7.970540784299373627e-03 -2.350403694435954094e-03 4.206858575344085693e-03
4.967000000000000000e+03 7.168868255615234375e+01 -5.524605751037597656e+00 4.360046586953103542e-04 -9.554176591336727142e-03 -2.735451562330126762e-03 3.915620967745780945e-03
4.968000000000000000e+03 7.173006439208984375e+01 -1.992308616638183594e+01 5.634654080495238304e-04 -1.244276016950607300e-02 -3.563788253813982010e-03 2.470922656357288361e-03
4.969000000000000000e+03 7.105406951904296875e+01 -1.424386978149414062e+01 5.583281745202839375e-04 -1.065568905323743820e-02 -3.029208164662122726e-03 3.132164245471358299e-03
4.970000000000000000e+03 6.965834140777587891e+00 -1.677926635742187500e+01 -3.076402063015848398e-04 8.427365683019161224e-03 2.435917733237147331e-03 5.403854884207248688e-03
4.971000000000000000e+03 1.260630798339843750e+01 -9.126290321350097656e+00 3.907556645572185516e-03 8.462897501885890961e-03 3.711136290803551674e-03 9.300474077463150024e-03
4.972000000000000000e+03 3.818133544921875000e+01 -1.186747932434082031e+01 -1.085570082068443298e-03 2.601115219295024872e-02 7.477674633264541626e-03 -1.032253634184598923e-02
4.973000000000000000e+03 3.893169021606445312e+01 -1.062585735321044922e+01 -9.134665015153586864e-04 2.608628757297992706e-02 7.551846094429492950e-03 -1.163242850452661514e-02
4.974000000000000000e+03 6.798608398437500000e+01 -2.956898307800292969e+01 1.263252808712422848e-03 -6.075264886021614075e-03 -1.443603541702032089e-03 1.132927834987640381e-03
4.975000000000000000e+03 7.282779693603515625e+01 -2.816185951232910156e+01 4.918249906040728092e-04 -1.560456678271293640e-02 -4.533822648227214813e-03 1.279289135709404945e-03
4.976000000000000000e+03 7.419949340820312500e+01 2.420213508605957031e+01 -5.339841009117662907e-04 -9.029880166053771973e-04 -4.310916410759091377e-04 1.104696071706712246e-03
4.977000000000000000e+03 7.902163028717041016e+00 -8.412357330322265625e+00 3.424717346206307411e-03 3.275817260146141052e-03 2.010160358622670174e-03 4.848499316722154617e-03
4.978000000000000000e+03 1.436957836151123047e+01 -1.009805488586425781e+01 1.478513237088918686e-03 1.243714801967144012e-02 4.174698609858751297e-03 9.566309861838817596e-03
4.979000000000000000e+03 1.530933952331542969e+01 -1.070127964019775391e+01 5.022992845624685287e-04 1.366083789616823196e-02 4.248941317200660706e-03 8.652724325656890869e-03
4.980000000000000000e+03 3.814957809448242188e+01 -8.924294471740722656e+00 -1.556269242428243160e-03 2.711544185876846313e-02 7.667751517146825790e-03 -1.318404637277126312e-02
4.981000000000000000e+03 7.283454132080078125e+01 2.299740982055664062e+01 -7.693752995692193508e-04 -1.009286963380873203e-03 -5.335987079888582230e-04 1.519624493084847927e-03
4.982000000000000000e+03 1.371004962921142578e+01 -1.110004997253417969e+01 1.178043661639094353e-03 1.104867644608020782e-02 3.668016055598855019e-03 8.983063511550426483e-03
4.983000000000000000e+03 7.416989898681640625e+01 2.690814399719238281e+01 -4.732596862595528364e-04 -4.994175396859645844e-04 -2.918031823355704546e-04 6.919300067238509655e-04
4.984000000000000000e+03 4.485148620605468750e+01 -2.182202720642089844e+01 3.000904573127627373e-03 2.879591844975948334e-02 9.539046324789524078e-03 -8.770184591412544250e-03
4.985000000000000000e+03 4.408779144287109375e+01 -2.067902565002441406e+01 2.589513547718524933e-03 2.814549021422863007e-02 9.220500476658344269e-03 -9.246103465557098389e-03
4.986000000000000000e+03 1.503436183929443359e+01 -6.658220767974853516e+00 9.377283975481987000e-03 1.411150861531496048e-02 7.046637590974569321e-03 1.347356755286455154e-02
4.987000000000000000e+03 2.075499725341796875e+01 -2.225867652893066406e+01 -2.712152898311614990e-03 2.788186771795153618e-03 2.281015258631668985e-05 3.297861199826002121e-03
4.988000000000000000e+03 2.209140014648437500e+01 -2.502386093139648438e+01 -3.265306353569030762e-03 6.199614726938307285e-04 -7.936034817248582840e-04 3.576570656150579453e-03
4.989000000000000000e+03 7.909237384796142578e+00 -1.769329833984375000e+01 -7.649240433238446712e-04 9.022297337651252747e-03 2.477212110534310341e-03 5.763626657426357269e-03
4.990000000000000000e+03 3.762064743041992188e+01 -8.012108802795410156e+00 -2.265997463837265968e-03 2.805273234844207764e-02 7.736020255833864212e-03 -1.447298191487789154e-02
4.991000000000000000e+03 3.483819580078125000e+01 -5.253646850585937500e+00 -5.092955660074949265e-03 3.505384176969528198e-02 8.988265879452228546e-03 -1.961966231465339661e-02
4.992000000000000000e+03 4.191815948486328125e+01 -1.762212371826171875e+01 2.606841968372464180e-03 2.613880299031734467e-02 8.623693138360977173e-03 -9.690941311419010162e-03
4.993000000000000000e+03 4.354086685180664062e+01 -1.769471549987792969e+01 2.174376975744962692e-03 2.569392323493957520e-02 8.360490202903747559e-03 -8.715170435607433319e-03
4.994000000000000000e+03 3.425096893310546875e+01 -5.909713745117187500e+00 -8.990849368274211884e-03 3.439108282327651978e-02 7.620070129632949829e-03 -1.597411558032035828e-02
4.995000000000000000e+03 8.712982177734375000e+00 -1.685918998718261719e+01 -7.544888067059218884e-04 8.778172545135021210e-03 2.407105173915624619e-03 6.048716604709625244e-03
4.996000000000000000e+03 7.786082267761230469e+00 -1.576756954193115234e+01 -2.849513839464634657e-04 8.217793889343738556e-03 2.379852579906582832e-03 6.048022303730249405e-03
4.997000000000000000e+03 2.086495590209960938e+01 -2.884233856201171875e+01 -3.494714386761188507e-03 2.114855218678712845e-03 -4.139577213209122419e-04 3.700576256960630417e-03
4.998000000000000000e+03 8.795285224914550781e+00 -2.163395500183105469e+01 -1.197482226416468620e-03 9.892011992633342743e-03 2.608358860015869141e-03 4.960422404110431671e-03
4.999000000000000000e+03 7.092108249664306641e+00 -2.245641326904296875e+01 -9.991086553782224655e-04 1.052394509315490723e-02 2.857450861483812332e-03 4.420562181621789932e-03
5.000000000000000000e+03 6.839211273193359375e+01 -3.416363143920898438e+01 9.660132927820086479e-04 -6.732317619025707245e-03 -1.729891286231577396e-03 7.627626182511448860e-04
5.001000000000000000e+03 5.088830947875976562e+01 -2.913549423217773438e+01 5.779481027275323868e-03 2.701413072645664215e-02 9.838083758950233459e-03 -2.620127983391284943e-03
5.002000000000000000e+03 7.084957122802734375e+01 -2.785705375671386719e+01 7.336697308346629143e-04 -1.176274195313453674e-02 -3.308721585199236870e-03 1.558280666358768940e-03
5.003000000000000000e+03 1.944333076477050781e+01 -3.041678047180175781e+01 -3.716822713613510132e-03 3.337656613439321518e-03 -1.137498038588091731e-04 3.214261727407574654e-03
5.004000000000000000e+03 2.093908691406250000e+01 -3.219155120849609375e+01 -3.863280871883034706e-03 2.371303504332900047e-03 -4.475931928027421236e-04 3.212472191080451012e-03
5.005000000000000000e+03 7.342564392089843750e+01 -3.608339130878448486e-01 1.511797163402661681e-04 -9.338124655187129974e-03 -2.756083616986870766e-03 3.726274706423282623e-03
5.006000000000000000e+03 7.327890014648437500e+01 6.487602233886718750e+00 -1.674238010309636593e-04 -6.342348176985979080e-03 -1.952931634150445461e-03 3.828078974038362503e-03
5.007000000000000000e+03 7.340980529785156250e+01 1.334758377075195312e+01 -5.463323323056101799e-04 -3.658006666228175163e-03 -1.261301687918603420e-03 3.124290844425559044e-03
5.008000000000000000e+03 2.541643905639648438e+01 1.512170433998107910e+00 4.566863551735877991e-02 -7.672887295484542847e-03 1.139872428029775620e-02 1.440589036792516708e-02
5.009000000000000000e+03 2.791045570373535156e+01 1.157099008560180664e+00 2.736574411392211914e-02 4.236629605293273926e-02 2.091961167752742767e-02 1.282399334013462067e-02
5.010000000000000000e+03 2.595714187622070312e+01 2.530191421508789062e+00 5.776452645659446716e-02 -5.542829167097806931e-03 1.566650904715061188e-02 1.786816678941249847e-02
5.011000000000000000e+03 2.637979698181152344e+01 2.290011405944824219e+00 5.381717160344123840e-02 3.494584700092673302e-03 1.719352602958679199e-02 2.029814198613166809e-02
5.012000000000000000e+03 2.561958885192871094e+01 2.069454669952392578e+00 5.251486599445343018e-02 -7.071700412780046463e-03 1.363294944167137146e-02 1.529404148459434509e-02
5.013000000000000000e+03 2.613102149963378906e+01 2.201846361160278320e+00 5.273917689919471741e-02 -7.698378758504986763e-04 1.559080090373754501e-02 1.777742430567741394e-02
5.014000000000000000e+03 3.424440383911132812e+01 1.151617622375488281e+01 -1.465187668800354004e-01 1.821214146912097931e-02 -3.849198669195175171e-02 -1.046427525579929352e-02
5.015000000000000000e+03 4.037782669067382812e+01 1.800548362731933594e+01 -2.328500896692276001e-02 -3.301689634099602699e-03 -7.976009510457515717e-03 -1.199365779757499695e-02
5.016000000000000000e+03 4.135158920288085938e+01 1.918313217163085938e+01 -1.769029349088668823e-02 -3.159508109092712402e-03 -6.254940293729305267e-03 -1.019233651459217072e-02
5.017000000000000000e+03 4.945655822753906250e+01 2.613502120971679688e+01 -5.428258795291185379e-03 -2.150040818378329277e-04 -1.692978781647980213e-03 -2.234673826023936272e-03
5.018000000000000000e+03 4.688194656372070312e+01 2.570787429809570312e+01 -5.609209183603525162e-03 -1.727812807075679302e-03 -2.201106632128357887e-03 -3.554364899173378944e-03
5.019000000000000000e+03 2.481475448608398438e+01 1.268197178840637207e+00 4.122560471296310425e-02 -1.199310179799795151e-02 8.769750595092773438e-03 1.284823194146156311e-02
5.020000000000000000e+03 3.948585510253906250e+01 1.725983810424804688e+01 -2.799956500530242920e-02 -4.282908979803323746e-03 -9.684742428362369537e-03 -1.393443625420331955e-02
5.021000000000000000e+03 4.020368957519531250e+01 1.772383880615234375e+01 -2.436147816479206085e-02 -2.922545652836561203e-03 -8.185206912457942963e-03 -1.233439054340124130e-02
5.022000000000000000e+03 4.238415908813476562e+01 1.958967399597167969e+01 -1.649044454097747803e-02 -2.043508691713213921e-03 -5.560185760259628296e-03 -8.010803721845149994e-03
5.023000000000000000e+03 3.638981246948242188e+01 1.413152313232421875e+01 -6.641364097595214844e-02 -5.012912675738334656e-03 -2.142796665430068970e-02 -2.428832463920116425e-02
5.024000000000000000e+03 4.415820693969726562e+01 2.168734359741210938e+01 -1.161270402371883392e-02 -1.850783708505332470e-03 -4.039046354591846466e-03 -5.870802327990531921e-03
5.025000000000000000e+03 4.036680603027343750e+01 1.910507774353027344e+01 -1.753516867756843567e-02 -5.515324883162975311e-03 -6.915147881954908371e-03 -1.210847962647676468e-02
5.026000000000000000e+03 4.393236541748046875e+01 2.145580291748046875e+01 -1.222393661737442017e-02 -2.003985689952969551e-03 -4.268376622349023819e-03 -6.065693218261003494e-03
5.027000000000000000e+03 4.671766281127929688e+01 2.441454887390136719e+01 -7.428927347064018250e-03 -1.105800853110849857e-03 -2.560418564826250076e-03 -3.721810644492506981e-03
5.028000000000000000e+03 4.442153167724609375e+01 2.190010261535644531e+01 -1.139430701732635498e-02 -1.761864987201988697e-03 -3.946851473301649094e-03 -5.526444874703884125e-03
5.029000000000000000e+03 2.757133865356445312e+01 3.078923225402832031e+00 5.689698830246925354e-02 3.931006789207458496e-02 2.886211685836315155e-02 3.280250355601310730e-02
5.030000000000000000e+03 5.454173660278320312e+01 2.981455230712890625e+01 -2.734868088737130165e-03 3.748387680388987064e-04 -7.080088253132998943e-04 -7.206439622677862644e-04
5.031000000000000000e+03 4.268252944946289062e+01 2.069839286804199219e+01 -1.359994802623987198e-02 -3.099819878116250038e-03 -5.009930580854415894e-03 -7.608356885612010956e-03
5.032000000000000000e+03 4.375003433227539062e+01 2.118848228454589844e+01 -1.258400361984968185e-02 -1.893511740490794182e-03 -4.343254491686820984e-03 -6.332696415483951569e-03
5.033000000000000000e+03 4.003475570678710938e+01 1.742903518676757812e+01 -2.654642984271049500e-02 -2.785379532724618912e-03 -8.799542672932147980e-03 -1.252061687409877777e-02
5.034000000000000000e+03 5.144707870483398438e+01 2.890205764770507812e+01 -3.155444981530308723e-03 -1.852509012678638101e-04 -1.002208795398473740e-03 -1.393034006468951702e-03
5.035000000000000000e+03 3.677367782592773438e+01 1.461872577667236328e+01 -5.574102327227592468e-02 -6.429514847695827484e-03 -1.865116134285926819e-02 -2.408497221767902374e-02
5.036000000000000000e+03 4.461083602905273438e+01 2.217291259765625000e+01 -1.080077234655618668e-02 -1.745232380926609039e-03 -3.763801418244838715e-03 -5.371005740016698837e-03
5.037000000000000000e+03 4.490890121459960938e+01 2.253768920898437500e+01 -1.017207931727170944e-02 -1.819456345401704311e-03 -3.597460687160491943e-03 -5.065276287496089935e-03
5.038000000000000000e+03 5.205044174194335938e+01 2.888307571411132812e+01 -3.221044084057211876e-03 2.053068419627379626e-05 -9.601540514267981052e-04 -1.261702855117619038e-03
5.039000000000000000e+03 3.310168457031250000e+01 1.028617191314697266e+01 -2.073643058538436890e-01 4.122123122215270996e-02 -4.984292387962341309e-02 3.205010294914245605e-02
5.040000000000000000e+03 3.317871475219726562e+01 9.735534667968750000e+00 -1.612115502357482910e-01 5.765258148312568665e-02 -3.106768988072872162e-02 8.357972651720046997e-02
5.041000000000000000e+03 3.751033782958984375e+01 1.527528572082519531e+01 -4.618097096681594849e-02 -6.559320725500583649e-03 -1.582208648324012756e-02 -2.031930163502693176e-02
5.042000000000000000e+03 5.058798217773437500e+01 2.813837623596191406e+01 -3.705382114276289940e-03 -3.492045216262340546e-04 -1.216375967487692833e-03 -1.678096596151590347e-03
5.043000000000000000e+03 3.789673995971679688e+01 1.559838676452636719e+01 -4.214206710457801819e-02 -5.452688317745923996e-03 -1.427842676639556885e-02 -1.890547201037406921e-02
5.044000000000000000e+03 3.792446136474609375e+01 1.527341747283935547e+01 -4.468369111418724060e-02 -2.475289162248373032e-03 -1.414769422262907028e-02 -1.794282905757427216e-02
5.045000000000000000e+03 3.801533889770507812e+01 1.587302112579345703e+01 -4.037850722670555115e-02 -6.010607816278934479e-03 -1.391673460602760315e-02 -1.901805028319358826e-02
5.046000000000000000e+03 5.005599975585937500e+01 2.763427734375000000e+01 -4.105419851839542389e-03 -4.458830517251044512e-04 -1.365390839055180550e-03 -1.900261733680963516e-03
5.047000000000000000e+03 5.177663803100585938e+01 2.806353759765625000e+01 -3.857405623421072960e-03 1.316196285188198090e-04 -1.117735868319869041e-03 -1.357534085400402546e-03
5.048000000000000000e+03 4.230327987670898438e+01 1.996234321594238281e+01 -1.535492576658725739e-02 -2.647911431267857552e-03 -5.400851368904113770e-03 -8.319086395204067230e-03
5.049000000000000000e+03 4.578950119018554688e+01 2.347400856018066406e+01 -8.786657825112342834e-03 -1.464561908505856991e-03 -3.075365675613284111e-03 -4.422832746058702469e-03
5.050000000000000000e+03 4.666111755371093750e+01 2.398159217834472656e+01 -7.967093028128147125e-03 -9.513581753708422184e-04 -2.675535390153527260e-03 -3.754425793886184692e-03
5.051000000000000000e+03 4.948126602172851562e+01 2.670597076416015625e+01 -4.901704378426074982e-03 -4.224345320835709572e-04 -1.597241731360554695e-03 -2.189600374549627304e-03
5.052000000000000000e+03 3.868786621093750000e+01 1.679688072204589844e+01 -3.079133480787277222e-02 -6.248987279832363129e-03 -1.111209671944379807e-02 -1.667265221476554871e-02
5.053000000000000000e+03 3.988452911376953125e+01 1.711868667602539062e+01 -2.791284024715423584e-02 -2.270566532388329506e-03 -9.055022150278091431e-03 -1.277128513902425766e-02
5.054000000000000000e+03 3.451819992065429688e+01 1.208209133148193359e+01 -1.286949366331100464e-01 7.491155061870813370e-03 -3.636113554239273071e-02 -2.374971844255924225e-02
5.055000000000000000e+03 4.982382965087890625e+01 2.739266014099121094e+01 -4.260812420397996902e-03 -4.474202578421682119e-04 -1.412469777278602123e-03 -1.990631688386201859e-03
5.056000000000000000e+03 4.322889328002929688e+01 2.105699157714843750e+01 -1.279520988464355469e-02 -2.531218575313687325e-03 -4.597928375005722046e-03 -6.931471172720193863e-03
5.057000000000000000e+03 5.117208862304687500e+01 2.811037635803222656e+01 -3.776592435315251350e-03 -1.013383589452132583e-04 -1.163379289209842682e-03 -1.521875848993659019e-03
5.058000000000000000e+03 2.856312179565429688e+01 3.849555730819702148e+00 5.448206514120101929e-02 1.128692328929901123e-01 5.020539090037345886e-02 3.607489913702011108e-02
5.059000000000000000e+03 2.954643821716308594e+01 4.110684394836425781e+00 5.451606959104537964e-02 1.912835240364074707e-01 7.373987883329391479e-02 -2.039022371172904968e-02
5.060000000000000000e+03 4.978569030761718750e+01 2.691804504394531250e+01 -4.690148402005434036e-03 -3.303142439108341932e-04 -1.506138825789093971e-03 -2.087087836116552353e-03
5.061000000000000000e+03 5.087198638916015625e+01 2.788257217407226562e+01 -3.916126210242509842e-03 -1.353825500700622797e-04 -1.215452677570283413e-03 -1.626046141609549522e-03
5.062000000000000000e+03 2.872410964965820312e+01 3.499366283416748047e+00 4.701361060142517090e-02 1.167462766170501709e-01 4.912796616554260254e-02 2.527100220322608948e-02
5.063000000000000000e+03 3.309087753295898438e+01 9.148618698120117188e+00 -1.011824160814285278e-01 3.706327453255653381e-02 -1.923574134707450867e-02 1.277268975973129272e-01
5.064000000000000000e+03 3.866780853271484375e+01 1.540435886383056641e+01 -4.153142124414443970e-02 1.071567996405065060e-03 -1.213795598596334457e-02 -1.380540709942579269e-02
5.065000000000000000e+03 4.834605407714843750e+01 2.638457489013671875e+01 -5.077417939901351929e-03 -9.728212608024477959e-04 -1.815071795135736465e-03 -2.705516759306192398e-03
5.066000000000000000e+03 4.764928054809570312e+01 2.621923065185546875e+01 -5.096749402582645416e-03 -1.411190605722367764e-03 -1.952382037416100502e-03 -3.029794432222843170e-03
5.067000000000000000e+03 4.714213180541992188e+01 2.565210723876953125e+01 -5.758716259151697159e-03 -1.498097553849220276e-03 -2.177044050768017769e-03 -3.420602995902299881e-03
5.068000000000000000e+03 4.551475143432617188e+01 2.302216529846191406e+01 -9.439691901206970215e-03 -1.432546414434909821e-03 -3.261671401560306549e-03 -4.631217569112777710e-03
5.069000000000000000e+03 4.230793762207031250e+01 2.031398391723632812e+01 -1.435292977839708328e-02 -3.308666869997978210e-03 -5.298478994518518448e-03 -8.186851628124713898e-03
5.070000000000000000e+03 4.268725585937500000e+01 2.030500030517578125e+01 -1.458268426358699799e-02 -2.484772121533751488e-03 -5.120236892253160477e-03 -7.686121854931116104e-03
5.071000000000000000e+03 3.854085540771484375e+01 1.571002101898193359e+01 -3.982523456215858459e-02 -2.634108997881412506e-03 -1.273780316114425659e-02 -1.544876676052808762e-02
5.072000000000000000e+03 3.880200576782226562e+01 1.627676773071289062e+01 -3.466236591339111328e-02 -3.222027793526649475e-03 -1.136531773954629898e-02 -1.558796409517526627e-02
5.073000000000000000e+03 3.931707000732421875e+01 1.690668678283691406e+01 -2.979557774960994720e-02 -3.500788239762187004e-03 -9.988909587264060974e-03 -1.446437276899814606e-02
5.074000000000000000e+03 2.970964050292968750e+01 4.321428298950195312e+00 6.408815085887908936e-02 2.050829976797103882e-01 8.075134456157684326e-02 -3.559714928269386292e-02
5.075000000000000000e+03 2.388181877136230469e+01 8.807811737060546875e-01 3.593463450670242310e-02 -1.475455705076456070e-02 6.354022771120071411e-03 1.644015125930309296e-02
5.076000000000000000e+03 2.419686508178710938e+01 1.837958768010139465e-02 1.349891349673271179e-02 -1.858149096369743347e-02 -1.524773426353931427e-03 1.393982302397489548e-02
5.077000000000000000e+03 4.524309158325195312e+01 2.256362724304199219e+01 -1.015303470194339752e-02 -1.377184176817536354e-03 -3.459065686911344528e-03 -4.869945347309112549e-03
5.078000000000000000e+03 3.412230300903320312e+01 1.189511394500732422e+01 -1.437962651252746582e-01 1.451874710619449615e-02 -3.878325223922729492e-02 -2.757408469915390015e-02
5.079000000000000000e+03 4.617549133300781250e+01 2.353379249572753906e+01 -8.658320643007755280e-03 -1.164863817393779755e-03 -2.946955384686589241e-03 -4.065245855599641800e-03
5.080000000000000000e+03 3.341248703002929688e+01 7.100558757781982422e+00 1.463535577058792114e-01 -3.739361837506294250e-02 3.268798068165779114e-02 8.398322016000747681e-02
5.081000000000000000e+03 5.376367568969726562e+01 3.021763610839843750e+01 -2.477093134075403214e-03 1.924699317896738648e-04 -6.853869417682290077e-04 -8.318501641042530537e-04
5.082000000000000000e+03 5.312750244140625000e+01 3.073236465454101562e+01 -2.076685195788741112e-03 -7.063862540235277265e-06 -6.251247250474989414e-04 -8.677222067490220070e-04
5.083000000000000000e+03 5.254843139648437500e+01 2.934352493286132812e+01 -2.945160493254661560e-03 8.075450750766322017e-05 -8.593217935413122177e-04 -1.103835063986480236e-03
5.084000000000000000e+03 5.245062637329101562e+01 2.859735107421875000e+01 -3.470310010015964508e-03 1.998324878513813019e-04 -9.811432100832462311e-04 -1.165896188467741013e-03
5.085000000000000000e+03 2.920767784118652344e+01 4.795022010803222656e+00 6.403014063835144043e-02 2.386297285556793213e-01 9.079796075820922852e-02 3.400809131562709808e-03
5.086000000000000000e+03 4.039706039428710938e+01 1.956121253967285156e+01 -1.558341179043054581e-02 -6.143569946289062500e-03 -6.518094334751367569e-03 -1.170882117003202438e-02
5.087000000000000000e+03 3.375537109375000000e+01 9.884223937988281250e+00 -1.347854882478713989e-01 3.823065757751464844e-02 -2.896645106375217438e-02 7.242111861705780029e-02
5.088000000000000000e+03 4.061192321777343750e+01 1.929167366027832031e+01 -1.741985976696014404e-02 -5.429179873317480087e-03 -6.854711566120386124e-03 -1.124207209795713425e-02
5.089000000000000000e+03 4.039853668212890625e+01 1.867843055725097656e+01 -1.955209672451019287e-02 -4.623806104063987732e-03 -7.252770476043224335e-03 -1.214699167758226395e-02
5.090000000000000000e+03 3.445560455322265625e+01 1.060169219970703125e+01 -1.238033249974250793e-01 3.718151897192001343e-02 -2.598654106259346008e-02 3.453401103615760803e-02
5.091000000000000000e+03 2.358534622192382812e+01 -2.091390341520309448e-01 9.547824040055274963e-03 -2.260633371770381927e-02 -3.917552530765533447e-03 1.828162558376789093e-02
5.092000000000000000e+03 3.178535842895507812e+01 4.908344268798828125e+00 1.921113580465316772e-01 7.114059478044509888e-02 7.897558808326721191e-02 -9.470863640308380127e-02
5.093000000000000000e+03 4.162697219848632812e+01 2.004986763000488281e+01 -1.479051075875759125e-02 -4.193972330540418625e-03 -5.695344880223274231e-03 -9.425717405974864960e-03
5.094000000000000000e+03 3.283569335937500000e+01 7.451838970184326172e+00 1.486542075872421265e-01 -3.067947365343570709e-02 3.539241850376129150e-02 1.232777014374732971e-01
5.095000000000000000e+03 3.422854995727539062e+01 1.013209247589111328e+01 -1.188196837902069092e-01 3.875072300434112549e-02 -2.402069047093391418e-02 5.202183127403259277e-02
5.096000000000000000e+03 3.409507751464843750e+01 1.054048538208007812e+01 -1.442666649818420410e-01 3.193889185786247253e-02 -3.369833156466484070e-02 3.215003013610839844e-02
5.097000000000000000e+03 3.259145355224609375e+01 5.571115970611572266e+00 2.138518393039703369e-01 3.520129015669226646e-03 6.521159410476684570e-02 -4.213965684175491333e-02
5.098000000000000000e+03 3.302827072143554688e+01 5.823681354522705078e+00 2.013177722692489624e-01 -2.049200981855392456e-02 5.424772575497627258e-02 -1.481660362333059311e-02
5.099000000000000000e+03 2.949837303161621094e+01 -1.612091422080993652e+00 -8.480651304125785828e-03 4.504099860787391663e-02 1.096810493618249893e-02 -7.079937960952520370e-03
5.100000000000000000e+03 3.562487792968750000e+01 1.276119518280029297e+01 -9.159651398658752441e-02 3.757813014090061188e-03 -2.635161019861698151e-02 -1.847289130091667175e-02
5.101000000000000000e+03 2.701617813110351562e+01 -8.051131963729858398e-01 -1.154605415649712086e-03 1.736522093415260315e-02 4.863184411078691483e-03 9.546958841383457184e-03
5.102000000000000000e+03 2.752558135986328125e+01 -8.364070057868957520e-01 1.085255993530154228e-03 2.460484020411968231e-02 7.707028649747371674e-03 7.833614014089107513e-03
5.103000000000000000e+03 2.810585212707519531e+01 -1.348329424858093262e+00 -6.821114104241132736e-03 3.156593069434165955e-02 7.423444651067256927e-03 4.793968517333269119e-03
5.104000000000000000e+03 4.818409347534179688e+01 2.585336494445800781e+01 -5.698901601135730743e-03 -8.349905838258564472e-04 -1.960167661309242249e-03 -2.851449418812990189e-03
5.105000000000000000e+03 3.647879791259765625e+01 1.375124454498291016e+01 -6.891647726297378540e-02 2.022221218794584274e-03 -2.006827853620052338e-02 -1.935196109116077423e-02
5.106000000000000000e+03 2.497028541564941406e+01 -2.187246531248092651e-01 9.174454025924205780e-03 -1.185463834553956985e-02 -8.040551911108195782e-04 1.246436685323715210e-02
5.107000000000000000e+03 2.568766021728515625e+01 -2.188699543476104736e-01 1.063634641468524933e-02 -2.148753497749567032e-03 2.546277828514575958e-03 1.209452375769615173e-02
5.108000000000000000e+03 3.275566864013671875e+01 6.279359340667724609e+00 2.272299230098724365e-01 -2.768599800765514374e-02 5.986317619681358337e-02 8.284530602395534515e-03
5.109000000000000000e+03 3.298091506958007812e+01 6.951561450958251953e+00 1.962991505861282349e-01 -4.411016032099723816e-02 4.565669968724250793e-02 7.511315494775772095e-02
5.110000000000000000e+03 5.411592102050781250e+01 3.086015129089355469e+01 -2.083650790154933929e-03 1.442828506696969271e-04 -5.818103672936558723e-04 -7.304502651095390320e-04
5.111000000000000000e+03 5.287641525268554688e+01 2.986261749267578125e+01 -2.630192786455154419e-03 6.379354454111307859e-05 -7.699197740294039249e-04 -1.014423905871808529e-03
5.112000000000000000e+03 3.097804641723632812e+01 -1.553389787673950195e+00 -3.843412501737475395e-03 5.394615605473518372e-02 1.503082271665334702e-02 -1.961586438119411469e-02
5.113000000000000000e+03 7.365844249725341797e+00 -9.026891708374023438e+00 2.462897216901183128e-03 3.585991449654102325e-03 1.814666669815778732e-03 4.634658340364694595e-03
5.114000000000000000e+03 7.723861217498779297e+00 -7.084574222564697266e+00 3.551437985152006149e-03 2.209768863394856453e-03 1.728362054564058781e-03 3.762937616556882858e-03
5.115000000000000000e+03 7.197891235351562500e+01 2.580176544189453125e+01 -8.447277359664440155e-04 -5.445585702545940876e-04 -4.167858860455453396e-04 1.132883131504058838e-03
5.116000000000000000e+03 6.752907562255859375e+01 2.791559600830078125e+01 -1.515918411314487457e-03 -4.709694985649548471e-05 -4.689046181738376617e-04 1.027001417241990566e-03
5.117000000000000000e+03 6.745676422119140625e+01 2.719471359252929688e+01 -1.610293984413146973e-03 -5.054796929471194744e-05 -4.982525715604424477e-04 1.170534058474004269e-03
5.118000000000000000e+03 9.510998725891113281e+00 -7.428595066070556641e+00 4.654494114220142365e-03 3.041751449927687645e-03 2.308873692527413368e-03 5.405009258538484573e-03
5.119000000000000000e+03 8.308689117431640625e+00 -6.632812500000000000e+00 3.840992460027337074e-03 2.101056743413209915e-03 1.782614854164421558e-03 3.716292325407266617e-03
5.120000000000000000e+03 7.254369354248046875e+01 2.408905601501464844e+01 -8.040593820624053478e-04 -8.220917661674320698e-04 -4.878453619312494993e-04 1.373474835418164730e-03
5.121000000000000000e+03 6.280329895019531250e+01 2.763758087158203125e+01 -2.506193006411194801e-03 4.385425127111375332e-04 -6.202951190061867237e-04 8.742260397411882877e-04
5.122000000000000000e+03 6.279545974731445312e+01 2.692044830322265625e+01 -2.662766259163618088e-03 5.088558536954224110e-04 -6.461730808950960636e-04 1.026968471705913544e-03
5.123000000000000000e+03 6.200375366210937500e+01 2.771463394165039062e+01 -2.653432078659534454e-03 5.201719468459486961e-04 -6.399780395440757275e-04 7.694255909882485867e-04
5.124000000000000000e+03 6.896691894531250000e+01 2.709196281433105469e+01 -1.331398612819612026e-03 -1.926464756252244115e-04 -4.572135221678763628e-04 1.150225289165973663e-03
5.125000000000000000e+03 6.808379364013671875e+01 2.568231010437011719e+01 -1.622028532437980175e-03 -1.640329574001953006e-04 -5.358184571377933025e-04 1.464960281737148762e-03
5.126000000000000000e+03 6.592940521240234375e+01 2.731984901428222656e+01 -1.904924283735454082e-03 1.057569970726035535e-04 -5.397502100095152855e-04 1.137823681347072124e-03
5.127000000000000000e+03 3.136252593994140625e+01 -2.096798896789550781e+00 -5.827587563544511795e-03 5.133717507123947144e-02 1.365287695080041885e-02 -2.022056840360164642e-02
5.128000000000000000e+03 3.172686958312988281e+01 -3.819459676742553711e+00 -1.359265670180320740e-02 4.059747233986854553e-02 8.101444691419601440e-03 -1.450442243367433548e-02
5.129000000000000000e+03 6.973133850097656250e+01 2.702667617797851562e+01 -1.191882649436593056e-03 -2.613461401779204607e-04 -4.359686281532049179e-04 1.118543208576738834e-03
5.130000000000000000e+03 5.886777496337890625e+01 2.896063613891601562e+01 -2.827909309417009354e-03 6.095776916481554508e-04 -6.654994795098900795e-04 1.005370068014599383e-04
5.131000000000000000e+03 6.035950088500976562e+01 2.789142799377441406e+01 -2.931925002485513687e-03 6.663210806436836720e-04 -6.796811940148472786e-04 5.011050961911678314e-04
5.132000000000000000e+03 6.359772872924804688e+01 2.755568695068359375e+01 -2.354060066863894463e-03 3.548244421835988760e-04 -5.997706321068108082e-04 9.602701757103204727e-04
5.133000000000000000e+03 5.873661804199218750e+01 2.828820037841796875e+01 -3.096718573942780495e-03 7.352434913627803326e-04 -7.084425305947661400e-04 1.788640947779640555e-04
5.134000000000000000e+03 7.134585380554199219e+00 -9.954076766967773438e+00 2.139428164809942245e-03 4.364160355180501938e-03 1.951076555997133255e-03 5.022120196372270584e-03
5.135000000000000000e+03 7.033046722412109375e+00 -1.091294574737548828e+01 1.657264307141304016e-03 4.763785284012556076e-03 1.926314784213900566e-03 5.098343361169099808e-03
5.136000000000000000e+03 5.796763229370117188e+01 2.853444862365722656e+01 -3.127031726762652397e-03 7.284964667633175850e-04 -7.195605430752038956e-04 2.952169779746327549e-06
5.137000000000000000e+03 5.590782546997070312e+01 2.972042655944824219e+01 -2.765780081972479820e-03 5.073599750176072121e-04 -6.775260553695261478e-04 -4.719443095382302999e-04
5.138000000000000000e+03 5.520407104492187500e+01 2.984242248535156250e+01 -2.714679576456546783e-03 4.335044941399246454e-04 -6.843525334261357784e-04 -6.093278061598539352e-04
5.139000000000000000e+03 5.653426742553710938e+01 2.897507667541503906e+01 -3.098441055044531822e-03 6.614738376811146736e-04 -7.310902001336216927e-04 -3.178604529239237309e-04
5.140000000000000000e+03 1.216416549682617188e+01 -7.953686714172363281e+00 5.921721924096345901e-03 6.144835613667964935e-03 3.619967261329293251e-03 8.773703128099441528e-03
5.141000000000000000e+03 7.290656280517578125e+01 2.684764480590820312e+01 -6.516327848657965660e-04 -5.117285763844847679e-04 -3.490084200166165829e-04 8.828845457173883915e-04
5.142000000000000000e+03 2.974853706359863281e+01 -2.230039358139038086e+00 -1.280121970921754837e-02 4.251058027148246765e-02 8.912808261811733246e-03 -7.470737211406230927e-03
5.143000000000000000e+03 3.188523483276367188e+01 -2.656059741973876953e+00 -7.083474192768335342e-03 4.731089994311332703e-02 1.206822786480188370e-02 -2.100591920316219330e-02
5.144000000000000000e+03 3.076329803466796875e+01 -2.506340503692626953e+00 -1.103187259286642075e-02 4.618553072214126587e-02 1.054609753191471100e-02 -1.434774044901132584e-02
5.145000000000000000e+03 1.346807098388671875e+01 -9.584667205810546875e+00 3.671151120215654373e-03 1.055734977126121521e-02 4.268550314009189606e-03 1.021689735352993011e-02
5.146000000000000000e+03 3.321969985961914062e+01 -2.822752714157104492e+00 -1.449922216124832630e-03 4.462193697690963745e-02 1.295160409063100815e-02 -2.614318765699863434e-02
5.147000000000000000e+03 3.280112457275390625e+01 -5.162771701812744141e+00 -1.309851557016372681e-02 3.624124452471733093e-02 6.942818872630596161e-03 -1.406834367662668228e-02
5.148000000000000000e+03 7.243737792968750000e+01 1.478598880767822266e+01 -7.512578158639371395e-04 -2.923697931692004204e-03 -1.102486741729080677e-03 3.215645439922809601e-03
5.149000000000000000e+03 6.669684600830078125e+01 2.725340843200683594e+01 -1.754515571519732475e-03 2.649811904120724648e-05 -5.184052279219031334e-04 1.157550723291933537e-03
5.150000000000000000e+03 3.923163604736328125e+01 -8.485867500305175781e+00 -1.604091085027903318e-04 2.599030174314975739e-02 7.748967502266168594e-03 -1.402975805103778839e-02
5.151000000000000000e+03 3.734862518310546875e+01 -6.860894680023193359e+00 -1.215438591316342354e-03 2.876289188861846924e-02 8.264236152172088623e-03 -1.679421775043010712e-02
5.152000000000000000e+03 3.615447998046875000e+01 -7.106060981750488281e+00 -4.577307030558586121e-03 3.048880398273468018e-02 7.773449178785085678e-03 -1.525581907480955124e-02
5.153000000000000000e+03 8.919454574584960938e+00 -6.529516220092773438e+00 4.560208413749933243e-03 1.981492387130856514e-03 1.962510170415043831e-03 4.211029037833213806e-03
5.154000000000000000e+03 1.816635322570800781e+01 -1.684082984924316406e+01 -3.143785754218697548e-03 7.697374559938907623e-03 1.366076641716063023e-03 3.757222555577754974e-03
5.155000000000000000e+03 1.174566745758056641e+01 -8.718493461608886719e+00 5.197728518396615982e-03 6.658649537712335587e-03 3.556913463398814201e-03 8.917957544326782227e-03
5.156000000000000000e+03 8.611227035522460938e+00 -1.872056388854980469e+01 -1.161840627901256084e-03 9.267696179449558258e-03 2.431756816804409027e-03 5.671655293554067612e-03
5.157000000000000000e+03 9.501910209655761719e+00 -1.792703437805175781e+01 -1.126583898440003395e-03 9.215210564434528351e-03 2.426587976515293121e-03 6.136083509773015976e-03
5.158000000000000000e+03 4.061542129516601562e+01 -1.560459327697753906e+01 1.893549808301031590e-03 2.543314546346664429e-02 8.198008872568607330e-03 -9.802867658436298370e-03
5.159000000000000000e+03 3.961953735351562500e+01 -1.631062507629394531e+01 2.183352131396532059e-03 2.566889859735965729e-02 8.355675265192985535e-03 -1.028740592300891876e-02
5.160000000000000000e+03 7.021236419677734375e+01 1.050518226623535156e+01 -7.807569345459342003e-04 -3.469143528491258621e-03 -1.274970127269625664e-03 4.613365978002548218e-03
5.161000000000000000e+03 7.106267547607421875e+01 -2.252311134338378906e+01 6.702415412291884422e-04 -1.169580966234207153e-02 -3.307670354843139648e-03 2.288241172209382057e-03
5.162000000000000000e+03 7.087244415283203125e+01 2.938872814178466797e+00 8.991413778858259320e-05 -6.188259925693273544e-03 -1.829503686167299747e-03 4.830847959965467453e-03
5.163000000000000000e+03 7.014081573486328125e+01 -2.771238327026367188e+00 5.254661082290112972e-04 -7.317278534173965454e-03 -2.037543570622801781e-03 4.579212050884962082e-03
5.164000000000000000e+03 7.053762817382812500e+01 -6.347760677337646484e+00 5.874227499589323997e-04 -8.551531471312046051e-03 -2.389232628047466278e-03 4.100909456610679626e-03
5.165000000000000000e+03 7.056565856933593750e+01 -1.045543289184570312e+01 5.880726384930312634e-04 -9.272821247577667236e-03 -2.605424728244543076e-03 3.638843307271599770e-03
5.166000000000000000e+03 7.222968292236328125e+01 -1.395733737945556641e+01 3.830177302006632090e-04 -1.222225558012723923e-02 -3.551771398633718491e-03 2.904758090153336525e-03
5.167000000000000000e+03 7.609039306640625000e+00 -1.276447296142578125e+01 8.806100231595337391e-04 6.390475668013095856e-03 2.181325806304812431e-03 5.908553488552570343e-03
5.168000000000000000e+03 7.332886505126953125e+01 -2.131184005737304688e+01 3.902410680893808603e-04 -1.562857441604137421e-02 -4.571499768644571304e-03 2.035798970609903336e-03
5.169000000000000000e+03 7.331167602539062500e+01 2.624284362792968750e+01 -6.090374663472175598e-04 -5.896789371035993099e-04 -3.596149326767772436e-04 9.145898511633276939e-04
5.170000000000000000e+03 7.280272674560546875e+01 2.549747657775878906e+01 -7.098022033460438251e-04 -6.532839033752679825e-04 -4.089258145540952682e-04 1.089508528821170330e-03
5.171000000000000000e+03 4.334982299804687500e+01 -1.960456466674804688e+01 2.849976066499948502e-03 2.721857838332653046e-02 9.020566008985042572e-03 -9.435141459107398987e-03
5.172000000000000000e+03 4.096759796142578125e+01 -1.841638374328613281e+01 3.050212282687425613e-03 2.665459550917148590e-02 8.911442011594772339e-03 -1.067069079726934433e-02
5.173000000000000000e+03 1.636414337158203125e+01 -1.544978809356689453e+01 -2.720697550103068352e-03 1.000169198960065842e-02 2.184298355132341385e-03 5.281522870063781738e-03
5.174000000000000000e+03 1.712691688537597656e+01 -1.959935379028320312e+01 -3.198755672201514244e-03 7.041127886623144150e-03 1.152711687609553337e-03 4.344062879681587219e-03
5.175000000000000000e+03 1.412355518341064453e+01 -2.297920417785644531e+01 -2.826651325449347496e-03 8.027655072510242462e-03 1.560301170684397221e-03 4.800569731742143631e-03
5.176000000000000000e+03 2.051132583618164062e+01 -2.109110641479492188e+01 -2.954137278720736504e-03 3.014412242919206619e-03 1.808253546187188476e-05 3.251223592087626457e-03
5.177000000000000000e+03 7.161743164062500000e+01 2.087319755554199219e+01 -1.042711199261248112e-03 -1.238570315763354301e-03 -6.843844894319772720e-04 2.187132369726896286e-03
5.178000000000000000e+03 1.453988647460937500e+01 -1.183331966400146484e+01 -4.139158700127154589e-04 1.197479851543903351e-02 3.468264825642108917e-03 8.310236036777496338e-03
5.179000000000000000e+03 7.122702026367187500e+01 -2.567716026306152344e+01 8.170057553797960281e-04 -1.215372793376445770e-02 -3.401016583666205406e-03 1.813734881579875946e-03
5.180000000000000000e+03 3.965772247314453125e+01 -9.392714500427246094e+00 4.168195300735533237e-05 2.547583170235157013e-02 7.655254099518060684e-03 -1.275599934160709381e-02
5.181000000000000000e+03 4.503208541870117188e+01 -1.974117088317871094e+01 2.361640101298689842e-03 2.655601128935813904e-02 8.675295859575271606e-03 -7.974357344210147858e-03
5.182000000000000000e+03 7.122859954833984375e+01 -1.634171485900878906e+01 5.428783479146659374e-04 -1.113855559378862381e-02 -3.178703133016824722e-03 2.897354308515787125e-03
5.183000000000000000e+03 7.003051757812500000e+01 -8.067187309265136719e+00 6.323194829747080803e-04 -8.314179256558418274e-03 -2.304557943716645241e-03 4.021998029202222824e-03
5.184000000000000000e+03 7.106067657470703125e+01 -9.230685830116271973e-01 3.402573929633945227e-04 -7.590370252728462219e-03 -2.175033790990710258e-03 4.542276263236999512e-03
5.185000000000000000e+03 7.214130401611328125e+01 -1.309065818786621094e+00 2.765725948847830296e-04 -8.642396889626979828e-03 -2.509747166186571121e-03 4.148369189351797104e-03
5.186000000000000000e+03 7.253073883056640625e+01 -2.066225051879882812e+01 4.398775636218488216e-04 -1.389720197767019272e-02 -4.037197213619947433e-03 2.323230030015110970e-03
5.187000000000000000e+03 4.775158309936523438e+01 -2.641461372375488281e+01 4.635844379663467407e-03 3.131996467709541321e-02 1.078674197196960449e-02 -5.534400697797536850e-03
5.188000000000000000e+03 4.957282257080078125e+01 -2.371034240722656250e+01 2.588346833363175392e-03 2.593625150620937347e-02 8.557379245758056641e-03 -3.924731165170669556e-03
5.189000000000000000e+03 7.059299468994140625e+01 1.908601379394531250e+01 -1.268117805011570454e-03 -1.341784955002367496e-03 -7.829708047211170197e-04 2.764182165265083313e-03
5.190000000000000000e+03 7.201642608642578125e+01 6.844543457031250000e+00 -2.712311688810586929e-04 -5.567803978919982910e-03 -1.751710544340312481e-03 4.295530263334512711e-03
5.191000000000000000e+03 7.103910827636718750e+01 4.513198852539062500e+00 -8.552765211788937449e-05 -5.867061205208301544e-03 -1.785776577889919281e-03 4.727891646325588226e-03
5.192000000000000000e+03 6.907338714599609375e+01 -3.125035667419433594e+01 8.509542676620185375e-04 -8.080847561359405518e-03 -2.168967854231595993e-03 1.144156907685101032e-03
5.193000000000000000e+03 7.118269348144531250e+01 1.129313755035400391e+01 -7.229228504002094269e-04 -3.601524978876113892e-03 -1.297334325499832630e-03 4.158145748078823090e-03
5.194000000000000000e+03 1.049402236938476562e+01 -2.415242767333984375e+01 -1.934768748469650745e-03 9.573655202984809875e-03 2.291665878146886826e-03 4.628545604646205902e-03
5.195000000000000000e+03 1.035894107818603516e+01 -2.239385604858398438e+01 -1.620059832930564880e-03 9.653554297983646393e-03 2.410048386082053185e-03 4.968234803527593613e-03
5.196000000000000000e+03 7.110526275634765625e+01 -1.747619438171386719e+01 4.664763109758496284e-04 -1.113624963909387589e-02 -3.200932173058390617e-03 2.805825322866439819e-03
5.197000000000000000e+03 7.037676239013671875e+01 -9.207765579223632812e+00 6.391840288415551186e-04 -8.833368308842182159e-03 -2.458255272358655930e-03 3.838844597339630127e-03
5.198000000000000000e+03 8.878935813903808594e+00 -2.585054016113281250e+01 -1.426092931069433689e-03 1.060689706355333328e-02 2.754241228103637695e-03 4.011610522866249084e-03
5.199000000000000000e+03 8.036898612976074219e+00 -2.397694969177246094e+01 -1.135244965553283691e-03 1.054473221302032471e-02 2.822845941409468651e-03 4.267856013029813766e-03
5.200000000000000000e+03 7.067294311523437500e+01 -1.873824954032897949e+00 4.142730613239109516e-04 -7.509127724915742874e-03 -2.128456253558397293e-03 4.571132827550172806e-03
5.201000000000000000e+03 7.049586486816406250e+01 1.758642578125000000e+01 -1.255013281479477882e-03 -1.662478549405932426e-03 -8.752475259825587273e-04 3.162285778671503067e-03
5.202000000000000000e+03 7.213258361816406250e+01 1.723055267333984375e+01 -8.981033461168408394e-04 -2.120325341820716858e-03 -9.055286063812673092e-04 2.812544815242290497e-03
5.203000000000000000e+03 4.238226699829101562e+01 -1.330331707000732422e+01 9.714236948639154434e-04 2.406373061239719391e-02 7.510546129196882248e-03 -9.489108808338642120e-03
5.204000000000000000e+03 2.091645431518554688e+01 -2.334427261352539062e+01 -3.120823530480265617e-03 2.079409547150135040e-03 -3.124242066405713558e-04 3.494869684800505638e-03
5.205000000000000000e+03 2.067038345336914062e+01 -2.461223030090332031e+01 -3.100010566413402557e-03 2.413483103737235069e-03 -2.059582475339993834e-04 3.673035185784101486e-03
5.206000000000000000e+03 4.428541946411132812e+01 -1.867617607116699219e+01 1.993784680962562561e-03 2.626710198819637299e-02 8.478266187012195587e-03 -8.470617234706878662e-03
5.207000000000000000e+03 7.042130279541015625e+01 -2.429899787902832031e+01 8.221244206652045250e-04 -1.054705213755369186e-02 -2.917478326708078384e-03 2.067453693598508835e-03
5.208000000000000000e+03 1.376962757110595703e+01 -1.487815666198730469e+01 -1.672676997259259224e-03 1.013346202671527863e-02 2.538235392421483994e-03 6.994302850216627121e-03
5.209000000000000000e+03 1.297095012664794922e+01 -1.818174552917480469e+01 -2.129548462107777596e-03 9.295010939240455627e-03 2.149638719856739044e-03 6.069820839911699295e-03
5.210000000000000000e+03 9.048236846923828125e+00 -1.332997608184814453e+01 7.182351546362042427e-04 7.354949135333299637e-03 2.421955345198512077e-03 6.849505007266998291e-03
5.211000000000000000e+03 7.903005123138427734e+00 -1.129094505310058594e+01 1.873709261417388916e-03 5.637810565531253815e-03 2.253455808386206627e-03 6.143958773463964462e-03
5.212000000000000000e+03 4.039375305175781250e+01 -1.140512275695800781e+01 2.097782999044284225e-04 2.500636316835880280e-02 7.564842235296964645e-03 -1.102813612669706345e-02
5.213000000000000000e+03 5.120952224731445312e+01 -2.455411529541015625e+01 3.192419419065117836e-03 2.339506335556507111e-02 7.976245135068893433e-03 -2.595116384327411652e-03
5.214000000000000000e+03 4.759450912475585938e+01 -2.299253845214843750e+01 2.552448073402047157e-03 2.780751883983612061e-02 9.107990190386772156e-03 -6.057157181203365326e-03
5.215000000000000000e+03 5.018045425415039062e+01 -3.344733047485351562e+01 8.426547981798648834e-03 3.107404708862304688e-02 1.185017824172973633e-02 -6.237932480871677399e-03
5.216000000000000000e+03 5.070741653442382812e+01 -3.122253799438476562e+01 7.267121691256761551e-03 2.914363890886306763e-02 1.092322822660207748e-02 -3.808232955634593964e-03
5.217000000000000000e+03 2.014650535583496094e+01 -2.606504249572753906e+01 -3.273529699072241783e-03 2.975564915686845779e-03 -8.938943938119336963e-05 3.650291590020060539e-03
5.218000000000000000e+03 7.055358886718750000e+01 -4.507246494293212891e+00 5.398942739702761173e-04 -8.095648139715194702e-03 -2.266726223751902580e-03 4.296698607504367828e-03
5.219000000000000000e+03 2.732751274108886719e+01 2.240325450897216797e+00 4.825909435749053955e-02 2.933320216834545135e-02 2.327768877148628235e-02 2.471586875617504120e-02
5.220000000000000000e+03 2.541905021667480469e+01 1.774289608001708984e+00 4.795788973569869995e-02 -8.171795867383480072e-03 1.193582825362682343e-02 1.374915707856416702e-02
5.221000000000000000e+03 2.811348533630371094e+01 2.916322708129882812e+00 4.913781210780143738e-02 6.473956257104873657e-02 3.416321426630020142e-02 2.932411059737205505e-02
5.222000000000000000e+03 4.079351806640625000e+01 1.904580497741699219e+01 -1.799231953918933868e-02 -4.288861993700265884e-03 -6.684354506433010101e-03 -1.125789340585470200e-02
5.223000000000000000e+03 4.168468475341796875e+01 1.931078720092773438e+01 -1.753243803977966309e-02 -2.880231942981481552e-03 -6.123800761997699738e-03 -9.285126812756061554e-03
5.224000000000000000e+03 2.935165023803710938e+01 3.699937820434570312e+00 4.593332111835479736e-02 1.550689041614532471e-01 6.030066683888435364e-02 -1.462184358388185501e-03
5.225000000000000000e+03 3.108987426757812500e+01 4.725902557373046875e+00 1.638546437025070190e-01 1.341723650693893433e-01 8.940810710191726685e-02 -1.166339814662933350e-01
5.226000000000000000e+03 2.848732757568359375e+01 3.202351093292236328e+00 4.802993685007095337e-02 9.283708781003952026e-02 4.226010665297508240e-02 2.879784628748893738e-02
5.227000000000000000e+03 4.707467269897460938e+01 2.494371604919433594e+01 -6.699299905449151993e-03 -1.200223923660814762e-03 -2.369857160374522209e-03 -3.538835328072309494e-03
5.228000000000000000e+03 4.852980804443359375e+01 2.605258369445800781e+01 -5.452259909361600876e-03 -6.520922761410474777e-04 -1.831305678933858871e-03 -2.669367473572492599e-03
5.229000000000000000e+03 2.904107856750488281e+01 3.573596239089965820e+00 4.578875750303268433e-02 1.339262425899505615e-01 5.391450226306915283e-02 1.283775549381971359e-02
5.230000000000000000e+03 2.884840774536132812e+01 3.956979751586914062e+00 5.066946893930435181e-02 1.436641365289688110e-01 5.830008164048194885e-02 2.633115090429782867e-02
5.231000000000000000e+03 2.467931556701660156e+01 2.511054873466491699e-01 2.142965234816074371e-02 -1.314164511859416962e-02 2.486402401700615883e-03 1.343316398561000824e-02
5.232000000000000000e+03 2.534039688110351562e+01 9.870374947786331177e-02 1.804836094379425049e-02 -5.795671604573726654e-03 3.675807034596800804e-03 1.251559425145387650e-02
5.233000000000000000e+03 3.563157272338867188e+01 1.185980987548828125e+01 -9.866032749414443970e-02 1.584508828818798065e-02 -2.484457194805145264e-02 7.809689268469810486e-04
5.234000000000000000e+03 4.057130050659179688e+01 1.756735229492187500e+01 -2.532727457582950592e-02 -1.501080463640391827e-03 -8.048506453633308411e-03 -1.115746051073074341e-02
5.235000000000000000e+03 4.188544464111328125e+01 1.894848060607910156e+01 -1.842186972498893738e-02 -1.553843962028622627e-03 -5.992713849991559982e-03 -9.016981348395347595e-03
5.236000000000000000e+03 4.752643585205078125e+01 2.464028930664062500e+01 -7.139761932194232941e-03 -5.578389973379671574e-04 -2.309280214831233025e-03 -3.250379581004381180e-03
5.237000000000000000e+03 4.730885696411132812e+01 2.406060028076171875e+01 -7.895768620073795319e-03 -4.371222166810184717e-04 -2.499867230653762817e-03 -3.418396692723035812e-03
5.238000000000000000e+03 3.526490402221679688e+01 1.190728282928466797e+01 -1.100080311298370361e-01 2.084471471607685089e-02 -2.674899622797966003e-02 -5.648060236126184464e-03
5.239000000000000000e+03 4.436248779296875000e+01 2.143734550476074219e+01 -1.219971664249897003e-02 -1.397384214214980602e-03 -4.079130012542009354e-03 -5.590614862740039825e-03
5.240000000000000000e+03 2.724341392517089844e+01 3.023869276046752930e+00 5.969511345028877258e-02 2.320176921784877777e-02 2.486906386911869049e-02 3.033727407455444336e-02
5.241000000000000000e+03 4.464334106445312500e+01 2.156868362426757812e+01 -1.178295165300369263e-02 -1.132351229898631573e-03 -3.874590853229165077e-03 -5.352172534912824631e-03
5.242000000000000000e+03 4.041712188720703125e+01 1.728717803955078125e+01 -2.639111690223217010e-02 -1.001594937406480312e-03 -8.217813447117805481e-03 -1.130346115678548813e-02
5.243000000000000000e+03 3.444092559814453125e+01 1.121868419647216797e+01 -1.348966062068939209e-01 2.944168262183666229e-02 -3.163648024201393127e-02 4.474102053791284561e-03
5.244000000000000000e+03 3.678289031982421875e+01 1.419894027709960938e+01 -6.102949753403663635e-02 -1.355729647912085056e-03 -1.871556788682937622e-02 -2.245671115815639496e-02
5.245000000000000000e+03 2.631638717651367188e+01 -5.386221036314964294e-02 1.420556101948022842e-02 7.502734195441007614e-03 6.512488704174757004e-03 1.142981462180614471e-02
5.246000000000000000e+03 4.405176925659179688e+01 2.103367805480957031e+01 -1.295037753880023956e-02 -1.390793360769748688e-03 -4.302351269870996475e-03 -5.941429641097784042e-03
5.247000000000000000e+03 5.148230743408203125e+01 2.835910415649414062e+01 -3.587381448596715927e-03 -3.414679304114542902e-05 -1.086458447389304638e-03 -1.421576249413192272e-03
5.248000000000000000e+03 4.073540115356445312e+01 1.785187911987304688e+01 -2.342213876545429230e-02 -1.669038552790880203e-03 -7.527353242039680481e-03 -1.093273330479860306e-02
5.249000000000000000e+03 4.494535827636718750e+01 2.210293006896972656e+01 -1.096331886947154999e-02 -1.297454000450670719e-03 -3.678231965750455856e-03 -5.114827305078506470e-03
5.250000000000000000e+03 3.721821212768554688e+01 1.487919521331787109e+01 -5.244772881269454956e-02 -4.322247114032506943e-03 -1.703099161386489868e-02 -2.131353318691253662e-02
5.251000000000000000e+03 5.214216995239257812e+01 2.830231475830078125e+01 -3.655645763501524925e-03 2.026429137913510203e-04 -1.035900902934372425e-03 -1.248828484676778316e-03
5.252000000000000000e+03 5.467147827148437500e+01 2.925754547119140625e+01 -3.069328377023339272e-03 4.940599901601672173e-04 -7.725805626250803471e-04 -6.913964753039181232e-04
5.253000000000000000e+03 4.703900909423828125e+01 2.382443046569824219e+01 -8.245054632425308228e-03 -5.324775120243430138e-04 -2.633259631693363190e-03 -3.503698389977216721e-03
5.254000000000000000e+03 3.758959960937500000e+01 1.421771907806396484e+01 -5.550061166286468506e-02 3.664058167487382889e-03 -1.555096637457609177e-02 -1.496693119406700134e-02
5.255000000000000000e+03 3.760094070434570312e+01 1.487454795837402344e+01 -4.991561919450759888e-02 -1.670292229391634464e-03 -1.547577325254678726e-02 -1.860082335770130157e-02
5.256000000000000000e+03 4.028506469726562500e+01 1.700852966308593750e+01 -2.845000289380550385e-02 -5.768914707005023956e-04 -8.708068169653415680e-03 -1.114300359040498734e-02
5.257000000000000000e+03 3.801471710205078125e+01 1.490674495697021484e+01 -4.821245372295379639e-02 -8.732373244129121304e-04 -1.472570654004812241e-02 -1.584503985941410065e-02
5.258000000000000000e+03 3.829982757568359375e+01 1.532161617279052734e+01 -4.358277842402458191e-02 -1.839937642216682434e-03 -1.362681481987237930e-02 -1.571018807590007782e-02
5.259000000000000000e+03 4.361069869995117188e+01 2.088735008239746094e+01 -1.334069389849901199e-02 -1.797427888959646225e-03 -4.541436675935983658e-03 -6.430535577237606049e-03
5.260000000000000000e+03 5.059378814697265625e+01 2.765035629272460938e+01 -4.136526957154273987e-03 -1.996251230593770742e-04 -1.300845644436776638e-03 -1.719230785965919495e-03
5.261000000000000000e+03 3.840474700927734375e+01 1.500023746490478516e+01 -4.501605778932571411e-02 2.192465355619788170e-03 -1.284707803279161453e-02 -1.356785651296377182e-02
5.262000000000000000e+03 3.857604217529296875e+01 1.600010490417480469e+01 -3.786324709653854370e-02 -3.824169980362057686e-03 -1.250622514635324478e-02 -1.643291674554347992e-02
5.263000000000000000e+03 3.602345275878906250e+01 1.320232295989990234e+01 -8.001772314310073853e-02 1.352461054921150208e-03 -2.359957806766033173e-02 -1.868689991533756256e-02
5.264000000000000000e+03 5.007580947875976562e+01 2.714654731750488281e+01 -4.495944827795028687e-03 -2.980518038384616375e-04 -1.438199076801538467e-03 -1.933567808009684086e-03
5.265000000000000000e+03 5.144407272338867188e+01 2.779847335815429688e+01 -4.025118891149759293e-03 1.043770971591584384e-04 -1.176222576759755611e-03 -1.471940544433891773e-03
5.266000000000000000e+03 4.978125381469726562e+01 2.636566734313964844e+01 -5.203754641115665436e-03 -1.176437217509374022e-04 -1.596419606357812881e-03 -2.114068018272519112e-03
5.267000000000000000e+03 5.008088302612304688e+01 2.662250709533691406e+01 -5.016011651605367661e-03 -9.003579907584935427e-05 -1.531814225018024445e-03 -1.964502967894077301e-03
5.268000000000000000e+03 5.033760833740234375e+01 2.739857292175292969e+01 -4.302770830690860748e-03 -2.105294843204319477e-04 -1.353990053758025169e-03 -1.833389280363917351e-03
5.269000000000000000e+03 3.908265686035156250e+01 1.656915855407714844e+01 -3.289410471916198730e-02 -3.824035869911313057e-03 -1.101544220000505447e-02 -1.476748380810022354e-02
5.270000000000000000e+03 4.746294784545898438e+01 2.531474304199218750e+01 -6.259428802877664566e-03 -1.091557904146611691e-03 -2.205296186730265617e-03 -3.313278779387474060e-03
5.271000000000000000e+03 4.266033172607421875e+01 1.997570610046386719e+01 -1.535342447459697723e-02 -2.067567547783255577e-03 -5.226297769695520401e-03 -7.687785197049379349e-03
5.272000000000000000e+03 4.311518096923828125e+01 2.065624427795410156e+01 -1.379395835101604462e-02 -2.247248310595750809e-03 -4.812361672520637512e-03 -7.034077774733304977e-03
5.273000000000000000e+03 3.976802825927734375e+01 1.678298950195312500e+01 -3.037288412451744080e-02 -1.473203301429748535e-03 -9.553826414048671722e-03 -1.251234021037817001e-02
5.274000000000000000e+03 5.036619949340820312e+01 2.689499282836914062e+01 -4.740973468869924545e-03 -2.845918425009585917e-05 -1.430829754099249840e-03 -1.854955451563000679e-03
5.275000000000000000e+03 4.587017822265625000e+01 2.306083679199218750e+01 -9.363194927573204041e-03 -1.130641670897603035e-03 -3.148151095956563950e-03 -4.277410451322793961e-03
5.276000000000000000e+03 4.558967208862304688e+01 2.259672927856445312e+01 -1.009480655193328857e-02 -1.049179234541952610e-03 -3.343195887282490730e-03 -4.491091240197420120e-03
5.277000000000000000e+03 3.462907028198242188e+01 1.172255420684814453e+01 -1.267135739326477051e-01 2.060345932841300964e-02 -3.183303400874137878e-02 -1.203836407512426376e-02
5.278000000000000000e+03 3.525489807128906250e+01 1.230104827880859375e+01 -1.045430302619934082e-01 8.270896039903163910e-03 -2.888164110481739044e-02 -1.445213425904512405e-02
5.279000000000000000e+03 4.658796691894531250e+01 2.354136466979980469e+01 -8.705256506800651550e-03 -6.747292936779558659e-04 -2.813995582982897758e-03 -3.817675868049263954e-03
5.280000000000000000e+03 3.332554244995117188e+01 7.482984542846679688e+00 1.086085513234138489e-01 -2.869980223476886749e-02 2.397262305021286011e-02 1.074903011322021484e-01
5.281000000000000000e+03 4.443326187133789062e+01 2.116381454467773438e+01 -1.263103075325489044e-02 -9.797738166525959969e-04 -4.083241336047649384e-03 -5.492145195603370667e-03
5.282000000000000000e+03 4.780879592895507812e+01 2.573975181579589844e+01 -5.813480820506811142e-03 -9.823435684666037560e-04 -2.038747305050492287e-03 -3.086908021941781044e-03
5.283000000000000000e+03 5.298352050781250000e+01 2.836117362976074219e+01 -3.624484641477465630e-03 3.989261749666184187e-04 -9.676675545051693916e-04 -1.041387324221432209e-03
5.284000000000000000e+03 5.329209518432617188e+01 3.003491210937500000e+01 -2.544488525018095970e-03 1.290831132791936398e-04 -7.246216409839689732e-04 -9.184979717247188091e-04
5.285000000000000000e+03 3.884555053710937500e+01 1.581296348571777344e+01 -3.778696060180664062e-02 -2.950135967694222927e-04 -1.142459269613027573e-02 -1.401911769062280655e-02
5.286000000000000000e+03 3.911550903320312500e+01 1.602442550659179688e+01 -3.629322350025177002e-02 -1.795803545974195004e-03 -1.142670866101980209e-02 -1.363046932965517044e-02
5.287000000000000000e+03 4.117687988281250000e+01 1.954401779174804688e+01 -1.659385301172733307e-02 -4.468543920665979385e-03 -6.318719126284122467e-03 -1.011527050286531448e-02
5.288000000000000000e+03 4.531332015991210938e+01 2.211900520324707031e+01 -1.088882144540548325e-02 -8.979122503660619259e-04 -3.536019939929246902e-03 -4.691742360591888428e-03
5.289000000000000000e+03 4.624490356445312500e+01 2.309161567687988281e+01 -9.350612759590148926e-03 -6.611406570300459862e-04 -3.003526013344526291e-03 -4.033055622130632401e-03
5.290000000000000000e+03 4.594451904296875000e+01 2.263223457336425781e+01 -1.003096345812082291e-02 -6.136245210655033588e-04 -3.193376353010535240e-03 -4.230534657835960388e-03
5.291000000000000000e+03 4.058946609497070312e+01 1.888116645812988281e+01 -1.916006207466125488e-02 -4.652213305234909058e-03 -7.143682334572076797e-03 -1.148463785648345947e-02
5.292000000000000000e+03 5.397011947631835938e+01 2.967038917541503906e+01 -2.826341195032000542e-03 3.106873773504048586e-04 -7.546961423940956593e-04 -8.384749526157975197e-04
5.293000000000000000e+03 2.669490051269531250e+01 -2.357075214385986328e-01 9.867008775472640991e-03 1.354478672146797180e-02 7.023538462817668915e-03 1.173451822251081467e-02
5.294000000000000000e+03 3.007437515258789062e+01 4.342916965484619141e+00 7.877267897129058838e-02 1.984228193759918213e-01 8.315864950418472290e-02 -6.525865197181701660e-02
5.295000000000000000e+03 2.964244461059570312e+01 4.609332561492919922e+00 7.412252575159072876e-02 2.277936637401580811e-01 9.057486057281494141e-02 -4.536020755767822266e-02
5.296000000000000000e+03 3.456675720214843750e+01 1.034234523773193359e+01 -1.170630976557731628e-01 3.119277209043502808e-02 -2.576109766960144043e-02 4.393231123685836792e-02
5.297000000000000000e+03 4.272884750366210938e+01 1.968602752685546875e+01 -1.603688858449459076e-02 -1.352044055238366127e-03 -5.216680001467466354e-03 -7.664702367037534714e-03
5.298000000000000000e+03 3.351421356201171875e+01 8.428725242614746094e+00 3.451234893873333931e-03 2.999785647261887789e-04 1.125364098697900772e-03 1.221750304102897644e-01
5.299000000000000000e+03 3.338913726806640625e+01 7.927445411682128906e+00 6.524494290351867676e-02 -5.779011175036430359e-03 1.783977821469306946e-02 1.198577955365180969e-01
5.300000000000000000e+03 3.320637893676757812e+01 6.496514320373535156e+00 1.948387771844863892e-01 -3.965360298752784729e-02 4.655555263161659241e-02 3.447131067514419556e-02
5.301000000000000000e+03 3.485681533813476562e+01 1.013538169860839844e+01 -9.500848501920700073e-02 2.868454530835151672e-02 -1.989718154072761536e-02 5.030487850308418274e-02
5.302000000000000000e+03 3.371880340576171875e+01 8.966109275817871094e+00 -5.210992693901062012e-02 2.560985833406448364e-02 -7.950020022690296173e-03 1.114930212497711182e-01
5.303000000000000000e+03 2.929644203186035156e+01 -1.036297559738159180e+00 -3.835088107734918594e-03 4.849227145314216614e-02 1.339715439826250076e-02 -5.579926073551177979e-03
5.304000000000000000e+03 3.039964675903320312e+01 -1.905029773712158203e+00 -8.286405354738235474e-03 4.947505146265029907e-02 1.235659327358007431e-02 -1.368237938731908798e-02
5.305000000000000000e+03 4.784153366088867188e+01 2.528059005737304688e+01 -6.340413819998502731e-03 -7.396481232717633247e-04 -2.124018501490354538e-03 -3.089511068537831306e-03
5.306000000000000000e+03 4.876395034790039062e+01 2.572657585144042969e+01 -5.842977669090032578e-03 -4.225139855407178402e-04 -1.879647490568459034e-03 -2.561107277870178223e-03
5.307000000000000000e+03 3.152395248413085938e+01 4.470973014831542969e+00 1.496974378824234009e-01 9.990408271551132202e-02 7.488045841455459595e-02 -9.779214859008789062e-02
5.308000000000000000e+03 3.215053558349609375e+01 5.287329196929931641e+00 2.124381214380264282e-01 2.889082208275794983e-02 7.239867746829986572e-02 -7.209228724241256714e-02
5.309000000000000000e+03 3.495777130126953125e+01 1.187848758697509766e+01 -1.190175041556358337e-01 1.420282386243343353e-02 -3.144440427422523499e-02 -9.812744334340095520e-03
5.310000000000000000e+03 3.449437332153320312e+01 1.092012786865234375e+01 -1.318996995687484741e-01 3.041494078934192657e-02 -3.044542670249938965e-02 2.016700431704521179e-02
5.311000000000000000e+03 3.478420257568359375e+01 1.140571212768554688e+01 -1.283496767282485962e-01 2.341103367507457733e-02 -3.148159384727478027e-02 3.769575851038098335e-03
5.312000000000000000e+03 3.084392738342285156e+01 4.289534091949462891e+00 1.104492023587226868e-01 1.560401320457458496e-01 7.994680106639862061e-02 -9.354152530431747437e-02
5.313000000000000000e+03 2.870916366577148438e+01 -1.222267150878906250e+00 -5.804831627756357193e-03 3.930892795324325562e-02 1.005122903734445572e-02 -1.132688834331929684e-03
5.314000000000000000e+03 3.608584213256835938e+01 1.275901222229003906e+01 -8.510458469390869141e-02 1.140421722084283829e-02 -2.211011014878749847e-02 -1.368026062846183777e-02
5.315000000000000000e+03 5.429924392700195312e+01 3.035160255432128906e+01 -2.423975616693496704e-03 2.515975793357938528e-04 -6.517134024761617184e-04 -7.399402675218880177e-04
5.316000000000000000e+03 6.821176147460937500e+01 2.714278030395507812e+01 -1.468274509534239769e-03 -1.201653431053273380e-04 -4.765319754369556904e-04 1.160007785074412823e-03
5.317000000000000000e+03 1.149478149414062500e+01 -7.641996860504150391e+00 6.191024091094732285e-03 5.453617312014102936e-03 3.493392374366521835e-03 8.206812664866447449e-03
5.318000000000000000e+03 1.090378093719482422e+01 -7.518296718597412109e+00 5.900715012103319168e-03 3.789508249610662460e-03 2.907067071646451950e-03 6.773069035261869431e-03
5.319000000000000000e+03 7.116091918945312500e+01 2.452799606323242188e+01 -1.037491718307137489e-03 -6.365446024574339390e-04 -5.022108671255409718e-04 1.462111249566078186e-03
5.320000000000000000e+03 7.205432128906250000e+01 2.495585250854492188e+01 -8.756929892115294933e-04 -6.513631087727844715e-04 -4.581168177537620068e-04 1.281254575587809086e-03
5.321000000000000000e+03 7.129960632324218750e+01 2.680535507202148438e+01 -9.128654492087662220e-04 -4.022179055027663708e-04 -3.945250064134597778e-04 1.028975588269531727e-03
5.322000000000000000e+03 6.117213821411132812e+01 2.703915214538574219e+01 -3.006803337484598160e-03 6.989194080233573914e-04 -6.923651671968400478e-04 8.156548719853162766e-04
5.323000000000000000e+03 6.281914901733398438e+01 2.619601821899414062e+01 -2.815699437633156776e-03 5.799123318865895271e-04 -6.707361317239701748e-04 1.206457964144647121e-03
5.324000000000000000e+03 7.050839233398437500e+01 2.692477416992187500e+01 -1.052880426868796349e-03 -3.400810528546571732e-04 -4.178884264547377825e-04 1.090701553039252758e-03
5.325000000000000000e+03 6.886751556396484375e+01 2.638367462158203125e+01 -1.410163938999176025e-03 -2.109547640429809690e-04 -4.863356298301368952e-04 1.282353769056499004e-03
5.326000000000000000e+03 6.959872436523437500e+01 2.633155632019042969e+01 -1.273678848519921303e-03 -2.928597095888108015e-04 -4.699615528807044029e-04 1.263778889551758766e-03
5.327000000000000000e+03 6.118877410888671875e+01 2.779167366027832031e+01 -2.810725243762135506e-03 6.021730951033532619e-04 -6.625656387768685818e-04 6.495443521998822689e-04
5.328000000000000000e+03 6.436033630371093750e+01 2.676077461242675781e+01 -2.334026386961340904e-03 3.172442957293242216e-04 -6.050345837138593197e-04 1.189580769278109074e-03
5.329000000000000000e+03 6.438362884521484375e+01 2.747375297546386719e+01 -2.204892458394169807e-03 2.712528803385794163e-04 -5.800918443128466606e-04 1.038484158925712109e-03
5.330000000000000000e+03 6.028462600708007812e+01 2.708138275146484375e+01 -3.211986506357789040e-03 8.032559417188167572e-04 -7.226191810332238674e-04 6.724324775859713554e-04
5.331000000000000000e+03 6.358388900756835938e+01 2.684297752380371094e+01 -2.499473979696631432e-03 4.153172776568681002e-04 -6.252470193430781364e-04 1.120062195695936680e-03
5.332000000000000000e+03 7.082838439941406250e+01 2.266497993469238281e+01 -1.170305302366614342e-03 -8.361780783161520958e-04 -6.019450374878942966e-04 1.903844880871474743e-03
5.333000000000000000e+03 5.709632110595703125e+01 2.818323898315429688e+01 -3.400207962840795517e-03 8.150151115842163563e-04 -7.755578844808042049e-04 -1.149140880443155766e-04
5.334000000000000000e+03 5.780217742919921875e+01 2.792034721374511719e+01 -3.395973704755306244e-03 8.531739003956317902e-04 -7.628399762324988842e-04 5.809861249872483313e-05
5.335000000000000000e+03 5.643755340576171875e+01 2.841114425659179688e+01 -3.374249674379825592e-03 7.754210382699966431e-04 -7.796485442668199539e-04 -2.835267223417758942e-04
5.336000000000000000e+03 8.457292556762695312e+00 -7.831508159637451172e+00 3.638554830104112625e-03 3.081051167100667953e-03 2.015881706029176712e-03 4.852211568504571915e-03
5.337000000000000000e+03 5.586902618408203125e+01 2.914679527282714844e+01 -3.052261890843510628e-03 6.073935073800384998e-04 -7.334605325013399124e-04 -4.650278715416789055e-04
5.338000000000000000e+03 3.247444152832031250e+01 -3.297116518020629883e+00 -7.184492424130439758e-03 4.439099505543708801e-02 1.116195041686296463e-02 -2.116726897656917572e-02
5.339000000000000000e+03 3.288087463378906250e+01 -2.206225633621215820e+00 6.293308106251060963e-04 4.806277155876159668e-02 1.460763067007064819e-02 -2.806841395795345306e-02
5.340000000000000000e+03 1.094414520263671875e+01 -6.782258987426757812e+00 6.410590372979640961e-03 3.708263160660862923e-03 3.035656176507472992e-03 6.652019917964935303e-03
5.341000000000000000e+03 9.573640823364257812e+00 -6.620871543884277344e+00 5.295730661600828171e-03 2.505015814676880836e-03 2.340223873034119606e-03 4.965067841112613678e-03
5.342000000000000000e+03 6.664533233642578125e+01 2.652735328674316406e+01 -1.854918082244694233e-03 3.305439167888835073e-05 -5.465591093525290489e-04 1.315803732722997665e-03
5.343000000000000000e+03 6.813411712646484375e+01 2.641841506958007812e+01 -1.551204710267484188e-03 -1.385261857649311423e-04 -5.069192848168313503e-04 1.310220221057534218e-03
5.344000000000000000e+03 7.181066894531250000e+01 2.186045265197753906e+01 -9.856150718405842781e-04 -1.084796153008937836e-03 -6.211234140209853649e-04 1.914441701956093311e-03
5.345000000000000000e+03 7.120047760009765625e+01 1.992463874816894531e+01 -1.152149285189807415e-03 -1.325568184256553650e-03 -7.433152641169726849e-04 2.487199148163199425e-03
5.346000000000000000e+03 3.349485015869140625e+01 -4.750061988830566406e+00 -9.052085690200328827e-03 3.832631558179855347e-02 8.782269433140754700e-03 -1.843822002410888672e-02
5.347000000000000000e+03 3.440003967285156250e+01 -4.368484020233154297e+00 -3.944246098399162292e-03 3.755638375878334045e-02 1.008364092558622360e-02 -2.199672348797321320e-02
5.348000000000000000e+03 3.231307601928710938e+01 -2.137132167816162109e+00 -1.183919375762343407e-03 5.015813186764717102e-02 1.469226367771625519e-02 -2.596063166856765747e-02
5.349000000000000000e+03 5.953629684448242188e+01 2.805711174011230469e+01 -3.032692940905690193e-03 7.090849103406071663e-04 -6.970824324525892735e-04 3.561396442819386721e-04
5.350000000000000000e+03 9.371025085449218750e+00 -8.302435874938964844e+00 4.341319203376770020e-03 4.108022432774305344e-03 2.534802537411451340e-03 6.275326944887638092e-03
5.351000000000000000e+03 1.791665267944335938e+01 -2.401429557800292969e+01 -3.048230428248643875e-03 5.362781696021556854e-03 6.943654734641313553e-04 4.029738716781139374e-03
5.352000000000000000e+03 1.703817939758300781e+01 -2.473414230346679688e+01 -3.079837188124656677e-03 5.582768935710191727e-03 7.508795242756605148e-04 3.933298401534557343e-03
5.353000000000000000e+03 1.157252693176269531e+01 -1.043533515930175781e+01 2.630920847877860069e-03 8.086385205388069153e-03 3.215191652998328209e-03 8.760451339185237885e-03
5.354000000000000000e+03 3.996117019653320312e+01 -7.250456333160400391e+00 2.625869819894433022e-03 2.422415278851985931e-02 8.055007085204124451e-03 -1.542162150144577026e-02
5.355000000000000000e+03 3.603377532958984375e+01 -5.963683128356933594e+00 -3.182662650942802429e-03 3.184900060296058655e-02 8.599901571869850159e-03 -1.856930740177631378e-02
5.356000000000000000e+03 1.194655036926269531e+01 -1.926767921447753906e+01 -2.139342948794364929e-03 9.121088311076164246e-03 2.094523515552282333e-03 5.810315255075693130e-03
5.357000000000000000e+03 9.576420783996582031e+00 -1.605587959289550781e+01 -7.407926605083048344e-04 8.827104233205318451e-03 2.425893442705273628e-03 6.636385340243577957e-03
5.358000000000000000e+03 7.092958831787109375e+01 9.633377075195312500e+00 -6.158977630548179150e-04 -3.958190325647592545e-03 -1.372226397506892681e-03 4.519839305430650711e-03
5.359000000000000000e+03 1.297475910186767578e+01 -8.281622886657714844e+00 5.826892796903848648e-03 8.623409084975719452e-03 4.335090517997741699e-03 1.021388825029134750e-02
5.360000000000000000e+03 7.121309661865234375e+01 2.086164951324462891e+00 1.118282525567337871e-04 -6.791809108108282089e-03 -2.003994304686784744e-03 4.626884590834379196e-03
5.361000000000000000e+03 3.882548522949218750e+01 -7.578470230102539062e+00 7.292456575669348240e-04 2.629279345273971558e-02 8.106611669063568115e-03 -1.557819172739982605e-02
5.362000000000000000e+03 3.853255462646484375e+01 -6.579256534576416016e+00 1.562623423524200916e-03 2.674294821918010712e-02 8.491671644151210785e-03 -1.732799969613552094e-02
5.363000000000000000e+03 6.947508239746093750e+01 -3.634130239486694336e+00 6.403632578440010548e-04 -6.924985442310571671e-03 -1.885386649519205093e-03 4.659382626414299011e-03
5.364000000000000000e+03 4.036483383178710938e+01 -8.129992485046386719e+00 2.072350122034549713e-03 2.412114478647708893e-02 7.858048193156719208e-03 -1.419037580490112305e-02
5.365000000000000000e+03 4.003884124755859375e+01 -1.036491775512695312e+01 -3.569331238395534456e-05 2.509488351643085480e-02 7.517756894230842590e-03 -1.176991872489452362e-02
5.366000000000000000e+03 7.141923522949218750e+01 1.579246997833251953e+01 -9.998814202845096588e-04 -2.300907159224152565e-03 -9.902365272864699364e-04 3.294405061751604080e-03
5.367000000000000000e+03 7.148289489746093750e+01 1.830398941040039062e+01 -1.037283567711710930e-03 -1.757065183483064175e-03 -8.383046369999647141e-04 2.755598397925496101e-03
5.368000000000000000e+03 7.076622009277343750e+01 1.295070362091064453e+01 -9.391985367983579636e-04 -2.889982424676418304e-03 -1.148754265159368515e-03 4.045207984745502472e-03
5.369000000000000000e+03 7.018792724609375000e+01 1.204418468475341797e+01 -9.657895425334572792e-04 -2.930656075477600098e-03 -1.168933697044849396e-03 4.360572900623083115e-03
5.370000000000000000e+03 6.950872039794921875e+01 -1.346308612823486328e+01 7.117136847227811813e-04 -8.309897966682910919e-03 -2.279455307871103287e-03 3.471812233328819275e-03
5.371000000000000000e+03 9.887176513671875000e+00 -1.290022754669189453e+01 7.102584931999444962e-04 7.993832230567932129e-03 2.611227333545684814e-03 7.443060167133808136e-03
5.372000000000000000e+03 7.080157470703125000e+01 7.153456687927246094e+00 -3.540949255693703890e-04 -4.786420147866010666e-03 -1.542154466733336449e-03 4.729308187961578369e-03
5.373000000000000000e+03 6.997440338134765625e+01 5.253637313842773438e+00 -1.847658277256414294e-04 -4.955894779413938522e-03 -1.542198238894343376e-03 5.069522187113761902e-03
5.374000000000000000e+03 1.364281177520751953e+01 -1.287061882019042969e+01 -4.767302307300269604e-04 1.061378605663776398e-02 3.041116753593087196e-03 7.933546788990497589e-03
5.375000000000000000e+03 4.318217086791992188e+01 -1.423764324188232422e+01 1.419359585270285606e-03 2.391564659774303436e-02 7.600501645356416702e-03 -8.827964775264263153e-03
5.376000000000000000e+03 7.208733367919921875e+01 -1.272938442230224609e+01 4.414174472913146019e-04 -1.179114356637001038e-02 -3.404917661100625992e-03 3.095495281741023064e-03
5.377000000000000000e+03 7.092326354980468750e+01 2.189989852905273438e+01 -1.179721322841942310e-03 -9.424579911865293980e-04 -6.366538000293076038e-04 2.049333648756146431e-03
5.378000000000000000e+03 8.779893875122070312e+00 -1.501054286956787109e+01 -1.371124235447496176e-04 8.071937598288059235e-03 2.380447462201118469e-03 6.448831874877214432e-03
5.379000000000000000e+03 9.653737068176269531e+00 -1.432698631286621094e+01 -1.333365653408691287e-04 8.394788950681686401e-03 2.478435868397355080e-03 7.094750646501779556e-03
5.380000000000000000e+03 4.164860153198242188e+01 -1.503342437744140625e+01 1.221141079440712929e-03 2.507796324789524078e-02 7.889731787145137787e-03 -9.434794075787067413e-03
5.381000000000000000e+03 4.122809982299804688e+01 -1.663929367065429688e+01 1.971388468518853188e-03 2.580446191132068634e-02 8.332755416631698608e-03 -9.840465150773525238e-03
5.382000000000000000e+03 7.086596679687500000e+01 -1.942278480529785156e+01 5.496767698787152767e-04 -1.092387549579143524e-02 -3.112259553745388985e-03 2.627759240567684174e-03
5.383000000000000000e+03 7.020606231689453125e+01 -2.026479530334472656e+01 6.789742619730532169e-04 -1.003043726086616516e-02 -2.805438823997974396e-03 2.506727818399667740e-03
5.384000000000000000e+03 6.772856903076171875e+01 -1.622274971008300781e+01 8.760456694290041924e-04 -6.135735660791397095e-03 -1.577907009050250053e-03 3.165757283568382263e-03
5.385000000000000000e+03 7.030133819580078125e+01 -1.878172874450683594e+01 6.394746596924960613e-04 -1.006755325943231583e-02 -2.828423399478197098e-03 2.705794991925358772e-03
5.386000000000000000e+03 4.000543212890625000e+01 -1.450641059875488281e+01 8.784590754657983780e-04 2.540046162903308868e-02 7.883676327764987946e-03 -9.876938536763191223e-03
5.387000000000000000e+03 1.724946022033691406e+01 -1.621696281433105469e+01 -3.014039015397429466e-03 8.865548297762870789e-03 1.755452714860439301e-03 4.584615584462881088e-03
5.388000000000000000e+03 6.915339660644531250e+01 1.567612266540527344e+01 -1.476723700761795044e-03 -1.661299495026469231e-03 -9.414069354534149170e-04 3.887186059728264809e-03
5.389000000000000000e+03 7.145423889160156250e+01 1.490312480926513672e+01 -9.195023449137806892e-04 -2.613249234855175018e-03 -1.059825532138347626e-03 3.484237007796764374e-03
5.390000000000000000e+03 4.071985626220703125e+01 -1.258512878417968750e+01 3.080301685258746147e-04 2.491443976759910583e-02 7.566741202026605606e-03 -1.020330842584371567e-02
5.391000000000000000e+03 6.805368041992187500e+01 -8.892816543579101562e+00 9.388130274601280689e-04 -6.162431556731462479e-03 -1.567085506394505501e-03 4.102272912859916687e-03
5.392000000000000000e+03 6.925092315673828125e+01 -9.565191268920898438e+00 7.576546049676835537e-04 -7.642291486263275146e-03 -2.065391046926379204e-03 3.910163883119821548e-03
5.393000000000000000e+03 6.817457580566406250e+01 -1.203162789344787598e+00 6.291330792009830475e-04 -5.352728068828582764e-03 -1.417078543454408646e-03 5.173035431653261185e-03
5.394000000000000000e+03 7.150811767578125000e+01 8.648727416992187500e+00 -4.487385158427059650e-04 -4.643008578568696976e-03 -1.527524203993380070e-03 4.386000800877809525e-03
5.395000000000000000e+03 7.012033081054687500e+01 3.697388887405395508e+00 2.751567990344483405e-06 -5.586822517216205597e-03 -1.675221254117786884e-03 5.030805710703134537e-03
5.396000000000000000e+03 7.125852966308593750e+01 1.104462623596191406e+00 1.697788393357768655e-04 -7.154342252761125565e-03 -2.095368923619389534e-03 4.562092944979667664e-03
5.397000000000000000e+03 6.884777832031250000e+01 -2.739554023742675781e+01 1.080990768969058990e-03 -8.171987719833850861e-03 -2.127299318090081215e-03 1.634738291613757610e-03
5.398000000000000000e+03 1.715121269226074219e+01 -2.129676055908203125e+01 -2.939804457128047943e-03 6.725015584379434586e-03 1.135563361458480358e-03 4.359455779194831848e-03
5.399000000000000000e+03 1.745909500122070312e+01 -2.284033584594726562e+01 -3.204044885933399200e-03 5.591043736785650253e-03 7.160996901802718639e-04 3.939426969736814499e-03
5.400000000000000000e+03 1.768397712707519531e+01 -1.810286903381347656e+01 -2.951926551759243011e-03 7.334057241678237915e-03 1.314639113843441010e-03 4.169986117631196976e-03
5.401000000000000000e+03 1.469066333770751953e+01 -1.580332279205322266e+01 -2.291979966685175896e-03 9.951720014214515686e-03 2.297922037541866302e-03 6.229402963072061539e-03
5.402000000000000000e+03 9.828293800354003906e+00 -2.098987770080566406e+01 -1.789111876860260963e-03 9.530629031360149384e-03 2.322455169633030891e-03 5.352374166250228882e-03
5.403000000000000000e+03 1.499938583374023438e+01 -2.048237419128417969e+01 -2.840218599885702133e-03 8.169027976691722870e-03 1.598642789758741856e-03 5.077905487269163132e-03
5.404000000000000000e+03 7.035232543945312500e+01 -2.183701705932617188e+01 9.065123740583658218e-04 -1.021088752895593643e-02 -2.791312523186206818e-03 2.397944452241063118e-03
5.405000000000000000e+03 4.753536224365234375e+01 -2.074336814880371094e+01 2.027086447924375534e-03 2.565492689609527588e-02 8.304604329168796539e-03 -5.871079862117767334e-03
5.406000000000000000e+03 8.558802604675292969e+00 -1.221188449859619141e+01 1.195270451717078686e-03 6.700458470731973648e-03 2.368718618527054787e-03 6.612537428736686707e-03
5.407000000000000000e+03 1.109950542449951172e+01 -8.200508117675781250e+00 4.872332327067852020e-03 5.564777180552482605e-03 3.131132805719971657e-03 7.798002567142248154e-03
5.408000000000000000e+03 8.214766502380371094e+00 -2.262127304077148438e+01 -1.311243162490427494e-03 1.041179522871971130e-02 2.730165608227252960e-03 4.602530039846897125e-03
5.409000000000000000e+03 9.229167938232421875e+00 -2.272372245788574219e+01 -1.608889782801270485e-03 9.875711984932422638e-03 2.480046823620796204e-03 4.843558650463819504e-03
5.410000000000000000e+03 4.117795562744140625e+01 -1.005312061309814453e+01 1.170382951386272907e-03 2.390157990157604218e-02 7.521588820964097977e-03 -1.176412589848041534e-02
5.411000000000000000e+03 1.022983074188232422e+01 -2.605987548828125000e+01 -1.550682936795055866e-03 1.004369184374809265e-02 2.547902753576636314e-03 4.102931357920169830e-03
5.412000000000000000e+03 1.218595600128173828e+01 -9.879494667053222656e+00 3.597326809540390968e-03 8.548886515200138092e-03 3.643864067271351814e-03 9.403574280440807343e-03
5.413000000000000000e+03 6.855878448486328125e+01 -7.652872562408447266e+00 7.645025616511702538e-04 -6.742088124155998230e-03 -1.793275587260723114e-03 4.235937260091304779e-03
5.414000000000000000e+03 7.001618194580078125e+01 -2.651762199401855469e+01 8.720242767594754696e-04 -1.009989343583583832e-02 -2.768360776826739311e-03 1.808410859666764736e-03
5.415000000000000000e+03 1.311836338043212891e+01 -2.645981979370117188e+01 -2.272600540891289711e-03 8.314100094139575958e-03 1.812449889257550240e-03 3.980129957199096680e-03
5.416000000000000000e+03 1.926505470275878906e+01 -2.747278594970703125e+01 -3.270798595622181892e-03 3.510641399770975113e-03 7.195287616923451424e-05 3.586785402148962021e-03
5.417000000000000000e+03 6.967682647705078125e+01 -1.241966724395751953e+00 4.780037270393222570e-04 -6.576643791049718857e-03 -1.829591928981244564e-03 4.856189247220754623e-03
5.418000000000000000e+03 7.124522399902343750e+01 8.083193004131317139e-02 2.662428887560963631e-04 -7.424993906170129776e-03 -2.147625200450420380e-03 4.538297187536954880e-03
5.419000000000000000e+03 6.969314575195312500e+01 8.203185081481933594e+00 -5.566006293520331383e-04 -3.917331341654062271e-03 -1.342179602943360806e-03 5.036189220845699310e-03
5.420000000000000000e+03 6.955957794189453125e+01 -2.876113128662109375e+01 8.341255597770214081e-04 -9.342789649963378906e-03 -2.552599413320422173e-03 1.474870485253632069e-03
5.421000000000000000e+03 7.012947082519531250e+01 1.441183185577392578e+01 -1.184618449769914150e-03 -2.245429903268814087e-03 -1.029014470987021923e-03 3.949009813368320465e-03
5.422000000000000000e+03 1.125899505615234375e+01 -1.613430213928222656e+01 -1.206710818223655224e-03 9.247577749192714691e-03 2.412260044366121292e-03 6.865823175758123398e-03
5.423000000000000000e+03 6.897982025146484375e+01 -8.545554161071777344e+00 8.417234639637172222e-04 -7.160601206123828888e-03 -1.895663212053477764e-03 4.133350681513547897e-03
5.424000000000000000e+03 6.991701507568359375e+01 -1.472099494934082031e+01 6.882988382130861282e-04 -9.033535607159137726e-03 -2.503571100533008575e-03 3.256202209740877151e-03
5.425000000000000000e+03 2.786742019653320312e+01 1.555083543062210083e-01 1.209593471139669418e-02 3.615762665867805481e-02 1.447606831789016724e-02 7.389770355075597763e-03
5.426000000000000000e+03 4.910424041748046875e+01 2.593036079406738281e+01 -5.598909687250852585e-03 -2.725175872910767794e-04 -1.761428196914494038e-03 -2.409218810498714447e-03
5.427000000000000000e+03 2.519863700866699219e+01 9.294766187667846680e-01 3.462144732475280762e-02 -9.072213433682918549e-03 7.664770353585481644e-03 1.238075830042362213e-02
5.428000000000000000e+03 4.053448486328125000e+01 1.827218818664550781e+01 -2.159975655376911163e-02 -3.328654216602444649e-03 -7.478523533791303635e-03 -1.183374226093292236e-02
5.429000000000000000e+03 4.095543289184570312e+01 1.740604209899902344e+01 -2.510796487331390381e-02 5.487198723130859435e-05 -7.515928242355585098e-03 -9.894740767776966095e-03
5.430000000000000000e+03 2.985922050476074219e+01 -8.064000606536865234e-01 -8.421296952292323112e-04 5.559056624770164490e-02 1.642453111708164215e-02 -1.176448538899421692e-02
5.431000000000000000e+03 3.561133193969726562e+01 1.147093868255615234e+01 -9.969200193881988525e-02 2.472355589270591736e-02 -2.249053493142127991e-02 7.435488048940896988e-03
5.432000000000000000e+03 3.565081787109375000e+01 1.230365276336669922e+01 -9.724080562591552734e-02 1.544650364667177200e-02 -2.453828975558280945e-02 -1.088750082999467850e-02
5.433000000000000000e+03 4.080561828613281250e+01 1.713505744934082031e+01 -2.695705927908420563e-02 3.691025194711983204e-04 -7.976387627422809601e-03 -9.789232164621353149e-03
5.434000000000000000e+03 4.258202362060546875e+01 1.921115112304687500e+01 -1.738966628909111023e-02 -8.502171258442103863e-04 -5.471964832395315170e-03 -7.897607982158660889e-03
5.435000000000000000e+03 5.362363433837890625e+01 2.896313858032226562e+01 -3.247965592890977859e-03 3.856889379676431417e-04 -8.586829644627869129e-04 -9.106302750296890736e-04
5.436000000000000000e+03 3.698959732055664062e+01 1.334246349334716797e+01 -6.725479662418365479e-02 7.919721305370330811e-03 -1.780052110552787781e-02 -1.295200828462839127e-02
5.437000000000000000e+03 3.687444686889648438e+01 1.374492740631103516e+01 -6.639450043439865112e-02 2.354521071538329124e-03 -1.921199448406696320e-02 -1.597558893263339996e-02
5.438000000000000000e+03 4.417664337158203125e+01 2.126771354675292969e+01 -1.246886886656284332e-02 -1.371850725263357162e-03 -4.152216017246246338e-03 -5.872119218111038208e-03
5.439000000000000000e+03 4.473852920532226562e+01 2.117849159240722656e+01 -1.265357341617345810e-02 -5.501467967405915260e-04 -3.961116075515747070e-03 -5.162694957107305527e-03
5.440000000000000000e+03 4.974723815917968750e+01 2.575043106079101562e+01 -5.824874155223369598e-03 1.547315332572907209e-04 -1.701042754575610161e-03 -2.124755876138806343e-03
5.441000000000000000e+03 2.506468200683593750e+01 4.480769038200378418e-01 2.458904869854450226e-02 -1.014408934861421585e-02 4.333487711846828461e-03 1.244047470390796661e-02
5.442000000000000000e+03 3.721532440185546875e+01 1.419180870056152344e+01 -5.864350125193595886e-02 3.382645372767001390e-04 -1.749157160520553589e-02 -1.691605523228645325e-02
5.443000000000000000e+03 3.450764846801757812e+01 9.799036026000976562e+00 -9.814659506082534790e-02 3.202442079782485962e-02 -1.983665116131305695e-02 6.516637653112411499e-02
5.444000000000000000e+03 2.661965370178222656e+01 2.385206699371337891e+00 5.382798612117767334e-02 8.153515867888927460e-03 1.859445124864578247e-02 2.173783257603645325e-02
5.445000000000000000e+03 4.066487121582031250e+01 1.688135719299316406e+01 -2.771648764610290527e-02 9.095467976294457912e-04 -8.042082190513610840e-03 -9.836286306381225586e-03
5.446000000000000000e+03 4.395402526855468750e+01 2.076963996887207031e+01 -1.342934183776378632e-02 -1.084781368263065815e-03 -4.354236647486686707e-03 -5.992702208459377289e-03
5.447000000000000000e+03 3.730731964111328125e+01 1.379470539093017578e+01 -6.078835204243659973e-02 5.556634161621332169e-03 -1.656951569020748138e-02 -1.418483350425958633e-02
5.448000000000000000e+03 2.676807594299316406e+01 2.146643638610839844e+00 5.025699362158775330e-02 1.243353821337223053e-02 1.880715973675251007e-02 2.163594402372837067e-02
5.449000000000000000e+03 4.714179611206054688e+01 2.449227333068847656e+01 -7.366368547081947327e-03 -8.641279418952763081e-04 -2.469148952513933182e-03 -3.459154395386576653e-03
5.450000000000000000e+03 2.569567298889160156e+01 1.398489952087402344e+00 4.171764478087425232e-02 -2.911505755037069321e-03 1.164184138178825378e-02 1.443401817232370377e-02
5.451000000000000000e+03 2.697167587280273438e+01 1.970369100570678711e+00 4.633499309420585632e-02 2.025146782398223877e-02 1.997593790292739868e-02 2.175289578735828400e-02
5.452000000000000000e+03 4.499639129638671875e+01 2.165287590026855469e+01 -1.170715037733316422e-02 -8.356994367204606533e-04 -3.762854961678385735e-03 -4.966216627508401871e-03
5.453000000000000000e+03 2.683571052551269531e+01 1.370492279529571533e-01 1.693551987409591675e-02 1.621914841234683990e-02 9.946400299668312073e-03 1.139718014746904373e-02
5.454000000000000000e+03 5.084681320190429688e+01 2.742737197875976562e+01 -4.309167154133319855e-03 -1.017234262690180913e-05 -1.295801834203302860e-03 -1.676980638876557350e-03
5.455000000000000000e+03 3.788010406494140625e+01 1.434911823272705078e+01 -5.294783785939216614e-02 1.669339369982481003e-03 -1.538354903459548950e-02 -1.338356919586658478e-02
5.456000000000000000e+03 3.818635177612304688e+01 1.453025436401367188e+01 -4.922088235616683960e-02 3.976195584982633591e-03 -1.357340626418590546e-02 -1.266076136380434036e-02
5.457000000000000000e+03 4.350701141357421875e+01 2.015632247924804688e+01 -1.486761495471000671e-02 -8.885730640031397343e-04 -4.726856481283903122e-03 -6.451763678342103958e-03
5.458000000000000000e+03 4.308989334106445312e+01 2.022494316101074219e+01 -1.472825277596712112e-02 -1.681818161159753799e-03 -4.923021420836448669e-03 -7.136381696909666061e-03
5.459000000000000000e+03 3.855241394042968750e+01 1.466769409179687500e+01 -4.665941745042800903e-02 2.671593334525823593e-03 -1.319634635001420975e-02 -1.110081374645233154e-02
5.460000000000000000e+03 3.878309631347656250e+01 1.509993267059326172e+01 -4.281831532716751099e-02 1.014669542200863361e-03 -1.254109293222427368e-02 -1.226396393030881882e-02
5.461000000000000000e+03 5.308213806152343750e+01 2.889586067199707031e+01 -3.291917266324162483e-03 3.041533345822244883e-04 -8.963291766121983528e-04 -1.016031601466238499e-03
5.462000000000000000e+03 5.346851730346679688e+01 2.952920913696289062e+01 -2.863635309040546417e-03 2.510958875063806772e-04 -7.837618468329310417e-04 -9.220523643307387829e-04
5.463000000000000000e+03 5.062415313720703125e+01 2.716976547241210938e+01 -4.508187063038349152e-03 -5.111978680361062288e-05 -1.367792021483182907e-03 -1.738579710945487022e-03
5.464000000000000000e+03 4.696639251708984375e+01 2.348671722412109375e+01 -8.650711737573146820e-03 -3.936456923838704824e-04 -2.713307272642850876e-03 -3.537127748131752014e-03
5.465000000000000000e+03 3.942048263549804688e+01 1.626891326904296875e+01 -3.352474048733711243e-02 -2.219537855125963688e-04 -1.012400910258293152e-02 -1.293606404215097427e-02
5.466000000000000000e+03 4.019175338745117188e+01 1.673483085632324219e+01 -2.955055981874465942e-02 7.938363705761730671e-05 -8.841352537274360657e-03 -1.112079899758100510e-02
5.467000000000000000e+03 4.538549041748046875e+01 2.167080688476562500e+01 -1.161318924278020859e-02 -3.214337921235710382e-04 -3.580386983230710030e-03 -4.581470508128404617e-03
5.468000000000000000e+03 4.567281341552734375e+01 2.215206527709960938e+01 -1.076961681246757507e-02 -4.938929341733455658e-04 -3.379052970558404922e-03 -4.407480824738740921e-03
5.469000000000000000e+03 2.802907371520996094e+01 2.605184316635131836e+00 4.605570435523986816e-02 5.789199098944664001e-02 3.118430823087692261e-02 2.753159776329994202e-02
5.470000000000000000e+03 4.352992248535156250e+01 2.054379653930664062e+01 -1.391885709017515182e-02 -1.460682717151939869e-03 -4.613861907273530960e-03 -6.531684659421443939e-03
5.471000000000000000e+03 5.093888092041015625e+01 2.697253608703613281e+01 -4.682928323745727539e-03 1.858205359894782305e-04 -1.349132275208830833e-03 -1.633330364711582661e-03
5.472000000000000000e+03 5.111484527587890625e+01 2.760543632507324219e+01 -4.179999697953462601e-03 2.600073457870166749e-05 -1.246199710294604301e-03 -1.553023816086351871e-03
5.473000000000000000e+03 4.080265045166015625e+01 1.868748855590820312e+01 -1.933476515114307404e-02 -3.573718713596463203e-03 -6.872545462101697922e-03 -1.110606547445058823e-02
5.474000000000000000e+03 4.781880187988281250e+01 2.437495040893554688e+01 -7.519065868109464645e-03 -2.802657254505902529e-04 -2.339799422770738602e-03 -3.062305506318807602e-03
5.475000000000000000e+03 4.807598876953125000e+01 2.469705581665039062e+01 -6.987978704273700714e-03 -2.732136053964495659e-04 -2.178357681259512901e-03 -2.959627192467451096e-03
5.476000000000000000e+03 5.069140625000000000e+01 2.666034317016601562e+01 -4.978556651622056961e-03 1.732148957671597600e-04 -1.441602595150470734e-03 -1.722349552437663078e-03
5.477000000000000000e+03 2.709691810607910156e+01 -3.386326432228088379e-01 9.276976808905601501e-03 1.960618048906326294e-02 8.664947003126144409e-03 9.732164442539215088e-03
5.478000000000000000e+03 2.805271911621093750e+01 -7.830477952957153320e-01 -1.190633862279355526e-03 3.378564119338989258e-02 9.778501465916633606e-03 3.652035025879740715e-03
5.479000000000000000e+03 4.154253387451171875e+01 1.880409240722656250e+01 -1.944574154913425446e-02 -2.168366685509681702e-03 -6.484232377260923386e-03 -9.522428736090660095e-03
5.480000000000000000e+03 4.425792694091796875e+01 2.069704055786132812e+01 -1.361795701086521149e-02 -5.804357351735234261e-04 -4.259517882019281387e-03 -5.576085764914751053e-03
5.481000000000000000e+03 4.434367370605468750e+01 2.091833877563476562e+01 -1.303348131477832794e-02 -6.912182434462010860e-04 -4.117409698665142059e-03 -5.473256111145019531e-03
5.482000000000000000e+03 4.631581115722656250e+01 2.265834808349609375e+01 -9.908576495945453644e-03 -3.600300406105816364e-04 -3.080581780523061752e-03 -3.907516133040189743e-03
5.483000000000000000e+03 4.845897293090820312e+01 2.547632789611816406e+01 -6.101598963141441345e-03 -4.369172384031116962e-04 -1.961554866284132004e-03 -2.776232315227389336e-03
5.484000000000000000e+03 3.939980697631835938e+01 1.571223640441894531e+01 -3.685956448316574097e-02 2.342759165912866592e-03 -1.035504229366779327e-02 -1.138234697282314301e-02
5.485000000000000000e+03 4.123270797729492188e+01 1.859745025634765625e+01 -1.994008198380470276e-02 -2.177810762077569962e-03 -6.635367404669523239e-03 -1.030446961522102356e-02
5.486000000000000000e+03 4.325011062622070312e+01 1.958755111694335938e+01 -1.612544804811477661e-02 -3.325452853459864855e-04 -4.937397781759500504e-03 -6.749280262738466263e-03
5.487000000000000000e+03 4.663161087036132812e+01 2.310175704956054688e+01 -9.235830977559089661e-03 -4.236949607729911804e-04 -2.897857688367366791e-03 -3.733344376087188721e-03
5.488000000000000000e+03 3.968672943115234375e+01 1.594245243072509766e+01 -3.507681563496589661e-02 1.073263469152152538e-03 -1.020106580108404160e-02 -1.054697018116712570e-02
5.489000000000000000e+03 3.980084228515625000e+01 1.643092536926269531e+01 -3.206735849380493164e-02 -6.015041726641356945e-04 -9.800659492611885071e-03 -1.171225588768720627e-02
5.490000000000000000e+03 5.353701019287109375e+01 2.805531501770019531e+01 -3.827287349849939346e-03 5.725850351154804230e-04 -9.764106944203376770e-04 -9.029338252730667591e-04
5.491000000000000000e+03 3.407855224609375000e+01 9.439937591552734375e+00 -8.705504238605499268e-02 3.159313648939132690e-02 -1.663857139647006989e-02 8.828109502792358398e-02
5.492000000000000000e+03 4.602348709106445312e+01 2.220078277587890625e+01 -1.065390184521675110e-02 -2.646246284712105989e-04 -3.275558119639754295e-03 -4.097980447113513947e-03
5.493000000000000000e+03 4.728952026367187500e+01 2.353102874755859375e+01 -8.579223416745662689e-03 -3.131866469630040228e-05 -2.583162626251578331e-03 -3.308280603960156441e-03
5.494000000000000000e+03 4.825650787353515625e+01 2.509931373596191406e+01 -6.587007548660039902e-03 -3.908931976184248924e-04 -2.093370305374264717e-03 -2.829786390066146851e-03
5.495000000000000000e+03 4.933245849609375000e+01 2.557804107666015625e+01 -6.041887681931257248e-03 -2.273084101034328341e-05 -1.819385564886033535e-03 -2.326424000784754753e-03
5.496000000000000000e+03 3.017167663574218750e+01 3.900858402252197266e+00 6.846718490123748779e-02 1.735705137252807617e-01 7.261130958795547485e-02 -5.323076248168945312e-02
5.497000000000000000e+03 2.952563095092773438e+01 3.397630929946899414e+00 4.399609193205833435e-02 1.478865295648574829e-01 5.756478756666183472e-02 -9.687162935733795166e-03
5.498000000000000000e+03 3.498825454711914062e+01 1.113647270202636719e+01 -1.134703978896141052e-01 2.794294245541095734e-02 -2.565823681652545929e-02 1.585839316248893738e-02
5.499000000000000000e+03 3.528990173339843750e+01 1.135740756988525391e+01 -1.100485771894454956e-01 2.221909724175930023e-02 -2.634884417057037354e-02 1.063404045999050140e-02
5.500000000000000000e+03 3.114802169799804688e+01 3.637131929397583008e+00 8.731536567211151123e-02 1.256044805049896240e-01 6.387595087289810181e-02 -7.757753133773803711e-02
5.501000000000000000e+03 2.549934768676757812e+01 9.407446384429931641e-01 3.474706038832664490e-02 -4.723367281258106232e-03 9.007108397781848907e-03 1.352507434785366058e-02
5.502000000000000000e+03 2.595981788635253906e+01 1.784928143024444580e-01 1.947150379419326782e-02 2.132145920768380165e-03 6.481095217168331146e-03 1.270886138081550598e-02
5.503000000000000000e+03 3.510412597656250000e+01 1.161704444885253906e+01 -1.109184771776199341e-01 2.158197201788425446e-02 -2.680095098912715912e-02 -4.822147457161918283e-05
5.504000000000000000e+03 3.478487014770507812e+01 4.988600254058837891e+00 1.195852458477020264e-01 -1.507747173309326172e-02 3.135232999920845032e-02 -7.925735786557197571e-03
5.505000000000000000e+03 3.346657943725585938e+01 6.065262794494628906e+00 1.793945878744125366e-01 -2.776168659329414368e-02 4.548987001180648804e-02 1.277110353112220764e-02
5.506000000000000000e+03 3.220067214965820312e+01 4.542733192443847656e+00 1.589728146791458130e-01 5.165138840675354004e-02 6.318725645542144775e-02 -7.946327328681945801e-02
5.507000000000000000e+03 2.767576217651367188e+01 2.638816595077514648e+00 5.054300278425216675e-02 4.445669427514076233e-02 2.849990874528884888e-02 2.869705483317375183e-02
5.508000000000000000e+03 3.374423217773437500e+01 5.640241146087646484e+00 1.626425832509994507e-01 -2.315724454820156097e-02 4.184560105204582214e-02 -5.040029995143413544e-03
5.509000000000000000e+03 4.877784347534179688e+01 2.522775840759277344e+01 -6.492437794804573059e-03 -1.539749937364831567e-04 -1.993923913687467575e-03 -2.597627229988574982e-03
5.510000000000000000e+03 3.010569763183593750e+01 -1.338421225547790527e+00 -5.168061237782239914e-03 5.242346599698066711e-02 1.417662110179662704e-02 -1.273867022246122360e-02
5.511000000000000000e+03 3.488864898681640625e+01 9.516588211059570312e+00 -6.864047795534133911e-02 2.429198659956455231e-02 -1.330454833805561066e-02 7.182620465755462646e-02
5.512000000000000000e+03 3.538663101196289062e+01 1.052372455596923828e+01 -9.310344606637954712e-02 2.528975717723369598e-02 -2.034410648047924042e-02 3.807507827877998352e-02
5.513000000000000000e+03 3.508176422119140625e+01 1.085115528106689453e+01 -1.071134507656097412e-01 2.541743591427803040e-02 -2.450880594551563263e-02 2.488438412547111511e-02
5.514000000000000000e+03 3.552355194091796875e+01 1.115581512451171875e+01 -1.001461297273635864e-01 2.533796429634094238e-02 -2.244244888424873352e-02 1.983871683478355408e-02
5.515000000000000000e+03 3.391775894165039062e+01 7.765481472015380859e+00 6.403835117816925049e-02 -2.108592726290225983e-02 1.288572791963815689e-02 9.839249402284622192e-02
5.516000000000000000e+03 5.580471420288085938e+01 2.859097480773925781e+01 -3.360327333211898804e-03 7.114656618796288967e-04 -7.946584955789148808e-04 -4.268535994924604893e-04
5.517000000000000000e+03 3.194314384460449219e+01 4.179688453674316406e+00 1.365795731544494629e-01 8.035847544670104980e-02 6.508141010999679565e-02 -8.755634725093841553e-02
5.518000000000000000e+03 6.739437866210937500e+01 2.646644783020019531e+01 -1.698081498034298420e-03 -5.565516403294168413e-05 -5.261210026219487190e-04 1.316318404860794544e-03
5.519000000000000000e+03 7.068699645996093750e+01 2.340535354614257812e+01 -1.184632885269820690e-03 -7.194019271992146969e-04 -5.712104612030088902e-04 1.771835493855178356e-03
5.520000000000000000e+03 7.110224151611328125e+01 2.593503761291503906e+01 -9.982783813029527664e-04 -4.719571734312921762e-04 -4.410706751514226198e-04 1.210813992656767368e-03
5.521000000000000000e+03 6.947484588623046875e+01 2.569783210754394531e+01 -1.339207519777119160e-03 -3.151196870021522045e-04 -4.962981329299509525e-04 1.384155941195785999e-03
5.522000000000000000e+03 7.061837005615234375e+01 2.514553451538085938e+01 -1.109491568058729172e-03 -5.039499374106526375e-04 -4.840324691031128168e-04 1.390093239024281502e-03
5.523000000000000000e+03 7.004541015625000000e+01 2.554341888427734375e+01 -1.220279256813228130e-03 -4.090182483196258545e-04 -4.887892282567918301e-04 1.379558700136840343e-03
5.524000000000000000e+03 6.287453079223632812e+01 2.546335029602050781e+01 -2.951045054942369461e-03 6.345673464238643646e-04 -6.949433009140193462e-04 1.397787709720432758e-03
5.525000000000000000e+03 6.199802017211914062e+01 2.698647689819335938e+01 -2.831987338140606880e-03 6.055212579667568207e-04 -6.679398356936872005e-04 9.289929294027388096e-04
5.526000000000000000e+03 3.406492996215820312e+01 8.247281074523925781e+00 1.844831556081771851e-02 3.167444374412298203e-03 6.484727840870618820e-03 1.039611250162124634e-01
5.527000000000000000e+03 6.359215927124023438e+01 2.612606620788574219e+01 -2.633722266182303429e-03 4.674495721701532602e-04 -6.498818402178585529e-04 1.287764520384371281e-03
5.528000000000000000e+03 6.585611724853515625e+01 2.586903572082519531e+01 -2.120326971635222435e-03 1.447319227736443281e-04 -5.926785524934530258e-04 1.461730455048382282e-03
5.529000000000000000e+03 6.512574768066406250e+01 2.667712402343750000e+01 -2.174846129491925240e-03 2.226221258752048016e-04 -5.856672069057822227e-04 1.251962617971003056e-03
5.530000000000000000e+03 6.991052246093750000e+01 2.332786750793457031e+01 -1.383531140163540840e-03 -5.928626051172614098e-04 -5.929181352257728577e-04 1.882304553873836994e-03
5.531000000000000000e+03 5.938362503051757812e+01 2.728056526184082031e+01 -3.334068926051259041e-03 8.623477187938988209e-04 -7.415162981487810612e-04 4.870413977187126875e-04
5.532000000000000000e+03 5.904119491577148438e+01 2.656170082092285156e+01 -3.653683699667453766e-03 1.004919875413179398e-03 -7.946291589178144932e-04 5.941484705545008183e-04
5.533000000000000000e+03 2.848665618896484375e+01 2.986328363418579102e+00 4.374576359987258911e-02 8.754587918519973755e-02 3.938749060034751892e-02 2.436855994164943695e-02
5.534000000000000000e+03 2.858765029907226562e+01 -6.598989367485046387e-01 4.321216256357729435e-04 4.328494891524314880e-02 1.311512105166912079e-02 1.210357178933918476e-03
5.535000000000000000e+03 8.809153556823730469e+00 -7.166356086730957031e+00 4.502230323851108551e-03 2.718697302043437958e-03 2.166278427466750145e-03 4.840670619159936905e-03
5.536000000000000000e+03 9.340529441833496094e+00 -9.363612174987792969e+00 3.338510170578956604e-03 4.710347391664981842e-03 2.414657268673181534e-03 6.414890754967927933e-03
5.537000000000000000e+03 5.732019424438476562e+01 2.674411582946777344e+01 -3.994883969426155090e-03 1.122150337323546410e-03 -8.618201245553791523e-04 2.086766471620649099e-04
5.538000000000000000e+03 5.794599914550781250e+01 2.638397026062011719e+01 -3.982593771070241928e-03 1.134920166805386543e-03 -8.543021394871175289e-04 4.286231414880603552e-04
5.539000000000000000e+03 6.588750457763671875e+01 2.659799957275390625e+01 -2.012290526181459427e-03 1.263642916455864906e-04 -5.657778237946331501e-04 1.288269297219812870e-03
5.540000000000000000e+03 7.063684082031250000e+01 1.529496383666992188e+01 -1.132055884227156639e-03 -2.222013194113969803e-03 -1.006220700219273567e-03 3.660083748400211334e-03
5.541000000000000000e+03 5.691588211059570312e+01 2.760608863830566406e+01 -3.679219633340835571e-03 9.396645473316311836e-04 -8.218665607273578644e-04 -7.494790042983368039e-05
5.542000000000000000e+03 5.758512878417968750e+01 2.732358360290527344e+01 -3.706497605890035629e-03 9.786555310711264610e-04 -8.183526224456727505e-04 1.277733535971492529e-04
5.543000000000000000e+03 3.577600479125976562e+01 -4.945441246032714844e+00 -1.454022945836186409e-03 3.353945538401603699e-02 9.625630453228950500e-03 -2.136572450399398804e-02
5.544000000000000000e+03 3.385005187988281250e+01 -3.508805990219116211e+00 -2.080968348309397697e-03 4.112504422664642334e-02 1.171322260051965714e-02 -2.486159838736057281e-02
5.545000000000000000e+03 3.681225967407226562e+01 -4.626675605773925781e+00 3.775152144953608513e-03 3.032494150102138519e-02 1.023002807050943375e-02 -2.305030450224876404e-02
5.546000000000000000e+03 2.980937385559082031e+01 3.491242647171020508e+00 4.955278337001800537e-02 1.564772725105285645e-01 6.180901825428009033e-02 -2.561710029840469360e-02
5.547000000000000000e+03 6.435414886474609375e+01 2.604440689086914062e+01 -2.461489522829651833e-03 3.623850061558187008e-04 -6.297313375398516655e-04 1.363972318358719349e-03
5.548000000000000000e+03 6.660476684570312500e+01 2.578993415832519531e+01 -1.949667348526418209e-03 3.647421544883400202e-05 -5.739579210057854652e-04 1.479279948398470879e-03
5.549000000000000000e+03 1.024344348907470703e+01 -7.529713630676269531e+00 5.418556276708841324e-03 3.866018727421760559e-03 2.785372547805309296e-03 6.615313235670328140e-03
5.550000000000000000e+03 6.941364288330078125e+01 1.129297256469726562e+01 -9.913344401866197586e-04 -2.865066286176443100e-03 -1.156920217908918858e-03 4.731849301606416702e-03
5.551000000000000000e+03 6.956107330322265625e+01 6.586304187774658203e+00 -3.454628749750554562e-04 -4.288588184863328934e-03 -1.390215358696877956e-03 5.186662543565034866e-03
5.552000000000000000e+03 7.052523803710937500e+01 6.138629913330078125e+00 -2.704448997974395752e-04 -4.962990060448646545e-03 -1.570030464790761471e-03 4.884179215878248215e-03
5.553000000000000000e+03 3.264273452758789062e+01 -1.723543286323547363e+00 3.406136529520153999e-03 5.161662399768829346e-02 1.650682836771011353e-02 -2.983179129660129547e-02
5.554000000000000000e+03 6.844293212890625000e+01 -2.803716421127319336e+00 7.137716747820377350e-04 -5.868442822247743607e-03 -1.546401297673583031e-03 4.913670010864734650e-03
5.555000000000000000e+03 7.024471282958984375e+01 2.205596685409545898e+00 1.702126028249040246e-04 -6.033371668308973312e-03 -1.758947735652327538e-03 5.002005957067012787e-03
5.556000000000000000e+03 6.910310363769531250e+01 -2.005902528762817383e+00 5.916737136431038380e-04 -6.259149406105279922e-03 -1.700242748484015465e-03 4.923100117594003677e-03
5.557000000000000000e+03 9.410759925842285156e+00 -1.059696388244628906e+01 2.486797515302896500e-03 6.231145001947879791e-03 2.615382662042975426e-03 7.174566853791475296e-03
5.558000000000000000e+03 6.928305816650390625e+01 9.768382072448730469e+00 -8.062826236709952354e-04 -3.247509943321347237e-03 -1.216137781739234924e-03 4.995514173060655594e-03
5.559000000000000000e+03 6.976633453369140625e+01 7.318938255310058594e+00 -4.528556892182677984e-04 -4.115772433578968048e-03 -1.370588433928787708e-03 5.095715168863534927e-03
5.560000000000000000e+03 1.044086074829101562e+01 -9.452854156494140625e+00 3.891660831868648529e-03 6.095232442021369934e-03 2.996067982167005539e-03 7.914378307759761810e-03
5.561000000000000000e+03 6.913621520996093750e+01 1.905034255981445312e+01 -1.642968622036278248e-03 -9.777272352948784828e-04 -7.862087222747504711e-04 3.036027774214744568e-03
5.562000000000000000e+03 7.075884246826171875e+01 2.119167137145996094e+01 -1.260278979316353798e-03 -1.007663318887352943e-03 -6.803827127441763878e-04 2.273644087836146355e-03
5.563000000000000000e+03 3.966986465454101562e+01 -6.346217155456542969e+00 4.515839274972677231e-03 2.382265217602252960e-02 8.501547388732433319e-03 -1.719533279538154602e-02
5.564000000000000000e+03 4.120943069458007812e+01 -1.385826015472412109e+01 1.035395776852965355e-03 2.492191828787326813e-02 7.787194103002548218e-03 -9.760550223290920258e-03
5.565000000000000000e+03 1.087664031982421875e+01 -2.022250747680664062e+01 -1.684803166426718235e-03 9.376508183777332306e-03 2.307511400431394577e-03 5.627897102385759354e-03
5.566000000000000000e+03 1.042239761352539062e+01 -1.523133754730224609e+01 -5.998304113745689392e-04 8.778254501521587372e-03 2.453527180477976799e-03 6.835804320871829987e-03
5.567000000000000000e+03 7.103258514404296875e+01 1.669874382019042969e+01 -1.104855444282293320e-03 -2.004643669351935387e-03 -9.328497108072042465e-04 3.224136773496866226e-03
5.568000000000000000e+03 7.029531860351562500e+01 2.048572921752929688e+01 -1.353123923763632774e-03 -1.031541964039206505e-03 -7.153997430577874184e-04 2.497653476893901825e-03
5.569000000000000000e+03 4.279386901855468750e+01 -1.679758071899414062e+01 1.720314612612128258e-03 2.556749060750007629e-02 8.186341263353824615e-03 -9.126557968556880951e-03
5.570000000000000000e+03 4.264781951904296875e+01 -1.515723991394042969e+01 1.319097005762159824e-03 2.474751323461532593e-02 7.819983176887035370e-03 -9.107169695198535919e-03
5.571000000000000000e+03 1.223674774169921875e+01 -1.117150878906250000e+01 1.996733481064438820e-03 8.992055431008338928e-03 3.296636743471026421e-03 8.639255538582801819e-03
5.572000000000000000e+03 6.746427154541015625e+01 -2.786041641235351562e+01 1.392843434587121010e-03 -5.166050512343645096e-03 -1.131962053477764130e-03 1.512931310571730137e-03
5.573000000000000000e+03 1.280478477478027344e+01 -1.396034717559814453e+01 -8.538309484720230103e-04 9.831272065639495850e-03 2.693232381716370583e-03 7.625807542353868484e-03
5.574000000000000000e+03 1.291877651214599609e+01 -1.193582153320312500e+01 4.655725497286766768e-04 1.028274651616811752e-02 3.224495565518736839e-03 8.572364225983619690e-03
5.575000000000000000e+03 1.038920116424560547e+01 -1.707193374633789062e+01 -1.241902820765972137e-03 9.071443229913711548e-03 2.348862355574965477e-03 6.341302767395973206e-03
5.576000000000000000e+03 4.153916549682617188e+01 -1.109798526763916016e+01 8.488589664921164513e-04 2.390826307237148285e-02 7.427136413753032684e-03 -1.081521715968847275e-02
5.577000000000000000e+03 7.005803680419921875e+01 1.609484100341796875e+01 -1.305991434492170811e-03 -1.851839479058980942e-03 -9.473492973484098911e-04 3.635712200775742531e-03
5.578000000000000000e+03 7.039972686767578125e+01 -1.581687450408935547e+01 5.650424282066524029e-04 -9.875677525997161865e-03 -2.793190535157918930e-03 3.070683451369404793e-03
5.579000000000000000e+03 7.067590332031250000e+01 -1.176417922973632812e+01 5.934868822805583477e-04 -9.740899316966533661e-03 -2.744223689660429955e-03 3.483978565782308578e-03
5.580000000000000000e+03 1.271640110015869141e+01 -2.051182174682617188e+01 -2.175997477024793625e-03 8.932491764426231384e-03 2.026948379352688789e-03 5.463633686304092407e-03
5.581000000000000000e+03 1.387928009033203125e+01 -1.700510406494140625e+01 -2.319130813702940941e-03 9.402539581060409546e-03 2.125022467225790024e-03 6.187133491039276123e-03
5.582000000000000000e+03 4.262794876098632812e+01 -1.859469795227050781e+01 2.436166163533926010e-03 2.673616260290145874e-02 8.751698769629001617e-03 -9.715727530419826508e-03
5.583000000000000000e+03 1.885681152343750000e+01 -2.504623985290527344e+01 -3.161999629810452461e-03 4.164912272244691849e-03 3.008738567586988211e-04 3.805238520726561546e-03
5.584000000000000000e+03 3.533015060424804688e+01 -3.042633056640625000e+00 6.538826040923595428e-03 3.609118610620498657e-02 1.278900355100631714e-02 -2.842407673597335815e-02
5.585000000000000000e+03 6.947927856445312500e+01 -1.949316215515136719e+01 7.394024287350475788e-04 -8.854336105287075043e-03 -2.434480236843228340e-03 2.641590777784585953e-03
5.586000000000000000e+03 9.590715408325195312e+00 -1.183379173278808594e+01 1.523268176242709160e-03 6.771893706172704697e-03 2.488548634573817253e-03 7.131271064281463623e-03
5.587000000000000000e+03 3.715833282470703125e+01 -5.690853595733642578e+00 6.651055300608277321e-04 2.960583940148353577e-02 9.081283584237098694e-03 -1.972301304340362549e-02
5.588000000000000000e+03 1.291763591766357422e+01 -1.044737529754638672e+01 2.059033606201410294e-03 9.836088865995407104e-03 3.568536834791302681e-03 9.290688671171665192e-03
5.589000000000000000e+03 6.880529022216796875e+01 2.568003082275390625e+01 -1.471382565796375275e-03 -2.474338980391621590e-04 -5.156449624337255955e-04 1.430948963388800621e-03
5.590000000000000000e+03 7.028742218017578125e+01 2.490082234144210815e-01 3.157808387186378241e-04 -6.634092889726161957e-03 -1.895493594929575920e-03 4.853005055338144302e-03
5.591000000000000000e+03 1.152401638031005859e+01 -2.158881950378417969e+01 -2.174603985622525215e-03 9.113224223256111145e-03 2.081586280837655067e-03 5.258523859083652496e-03
5.592000000000000000e+03 1.824514770507812500e+01 -1.978737831115722656e+01 -3.132928628474473953e-03 6.319396197795867920e-03 9.559402242302894592e-04 4.073661752045154572e-03
5.593000000000000000e+03 7.016000366210937500e+01 2.170188903808593750e+01 -1.397852902300655842e-03 -8.013447513803839684e-04 -6.597592728212475777e-04 2.223187126219272614e-03
5.594000000000000000e+03 6.947285461425781250e+01 -7.046608924865722656e+00 7.267788168974220753e-04 -7.527387235313653946e-03 -2.040182473137974739e-03 4.224476404488086700e-03
5.595000000000000000e+03 6.877024078369140625e+01 -2.255451774597167969e+01 9.646766702644526958e-04 -7.853061892092227936e-03 -2.066515618935227394e-03 2.359247067943215370e-03
5.596000000000000000e+03 4.670401000976562500e+01 -1.978606605529785156e+01 2.095454838126897812e-03 2.528566308319568634e-02 8.214334957301616669e-03 -6.317552179098129272e-03
5.597000000000000000e+03 4.519414901733398438e+01 -1.771080017089843750e+01 1.892728381790220737e-03 2.473619207739830017e-02 7.988676428794860840e-03 -7.489193696528673172e-03
5.598000000000000000e+03 4.846078491210937500e+01 -2.162599182128906250e+01 2.173924585804343224e-03 2.513866126537322998e-02 8.193776011466979980e-03 -4.576214589178562164e-03
5.599000000000000000e+03 5.403323745727539062e+01 -2.047457695007324219e+01 2.419991418719291687e-03 1.590572297573089600e-02 5.497714038938283920e-03 -7.476925966329872608e-04
5.600000000000000000e+03 1.130847740173339844e+01 -2.805749130249023438e+01 -2.084557199850678444e-03 9.461713954806327820e-03 2.213147003203630447e-03 3.663658630102872849e-03
5.601000000000000000e+03 1.181872940063476562e+01 -2.429997062683105469e+01 -2.094463445246219635e-03 9.126963093876838684e-03 2.109749708324670792e-03 4.599645733833312988e-03
5.602000000000000000e+03 4.910844039916992188e+01 -2.020086288452148438e+01 2.042304724454879761e-03 2.279024384915828705e-02 7.449764758348464966e-03 -4.354535602033138275e-03
5.603000000000000000e+03 1.592097759246826172e+01 -1.900313186645507812e+01 -2.931404625996947289e-03 8.070136420428752899e-03 1.541619538329541683e-03 4.945945460349321365e-03
5.604000000000000000e+03 1.162112236022949219e+01 -2.623679733276367188e+01 -2.024778164923191071e-03 9.080562740564346313e-03 2.116735326126217842e-03 4.158555064350366592e-03
5.605000000000000000e+03 9.924902915954589844e+00 -2.799842834472656250e+01 -1.723584951832890511e-03 1.027860864996910095e-02 2.566507318988442421e-03 3.587618935853242874e-03
5.606000000000000000e+03 7.082373046875000000e+01 -1.304737567901611328e+01 5.512522184289991856e-04 -1.013315934687852859e-02 -2.874572062864899635e-03 3.284818492829799652e-03
5.607000000000000000e+03 6.973624420166015625e+01 1.975398826599121094e+01 -1.492374343797564507e-03 -1.030654180794954300e-03 -7.569085573777556419e-04 2.760591218248009682e-03
5.608000000000000000e+03 1.296936607360839844e+01 -1.601255035400390625e+01 -1.721309032291173935e-03 9.652704000473022461e-03 2.379418350756168365e-03 6.779493298381567001e-03
5.609000000000000000e+03 1.206876564025878906e+01 -1.509928131103515625e+01 -1.057145069353282452e-03 9.409398771822452545e-03 2.505676122382283211e-03 7.085418794304132462e-03
5.610000000000000000e+03 6.908002471923828125e+01 -2.517337799072265625e+01 1.065147458575665951e-03 -8.349823765456676483e-03 -2.185402903705835342e-03 2.003893489018082619e-03
5.611000000000000000e+03 6.799063873291015625e+01 -2.636766242980957031e+01 1.211377675645053387e-03 -6.058383733034133911e-03 -1.454101759009063244e-03 1.819621771574020386e-03
5.612000000000000000e+03 1.048443317413330078e+01 -2.955574989318847656e+01 -1.628187135793268681e-03 1.004118099808692932e-02 2.523898147046566010e-03 3.323564771562814713e-03
5.613000000000000000e+03 6.820240783691406250e+01 -9.791251182556152344e+00 9.146985248662531376e-04 -6.399408448487520218e-03 -1.645412994548678398e-03 4.033072385936975479e-03
5.614000000000000000e+03 6.829781341552734375e+01 -1.738882637023925781e+01 8.755875169299542904e-04 -6.925836205482482910e-03 -1.815074589103460312e-03 3.064827295020222664e-03
5.615000000000000000e+03 6.946632385253906250e+01 -2.127081871032714844e+01 7.620474207215011120e-04 -8.991077542304992676e-03 -2.468709135428071022e-03 2.432003617286682129e-03
5.616000000000000000e+03 7.102409362792968750e+01 -2.090972900390625000e+01 5.960315465927124023e-04 -1.127627212554216385e-02 -3.204072127118706703e-03 2.502565272152423859e-03
5.617000000000000000e+03 2.652844429016113281e+01 3.346562981605529785e-01 2.071145176887512207e-02 1.137101929634809494e-02 9.624741040170192719e-03 1.300876308232545853e-02
5.618000000000000000e+03 4.765476226806640625e+01 2.404435920715332031e+01 -7.829957641661167145e-03 -1.988796284422278404e-04 -2.408651169389486313e-03 -3.191689727827906609e-03
5.619000000000000000e+03 2.602339935302734375e+01 1.157605051994323730e+00 3.784639388322830200e-02 1.448006019927561283e-03 1.178831979632377625e-02 1.499202195554971695e-02
5.620000000000000000e+03 2.842387962341308594e+01 2.752184629440307617e+00 4.156421869993209839e-02 8.040615916252136230e-02 3.659111261367797852e-02 2.229209244251251221e-02
5.621000000000000000e+03 3.655559539794921875e+01 1.269933032989501953e+01 -7.700778543949127197e-02 9.556292556226253510e-03 -2.023544907569885254e-02 -7.673782762140035629e-03
5.622000000000000000e+03 2.489739990234375000e+01 8.389635086059570312e-01 3.334558755159378052e-02 -1.115789823234081268e-02 6.656306795775890350e-03 1.324355881661176682e-02
5.623000000000000000e+03 3.654399490356445312e+01 1.221614933013916016e+01 -7.977884262800216675e-02 1.731549762189388275e-02 -1.873900368809700012e-02 1.052957395586417988e-05
5.624000000000000000e+03 3.743260574340820312e+01 1.337809276580810547e+01 -6.378988176584243774e-02 7.467519491910934448e-03 -1.689670979976654053e-02 -8.199955336749553680e-03
5.625000000000000000e+03 3.704310226440429688e+01 1.299519157409667969e+01 -7.033714652061462402e-02 1.041138451546430588e-02 -1.797772757709026337e-02 -6.804572883993387222e-03
5.626000000000000000e+03 3.479637145996093750e+01 1.088940143585205078e+01 -1.190288960933685303e-01 3.189358115196228027e-02 -2.614059299230575562e-02 2.393707260489463806e-02
5.627000000000000000e+03 5.235086059570312500e+01 2.794617462158203125e+01 -3.904206911101937294e-03 3.381877322681248188e-04 -1.069805701263248920e-03 -1.188409980386495590e-03
5.628000000000000000e+03 4.544047164916992188e+01 2.123972320556640625e+01 -1.225249003618955612e-02 9.472137026023119688e-05 -3.647330682724714279e-03 -4.427765030413866043e-03
5.629000000000000000e+03 4.054678344726562500e+01 1.663877105712890625e+01 -2.954606153070926666e-02 1.384268281981348991e-03 -8.448537439107894897e-03 -9.191343560814857483e-03
5.630000000000000000e+03 5.478655624389648438e+01 2.878794860839843750e+01 -3.305391175672411919e-03 5.888954037800431252e-04 -8.149487548507750034e-04 -6.620448548346757889e-04
5.631000000000000000e+03 5.041928100585937500e+01 2.634184265136718750e+01 -5.236608441919088364e-03 2.068864996545016766e-04 -1.508916611783206463e-03 -1.836812472902238369e-03
5.632000000000000000e+03 4.899564743041992188e+01 2.543211364746093750e+01 -6.145757623016834259e-03 -1.004140067379921675e-04 -1.873851520940661430e-03 -2.510528778657317162e-03
5.633000000000000000e+03 4.298088073730468750e+01 1.987768745422363281e+01 -1.570415124297142029e-02 -1.423082663677632809e-03 -5.138169974088668823e-03 -7.123040501028299332e-03
5.634000000000000000e+03 4.452102279663085938e+01 2.072684478759765625e+01 -1.345881540328264236e-02 -3.558807948138564825e-04 -4.144408740103244781e-03 -5.331799853593111038e-03
5.635000000000000000e+03 2.631203651428222656e+01 1.881511092185974121e+00 4.873726516962051392e-02 4.993956536054611206e-03 1.611936651170253754e-02 1.885358989238739014e-02
5.636000000000000000e+03 2.713161849975585938e+01 1.489805102348327637e+00 3.781867027282714844e-02 2.500826120376586914e-02 1.884808018803596497e-02 1.819012872874736786e-02
5.637000000000000000e+03 5.228918075561523438e+01 2.760442543029785156e+01 -4.204794298857450485e-03 4.329685471020638943e-04 -1.131547731347382069e-03 -1.212480710819363594e-03
5.638000000000000000e+03 3.771102905273437500e+01 1.387010288238525391e+01 -5.789053067564964294e-02 4.448367282748222351e-03 -1.603264920413494110e-02 -1.120865065604448318e-02
5.639000000000000000e+03 2.971660232543945312e+01 3.820968866348266602e+00 5.217545479536056519e-02 1.738638132810592651e-01 6.781177967786788940e-02 -2.585639432072639465e-02
5.640000000000000000e+03 4.223407363891601562e+01 1.907791328430175781e+01 -1.809739693999290466e-02 -1.352516119368374348e-03 -5.834974348545074463e-03 -8.132080547511577606e-03
5.641000000000000000e+03 4.089150619506835938e+01 1.815235328674316406e+01 -2.222215197980403900e-02 -2.167593687772750854e-03 -7.316923700273036957e-03 -1.083334907889366150e-02
5.642000000000000000e+03 4.126690292358398438e+01 1.799345016479492188e+01 -2.228795923292636871e-02 -7.675504311919212341e-04 -6.916652899235486984e-03 -9.780739434063434601e-03
5.643000000000000000e+03 2.823301124572753906e+01 8.988991379737854004e-01 2.069895714521408081e-02 4.964869096875190735e-02 2.110429294407367706e-02 9.978866204619407654e-03
5.644000000000000000e+03 3.807080078125000000e+01 1.400724983215332031e+01 -5.327780917286872864e-02 7.334649097174406052e-03 -1.378294732421636581e-02 -9.700951166450977325e-03
5.645000000000000000e+03 4.073870468139648438e+01 1.625218772888183594e+01 -3.059714660048484802e-02 2.664409810677170753e-03 -8.379820734262466431e-03 -7.963784039020538330e-03
5.646000000000000000e+03 5.113775253295898438e+01 2.729319000244140625e+01 -4.426390863955020905e-03 1.327430218225345016e-04 -1.288094324991106987e-03 -1.560404896736145020e-03
5.647000000000000000e+03 5.174157333374023438e+01 2.750769233703613281e+01 -4.264562390744686127e-03 2.678023593034595251e-04 -1.199028105475008488e-03 -1.375298132188618183e-03
5.648000000000000000e+03 4.111072158813476562e+01 1.769065856933593750e+01 -2.417258545756340027e-02 -4.877470200881361961e-04 -7.398099638521671295e-03 -9.881296195089817047e-03
5.649000000000000000e+03 3.874470901489257812e+01 1.433586883544921875e+01 -4.679834470152854919e-02 6.630387157201766968e-03 -1.205038744956254959e-02 -8.225816302001476288e-03
5.650000000000000000e+03 4.583868408203125000e+01 2.121841430664062500e+01 -1.217836793512105942e-02 5.611544474959373474e-04 -3.485164139419794083e-03 -3.968283068388700485e-03
5.651000000000000000e+03 4.578151321411132812e+01 2.168747138977050781e+01 -1.146250776946544647e-02 -5.853877610206836835e-06 -3.440508386120200157e-03 -4.161721561104059219e-03
5.652000000000000000e+03 4.425488281250000000e+01 2.014969062805175781e+01 -1.460778620094060898e-02 1.349723024759441614e-04 -4.341844003647565842e-03 -5.338690243661403656e-03
5.653000000000000000e+03 3.635005569458007812e+01 1.337981891632080078e+01 -7.418020814657211304e-02 5.054238252341747284e-03 -2.073779143393039703e-02 -1.882974617183208466e-02
5.654000000000000000e+03 3.907126998901367188e+01 1.449263000488281250e+01 -4.482655599713325500e-02 5.516424775123596191e-03 -1.179303973913192749e-02 -7.157035637646913528e-03
5.655000000000000000e+03 3.905525207519531250e+01 1.551783180236816406e+01 -3.927148878574371338e-02 2.627208596095442772e-04 -1.170262973755598068e-02 -1.218899246305227280e-02
5.656000000000000000e+03 4.993311309814453125e+01 2.532181167602539062e+01 -6.234923377633094788e-03 4.056226462125778198e-04 -1.748790149576961994e-03 -2.002043183892965317e-03
5.657000000000000000e+03 3.456346511840820312e+01 8.052334785461425781e+00 3.061973303556442261e-02 -1.069678645581007004e-02 5.976883694529533386e-03 8.663327246904373169e-02
5.658000000000000000e+03 4.292673873901367188e+01 1.937225532531738281e+01 -1.703544147312641144e-02 -7.649468607269227505e-04 -5.340116098523139954e-03 -7.145417388528585434e-03
5.659000000000000000e+03 4.395946121215820312e+01 1.982636451721191406e+01 -1.529604848474264145e-02 2.341192448511719704e-04 -4.518578760325908661e-03 -5.685656797140836716e-03
5.660000000000000000e+03 5.166310119628906250e+01 2.660943984985351562e+01 -4.966899752616882324e-03 5.561475991271436214e-04 -1.323225558735430241e-03 -1.385352225042879581e-03
5.661000000000000000e+03 5.105497741699218750e+01 2.644879150390625000e+01 -5.124387331306934357e-03 4.084163228981196880e-04 -1.414791215211153030e-03 -1.596387708559632301e-03
5.662000000000000000e+03 5.128739929199218750e+01 2.679455757141113281e+01 -4.861561115831136703e-03 3.529134846758097410e-04 -1.352594350464642048e-03 -1.518233562819659710e-03
5.663000000000000000e+03 4.207249832153320312e+01 1.859664726257324219e+01 -1.988669671118259430e-02 -6.741883698850870132e-04 -6.168265361338853836e-03 -8.388772606849670410e-03
5.664000000000000000e+03 4.028257369995117188e+01 1.624146080017089844e+01 -3.212716430425643921e-02 1.632876461371779442e-03 -9.148286655545234680e-03 -9.527306072413921356e-03
5.665000000000000000e+03 5.149860763549804688e+01 2.716078186035156250e+01 -4.517705645412206650e-03 3.111276018898934126e-04 -1.261973404325544834e-03 -1.456005498766899109e-03
5.666000000000000000e+03 4.194256973266601562e+01 1.819467163085937500e+01 -2.129887603223323822e-02 2.223962292191572487e-05 -6.382991094142198563e-03 -8.346355520188808441e-03
5.667000000000000000e+03 4.638652038574218750e+01 2.223494529724121094e+01 -1.056740432977676392e-02 1.880002673715353012e-04 -3.113821148872375488e-03 -3.757776925340294838e-03
5.668000000000000000e+03 4.701839447021484375e+01 2.310557556152343750e+01 -9.218379855155944824e-03 6.702617838527658023e-07 -2.765313023701310158e-03 -3.466349095106124878e-03
5.669000000000000000e+03 4.480150985717773438e+01 2.080861091613769531e+01 -1.314073801040649414e-02 -8.121010614559054375e-05 -3.966584336012601852e-03 -4.960101563483476639e-03
5.670000000000000000e+03 4.390370559692382812e+01 2.047305870056152344e+01 -1.412985287606716156e-02 -7.796565769240260124e-04 -4.472852684557437897e-03 -5.965532734990119934e-03
5.671000000000000000e+03 5.429540634155273438e+01 2.794573211669921875e+01 -3.875684924423694611e-03 7.320334552787244320e-04 -9.430954232811927795e-04 -7.101188530214130878e-04
5.672000000000000000e+03 2.562882995605468750e+01 4.285853803157806396e-01 2.390686981379985809e-02 -2.905339235439896584e-03 6.300459615886211395e-03 1.271550357341766357e-02
5.673000000000000000e+03 3.999658584594726562e+01 1.611343383789062500e+01 -3.280268609523773193e-02 1.850166008807718754e-03 -9.285756386816501617e-03 -1.044043712317943573e-02
5.674000000000000000e+03 4.390063095092773438e+01 2.015494155883789062e+01 -1.470336783677339554e-02 -4.429705149959772825e-04 -4.543901421129703522e-03 -5.945514887571334839e-03
5.675000000000000000e+03 5.413994598388671875e+01 2.913611221313476562e+01 -3.128015901893377304e-03 4.483245138544589281e-04 -8.039074018597602844e-04 -7.928042905405163765e-04
5.676000000000000000e+03 4.086185073852539062e+01 1.649670028686523438e+01 -2.909611538052558899e-02 2.357291989028453827e-03 -8.021647110581398010e-03 -8.799029514193534851e-03
5.677000000000000000e+03 4.016724395751953125e+01 1.647533226013183594e+01 -3.084485791623592377e-02 1.149426796473562717e-03 -8.908629417419433594e-03 -1.042382884770631790e-02
5.678000000000000000e+03 3.918191528320312500e+01 1.518742561340332031e+01 -4.041277244687080383e-02 3.691066522151231766e-03 -1.101651135832071304e-02 -1.008289679884910583e-02
5.679000000000000000e+03 3.974325942993164062e+01 1.543658256530761719e+01 -3.728205338120460510e-02 3.102958202362060547e-03 -1.025372836738824844e-02 -8.936145342886447906e-03
5.680000000000000000e+03 4.612712478637695312e+01 2.177651596069335938e+01 -1.125687453895807266e-02 3.574638685677200556e-04 -3.269823268055915833e-03 -3.888022387400269508e-03
5.681000000000000000e+03 4.670145416259765625e+01 2.267232322692871094e+01 -9.867631830275058746e-03 8.195472037186846137e-05 -2.935703145340085030e-03 -3.609838662669062614e-03
5.682000000000000000e+03 3.427084350585937500e+01 8.704103469848632812e+00 -1.887011900544166565e-02 7.390973623842000961e-03 -3.443743800744414330e-03 9.488669037818908691e-02
5.683000000000000000e+03 3.373341751098632812e+01 7.345543861389160156e+00 1.021320298314094543e-01 -2.063148096203804016e-02 2.445016428828239441e-02 8.884263783693313599e-02
5.684000000000000000e+03 2.874986648559570312e+01 2.945704221725463867e+00 4.100130498409271240e-02 9.591643512248992920e-02 4.107532277703285217e-02 1.663276739418506622e-02
5.685000000000000000e+03 2.961977005004882812e+01 2.940968036651611328e+00 3.853205963969230652e-02 1.275659650564193726e-01 4.982940480113029480e-02 -1.219874713569879532e-02
5.686000000000000000e+03 5.524526977539062500e+01 2.926137733459472656e+01 -3.045990131795406342e-03 5.464504938572645187e-04 -7.498618797399103642e-04 -5.786407855339348316e-04
5.687000000000000000e+03 2.835845184326171875e+01 2.455712318420410156e+00 3.986908495426177979e-02 7.242234796285629272e-02 3.368743136525154114e-02 1.979227177798748016e-02
5.688000000000000000e+03 2.912084960937500000e+01 -4.979316592216491699e-01 1.530713867396116257e-03 5.110257118940353394e-02 1.578998565673828125e-02 -4.643354564905166626e-03
5.689000000000000000e+03 4.865736770629882812e+01 2.490949821472167969e+01 -6.730606779456138611e-03 -4.765828998642973602e-05 -2.033479511737823486e-03 -2.661403268575668335e-03
5.690000000000000000e+03 4.948772811889648438e+01 2.517964553833007812e+01 -6.415470968931913376e-03 2.872915065381675959e-04 -1.838453812524676323e-03 -2.218292793259024620e-03
5.691000000000000000e+03 3.067635917663574219e+01 3.828881740570068359e+00 8.103641867637634277e-02 1.532576233148574829e-01 7.028821855783462524e-02 -7.216373831033706665e-02
5.692000000000000000e+03 3.256531524658203125e+01 4.204923629760742188e+00 1.389854103326797485e-01 4.912873730063438416e-02 5.643424391746520996e-02 -7.190536707639694214e-02
5.693000000000000000e+03 4.814550018310546875e+01 2.413312530517578125e+01 -7.731336168944835663e-03 1.110232042265124619e-04 -2.286093775182962418e-03 -2.916865982115268707e-03
5.694000000000000000e+03 4.839977264404296875e+01 2.438716506958007812e+01 -7.410480175167322159e-03 7.423431088682264090e-05 -2.200873801484704018e-03 -2.723684534430503845e-03
5.695000000000000000e+03 3.599327087402343750e+01 1.138774871826171875e+01 -8.885739743709564209e-02 2.011410519480705261e-02 -2.062298730015754700e-02 1.435189321637153625e-02
5.696000000000000000e+03 3.606651306152343750e+01 1.180662441253662109e+01 -8.968994021415710449e-02 2.116754278540611267e-02 -2.055671811103820801e-02 4.920050036162137985e-03
5.697000000000000000e+03 3.286618041992187500e+01 4.479524135589599609e+00 1.490863859653472900e-01 2.752540260553359985e-02 5.298353359103202820e-02 -6.325954943895339966e-02
5.698000000000000000e+03 3.149473571777343750e+01 -1.194350123405456543e+00 1.678488799370825291e-03 5.775718763470649719e-02 1.783070340752601624e-02 -2.531811222434043884e-02
5.699000000000000000e+03 3.439668655395507812e+01 7.629323005676269531e+00 6.221478059887886047e-02 -1.136938575655221939e-02 1.525361835956573486e-02 8.470984548330307007e-02
5.700000000000000000e+03 3.130726814270019531e+01 4.054372310638427734e+00 1.153991594910621643e-01 1.194844841957092285e-01 7.046509534120559692e-02 -9.152565896511077881e-02
5.701000000000000000e+03 3.364437484741210938e+01 6.719295978546142578e+00 1.550399065017700195e-01 -3.508457913994789124e-02 3.598659858107566833e-02 5.849946662783622742e-02
5.702000000000000000e+03 3.560899353027343750e+01 9.631186485290527344e+00 -5.706458911299705505e-02 2.004563435912132263e-02 -1.110568642616271973e-02 5.832114443182945251e-02
5.703000000000000000e+03 3.556967544555664062e+01 1.022960758209228516e+01 -7.562069594860076904e-02 2.419047802686691284e-02 -1.542906649410724640e-02 4.371181502938270569e-02
5.704000000000000000e+03 3.331811141967773438e+01 5.393977165222167969e+00 1.761254966259002686e-01 -8.483191020786762238e-03 5.029269307851791382e-02 -2.515956573188304901e-02
5.705000000000000000e+03 3.446571350097656250e+01 7.214395523071289062e+00 8.318115770816802979e-02 -2.158038504421710968e-02 1.848023198544979095e-02 7.332705706357955933e-02
5.706000000000000000e+03 3.066455459594726562e+01 -1.033705353736877441e+00 -6.220688810572028160e-04 5.808099731802940369e-02 1.723767817020416260e-02 -1.888249628245830536e-02
5.707000000000000000e+03 3.290637588500976562e+01 5.139577865600585938e+00 1.810262650251388550e-01 6.320926360785961151e-03 5.620415881276130676e-02 -4.908290505409240723e-02
5.708000000000000000e+03 3.351281356811523438e+01 4.320290565490722656e+00 1.336724907159805298e-01 1.378053706139326096e-02 4.423591122031211853e-02 -5.011909455060958862e-02
5.709000000000000000e+03 3.705705642700195312e+01 1.168070030212402344e+01 -6.857410073280334473e-02 1.949608139693737030e-02 -1.472340710461139679e-02 1.229348499327898026e-02
5.710000000000000000e+03 6.807569885253906250e+01 2.492371559143066406e+01 -1.690170029178261757e-03 -2.006704744417220354e-04 -5.672521656379103661e-04 1.650703488849103451e-03
5.711000000000000000e+03 5.524465560913085938e+01 2.875640678405761719e+01 -3.319594310596585274e-03 6.495860288850963116e-04 -8.010024903342127800e-04 -5.597156123258173466e-04
5.712000000000000000e+03 5.630642318725585938e+01 2.786326789855957031e+01 -3.663406008854508400e-03 8.802926749922335148e-04 -8.349340059794485569e-04 -2.301986387465149164e-04
5.713000000000000000e+03 3.185241508483886719e+01 -1.682157993316650391e+00 -6.810938357375562191e-04 5.271236225962638855e-02 1.560938078910112381e-02 -2.522087842226028442e-02
5.714000000000000000e+03 2.752532005310058594e+01 -3.520192503929138184e-01 5.140711553394794464e-03 2.762628346681594849e-02 9.830098599195480347e-03 7.463630754500627518e-03
5.715000000000000000e+03 2.845616149902343750e+01 -1.329590231180191040e-01 6.708406843245029449e-03 4.545902833342552185e-02 1.565022952854633331e-02 2.109517576172947884e-03
5.716000000000000000e+03 6.985757446289062500e+01 2.454116630554199219e+01 -1.316094771027565002e-03 -4.907278344035148621e-04 -5.420467932708561420e-04 1.625243341550230980e-03
5.717000000000000000e+03 6.203901290893554688e+01 2.624648094177246094e+01 -2.997983479872345924e-03 6.818463443778455257e-04 -6.948411464691162109e-04 1.105506322346627712e-03
5.718000000000000000e+03 6.296401596069335938e+01 2.472544860839843750e+01 -3.073984757065773010e-03 6.915865233168005943e-04 -7.147194701246917248e-04 1.613565022125840187e-03
5.719000000000000000e+03 6.510646820068359375e+01 2.595630073547363281e+01 -2.287717070430517197e-03 2.518607652746140957e-04 -6.107568624429404736e-04 1.416196348145604134e-03
5.720000000000000000e+03 5.966099548339843750e+01 2.594163322448730469e+01 -3.692586906254291534e-03 1.056739594787359238e-03 -7.907541585154831409e-04 8.414869662374258041e-04
5.721000000000000000e+03 6.734837341308593750e+01 2.572404098510742188e+01 -1.785392989404499531e-03 -6.748868327122181654e-05 -5.558644770644605160e-04 1.487738802097737789e-03
5.722000000000000000e+03 3.426815414428710938e+01 -1.793571949005126953e+00 1.103733945637941360e-02 4.136771336197853088e-02 1.572151668369770050e-02 -3.310585767030715942e-02
5.723000000000000000e+03 6.362184143066406250e+01 2.540976524353027344e+01 -2.762412186712026596e-03 5.206033238209784031e-04 -6.725426646880805492e-04 1.478405669331550598e-03
5.724000000000000000e+03 6.436095428466796875e+01 2.533106231689453125e+01 -2.574454061686992645e-03 3.962445189245045185e-04 -6.534628337249159813e-04 1.541668782010674477e-03
5.725000000000000000e+03 5.666960144042968750e+01 2.701735687255859375e+01 -4.037302453070878983e-03 1.075435546226799488e-03 -8.885600836947560310e-04 -1.384278948535211384e-05
5.726000000000000000e+03 2.927919006347656250e+01 3.198354244232177734e+00 4.062633961439132690e-02 1.304869204759597778e-01 5.133397877216339111e-02 1.921906718052923679e-03
5.727000000000000000e+03 5.575978851318359375e+01 2.807654571533203125e+01 -3.633896354585886002e-03 8.230683743022382259e-04 -8.432484464719891548e-04 -3.985955263487994671e-04
5.728000000000000000e+03 5.649145889282226562e+01 2.643327140808105469e+01 -4.303651861846446991e-03 1.209269277751445770e-03 -9.283148101530969143e-04 6.910570664331316948e-05
5.729000000000000000e+03 6.985799407958984375e+01 1.837125968933105469e+01 -1.420640619471669197e-03 -1.336883637122809887e-03 -8.272572886198759079e-04 3.090973244979977608e-03
5.730000000000000000e+03 6.933157348632812500e+01 1.262713432312011719e+01 -1.153826946392655373e-03 -2.466367557644844055e-03 -1.086058327928185463e-03 4.490939900279045105e-03
5.731000000000000000e+03 6.953139495849609375e+01 1.698445510864257812e+01 -1.487831934355199337e-03 -1.474621007218956947e-03 -8.887358708307147026e-04 3.508056746795773506e-03
5.732000000000000000e+03 6.040205001831054688e+01 2.622520828247070312e+01 -3.424226306378841400e-03 9.080824675038456917e-04 -7.548431749455630779e-04 8.860887028276920319e-04
5.733000000000000000e+03 3.384383010864257812e+01 -2.342133522033691406e+00 4.840340930968523026e-03 4.417266696691513062e-02 1.470390241593122482e-02 -3.018649667501449585e-02
5.734000000000000000e+03 3.230223846435546875e+01 -1.298257350921630859e+00 5.442313384264707565e-03 5.499966442584991455e-02 1.813259348273277283e-02 -3.063025511801242828e-02
5.735000000000000000e+03 6.139062881469726562e+01 2.547620773315429688e+01 -3.371904138475656509e-03 8.797663613222539425e-04 -7.476413738913834095e-04 1.223635394126176834e-03
5.736000000000000000e+03 1.059260368347167969e+01 -1.062452602386474609e+01 2.336774719879031181e-03 6.997330114245414734e-03 2.800231333822011948e-03 7.832453586161136627e-03
5.737000000000000000e+03 3.837282180786132812e+01 -5.496087074279785156e+00 4.235840868204832077e-03 2.631166391074657440e-02 9.164251387119293213e-03 -1.985079236328601837e-02
5.738000000000000000e+03 6.905728149414062500e+01 9.790158271789550781e-01 3.477180143818259239e-04 -5.547209177166223526e-03 -1.559847383759915829e-03 5.244188942015171051e-03
5.739000000000000000e+03 6.739954376220703125e+01 1.240384817123413086e+00 4.688636690843850374e-04 -4.365022294223308563e-03 -1.168847549706697464e-03 5.617687478661537170e-03
5.740000000000000000e+03 4.464714431762695312e+01 -1.396197891235351562e+01 1.612882711924612522e-03 2.262794040143489838e-02 7.272247225046157837e-03 -7.965766824781894684e-03
5.741000000000000000e+03 4.303303146362304688e+01 -1.181101036071777344e+01 1.463055959902703762e-03 2.279182337224483490e-02 7.276463788002729416e-03 -9.714565239846706390e-03
5.742000000000000000e+03 7.032552337646484375e+01 2.398549079895019531e+01 -1.263622194528579712e-03 -5.794042954221367836e-04 -5.529079935513436794e-04 1.689597847871482372e-03
5.743000000000000000e+03 3.544256973266601562e+01 -2.229153156280517578e+00 1.299482118338346481e-02 3.501540049910545349e-02 1.440306659787893295e-02 -3.179364651441574097e-02
5.744000000000000000e+03 6.673411560058593750e+01 -2.551569938659667969e+01 1.354496227577328682e-03 -4.516147077083587646e-03 -9.484952897764742374e-04 1.781238242983818054e-03
5.745000000000000000e+03 4.189898681640625000e+01 -1.218910884857177734e+01 1.019495655782520771e-03 2.405049651861190796e-02 7.520997896790504456e-03 -1.012180745601654053e-02
5.746000000000000000e+03 4.196794509887695312e+01 -8.689523696899414062e+00 3.039869712665677071e-03 2.193406783044338226e-02 7.492181379348039627e-03 -1.239123474806547165e-02
5.747000000000000000e+03 1.174516963958740234e+01 -1.325797462463378906e+01 2.345925022382289171e-04 9.221582673490047455e-03 2.836852567270398140e-03 7.797630503773689270e-03
5.748000000000000000e+03 6.949452972412109375e+01 2.112041282653808594e+01 -1.566789229400455952e-03 -7.571569294668734074e-04 -6.971838301979005337e-04 2.454461529850959778e-03
5.749000000000000000e+03 6.888278198242187500e+01 2.038395881652832031e+01 -1.724239438772201538e-03 -7.194313220679759979e-04 -7.331012166105210781e-04 2.735226415097713470e-03
5.750000000000000000e+03 4.208595657348632812e+01 -1.596796131134033203e+01 1.881702220998704433e-03 2.529166080057621002e-02 8.152008987963199615e-03 -9.260910563170909882e-03
5.751000000000000000e+03 4.412644577026367188e+01 -1.495398426055908203e+01 1.367471413686871529e-03 2.383469790220260620e-02 7.560651283711194992e-03 -8.290793746709823608e-03
5.752000000000000000e+03 5.103107452392578125e+01 -1.821962928771972656e+01 1.808019937016069889e-03 1.880598068237304688e-02 6.184200290590524673e-03 -2.729222876951098442e-03
5.753000000000000000e+03 6.872079467773437500e+01 2.170734214782714844e+01 -1.742608845233917236e-03 -5.250816466286778450e-04 -6.803071592003107071e-04 2.383934333920478821e-03
5.754000000000000000e+03 6.991765594482421875e+01 2.248748970031738281e+01 -1.421779743395745754e-03 -6.825018790550529957e-04 -6.312844925560057163e-04 2.077461918815970421e-03
5.755000000000000000e+03 6.889446258544921875e+01 7.178522586822509766e+00 -4.472502041608095169e-04 -3.787607187405228615e-03 -1.270457170903682709e-03 5.393016617745161057e-03
5.756000000000000000e+03 6.824321746826171875e+01 -1.417887115478515625e+01 9.004363091662526131e-04 -6.746015045791864395e-03 -1.753673539496958256e-03 3.432778175920248032e-03
5.757000000000000000e+03 6.937713623046875000e+01 -1.072717189788818359e+01 7.384927594102919102e-04 -7.864654064178466797e-03 -2.137848408892750740e-03 3.788343630731105804e-03
5.758000000000000000e+03 4.518718242645263672e+00 -3.394065093994140625e+01 -4.771533422172069550e-04 1.582029461860656738e-02 4.602942615747451782e-03 1.362191629596054554e-03
5.759000000000000000e+03 3.641990661621093750e+01 -3.722390651702880859e+00 6.776866503059864044e-03 3.134389966726303101e-02 1.143623050302267075e-02 -2.606932260096073151e-02
5.760000000000000000e+03 3.543005371093750000e+01 -3.983638763427734375e+00 2.006135648116469383e-03 3.512698411941528320e-02 1.113993674516677856e-02 -2.509949728846549988e-02
5.761000000000000000e+03 1.388735675811767578e+01 -1.935729980468750000e+01 -2.623953158035874367e-03 8.730991743505001068e-03 1.832111505791544914e-03 5.486438516527414322e-03
5.762000000000000000e+03 4.353009033203125000e+01 -1.590829753875732422e+01 1.712401513941586018e-03 2.449739910662174225e-02 7.862940430641174316e-03 -8.512066677212715149e-03
5.763000000000000000e+03 4.593191909790039062e+01 -1.878612327575683594e+01 1.730756950564682484e-03 2.536178566515445709e-02 8.127762936055660248e-03 -7.057480979710817337e-03
5.764000000000000000e+03 6.975113677978515625e+01 1.345259284973144531e+01 -1.171028940007090569e-03 -2.394767478108406067e-03 -1.069738995283842087e-03 4.259337671101093292e-03
5.765000000000000000e+03 6.859983062744140625e+01 -2.044740867614746094e+01 8.678178419359028339e-04 -7.613241206854581833e-03 -2.023627050220966339e-03 2.622268395498394966e-03
5.766000000000000000e+03 7.014186096191406250e+01 -5.239368081092834473e-01 3.792227362282574177e-04 -6.732503417879343033e-03 -1.905984245240688324e-03 4.828873556107282639e-03
5.767000000000000000e+03 6.746817016601562500e+01 -1.967541456222534180e+00 8.011758327484130859e-04 -4.943327512592077255e-03 -1.242645550519227982e-03 5.220613442361354828e-03
5.768000000000000000e+03 6.684115600585937500e+01 -4.511523246765136719e+00 1.020616386085748672e-03 -4.724870435893535614e-03 -1.111276331357657909e-03 4.875570535659790039e-03
5.769000000000000000e+03 6.867861938476562500e+01 -4.485700607299804688e+00 7.577287033200263977e-04 -6.359249353408813477e-03 -1.680456101894378662e-03 4.657927900552749634e-03
5.770000000000000000e+03 4.155488586425781250e+01 -7.701294422149658203e+00 3.846035571768879890e-03 2.172084152698516846e-02 7.670063059777021408e-03 -1.365245692431926727e-02
5.771000000000000000e+03 3.955550003051757812e+01 -5.408628463745117188e+00 6.840320304036140442e-03 2.318831719458103180e-02 9.008591063320636749e-03 -1.871445588767528534e-02
5.772000000000000000e+03 1.483782577514648438e+01 -1.801949310302734375e+01 -2.675235271453857422e-03 9.019417688250541687e-03 1.903254771605134010e-03 5.545734893530607224e-03
5.773000000000000000e+03 6.766051483154296875e+01 -7.984394550323486328e+00 1.013569999486207962e-03 -5.733844358474016190e-03 -1.416082377545535564e-03 4.292528145015239716e-03
5.774000000000000000e+03 6.903238677978515625e+01 5.879938602447509766e+00 -2.830454614013433456e-04 -4.284972324967384338e-03 -1.370405312627553940e-03 5.354342982172966003e-03
5.775000000000000000e+03 6.923300170898437500e+01 4.430729866027832031e+00 -8.011385216377675533e-05 -4.831118974834680557e-03 -1.473369891755282879e-03 5.311471410095691681e-03
5.776000000000000000e+03 1.227993106842041016e+01 -2.266962814331054688e+01 -2.176599809899926186e-03 8.929741568863391876e-03 2.025942550972104073e-03 4.978531971573829651e-03
5.777000000000000000e+03 6.535562896728515625e+01 -2.443450736999511719e+01 1.496313605457544327e-03 -2.107604639604687691e-03 -1.833872956922277808e-04 1.982507528737187386e-03
5.778000000000000000e+03 1.074153995513916016e+01 -1.287501907348632812e+01 4.072230076417326927e-04 8.231102488934993744e-03 2.591497730463743210e-03 7.644690107554197311e-03
5.779000000000000000e+03 1.191937732696533203e+01 -1.208707714080810547e+01 6.363732391037046909e-04 8.914696052670478821e-03 2.865320770069956779e-03 8.349039591848850250e-03
5.780000000000000000e+03 4.433400726318359375e+01 -8.031231880187988281e+00 5.247027613222599030e-03 1.790165156126022339e-02 6.944603752344846725e-03 -1.046226266771554947e-02
5.781000000000000000e+03 6.765332031250000000e+01 -2.156829643249511719e+01 1.010025851428508759e-03 -5.875156726688146591e-03 -1.459539285860955715e-03 2.493300708010792732e-03
5.782000000000000000e+03 4.948995971679687500e+01 -2.206430435180664062e+01 2.635004231706261635e-03 2.414497919380664825e-02 8.033994585275650024e-03 -3.961898386478424072e-03
5.783000000000000000e+03 6.845620727539062500e+01 1.288931560516357422e+01 -1.384517177939414978e-03 -2.003498608246445656e-03 -1.016404828988015652e-03 4.706571809947490692e-03
5.784000000000000000e+03 1.308547687530517578e+01 -2.452968406677246094e+01 -2.590749179944396019e-03 8.330787532031536102e-03 1.722011598758399487e-03 4.556389991194009781e-03
5.785000000000000000e+03 6.965081024169921875e+01 -5.361958980560302734e+00 6.315847276709973812e-04 -7.450991775840520859e-03 -2.045822096988558769e-03 4.413727670907974243e-03
5.786000000000000000e+03 6.870463562011718750e+01 -6.168420314788818359e+00 8.239731541834771633e-04 -6.626625545322895050e-03 -1.740795676596462727e-03 4.418850410729646683e-03
5.787000000000000000e+03 6.420596313476562500e+01 -2.631939697265625000e+01 1.943086273968219757e-03 -1.717922714306041598e-04 5.313881556503474712e-04 1.568887149915099144e-03
5.788000000000000000e+03 7.014069366455078125e+01 1.206525206565856934e+00 2.409684966551139951e-04 -6.227365694940090179e-03 -1.795919146388769150e-03 4.964969586580991745e-03
5.789000000000000000e+03 7.005780029296875000e+01 9.002045631408691406e+00 -6.214122986420989037e-04 -3.829898778349161148e-03 -1.335393288172781467e-03 4.859122913330793381e-03
5.790000000000000000e+03 6.929122924804687500e+01 2.809591770172119141e+00 1.451531134080141783e-04 -5.287771578878164291e-03 -1.542785554192960262e-03 5.276839714497327805e-03
5.791000000000000000e+03 4.384527969360351562e+01 -1.345327949523925781e+01 1.292775152251124382e-03 2.307400666177272797e-02 7.310034707188606262e-03 -8.705714717507362366e-03
5.792000000000000000e+03 6.936490631103515625e+01 -1.207195186614990234e+01 7.350994856096804142e-04 -7.942263036966323853e-03 -2.162149176001548767e-03 3.605557139962911606e-03
5.793000000000000000e+03 6.818337249755859375e+01 -1.198934745788574219e+01 9.076357819139957428e-04 -6.590812467038631439e-03 -1.704953028820455074e-03 3.738455474376678467e-03
5.794000000000000000e+03 2.774068641662597656e+01 2.179077386856079102e+00 4.222748428583145142e-02 4.596711322665214539e-02 2.645837888121604919e-02 2.295053191483020782e-02
5.795000000000000000e+03 2.770025062561035156e+01 1.738948225975036621e+00 3.740760684013366699e-02 4.099161550402641296e-02 2.351976558566093445e-02 1.882937736809253693e-02
5.796000000000000000e+03 2.676714134216308594e+01 6.867710947990417480e-01 2.587100863456726074e-02 1.657938025891780853e-02 1.273511722683906555e-02 1.313661225140094757e-02
5.797000000000000000e+03 4.753359985351562500e+01 2.373468208312988281e+01 -8.465352468192577362e-03 -3.730776734300889075e-05 -2.550798002630472183e-03 -3.186249174177646637e-03
5.798000000000000000e+03 5.081245040893554688e+01 2.609615898132324219e+01 -5.469060968607664108e-03 4.330541123636066914e-04 -1.510802074335515499e-03 -1.672934391535818577e-03
5.799000000000000000e+03 3.701896286010742188e+01 1.217716884613037109e+01 -7.234092801809310913e-02 1.463559363037347794e-02 -1.731159910559654236e-02 4.482963588088750839e-03
5.800000000000000000e+03 5.464851379394531250e+01 2.818984031677246094e+01 -3.682800335809588432e-03 7.153506157919764519e-04 -8.902349509298801422e-04 -6.581623456440865993e-04
5.801000000000000000e+03 2.618818473815917969e+01 5.579798221588134766e-01 2.580441534519195557e-02 6.099157966673374176e-03 9.571071714162826538e-03 1.345551107078790665e-02
5.802000000000000000e+03 2.964255523681640625e+01 -3.056141436100006104e-01 3.548138076439499855e-03 5.935675278306007385e-02 1.887146756052970886e-02 -9.668485261499881744e-03
5.803000000000000000e+03 3.746549606323242188e+01 1.260411262512207031e+01 -6.576642394065856934e-02 1.281110849231481552e-02 -1.588659547269344330e-02 1.792342634871602058e-03
5.804000000000000000e+03 5.265744400024414062e+01 2.745400428771972656e+01 -4.287838470190763474e-03 5.573788657784461975e-04 -1.119137858040630817e-03 -1.122449757531285286e-03
5.805000000000000000e+03 5.201837539672851562e+01 2.778670692443847656e+01 -4.009079653769731522e-03 2.810693404171615839e-04 -1.118403160944581032e-03 -1.301878248341381550e-03
5.806000000000000000e+03 4.511929702758789062e+01 2.084819602966308594e+01 -1.303833443671464920e-02 2.081523853121325374e-04 -3.849054686725139618e-03 -4.649457521736621857e-03
5.807000000000000000e+03 2.728727531433105469e+01 1.856162190437316895e+00 4.206752777099609375e-02 2.973354607820510864e-02 2.154032140970230103e-02 2.200517430901527405e-02
5.808000000000000000e+03 4.135003280639648438e+01 1.723240470886230469e+01 -2.550442144274711609e-02 1.304825302213430405e-03 -7.259878795593976974e-03 -8.413443341851234436e-03
5.809000000000000000e+03 4.195924377441406250e+01 1.684953880310058594e+01 -2.581117674708366394e-02 3.084752941504120827e-03 -6.817927118390798569e-03 -6.276665255427360535e-03
5.810000000000000000e+03 3.787348937988281250e+01 1.347285175323486328e+01 -5.783709511160850525e-02 1.019500195980072021e-02 -1.429262850433588028e-02 -6.609576288610696793e-03
5.811000000000000000e+03 4.580102920532226562e+01 2.077752113342285156e+01 -1.278786920011043549e-02 9.774829959496855736e-04 -3.543115919455885887e-03 -3.831052919849753380e-03
5.812000000000000000e+03 4.507593536376953125e+01 2.122797203063964844e+01 -1.241229567676782608e-02 -2.228315424872562289e-04 -3.790538292378187180e-03 -4.804488737136125565e-03
5.813000000000000000e+03 2.901992416381835938e+01 3.010920524597167969e+00 3.958471119403839111e-02 1.129081547260284424e-01 4.574785754084587097e-02 1.001327205449342728e-02
5.814000000000000000e+03 3.521914291381835938e+01 9.897254943847656250e+00 -7.889343053102493286e-02 2.675250731408596039e-02 -1.564227603375911713e-02 5.561378598213195801e-02
5.815000000000000000e+03 3.654413223266601562e+01 1.170489311218261719e+01 -7.774796336889266968e-02 1.705917716026306152e-02 -1.820663549005985260e-02 1.111503783613443375e-02
5.816000000000000000e+03 3.605162048339843750e+01 9.403778076171875000e+00 -3.751399740576744080e-02 1.479846425354480743e-02 -6.814659573137760162e-03 5.721311643719673157e-02
5.817000000000000000e+03 3.455595779418945312e+01 9.128286361694335938e+00 -4.527910426259040833e-02 1.882220618426799774e-02 -7.937069050967693329e-03 8.737346529960632324e-02
5.818000000000000000e+03 4.175913619995117188e+01 1.803474044799804688e+01 -2.168158441781997681e-02 1.689913187874481082e-04 -6.453777663409709930e-03 -8.545431308448314667e-03
5.819000000000000000e+03 4.101871871948242188e+01 1.670377540588378906e+01 -2.822779305279254913e-02 2.056932775303721428e-03 -7.851257920265197754e-03 -8.081084117293357849e-03
5.820000000000000000e+03 3.826111221313476562e+01 1.365302085876464844e+01 -5.399514734745025635e-02 7.600503973662853241e-03 -1.391839329153299332e-02 -5.206719040870666504e-03
5.821000000000000000e+03 2.748367309570312500e+01 8.437485247850418091e-02 1.432625018060207367e-02 2.762840874493122101e-02 1.258639711886644363e-02 9.758595377206802368e-03
5.822000000000000000e+03 2.797971534729003906e+01 -2.827288508415222168e-01 7.130232173949480057e-03 3.528783097863197327e-02 1.272541936486959457e-02 6.625613197684288025e-03
5.823000000000000000e+03 5.390279006958007812e+01 2.840811538696289062e+01 -3.577839583158493042e-03 5.606586928479373455e-04 -9.051542729139328003e-04 -8.376367622986435890e-04
5.824000000000000000e+03 5.329088592529296875e+01 2.761859512329101562e+01 -4.121729638427495956e-03 6.539362366311252117e-04 -1.040338072925806046e-03 -9.480158332735300064e-04
5.825000000000000000e+03 3.861653137207031250e+01 1.383731842041015625e+01 -4.961325600743293762e-02 9.033824317157268524e-03 -1.217382960021495819e-02 -5.501440260559320450e-03
5.826000000000000000e+03 3.840697097778320312e+01 1.417336368560791016e+01 -5.060439556837081909e-02 5.174009129405021667e-03 -1.362911611795425415e-02 -8.561084046959877014e-03
5.827000000000000000e+03 5.012641525268554688e+01 2.601169013977050781e+01 -5.601102951914072037e-03 1.844517828430980444e-04 -1.624995376914739609e-03 -1.948501914739608765e-03
5.828000000000000000e+03 3.895900344848632812e+01 1.401999855041503906e+01 -4.746864736080169678e-02 7.420233916491270065e-03 -1.201452407985925674e-02 -4.527087323367595673e-03
5.829000000000000000e+03 5.208989715576171875e+01 2.729291534423828125e+01 -4.419348668307065964e-03 4.685493477154523134e-04 -1.185239874757826328e-03 -1.261858269572257996e-03
5.830000000000000000e+03 4.787510681152343750e+01 2.355107688903808594e+01 -8.432424627244472504e-03 2.578663697931915522e-04 -2.452367451041936874e-03 -2.941292477771639824e-03
5.831000000000000000e+03 4.741136550903320312e+01 2.314939880371093750e+01 -9.023773483932018280e-03 1.963266695383936167e-04 -2.648234134539961815e-03 -3.167414572089910507e-03
5.832000000000000000e+03 4.965445327758789062e+01 2.481231117248535156e+01 -6.758772302418947220e-03 5.074638756923377514e-04 -1.875392510555684566e-03 -2.083046827465295792e-03
5.833000000000000000e+03 3.667647171020507812e+01 1.312535858154296875e+01 -7.371331006288528442e-02 7.615317590534687042e-03 -1.982939802110195160e-02 -1.137557160109281540e-02
5.834000000000000000e+03 4.023223495483398438e+01 1.583471679687500000e+01 -3.382374718785285950e-02 2.971345791593194008e-03 -9.255720302462577820e-03 -8.158886805176734924e-03
5.835000000000000000e+03 4.087271118164062500e+01 1.579906940460205078e+01 -3.216679766774177551e-02 4.412987735122442245e-03 -8.326143026351928711e-03 -6.489006336778402328e-03
5.836000000000000000e+03 3.935429763793945312e+01 1.464720249176025391e+01 -4.172740131616592407e-02 6.137800868600606918e-03 -1.067688036710023880e-02 -7.296923547983169556e-03
5.837000000000000000e+03 3.922339630126953125e+01 1.488923931121826172e+01 -4.198780655860900879e-02 3.971086349338293076e-03 -1.140501629561185837e-02 -8.902803063392639160e-03
5.838000000000000000e+03 4.427512741088867188e+01 1.986884307861328125e+01 -1.513281557708978653e-02 3.695265913847833872e-04 -4.428986925631761551e-03 -5.332497879862785339e-03
5.839000000000000000e+03 5.187332916259765625e+01 2.696073341369628906e+01 -4.696104675531387329e-03 4.946794942952692509e-04 -1.260427525267004967e-03 -1.314583234488964081e-03
5.840000000000000000e+03 4.244070053100585938e+01 1.867355918884277344e+01 -1.921271532773971558e-02 4.660882768803276122e-05 -5.749831907451152802e-03 -7.798149716109037399e-03
5.841000000000000000e+03 4.175596237182617188e+01 1.846595382690429688e+01 -2.004913426935672760e-02 -8.606572519056499004e-04 -6.272937636822462082e-03 -9.106192737817764282e-03
5.842000000000000000e+03 4.281531143188476562e+01 1.880832290649414062e+01 -1.869298145174980164e-02 1.398517488269135356e-04 -5.565939005464315414e-03 -6.937905214726924896e-03
5.843000000000000000e+03 3.584930038452148438e+01 1.102932834625244141e+01 -8.853430300951004028e-02 2.463963069021701813e-02 -1.916840113699436188e-02 2.318693883717060089e-02
5.844000000000000000e+03 5.043252944946289062e+01 2.529481697082519531e+01 -6.229098886251449585e-03 6.390566704794764519e-04 -1.677012653090059757e-03 -1.772180316038429737e-03
5.845000000000000000e+03 4.458555221557617188e+01 2.013255310058593750e+01 -1.446823775768280029e-02 4.700715653598308563e-04 -4.199449904263019562e-03 -4.996658768504858017e-03
5.846000000000000000e+03 4.359399032592773438e+01 1.975999450683593750e+01 -1.569281704723834991e-02 -4.229958867654204369e-04 -4.834743682295084000e-03 -6.189784500747919083e-03
5.847000000000000000e+03 3.995971298217773438e+01 1.567927169799804688e+01 -3.512870147824287415e-02 3.443903289735317230e-03 -9.505439549684524536e-03 -9.299088269472122192e-03
5.848000000000000000e+03 3.959825897216796875e+01 1.513907718658447266e+01 -3.862573578953742981e-02 4.015071783214807510e-03 -1.038319896906614304e-02 -8.802290074527263641e-03
5.849000000000000000e+03 4.486610031127929688e+01 2.046303176879882812e+01 -1.377591770142316818e-02 3.872888337355107069e-04 -4.016588442027568817e-03 -4.752157256007194519e-03
5.850000000000000000e+03 4.053136444091796875e+01 1.600311660766601562e+01 -3.163130208849906921e-02 3.320961492136120796e-03 -8.493102155625820160e-03 -8.345047943294048309e-03
5.851000000000000000e+03 2.535081100463867188e+01 6.624747514724731445e-01 2.923431247472763062e-02 -5.675937049090862274e-03 7.067512720823287964e-03 1.313377358019351959e-02
5.852000000000000000e+03 4.677607345581054688e+01 2.223926925659179688e+01 -1.034553069621324539e-02 3.835619427263736725e-04 -2.988590626046061516e-03 -3.407962154597043991e-03
5.853000000000000000e+03 4.644390487670898438e+01 2.184072303771972656e+01 -1.093998830765485764e-02 4.364093183539807796e-04 -3.151073586195707321e-03 -3.577178344130516052e-03
5.854000000000000000e+03 3.017982673645019531e+01 3.470450878143310547e+00 5.465522035956382751e-02 1.497299969196319580e-01 6.131556630134582520e-02 -4.132840782403945923e-02
5.855000000000000000e+03 3.952526855468750000e+01 1.484959316253662109e+01 -4.102727025747299194e-02 5.504777655005455017e-03 -1.065674796700477600e-02 -6.996461655944585800e-03
5.856000000000000000e+03 4.708792877197265625e+01 2.269243812561035156e+01 -9.663519449532032013e-03 2.656239375937730074e-04 -2.819368615746498108e-03 -3.287255065515637398e-03
5.857000000000000000e+03 3.999699401855468750e+01 1.496291542053222656e+01 -3.817888721823692322e-02 6.327961105853319168e-03 -9.555278345942497253e-03 -5.441362503916025162e-03
5.858000000000000000e+03 4.147734451293945312e+01 1.826929283142089844e+01 -2.150661870837211609e-02 -1.159372623078525066e-03 -6.799797061830759048e-03 -9.456713683903217316e-03
5.859000000000000000e+03 4.638630294799804688e+01 2.149763679504394531e+01 -1.164877042174339294e-02 7.375995628535747528e-04 -3.273351350799202919e-03 -3.555997274816036224e-03
5.860000000000000000e+03 4.875169372558593750e+01 2.453299522399902344e+01 -7.151327561587095261e-03 2.501159324310719967e-04 -2.070363610982894897e-03 -2.557725412771105766e-03
5.861000000000000000e+03 4.910443115234375000e+01 2.511257171630859375e+01 -6.558363791555166245e-03 1.519786892458796501e-04 -1.921915565617382526e-03 -2.392295747995376587e-03
5.862000000000000000e+03 4.681925964355468750e+01 2.180723762512207031e+01 -1.099051441997289658e-02 8.340872591361403465e-04 -3.046928206458687782e-03 -3.301205113530158997e-03
5.863000000000000000e+03 4.903257369995117188e+01 2.474625778198242188e+01 -6.944354623556137085e-03 2.664695493876934052e-04 -2.003365661948919296e-03 -2.379549201577901840e-03
5.864000000000000000e+03 3.050777053833007812e+01 2.961480855941772461e+00 4.915969446301460266e-02 1.272514760494232178e-01 5.292335152626037598e-02 -4.325456172227859497e-02
5.865000000000000000e+03 4.151095199584960938e+01 1.751351356506347656e+01 -2.379141747951507568e-02 9.055405971594154835e-04 -6.865763105452060699e-03 -8.519460447132587433e-03
5.866000000000000000e+03 3.503734207153320312e+01 8.863141059875488281e+00 -2.404977940022945404e-02 9.609503671526908875e-03 -4.332082811743021011e-03 7.797135412693023682e-02
5.867000000000000000e+03 5.000835418701171875e+01 2.493372344970703125e+01 -6.606085691601037979e-03 6.303525879047811031e-04 -1.792719936929643154e-03 -1.956553664058446884e-03
5.868000000000000000e+03 3.233498764038085938e+01 3.888074159622192383e+00 1.218446195125579834e-01 6.073226407170295715e-02 5.477306619286537170e-02 -7.477609068155288696e-02
5.869000000000000000e+03 3.306938552856445312e+01 -1.407014489173889160e+00 8.695931173861026764e-03 5.029925331473350525e-02 1.769855432212352753e-02 -3.295373544096946716e-02
5.870000000000000000e+03 3.198535537719726562e+01 -8.403313159942626953e-01 7.668446749448776245e-03 5.825540050864219666e-02 1.977715454995632172e-02 -3.106215037405490875e-02
5.871000000000000000e+03 3.011655044555664062e+01 3.105144023895263672e+00 4.606281220912933350e-02 1.351640671491622925e-01 5.436806380748748779e-02 -3.213305771350860596e-02
5.872000000000000000e+03 3.480352020263671875e+01 7.455681800842285156e+00 6.039862707257270813e-02 -1.912987791001796722e-02 1.238062512129545212e-02 7.019145041704177856e-02
5.873000000000000000e+03 3.039015007019042969e+01 -5.419736504554748535e-01 2.647462068125605583e-03 6.161187216639518738e-02 1.927779987454414368e-02 -1.767057925462722778e-02
5.874000000000000000e+03 3.181013679504394531e+01 2.556087970733642578e+00 6.091363728046417236e-02 8.961156755685806274e-02 4.515756294131278992e-02 -6.117986887693405151e-02
5.875000000000000000e+03 3.316420745849609375e+01 4.106848716735839844e+00 1.310275644063949585e-01 3.013525530695915222e-02 4.834884405136108398e-02 -5.874854698777198792e-02
5.876000000000000000e+03 3.525554656982421875e+01 8.219779968261718750e+00 1.579316332936286926e-02 -5.041116848587989807e-03 3.225614083930850029e-03 7.318358123302459717e-02
5.877000000000000000e+03 3.618770217895507812e+01 1.082564926147460938e+01 -7.494500279426574707e-02 2.126795053482055664e-02 -1.610311493277549744e-02 2.836136706173419952e-02
5.878000000000000000e+03 3.642682266235351562e+01 1.122098255157470703e+01 -7.786885648965835571e-02 2.235487475991249084e-02 -1.665419526398181915e-02 1.995096728205680847e-02
5.879000000000000000e+03 3.477780532836914062e+01 8.463181495666503906e+00 2.101101679727435112e-03 4.947089590132236481e-03 2.114457311108708382e-03 8.674234151840209961e-02
5.880000000000000000e+03 3.503350067138671875e+01 7.821996212005615234e+00 3.958022966980934143e-02 -6.910094060003757477e-03 9.801040403544902802e-03 7.669374346733093262e-02
5.881000000000000000e+03 2.895681190490722656e+01 1.876797154545783997e-02 7.747543975710868835e-03 5.476935207843780518e-02 1.875506900250911713e-02 -1.325358171015977859e-03
5.882000000000000000e+03 2.738980293273925781e+01 9.309601187705993652e-01 2.774688974022865295e-02 2.967966534197330475e-02 1.722796633839607239e-02 1.387335080653429031e-02
5.883000000000000000e+03 3.587154769897460938e+01 9.974854469299316406e+00 -6.519754976034164429e-02 2.287455834448337555e-02 -1.269689761102199554e-02 4.977330192923545837e-02
5.884000000000000000e+03 6.509210968017578125e+01 2.523551177978515625e+01 -2.400131197646260262e-03 2.813955652527511120e-04 -6.356206722557544708e-04 1.600566436536610126e-03
5.885000000000000000e+03 5.497902297973632812e+01 2.778577804565429688e+01 -3.884604200720787048e-03 8.348114788532257080e-04 -9.149378165602684021e-04 -5.396715714596211910e-04
5.886000000000000000e+03 3.403642654418945312e+01 5.209891796112060547e+00 1.453326195478439331e-01 -1.379356998950242996e-02 3.946171700954437256e-02 -1.424043159931898117e-02
5.887000000000000000e+03 5.503131103515625000e+01 2.841260719299316406e+01 -3.528425702825188637e-03 6.989234825596213341e-04 -8.488507010042667389e-04 -5.804295651614665985e-04
5.888000000000000000e+03 3.118268775939941406e+01 -7.118405699729919434e-01 4.340706858783960342e-03 6.124126166105270386e-02 1.967458985745906830e-02 -2.510416693985462189e-02
5.889000000000000000e+03 3.447358703613281250e+01 -2.833046674728393555e+00 4.073694348335266113e-03 3.955020010471343994e-02 1.308716833591461182e-02 -2.859056368470191956e-02
5.890000000000000000e+03 5.855178451538085938e+01 2.594887733459472656e+01 -4.012154880911111832e-03 1.195112243294715881e-03 -8.451127214357256889e-04 6.529811071231961250e-04
5.891000000000000000e+03 5.908647155761718750e+01 2.543660163879394531e+01 -4.036332480609416962e-03 1.209769630804657936e-03 -8.479688549414277077e-04 8.888354059308767319e-04
5.892000000000000000e+03 5.809227752685546875e+01 2.535146903991699219e+01 -4.359586630016565323e-03 1.345526776276528835e-03 -9.042179444804787636e-04 7.385479984804987907e-04
5.893000000000000000e+03 5.754884338378906250e+01 2.580344009399414062e+01 -4.339796025305986404e-03 1.317405723966658115e-03 -9.067170321941375732e-04 4.817844892386347055e-04
5.894000000000000000e+03 6.212914276123046875e+01 2.548979949951171875e+01 -3.152428194880485535e-03 7.609735475853085518e-04 -7.174363709054887295e-04 1.317083253525197506e-03
5.895000000000000000e+03 6.243574523925781250e+01 2.394882202148437500e+01 -3.356939181685447693e-03 8.419611840508878231e-04 -7.544933469034731388e-04 1.820508157834410667e-03
5.896000000000000000e+03 3.167915916442871094e+01 -3.779383003711700439e-01 1.033329777419567108e-02 6.401884555816650391e-02 2.230564318597316742e-02 -3.140295296907424927e-02
5.897000000000000000e+03 3.089004707336425781e+01 -2.500004172325134277e-01 7.465446833521127701e-03 6.646877527236938477e-02 2.218026667833328247e-02 -2.435874566435813904e-02
5.898000000000000000e+03 6.123937225341796875e+01 2.626669311523437500e+01 -3.187688300386071205e-03 7.926016696728765965e-04 -7.185260183177888393e-04 9.980640606954693794e-04
5.899000000000000000e+03 5.607944488525390625e+01 2.732683372497558594e+01 -3.984946757555007935e-03 1.015684683807194233e-03 -8.907786104828119278e-04 -2.066099259536713362e-04
5.900000000000000000e+03 5.702990722656250000e+01 2.620842170715332031e+01 -4.293056204915046692e-03 1.234656083397567272e-03 -9.175199666060507298e-04 2.619831357151269913e-04
5.901000000000000000e+03 6.157844924926757812e+01 2.467325401306152344e+01 -3.500694874674081802e-03 9.487244533374905586e-04 -7.655911613255739212e-04 1.505782362073659897e-03
5.902000000000000000e+03 5.224494552612304688e+01 2.677235794067382812e+01 -4.819852299988269806e-03 6.775070214644074440e-04 -1.242703641764819622e-03 -1.194739015772938728e-03
5.903000000000000000e+03 1.075866794586181641e+01 -1.181868362426757812e+01 1.576089300215244293e-03 8.038015104830265045e-03 2.884231274947524071e-03 7.963993586599826813e-03
5.904000000000000000e+03 6.799358367919921875e+01 2.103292465209960938e+01 -1.950531965121626854e-03 -4.510252038016915321e-04 -7.204671273939311504e-04 2.658759709447622299e-03
5.905000000000000000e+03 4.069969558715820312e+01 -6.137743949890136719e+00 6.217707414180040359e-03 2.156792581081390381e-02 8.335690014064311981e-03 -1.632507517933845520e-02
5.906000000000000000e+03 3.622724914550781250e+01 -2.898600101470947266e+00 1.061344146728515625e-02 3.113855421543121338e-02 1.252559851855039597e-02 -2.826178260147571564e-02
5.907000000000000000e+03 3.459465026855468750e+01 -1.262897849082946777e+00 1.823459938168525696e-02 4.012956470251083374e-02 1.750924810767173767e-02 -3.646331280469894409e-02
5.908000000000000000e+03 6.873542785644531250e+01 1.641615295410156250e+01 -1.646393211558461189e-03 -1.341609284281730652e-03 -8.964007720351219177e-04 3.775041550397872925e-03
5.909000000000000000e+03 6.877098083496093750e+01 1.379632091522216797e+01 -1.416681450791656971e-03 -1.906037097796797752e-03 -9.968156227841973305e-04 4.428886342793703079e-03
5.910000000000000000e+03 3.850112152099609375e+01 -4.452629089355468750e+00 8.254501968622207642e-03 2.522280253469944000e-02 1.004319172352552414e-02 -2.184313908219337463e-02
5.911000000000000000e+03 3.800337219238281250e+01 -3.319729804992675781e+00 1.317278947681188583e-02 2.456732094287872314e-02 1.132203266024589539e-02 -2.494421415030956268e-02
5.912000000000000000e+03 6.809130859375000000e+01 2.413088226318359375e+01 -1.751095289364457130e-03 -2.444990095682442188e-04 -5.986783071421086788e-04 1.836973591707646847e-03
5.913000000000000000e+03 6.860694885253906250e+01 8.122694015502929688e+00 -6.362699787132441998e-04 -3.370434977114200592e-03 -1.202011480927467346e-03 5.373793654143810272e-03
5.914000000000000000e+03 4.417155456542968750e+01 -1.264450740814208984e+01 1.692294259555637836e-03 2.218056656420230865e-02 7.161858025938272476e-03 -8.599881082773208618e-03
5.915000000000000000e+03 6.907114410400390625e+01 1.778276062011718750e+01 -1.628105062991380692e-03 -1.196365104988217354e-03 -8.473410271108150482e-04 3.395729698240756989e-03
5.916000000000000000e+03 4.066604995727539062e+01 -5.291532039642333984e+00 8.302202448248863220e-03 2.017419598996639252e-02 8.542919531464576721e-03 -1.695656590163707733e-02
5.917000000000000000e+03 4.273878860473632812e+01 -1.076528358459472656e+01 1.804502913728356361e-03 2.258052863180637360e-02 7.315509021282196045e-03 -1.043207291513681412e-02
5.918000000000000000e+03 4.357243347167968750e+01 -9.378583908081054688e+00 3.346231533214449883e-03 2.033693529665470123e-02 7.104950025677680969e-03 -1.054462976753711700e-02
5.919000000000000000e+03 6.582667541503906250e+01 2.513506317138671875e+01 -2.222249284386634827e-03 1.595978246768936515e-04 -6.187954568304121494e-04 1.638156478293240070e-03
5.920000000000000000e+03 6.904132843017578125e+01 2.335255622863769531e+01 -1.550293993204832077e-03 -4.768179496750235558e-04 -6.081336177885532379e-04 1.952335936948657036e-03
5.921000000000000000e+03 6.768451690673828125e+01 -3.635872125625610352e+00 8.665054920129477978e-04 -5.370844155550003052e-03 -1.351301558315753937e-03 4.943012259900569916e-03
5.922000000000000000e+03 6.884813690185546875e+01 -5.017095208168029785e-01 4.964385298080742359e-04 -5.723765119910240173e-03 -1.568197971209883690e-03 5.140966735780239105e-03
5.923000000000000000e+03 6.670111083984375000e+01 -2.772577285766601562e+00 9.642752120271325111e-04 -4.435056820511817932e-03 -1.041234470903873444e-03 5.163908470422029495e-03
5.924000000000000000e+03 6.909606933593750000e+01 1.474240016937255859e+01 -1.435252255760133266e-03 -1.822596183046698570e-03 -9.773544734343886375e-04 4.128765314817428589e-03
5.925000000000000000e+03 6.733609771728515625e+01 -3.588371574878692627e-01 6.675891345366835594e-04 -4.585189279168844223e-03 -1.175280078314244747e-03 5.464467220008373260e-03
5.926000000000000000e+03 4.438881301879882812e+01 -1.672784805297851562e+01 1.552203902974724770e-03 2.470470219850540161e-02 7.877071388065814972e-03 -8.075878955423831940e-03
5.927000000000000000e+03 1.425226020812988281e+01 -2.174528503417968750e+01 -2.447442151606082916e-03 8.175968192517757416e-03 1.718557788990437984e-03 4.884061403572559357e-03
5.928000000000000000e+03 1.320062160491943359e+01 -2.176103973388671875e+01 -2.785283373668789864e-03 8.537371642887592316e-03 1.725626527331769466e-03 5.071173887699842453e-03
5.929000000000000000e+03 6.951329040527343750e+01 6.717141717672348022e-02 3.864207537844777107e-04 -6.109536159783601761e-03 -1.716934610158205032e-03 5.032756365835666656e-03
5.930000000000000000e+03 6.713040924072265625e+01 -1.509715843200683594e+01 1.046285498887300491e-03 -5.104579031467437744e-03 -1.217488083057105541e-03 3.365346463397145271e-03
5.931000000000000000e+03 6.668713378906250000e+01 3.735246181488037109e+00 1.059925634763203561e-04 -3.438784042373299599e-03 -9.998374152928590775e-04 5.908091086894273758e-03
5.932000000000000000e+03 6.614794158935546875e+01 -1.589237213134765625e+01 1.064491691067814827e-03 -3.897049697116017342e-03 -8.497673552483320236e-04 3.214530646800994873e-03
5.933000000000000000e+03 6.881817626953125000e+01 -1.541607379913330078e+01 7.841721526347100735e-04 -7.585112936794757843e-03 -2.040282124653458595e-03 3.249923232942819595e-03
5.934000000000000000e+03 6.828646850585937500e+01 9.163547515869140625e+00 -8.386380504816770554e-04 -2.955000614747405052e-03 -1.138091553002595901e-03 5.346391350030899048e-03
5.935000000000000000e+03 6.669995880126953125e+01 -8.456881523132324219e+00 1.101676141843199730e-03 -4.677349235862493515e-03 -1.072701881639659405e-03 4.281895235180854797e-03
5.936000000000000000e+03 6.734435272216796875e+01 -9.444677352905273438e+00 9.630199638195335865e-04 -5.435156170278787613e-03 -1.341640949249267578e-03 4.157666116952896118e-03
5.937000000000000000e+03 5.052494049072265625e+01 -1.944045829772949219e+01 2.083458006381988525e-03 2.046236768364906311e-02 6.763747427612543106e-03 -3.300349460914731026e-03
5.938000000000000000e+03 6.809599304199218750e+01 1.495002651214599609e+01 -1.709859119728207588e-03 -1.381099340505897999e-03 -9.272875031456351280e-04 4.295422229915857315e-03
5.939000000000000000e+03 6.653073120117187500e+01 -2.282747459411621094e+01 1.347800483927130699e-03 -4.132472444325685501e-03 -8.354016463272273540e-04 2.200824907049536705e-03
5.940000000000000000e+03 6.831793212890625000e+01 1.964178085327148438e+01 -1.854470581747591496e-03 -7.015662849880754948e-04 -7.668110774829983711e-04 2.981665777042508125e-03
5.941000000000000000e+03 4.502111053466796875e+01 -1.560513782501220703e+01 1.660492154769599438e-03 2.336203493177890778e-02 7.506757974624633789e-03 -7.542363833636045456e-03
5.942000000000000000e+03 1.319638442993164062e+01 -2.300981521606445312e+01 -2.119402633979916573e-03 8.341719396412372589e-03 1.866694889031350613e-03 4.779455251991748810e-03
5.943000000000000000e+03 4.971023559570312500e+01 -1.904044151306152344e+01 1.722351182252168655e-03 2.125143632292747498e-02 6.892136298120021820e-03 -3.539186902344226837e-03
5.944000000000000000e+03 4.907609558105468750e+01 -1.837355804443359375e+01 1.694207312539219856e-03 2.146665565669536591e-02 6.948258727788925171e-03 -4.364392720162868500e-03
5.945000000000000000e+03 6.720272064208984375e+01 -1.820892143249511719e+01 1.080344663932919502e-03 -5.372292827814817429e-03 -1.287584425881505013e-03 2.900076564401388168e-03
5.946000000000000000e+03 6.784288787841796875e+01 -1.939341735839843750e+01 9.458307758904993534e-04 -6.241731345653533936e-03 -1.588770188391208649e-03 2.801747992634773254e-03
5.947000000000000000e+03 5.019025039672851562e+01 -2.538033103942871094e+01 3.788352711126208305e-03 2.558518573641777039e-02 8.812061510980129242e-03 -2.861220855265855789e-03
5.948000000000000000e+03 6.554278564453125000e+01 -2.133177566528320312e+01 1.369966659694910049e-03 -2.543215872719883919e-03 -3.519747697282582521e-04 2.467179438099265099e-03
5.949000000000000000e+03 6.398964691162109375e+01 -2.349217987060546875e+01 1.784657011739909649e-03 -7.645500591024756432e-05 5.124605959281325340e-04 1.984788570553064346e-03
5.950000000000000000e+03 6.855697631835937500e+01 1.064328002929687500e+01 -1.043066149577498436e-03 -2.666249638423323631e-03 -1.112794736400246620e-03 5.082251038402318954e-03
5.951000000000000000e+03 6.819040679931640625e+01 6.524976730346679688e+00 -3.984486684203147888e-04 -3.585546510294079781e-03 -1.195198623463511467e-03 5.567428190261125565e-03
5.952000000000000000e+03 6.840308380126953125e+01 3.623728275299072266e+00 5.821923696203157306e-05 -4.474700894206762314e-03 -1.324944430962204933e-03 5.518539808690547943e-03
5.953000000000000000e+03 4.876552581787109375e+00 -3.536677932739257812e+01 -8.216057904064655304e-04 1.589027233421802521e-02 4.520600195974111557e-03 1.357695320621132851e-03
5.954000000000000000e+03 4.330897521972656250e+01 -1.276416397094726562e+01 1.490130904130637646e-03 2.300547063350677490e-02 7.348680403083562851e-03 -9.190768934786319733e-03
5.955000000000000000e+03 4.317288970947265625e+01 -8.336659431457519531e+00 4.113433882594108582e-03 1.992891728878021240e-02 7.212705444544553757e-03 -1.148340292274951935e-02
5.956000000000000000e+03 4.237118911743164062e+01 -9.713495254516601562e+00 2.136615337803959846e-03 2.222847566008567810e-02 7.309527136385440826e-03 -1.124631334096193314e-02
5.957000000000000000e+03 2.977156829833984375e+01 3.210814952850341797e+00 4.293819889426231384e-02 1.410936713218688965e-01 5.520955845713615417e-02 -2.028185501694679260e-02
5.958000000000000000e+03 2.652056312561035156e+01 1.562265753746032715e+00 4.191807657480239868e-02 1.053746882826089859e-02 1.573666371405124664e-02 1.802561990916728973e-02
5.959000000000000000e+03 2.624344444274902344e+01 1.429996371269226074e+00 4.142564162611961365e-02 4.803013987839221954e-03 1.386859733611345291e-02 1.654752902686595917e-02
5.960000000000000000e+03 3.812806320190429688e+01 1.307990264892578125e+01 -5.748223885893821716e-02 1.075037010014057159e-02 -1.401956006884574890e-02 -6.636419566348195076e-04
5.961000000000000000e+03 4.456867218017578125e+01 2.043256378173828125e+01 -1.390210166573524475e-02 1.680140121607109904e-04 -4.120226483792066574e-03 -5.023210309445858002e-03
5.962000000000000000e+03 2.875214004516601562e+01 2.668852090835571289e+00 3.890158608555793762e-02 8.966660499572753906e-02 3.857045620679855347e-02 1.611698605120182037e-02
5.963000000000000000e+03 2.814464950561523438e+01 2.217548847198486328e+00 3.950948268175125122e-02 5.986968055367469788e-02 2.981374785304069519e-02 2.116357162594795227e-02
5.964000000000000000e+03 5.245201492309570312e+01 2.710566329956054688e+01 -4.560102708637714386e-03 6.131870322860777378e-04 -1.184074673801660538e-03 -1.142852241173386574e-03
5.965000000000000000e+03 4.544889831542968750e+01 2.084081840515136719e+01 -1.292781904339790344e-02 5.744136287830770016e-04 -3.706021700054407120e-03 -4.220176953822374344e-03
5.966000000000000000e+03 4.120000839233398438e+01 1.694200134277343750e+01 -2.648984827101230621e-02 1.886320416815578938e-03 -7.381058298051357269e-03 -8.384067565202713013e-03
5.967000000000000000e+03 4.172090530395507812e+01 1.706612586975097656e+01 -2.503345161676406860e-02 2.398788230493664742e-03 -6.790399085730314255e-03 -7.219246122986078262e-03
5.968000000000000000e+03 3.883873367309570312e+01 1.351830291748046875e+01 -4.987798631191253662e-02 9.454532526433467865e-03 -1.212703622877597809e-02 -1.377230510115623474e-03
5.969000000000000000e+03 5.145307922363281250e+01 2.625375175476074219e+01 -5.299385637044906616e-03 6.016832776367664337e-04 -1.409310731105506420e-03 -1.441202242858707905e-03
5.970000000000000000e+03 5.187417221069335938e+01 2.606824874877929688e+01 -5.384962540119886398e-03 8.155697141773998737e-04 -1.370817888528108597e-03 -1.271230867132544518e-03
5.971000000000000000e+03 4.109708786010742188e+01 1.610094451904296875e+01 -2.964393422007560730e-02 3.982669673860073090e-03 -7.698379456996917725e-03 -6.859448738396167755e-03
5.972000000000000000e+03 4.349615478515625000e+01 1.922397994995117188e+01 -1.704356633126735687e-02 3.241348022129386663e-04 -5.015829578042030334e-03 -6.070954725146293640e-03
5.973000000000000000e+03 4.540500640869140625e+01 2.048807144165039062e+01 -1.345034502446651459e-02 9.913091780617833138e-04 -3.737710649147629738e-03 -4.154677502810955048e-03
5.974000000000000000e+03 5.124726104736328125e+01 2.589054870605468750e+01 -5.595218390226364136e-03 6.912138778716325760e-04 -1.471201423555612564e-03 -1.495385658927261829e-03
5.975000000000000000e+03 5.057072067260742188e+01 2.571875762939453125e+01 -5.800778977572917938e-03 5.136579857207834721e-04 -1.586136291734874249e-03 -1.758720609359443188e-03
5.976000000000000000e+03 2.944865608215332031e+01 1.673572808504104614e-01 8.513619191944599152e-03 6.305750459432601929e-02 2.147133648395538330e-02 -7.953961379826068878e-03
5.977000000000000000e+03 3.987453079223632812e+01 1.412475776672363281e+01 -4.046621918678283691e-02 8.908840827643871307e-03 -9.467213414609432220e-03 -2.645544474944472313e-03
5.978000000000000000e+03 3.959925460815429688e+01 1.440925312042236328e+01 -4.230303689837455750e-02 7.071814965456724167e-03 -1.056936662644147873e-02 -4.348431713879108429e-03
5.979000000000000000e+03 3.745467758178710938e+01 1.298083782196044922e+01 -6.396602839231491089e-02 1.119602378457784653e-02 -1.583100110292434692e-02 -4.189283121377229691e-03
5.980000000000000000e+03 2.705011940002441406e+01 4.036286771297454834e-01 2.142987214028835297e-02 2.126848138868808746e-02 1.280950568616390228e-02 1.299818791449069977e-02
5.981000000000000000e+03 4.784616851806640625e+01 2.316152381896972656e+01 -8.940000087022781372e-03 5.267980159260332584e-04 -2.523960545659065247e-03 -2.875786973163485527e-03
5.982000000000000000e+03 4.119760131835937500e+01 1.642604064941406250e+01 -2.867540344595909119e-02 3.621536074206233025e-03 -7.516160141676664352e-03 -7.104124408215284348e-03
5.983000000000000000e+03 2.989962196350097656e+01 3.646515905857086182e-01 1.035173516720533371e-02 6.978125870227813721e-02 2.403989806771278381e-02 -1.358666270971298218e-02
5.984000000000000000e+03 4.943252563476562500e+01 2.451774215698242188e+01 -7.071941159665584564e-03 5.988064804114401340e-04 -1.941940281540155411e-03 -2.162339165806770325e-03
5.985000000000000000e+03 4.036771392822265625e+01 1.496551704406738281e+01 -3.639713302254676819e-02 5.687605123966932297e-03 -9.212858043611049652e-03 -4.850477445870637894e-03
5.986000000000000000e+03 4.108680343627929688e+01 1.539310646057128906e+01 -3.213630989193916321e-02 5.992644932121038437e-03 -7.843099534511566162e-03 -3.977119922637939453e-03
5.987000000000000000e+03 5.349860000610351562e+01 2.691874694824218750e+01 -4.592129494994878769e-03 8.941090782172977924e-04 -1.109406119212508202e-03 -8.318141917698085308e-04
5.988000000000000000e+03 4.746156311035156250e+01 2.273535728454589844e+01 -9.579664096236228943e-03 6.013091770000755787e-04 -2.693506423383951187e-03 -3.053132677450776100e-03
5.989000000000000000e+03 4.889440155029296875e+01 2.323382186889648438e+01 -8.614204823970794678e-03 1.104510738514363766e-03 -2.252908423542976379e-03 -2.200991148129105568e-03
5.990000000000000000e+03 4.344220733642578125e+01 1.866163063049316406e+01 -1.842831075191497803e-02 1.280452939681708813e-03 -5.144357681274414062e-03 -5.602367222309112549e-03
5.991000000000000000e+03 4.523638153076171875e+01 2.021974372863769531e+01 -1.412554644048213959e-02 1.018085982650518417e-03 -3.932238090783357620e-03 -4.164304118603467941e-03
5.992000000000000000e+03 4.627184295654296875e+01 2.111214637756347656e+01 -1.206171792000532150e-02 1.011931803077459335e-03 -3.314935835078358650e-03 -3.526171669363975525e-03
5.993000000000000000e+03 4.311607360839843750e+01 1.844294929504394531e+01 -1.910543441772460938e-02 1.422425732016563416e-03 -5.304902791976928711e-03 -6.291888188570737839e-03
5.994000000000000000e+03 5.092618560791015625e+01 2.512367439270019531e+01 -6.264642812311649323e-03 9.050134685821831226e-04 -1.607888843864202499e-03 -1.515216194093227386e-03
5.995000000000000000e+03 4.455270767211914062e+01 1.984287071228027344e+01 -1.508922781795263290e-02 8.459565578959882259e-04 -4.272981546819210052e-03 -4.775739274919033051e-03
5.996000000000000000e+03 4.377601623535156250e+01 1.941629600524902344e+01 -1.638315804302692413e-02 6.609703414142131805e-04 -4.716656170785427094e-03 -5.850956309586763382e-03
5.997000000000000000e+03 5.247476196289062500e+01 2.624842262268066406e+01 -5.182491615414619446e-03 9.024149621836841106e-04 -1.284022931940853596e-03 -1.079048495739698410e-03
5.998000000000000000e+03 3.475684738159179688e+01 6.816942214965820312e+00 9.835962206125259399e-02 -2.791828848421573639e-02 2.113240025937557220e-02 5.374947190284729004e-02
5.999000000000000000e+03 3.579462432861328125e+01 8.993571281433105469e+00 -2.520894818007946014e-02 9.717741981148719788e-03 -4.647362045943737030e-03 6.480226665735244751e-02
6.000000000000000000e+03 4.492532348632812500e+01 2.011664390563964844e+01 -1.433653198182582855e-02 9.853017982095479965e-04 -4.005369264632463455e-03 -4.478293936699628830e-03
6.001000000000000000e+03 3.986139678955078125e+01 1.466024208068847656e+01 -3.908821195363998413e-02 6.751275155693292618e-03 -9.701080620288848877e-03 -5.607455037534236908e-03
6.002000000000000000e+03 4.013291168212890625e+01 1.524167442321777344e+01 -3.573817387223243713e-02 5.353348795324563980e-03 -9.115447290241718292e-03 -6.566576659679412842e-03
6.003000000000000000e+03 4.071921539306640625e+01 1.545965576171875000e+01 -3.343396633863449097e-02 5.281194578856229782e-03 -8.445831947028636932e-03 -5.803727079182863235e-03
6.004000000000000000e+03 4.164318847656250000e+01 1.778971290588378906e+01 -2.304933406412601471e-02 3.164242953062057495e-04 -6.819873116910457611e-03 -8.599618449807167053e-03
6.005000000000000000e+03 4.718770599365234375e+01 2.224462127685546875e+01 -1.028455886989831924e-02 7.917664479464292526e-04 -2.847837749868631363e-03 -3.125233342871069908e-03
6.006000000000000000e+03 3.591014862060546875e+01 1.050862884521484375e+01 -7.893868535757064819e-02 2.422717772424221039e-02 -1.641345210373401642e-02 3.542829677462577820e-02
6.007000000000000000e+03 5.037987899780273438e+01 2.487628936767578125e+01 -6.629097275435924530e-03 8.325913222506642342e-04 -1.738951890729367733e-03 -1.753677148371934891e-03
6.008000000000000000e+03 4.679489898681640625e+01 2.138364791870117188e+01 -1.150908507406711578e-02 1.189198344945907593e-03 -3.095966065302491188e-03 -3.129275748506188393e-03
6.009000000000000000e+03 3.038984870910644531e+01 1.189436674118041992e+00 2.148307301104068756e-02 8.531963825225830078e-02 3.204081580042839050e-02 -2.361001074314117432e-02
6.010000000000000000e+03 3.060289382934570312e+01 3.367383956909179688e+00 6.032780557870864868e-02 1.391555368900299072e-01 5.984500423073768616e-02 -5.386719852685928345e-02
6.011000000000000000e+03 4.859841537475585938e+01 2.404653930664062500e+01 -7.753636687994003296e-03 4.682153230533003807e-04 -2.185626421123743057e-03 -2.567243296653032303e-03
6.012000000000000000e+03 5.016524505615234375e+01 2.462472534179687500e+01 -6.946736015379428864e-03 8.807876147329807281e-04 -1.819784520193934441e-03 -1.777234952896833420e-03
6.013000000000000000e+03 3.532395553588867188e+01 9.251749038696289062e+00 -4.218598455190658569e-02 1.633995212614536285e-02 -7.753809448331594467e-03 7.006487995386123657e-02
6.014000000000000000e+03 3.013771057128906250e+01 -7.806888222694396973e-02 6.758802570402622223e-03 6.564868241548538208e-02 2.172224409878253937e-02 -1.628424599766731262e-02
6.015000000000000000e+03 4.837944030761718750e+01 2.388220977783203125e+01 -8.002280257642269135e-03 3.715849888976663351e-04 -2.289208583533763885e-03 -2.654182491824030876e-03
6.016000000000000000e+03 3.683491134643554688e+01 1.091503238677978516e+01 -6.336083263158798218e-02 1.913767680525779724e-02 -1.326694712042808533e-02 2.493308112025260925e-02
6.017000000000000000e+03 5.398750305175781250e+01 2.764960098266601562e+01 -4.048268776386976242e-03 7.702109287492930889e-04 -9.834173833951354027e-04 -7.515969919040799141e-04
6.018000000000000000e+03 5.437031555175781250e+01 2.728711700439453125e+01 -4.251291044056415558e-03 9.019950521178543568e-04 -1.004788791760802269e-03 -6.127982051111757755e-04
6.019000000000000000e+03 3.300834655761718750e+01 -1.768649518489837646e-01 2.155333198606967926e-02 5.410874262452125549e-02 2.269862219691276550e-02 -4.050278663635253906e-02
6.020000000000000000e+03 3.216379928588867188e+01 3.540144681930541992e+00 1.038485616445541382e-01 7.775416970252990723e-02 5.448082089424133301e-02 -7.749805599451065063e-02
6.021000000000000000e+03 3.361518478393554688e+01 4.970810890197753906e+00 1.529348343610763550e-01 -4.534883890300989151e-03 4.451998695731163025e-02 -3.348414972424507141e-02
6.022000000000000000e+03 3.252537536621093750e+01 4.863312244415283203e+00 1.752113103866577148e-01 3.375812619924545288e-02 6.269083172082901001e-02 -6.741453707218170166e-02
6.023000000000000000e+03 3.446645736694335938e+01 5.451599121093750000e+00 1.326542347669601440e-01 -2.240883558988571167e-02 3.307361900806427002e-02 4.098271601833403111e-04
6.024000000000000000e+03 3.433020019531250000e+01 6.559302806854248047e+00 1.228372231125831604e-01 -2.926204539835453033e-02 2.807255275547504425e-02 4.774462431669235229e-02
6.025000000000000000e+03 3.460440444946289062e+01 6.139399528503417969e+00 1.228621676564216614e-01 -2.940350212156772614e-02 2.803760021924972534e-02 2.839571796357631683e-02
6.026000000000000000e+03 3.269798278808593750e+01 3.648764610290527344e+00 1.126932799816131592e-01 5.365469306707382202e-02 4.990439489483833313e-02 -7.039378583431243896e-02
6.027000000000000000e+03 3.339673614501953125e+01 3.713919878005981445e+00 1.127136796712875366e-01 2.948996610939502716e-02 4.266109317541122437e-02 -5.846241861581802368e-02
6.028000000000000000e+03 2.801524543762207031e+01 6.472393274307250977e-01 1.962321996688842773e-02 4.242953285574913025e-02 1.861582696437835693e-02 9.248564951121807098e-03
6.029000000000000000e+03 3.618826293945312500e+01 1.021982097625732422e+01 -6.197290867567062378e-02 2.093662135303020477e-02 -1.231088582426309586e-02 4.032829776406288147e-02
6.030000000000000000e+03 3.653299331665039062e+01 1.051051902770996094e+01 -6.547666341066360474e-02 2.106685563921928406e-02 -1.332294195890426636e-02 3.496463596820831299e-02
6.031000000000000000e+03 3.701155853271484375e+01 1.261589908599853516e+01 -7.038953155279159546e-02 1.418448891490697861e-02 -1.686151139438152313e-02 -1.834439346566796303e-03
6.032000000000000000e+03 3.754224014282226562e+01 1.174031162261962891e+01 -6.188234314322471619e-02 1.573991961777210236e-02 -1.384272612631320953e-02 1.382294110953807831e-02
6.033000000000000000e+03 3.817150115966796875e+01 1.246358776092529297e+01 -5.660767480731010437e-02 1.372224371880292892e-02 -1.286562904715538025e-02 6.225531920790672302e-03
6.034000000000000000e+03 3.158319091796875000e+01 3.431980848312377930e+00 9.020234644412994385e-02 1.034655347466468811e-01 5.810036510229110718e-02 -7.734224200248718262e-02
6.035000000000000000e+03 5.372766876220703125e+01 2.729870033264160156e+01 -4.309993237257003784e-03 8.042405825108289719e-04 -1.051725703291594982e-03 -7.983151590451598167e-04
6.036000000000000000e+03 3.276232147216796875e+01 -9.571515917778015137e-01 1.110728457570075989e-02 5.413815751671791077e-02 1.957363262772560120e-02 -3.481227904558181763e-02
6.037000000000000000e+03 5.562551498413085938e+01 2.767350578308105469e+01 -3.890222636982798576e-03 9.116167202591896057e-04 -8.935817750170826912e-04 -3.702453686855733395e-04
6.038000000000000000e+03 3.383370590209960938e+01 -1.430809378623962402e+00 1.219880115240812302e-02 4.591235890984535217e-02 1.743334718048572540e-02 -3.482024744153022766e-02
6.039000000000000000e+03 3.323624801635742188e+01 -6.660234332084655762e-01 1.756677404046058655e-02 5.123671516776084900e-02 2.064104564487934113e-02 -3.756546229124069214e-02
6.040000000000000000e+03 5.567533111572265625e+01 2.693273735046386719e+01 -4.247641190886497498e-03 1.089314348064363003e-03 -9.474980761297047138e-04 -2.208331861766055226e-04
6.041000000000000000e+03 6.006764602661132812e+01 2.521414184570312500e+01 -3.796539502218365669e-03 1.102262991480529308e-03 -8.082829299382865429e-04 1.137134851887822151e-03
6.042000000000000000e+03 6.068902206420898438e+01 2.539685440063476562e+01 -3.590589622035622597e-03 1.005274709314107895e-03 -7.755944970995187759e-04 1.161758904345333576e-03
6.043000000000000000e+03 6.366955184936523438e+01 2.470381927490234375e+01 -2.871338045224547386e-03 5.554285598918795586e-04 -6.947728106752038002e-04 1.672348706051707268e-03
6.044000000000000000e+03 6.436955261230468750e+01 2.462515640258789062e+01 -2.682385966181755066e-03 4.308863717596977949e-04 -6.754499045200645924e-04 1.736237783916294575e-03
6.045000000000000000e+03 3.615459823608398438e+01 -2.133222341537475586e+00 1.587186940014362335e-02 3.087813965976238251e-02 1.402500271797180176e-02 -3.090536780655384064e-02
6.046000000000000000e+03 3.958545303344726562e+01 -4.486252784729003906e+00 9.715202264487743378e-03 2.140256017446517944e-02 9.335328824818134308e-03 -1.973044127225875854e-02
6.047000000000000000e+03 3.726163482666015625e+01 -3.371092796325683594e+00 1.076407078653573990e-02 2.753973193466663361e-02 1.149114128202199936e-02 -2.564681507647037506e-02
6.048000000000000000e+03 3.346414184570312500e+01 -1.077602982521057129e+00 1.315451040863990784e-02 4.796725139021873474e-02 1.833652891218662262e-02 -3.552810847759246826e-02
6.049000000000000000e+03 3.479884338378906250e+01 -2.103736162185668945e+00 1.197986770421266556e-02 3.891893103718757629e-02 1.526963897049427032e-02 -3.272731602191925049e-02
6.050000000000000000e+03 6.226447677612304688e+01 2.471843719482421875e+01 -3.275775350630283356e-03 8.097264799289405346e-04 -7.398146553896367550e-04 1.549359876662492752e-03
6.051000000000000000e+03 6.200778961181640625e+01 2.315738487243652344e+01 -3.678107634186744690e-03 1.034076558426022530e-03 -7.932093576528131962e-04 2.056116703897714615e-03
6.052000000000000000e+03 5.762550735473632812e+01 2.476120376586914062e+01 -4.740048665553331375e-03 1.556039554998278618e-03 -9.552027331665158272e-04 8.114795200526714325e-04
6.053000000000000000e+03 6.179006195068359375e+01 2.388056182861328125e+01 -3.597525181248784065e-03 9.842845611274242401e-04 -7.839721511118113995e-04 1.779475249350070953e-03
6.054000000000000000e+03 6.506803894042968750e+01 2.451484489440917969e+01 -2.506688470020890236e-03 3.062105097342282534e-04 -6.601433851756155491e-04 1.784497988410294056e-03
6.055000000000000000e+03 3.216984939575195312e+01 -3.370190039277076721e-02 1.757687702775001526e-02 6.258220970630645752e-02 2.404772676527500153e-02 -3.739703819155693054e-02
6.056000000000000000e+03 3.104268836975097656e+01 4.910419285297393799e-01 1.612413115799427032e-02 7.523601502180099487e-02 2.740804292261600494e-02 -3.020356968045234680e-02
6.057000000000000000e+03 5.338913345336914062e+01 2.611113166809082031e+01 -5.156502127647399902e-03 1.119323773309588432e-03 -1.211153459735214710e-03 -7.417053566314280033e-04
6.058000000000000000e+03 5.657927322387695312e+01 2.591040039062500000e+01 -4.547572229057550430e-03 1.346076140180230141e-03 -9.604487568140029907e-04 2.254471473861485720e-04
6.059000000000000000e+03 6.838111877441406250e+01 1.963560581207275391e+00 2.927980676759034395e-04 -4.897872451692819595e-03 -1.381522277370095253e-03 5.442359950393438339e-03
6.060000000000000000e+03 6.813729858398437500e+01 3.505017161369323730e-01 4.983137478120625019e-04 -5.008169449865818024e-03 -1.352956751361489296e-03 5.369822494685649872e-03
6.061000000000000000e+03 6.731509399414062500e+01 2.496147155761718750e+01 -1.867646118625998497e-03 -8.368445560336112976e-05 -5.853991606272757053e-04 1.666475203819572926e-03
6.062000000000000000e+03 6.856715393066406250e+01 1.840236091613769531e+01 -1.774020493030548096e-03 -9.426664910279214382e-04 -8.150060893967747688e-04 3.279028693214058876e-03
6.063000000000000000e+03 3.400696945190429688e+01 3.449986934661865234e+00 1.008874326944351196e-01 1.967019960284233093e-02 3.616729006171226501e-02 -4.955844581127166748e-02
6.064000000000000000e+03 6.816381835937500000e+01 2.236244583129882812e+01 -1.855416456237435341e-03 -3.627293335739523172e-04 -6.654437165707349777e-04 2.267010277137160301e-03
6.065000000000000000e+03 6.903533935546875000e+01 2.246009826660156250e+01 -1.613355590961873531e-03 -5.422815447673201561e-04 -6.466911290772259235e-04 2.171487780287861824e-03
6.066000000000000000e+03 4.175360488891601562e+01 -5.257832527160644531e+00 9.126494638621807098e-03 1.806552335619926453e-02 8.157605305314064026e-03 -1.501441653817892075e-02
6.067000000000000000e+03 6.883934020996093750e+01 2.496499443054199219e+01 -1.506873988546431065e-03 -3.073046100325882435e-04 -5.442535621114075184e-04 1.588621642440557480e-03
6.068000000000000000e+03 6.898110198974609375e+01 2.420756149291992188e+01 -1.541753765195608139e-03 -3.774279030039906502e-04 -5.757545004598796368e-04 1.769674359820783138e-03
6.069000000000000000e+03 6.743813323974609375e+01 1.314032459259033203e+01 -1.616887049749493599e-03 -1.563734840601682663e-03 -9.541865438222885132e-04 4.857479594647884369e-03
6.070000000000000000e+03 6.726167297363281250e+01 2.188169860839843750e+01 -2.127332147210836411e-03 -1.926624536281451583e-04 -6.959983729757368565e-04 2.472717780619859695e-03
6.071000000000000000e+03 6.750960540771484375e+01 7.894052028656005859e+00 -6.869838107377290726e-04 -2.883130451664328575e-03 -1.071034232154488564e-03 5.675162654370069504e-03
6.072000000000000000e+03 4.274482727050781250e+01 -6.310841560363769531e+00 7.245380897074937820e-03 1.813468150794506073e-02 7.614018861204385757e-03 -1.316850911825895309e-02
6.073000000000000000e+03 6.690273284912109375e+01 -6.361257553100585938e+00 1.050877966918051243e-03 -4.883492831140756607e-03 -1.149784424342215061e-03 4.556412808597087860e-03
6.074000000000000000e+03 6.824285888671875000e+01 1.769658660888671875e+01 -1.829862594604492188e-03 -9.806174784898757935e-04 -8.431440219283103943e-04 3.543971804901957512e-03
6.075000000000000000e+03 6.832762908935546875e+01 1.574944782257080078e+01 -1.722663640975952148e-03 -1.334036700427532196e-03 -9.170101257041096687e-04 4.091935232281684875e-03
6.076000000000000000e+03 6.782148742675781250e+01 1.886272430419921875e+01 -1.980576897040009499e-03 -6.682595121674239635e-04 -7.946509285829961300e-04 3.261175705119967461e-03
6.077000000000000000e+03 6.785390472412109375e+01 -7.024322032928466797e+00 9.359426330775022507e-04 -5.844172555953264236e-03 -1.472468953579664230e-03 4.460212774574756622e-03
6.078000000000000000e+03 6.779978942871093750e+01 -5.362488269805908203e+00 8.802823140285909176e-04 -5.686471238732337952e-03 -1.441856613382697105e-03 4.678762517869472504e-03
6.079000000000000000e+03 6.763008880615234375e+01 5.745049953460693359e+00 -2.958213153760880232e-04 -3.518133191391825676e-03 -1.144186360761523247e-03 5.737814120948314667e-03
6.080000000000000000e+03 6.837342071533203125e+01 5.122900485992431641e+00 -1.924794923979789019e-04 -4.052655305713415146e-03 -1.273540547117590904e-03 5.540790967643260956e-03
6.081000000000000000e+03 6.426023864746093750e+01 -9.382123947143554688e+00 1.492871087975800037e-03 -1.939903711900115013e-03 -1.341097668046131730e-04 3.991772420704364777e-03
6.082000000000000000e+03 6.758000946044921875e+01 4.410130977630615234e+00 -4.999396696803160012e-05 -3.783510066568851471e-03 -1.150051248259842396e-03 5.765545647591352463e-03
6.083000000000000000e+03 6.744944000244140625e+01 -1.311590576171875000e+01 9.453574311919510365e-04 -5.656953901052474976e-03 -1.413478981703519821e-03 3.620101837441325188e-03
6.084000000000000000e+03 6.736385345458984375e+01 -1.128416061401367188e+01 9.822793072089552879e-04 -5.393835250288248062e-03 -1.323466771282255650e-03 3.896917216479778290e-03
6.085000000000000000e+03 4.401670074462890625e+01 -1.047735595703125000e+01 2.511353231966495514e-03 2.074234560132026672e-02 6.976109463721513748e-03 -9.494410827755928040e-03
6.086000000000000000e+03 4.758498001098632812e+01 -1.670376014709472656e+01 1.597017981112003326e-03 2.188293449580669403e-02 7.043985649943351746e-03 -5.634312517940998077e-03
6.087000000000000000e+03 4.679307556152343750e+01 -1.781519699096679688e+01 1.839050673879683018e-03 2.354221977293491364e-02 7.614381145685911179e-03 -6.157010793685913086e-03
6.088000000000000000e+03 4.068096160888671875e+01 -4.390761375427246094e+00 1.112633384764194489e-02 1.883391290903091431e-02 8.988074027001857758e-03 -1.771900057792663574e-02
6.089000000000000000e+03 6.545375823974609375e+01 -1.509508991241455078e+01 1.245364896021783352e-03 -2.759240102022886276e-03 -4.541625385172665119e-04 3.328954102471470833e-03
6.090000000000000000e+03 6.641989898681640625e+01 -1.411550045013427734e+01 1.150908763520419598e-03 -4.229643847793340683e-03 -9.236205951310694218e-04 3.432932542636990547e-03
6.091000000000000000e+03 4.994638061523437500e+01 -2.065015411376953125e+01 1.801238744519650936e-03 2.234715409576892853e-02 7.244518026709556580e-03 -3.313972847536206245e-03
6.092000000000000000e+03 5.141590118408203125e+01 -1.685125350952148438e+01 2.001208718866109848e-03 1.738097704946994781e-02 5.814655683934688568e-03 -2.719090320169925690e-03
6.093000000000000000e+03 6.462314605712890625e+01 -1.420123004913330078e+01 1.336952322162687778e-03 -1.848037121817469597e-03 -1.533254398964345455e-04 3.262986429035663605e-03
6.094000000000000000e+03 6.551704406738281250e+01 -1.763520812988281250e+01 1.281094970181584358e-03 -2.714748028665781021e-03 -4.300959117244929075e-04 2.887592883780598640e-03
6.095000000000000000e+03 6.664464569091796875e+01 -1.700187683105468750e+01 1.084845513105392456e-03 -4.462721291929483414e-03 -1.013362780213356018e-03 3.147721523419022560e-03
6.096000000000000000e+03 5.047205734252929688e+01 -2.203689956665039062e+01 2.129122149199247360e-03 2.302782796323299408e-02 7.547085173428058624e-03 -2.949653193354606628e-03
6.097000000000000000e+03 5.213763809204101562e+01 -1.877955245971679688e+01 2.115702256560325623e-03 1.770067214965820312e-02 5.944912321865558624e-03 -2.072904491797089577e-03
6.098000000000000000e+03 5.073720932006835938e+01 -2.100119400024414062e+01 2.351445611566305161e-03 2.149564214050769806e-02 7.154126185923814774e-03 -2.912350697442889214e-03
6.099000000000000000e+03 4.841253280639648438e+01 -2.434720230102539062e+01 3.202808788046240807e-03 2.772032655775547028e-02 9.276940487325191498e-03 -4.633238539099693298e-03
6.100000000000000000e+03 5.216489410400390625e+01 -2.512831878662109375e+01 3.311269218102097511e-03 2.212120220065116882e-02 7.629741448909044266e-03 -1.753843040205538273e-03
6.101000000000000000e+03 4.599263381958007812e+01 -1.106062698364257812e+01 2.658112207427620888e-03 1.907812431454658508e-02 6.520871073007583618e-03 -7.633686996996402740e-03
6.102000000000000000e+03 6.866133880615234375e+01 1.205252647399902344e+01 -1.240940415300428867e-03 -2.296863356605172157e-03 -1.061341143213212490e-03 4.811546765267848969e-03
6.103000000000000000e+03 6.699872589111328125e+01 1.082438755035400391e+01 -1.336760586127638817e-03 -1.904888311401009560e-03 -9.724946576170623302e-04 5.440824665129184723e-03
6.104000000000000000e+03 4.409423065185546875e+01 -7.095261573791503906e+00 6.419642828404903412e-03 1.697569899260997772e-02 7.018602453172206879e-03 -1.091746520251035690e-02
6.105000000000000000e+03 4.892412948608398438e+01 -2.605130577087402344e+01 3.750016214326024055e-03 2.949962951242923737e-02 9.974894113838672638e-03 -4.510742612183094025e-03
6.106000000000000000e+03 5.072779846191406250e+01 -2.716509056091308594e+01 4.420128185302019119e-03 2.623338066041469574e-02 9.196052327752113342e-03 -2.858927706256508827e-03
6.107000000000000000e+03 1.463478374481201172e+01 -2.621773338317871094e+01 -2.923576394096016884e-03 7.358551025390625000e-03 1.330492435954511166e-03 3.987019415944814682e-03
6.108000000000000000e+03 2.639506149291992188e+01 9.074586629867553711e-01 3.161305189132690430e-02 9.914886206388473511e-03 1.245838124305009842e-02 1.559800654649734497e-02
6.109000000000000000e+03 2.696592712402343750e+01 1.080868959426879883e+00 3.129397705197334290e-02 2.117531746625900269e-02 1.574078761041164398e-02 1.629942283034324646e-02
6.110000000000000000e+03 2.753278732299804688e+01 1.335356116294860840e+00 3.132418915629386902e-02 3.548647463321685791e-02 2.004319988191127777e-02 1.662560738623142242e-02
6.111000000000000000e+03 2.871091079711914062e+01 2.349959850311279297e+00 3.532753139734268188e-02 8.424401283264160156e-02 3.587146475911140442e-02 1.436940580606460571e-02
6.112000000000000000e+03 2.812741661071777344e+01 1.510123848915100098e+00 3.001602925360202789e-02 5.254159495234489441e-02 2.476728707551956177e-02 1.495843287557363510e-02
6.113000000000000000e+03 4.514392089843750000e+01 2.051142501831054688e+01 -1.352857053279876709e-02 5.864947452209889889e-04 -3.882622811943292618e-03 -4.466090817004442215e-03
6.114000000000000000e+03 3.855930709838867188e+01 1.218327999114990234e+01 -5.004415288567543030e-02 1.498269289731979370e-02 -1.051843818277120590e-02 1.007526926696300507e-02
6.115000000000000000e+03 3.876439666748046875e+01 1.298682117462158203e+01 -5.141398683190345764e-02 1.179932150989770889e-02 -1.188439968973398209e-02 2.844960661605000496e-03
6.116000000000000000e+03 4.407942962646484375e+01 1.950267601013183594e+01 -1.593475416302680969e-02 6.744214333593845367e-04 -4.578100051730871201e-03 -5.222133360803127289e-03
6.117000000000000000e+03 5.205710601806640625e+01 2.642298507690429688e+01 -5.117548163980245590e-03 7.271165377460420132e-04 -1.317129470407962799e-03 -1.236618147231638432e-03
6.118000000000000000e+03 4.569924545288085938e+01 2.036969757080078125e+01 -1.357567962259054184e-02 1.298063318245112896e-03 -3.683284856379032135e-03 -3.719907719641923904e-03
6.119000000000000000e+03 4.256235885620117188e+01 1.771723175048828125e+01 -2.175777591764926910e-02 2.236716449260711670e-03 -5.856317933648824692e-03 -6.409803871065378189e-03
6.120000000000000000e+03 3.849089813232421875e+01 1.330816841125488281e+01 -5.210733041167259216e-02 1.118224579840898514e-02 -1.227752584964036942e-02 -2.068410161882638931e-03
6.121000000000000000e+03 2.951496315002441406e+01 2.601921558380126953e+00 3.425193205475807190e-02 1.149189099669456482e-01 4.475125297904014587e-02 -7.106655742973089218e-03
6.122000000000000000e+03 3.070595550537109375e+01 8.666895627975463867e-01 1.814028993248939514e-02 8.046358078718185425e-02 2.958116121590137482e-02 -2.685670554637908936e-02
6.123000000000000000e+03 4.404535293579101562e+01 1.919283485412597656e+01 -1.679649017751216888e-02 1.209287322126328945e-03 -4.676160868257284164e-03 -5.158384330570697784e-03
6.124000000000000000e+03 4.488096237182617188e+01 1.974562454223632812e+01 -1.485256385058164597e-02 1.273384550586342812e-03 -4.073753952980041504e-03 -4.360779188573360443e-03
6.125000000000000000e+03 3.940848922729492188e+01 1.342362403869628906e+01 -4.565461724996566772e-02 1.014907751232385635e-02 -1.065166201442480087e-02 1.212118077091872692e-03
6.126000000000000000e+03 3.952913284301757812e+01 1.391588401794433594e+01 -4.387056082487106323e-02 8.624115958809852600e-03 -1.057393383234739304e-02 -1.536264549940824509e-03
6.127000000000000000e+03 5.169203948974609375e+01 2.570585060119628906e+01 -5.722066387534141541e-03 8.915568469092249870e-04 -1.449152827262878418e-03 -1.287321676500141621e-03
6.128000000000000000e+03 5.213608169555664062e+01 2.552256584167480469e+01 -5.764128640294075012e-03 1.094107166863977909e-03 -1.401006360538303852e-03 -1.077628810890018940e-03
6.129000000000000000e+03 2.908448982238769531e+01 2.275599956512451172e+00 3.163195028901100159e-02 9.417682886123657227e-02 3.774263337254524231e-02 3.692653262987732887e-03
6.130000000000000000e+03 3.722721481323242188e+01 1.118979454040527344e+01 -6.374458223581314087e-02 1.819290220737457275e-02 -1.366550382226705551e-02 2.201875858008861542e-02
6.131000000000000000e+03 4.207666015625000000e+01 1.765135574340820312e+01 -2.281260676681995392e-02 1.666490919888019562e-03 -6.343835033476352692e-03 -7.205459754914045334e-03
6.132000000000000000e+03 5.106451797485351562e+01 2.551714897155761719e+01 -5.972521845251321793e-03 7.819352904334664345e-04 -1.557175884954631329e-03 -1.511110109277069569e-03
6.133000000000000000e+03 3.798549270629882812e+01 1.212107753753662109e+01 -5.707042291760444641e-02 1.400978211313486099e-02 -1.291819196194410324e-02 8.972507901489734650e-03
6.134000000000000000e+03 4.618935394287109375e+01 2.066179656982421875e+01 -1.289472170174121857e-02 1.404571114107966423e-03 -3.447045106440782547e-03 -3.377076936885714531e-03
6.135000000000000000e+03 4.438483810424804688e+01 1.960310554504394531e+01 -1.546422112733125687e-02 1.018064678646624088e-03 -4.333846736699342728e-03 -5.020080599933862686e-03
6.136000000000000000e+03 4.466882705688476562e+01 1.938346290588378906e+01 -1.597953215241432190e-02 1.575685688294470310e-03 -4.321153741329908371e-03 -4.423531237989664078e-03
6.137000000000000000e+03 3.630152893066406250e+01 8.701406478881835938e+00 -7.854617200791835785e-03 5.008873529732227325e-03 -8.537229732610285282e-04 5.969835817813873291e-02
6.138000000000000000e+03 3.597370910644531250e+01 8.320933341979980469e+00 6.566942203789949417e-03 -4.042754881083965302e-04 1.848800107836723328e-03 6.312498450279235840e-02
6.139000000000000000e+03 5.584754180908203125e+01 2.635325241088867188e+01 -4.493107553571462631e-03 1.232347334735095501e-03 -9.782280540093779564e-04 -5.720356421079486609e-05
6.140000000000000000e+03 3.247926330566406250e+01 -4.979854524135589600e-01 1.410225592553615570e-02 5.865433439612388611e-02 2.182697691023349762e-02 -3.617655113339424133e-02
6.141000000000000000e+03 3.351054382324218750e+01 1.828409284353256226e-01 2.939695492386817932e-02 5.067662149667739868e-02 2.402207255363464355e-02 -4.342054948210716248e-02
6.142000000000000000e+03 3.032191085815429688e+01 5.960104465484619141e-01 1.422129105776548386e-02 7.545582950115203857e-02 2.690313756465911865e-02 -2.054320089519023895e-02
6.143000000000000000e+03 3.000075149536132812e+01 2.797723293304443359e+00 3.945228829979896545e-02 1.246570795774459839e-01 4.923281073570251465e-02 -2.475433610379695892e-02
6.144000000000000000e+03 4.195589065551757812e+01 1.733044433593750000e+01 -2.421750873327255249e-02 2.005651826038956642e-03 -6.663557142019271851e-03 -7.226211018860340118e-03
6.145000000000000000e+03 4.159564208984375000e+01 1.680233573913574219e+01 -2.671280503273010254e-02 3.033889690414071083e-03 -7.103674579411745071e-03 -7.076030131429433823e-03
6.146000000000000000e+03 4.783436965942382812e+01 2.275405883789062500e+01 -9.453189559280872345e-03 8.168450440280139446e-04 -2.590903313830494881e-03 -2.750505227595567703e-03
6.147000000000000000e+03 5.138410568237304688e+01 2.495732307434082031e+01 -6.382900755852460861e-03 1.119955908507108688e-03 -1.578883384354412556e-03 -1.290600630454719067e-03
6.148000000000000000e+03 5.365420150756835938e+01 2.569681739807128906e+01 -5.362534895539283752e-03 1.304896664805710316e-03 -1.217291457578539848e-03 -5.754007142968475819e-04
6.149000000000000000e+03 4.074545669555664062e+01 1.509049606323242188e+01 -3.434989973902702332e-02 7.057128008455038071e-03 -8.187832310795783997e-03 -4.240429494529962540e-03
6.150000000000000000e+03 4.379106140136718750e+01 1.888570404052734375e+01 -1.736670732498168945e-02 1.456286292523145676e-03 -4.773126449435949326e-03 -5.396361462771892548e-03
6.151000000000000000e+03 4.250870513916015625e+01 1.828774833679199219e+01 -2.026251144707202911e-02 7.889167754910886288e-04 -5.842078477144241333e-03 -7.305533625185489655e-03
6.152000000000000000e+03 3.751368713378906250e+01 1.218632507324218750e+01 -6.405234336853027344e-02 1.700227707624435425e-02 -1.411501970142126083e-02 6.902799010276794434e-03
6.153000000000000000e+03 4.724669265747070312e+01 2.177276802062988281e+01 -1.079665031284093857e-02 1.141144311986863613e-03 -2.896651625633239746e-03 -2.890395233407616615e-03
6.154000000000000000e+03 4.770330429077148438e+01 2.169119834899902344e+01 -1.078862044960260391e-02 1.529681961983442307e-03 -2.777681453153491020e-03 -2.508317120373249054e-03
6.155000000000000000e+03 4.828155899047851562e+01 2.303977012634277344e+01 -8.905597962439060211e-03 8.897286606952548027e-04 -2.404760802164673805e-03 -2.540337853133678436e-03
6.156000000000000000e+03 5.280720138549804688e+01 2.787875366210937500e+01 -3.989742603152990341e-03 4.721175937447696924e-04 -1.055287546478211880e-03 -1.088279881514608860e-03
6.157000000000000000e+03 4.020100021362304688e+01 1.436779022216796875e+01 -3.880305215716362000e-02 7.557977456599473953e-03 -9.373522363603115082e-03 -2.118896925821900368e-03
6.158000000000000000e+03 4.054951858520507812e+01 1.459141159057617188e+01 -3.601394966244697571e-02 8.259574882686138153e-03 -8.326312527060508728e-03 -2.785148099064826965e-03
6.159000000000000000e+03 4.091426467895507812e+01 1.475365447998046875e+01 -3.442364186048507690e-02 7.054604589939117432e-03 -8.210711181163787842e-03 -1.933980849571526051e-03
6.160000000000000000e+03 4.981504821777343750e+01 2.448643112182617188e+01 -7.155631203204393387e-03 8.372820448130369186e-04 -1.895504770800471306e-03 -1.959071028977632523e-03
6.161000000000000000e+03 4.671986007690429688e+01 2.095486259460449219e+01 -1.220298558473587036e-02 1.538731507025659084e-03 -3.199276048690080643e-03 -2.975288778543472290e-03
6.162000000000000000e+03 5.081399536132812500e+01 2.470190811157226562e+01 -6.716921459883451462e-03 1.056965556927025318e-03 -1.697986735962331295e-03 -1.501907128840684891e-03
6.163000000000000000e+03 4.722727203369140625e+01 2.130046844482421875e+01 -1.150712184607982635e-02 1.590713975019752979e-03 -2.974922303110361099e-03 -2.706756349653005600e-03
6.164000000000000000e+03 4.779479980468750000e+01 2.206950759887695312e+01 -1.021611783653497696e-02 1.260799705050885677e-03 -2.686595544219017029e-03 -2.609995426610112190e-03
6.165000000000000000e+03 2.887032699584960938e+01 4.789404869079589844e-01 1.235189475119113922e-02 5.864372104406356812e-02 2.129868417978286743e-02 -1.450970012228935957e-04
6.166000000000000000e+03 5.466135025024414062e+01 2.754387855529785156e+01 -4.035506863147020340e-03 8.663384942337870598e-04 -9.507504873909056187e-04 -5.764255765825510025e-04
6.167000000000000000e+03 4.933372497558593750e+01 2.360590934753417969e+01 -8.100459352135658264e-03 1.071665901690721512e-03 -2.108637942001223564e-03 -2.048826776444911957e-03
6.168000000000000000e+03 4.931250000000000000e+01 2.317006492614746094e+01 -8.561489172279834747e-03 1.327937934547662735e-03 -2.170065417885780334e-03 -1.929460908286273479e-03
6.169000000000000000e+03 3.530878067016601562e+01 5.969251632690429688e+00 9.993595629930496216e-02 -2.469696663320064545e-02 2.257169596850872040e-02 2.502306364476680756e-02
6.170000000000000000e+03 3.433614730834960938e+01 4.763075828552246094e+00 1.279651373624801636e-01 -9.171088226139545441e-03 3.563821315765380859e-02 -2.318609319627285004e-02
6.171000000000000000e+03 2.911613464355468750e+01 2.651603698730468750e+00 3.548933938145637512e-02 1.071506515145301819e-01 4.279199987649917603e-02 4.969656467437744141e-03
6.172000000000000000e+03 2.878818511962890625e+01 1.414598584175109863e+00 2.358049526810646057e-02 6.946736574172973633e-02 2.791435644030570984e-02 5.717110820114612579e-03
6.173000000000000000e+03 3.551493835449218750e+01 8.607311248779296875e+00 -6.662629079073667526e-03 5.049957428127527237e-03 -4.838015884160995483e-04 7.121647894382476807e-02
6.174000000000000000e+03 3.136742401123046875e+01 7.002427428960800171e-02 1.327178627252578735e-02 6.841257214546203613e-02 2.450530603528022766e-02 -3.104370273649692535e-02
6.175000000000000000e+03 3.103844070434570312e+01 3.200856924057006836e+00 6.730354577302932739e-02 1.230916455388069153e-01 5.711855739355087280e-02 -6.440997123718261719e-02
6.176000000000000000e+03 3.174203872680664062e+01 3.805570363998413086e+00 1.104865819215774536e-01 9.366659075021743774e-02 6.124595180153846741e-02 -8.248008042573928833e-02
6.177000000000000000e+03 3.570146942138671875e+01 7.981889247894287109e+00 2.319372445344924927e-02 -3.269767388701438904e-03 5.977186840027570724e-03 6.699933856725692749e-02
6.178000000000000000e+03 3.146204185485839844e+01 3.037363767623901367e+00 7.104068249464035034e-02 1.049071699380874634e-01 5.278435721993446350e-02 -6.683755666017532349e-02
6.179000000000000000e+03 3.200222396850585938e+01 3.201968431472778320e+00 8.827744424343109131e-02 8.317606896162033081e-02 5.143605545163154602e-02 -7.222828269004821777e-02
6.180000000000000000e+03 3.377302932739257812e+01 3.896035432815551758e+00 1.168917715549468994e-01 1.811436563730239868e-02 4.050184041261672974e-02 -4.794380813837051392e-02
6.181000000000000000e+03 3.287179565429687500e+01 3.906234264373779297e+00 1.233199387788772583e-01 4.013804718852043152e-02 4.903739690780639648e-02 -6.671053171157836914e-02
6.182000000000000000e+03 3.674207687377929688e+01 9.703556060791015625e+00 -4.078039526939392090e-02 1.594137959182262421e-02 -7.451705168932676315e-03 4.607421904802322388e-02
6.183000000000000000e+03 4.893115997314453125e+01 2.411130905151367188e+01 -7.625151891261339188e-03 5.564522580243647099e-04 -2.120609860867261887e-03 -2.377867931500077248e-03
6.184000000000000000e+03 4.818543624877929688e+01 2.363307189941406250e+01 -8.349931798875331879e-03 4.822247719857841730e-04 -2.360312035307288170e-03 -2.791660372167825699e-03
6.185000000000000000e+03 3.228352737426757812e+01 8.071042299270629883e-01 3.010494261980056763e-02 6.671107560396194458e-02 2.904480509459972382e-02 -4.464806988835334778e-02
6.186000000000000000e+03 3.093751335144042969e+01 2.752181053161621094e+00 5.055753514170646667e-02 1.146362870931625366e-01 4.955814778804779053e-02 -5.052176490426063538e-02
6.187000000000000000e+03 6.373330688476562500e+01 2.403287506103515625e+01 -2.978393109515309334e-03 6.014177342876791954e-04 -7.130926242098212242e-04 1.860629650764167309e-03
6.188000000000000000e+03 6.524393463134765625e+01 2.309716987609863281e+01 -2.601715503260493279e-03 2.721148775890469551e-04 -6.988801760599017143e-04 2.179255709052085876e-03
6.189000000000000000e+03 6.092863464355468750e+01 2.457928657531738281e+01 -3.728622104972600937e-03 1.071821083314716816e-03 -7.970402948558330536e-04 1.447177259251475334e-03
6.190000000000000000e+03 5.498476028442382812e+01 2.715615463256835938e+01 -4.236828535795211792e-03 9.925530757755041122e-04 -9.732826729305088520e-04 -4.315136757213622332e-04
6.191000000000000000e+03 5.719886016845703125e+01 2.527526664733886719e+01 -4.669623449444770813e-03 1.448294613510370255e-03 -9.663986274972558022e-04 5.214653792791068554e-04
6.192000000000000000e+03 5.953021621704101562e+01 2.488935279846191406e+01 -4.062743857502937317e-03 1.259546028450131416e-03 -8.409593137912452221e-04 1.129934214986860752e-03
6.193000000000000000e+03 3.416433715820312500e+01 -9.630081653594970703e-01 1.895043253898620605e-02 4.243551194667816162e-02 1.841578260064125061e-02 -3.738932311534881592e-02
6.194000000000000000e+03 3.501817321777343750e+01 -1.528528928756713867e+00 1.679793745279312134e-02 3.699576482176780701e-02 1.613811030983924866e-02 -3.441129252314567566e-02
6.195000000000000000e+03 3.605492401123046875e+01 -1.421929955482482910e+00 2.177553623914718628e-02 2.985055185854434967e-02 1.548782642930746078e-02 -3.315002098679542542e-02
6.196000000000000000e+03 6.310030746459960938e+01 2.397925376892089844e+01 -3.139567794278264046e-03 7.015804876573383808e-04 -7.313961978070437908e-04 1.828481559641659260e-03
6.197000000000000000e+03 6.528947448730468750e+01 2.123438644409179688e+01 -2.767442027106881142e-03 2.667708322405815125e-04 -7.502013468183577061e-04 2.777382731437683105e-03
6.198000000000000000e+03 6.667657470703125000e+01 2.274274444580078125e+01 -2.240886911749839783e-03 -2.380922524025663733e-05 -6.794087821617722511e-04 2.247424796223640442e-03
6.199000000000000000e+03 6.578186035156250000e+01 2.439266204833984375e+01 -2.329070819541811943e-03 1.774942356860265136e-04 -6.454729591496288776e-04 1.835419796407222748e-03
6.200000000000000000e+03 6.328726577758789062e+01 2.320512580871582031e+01 -3.204729175195097923e-03 7.124763214960694313e-04 -7.476758328266441822e-04 2.113951602950692177e-03
6.201000000000000000e+03 5.713639450073242188e+01 2.362847900390625000e+01 -5.317385308444499969e-03 1.853570342063903809e-03 -1.039144466631114483e-03 1.079912995919585228e-03
6.202000000000000000e+03 6.651469421386718750e+01 2.427591133117675781e+01 -2.149970736354589462e-03 4.403468483360484242e-05 -6.317808292806148529e-04 1.864240271970629692e-03
6.203000000000000000e+03 6.699524688720703125e+01 1.928781700134277344e+01 -2.252884674817323685e-03 -3.722915716934949160e-04 -7.875529117882251740e-04 3.277357202023267746e-03
6.204000000000000000e+03 6.741422271728515625e+01 1.806267166137695312e+01 -2.093781949952244759e-03 -6.615544552914798260e-04 -8.266009390354156494e-04 3.599678864702582359e-03
6.205000000000000000e+03 6.684481048583984375e+01 9.535498619079589844e+00 -1.097915344871580601e-03 -2.169937128201127052e-03 -9.803557768464088440e-04 5.674132611602544785e-03
6.206000000000000000e+03 6.728277587890625000e+01 6.949783802032470703e+00 -5.265198997221887112e-04 -2.983268350362777710e-03 -1.052936422638595104e-03 5.804699379950761795e-03
6.207000000000000000e+03 6.626140594482421875e+01 2.146557235717773438e+01 -2.420848002657294273e-03 -7.459554581146221608e-06 -7.284922758117318153e-04 2.653608797118067741e-03
6.208000000000000000e+03 3.492060470581054688e+01 -7.795583605766296387e-01 2.365548349916934967e-02 3.635807335376739502e-02 1.800406724214553833e-02 -3.725950047373771667e-02
6.209000000000000000e+03 4.299206542968750000e+01 -4.314143657684326172e+00 1.176594290882349014e-02 1.419146545231342316e-02 7.787222508341073990e-03 -1.288859453052282333e-02
6.210000000000000000e+03 3.764276123046875000e+01 -4.082393169403076172e+00 7.499303203076124191e-03 2.696169912815093994e-02 1.033830083906650543e-02 -2.337852306663990021e-02
6.211000000000000000e+03 6.034403610229492188e+01 2.453041839599609375e+01 -3.924113232642412186e-03 1.187957939691841602e-03 -8.208465296775102615e-04 1.385080395266413689e-03
6.212000000000000000e+03 4.521362304687500000e+01 -1.005745506286621094e+01 3.416296327486634254e-03 1.893298141658306122e-02 6.704783532768487930e-03 -8.676442317664623260e-03
6.213000000000000000e+03 4.422735214233398438e+01 -1.161874485015869141e+01 2.058361656963825226e-03 2.140018902719020844e-02 7.037565112113952637e-03 -8.997729979455471039e-03
6.214000000000000000e+03 6.652339935302734375e+01 5.092357993125915527e-01 6.558751920238137245e-04 -3.895375411957502365e-03 -9.718501241877675056e-04 5.664441734552383423e-03
6.215000000000000000e+03 6.751387786865234375e+01 2.859581708908081055e+00 2.057147794403135777e-04 -4.108258988708257675e-03 -1.170763280242681503e-03 5.714246071875095367e-03
6.216000000000000000e+03 6.684319305419921875e+01 1.445257663726806641e+01 -1.946461969055235386e-03 -1.050164923071861267e-03 -8.989880443550646305e-04 4.664169624447822571e-03
6.217000000000000000e+03 6.778884124755859375e+01 1.408021545410156250e+01 -1.686521107330918312e-03 -1.468692673370242119e-03 -9.465641924180090427e-04 4.561263136565685272e-03
6.218000000000000000e+03 6.638299560546875000e+01 2.051348495483398438e+01 -2.421197248622775078e-03 -8.848859579302370548e-05 -7.529057911597192287e-04 2.937912242487072945e-03
6.219000000000000000e+03 6.689036560058593750e+01 5.213378906250000000e+00 -1.945304538821801543e-04 -3.185874782502651215e-03 -1.014121575281023979e-03 5.918411538004875183e-03
6.220000000000000000e+03 6.805371093750000000e+01 2.325187683105468750e+01 -1.841791439801454544e-03 -2.789810241665691137e-04 -6.362317362800240517e-04 2.077377401292324066e-03
6.221000000000000000e+03 6.718341064453125000e+01 2.335561752319335938e+01 -2.042955951765179634e-03 -1.182292180601507425e-04 -6.483555189333856106e-04 2.093615708872675896e-03
6.222000000000000000e+03 4.397460556030273438e+01 -6.183985710144042969e+00 7.867222651839256287e-03 1.577136293053627014e-02 7.091575302183628082e-03 -1.123825740069150925e-02
6.223000000000000000e+03 3.877386474609375000e+01 -3.557072401046752930e+00 1.295449025928974152e-02 2.197183854877948761e-02 1.047789864242076874e-02 -2.278246544301509857e-02
6.224000000000000000e+03 3.829163742065429688e+01 -2.519463539123535156e+00 1.715666241943836212e-02 2.119647897779941559e-02 1.150594186037778854e-02 -2.485355921089649200e-02
6.225000000000000000e+03 6.643130493164062500e+01 1.362946319580078125e+01 -1.959419576451182365e-03 -1.017408329062163830e-03 -8.930483600124716759e-04 4.986133892089128494e-03
6.226000000000000000e+03 6.740022277832031250e+01 2.020067214965820312e+01 -2.119189593940973282e-03 -3.792447969317436218e-04 -7.495303289033472538e-04 2.926692599430680275e-03
6.227000000000000000e+03 6.487007904052734375e+01 -1.969392585754394531e+01 1.405516173690557480e-03 -1.613219501450657845e-03 -6.231100996956229210e-05 2.580279717221856117e-03
6.228000000000000000e+03 6.620892333984375000e+01 1.150783061981201172e+01 -1.594822038896381855e-03 -1.412049517966806889e-03 -9.020614670589566231e-04 5.479678977280855179e-03
6.229000000000000000e+03 4.609097290039062500e+01 -1.694245147705078125e+01 1.495198579505085945e-03 2.359512820839881897e-02 7.527098059654235840e-03 -6.808135658502578735e-03
6.230000000000000000e+03 5.665007019042968750e+01 -2.466480064392089844e+01 3.115135012194514275e-03 1.307115238159894943e-02 4.855886101722717285e-03 2.748710685409605503e-04
6.231000000000000000e+03 5.208292770385742188e+01 -2.384864807128906250e+01 3.008122323080897331e-03 2.056478895246982574e-02 7.071873638778924942e-03 -1.722725108265876770e-03
6.232000000000000000e+03 6.582662963867187500e+01 -9.342379570007324219e+00 1.230914494954049587e-03 -3.672065678983926773e-03 -7.323453319258987904e-04 4.119600635021924973e-03
6.233000000000000000e+03 6.114727020263671875e+01 -1.177164173126220703e+01 1.919068978168070316e-03 2.112212590873241425e-03 1.209384412504732609e-03 2.933620708063244820e-03
6.234000000000000000e+03 4.469142913818359375e+01 -9.020929336547851562e+00 4.075965378433465958e-03 1.852732338011264801e-02 6.780986674129962921e-03 -9.591361507773399353e-03
6.235000000000000000e+03 4.540945434570312500e+01 -7.760847091674804688e+00 5.669090896844863892e-03 1.617295667529106140e-02 6.552614271640777588e-03 -9.030703455209732056e-03
6.236000000000000000e+03 4.960792541503906250e+01 -1.476685428619384766e+01 2.012749668210744858e-03 1.787118986248970032e-02 5.965181626379489899e-03 -4.003676120191812515e-03
6.237000000000000000e+03 6.504660034179687500e+01 -1.026656627655029297e+01 1.351512386463582516e-03 -2.820710185915231705e-03 -4.407593514770269394e-04 3.906418569386005402e-03
6.238000000000000000e+03 6.333456039428710938e+01 -1.185000610351562500e+01 1.583248842507600784e-03 -5.239580059424042702e-04 3.177872567903250456e-04 3.434838959947228432e-03
6.239000000000000000e+03 5.022183609008789062e+01 -1.654758262634277344e+01 1.770818722434341908e-03 1.875715330243110657e-02 6.158391479402780533e-03 -3.444914938881993294e-03
6.240000000000000000e+03 4.840974807739257812e+01 -1.749493217468261719e+01 1.823807717300951481e-03 2.143294736742973328e-02 6.977026816457509995e-03 -4.742658231407403946e-03
6.241000000000000000e+03 6.676570892333984375e+01 -2.034972763061523438e+01 1.124968752264976501e-03 -4.675115458667278290e-03 -1.065043965354561806e-03 2.600600942969322205e-03
6.242000000000000000e+03 6.768727111816406250e+01 1.005089187622070312e+01 -1.083082868717610836e-03 -2.411060966551303864e-03 -1.048243138939142227e-03 5.354110617190599442e-03
6.243000000000000000e+03 1.428864955902099609e+01 -2.440501022338867188e+01 -2.418534830212593079e-03 7.865040563046932220e-03 1.633951556868851185e-03 4.468536935746669769e-03
6.244000000000000000e+03 2.739138221740722656e+01 5.070162415504455566e-01 1.938530430197715759e-02 2.869182452559471130e-02 1.442313846200704575e-02 1.164459250867366791e-02
6.245000000000000000e+03 4.204773330688476562e+01 1.795093727111816406e+01 -2.152107283473014832e-02 7.427195087075233459e-04 -6.233505904674530029e-03 -7.831766270101070404e-03
6.246000000000000000e+03 3.837484741210937500e+01 1.194215202331542969e+01 -5.206483975052833557e-02 1.607630215585231781e-02 -1.079656183719635010e-02 1.358372811228036880e-02
6.247000000000000000e+03 4.549972915649414062e+01 1.999165534973144531e+01 -1.410062238574028015e-02 1.578667317517101765e-03 -3.756586695089936256e-03 -3.795544384047389030e-03
6.248000000000000000e+03 4.605899047851562500e+01 2.022609519958496094e+01 -1.343722362071275711e-02 1.757742371410131454e-03 -3.503844374790787697e-03 -3.301647491753101349e-03
6.249000000000000000e+03 3.881288528442382812e+01 1.242387676239013672e+01 -4.969834536314010620e-02 1.341046951711177826e-02 -1.088636275380849838e-02 8.616299368441104889e-03
6.250000000000000000e+03 3.934268188476562500e+01 1.292817401885986328e+01 -4.624577611684799194e-02 1.170031819492578506e-02 -1.036363746970891953e-02 4.701702855527400970e-03
6.251000000000000000e+03 4.442409515380859375e+01 1.901795768737792969e+01 -1.652994193136692047e-02 1.816499629057943821e-03 -4.414032679051160812e-03 -4.516805522143840790e-03
6.252000000000000000e+03 4.526774597167968750e+01 1.960171127319335938e+01 -1.510635018348693848e-02 1.813054550439119339e-03 -3.987988922744989395e-03 -3.807748900726437569e-03
6.253000000000000000e+03 5.231890487670898438e+01 2.588496971130371094e+01 -5.482483189553022385e-03 9.794331854209303856e-04 -1.350914943031966686e-03 -1.076361513696610928e-03
6.254000000000000000e+03 5.000083160400390625e+01 2.417326736450195312e+01 -7.378952577710151672e-03 9.960929164662957191e-04 -1.914858003146946430e-03 -1.820796285755932331e-03
6.255000000000000000e+03 3.908196258544921875e+01 1.321419143676757812e+01 -4.708837345242500305e-02 1.159140281379222870e-02 -1.064909063279628754e-02 1.228160806931555271e-03
6.256000000000000000e+03 4.145492172241210938e+01 1.590137290954589844e+01 -2.980484068393707275e-02 4.670867230743169785e-03 -7.540191989392042160e-03 -5.001357756555080414e-03
6.257000000000000000e+03 3.717720031738281250e+01 1.056910419464111328e+01 -5.475089326500892639e-02 1.855646260082721710e-02 -1.085832901298999786e-02 3.148355707526206970e-02
6.258000000000000000e+03 3.768829345703125000e+01 1.131225776672363281e+01 -5.549182742834091187e-02 1.752723008394241333e-02 -1.138937845826148987e-02 1.809134148061275482e-02
6.259000000000000000e+03 3.975557708740234375e+01 1.361813545227050781e+01 -4.224833101034164429e-02 1.075063459575176239e-02 -9.449308738112449646e-03 3.885313635692000389e-04
6.260000000000000000e+03 3.918233489990234375e+01 1.371786117553710938e+01 -4.576918482780456543e-02 9.963377378880977631e-03 -1.074174232780933380e-02 -2.231523394584655762e-03
6.261000000000000000e+03 4.289933013916015625e+01 1.806221389770507812e+01 -2.070009335875511169e-02 1.708911149762570858e-03 -5.697354674339294434e-03 -6.147116422653198242e-03
6.262000000000000000e+03 4.504948806762695312e+01 1.920534324645996094e+01 -1.574912853538990021e-02 2.180526265874505043e-03 -4.070580936968326569e-03 -3.781223203986883163e-03
6.263000000000000000e+03 3.184645271301269531e+01 2.890771865844726562e+00 7.389573752880096436e-02 8.973512798547744751e-02 4.908926039934158325e-02 -6.706959754228591919e-02
6.264000000000000000e+03 3.654749679565429688e+01 9.190308570861816406e+00 -2.618973888456821442e-02 9.724139235913753510e-03 -4.939679987728595734e-03 5.345319211483001709e-02
6.265000000000000000e+03 3.060437583923339844e+01 1.862197369337081909e-01 1.042334828525781631e-02 7.061293721199035645e-02 2.431088499724864960e-02 -2.244165912270545959e-02
6.266000000000000000e+03 2.966518020629882812e+01 7.911440730094909668e-01 1.504102908074855804e-02 7.414667308330535889e-02 2.675631083548069000e-02 -1.083369459956884384e-02
6.267000000000000000e+03 5.565509033203125000e+01 2.500636100769042969e+01 -5.232879891991615295e-03 1.594668603502213955e-03 -1.091463374905288219e-03 2.625466440804302692e-04
6.268000000000000000e+03 4.014313888549804688e+01 1.378957653045654297e+01 -3.979843854904174805e-02 9.220840409398078918e-03 -9.173279628157615662e-03 1.242223894223570824e-03
6.269000000000000000e+03 5.032912445068359375e+01 2.430387306213378906e+01 -7.157740183174610138e-03 1.090580597519874573e-03 -1.820147852413356304e-03 -1.672654878348112106e-03
6.270000000000000000e+03 5.127964401245117188e+01 2.455219841003417969e+01 -6.714642513543367386e-03 1.285609789192676544e-03 -1.628709840588271618e-03 -1.244348473846912384e-03
6.271000000000000000e+03 3.794433975219726562e+01 1.175801944732666016e+01 -5.693379044532775879e-02 1.753978617489337921e-02 -1.181820128113031387e-02 1.374855730682611465e-02
6.272000000000000000e+03 4.109039688110351562e+01 1.514818572998046875e+01 -3.249283507466316223e-02 5.970054306089878082e-03 -7.956834509968757629e-03 -3.157845698297023773e-03
6.273000000000000000e+03 4.123255920410156250e+01 1.563912773132324219e+01 -3.104013949632644653e-02 5.880319047719240189e-03 -7.547946181148290634e-03 -4.966658074408769608e-03
6.274000000000000000e+03 5.152425384521484375e+01 2.533831024169921875e+01 -6.001288071274757385e-03 1.004109624773263931e-03 -1.499153440818190575e-03 -1.292069326154887676e-03
6.275000000000000000e+03 5.180530929565429688e+01 2.480448341369628906e+01 -6.381557323038578033e-03 1.310904975980520248e-03 -1.521195750683546066e-03 -1.065908465534448624e-03
6.276000000000000000e+03 5.595698547363281250e+01 2.575993156433105469e+01 -4.781509283930063248e-03 1.387009629979729652e-03 -1.018349896185100079e-03 1.153013508883304894e-04
6.277000000000000000e+03 5.031984329223632812e+01 2.398312950134277344e+01 -7.490018848329782486e-03 1.288708997890353203e-03 -1.860392978414893150e-03 -1.575378119014203548e-03
6.278000000000000000e+03 4.339548492431640625e+01 1.784372329711914062e+01 -2.036961168050765991e-02 2.904143417254090309e-03 -5.239640362560749054e-03 -4.826229996979236603e-03
6.279000000000000000e+03 4.661518478393554688e+01 2.050752639770507812e+01 -1.273931842297315598e-02 1.875576446764171124e-03 -3.259122604504227638e-03 -2.888208720833063126e-03
6.280000000000000000e+03 4.352597045898437500e+01 1.828277969360351562e+01 -1.928168162703514099e-02 2.140345750376582146e-03 -5.142400972545146942e-03 -5.340502131730318069e-03
6.281000000000000000e+03 4.338285446166992188e+01 1.735149955749511719e+01 -2.140396460890769958e-02 3.813100047409534454e-03 -5.277259740978479385e-03 -4.263606388121843338e-03
6.282000000000000000e+03 4.162104797363281250e+01 1.646533584594726562e+01 -2.749860472977161407e-02 3.331116167828440666e-03 -7.250246591866016388e-03 -6.332314573228359222e-03
6.283000000000000000e+03 4.754412460327148438e+01 2.232879447937011719e+01 -1.009324751794338226e-02 9.037153213284909725e-04 -2.756859641522169113e-03 -2.840898465365171432e-03
6.284000000000000000e+03 4.819425582885742188e+01 2.271432495117187500e+01 -9.427281096577644348e-03 1.068652258254587650e-03 -2.507588593289256096e-03 -2.529124263674020767e-03
6.285000000000000000e+03 3.182835960388183594e+01 4.201267063617706299e-01 2.083101123571395874e-02 6.996628642082214355e-02 2.723918855190277100e-02 -3.815468773245811462e-02
6.286000000000000000e+03 4.418638992309570312e+01 1.862493324279785156e+01 -1.797963492572307587e-02 2.261019544675946236e-03 -4.715584218502044678e-03 -4.573785699903964996e-03
6.287000000000000000e+03 5.075254440307617188e+01 2.426568984985351562e+01 -7.096977438777685165e-03 1.243706909008324146e-03 -1.755981240421533585e-03 -1.449038623832166195e-03
6.288000000000000000e+03 5.325506973266601562e+01 2.541290283203125000e+01 -5.640029907226562500e-03 1.327538629993796349e-03 -1.293747336603701115e-03 -6.383662694133818150e-04
6.289000000000000000e+03 4.051078796386718750e+01 1.400484085083007812e+01 -3.690072149038314819e-02 9.717253968119621277e-03 -8.155040442943572998e-03 1.823480270104482770e-04
6.290000000000000000e+03 4.083454513549804688e+01 1.425142574310302734e+01 -3.573467954993247986e-02 8.539857342839241028e-03 -8.158446289598941803e-03 2.457462251186370850e-04
6.291000000000000000e+03 4.123324584960937500e+01 1.489467430114746094e+01 -3.267553821206092834e-02 7.923160679638385773e-03 -7.425713352859020233e-03 -2.416219096630811691e-03
6.292000000000000000e+03 4.132681274414062500e+01 1.525849342346191406e+01 -3.147516027092933655e-02 7.133332546800374985e-03 -7.302548736333847046e-03 -3.501060651615262032e-03
6.293000000000000000e+03 5.280710220336914062e+01 2.688178253173828125e+01 -4.672009032219648361e-03 7.658671820536255836e-04 -1.171842566691339016e-03 -1.032874337397515774e-03
6.294000000000000000e+03 5.293571853637695312e+01 2.611053848266601562e+01 -5.232598166912794113e-03 1.054071239195764065e-03 -1.253558089956641197e-03 -8.688973612152040005e-04
6.295000000000000000e+03 4.818817138671875000e+01 2.198686599731445312e+01 -1.026771683245897293e-02 1.591882668435573578e-03 -2.602750202640891075e-03 -2.273752121254801750e-03
6.296000000000000000e+03 3.551774978637695312e+01 7.540803909301757812e+00 4.454967752099037170e-02 -1.528232358396053314e-02 8.780206553637981415e-03 6.157881394028663635e-02
6.297000000000000000e+03 2.874796485900878906e+01 8.435901999473571777e-01 1.771293766796588898e-02 6.156269833445549011e-02 2.378269098699092865e-02 3.729177173227071762e-03
6.298000000000000000e+03 2.852191734313964844e+01 5.920453667640686035e-01 1.588223874568939209e-02 5.305439606308937073e-02 2.068099007010459900e-02 4.243419971317052841e-03
6.299000000000000000e+03 4.936712646484375000e+01 2.406603813171386719e+01 -7.600618060678243637e-03 7.882207282818853855e-04 -2.043719170615077019e-03 -2.155652269721031189e-03
6.300000000000000000e+03 4.861884689331054688e+01 2.372373199462890625e+01 -8.079518564045429230e-03 6.550695979967713356e-04 -2.227334771305322647e-03 -2.467897953465580940e-03
6.301000000000000000e+03 4.717410659790039062e+01 2.082520103454589844e+01 -1.202518865466117859e-02 1.948992256075143814e-03 -3.022858873009681702e-03 -2.510824706405401230e-03
6.302000000000000000e+03 2.844903755187988281e+01 1.814700245857238770e+00 3.143554925918579102e-02 6.545776128768920898e-02 2.906799130141735077e-02 1.281174086034297943e-02
6.303000000000000000e+03 3.694917297363281250e+01 1.018739891052246094e+01 -5.043613910675048828e-02 1.679997891187667847e-02 -1.009084749966859818e-02 3.792903199791908264e-02
6.304000000000000000e+03 3.748072052001953125e+01 1.078142547607421875e+01 -5.076803267002105713e-02 1.721831038594245911e-02 -1.006491668522357941e-02 2.660160511732101440e-02
6.305000000000000000e+03 2.885392951965332031e+01 2.011684179306030273e+00 3.021837770938873291e-02 8.231507986783981323e-02 3.376003727316856384e-02 8.478618226945400238e-03
6.306000000000000000e+03 3.521884155273437500e+01 5.244637489318847656e+00 1.091350540518760681e-01 -2.060493454337120056e-02 2.655903436243534088e-02 2.742113079875707626e-03
6.307000000000000000e+03 3.606796264648437500e+01 7.375848293304443359e+00 4.340790212154388428e-02 -9.942673146724700928e-03 1.003956887871026993e-02 5.423612892627716064e-02
6.308000000000000000e+03 3.242169189453125000e+01 2.902868747711181641e+00 8.149057626724243164e-02 7.071420550346374512e-02 4.566143453121185303e-02 -6.708971410989761353e-02
6.309000000000000000e+03 2.774634552001953125e+01 5.253699421882629395e-01 1.997790485620498657e-02 3.601585328578948975e-02 1.679812744259834290e-02 1.081641111522912979e-02
6.310000000000000000e+03 3.396253585815429688e+01 -2.086328119039535522e-01 2.694274298846721649e-02 4.424124211072921753e-02 2.135519497096538544e-02 -4.122855886816978455e-02
6.311000000000000000e+03 4.847473144531250000e+01 2.337532043457031250e+01 -8.570722304284572601e-03 7.626305450685322285e-04 -2.342427382245659828e-03 -2.475758315995335579e-03
6.312000000000000000e+03 3.528778839111328125e+01 -2.671006321907043457e-01 3.212783858180046082e-02 3.247644379734992981e-02 1.938128471374511719e-02 -3.860680013895034790e-02
6.313000000000000000e+03 3.512794876098632812e+01 4.469835758209228516e+00 1.055285334587097168e-01 -1.033378671854734421e-02 2.855842374265193939e-02 -1.682893186807632446e-02
6.314000000000000000e+03 3.076411056518554688e+01 1.780983686447143555e+00 3.073525428771972656e-02 9.746399521827697754e-02 3.845977410674095154e-02 -3.480086103081703186e-02
6.315000000000000000e+03 3.004717826843261719e+01 9.869878292083740234e-01 1.729940809309482574e-02 8.042818307876586914e-02 2.931827679276466370e-02 -1.709849014878273010e-02
6.316000000000000000e+03 3.417088699340820312e+01 4.099051475524902344e+00 1.174268126487731934e-01 5.449399352073669434e-03 3.686286136507987976e-02 -4.020951688289642334e-02
6.317000000000000000e+03 2.915990447998046875e+01 1.629755258560180664e+00 2.489007823169231415e-02 8.119990676641464233e-02 3.182699531316757202e-02 -3.671604790724813938e-04
6.318000000000000000e+03 3.806809616088867188e+01 1.143078422546386719e+01 -5.430867150425910950e-02 1.583205163478851318e-02 -1.154298614710569382e-02 1.793144829571247101e-02
6.319000000000000000e+03 3.036407279968261719e+01 2.629840612411499023e+00 4.069374501705169678e-02 1.180443689227104187e-01 4.762143269181251526e-02 -3.406286612153053284e-02
6.320000000000000000e+03 2.989097404479980469e+01 2.517537832260131836e+00 3.532080352306365967e-02 1.156098097562789917e-01 4.527918621897697449e-02 -1.954607479274272919e-02
6.321000000000000000e+03 2.942081069946289062e+01 1.207522988319396973e+00 1.951674185693264008e-02 7.767216861248016357e-02 2.915667369961738586e-02 -5.866324063390493393e-03
6.322000000000000000e+03 6.569384765625000000e+01 2.363403320312500000e+01 -2.414945513010025024e-03 1.827837986638769507e-04 -6.696485215798020363e-04 2.036707242950797081e-03
6.323000000000000000e+03 6.434438323974609375e+01 2.392108917236328125e+01 -2.777599962428212166e-03 4.576417850330471992e-04 -6.959874299354851246e-04 1.928522135131061077e-03
6.324000000000000000e+03 5.467798995971679688e+01 2.697021484375000000e+01 -4.390797112137079239e-03 1.030944637022912502e-03 -1.007955637760460377e-03 -4.798277223017066717e-04
6.325000000000000000e+03 3.550671005249023438e+01 6.684966087341308594e+00 7.724253088235855103e-02 -2.119055762887001038e-02 1.681559160351753235e-02 4.411847516894340515e-02
6.326000000000000000e+03 3.503715133666992188e+01 6.404332160949707031e+00 1.003557741641998291e-01 -2.520103193819522858e-02 2.254642359912395477e-02 4.136084392666816711e-02
6.327000000000000000e+03 3.371433258056640625e+01 -6.745042204856872559e-01 2.005656994879245758e-02 4.780963808298110962e-02 2.035986259579658508e-02 -3.912078961730003357e-02
6.328000000000000000e+03 5.859363555908203125e+01 2.487760162353515625e+01 -4.362005274742841721e-03 1.394515857100486755e-03 -8.902467670850455761e-04 9.568601963110268116e-04
6.329000000000000000e+03 5.682019424438476562e+01 2.495316696166992188e+01 -4.890989977866411209e-03 1.555406954139471054e-03 -1.000675023533403873e-03 5.356405163183808327e-04
6.330000000000000000e+03 5.635324859619140625e+01 2.482595825195312500e+01 -5.060409195721149445e-03 1.598472706973552704e-03 -1.038581016473472118e-03 5.209900555200874805e-04
6.331000000000000000e+03 6.642179107666015625e+01 2.349201583862304688e+01 -2.270101103931665421e-03 6.856857362436130643e-05 -6.604597438126802444e-04 2.064469270408153534e-03
6.332000000000000000e+03 6.258941650390625000e+01 2.319507217407226562e+01 -3.417408326640725136e-03 8.516658563166856766e-04 -7.697227410972118378e-04 2.082717837765812874e-03
6.333000000000000000e+03 6.359517669677734375e+01 2.242599678039550781e+01 -3.217473393306136131e-03 6.755685317330062389e-04 -7.625714642927050591e-04 2.382712205871939659e-03
6.334000000000000000e+03 6.681403350830078125e+01 6.058300018310546875e+00 -3.285980492364615202e-04 -2.973518567159771919e-03 -9.906350169330835342e-04 5.951162893325090408e-03
6.335000000000000000e+03 6.418494415283203125e+01 4.900666236877441406e+00 -2.553980448283255100e-05 -1.815744326449930668e-03 -5.523852305486798286e-04 6.470749620348215103e-03
6.336000000000000000e+03 3.304178619384765625e+01 3.590991020202636719e+00 1.112335473299026489e-01 4.174856841564178467e-02 4.589463397860527039e-02 -6.233279407024383545e-02
6.337000000000000000e+03 3.548274993896484375e+01 -1.592680215835571289e+00 1.859013736248016357e-02 3.416350856423377991e-02 1.582609303295612335e-02 -3.406823053956031799e-02
6.338000000000000000e+03 3.441826248168945312e+01 3.650893449783325195e+00 1.029441654682159424e-01 1.060519367456436157e-02 3.406480699777603149e-02 -3.916041180491447449e-02
6.339000000000000000e+03 3.965848541259765625e+01 -3.620916604995727539e+00 1.333711855113506317e-02 1.984252780675888062e-02 9.953893721103668213e-03 -2.059697173535823822e-02
6.340000000000000000e+03 3.690370941162109375e+01 -1.943409204483032227e+00 1.954958774149417877e-02 2.573945559561252594e-02 1.358671300113201141e-02 -2.970669604837894440e-02
6.341000000000000000e+03 3.703371429443359375e+01 -2.648218870162963867e+00 1.383770164102315903e-02 2.727686055004596710e-02 1.233436912298202515e-02 -2.755577303469181061e-02
6.342000000000000000e+03 5.988186264038085938e+01 2.438553237915039062e+01 -4.120372235774993896e-03 1.283973339013755322e-03 -8.509196341037750244e-04 1.334285130724310875e-03
6.343000000000000000e+03 6.719086456298828125e+01 1.527725505828857422e+01 -1.961724832653999329e-03 -1.026394544169306755e-03 -8.964358130469918251e-04 4.404198843985795975e-03
6.344000000000000000e+03 3.760108184814453125e+01 -2.101009368896484375e+00 1.931555755436420441e-02 2.353643253445625305e-02 1.285559684038162231e-02 -2.741706185042858124e-02
6.345000000000000000e+03 3.676912689208984375e+01 -1.172380208969116211e+00 2.471929788589477539e-02 2.486419863998889923e-02 1.487504877150058746e-02 -3.147265687584877014e-02
6.346000000000000000e+03 6.146713256835937500e+01 2.294061088562011719e+01 -3.889824729412794113e-03 1.152181182987987995e-03 -8.212930406443774700e-04 2.060495549812912941e-03
6.347000000000000000e+03 6.118258666992187500e+01 2.374494361877441406e+01 -3.834730712696909904e-03 1.139925792813301086e-03 -8.084414293989539146e-04 1.755750039592385292e-03
6.348000000000000000e+03 6.579205322265625000e+01 1.878024101257324219e+01 -2.604858949780464172e-03 -6.797725654905661941e-05 -8.018508669920265675e-04 3.551871515810489655e-03
6.349000000000000000e+03 6.668923187255859375e+01 1.645740509033203125e+01 -2.199942711740732193e-03 -6.602674839086830616e-04 -8.580630528740584850e-04 4.161513410508632660e-03
6.350000000000000000e+03 6.495536041259765625e+01 -8.367656707763671875e+00 1.407042844220995903e-03 -2.796168439090251923e-03 -4.167376901023089886e-04 4.190827719867229462e-03
6.351000000000000000e+03 6.593561553955078125e+01 -7.391071796417236328e+00 1.223422470502555370e-03 -3.922555129975080490e-03 -8.097398676909506321e-04 4.450830165296792984e-03
6.352000000000000000e+03 4.797556304931640625e+01 -1.119344615936279297e+01 3.001759527251124382e-03 1.695849746465682983e-02 5.988077260553836823e-03 -5.927324295043945312e-03
6.353000000000000000e+03 4.698936462402343750e+01 -1.027349567413330078e+01 3.701667999848723412e-03 1.703178323805332184e-02 6.220035720616579056e-03 -6.924784742295742035e-03
6.354000000000000000e+03 6.612506866455078125e+01 1.960592079162597656e+01 -2.488936297595500946e-03 -1.059269197867251933e-04 -7.784589543007314205e-04 3.253082046285271645e-03
6.355000000000000000e+03 4.184265899658203125e+01 -4.264981746673583984e+00 1.197389047592878342e-02 1.559164468199014664e-02 8.269660174846649170e-03 -1.518315821886062622e-02
6.356000000000000000e+03 4.064859771728515625e+01 -3.496717929840087891e+00 1.417845766991376877e-02 1.670167595148086548e-02 9.264039807021617889e-03 -1.812696643173694611e-02
6.357000000000000000e+03 6.780126190185546875e+01 1.150047874450683594e+01 -1.304005039855837822e-03 -2.095476258546113968e-03 -1.019844436086714268e-03 5.099300760775804520e-03
6.358000000000000000e+03 6.499958038330078125e+01 7.743853092193603516e+00 -8.147909538820385933e-04 -1.635901979170739651e-03 -7.352078682743012905e-04 6.306774914264678955e-03
6.359000000000000000e+03 6.637299346923828125e+01 7.169378280639648438e+00 -6.519573507830500603e-04 -2.454477827996015549e-03 -9.319305536337196827e-04 5.971546284854412079e-03
6.360000000000000000e+03 6.346083831787109375e+01 -1.504717063903808594e+01 1.476033241488039494e-03 -2.000293898163363338e-04 3.828011394944041967e-04 3.085472621023654938e-03
6.361000000000000000e+03 6.569506835937500000e+01 -2.368565946817398071e-01 8.742958889342844486e-04 -3.418041858822107315e-03 -7.631237967871129513e-04 5.699249450117349625e-03
6.362000000000000000e+03 6.490734100341796875e+01 -2.699126482009887695e+00 1.278550596907734871e-03 -2.991650253534317017e-03 -5.139298737049102783e-04 5.266933701932430267e-03
6.363000000000000000e+03 4.522192764282226562e+01 -6.877589225769042969e+00 6.875253748148679733e-03 1.515216939151287079e-02 6.608226802200078964e-03 -9.331961162388324738e-03
6.364000000000000000e+03 4.341297912597656250e+01 -3.442758083343505859e+00 1.363474037498235703e-02 1.166644971817731857e-02 7.590357214212417603e-03 -1.198774948716163635e-02
6.365000000000000000e+03 4.510082244873046875e+01 -6.005641460418701172e+00 8.161322213709354401e-03 1.407949719578027725e-02 6.672245915979146957e-03 -9.462138637900352478e-03
6.366000000000000000e+03 4.883577346801757812e+01 -1.448555850982666016e+01 1.998003805056214333e-03 1.881680078804492950e-02 6.244441494345664978e-03 -4.817006178200244904e-03
6.367000000000000000e+03 5.232712554931640625e+01 -1.277044868469238281e+01 2.581452019512653351e-03 1.327164564281702042e-02 4.755929112434387207e-03 -1.968788681551814079e-03
6.368000000000000000e+03 6.794382476806640625e+01 1.689521026611328125e+01 -1.876014634035527706e-03 -1.020509866066277027e-03 -8.689573151059448719e-04 3.821582300588488579e-03
6.369000000000000000e+03 4.395455169677734375e+01 -5.287217140197753906e+00 9.596025571227073669e-03 1.455657836049795151e-02 7.245781365782022476e-03 -1.139487698674201965e-02
6.370000000000000000e+03 4.285144042968750000e+01 -5.302597045898437500e+00 9.475537575781345367e-03 1.607119478285312653e-02 7.664019707590341568e-03 -1.338221039623022079e-02
6.371000000000000000e+03 6.564187622070312500e+01 -1.317561721801757812e+01 1.154064899310469627e-03 -3.306756960228085518e-03 -6.458075949922204018e-04 3.573271445930004120e-03
6.372000000000000000e+03 6.574980926513671875e+01 3.037288904190063477e+00 2.909686591010540724e-04 -3.013292560353875160e-03 -8.166971965692937374e-04 6.061805412173271179e-03
6.373000000000000000e+03 4.831060028076171875e+01 -1.553518581390380859e+01 1.908975886180996895e-03 2.015491575002670288e-02 6.619167514145374298e-03 -5.129928234964609146e-03
6.374000000000000000e+03 6.219036865234375000e+01 -1.557980251312255859e+01 1.607461366802453995e-03 1.776624121703207493e-03 1.015225658193230629e-03 2.726146019995212555e-03
6.375000000000000000e+03 4.934265136718750000e+01 -1.369575214385986328e+01 2.357515040785074234e-03 1.729086227715015411e-02 5.894513335078954697e-03 -4.275709390640258789e-03
6.376000000000000000e+03 4.999409866333007812e+01 -1.792576789855957031e+01 2.046688459813594818e-03 1.988345757126808167e-02 6.579043809324502945e-03 -3.779197577387094498e-03
6.377000000000000000e+03 6.357942962646484375e+01 -2.028992462158203125e+01 1.523619634099304676e-03 3.121491754427552223e-04 5.507306777872145176e-04 2.539444249123334885e-03
6.378000000000000000e+03 5.219095611572265625e+01 -2.083067512512207031e+01 2.329926472157239914e-03 1.905844360589981079e-02 6.416510790586471558e-03 -1.906622899696230888e-03
6.379000000000000000e+03 5.268647384643554688e+01 -1.730459594726562500e+01 1.861419528722763062e-03 1.601553708314895630e-02 5.363086704164743423e-03 -1.572201377712190151e-03
6.380000000000000000e+03 6.664048004150390625e+01 7.882894992828369141e+00 -7.567398133687674999e-04 -2.444691490381956100e-03 -9.604293736629188061e-04 5.893310531973838806e-03
6.381000000000000000e+03 6.485252380371093750e+01 -9.989446997642517090e-01 1.107826828956604004e-03 -2.894472563639283180e-03 -5.359937204048037529e-04 5.606605671346187592e-03
6.382000000000000000e+03 6.594552612304687500e+01 -5.437681674957275391e+00 1.204200787469744682e-03 -3.900659270584583282e-03 -8.089375332929193974e-04 4.783040378242731094e-03
6.383000000000000000e+03 5.519127273559570312e+01 -2.572169303894042969e+01 3.594650421291589737e-03 1.636630482971668243e-02 5.988286342471837997e-03 -1.339900627499446273e-04
6.384000000000000000e+03 5.576021194458007812e+01 -2.307823753356933594e+01 2.581603126600384712e-03 1.410428062081336975e-02 5.005765240639448166e-03 2.576363331172615290e-04
6.385000000000000000e+03 5.248977661132812500e+01 -2.895594406127929688e+01 5.122554954141378403e-03 2.327482588589191437e-02 8.519214577972888947e-03 -2.008644631132483482e-03
6.386000000000000000e+03 6.663784790039062500e+01 -1.031852626800537109e+01 1.106167212128639221e-03 -4.649609327316284180e-03 -1.063032657839357853e-03 3.984395880252122879e-03
6.387000000000000000e+03 4.482656097412109375e+01 1.883167648315429688e+01 -1.687526889145374298e-02 2.526083728298544884e-03 -4.304755944758653641e-03 -3.783776890486478806e-03
6.388000000000000000e+03 2.906306076049804688e+01 1.021216511726379395e+00 1.866994053125381470e-02 6.938023865222930908e-02 2.641505375504493713e-02 -7.765083573758602142e-04
6.389000000000000000e+03 2.847941017150878906e+01 1.173985719680786133e+00 2.301416359841823578e-02 5.934184044599533081e-02 2.470680139958858490e-02 7.288139779120683670e-03
6.390000000000000000e+03 4.565323638916015625e+01 1.941487503051757812e+01 -1.491697691380977631e-02 2.432289067655801773e-03 -3.745406167581677437e-03 -3.164482768625020981e-03
6.391000000000000000e+03 4.689283752441406250e+01 1.986256790161132812e+01 -1.336026936769485474e-02 2.699399599805474281e-03 -3.198260907083749771e-03 -2.176544629037380219e-03
6.392000000000000000e+03 4.207549285888671875e+01 1.655356025695800781e+01 -2.602910809218883514e-02 4.530895501375198364e-03 -6.449463777244091034e-03 -5.222475156188011169e-03
6.393000000000000000e+03 3.828052520751953125e+01 1.164565849304199219e+01 -5.167725309729576111e-02 1.494778972119092941e-02 -1.101883873343467712e-02 1.451801881194114685e-02
6.394000000000000000e+03 3.993900680541992188e+01 1.333018684387207031e+01 -4.165216162800788879e-02 1.016962062567472458e-02 -9.444762021303176880e-03 3.019429743289947510e-03
6.395000000000000000e+03 3.043950462341308594e+01 2.087983608245849609e+00 3.229605779051780701e-02 1.032518371939659119e-01 4.066436737775802612e-02 -3.009842149913311005e-02
6.396000000000000000e+03 4.044263839721679688e+01 1.284077835083007812e+01 -3.752190619707107544e-02 1.134507916867733002e-02 -7.853048853576183319e-03 7.685758173465728760e-03
6.397000000000000000e+03 4.232393646240234375e+01 1.704247856140136719e+01 -2.404852770268917084e-02 3.571120090782642365e-03 -6.143222562968730927e-03 -5.787789355963468552e-03
6.398000000000000000e+03 4.542990875244140625e+01 1.902905082702636719e+01 -1.593204587697982788e-02 2.685656538233160973e-03 -3.973916638642549515e-03 -3.138783387839794159e-03
6.399000000000000000e+03 5.280379486083984375e+01 2.569319915771484375e+01 -5.522766150534152985e-03 1.178756123408675194e-03 -1.303203054703772068e-03 -8.549086633138358593e-04
6.400000000000000000e+03 5.257065582275390625e+01 2.531772041320800781e+01 -5.881555378437042236e-03 1.261570025235414505e-03 -1.385995536111295223e-03 -8.684867643751204014e-04
6.401000000000000000e+03 4.174813079833984375e+01 1.563032436370849609e+01 -2.910496480762958527e-02 6.472706794738769531e-03 -6.789677310734987259e-03 -3.463909262791275978e-03
6.402000000000000000e+03 5.070893096923828125e+01 2.385851097106933594e+01 -7.534373085945844650e-03 1.451722811907529831e-03 -1.824795152060687542e-03 -1.359072630293667316e-03
6.403000000000000000e+03 4.852051925659179688e+01 2.274477577209472656e+01 -9.189656004309654236e-03 1.163017936050891876e-03 -2.407991327345371246e-03 -2.288660965859889984e-03
6.404000000000000000e+03 4.017122268676757812e+01 1.310095310211181641e+01 -3.892497345805168152e-02 1.168743148446083069e-02 -8.171263150870800018e-03 5.387192592024803162e-03
6.405000000000000000e+03 5.171172332763671875e+01 2.442053985595703125e+01 -6.740188691765069962e-03 1.454134122468531132e-03 -1.585816266015172005e-03 -1.015407382510602474e-03
6.406000000000000000e+03 4.391928482055664062e+01 1.776104354858398438e+01 -1.999159157276153564e-02 3.555031493306159973e-03 -4.930968396365642548e-03 -3.807225963100790977e-03
6.407000000000000000e+03 4.520754623413085938e+01 1.866657257080078125e+01 -1.651273109018802643e-02 3.076666966080665588e-03 -4.030819050967693329e-03 -2.997851464897394180e-03
6.408000000000000000e+03 5.358346176147460938e+01 2.504217910766601562e+01 -5.812036339193582535e-03 1.542447367683053017e-03 -1.280876575037837029e-03 -4.190818581264466047e-04
6.409000000000000000e+03 3.792088317871093750e+01 1.088664245605468750e+01 -5.077977105975151062e-02 1.643159240484237671e-02 -1.030445285141468048e-02 2.533388137817382812e-02
6.410000000000000000e+03 4.115261459350585938e+01 1.445666694641113281e+01 -3.334340825676918030e-02 8.664486929774284363e-03 -7.403676398098468781e-03 -6.203044904395937920e-04
6.411000000000000000e+03 5.195653915405273438e+01 2.516425514221191406e+01 -6.105553358793258667e-03 1.181620405986905098e-03 -1.477179815992712975e-03 -1.091196201741695404e-03
6.412000000000000000e+03 5.121116638183593750e+01 2.412486839294433594e+01 -7.131654303520917892e-03 1.470162416808307171e-03 -1.698447624221444130e-03 -1.167122391052544117e-03
6.413000000000000000e+03 4.302988815307617188e+01 1.675828552246093750e+01 -2.331858873367309570e-02 4.878565203398466110e-03 -5.532007198780775070e-03 -3.652941435575485229e-03
6.414000000000000000e+03 4.375507354736328125e+01 1.638222503662109375e+01 -2.234592474997043610e-02 5.792058538645505905e-03 -4.966159816831350327e-03 -1.808392000384628773e-03
6.415000000000000000e+03 4.400867080688476562e+01 1.819931411743164062e+01 -1.878206618130207062e-02 2.796520711854100227e-03 -4.795663524419069290e-03 -4.305300768464803696e-03
6.416000000000000000e+03 4.152279281616210938e+01 1.543947982788085938e+01 -3.033571131527423859e-02 5.762211512774229050e-03 -7.372050080448389053e-03 -3.033804940059781075e-03
6.417000000000000000e+03 4.625779724121093750e+01 1.963416862487792969e+01 -1.412747427821159363e-02 2.571314107626676559e-03 -3.466848051175475121e-03 -2.648695139214396477e-03
6.418000000000000000e+03 4.767678833007812500e+01 2.122007369995117188e+01 -1.128856930881738663e-02 1.869829604402184486e-03 -2.825621981173753738e-03 -2.298438223078846931e-03
6.419000000000000000e+03 4.785540008544921875e+01 2.238805389404296875e+01 -9.882425889372825623e-03 1.117169391363859177e-03 -2.629576949402689934e-03 -2.648721449077129364e-03
6.420000000000000000e+03 4.462599182128906250e+01 1.845220565795898438e+01 -1.752879470586776733e-02 2.966108499094843864e-03 -4.368805792182683945e-03 -3.568935673683881760e-03
6.421000000000000000e+03 3.729657363891601562e+01 9.495628356933593750e+00 -2.936949580907821655e-02 1.063719298690557480e-02 -5.619690753519535065e-03 4.326545819640159607e-02
6.422000000000000000e+03 4.114946746826171875e+01 1.396993064880371094e+01 -3.359265252947807312e-02 9.591720066964626312e-03 -7.200279273092746735e-03 1.871482818387448788e-03
6.423000000000000000e+03 4.143457031250000000e+01 1.419681453704833984e+01 -3.285698592662811279e-02 8.791744709014892578e-03 -7.219572085887193680e-03 1.673288759775459766e-03
6.424000000000000000e+03 3.017751312255859375e+01 2.368765830993652344e+00 3.518503159284591675e-02 1.121810153126716614e-01 4.420981556177139282e-02 -2.697082608938217163e-02
6.425000000000000000e+03 4.973812103271484375e+01 2.350040054321289062e+01 -8.093414828181266785e-03 1.282469835132360458e-03 -2.043283544480800629e-03 -1.787125831469893456e-03
6.426000000000000000e+03 4.857032012939453125e+01 2.235010147094726562e+01 -9.652897715568542480e-03 1.525966683402657509e-03 -2.438079100102186203e-03 -2.125471830368041992e-03
6.427000000000000000e+03 4.815539932250976562e+01 2.159388351440429688e+01 -1.062932889908552170e-02 1.839772099629044533e-03 -2.636866876855492592e-03 -2.084157662466168404e-03
6.428000000000000000e+03 4.889495086669921875e+01 2.278884124755859375e+01 -9.068614803254604340e-03 1.376984640955924988e-03 -2.307489048689603806e-03 -2.075465396046638489e-03
6.429000000000000000e+03 5.335490798950195312e+01 2.652148437500000000e+01 -4.874839913100004196e-03 9.639814379625022411e-04 -1.173257594928145409e-03 -8.449538145214319229e-04
6.430000000000000000e+03 3.144744873046875000e+01 8.498631715774536133e-01 2.367683313786983490e-02 7.599540054798126221e-02 2.990167029201984406e-02 -3.740807250142097473e-02
6.431000000000000000e+03 5.235751342773437500e+01 2.496742630004882812e+01 -6.167090497910976410e-03 1.376050757244229317e-03 -1.437311875633895397e-03 -8.914732607081532478e-04
6.432000000000000000e+03 2.989864349365234375e+01 2.227745056152343750e+00 3.060629777610301971e-02 1.069949269294738770e-01 4.128036648035049438e-02 -1.766154542565345764e-02
6.433000000000000000e+03 3.105089187622070312e+01 2.023026704788208008e+00 3.877957165241241455e-02 9.835028648376464844e-02 4.113895818591117859e-02 -4.361540824174880981e-02
6.434000000000000000e+03 3.073844718933105469e+01 2.378344058990478516e+00 4.140242189168930054e-02 1.092654317617416382e-01 4.520035535097122192e-02 -4.190516471862792969e-02
6.435000000000000000e+03 3.201837921142578125e+01 1.647819638252258301e+00 4.182571545243263245e-02 7.778860628604888916e-02 3.588429838418960571e-02 -5.054968595504760742e-02
6.436000000000000000e+03 3.482371139526367188e+01 3.851702928543090820e+00 1.028160676360130310e-01 1.263918005861341953e-03 3.122399561107158661e-02 -3.257304802536964417e-02
6.437000000000000000e+03 3.613061904907226562e+01 6.316679477691650391e+00 7.426294684410095215e-02 -1.924105733633041382e-02 1.650656573474407196e-02 3.234066069126129150e-02
6.438000000000000000e+03 3.561364746093750000e+01 4.745667934417724609e+00 9.793584048748016357e-02 -1.350973267108201981e-02 2.532783336937427521e-02 -4.842167720198631287e-03
6.439000000000000000e+03 3.357213973999023438e+01 3.282520771026611328e+00 9.821692109107971191e-02 3.214953839778900146e-02 3.910993784666061401e-02 -5.420785769820213318e-02
6.440000000000000000e+03 3.424108505249023438e+01 2.974526643753051758e+00 8.795142918825149536e-02 2.269665524363517761e-02 3.319442272186279297e-02 -4.684620723128318787e-02
6.441000000000000000e+03 3.757213211059570312e+01 1.040197658538818359e+01 -4.653988033533096313e-02 1.556564029306173325e-02 -9.292271919548511505e-03 3.319966048002243042e-02
6.442000000000000000e+03 3.603697586059570312e+01 6.832983970642089844e+00 5.925193056464195251e-02 -1.817908883094787598e-02 1.232185214757919312e-02 4.704318568110466003e-02
6.443000000000000000e+03 3.265845489501953125e+01 3.140467703342437744e-01 2.600548788905143738e-02 6.078657507896423340e-02 2.603761851787567139e-02 -4.273154959082603455e-02
6.444000000000000000e+03 3.602354812622070312e+01 5.148461818695068359e+00 8.925835043191909790e-02 -1.914829201996326447e-02 2.103301882743835449e-02 7.411359343677759171e-03
6.445000000000000000e+03 3.747122955322265625e+01 9.977201461791992188e+00 -3.795532882213592529e-02 1.489063072949647903e-02 -6.919410079717636108e-03 3.818393871188163757e-02
6.446000000000000000e+03 3.838579177856445312e+01 1.107514953613281250e+01 -4.504681378602981567e-02 1.564328558743000031e-02 -8.821058087050914764e-03 2.184585481882095337e-02
6.447000000000000000e+03 3.139326858520507812e+01 2.598820924758911133e+00 5.579822137951850891e-02 1.010017916560173035e-01 4.704000428318977356e-02 -5.732946470379829407e-02
6.448000000000000000e+03 2.980631637573242188e+01 1.377779603004455566e+00 2.146485261619091034e-02 8.638297766447067261e-02 3.235434740781784058e-02 -1.317327562719583511e-02
6.449000000000000000e+03 3.530862808227539062e+01 3.903245687484741211e+00 9.520749747753143311e-02 -4.581394139677286148e-03 2.718783169984817505e-02 -2.314068935811519623e-02
6.450000000000000000e+03 6.486226654052734375e+01 2.195874023437500000e+01 -2.827715128660202026e-03 3.516794822644442320e-04 -7.428107201121747494e-04 2.559220418334007263e-03
6.451000000000000000e+03 6.399121475219726562e+01 2.342574310302734375e+01 -2.940713893622159958e-03 5.336469621397554874e-04 -7.221201085485517979e-04 2.069085370749235153e-03
6.452000000000000000e+03 4.894869995117187500e+01 2.235584068298339844e+01 -9.503106586635112762e-03 1.674228347837924957e-03 -2.348663285374641418e-03 -1.867842045612633228e-03
6.453000000000000000e+03 5.521039581298828125e+01 2.674603462219238281e+01 -4.450225736945867538e-03 1.131542841903865337e-03 -9.956049034371972084e-04 -2.923353458754718304e-04
6.454000000000000000e+03 5.391957473754882812e+01 2.664624404907226562e+01 -4.740934818983078003e-03 1.032029278576374054e-03 -1.112671685405075550e-03 -6.608148105442523956e-04
6.455000000000000000e+03 5.640117645263671875e+01 2.435350799560546875e+01 -5.341784097254276276e-03 1.768087269738316536e-03 -1.072109094820916653e-03 6.738866213709115982e-04
6.456000000000000000e+03 5.596384811401367188e+01 2.460349464416503906e+01 -5.346178077161312103e-03 1.726716523990035057e-03 -1.085838535800576210e-03 4.447271348908543587e-04
6.457000000000000000e+03 5.616046142578125000e+01 2.527045822143554688e+01 -4.946760367602109909e-03 1.518536941148340702e-03 -1.028466969728469849e-03 2.894049393944442272e-04
6.458000000000000000e+03 5.702739715576171875e+01 2.437710380554199219e+01 -5.092054139822721481e-03 1.686209463514387608e-03 -1.021753414534032345e-03 8.021950488910079002e-04
6.459000000000000000e+03 5.412377548217773438e+01 2.698522567749023438e+01 -4.482976626604795456e-03 9.832298383116722107e-04 -1.049924059771001339e-03 -6.436017574742436409e-04
6.460000000000000000e+03 5.296276855468750000e+01 2.654386711120605469e+01 -4.879462532699108124e-03 9.037952404469251633e-04 -1.192700234241783619e-03 -9.328344021923840046e-04
6.461000000000000000e+03 3.429925537109375000e+01 1.992938071489334106e-01 3.421310335397720337e-02 4.206177964806556702e-02 2.288246527314186096e-02 -4.343503341078758240e-02
6.462000000000000000e+03 3.313652038574218750e+01 6.556304097175598145e-01 3.377112373709678650e-02 5.462218448519706726e-02 2.651799283921718597e-02 -4.630896821618080139e-02
6.463000000000000000e+03 6.443758392333984375e+01 2.274902915954589844e+01 -2.887889510020613670e-03 4.659215628635138273e-04 -7.265903986990451813e-04 2.288829768076539040e-03
6.464000000000000000e+03 5.993338394165039062e+01 2.368419265747070312e+01 -4.259295761585235596e-03 1.367024611681699753e-03 -8.676812867633998394e-04 1.622609444893896580e-03
6.465000000000000000e+03 5.907510757446289062e+01 2.442788314819335938e+01 -4.374237265437841415e-03 1.404609531164169312e-03 -8.908882737159729004e-04 1.190884620882570744e-03
6.466000000000000000e+03 3.641390991210937500e+01 -4.265041351318359375e-01 3.226840496063232422e-02 2.412758208811283112e-02 1.691879518330097198e-02 -3.377491980791091919e-02
6.467000000000000000e+03 5.952374267578125000e+01 2.402053070068359375e+01 -4.289606586098670959e-03 1.392050646245479584e-03 -8.692668052390217781e-04 1.420082291588187218e-03
6.468000000000000000e+03 3.898478698730468750e+01 -2.814640760421752930e+00 1.670905575156211853e-02 2.004204690456390381e-02 1.102533098310232162e-02 -2.295766212046146393e-02
6.469000000000000000e+03 6.705541229248046875e+01 1.726043510437011719e+01 -2.159340539947152138e-03 -6.409013294614851475e-04 -8.400725782848894596e-04 3.854036564007401466e-03
6.470000000000000000e+03 6.623218536376953125e+01 1.762924194335937500e+01 -2.425051992759108543e-03 -3.334316133987158537e-04 -8.275450672954320908e-04 3.873115172609686852e-03
6.471000000000000000e+03 6.585710144042968750e+01 1.683383178710937500e+01 -2.487680874764919281e-03 -2.897150989156216383e-04 -8.332188008353114128e-04 4.155819769948720932e-03
6.472000000000000000e+03 6.592803192138671875e+01 4.678313255310058594e+00 -5.788147245766595006e-05 -2.805861877277493477e-03 -8.591230143792927265e-04 6.132977548986673355e-03
6.473000000000000000e+03 6.588611602783203125e+01 6.365909099578857422e+00 -4.505372780840843916e-04 -2.407683059573173523e-03 -8.574661333113908768e-04 6.145840510725975037e-03
6.474000000000000000e+03 6.026740646362304688e+01 2.401313972473144531e+01 -4.043572582304477692e-03 1.262115431018173695e-03 -8.344370871782302856e-04 1.551184337586164474e-03
6.475000000000000000e+03 3.941385650634765625e+01 -2.257481336593627930e+00 1.946122385561466217e-02 1.665490679442882538e-02 1.083483919501304626e-02 -2.181291580200195312e-02
6.476000000000000000e+03 3.468871307373046875e+01 3.207123994827270508e+00 8.923354744911193848e-02 1.236825250089168549e-02 3.048053942620754242e-02 -4.170853644609451294e-02
6.477000000000000000e+03 6.578495788574218750e+01 2.235226821899414062e+01 -2.502992749214172363e-03 1.477918704040348530e-04 -7.065602694638073444e-04 2.395775401964783669e-03
6.478000000000000000e+03 6.653170013427734375e+01 8.491909980773925781e+00 -8.922438137233257294e-04 -2.270291792228817940e-03 -9.487607167102396488e-04 5.887093022465705872e-03
6.479000000000000000e+03 4.639972305297851562e+01 -7.576935768127441406e+00 5.919705610722303391e-03 1.472972519695758820e-02 6.194829475134611130e-03 -7.712099701166152954e-03
6.480000000000000000e+03 6.690506744384765625e+01 1.225430679321289062e+01 -1.605615252628922462e-03 -1.542592886835336685e-03 -9.444624301977455616e-04 5.178421735763549805e-03
6.481000000000000000e+03 6.575615692138671875e+01 -1.892056345939636230e+00 1.065115560777485371e-03 -3.601563163101673126e-03 -7.609342574141919613e-04 5.425737705081701279e-03
6.482000000000000000e+03 6.361402130126953125e+01 -1.017125797271728516e+01 1.586094265803694725e-03 -1.135334488935768604e-03 1.352279359707608819e-04 3.723970847204327583e-03
6.483000000000000000e+03 6.400602722167968750e+01 3.340993642807006836e+00 4.157024086453020573e-04 -1.968494150787591934e-03 -4.658375110011547804e-04 6.367866881191730499e-03
6.484000000000000000e+03 6.484411621093750000e+01 1.013089370727539062e+01 -1.519072684459388256e-03 -1.086437609046697617e-03 -7.816530996933579445e-04 6.020067725330591202e-03
6.485000000000000000e+03 6.546909332275390625e+01 8.465373039245605469e+00 -9.974335553124547005e-04 -1.714693848043680191e-03 -8.136382093653082848e-04 6.163088604807853699e-03
6.486000000000000000e+03 6.484499359130859375e+01 6.536587476730346680e-01 8.420941303484141827e-04 -2.779659582301974297e-03 -5.812696181237697601e-04 5.873119924217462540e-03
6.487000000000000000e+03 6.406224822998046875e+01 -7.302209377288818359e+00 1.556977164000272751e-03 -2.001997549086809158e-03 -1.335061242571100593e-04 4.348186776041984558e-03
6.488000000000000000e+03 4.745164489746093750e+01 -1.245200920104980469e+01 2.444661920890212059e-03 1.862817257642745972e-02 6.321850232779979706e-03 -6.092423107475042343e-03
6.489000000000000000e+03 4.565230178833007812e+01 -8.644221305847167969e+00 4.864325746893882751e-03 1.699410006403923035e-02 6.557527463883161545e-03 -8.723078295588493347e-03
6.490000000000000000e+03 4.399659347534179688e+01 -4.461361408233642578e+00 1.108141988515853882e-02 1.290781889110803604e-02 7.196771446615457535e-03 -1.113860122859477997e-02
6.491000000000000000e+03 6.512526702880859375e+01 5.585277080535888672e+00 -2.471120969858020544e-04 -2.199181588366627693e-03 -7.338881259784102440e-04 6.287827156484127045e-03
6.492000000000000000e+03 6.431714630126953125e+01 -1.815964889526367188e+01 1.416244660504162312e-03 -9.926466736942529678e-04 1.270794164156541228e-04 2.831355435773730278e-03
6.493000000000000000e+03 6.418949890136718750e+01 -2.190571212768554688e+01 1.571471802890300751e-03 -5.245390348136425018e-04 3.140798362437635660e-04 2.295149257406592369e-03
6.494000000000000000e+03 6.579344177246093750e+01 -1.123961353302001953e+01 1.257970929145812988e-03 -3.557514399290084839e-03 -6.898630526848137379e-04 3.829885739833116531e-03
6.495000000000000000e+03 4.146786499023437500e+01 -2.315431833267211914e+00 1.875041052699089050e-02 1.183090452104806900e-02 9.174394421279430389e-03 -1.592909917235374451e-02
6.496000000000000000e+03 6.480205535888671875e+01 2.335192441940307617e+00 5.477912491187453270e-04 -2.531497040763497353e-03 -5.951117491349577904e-04 6.110387388616800308e-03
6.497000000000000000e+03 6.397583007812500000e+01 1.544947743415832520e+00 8.110706112347543240e-04 -2.145126694813370705e-03 -4.002168134320527315e-04 6.134362891316413879e-03
6.498000000000000000e+03 6.545941162109375000e+01 2.055614280700683594e+01 -2.712201792746782303e-03 1.732748060021549463e-04 -7.616780931130051613e-04 2.978681586682796478e-03
6.499000000000000000e+03 6.526895141601562500e+01 1.983019065856933594e+01 -2.781301038339734077e-03 1.789574889698997140e-04 -7.807030924595892429e-04 3.224233398213982582e-03
6.500000000000000000e+03 6.499082946777343750e+01 -4.482662200927734375e+00 1.354045118205249310e-03 -3.065975382924079895e-03 -5.135790561325848103e-04 4.922186024487018585e-03
6.501000000000000000e+03 6.501374053955078125e+01 -6.377483367919921875e+00 1.371505670249462128e-03 -3.038079710677266121e-03 -4.999722586944699287e-04 4.560720641165971756e-03
6.502000000000000000e+03 4.917583847045898438e+01 -1.615884017944335938e+01 1.830145716667175293e-03 1.965844631195068359e-02 6.446577608585357666e-03 -4.459027200937271118e-03
6.503000000000000000e+03 4.869361877441406250e+01 -1.014433002471923828e+01 3.939721733331680298e-03 1.500401087105274200e-02 5.683119874447584152e-03 -5.312873981893062592e-03
6.504000000000000000e+03 4.664223098754882812e+01 -1.406137561798095703e+01 1.738715800456702709e-03 2.069725841283798218e-02 6.730792112648487091e-03 -6.547674071043729782e-03
6.505000000000000000e+03 5.316262817382812500e+01 -1.428398036956787109e+01 2.178546506911516190e-03 1.321394462138414383e-02 4.617747385054826736e-03 -1.366359065286815166e-03
6.506000000000000000e+03 6.391658782958984375e+01 -1.657878303527832031e+01 1.422886387445032597e-03 -5.802759551443159580e-04 2.527831238694489002e-04 2.921234816312789917e-03
6.507000000000000000e+03 5.414545440673828125e+01 -1.914707946777343750e+01 2.021502237766981125e-03 1.510529778897762299e-02 5.138040054589509964e-03 -7.641782867722213268e-04
6.508000000000000000e+03 5.296703338623046875e+01 -1.572820854187011719e+01 2.101032994687557220e-03 1.435883063822984695e-02 4.937958903610706329e-03 -1.527276472188532352e-03
6.509000000000000000e+03 6.495783233642578125e+01 3.982724905014038086e+00 1.618602109374478459e-04 -2.384367166087031364e-03 -6.667521083727478981e-04 6.250177510082721710e-03
6.510000000000000000e+03 1.595567798614501953e+01 -2.549498176574707031e+01 -2.842582529410719872e-03 6.669824011623859406e-03 1.148172537796199322e-03 4.146686289459466934e-03
6.511000000000000000e+03 1.540769100189208984e+01 -2.394348144531250000e+01 -2.926410641521215439e-03 6.990442518144845963e-03 1.219209516420960426e-03 4.271116573363542557e-03
6.512000000000000000e+03 5.477580642700195312e+01 -2.214150428771972656e+01 2.581610810011625290e-03 1.532781589776277542e-02 5.372827872633934021e-03 -3.099549212493002415e-04
6.513000000000000000e+03 5.829049301147460938e+01 -1.625833320617675781e+01 2.038221340626478195e-03 7.322698831558227539e-03 2.808276098221540451e-03 1.427183509804308414e-03
6.514000000000000000e+03 3.988947677612304688e+01 1.287080097198486328e+01 -4.154347628355026245e-02 1.153487525880336761e-02 -9.002580307424068451e-03 6.472085602581501007e-03
6.515000000000000000e+03 3.917194366455078125e+01 1.182313251495361328e+01 -4.349719360470771790e-02 1.485907286405563354e-02 -8.591436780989170074e-03 1.428769994527101517e-02
6.516000000000000000e+03 4.735638809204101562e+01 1.960991096496582031e+01 -1.340785063803195953e-02 3.143741283565759659e-03 -3.079232759773731232e-03 -1.480107428506016731e-03
6.517000000000000000e+03 4.232746124267578125e+01 1.595303058624267578e+01 -2.677492424845695496e-02 5.996668245643377304e-03 -6.233477033674716949e-03 -3.216946497559547424e-03
6.518000000000000000e+03 4.579855728149414062e+01 1.883879852294921875e+01 -1.567958109080791473e-02 3.299338743090629578e-03 -3.714072750881314278e-03 -2.439361764118075371e-03
6.519000000000000000e+03 4.253116226196289062e+01 1.665164375305175781e+01 -2.466250397264957428e-02 4.079790320247411728e-03 -6.174813956022262573e-03 -4.386073444038629532e-03
6.520000000000000000e+03 4.218344879150390625e+01 1.624819183349609375e+01 -2.647711150348186493e-02 4.476293455809354782e-03 -6.600245367735624313e-03 -4.296627826988697052e-03
6.521000000000000000e+03 4.263394927978515625e+01 1.605369186401367188e+01 -2.604972384870052338e-02 5.657703615725040436e-03 -6.117606069892644882e-03 -2.567200222983956337e-03
6.522000000000000000e+03 5.296105194091796875e+01 2.507492446899414062e+01 -5.956171546131372452e-03 1.448130002245306969e-03 -1.352412393316626549e-03 -6.776094087399542332e-04
6.523000000000000000e+03 5.114538955688476562e+01 2.369182205200195312e+01 -7.489548064768314362e-03 1.672521349973976612e-03 -1.745107932947576046e-03 -1.083940849639475346e-03
6.524000000000000000e+03 4.501422500610351562e+01 1.831416893005371094e+01 -1.748172007501125336e-02 3.405766794458031654e-03 -4.222786054015159607e-03 -2.900172723457217216e-03
6.525000000000000000e+03 4.555105590820312500e+01 1.848774909973144531e+01 -1.662014052271842957e-02 3.447726834565401077e-03 -3.951724153012037277e-03 -2.382496371865272522e-03
6.526000000000000000e+03 4.702769470214843750e+01 1.917010688781738281e+01 -1.407024823129177094e-02 3.507253248244524002e-03 -3.168898634612560272e-03 -1.430165139026939869e-03
6.527000000000000000e+03 4.646154403686523438e+01 2.006024551391601562e+01 -1.357330754399299622e-02 2.217988017946481705e-03 -3.406595904380083084e-03 -2.752407686784863472e-03
6.528000000000000000e+03 4.175833129882812500e+01 1.519806861877441406e+01 -2.981673367321491241e-02 7.494045421481132507e-03 -6.696806289255619049e-03 -2.103633247315883636e-03
6.529000000000000000e+03 4.225915908813476562e+01 1.551498031616210938e+01 -2.764767967164516449e-02 6.885469891130924225e-03 -6.228663027286529541e-03 -2.008628332987427711e-03
6.530000000000000000e+03 3.873256301879882812e+01 1.184361553192138672e+01 -4.705151915550231934e-02 1.317491102963685989e-02 -1.016298215836286545e-02 1.337036956101655960e-02
6.531000000000000000e+03 5.304571914672851562e+01 2.414795494079589844e+01 -6.562002468854188919e-03 1.822599675506353378e-03 -1.421820954419672489e-03 -3.724346170201897621e-04
6.532000000000000000e+03 4.981321334838867188e+01 2.388454246520996094e+01 -7.638060487806797028e-03 1.119697350077331066e-03 -1.955508952960371971e-03 -1.849119667895138264e-03
6.533000000000000000e+03 5.061342239379882812e+01 2.351647186279296875e+01 -7.810520939528942108e-03 1.624324591830372810e-03 -1.855858950875699520e-03 -1.310739782638847828e-03
6.534000000000000000e+03 4.897701644897460938e+01 2.195190429687500000e+01 -9.917246177792549133e-03 1.978644402697682381e-03 -2.381580416113138199e-03 -1.688364427536725998e-03
6.535000000000000000e+03 4.820412445068359375e+01 2.235594749450683594e+01 -9.713768959045410156e-03 1.234601251780986786e-03 -2.543750219047069550e-03 -2.409151755273342133e-03
6.536000000000000000e+03 4.281085586547851562e+01 1.725519943237304688e+01 -2.283092401921749115e-02 3.179735736921429634e-03 -5.895356647670269012e-03 -5.133516155183315277e-03
6.537000000000000000e+03 4.029189682006835938e+01 1.341603565216064453e+01 -3.891155868768692017e-02 1.147283054888248444e-02 -8.231618441641330719e-03 3.392845392227172852e-03
6.538000000000000000e+03 4.170772552490234375e+01 1.441700458526611328e+01 -3.085113503038883209e-02 8.812168613076210022e-03 -6.611690390855073929e-03 8.754272712394595146e-04
6.539000000000000000e+03 4.447857284545898438e+01 1.805809974670410156e+01 -1.858429610729217529e-02 3.477608086541295052e-03 -4.532006569206714630e-03 -3.299917792901396751e-03
6.540000000000000000e+03 5.244960021972656250e+01 2.442119789123535156e+01 -6.516332738101482391e-03 1.615912653505802155e-03 -1.470125978812575340e-03 -6.974297575652599335e-04
6.541000000000000000e+03 5.217440795898437500e+01 2.465807151794433594e+01 -6.423926912248134613e-03 1.426237169653177261e-03 -1.499306992627680302e-03 -9.036695701070129871e-04
6.542000000000000000e+03 4.072578811645507812e+01 1.336805248260498047e+01 -3.596124798059463501e-02 1.009124796837568283e-02 -7.760999724268913269e-03 4.559293854981660843e-03
6.543000000000000000e+03 4.112970352172851562e+01 1.327097988128662109e+01 -3.365755453705787659e-02 1.130375918000936508e-02 -6.706138141453266144e-03 6.094329524785280228e-03
6.544000000000000000e+03 4.144380569458007812e+01 1.464289951324462891e+01 -3.222815692424774170e-02 7.639138028025627136e-03 -7.376705761998891830e-03 -3.111174446530640125e-04
6.545000000000000000e+03 4.150790405273437500e+01 1.504413795471191406e+01 -3.108390606939792633e-02 6.621903274208307266e-03 -7.338601164519786835e-03 -1.536065945401787758e-03
6.546000000000000000e+03 4.813702011108398438e+01 2.115068244934082031e+01 -1.116497814655303955e-02 2.199469599872827530e-03 -2.689652610570192337e-03 -1.895332359708845615e-03
6.547000000000000000e+03 4.489472961425781250e+01 1.795016670227050781e+01 -1.801134645938873291e-02 3.822267754003405571e-03 -4.256723448634147644e-03 -2.531774109229445457e-03
6.548000000000000000e+03 4.438873672485351562e+01 1.765545654296875000e+01 -1.915736682713031769e-02 3.934818319976329803e-03 -4.566764924675226212e-03 -2.897722646594047546e-03
6.549000000000000000e+03 4.147715759277343750e+01 1.372321224212646484e+01 -3.288831189274787903e-02 9.711705148220062256e-03 -6.952981464564800262e-03 4.021869972348213196e-03
6.550000000000000000e+03 3.005929183959960938e+01 1.889639377593994141e+00 2.747128345072269440e-02 1.002249419689178467e-01 3.830886632204055786e-02 -2.067344263195991516e-02
6.551000000000000000e+03 3.960947036743164062e+01 1.265883827209472656e+01 -4.258588328957557678e-02 1.300500612705945969e-02 -8.874263614416122437e-03 7.661060895770788193e-03
6.552000000000000000e+03 4.076754379272460938e+01 1.300080394744873047e+01 -3.577796742320060730e-02 1.198006700724363327e-02 -7.139370311051607132e-03 6.672002840787172318e-03
6.553000000000000000e+03 4.707218551635742188e+01 2.033694458007812500e+01 -1.281593367457389832e-02 2.341677434742450714e-03 -3.142277011647820473e-03 -2.312536817044019699e-03
6.554000000000000000e+03 4.812811660766601562e+01 2.065275001525878906e+01 -1.167817786335945129e-02 2.548489021137356758e-03 -2.738906769081950188e-03 -1.613127882592380047e-03
6.555000000000000000e+03 5.021617507934570312e+01 2.369014167785644531e+01 -7.773268502205610275e-03 1.364208059385418892e-03 -1.922718016430735588e-03 -1.558619202114641666e-03
6.556000000000000000e+03 4.068370819091796875e+01 1.251950359344482422e+01 -3.388319537043571472e-02 1.195681560784578323e-02 -6.577914115041494370e-03 9.663094766438007355e-03
6.557000000000000000e+03 3.512093734741210938e+01 7.401408553123474121e-01 4.432105645537376404e-02 3.045670129358768463e-02 2.243332751095294952e-02 -4.156919196248054504e-02
6.558000000000000000e+03 3.688266754150390625e+01 8.443232536315917969e+00 2.606123453006148338e-04 4.584105627145618200e-04 2.157068665837869048e-04 5.240337178111076355e-02
6.559000000000000000e+03 3.787532043457031250e+01 9.306897163391113281e+00 -1.918509975075721741e-02 9.173193015158176422e-03 -3.003572113811969757e-03 4.078915715217590332e-02
6.560000000000000000e+03 5.482125473022460938e+01 2.665472793579101562e+01 -4.579389933496713638e-03 1.131807104684412479e-03 -1.034274813719093800e-03 -4.007806128356605768e-04
6.561000000000000000e+03 5.447633743286132812e+01 2.672784805297851562e+01 -4.581283777952194214e-03 1.071430393494665623e-03 -1.052956096827983856e-03 -4.976021591573953629e-04
6.562000000000000000e+03 3.673736190795898438e+01 7.873222827911376953e+00 2.040193229913711548e-02 -3.172300523146986961e-03 5.168889649212360382e-03 5.240883305668830872e-02
6.563000000000000000e+03 3.261040496826171875e+01 3.272150278091430664e+00 9.664408862590789795e-02 5.886094272136688232e-02 4.665150865912437439e-02 -6.728535145521163940e-02
6.564000000000000000e+03 3.811764907836914062e+01 -2.683506608009338379e-01 3.271669521927833557e-02 1.345791015774011612e-02 1.385238114744424820e-02 -2.554771490395069122e-02
6.565000000000000000e+03 3.616360473632812500e+01 4.315965652465820312e+00 8.588527888059616089e-02 -1.265957206487655640e-02 2.196771278977394104e-02 -8.178327232599258423e-03
6.566000000000000000e+03 3.616760635375976562e+01 7.905389308929443359e+00 2.140229009091854095e-02 -8.312830701470375061e-03 3.926837816834449768e-03 5.826852098107337952e-02
6.567000000000000000e+03 3.665118408203125000e+01 7.312868595123291016e+00 3.864692524075508118e-02 -1.279283314943313599e-02 7.756227161735296249e-03 4.720011353492736816e-02
6.568000000000000000e+03 4.639216613769531250e+01 1.904107475280761719e+01 -1.478809677064418793e-02 3.327699610963463783e-03 -3.438119310885667801e-03 -1.965162111446261406e-03
6.569000000000000000e+03 3.115970230102539062e+01 1.596018552780151367e+00 3.231142833828926086e-02 8.921330422163009644e-02 3.645741939544677734e-02 -4.073245078325271606e-02
6.570000000000000000e+03 4.764343261718750000e+01 2.071609687805175781e+01 -1.194345485419034958e-02 2.323832362890243530e-03 -2.885886700823903084e-03 -2.028765855357050896e-03
6.571000000000000000e+03 3.327307128906250000e+01 1.437840461730957031e+00 5.020466074347496033e-02 5.196889862418174744e-02 3.065206855535507202e-02 -5.230073258280754089e-02
6.572000000000000000e+03 4.014687347412109375e+01 1.259951019287109375e+01 -3.840243071317672729e-02 1.300432160496711731e-02 -7.619432639330625534e-03 8.891041390597820282e-03
6.573000000000000000e+03 3.871603775024414062e+01 1.057892894744873047e+01 -3.689267486333847046e-02 1.284010708332061768e-02 -7.215770427137613297e-03 2.687332592904567719e-02
6.574000000000000000e+03 3.811205291748046875e+01 1.039273643493652344e+01 -3.810225799679756165e-02 1.496453117579221725e-02 -6.941317580640316010e-03 3.032731451094150543e-02
6.575000000000000000e+03 3.866891098022460938e+01 1.142754650115966797e+01 -4.541739076375961304e-02 1.552985049784183502e-02 -8.966261520981788635e-03 1.869489252567291260e-02
6.576000000000000000e+03 5.871459960937500000e+01 2.386799621582031250e+01 -4.650075454264879227e-03 1.574497669935226440e-03 -9.226733236573636532e-04 1.341320923529565334e-03
6.577000000000000000e+03 5.973639297485351562e+01 2.330015945434570312e+01 -4.418504890054464340e-03 1.473458483815193176e-03 -8.835139451548457146e-04 1.730267889797687531e-03
6.578000000000000000e+03 3.394067382812500000e+01 5.658519268035888672e-01 3.739971667528152466e-02 4.357017576694488525e-02 2.429096773266792297e-02 -4.531021043658256531e-02
6.579000000000000000e+03 3.473106002807617188e+01 -2.250114828348159790e-02 3.283882513642311096e-02 3.624277189373970032e-02 2.072447910904884338e-02 -4.120485484600067139e-02
6.580000000000000000e+03 5.612012481689453125e+01 2.387546730041503906e+01 -5.594511516392230988e-03 1.911471714265644550e-03 -1.104911905713379383e-03 7.524442626163363457e-04
6.581000000000000000e+03 3.600903701782226562e+01 5.890911102294921875e+00 8.271181583404541016e-02 -2.185052447021007538e-02 1.825838722288608551e-02 2.443811111152172089e-02
6.582000000000000000e+03 3.570537948608398438e+01 6.223081111907958984e+00 8.522912859916687012e-02 -2.203964814543724060e-02 1.895684376358985901e-02 3.326591104269027710e-02
6.583000000000000000e+03 5.481624221801757812e+01 2.627204322814941406e+01 -4.794431384652853012e-03 1.230578985996544361e-03 -1.069155754521489143e-03 -3.370176418684422970e-04
6.584000000000000000e+03 5.449212265014648438e+01 2.557329368591308594e+01 -5.240036174654960632e-03 1.431208103895187378e-03 -1.142648397944867611e-03 -2.590002841316163540e-04
6.585000000000000000e+03 6.237081146240234375e+01 2.260304641723632812e+01 -3.568555461242794991e-03 9.267982677556574345e-04 -7.925271638669073582e-04 2.289254916831851006e-03
6.586000000000000000e+03 6.284144592285156250e+01 2.208238410949707031e+01 -3.498902078717947006e-03 8.799537317827343941e-04 -7.856845040805637836e-04 2.444362267851829529e-03
6.587000000000000000e+03 5.813613510131835938e+01 2.425270843505859375e+01 -4.753464832901954651e-03 1.576731679961085320e-03 -9.530200040899217129e-04 1.082325703464448452e-03
6.588000000000000000e+03 5.783345794677734375e+01 2.351612281799316406e+01 -5.083981901407241821e-03 1.779601210728287697e-03 -9.913141839206218719e-04 1.268830965273082256e-03
6.589000000000000000e+03 5.924545669555664062e+01 2.354036521911621094e+01 -4.551462363451719284e-03 1.525761210359632969e-03 -9.077103459276258945e-04 1.568376552313566208e-03
6.590000000000000000e+03 3.807432174682617188e+01 -1.368283987045288086e+00 2.441985718905925751e-02 1.848831959068775177e-02 1.287245284765958786e-02 -2.652550674974918365e-02
6.591000000000000000e+03 3.251972961425781250e+01 1.711824536323547363e+00 4.964255169034004211e-02 6.725804507732391357e-02 3.507017716765403748e-02 -5.483384057879447937e-02
6.592000000000000000e+03 3.445948028564453125e+01 -4.957397878170013428e-01 2.593154087662696838e-02 4.021853953599929810e-02 1.984502375125885010e-02 -3.917082026600837708e-02
6.593000000000000000e+03 3.501583099365234375e+01 2.849686145782470703e+00 8.173954486846923828e-02 1.455384306609630585e-02 2.888801693916320801e-02 -3.912435844540596008e-02
6.594000000000000000e+03 6.089531707763671875e+01 2.276220512390136719e+01 -4.080492537468671799e-03 1.283064601011574268e-03 -8.392283343710005283e-04 2.080421894788742065e-03
6.595000000000000000e+03 6.065237808227539062e+01 2.351047897338867188e+01 -4.063699394464492798e-03 1.260700169950723648e-03 -8.408998255617916584e-04 1.761118764989078045e-03
6.596000000000000000e+03 6.602783966064453125e+01 8.082839965820312500e+00 -8.259454043582081795e-04 -2.098650438711047173e-03 -8.773787412792444229e-04 6.019442342221736908e-03
6.597000000000000000e+03 3.880567169189453125e+01 -1.800820112228393555e+00 2.237947098910808563e-02 1.733254641294479370e-02 1.191360503435134888e-02 -2.377567812800407410e-02
6.598000000000000000e+03 6.019350051879882812e+01 2.328044319152832031e+01 -4.268135875463485718e-03 1.392040867358446121e-03 -8.628284558653831482e-04 1.805622014217078686e-03
6.599000000000000000e+03 6.178187179565429688e+01 2.216027069091796875e+01 -3.878335235640406609e-03 1.150986528955399990e-03 -8.182046585716307163e-04 2.429017331451177597e-03
6.600000000000000000e+03 6.472756958007812500e+01 1.139890480041503906e+01 -1.876264461316168308e-03 -7.635917863808572292e-04 -7.919568452052772045e-04 5.809738300740718842e-03
6.601000000000000000e+03 4.654277038574218750e+01 -8.526179313659667969e+00 5.064167082309722900e-03 1.563860476016998291e-02 6.210831925272941589e-03 -7.553535047918558121e-03
6.602000000000000000e+03 6.505428314208984375e+01 1.721833419799804688e+01 -2.771992003545165062e-03 2.671818219823762774e-05 -8.235821151174604893e-04 4.133110865950584412e-03
6.603000000000000000e+03 6.409751129150390625e+01 -5.359801769256591797e+00 1.558028277941048145e-03 -2.210334176197648048e-03 -1.956917549250647426e-04 4.744522739201784134e-03
6.604000000000000000e+03 6.591213989257812500e+01 1.285496139526367188e+01 -1.931572100147604942e-03 -9.695944027043879032e-04 -8.703499333932995796e-04 5.249727983027696609e-03
6.605000000000000000e+03 6.597258758544921875e+01 1.488146209716796875e+01 -2.242052927613258362e-03 -6.382258725352585316e-04 -8.640836458653211594e-04 4.730176180601119995e-03
6.606000000000000000e+03 4.176066589355468750e+01 -3.254093885421752930e+00 1.504569035023450851e-02 1.387423090636730194e-02 8.675976656377315521e-03 -1.545805577188730240e-02
6.607000000000000000e+03 4.282923889160156250e+01 -2.819227218627929688e+00 1.573288068175315857e-02 1.089302450418472290e-02 7.987772114574909210e-03 -1.244510523974895477e-02
6.608000000000000000e+03 6.306283569335937500e+01 2.142872047424316406e+01 -3.528324188664555550e-03 8.647812064737081528e-04 -7.990628946572542191e-04 2.737939590588212013e-03
6.609000000000000000e+03 6.555023193359375000e+01 1.413532829284667969e+01 -2.254237420856952667e-03 -5.834405310451984406e-04 -8.513033972121775150e-04 4.962483420968055725e-03
6.610000000000000000e+03 6.416526794433593750e+01 9.423920631408691406e+00 -1.415950711816549301e-03 -9.444828028790652752e-04 -7.081300718709826469e-04 6.287698168307542801e-03
6.611000000000000000e+03 6.552384948730468750e+01 1.081542110443115234e+01 -1.584402984008193016e-03 -1.260833581909537315e-03 -8.535709930583834648e-04 5.781286396086215973e-03
6.612000000000000000e+03 4.624447631835937500e+01 -6.710446834564208984e+00 7.006735075265169144e-03 1.368231885135173798e-02 6.206716410815715790e-03 -7.794219069182872772e-03
6.613000000000000000e+03 6.399523162841796875e+01 -1.020200401544570923e-01 1.130812219344079494e-03 -2.257446991279721260e-03 -3.379904665052890778e-04 5.849002860486507416e-03
6.614000000000000000e+03 6.396638488769531250e+01 -1.778540253639221191e+00 1.407335628755390644e-03 -2.265524584800004959e-03 -2.574567333795130253e-04 5.505682434886693954e-03
6.615000000000000000e+03 6.321147537231445312e+01 7.435714006423950195e-01 1.126266899518668652e-03 -1.747465692460536957e-03 -1.863596407929435372e-04 6.010800134390592575e-03
6.616000000000000000e+03 6.490921020507812500e+01 -1.215472507476806641e+01 1.365887583233416080e-03 -2.446189057081937790e-03 -3.240904188714921474e-04 3.614728339016437531e-03
6.617000000000000000e+03 6.567767333984375000e+01 7.500016212463378906e+00 -7.381147588603198528e-04 -2.099728677421808243e-03 -8.513530483469367027e-04 6.138198077678680420e-03
6.618000000000000000e+03 4.848665237426757812e+01 -1.297363567352294922e+01 2.324543194845318794e-03 1.776690781116485596e-02 6.027435418218374252e-03 -5.120904650539159775e-03
6.619000000000000000e+03 4.615531921386718750e+01 -5.843580245971679688e+00 8.226412348449230194e-03 1.242907531559467316e-02 6.196646019816398621e-03 -7.795674260705709457e-03
6.620000000000000000e+03 4.379383850097656250e+01 -2.668916463851928711e+00 1.561590563505887985e-02 9.493392892181873322e-03 7.532789837568998337e-03 -1.038453448563814163e-02
6.621000000000000000e+03 5.058981704711914062e+01 -1.498208808898925781e+01 2.150721615180373192e-03 1.696363836526870728e-02 5.734308157116174698e-03 -3.448968520388007164e-03
6.622000000000000000e+03 4.901862716674804688e+01 -1.195133876800537109e+01 2.870173193514347076e-03 1.643368415534496307e-02 5.791157018393278122e-03 -4.768862389028072357e-03
6.623000000000000000e+03 6.179445648193359375e+01 -1.417230701446533203e+01 1.669038436375558376e-03 1.898316782899200916e-03 1.070206519216299057e-03 2.817200962454080582e-03
6.624000000000000000e+03 6.090395355224609375e+01 -1.595691394805908203e+01 1.759102451615035534e-03 3.639854025095701218e-03 1.619686954654753208e-03 2.380662132054567337e-03
6.625000000000000000e+03 6.309422683715820312e+01 2.934031486511230469e+00 6.100100581534206867e-04 -1.501423539593815804e-03 -2.674240386113524437e-04 6.404013372957706451e-03
6.626000000000000000e+03 6.429329681396484375e+01 6.447874069213867188e+00 -5.061489064246416092e-04 -1.562445890158414841e-03 -6.205784156918525696e-04 6.491393782198429108e-03
6.627000000000000000e+03 6.301923370361328125e+01 -1.869698715209960938e+01 1.569518004544079304e-03 1.039233407936990261e-03 7.826254004612565041e-04 2.516104141250252724e-03
6.628000000000000000e+03 6.219399642944335938e+01 -2.093641281127929688e+01 1.749907038174569607e-03 2.797998720780014992e-03 1.364371739327907562e-03 2.092390321195125580e-03
6.629000000000000000e+03 5.659023666381835938e+01 -2.146719360351562500e+01 2.523954724892973900e-03 1.200705859810113907e-02 4.359303973615169525e-03 4.556890053208917379e-04
6.630000000000000000e+03 5.307532119750976562e+01 -1.974611854553222656e+01 2.153993351384997368e-03 1.687980070710182190e-02 5.710138473659753799e-03 -1.230207271873950958e-03
6.631000000000000000e+03 4.734320449829101562e+01 -7.414974689483642578e+00 5.998443346470594406e-03 1.336616370826959610e-02 5.809382069855928421e-03 -6.440229713916778564e-03
6.632000000000000000e+03 1.685927963256835938e+01 -2.711812591552734375e+01 -3.130158409476280212e-03 5.615495610982179642e-03 7.456011371687054634e-04 3.709936281666159630e-03
6.633000000000000000e+03 1.593587207794189453e+01 -2.179819869995117188e+01 -2.919108141213655472e-03 6.968111731112003326e-03 1.214701100252568722e-03 4.502125550061464310e-03
6.634000000000000000e+03 1.497968006134033203e+01 -2.260065269470214844e+01 -2.753985347226262093e-03 7.890485227108001709e-03 1.540950150229036808e-03 4.690518137067556381e-03
6.635000000000000000e+03 5.939392089843750000e+01 -2.288474845886230469e+01 2.410293091088533401e-03 7.648756727576255798e-03 3.017714945599436760e-03 1.208988251164555550e-03
6.636000000000000000e+03 5.809775543212890625e+01 -2.193823814392089844e+01 2.264261944219470024e-03 9.881711564958095551e-03 3.643792122602462769e-03 1.031152904033660889e-03
6.637000000000000000e+03 4.577830886840820312e+01 1.825237274169921875e+01 -1.657368429005146027e-02 4.166317638009786606e-03 -3.722209949046373367e-03 -1.724429312162101269e-03
6.638000000000000000e+03 4.325183486938476562e+01 1.629768562316894531e+01 -2.371400408446788788e-02 5.378891248255968094e-03 -5.500534083694219589e-03 -2.015250502154231071e-03
6.639000000000000000e+03 4.616029357910156250e+01 1.867460823059082031e+01 -1.563415676355361938e-02 3.613457083702087402e-03 -3.606209997087717056e-03 -1.794059528037905693e-03
6.640000000000000000e+03 4.258755493164062500e+01 1.631803703308105469e+01 -2.521515265107154846e-02 5.340036470443010330e-03 -5.962534807622432709e-03 -3.416838822886347771e-03
6.641000000000000000e+03 5.009842681884765625e+01 2.302676010131835938e+01 -8.441842161118984222e-03 1.712467055767774582e-03 -2.018812345340847969e-03 -1.400444190949201584e-03
6.642000000000000000e+03 4.971343612670898438e+01 2.310131454467773438e+01 -8.474681526422500610e-03 1.525095314718782902e-03 -2.084875945001840591e-03 -1.665776013396680355e-03
6.643000000000000000e+03 4.249983596801757812e+01 1.523958969116210938e+01 -2.744144015014171600e-02 7.028071675449609756e-03 -6.124010775238275528e-03 -2.244517818326130509e-04
6.644000000000000000e+03 4.275035095214843750e+01 1.542292022705078125e+01 -2.586837112903594971e-02 6.995748262852430344e-03 -5.661786533892154694e-03 -8.490011096000671387e-04
6.645000000000000000e+03 5.517402267456054688e+01 2.465452575683593750e+01 -5.571460351347923279e-03 1.738401246257126331e-03 -1.149917719885706902e-03 2.013631310546770692e-04
6.646000000000000000e+03 4.148152542114257812e+01 1.326237583160400391e+01 -3.160215169191360474e-02 9.792938828468322754e-03 -6.542764138430356979e-03 6.390870548784732819e-03
6.647000000000000000e+03 5.210815429687500000e+01 2.434100723266601562e+01 -6.682371720671653748e-03 1.567928004078567028e-03 -1.534333103336393833e-03 -8.208255167119204998e-04
6.648000000000000000e+03 5.167291259765625000e+01 2.399405670166015625e+01 -7.065554149448871613e-03 1.638027140870690346e-03 -1.628258149139583111e-03 -9.124921052716672421e-04
6.649000000000000000e+03 3.145625495910644531e+01 2.118286609649658203e+00 4.436923190951347351e-02 9.489733725786209106e-02 4.177997261285781860e-02 -5.017285048961639404e-02
6.650000000000000000e+03 4.097547912597656250e+01 1.270864677429199219e+01 -3.398186340928077698e-02 1.121966727077960968e-02 -6.828658282756805420e-03 9.011706337332725525e-03
6.651000000000000000e+03 4.388570022583007812e+01 1.735375785827636719e+01 -2.063334174454212189e-02 4.019075538963079453e-03 -4.984279628843069077e-03 -3.315933514386415482e-03
6.652000000000000000e+03 4.403179550170898438e+01 1.697047615051269531e+01 -2.077385783195495605e-02 4.926864523440599442e-03 -4.754098132252693176e-03 -2.479154849424958229e-03
6.653000000000000000e+03 5.306338119506835938e+01 2.450988769531250000e+01 -6.306366994976997375e-03 1.669101533479988575e-03 -1.391179626807570457e-03 -5.030744941905140877e-04
6.654000000000000000e+03 5.271695709228515625e+01 2.471197891235351562e+01 -6.280041299760341644e-03 1.511116744950413704e-03 -1.430677366442978382e-03 -6.878295680508017540e-04
6.655000000000000000e+03 4.533155822753906250e+01 1.819655799865722656e+01 -1.717359200119972229e-02 3.835913259536027908e-03 -4.001303575932979584e-03 -2.294830977916717529e-03
6.656000000000000000e+03 5.163851165771484375e+01 2.352975845336914062e+01 -7.481855340301990509e-03 1.850077765993773937e-03 -1.689533237367868423e-03 -7.834135903976857662e-04
6.657000000000000000e+03 4.173606491088867188e+01 1.395693016052246094e+01 -3.091322071850299835e-02 9.691198356449604034e-03 -6.366606801748275757e-03 3.097085515037178993e-03
6.658000000000000000e+03 3.749058532714843750e+01 8.263646125793457031e+00 6.431113928556442261e-03 7.910617860034108162e-04 2.166652586311101913e-03 4.643565416336059570e-02
6.659000000000000000e+03 3.709798049926757812e+01 8.978234291076660156e+00 -1.547639351338148117e-02 7.714018691331148148e-03 -2.328712260350584984e-03 4.924594983458518982e-02
6.660000000000000000e+03 4.168862533569335938e+01 1.481865310668945312e+01 -3.100280649960041046e-02 8.297923021018505096e-03 -6.811465136706829071e-03 -1.049960264936089516e-03
6.661000000000000000e+03 3.934992980957031250e+01 1.245627689361572266e+01 -4.561121016740798950e-02 1.294759660959243774e-02 -9.799083694815635681e-03 8.431782014667987823e-03
6.662000000000000000e+03 3.918693161010742188e+01 1.220224761962890625e+01 -4.494976252317428589e-02 1.334309205412864685e-02 -9.482001885771751404e-03 1.084898598492145538e-02
6.663000000000000000e+03 4.858863830566406250e+01 2.155012702941894531e+01 -1.051046978682279587e-02 2.105455379933118820e-03 -2.521504182368516922e-03 -1.762299682013690472e-03
6.664000000000000000e+03 5.154521560668945312e+01 2.304992103576660156e+01 -7.868529297411441803e-03 2.076755510643124580e-03 -1.737532089464366436e-03 -6.859561544843018055e-04
6.665000000000000000e+03 4.858454132080078125e+01 2.195739746093750000e+01 -1.006066612899303436e-02 1.783821498975157738e-03 -2.483053365722298622e-03 -1.945582916960120201e-03
6.666000000000000000e+03 3.969113540649414062e+01 1.184841537475585938e+01 -3.918610140681266785e-02 1.241333223879337311e-02 -8.031830191612243652e-03 1.427177526056766510e-02
6.667000000000000000e+03 4.664953994750976562e+01 1.943014144897460938e+01 -1.421600580215454102e-02 2.987248124554753304e-03 -3.368627279996871948e-03 -2.036791527643799782e-03
6.668000000000000000e+03 3.918829727172851562e+01 1.134798908233642578e+01 -4.036651179194450378e-02 1.322770118713378906e-02 -8.141643367707729340e-03 1.859054900705814362e-02
6.669000000000000000e+03 5.371136856079101562e+01 2.632021141052246094e+01 -4.943438339978456497e-03 1.122486894018948078e-03 -1.146285445429384708e-03 -6.712146569043397903e-04
6.670000000000000000e+03 4.812252807617187500e+01 2.008347702026367188e+01 -1.230123545974493027e-02 3.088952042162418365e-03 -2.763685071840882301e-03 -1.203011954203248024e-03
6.671000000000000000e+03 3.474994277954101562e+01 1.231077194213867188e+00 5.183645337820053101e-02 3.062601946294307709e-02 2.473874203860759735e-02 -4.451974481344223022e-02
6.672000000000000000e+03 3.589678573608398438e+01 7.139790058135986328e-01 4.571121186017990112e-02 2.216850966215133667e-02 2.036391571164131165e-02 -3.727724775671958923e-02
6.673000000000000000e+03 3.807976150512695312e+01 9.842396736145019531e+00 -3.051921911537647247e-02 1.128148473799228668e-02 -5.771320778876543045e-03 3.551320731639862061e-02
6.674000000000000000e+03 3.767375183105468750e+01 8.785535812377929688e+00 -8.685462176799774170e-03 3.987244330346584320e-03 -1.409465447068214417e-03 4.442688822746276855e-02
6.675000000000000000e+03 3.823804092407226562e+01 8.593164443969726562e+00 -2.375650219619274139e-03 3.604901721701025963e-03 3.687754797283560038e-04 4.037974774837493896e-02
6.676000000000000000e+03 3.276339721679687500e+01 2.462731599807739258e+00 7.186248153448104858e-02 5.949971079826354980e-02 3.940865769982337952e-02 -6.195171177387237549e-02
6.677000000000000000e+03 3.371155929565429688e+01 1.692350864410400391e+00 5.821706354618072510e-02 4.427728801965713501e-02 3.074830584228038788e-02 -5.112570524215698242e-02
6.678000000000000000e+03 3.435325241088867188e+01 8.909645080566406250e-01 4.516642168164253235e-02 3.865229710936546326e-02 2.514561638236045837e-02 -4.579233005642890930e-02
6.679000000000000000e+03 3.510242080688476562e+01 3.487491607666015625e+00 9.030381590127944946e-02 4.609164316207170486e-03 2.847389504313468933e-02 -3.128462284803390503e-02
6.680000000000000000e+03 4.196576309204101562e+01 1.282574844360351562e+01 -2.856085821986198425e-02 1.038920413702726364e-02 -5.451496690511703491e-03 8.669480681419372559e-03
6.681000000000000000e+03 4.039966201782226562e+01 1.232515907287597656e+01 -3.583528473973274231e-02 1.175620313733816147e-02 -7.223723921924829483e-03 1.163596939295530319e-02
6.682000000000000000e+03 5.434853744506835938e+01 2.636225128173828125e+01 -4.812085069715976715e-03 1.185985165648162365e-03 -1.087829936295747757e-03 -4.779844603035598993e-04
6.683000000000000000e+03 5.408697509765625000e+01 2.598421287536621094e+01 -5.074347369372844696e-03 1.236467622220516205e-03 -1.151363947428762913e-03 -4.845645453315228224e-04
6.684000000000000000e+03 3.277728652954101562e+01 1.157279014587402344e+00 4.033732041716575623e-02 6.282093375921249390e-02 3.094747662544250488e-02 -4.971686378121376038e-02
6.685000000000000000e+03 4.354427337646484375e+01 1.686105728149414062e+01 -2.229017950594425201e-02 4.633460659533739090e-03 -5.297015421092510223e-03 -2.756099915131926537e-03
6.686000000000000000e+03 5.013152694702148438e+01 2.337330627441406250e+01 -8.046618662774562836e-03 1.531110960058867931e-03 -1.954652369022369385e-03 -1.510187634266912937e-03
6.687000000000000000e+03 4.932249832153320312e+01 2.274475288391113281e+01 -8.945758454501628876e-03 1.579933799803256989e-03 -2.209747210144996643e-03 -1.765805180184543133e-03
6.688000000000000000e+03 3.359145355224609375e+01 9.802764654159545898e-01 4.288008436560630798e-02 4.923018813133239746e-02 2.763308212161064148e-02 -4.833916202187538147e-02
6.689000000000000000e+03 5.536263656616210938e+01 2.547269439697265625e+01 -5.076381843537092209e-03 1.485395827330648899e-03 -1.077295746654272079e-03 1.831823647080454975e-05
6.690000000000000000e+03 3.595155715942382812e+01 3.742413282394409180e+00 8.533442020416259766e-02 -4.298858344554901123e-03 2.431066893041133881e-02 -1.922063156962394714e-02
6.691000000000000000e+03 3.558550262451171875e+01 2.852552235126495361e-01 3.838740661740303040e-02 2.720413357019424438e-02 1.967746205627918243e-02 -3.843667730689048767e-02
6.692000000000000000e+03 5.500598144531250000e+01 2.588760948181152344e+01 -4.931473173201084137e-03 1.328683225437998772e-03 -1.080836984328925610e-03 -1.878380426205694675e-04
6.693000000000000000e+03 5.401320648193359375e+01 2.525437164306640625e+01 -5.586467683315277100e-03 1.481318729929625988e-03 -1.231544651091098785e-03 -3.433394304011017084e-04
6.694000000000000000e+03 5.710856246948242188e+01 2.287063980102539062e+01 -5.598893854767084122e-03 2.047041431069374084e-03 -1.065555727109313011e-03 1.412378856912255287e-03
6.695000000000000000e+03 5.906443786621093750e+01 2.296120643615722656e+01 -4.770504310727119446e-03 1.672721933573484421e-03 -9.293346665799617767e-04 1.741029438562691212e-03
6.696000000000000000e+03 6.391336822509765625e+01 1.692198753356933594e+01 -3.127472009509801865e-03 4.025363596156239510e-04 -8.174806716851890087e-04 4.367806017398834229e-03
6.697000000000000000e+03 6.497246551513671875e+01 1.908406257629394531e+01 -2.879474079236388206e-03 2.268000680487602949e-04 -7.958022179082036018e-04 3.508599475026130676e-03
6.698000000000000000e+03 3.656088256835937500e+01 6.828659534454345703e+00 5.109251290559768677e-02 -1.304360665380954742e-02 1.141467131674289703e-02 4.219017177820205688e-02
6.699000000000000000e+03 3.749818420410156250e+01 -7.715020775794982910e-01 2.919459715485572815e-02 1.929553970694541931e-02 1.454704161733388901e-02 -2.887252159416675568e-02
6.700000000000000000e+03 3.709117889404296875e+01 -7.417014241218566895e-02 3.537657111883163452e-02 1.813715696334838867e-02 1.605411805212497711e-02 -3.093768097460269928e-02
6.701000000000000000e+03 6.231452178955078125e+01 2.152524375915527344e+01 -3.775530494749546051e-03 1.043525640852749348e-03 -8.196014678105711937e-04 2.663817722350358963e-03
6.702000000000000000e+03 6.515707397460937500e+01 1.530548381805419922e+01 -2.520373323932290077e-03 -2.606907219160348177e-04 -8.343192166648805141e-04 4.711827728897333145e-03
6.703000000000000000e+03 6.438098907470703125e+01 1.273056221008300781e+01 -2.289655618369579315e-03 -3.376887761987745762e-04 -7.882033241912722588e-04 5.570113658905029297e-03
6.704000000000000000e+03 5.846582031250000000e+01 2.322668266296386719e+01 -4.931587725877761841e-03 1.725899986922740936e-03 -9.617063333280384541e-04 1.538333017379045486e-03
6.705000000000000000e+03 5.966711044311523438e+01 2.276084899902343750e+01 -4.587650764733552933e-03 1.575886039063334465e-03 -9.035294060595333576e-04 1.933530322276055813e-03
6.706000000000000000e+03 4.597266006469726562e+01 -3.988759994506835938e+00 1.097536552697420120e-02 9.743421338498592377e-03 6.215636152774095535e-03 -7.249963004142045975e-03
6.707000000000000000e+03 4.608502960205078125e+01 -4.942411422729492188e+00 9.355926886200904846e-03 1.149773597717285156e-02 6.256098859012126923e-03 -7.657184731215238571e-03
6.708000000000000000e+03 6.464007568359375000e+01 1.834152030944824219e+01 -2.975136274471879005e-03 2.725725644268095493e-04 -8.107690955512225628e-04 3.800243604928255081e-03
6.709000000000000000e+03 6.417428588867187500e+01 1.938732528686523438e+01 -3.173226257786154747e-03 4.988051950931549072e-04 -8.023263071663677692e-04 3.458808641880750656e-03
6.710000000000000000e+03 6.402098846435546875e+01 2.096234893798828125e+01 -3.173177130520343781e-03 5.761450156569480896e-04 -7.791096577420830727e-04 2.869897056370973587e-03
6.711000000000000000e+03 6.474549102783203125e+01 2.075815010070800781e+01 -2.963819541037082672e-03 3.912521060556173325e-04 -7.717701955698430538e-04 2.937096869572997093e-03
6.712000000000000000e+03 6.379254150390625000e+01 2.034794998168945312e+01 -3.306396072730422020e-03 6.467883940786123276e-04 -7.978823268786072731e-04 3.137937514111399651e-03
6.713000000000000000e+03 4.049509811401367188e+01 -2.648987293243408203e+00 1.737938076257705688e-02 1.519291009753942490e-02 9.771686978638172150e-03 -1.862928271293640137e-02
6.714000000000000000e+03 6.548916625976562500e+01 1.605526733398437500e+01 -2.520950743928551674e-03 -2.784368116408586502e-04 -8.398162899538874626e-04 4.473677836358547211e-03
6.715000000000000000e+03 4.251321792602539062e+01 -1.827888131141662598e+00 1.902943290770053864e-02 8.907720446586608887e-03 8.381146006286144257e-03 -1.246044225990772247e-02
6.716000000000000000e+03 6.345558166503906250e+01 8.711535453796386719e+00 -1.289026578888297081e-03 -7.053168374113738537e-04 -5.983030423521995544e-04 6.492324173450469971e-03
6.717000000000000000e+03 6.422833251953125000e+01 -1.112419986724853516e+01 1.490321825258433819e-03 -1.616251422092318535e-03 -3.777887832256965339e-05 3.693092614412307739e-03
6.718000000000000000e+03 6.273353576660156250e+01 -1.070960617065429688e+01 1.698370324447751045e-03 -6.271644087973982096e-05 4.906961694359779358e-04 3.502246923744678497e-03
6.719000000000000000e+03 6.411145782470703125e+01 1.068207550048828125e+01 -1.807253458537161350e-03 -6.419497658498585224e-04 -7.347609498538076878e-04 6.114772520959377289e-03
6.720000000000000000e+03 6.483982086181640625e+01 1.461999320983886719e+01 -2.521840855479240417e-03 -2.414931805105879903e-04 -8.290002006106078625e-04 4.998488817363977432e-03
6.721000000000000000e+03 4.405625534057617188e+01 -1.940148591995239258e+00 1.663497462868690491e-02 7.533092517405748367e-03 7.250420283526182175e-03 -9.117974899709224701e-03
6.722000000000000000e+03 6.532592773437500000e+01 1.212372779846191406e+01 -1.922755851410329342e-03 -8.951517520472407341e-04 -8.453722693957388401e-04 5.546429194509983063e-03
6.723000000000000000e+03 6.348199844360351562e+01 9.985882759094238281e+00 -1.668664510361850262e-03 -4.849999677389860153e-04 -6.460993899963796139e-04 6.350528448820114136e-03
6.724000000000000000e+03 4.502221298217773438e+01 -5.134188175201416016e+00 9.640572592616081238e-03 1.252480875700712204e-02 6.649614311754703522e-03 -9.306643158197402954e-03
6.725000000000000000e+03 6.346432495117187500e+01 7.283776283264160156e+00 -7.644394063390791416e-04 -1.009428990073502064e-03 -5.321605131030082703e-04 6.601858418434858322e-03
6.726000000000000000e+03 6.512422180175781250e+01 6.996416091918945312e+00 -6.346558802761137486e-04 -1.832592184655368328e-03 -7.401744369417428970e-04 6.292638368904590607e-03
6.727000000000000000e+03 6.232509994506835938e+01 -5.286422729492187500e+00 1.955360407009720802e-03 -7.042757933959364891e-04 3.753254131879657507e-04 4.516827408224344254e-03
6.728000000000000000e+03 6.316144943237304688e+01 -4.392729759216308594e+00 1.740711973980069160e-03 -1.513326773419976234e-03 6.821554416092112660e-05 4.819770809262990952e-03
6.729000000000000000e+03 6.329068374633789062e+01 4.284289836883544922e+00 2.091941423714160919e-04 -1.422896399162709713e-03 -3.641106595750898123e-04 6.530827842652797699e-03
6.730000000000000000e+03 6.307257461547851562e+01 -8.444230556488037109e-01 1.449182746000587940e-03 -1.677175867371261120e-03 -6.839792331447824836e-05 5.671532358974218369e-03
6.731000000000000000e+03 4.842097854614257812e+01 -8.505805969238281250e+00 5.115194711834192276e-03 1.349705737084150314e-02 5.583675578236579895e-03 -5.489101633429527283e-03
6.732000000000000000e+03 4.996963500976562500e+01 -1.282187557220458984e+01 2.540716901421546936e-03 1.600776426494121552e-02 5.564544349908828735e-03 -4.032167606055736542e-03
6.733000000000000000e+03 4.967844009399414062e+01 -1.088570213317871094e+01 3.333012340590357780e-03 1.465188153088092804e-02 5.395467858761548996e-03 -4.313004203140735626e-03
6.734000000000000000e+03 6.392802047729492188e+01 2.167179298400878906e+01 -3.162588691338896751e-03 6.057660211808979511e-04 -7.670468185096979141e-04 2.670997986570000648e-03
6.735000000000000000e+03 4.815871810913085938e+01 -5.852230548858642578e+00 7.290451787412166595e-03 1.072184927761554718e-02 5.403690505772829056e-03 -5.038025788962841034e-03
6.736000000000000000e+03 4.717024993896484375e+01 -6.621388912200927734e+00 7.145095616579055786e-03 1.240938901901245117e-02 5.866345483809709549e-03 -6.690301932394504547e-03
6.737000000000000000e+03 6.170489883422851562e+01 4.415986061096191406e+00 3.488545189611613750e-04 -6.406326428987085819e-04 -8.753343718126416206e-05 6.744172889739274979e-03
6.738000000000000000e+03 6.247942733764648438e+01 3.715806961059570312e+00 4.505538381636142731e-04 -1.123634981922805309e-03 -2.019243256654590368e-04 6.599361076951026917e-03
6.739000000000000000e+03 6.143889999389648438e+01 -1.289244270324707031e+01 1.771891606040298939e-03 2.072019269689917564e-03 1.153173274360597134e-03 2.810073317959904671e-03
6.740000000000000000e+03 6.241768264770507812e+01 -1.245204544067382812e+01 1.674260129220783710e-03 6.496683927252888680e-04 6.971785333007574081e-04 3.182559041306376457e-03
6.741000000000000000e+03 6.334140396118164062e+01 -9.154129981994628906e+00 1.652891165576875210e-03 -1.085300580598413944e-03 1.702771696727722883e-04 3.897766582667827606e-03
6.742000000000000000e+03 6.192240524291992188e+01 -1.133861064910888672e+01 1.827846630476415157e-03 9.936433052644133568e-04 8.464470156468451023e-04 3.163004294037818909e-03
6.743000000000000000e+03 6.403123474121093750e+01 -3.531648397445678711e+00 1.500795362517237663e-03 -2.268331125378608704e-03 -2.302607608726248145e-04 5.126728676259517670e-03
6.744000000000000000e+03 6.322040176391601562e+01 -6.215634822845458984e+00 1.747781760059297085e-03 -1.309241168200969696e-03 1.315622066613286734e-04 4.416839219629764557e-03
6.745000000000000000e+03 5.174065780639648438e+01 -1.538010311126708984e+01 1.948236254975199699e-03 1.591685414314270020e-02 5.359527189284563065e-03 -2.323332708328962326e-03
6.746000000000000000e+03 6.121195220947265625e+01 -1.755416297912597656e+01 1.745476387441158295e-03 3.698086133226752281e-03 1.633068779483437538e-03 2.297600964084267616e-03
6.747000000000000000e+03 6.293191146850585938e+01 -2.245159721374511719e+01 1.930461381562054157e-03 2.016700804233551025e-03 1.184148597531020641e-03 2.137353876605629921e-03
6.748000000000000000e+03 6.071908950805664062e+01 -2.174358367919921875e+01 2.097720047459006310e-03 5.535185337066650391e-03 2.289871452376246452e-03 1.738725579343736172e-03
6.749000000000000000e+03 6.239582061767578125e+01 -6.999114990234375000e+00 1.893760636448860168e-03 -4.638214304577559233e-04 4.289817588869482279e-04 4.168706946074962616e-03
6.750000000000000000e+03 6.306617736816406250e+01 -8.010199546813964844e+00 1.778867328539490700e-03 -9.159994078800082207e-04 2.588603529147803783e-04 4.011887125670909882e-03
6.751000000000000000e+03 6.339149856567382812e+01 5.759513378143310547e+00 -2.733749570325016975e-04 -1.237515127286314964e-03 -4.532670136541128159e-04 6.623580120503902435e-03
6.752000000000000000e+03 6.251153564453125000e+01 5.096908092498779297e+00 2.454476270941086113e-05 -9.484743350185453892e-04 -2.771788567770272493e-04 6.755040027201175690e-03
6.753000000000000000e+03 5.687634277343750000e+01 -1.311295127868652344e+01 2.179103903472423553e-03 7.820330560207366943e-03 2.999830292537808418e-03 9.641161886975169182e-04
6.754000000000000000e+03 5.425365829467773438e+01 -1.596594333648681641e+01 1.945459400303661823e-03 1.295977272093296051e-02 4.471569787710905075e-03 -6.521401810459792614e-04
6.755000000000000000e+03 5.526306915283203125e+01 -2.083764457702636719e+01 2.300469670444726944e-03 1.431368011981248856e-02 4.984244704246520996e-03 -4.570294549921527505e-05
6.756000000000000000e+03 6.258242797851562500e+01 -1.710258293151855469e+01 1.626568147912621498e-03 1.452738535590469837e-03 9.237920166924595833e-04 2.695822855457663536e-03
6.757000000000000000e+03 5.942561340332031250e+01 -1.465325450897216797e+01 1.971562858670949936e-03 5.165954120457172394e-03 2.141255186870694160e-03 2.017021644860506058e-03
6.758000000000000000e+03 1.550078487396240234e+01 -2.809077835083007812e+01 -2.590986900031566620e-03 6.784252822399139404e-03 1.257979893125593662e-03 3.855262883007526398e-03
6.759000000000000000e+03 5.738867187500000000e+01 -2.665245628356933594e+01 3.390874015167355537e-03 1.205335184931755066e-02 4.633267875760793686e-03 3.839510027319192886e-04
6.760000000000000000e+03 5.810513687133789062e+01 -2.383604431152343750e+01 2.795303007587790489e-03 1.036837510764598846e-02 3.949103411287069321e-03 9.017845732159912586e-04
6.761000000000000000e+03 6.007848358154296875e+01 -1.979560089111328125e+01 1.931719481945037842e-03 6.100226193666458130e-03 2.409583656117320061e-03 1.720267697237432003e-03
6.762000000000000000e+03 4.525888442993164062e+01 1.790929412841796875e+01 -1.765456981956958771e-02 4.124557133764028549e-03 -4.059004131704568863e-03 -2.069035544991493225e-03
6.763000000000000000e+03 4.666567993164062500e+01 1.827731132507324219e+01 -1.535040047019720078e-02 4.109710920602083206e-03 -3.372206818312406540e-03 -8.179666474461555481e-04
6.764000000000000000e+03 4.935229110717773438e+01 2.233496475219726562e+01 -9.384552948176860809e-03 1.866708975285291672e-03 -2.255353378131985664e-03 -1.617135247215628624e-03
6.765000000000000000e+03 3.954798507690429688e+01 1.220375251770019531e+01 -4.156154766678810120e-02 1.394010428339242935e-02 -8.286433294415473938e-03 1.174572948366403580e-02
6.766000000000000000e+03 4.223538589477539062e+01 1.504552841186523438e+01 -2.846032567322254181e-02 7.945961318910121918e-03 -6.154309026896953583e-03 -4.962461534887552261e-04
6.767000000000000000e+03 4.341445159912109375e+01 1.582312488555908203e+01 -2.410504035651683807e-02 6.793673150241374969e-03 -5.193409975618124008e-03 -6.958114099688827991e-04
6.768000000000000000e+03 4.647814559936523438e+01 1.852453041076660156e+01 -1.524097658693790436e-02 3.936531953513622284e-03 -3.391333157196640968e-03 -1.330905593931674957e-03
6.769000000000000000e+03 4.296706771850585938e+01 1.561130905151367188e+01 -2.571109123528003693e-02 6.593205500394105911e-03 -5.735366139560937881e-03 -9.537026053294539452e-04
6.770000000000000000e+03 3.869414138793945312e+01 9.607508659362792969e+00 -2.176825515925884247e-02 9.698696434497833252e-03 -3.620867617428302765e-03 3.387363627552986145e-02
6.771000000000000000e+03 4.135538864135742188e+01 1.252649402618408203e+01 -3.077641129493713379e-02 1.094652060419321060e-02 -5.948966834694147110e-03 1.017902791500091553e-02
6.772000000000000000e+03 4.200778579711914062e+01 1.419476127624511719e+01 -3.020326606929302216e-02 8.901438675820827484e-03 -6.390547845512628555e-03 2.668706234544515610e-03
6.773000000000000000e+03 4.274438095092773438e+01 1.499270725250244141e+01 -2.671890705823898315e-02 7.928911596536636353e-03 -5.636998452246189117e-03 4.955421318300068378e-04
6.774000000000000000e+03 5.103064727783203125e+01 2.327505302429199219e+01 -7.907449267804622650e-03 1.822099555283784866e-03 -1.825604820623993874e-03 -9.928073268383741379e-04
6.775000000000000000e+03 5.215521240234375000e+01 2.393397712707519531e+01 -6.959261372685432434e-03 1.753554097376763821e-03 -1.561712124384939671e-03 -6.906900089234113693e-04
6.776000000000000000e+03 5.406910705566406250e+01 2.308955383300781250e+01 -6.795597262680530548e-03 2.226253971457481384e-03 -1.370802987366914749e-03 3.908711078111082315e-04
6.777000000000000000e+03 5.365098953247070312e+01 2.407702827453613281e+01 -6.392387673258781433e-03 1.907910336740314960e-03 -1.345343189314007759e-03 -1.277070550713688135e-04
6.778000000000000000e+03 4.012353897094726562e+01 1.204321861267089844e+01 -3.655089065432548523e-02 1.370638888329267502e-02 -6.853350903838872910e-03 1.307782251387834549e-02
6.779000000000000000e+03 4.073568725585937500e+01 1.216939258575439453e+01 -3.297735378146171570e-02 1.154225040227174759e-02 -6.430530920624732971e-03 1.192247495055198669e-02
6.780000000000000000e+03 4.484510803222656250e+01 1.756622123718261719e+01 -1.879206486046314240e-02 4.458320327103137970e-03 -4.300123080611228943e-03 -2.095567528158426285e-03
6.781000000000000000e+03 4.900578689575195312e+01 2.154343414306640625e+01 -1.029247511178255081e-02 2.256493316963315010e-03 -2.410794375464320183e-03 -1.453062403015792370e-03
6.782000000000000000e+03 4.973500061035156250e+01 2.269483947753906250e+01 -8.845131844282150269e-03 1.778060686774551868e-03 -2.120121382176876068e-03 -1.507877022959291935e-03
6.783000000000000000e+03 4.636058807373046875e+01 1.825172042846679688e+01 -1.587336137890815735e-02 4.265645053237676620e-03 -3.482314758002758026e-03 -1.036915462464094162e-03
6.784000000000000000e+03 3.300856781005859375e+01 1.937316179275512695e+00 5.913381651043891907e-02 5.713064223527908325e-02 3.487933799624443054e-02 -5.524757876992225647e-02
6.785000000000000000e+03 5.222522735595703125e+01 2.342318916320800781e+01 -7.309020496904850006e-03 1.998180290684103966e-03 -1.593252061866223812e-03 -4.694306990131735802e-04
6.786000000000000000e+03 4.251390838623046875e+01 1.474623203277587891e+01 -2.801771275699138641e-02 7.931867614388465881e-03 -6.025753449648618698e-03 1.280741533264517784e-03
6.787000000000000000e+03 4.194719314575195312e+01 1.492660713195800781e+01 -2.959214337170124054e-02 7.189726456999778748e-03 -6.720724981278181076e-03 -3.093042178079485893e-04
6.788000000000000000e+03 4.430932998657226562e+01 1.724736213684082031e+01 -2.022033184766769409e-02 4.612076096236705780e-03 -4.682476632297039032e-03 -2.239669207483530045e-03
6.789000000000000000e+03 4.427864074707031250e+01 1.652451515197753906e+01 -2.135172858834266663e-02 5.491026211529970169e-03 -4.758210852742195129e-03 -1.052979496307671070e-03
6.790000000000000000e+03 4.860043334960937500e+01 2.111357307434082031e+01 -1.092535629868507385e-02 2.396871102973818779e-03 -2.558545442298054695e-03 -1.507362816482782364e-03
6.791000000000000000e+03 5.484306716918945312e+01 2.512610244750976562e+01 -5.419521126896142960e-03 1.557464129291474819e-03 -1.158617087639868259e-03 -4.377074219519272447e-05
6.792000000000000000e+03 4.226380538940429688e+01 1.446462154388427734e+01 -2.874646335840225220e-02 8.706152439117431641e-03 -6.012093275785446167e-03 1.583381090313196182e-03
6.793000000000000000e+03 4.735864639282226562e+01 1.881719017028808594e+01 -1.422824058681726456e-02 3.844874212518334389e-03 -3.115009982138872147e-03 -7.567321881651878357e-04
6.794000000000000000e+03 4.757378768920898438e+01 2.015180206298828125e+01 -1.256674528121948242e-02 2.788942074403166771e-03 -2.933341078460216522e-03 -1.714503741823136806e-03
6.795000000000000000e+03 4.977546691894531250e+01 2.192160606384277344e+01 -9.581039659678936005e-03 2.274334896355867386e-03 -2.192011335864663124e-03 -1.134413410909473896e-03
6.796000000000000000e+03 5.049562454223632812e+01 2.323641777038574219e+01 -8.069755509495735168e-03 1.690448494628071785e-03 -1.913792220875620842e-03 -1.272297697141766548e-03
6.797000000000000000e+03 5.336982727050781250e+01 2.433887290954589844e+01 -6.305581890046596527e-03 1.746157999150454998e-03 -1.367827062495052814e-03 -2.665712090674787760e-04
6.798000000000000000e+03 3.986050033569335938e+01 1.237378501892089844e+01 -4.068329185247421265e-02 1.208075415343046188e-02 -8.580761961638927460e-03 1.027414109557867050e-02
6.799000000000000000e+03 5.327833557128906250e+01 2.482905006408691406e+01 -6.045200396329164505e-03 1.536691910587251186e-03 -1.352552557364106178e-03 -5.274851573631167412e-04
6.800000000000000000e+03 4.936944961547851562e+01 2.194931983947753906e+01 -9.704620577394962311e-03 2.106734551489353180e-03 -2.279365668073296547e-03 -1.410036813467741013e-03
6.801000000000000000e+03 3.733942794799804688e+01 7.728920459747314453e+00 1.937819086015224457e-02 -6.583648733794689178e-03 3.838362870737910271e-03 4.468131437897682190e-02
6.802000000000000000e+03 3.975547790527343750e+01 1.143126678466796875e+01 -3.506891056895256042e-02 1.328344643115997314e-02 -6.535638589411973953e-03 1.769132167100906372e-02
6.803000000000000000e+03 4.150642395019531250e+01 1.291486549377441406e+01 -3.107698448002338409e-02 1.102561876177787781e-02 -6.015409249812364578e-03 7.848932407796382904e-03
6.804000000000000000e+03 3.986045837402343750e+01 1.103572177886962891e+01 -3.210752084851264954e-02 1.184117607772350311e-02 -6.079903803765773773e-03 2.058624848723411560e-02
6.805000000000000000e+03 3.931109619140625000e+01 1.084654331207275391e+01 -3.346883878111839294e-02 1.333325169980525970e-02 -6.040675565600395203e-03 2.225217036902904510e-02
6.806000000000000000e+03 3.586679458618164062e+01 2.469592809677124023e+00 6.859902292490005493e-02 9.909611195325851440e-03 2.355258911848068237e-02 -3.270160779356956482e-02
6.807000000000000000e+03 3.374603271484375000e+01 2.816835165023803711e+00 8.527939766645431519e-02 3.319765254855155945e-02 3.554311394691467285e-02 -5.508055165410041809e-02
6.808000000000000000e+03 3.538150405883789062e+01 3.095499277114868164e+00 8.277658373117446899e-02 6.142162717878818512e-03 2.667562477290630341e-02 -3.321391344070434570e-02
6.809000000000000000e+03 3.650268173217773438e+01 4.784785747528076172e+00 8.118662238121032715e-02 -1.439302694052457809e-02 2.003807947039604187e-02 3.163964021950960159e-03
6.810000000000000000e+03 3.844467544555664062e+01 9.092272758483886719e+00 -1.315542403608560562e-02 5.831064656376838684e-03 -2.197307767346501350e-03 3.774968534708023071e-02
6.811000000000000000e+03 3.909690856933593750e+01 1.005474758148193359e+01 -2.561167627573013306e-02 1.093717757612466812e-02 -4.402349237352609634e-03 2.941977232694625854e-02
6.812000000000000000e+03 3.969296646118164062e+01 8.981328010559082031e+00 -7.408645935356616974e-03 5.297498311847448349e-03 -6.333442870527505875e-04 3.102276846766471863e-02
6.813000000000000000e+03 3.346527099609375000e+01 2.158959150314331055e+00 6.698222458362579346e-02 4.563788324594497681e-02 3.378603234887123108e-02 -5.615971609950065613e-02
6.814000000000000000e+03 4.672606277465820312e+01 1.880923652648925781e+01 -1.489768084138631821e-02 3.666994860395789146e-03 -3.369205631315708160e-03 -1.350933569483458996e-03
6.815000000000000000e+03 3.468968963623046875e+01 4.567522406578063965e-01 3.949538990855216980e-02 3.523386642336845398e-02 2.241877652704715729e-02 -4.284189641475677490e-02
6.816000000000000000e+03 5.360737609863281250e+01 2.466846466064453125e+01 -6.046156864613294601e-03 1.689112978056073189e-03 -1.307113212533295155e-03 -3.122429188806563616e-04
6.817000000000000000e+03 5.558738708496093750e+01 2.421613121032714844e+01 -5.653919186443090439e-03 1.826548832468688488e-03 -1.148211187683045864e-03 4.622020060196518898e-04
6.818000000000000000e+03 5.641214370727539062e+01 2.236824226379394531e+01 -6.040172185748815536e-03 2.273899037390947342e-03 -1.129881828092038631e-03 1.447036978788673878e-03
6.819000000000000000e+03 5.652061462402343750e+01 2.346279907226562500e+01 -5.606990773230791092e-03 1.950206584297120571e-03 -1.097035245038568974e-03 9.849485941231250763e-04
6.820000000000000000e+03 3.660707855224609375e+01 6.383581638336181641e+00 6.142194941639900208e-02 -1.679936796426773071e-02 1.338677480816841125e-02 3.424346819519996643e-02
6.821000000000000000e+03 3.685460281372070312e+01 5.219979763031005859e+00 7.227097451686859131e-02 -1.732652261853218079e-02 1.648333482444286346e-02 1.269348710775375366e-02
6.822000000000000000e+03 5.657866668701171875e+01 2.292926406860351562e+01 -5.759668536484241486e-03 2.080421661958098412e-03 -1.103774062357842922e-03 1.248285640031099319e-03
6.823000000000000000e+03 4.395724487304687500e+01 1.581825447082519531e+01 -2.262314222753047943e-02 6.425729021430015564e-03 -4.859223961830139160e-03 2.665643405634909868e-04
6.824000000000000000e+03 5.614456939697265625e+01 2.310284614562988281e+01 -5.924032069742679596e-03 2.128473017364740372e-03 -1.138667692430317402e-03 1.025432487949728966e-03
6.825000000000000000e+03 5.588241958618164062e+01 2.262864494323730469e+01 -6.204887293279170990e-03 2.253027400001883507e-03 -1.185557921417057514e-03 1.181969535537064075e-03
6.826000000000000000e+03 4.979368972778320312e+01 2.228452110290527344e+01 -9.211147204041481018e-03 2.054219134151935577e-03 -2.147078514099121094e-03 -1.275226939469575882e-03
6.827000000000000000e+03 5.045833587646484375e+01 2.294683265686035156e+01 -8.330341428518295288e-03 1.871646381914615631e-03 -1.937608583830296993e-03 -1.158571569249033928e-03
6.828000000000000000e+03 3.185049247741699219e+01 1.215011954307556152e+00 3.328212723135948181e-02 7.700926065444946289e-02 3.308741748332977295e-02 -4.516360536217689514e-02
6.829000000000000000e+03 6.326713943481445312e+01 2.077990722656250000e+01 -3.473692340776324272e-03 8.221786702051758766e-04 -7.954540778882801533e-04 2.946847584098577499e-03
6.830000000000000000e+03 3.234471893310546875e+01 2.241386175155639648e+00 6.062126904726028442e-02 7.473377138376235962e-02 4.060651361942291260e-02 -6.005972251296043396e-02
6.831000000000000000e+03 3.861448287963867188e+01 -7.692726850509643555e-01 2.895918674767017365e-02 1.437667012214660645e-02 1.300075650215148926e-02 -2.434182539582252502e-02
6.832000000000000000e+03 3.663745117187500000e+01 3.515533447265625000e+00 7.288623601198196411e-02 -6.632618140429258347e-03 1.987608335912227631e-02 -1.449710503220558167e-02
6.833000000000000000e+03 5.974574279785156250e+01 1.996004295349121094e+01 -4.936410579830408096e-03 1.886937883682549000e-03 -9.148418321274220943e-04 3.133831545710563660e-03
6.834000000000000000e+03 3.484358978271484375e+01 2.460386991500854492e+00 7.580689340829849243e-02 1.826189830899238586e-02 2.822063863277435303e-02 -4.305924475193023682e-02
6.835000000000000000e+03 3.489916610717773438e+01 2.022010087966918945e+00 6.598113477230072021e-02 2.320178225636482239e-02 2.675487659871578217e-02 -4.384464398026466370e-02
6.836000000000000000e+03 3.805640792846679688e+01 8.095520973205566406e+00 7.797950413078069687e-03 -1.983753405511379242e-03 1.744259148836135864e-03 4.040866345167160034e-02
6.837000000000000000e+03 6.028845214843750000e+01 2.268813896179199219e+01 -4.335556179285049438e-03 1.428698888048529625e-03 -8.720572222955524921e-04 2.031181240454316139e-03
6.838000000000000000e+03 6.107490539550781250e+01 2.193906974792480469e+01 -4.171818029135465622e-03 1.328225247561931610e-03 -8.530779159627854824e-04 2.420850796625018120e-03
6.839000000000000000e+03 4.595899200439453125e+01 -2.998375654220581055e+00 1.246548350900411606e-02 8.382790721952915192e-03 6.254482083022594452e-03 -6.522434297949075699e-03
6.840000000000000000e+03 6.103382110595703125e+01 2.107090759277343750e+01 -4.286976996809244156e-03 1.407853444106876850e-03 -8.637370192445814610e-04 2.753120847046375275e-03
6.841000000000000000e+03 5.893902587890625000e+01 2.232387733459472656e+01 -4.980728961527347565e-03 1.801604754291474819e-03 -9.537372388876974583e-04 1.988556003198027611e-03
6.842000000000000000e+03 3.591540908813476562e+01 3.097031831741333008e+00 7.768032699823379517e-02 1.359380315989255905e-03 2.371191047132015228e-02 -2.681560441851615906e-02
6.843000000000000000e+03 3.641740798950195312e+01 5.574971675872802734e+00 7.838397473096847534e-02 -1.752950996160507202e-02 1.825633831322193146e-02 1.828142255544662476e-02
6.844000000000000000e+03 4.018813323974609375e+01 -1.877122640609741211e+00 2.143664658069610596e-02 1.343074720352888107e-02 1.046021841466426849e-02 -1.949260383844375610e-02
6.845000000000000000e+03 3.921982955932617188e+01 -1.162101864814758301e+00 2.522771991789340973e-02 1.377379242330789566e-02 1.170045323669910431e-02 -2.226671203970909119e-02
6.846000000000000000e+03 4.109398651123046875e+01 -1.499084711074829102e+00 2.190011180937290192e-02 1.018847245723009109e-02 9.626574814319610596e-03 -1.604546792805194855e-02
6.847000000000000000e+03 6.332668685913085938e+01 1.121774768829345703e+01 -2.115943236276507378e-03 -1.622155687073245645e-04 -6.834476371295750141e-04 6.142039317637681961e-03
6.848000000000000000e+03 6.417921447753906250e+01 1.487229824066162109e+01 -2.809118945151567459e-03 1.216444361489266157e-04 -8.062423439696431160e-04 5.004557315260171890e-03
6.849000000000000000e+03 5.959891510009765625e+01 2.212960243225097656e+01 -4.741884302347898483e-03 1.683886861428618431e-03 -9.173992439173161983e-04 2.150333020836114883e-03
6.850000000000000000e+03 6.274578857421875000e+01 1.051636791229248047e+01 -2.026328351348638535e-03 -2.595303703856188804e-05 -6.156844319775700569e-04 6.421387195587158203e-03
6.851000000000000000e+03 6.285799407958984375e+01 9.345620155334472656e+00 -1.534861861728131771e-03 -3.811379428952932358e-04 -5.747999530285596848e-04 6.563263945281505585e-03
6.852000000000000000e+03 6.387418746948242188e+01 1.194944477081298828e+01 -2.226870041340589523e-03 -2.695256262086331844e-04 -7.489186828024685383e-04 5.893412046134471893e-03
6.853000000000000000e+03 6.300333786010742188e+01 1.242568778991699219e+01 -2.549132099375128746e-03 1.836723240558058023e-04 -7.096379413269460201e-04 5.901130381971597672e-03
6.854000000000000000e+03 6.138289642333984375e+01 -4.468462467193603516e+00 2.221747301518917084e-03 -1.338377624051645398e-04 6.263728719204664230e-04 4.520381800830364227e-03
6.855000000000000000e+03 6.432329559326171875e+01 1.413780689239501953e+01 -2.609921386465430260e-03 -5.821126615046523511e-05 -8.004397968761622906e-04 5.217851605266332626e-03
6.856000000000000000e+03 4.346128463745117188e+01 -1.384883284568786621e+00 1.858900859951972961e-02 6.892862264066934586e-03 7.644561119377613068e-03 -9.247161448001861572e-03
6.857000000000000000e+03 6.263187789916992188e+01 8.071829795837402344e+00 -1.130827353335916996e-03 -4.442630161065608263e-04 -4.725271137431263924e-04 6.767778191715478897e-03
6.858000000000000000e+03 6.420430755615234375e+01 8.089568138122558594e+00 -1.011473708786070347e-03 -1.190875424072146416e-03 -6.607047398574650288e-04 6.440258119255304337e-03
6.859000000000000000e+03 6.543190002441406250e+01 1.799010276794433594e+01 -2.685829764232039452e-03 -2.177168971684295684e-05 -8.122804574668407440e-04 3.836255986243486404e-03
6.860000000000000000e+03 3.866728973388671875e+01 1.223947480320930481e-01 3.497282415628433228e-02 1.027878001332283020e-02 1.357548125088214874e-02 -2.297942899167537689e-02
6.861000000000000000e+03 4.481098937988281250e+01 -2.929731845855712891e+00 1.380877010524272919e-02 8.766293525695800781e-03 6.772519089281558990e-03 -8.565441705286502838e-03
6.862000000000000000e+03 4.426820755004882812e+01 -1.279766082763671875e+00 1.773493736982345581e-02 5.810555070638656616e-03 7.063647732138633728e-03 -7.134945131838321686e-03
6.863000000000000000e+03 6.239155960083007812e+01 2.530320405960083008e+00 8.991726790554821491e-04 -1.112696598283946514e-03 -6.405716703739017248e-05 6.469007115811109543e-03
6.864000000000000000e+03 1.947663879394531250e+01 -2.389405632019042969e+01 -3.134578233584761620e-03 3.814463037997484207e-03 2.039654646068811417e-04 3.620725590735673904e-03
6.865000000000000000e+03 1.846105766296386719e+01 -2.307812309265136719e+01 -3.137927968055009842e-03 4.941248334944248199e-03 5.409960867837071419e-04 4.009758122265338898e-03
6.866000000000000000e+03 4.490737915039062500e+01 -4.282043933868408203e+00 1.114693563431501389e-02 1.147667411714792252e-02 6.787083111703395844e-03 -9.384340606629848480e-03
6.867000000000000000e+03 4.927107620239257812e+01 -9.134935379028320312e+00 4.503673408180475235e-03 1.322969514876604080e-02 5.320010706782341003e-03 -4.626741632819175720e-03
6.868000000000000000e+03 6.305850982666015625e+01 -2.591293096542358398e+00 1.672023092396557331e-03 -1.587843988090753555e-03 2.525371201045345515e-05 5.231880582869052887e-03
6.869000000000000000e+03 5.558742523193359375e+01 -1.611165428161621094e+01 2.099477918818593025e-03 1.111467462033033371e-02 3.964245785027742386e-03 1.455758028896525502e-04
6.870000000000000000e+03 5.239080810546875000e+01 -1.102604007720947266e+01 3.221121616661548615e-03 1.154075469821691513e-02 4.428562708199024200e-03 -1.819306402467191219e-03
6.871000000000000000e+03 6.258843612670898438e+01 6.572678565979003906e+00 -5.486275767907500267e-04 -7.427581003867089748e-04 -3.874156973324716091e-04 6.799222901463508606e-03
6.872000000000000000e+03 5.140645980834960938e+01 -1.121334075927734375e+01 3.068278776481747627e-03 1.297896727919578552e-02 4.814174026250839233e-03 -2.648317953571677208e-03
6.873000000000000000e+03 4.717483139038085938e+01 -5.773769855499267578e+00 7.826478220522403717e-03 1.165526639670133591e-02 5.844523198902606964e-03 -6.452708039432764053e-03
6.874000000000000000e+03 6.219185256958007812e+01 -3.480711698532104492e+00 1.925859600305557251e-03 -8.947905153036117554e-04 3.093207196798175573e-04 4.978503100574016571e-03
6.875000000000000000e+03 6.448892974853515625e+01 2.007256317138671875e+01 -3.081678412854671478e-03 4.608383460436016321e-04 -7.862520287744700909e-04 3.186321118846535683e-03
6.876000000000000000e+03 6.116802978515625000e+01 -1.074937725067138672e+01 1.902771880850195885e-03 1.760874874889850616e-03 1.099094050005078316e-03 3.071694169193506241e-03
6.877000000000000000e+03 6.234252929687500000e+01 -9.523017883300781250e+00 1.818224904127418995e-03 1.883394288597628474e-04 6.019693100824952126e-04 3.565217601135373116e-03
6.878000000000000000e+03 5.095940780639648438e+01 -1.355537033081054688e+01 2.337378682568669319e-03 1.542991492897272110e-02 5.330188199877738953e-03 -2.949971007183194160e-03
6.879000000000000000e+03 6.024300384521484375e+01 -9.403478622436523438e+00 2.233572304248809814e-03 2.451092237606644630e-03 1.405399409122765064e-03 2.999938325956463814e-03
6.880000000000000000e+03 1.666780471801757812e+01 -2.986236572265625000e+01 -3.231325652450323105e-03 5.731944926083087921e-03 7.501857471652328968e-04 3.234650008380413055e-03
6.881000000000000000e+03 6.232055282592773438e+01 9.961106628179550171e-02 1.479866681620478630e-03 -1.248274929821491241e-03 6.947750807739794254e-05 5.919119808822870255e-03
6.882000000000000000e+03 6.062705230712890625e+01 -1.448839282989501953e+01 1.753119868226349354e-03 3.602472832426428795e-03 1.606677775271236897e-03 2.369066933169960976e-03
6.883000000000000000e+03 5.981369400024414062e+01 -1.786779975891113281e+01 1.909224200062453747e-03 5.814790260046720505e-03 2.317204372957348824e-03 1.901353942230343819e-03
6.884000000000000000e+03 6.160742950439453125e+01 -1.925615501403808594e+01 1.745529589243233204e-03 3.342247335240244865e-03 1.526333042420446873e-03 2.296321559697389603e-03
6.885000000000000000e+03 4.824822616577148438e+01 -4.912020206451416016e+00 8.384268730878829956e-03 9.275277145206928253e-03 5.297863855957984924e-03 -4.326857160776853561e-03
6.886000000000000000e+03 4.717457199096679688e+01 -4.848666667938232422e+00 9.028950706124305725e-03 9.962703101336956024e-03 5.697496235370635986e-03 -5.887537728995084763e-03
6.887000000000000000e+03 5.550647354125976562e+01 -1.931168174743652344e+01 2.259745262563228607e-03 1.287920493632555008e-02 4.541684873402118683e-03 5.637495996779762208e-05
6.888000000000000000e+03 6.130635070800781250e+01 -9.618365287780761719e+00 2.066218759864568710e-03 1.227174419909715652e-03 9.880180004984140396e-04 3.306804224848747253e-03
6.889000000000000000e+03 1.198898792266845703e+01 -3.044276618957519531e+01 -2.073041629046201706e-03 9.221708402037620544e-03 2.144600031897425652e-03 2.975432667881250381e-03
6.890000000000000000e+03 1.572740268707275391e+01 -3.271315383911132812e+01 -3.110168967396020889e-03 6.465629208832979202e-03 1.006638049148023129e-03 2.734736073762178421e-03
6.891000000000000000e+03 4.764146423339843750e+01 1.838466644287109375e+01 -1.414800528436899185e-02 4.451578948646783829e-03 -2.908927854150533676e-03 -4.411460031406022608e-05
6.892000000000000000e+03 4.119651412963867188e+01 1.209935188293457031e+01 -3.023859299719333649e-02 1.147517003118991852e-02 -5.629026796668767929e-03 1.239166129380464554e-02
6.893000000000000000e+03 4.629138946533203125e+01 1.792358779907226562e+01 -1.622178405523300171e-02 4.476509522646665573e-03 -3.523582126945257187e-03 -8.657305152155458927e-04
6.894000000000000000e+03 4.193364715576171875e+01 1.465441703796386719e+01 -3.011735901236534119e-02 8.092929609119892120e-03 -6.607329007238149643e-03 6.004258757457137108e-04
6.895000000000000000e+03 4.362695693969726562e+01 1.505627250671386719e+01 -2.421409823000431061e-02 7.472161203622817993e-03 -5.022581201046705246e-03 1.775768701918423176e-03
6.896000000000000000e+03 5.217351150512695312e+01 2.287626838684082031e+01 -7.706870790570974350e-03 2.235742285847663879e-03 -1.641338574700057507e-03 -2.370297152083367109e-04
6.897000000000000000e+03 5.262594604492187500e+01 2.401648712158203125e+01 -6.765642203390598297e-03 1.774856122210621834e-03 -1.497235847637057304e-03 -5.358217167668044567e-04
6.898000000000000000e+03 5.431489181518554688e+01 2.414550781250000000e+01 -6.119219120591878891e-03 1.900981529615819454e-03 -1.265471219085156918e-03 7.784939953126013279e-05
6.899000000000000000e+03 4.261168289184570312e+01 1.417012691497802734e+01 -2.765165083110332489e-02 8.749494329094886780e-03 -5.670646671205759048e-03 3.649874590337276459e-03
6.900000000000000000e+03 4.304138946533203125e+01 1.485152149200439453e+01 -2.613304182887077332e-02 8.112436160445213318e-03 -5.406181327998638153e-03 1.651181140914559364e-03
6.901000000000000000e+03 4.110845947265625000e+01 1.298458385467529297e+01 -3.300869464874267578e-02 1.026989240199327469e-02 -6.821640301495790482e-03 7.030938286334276199e-03
6.902000000000000000e+03 4.181331634521484375e+01 1.241879367828369141e+01 -2.820638567209243774e-02 1.094192173331975937e-02 -5.179339088499546051e-03 1.075383089482784271e-02
6.903000000000000000e+03 5.280572509765625000e+01 2.351321601867675781e+01 -7.058080285787582397e-03 2.067915396764874458e-03 -1.497049466706812382e-03 -2.388475550105795264e-04
6.904000000000000000e+03 4.532787704467773438e+01 1.757309341430664062e+01 -1.803256943821907043e-02 4.463918972760438919e-03 -4.070595372468233109e-03 -1.456582103855907917e-03
6.905000000000000000e+03 4.573084259033203125e+01 1.775646209716796875e+01 -1.722728274762630463e-02 4.783780779689550400e-03 -3.733050776645541191e-03 -1.176833175122737885e-03
6.906000000000000000e+03 4.605700683593750000e+01 1.833443641662597656e+01 -1.603338867425918579e-02 3.888125997036695480e-03 -3.643578616902232170e-03 -1.596886198967695236e-03
6.907000000000000000e+03 5.399607086181640625e+01 2.377981567382812500e+01 -6.409508176147937775e-03 1.957776723429560661e-03 -1.335519482381641865e-03 9.993911953642964363e-05
6.908000000000000000e+03 4.862701034545898438e+01 2.064164543151855469e+01 -1.141318865120410919e-02 2.827777294442057610e-03 -2.575623337179422379e-03 -1.200818456709384918e-03
6.909000000000000000e+03 4.948234939575195312e+01 2.116047859191894531e+01 -1.038934849202632904e-02 2.657649572938680649e-03 -2.319509629160165787e-03 -9.388449252583086491e-04
6.910000000000000000e+03 4.479653549194335938e+01 1.714010047912597656e+01 -1.940182782709598541e-02 4.853198770433664322e-03 -4.364588763564825058e-03 -1.548106200061738491e-03
6.911000000000000000e+03 4.451388549804687500e+01 1.598200035095214844e+01 -2.094615995883941650e-02 6.578206550329923630e-03 -4.310386255383491516e-03 4.425166407600045204e-04
6.912000000000000000e+03 4.230158233642578125e+01 1.392666721343994141e+01 -2.829525806009769440e-02 9.520798921585083008e-03 -5.632337648421525955e-03 3.902460681274533272e-03
6.913000000000000000e+03 4.867588043212890625e+01 2.013750457763671875e+01 -1.179606094956398010e-02 3.165819216519594193e-03 -2.589072566479444504e-03 -7.804383640177547932e-04
6.914000000000000000e+03 4.921364593505859375e+01 2.018593025207519531e+01 -1.135060563683509827e-02 3.308701561763882637e-03 -2.412571106106042862e-03 -4.383063060231506824e-04
6.915000000000000000e+03 3.962294387817382812e+01 1.037406921386718750e+01 -2.810916490852832794e-02 1.117488835006952286e-02 -5.080282688140869141e-03 2.545990608632564545e-02
6.916000000000000000e+03 4.161403274536132812e+01 1.163114738464355469e+01 -2.547254972159862518e-02 1.102332863956689835e-02 -4.334765952080488205e-03 1.497339364141225815e-02
6.917000000000000000e+03 3.059934425354003906e+01 1.458213925361633301e+00 2.545392699539661407e-02 9.242226183414459229e-02 3.536285832524299622e-02 -2.913959883153438568e-02
6.918000000000000000e+03 4.108769226074218750e+01 1.163331985473632812e+01 -2.862301841378211975e-02 1.093215402215719223e-02 -5.307259038090705872e-03 1.511812862008810043e-02
6.919000000000000000e+03 5.079297637939453125e+01 2.298920440673828125e+01 -8.153097704052925110e-03 1.960973022505640984e-03 -1.857637544162571430e-03 -1.002502976916730404e-03
6.920000000000000000e+03 5.010997772216796875e+01 2.267110443115234375e+01 -8.759564720094203949e-03 1.909669139422476292e-03 -2.054968848824501038e-03 -1.318603754043579102e-03
6.921000000000000000e+03 5.397782135009765625e+01 2.445935058593750000e+01 -6.056784186512231827e-03 1.740251085720956326e-03 -1.294960035011172295e-03 -1.061175789800472558e-04
6.922000000000000000e+03 3.410006332397460938e+01 1.907018065452575684e+00 6.324587017297744751e-02 3.576707094907760620e-02 2.970388159155845642e-02 -5.087240040302276611e-02
6.923000000000000000e+03 3.392636108398437500e+01 2.342886209487915039e+00 7.339549064636230469e-02 3.597510606050491333e-02 3.281117975711822510e-02 -5.167737603187561035e-02
6.924000000000000000e+03 5.005499267578125000e+01 2.094721603393554688e+01 -1.021772902458906174e-02 2.914093201979994774e-03 -2.191090723499655724e-03 -3.793906071223318577e-04
6.925000000000000000e+03 3.922522735595703125e+01 9.269377708435058594e+00 -1.318725850433111191e-02 6.480086129158735275e-03 -2.012151759117841721e-03 3.201943263411521912e-02
6.926000000000000000e+03 4.113754272460937500e+01 1.116940212249755859e+01 -2.517784945666790009e-02 1.124458760023117065e-02 -4.179978743195533752e-03 1.728438958525657654e-02
6.927000000000000000e+03 3.898636627197265625e+01 8.840737342834472656e+00 -6.872203666716814041e-03 4.968538880348205566e-03 -5.710994009859859943e-04 3.513335436582565308e-02
6.928000000000000000e+03 3.772883605957031250e+01 3.627796173095703125e-01 3.877761214971542358e-02 1.254307571798563004e-02 1.539620663970708847e-02 -2.687849663197994232e-02
6.929000000000000000e+03 3.956095886230468750e+01 9.638793945312500000e+00 -1.778541877865791321e-02 8.186163380742073059e-03 -2.879776526242494583e-03 2.943154238164424896e-02
6.930000000000000000e+03 5.757629013061523438e+01 2.203487777709960938e+01 -5.648429039865732193e-03 2.156362170353531837e-03 -1.047620084136724472e-03 1.857311232015490532e-03
6.931000000000000000e+03 5.436429977416992188e+01 2.481662559509277344e+01 -5.711928009986877441e-03 1.668907585553824902e-03 -1.212906208820641041e-03 -1.001370546873658895e-04
6.932000000000000000e+03 4.409880447387695312e+01 1.519648075103759766e+01 -2.255246229469776154e-02 7.543900981545448303e-03 -4.502568393945693970e-03 1.697868341580033302e-03
6.933000000000000000e+03 4.483199691772460938e+01 1.666924858093261719e+01 -1.981105655431747437e-02 5.730944219976663589e-03 -4.224033560603857040e-03 -6.537095177918672562e-04
6.934000000000000000e+03 4.699934768676757812e+01 1.848787498474121094e+01 -1.480798702687025070e-02 4.185763653367757797e-03 -3.186666872352361679e-03 -7.839379832148551941e-04
6.935000000000000000e+03 3.681103515625000000e+01 4.027527809143066406e+00 7.446757704019546509e-02 -8.707053028047084808e-03 1.972815766930580139e-02 -7.584514562040567398e-03
6.936000000000000000e+03 3.706477355957031250e+01 4.492938518524169922e+00 7.146369665861129761e-02 -1.373895350843667984e-02 1.731742173433303833e-02 9.784298017621040344e-04
6.937000000000000000e+03 5.145968627929687500e+01 2.256071281433105469e+01 -8.214717730879783630e-03 2.256467007100582123e-03 -1.787475077435374260e-03 -4.997890209779143333e-04
6.938000000000000000e+03 3.672333526611328125e+01 5.802450776100158691e-01 4.255387187004089355e-02 1.719770766794681549e-02 1.792547479271888733e-02 -3.228915855288505554e-02
6.939000000000000000e+03 5.769880676269531250e+01 2.274150657653808594e+01 -5.417746957391500473e-03 1.979078399017453194e-03 -1.031600520946085453e-03 1.576788024976849556e-03
6.940000000000000000e+03 3.630509567260742188e+01 1.068210124969482422e+00 4.786442592740058899e-02 1.675567030906677246e-02 1.938602887094020844e-02 -3.390682861208915710e-02
6.941000000000000000e+03 5.469534301757812500e+01 2.439578819274902344e+01 -5.849162582308053970e-03 1.788176828995347023e-03 -1.218295772559940815e-03 1.581192482262849808e-04
6.942000000000000000e+03 5.831168746948242188e+01 2.253977966308593750e+01 -5.191873759031295776e-03 1.903924508951604366e-03 -9.863846935331821442e-04 1.762657193467020988e-03
6.943000000000000000e+03 3.401099014282226562e+01 1.279109716415405273e+00 5.021175742149353027e-02 4.009942337870597839e-02 2.709335461258888245e-02 -4.837400466203689575e-02
6.944000000000000000e+03 6.225485992431640625e+01 1.942725372314453125e+01 -3.919247072190046310e-03 1.144796842709183693e-03 -8.323350921273231506e-04 3.428231924772262573e-03
6.945000000000000000e+03 3.552593994140625000e+01 1.134194016456604004e+00 5.089405924081802368e-02 2.210473455488681793e-02 2.189963869750499725e-02 -3.911013528704643250e-02
6.946000000000000000e+03 6.268775558471679688e+01 2.020997047424316406e+01 -3.692934522405266762e-03 9.562443010509014130e-04 -8.210070664063096046e-04 3.146029310300946236e-03
6.947000000000000000e+03 6.031022644042968750e+01 2.199100494384765625e+01 -4.476407077163457870e-03 1.529031433165073395e-03 -8.842126699164509773e-04 2.331825438886880875e-03
6.948000000000000000e+03 3.721600341796875000e+01 7.167428016662597656e+00 3.495742753148078918e-02 -8.244328200817108154e-03 8.013929240405559540e-03 4.138747602701187134e-02
6.949000000000000000e+03 3.878330993652343750e+01 8.387636184692382812e+00 7.863626815378665924e-04 9.594867005944252014e-04 5.237548029981553555e-04 3.584117069840431213e-02
6.950000000000000000e+03 3.992214584350585938e+01 -1.179654121398925781e+00 2.479121834039688110e-02 1.183318998664617538e-02 1.098732277750968933e-02 -1.963851973414421082e-02
6.951000000000000000e+03 4.086033630371093750e+01 2.606825232505798340e-01 2.984426170587539673e-02 4.546269774436950684e-03 1.031715981662273407e-02 -1.307429093867540359e-02
6.952000000000000000e+03 6.218288040161132812e+01 9.807232856750488281e+00 -1.827500294893980026e-03 1.048402191372588277e-04 -5.167979979887604713e-04 6.652552168816328049e-03
6.953000000000000000e+03 6.198078155517578125e+01 1.103840541839599609e+01 -2.346305176615715027e-03 3.948581870645284653e-04 -5.854340852238237858e-04 6.409616209566593170e-03
6.954000000000000000e+03 6.022661972045898438e+01 2.127076911926269531e+01 -4.629726056009531021e-03 1.641861163079738617e-03 -8.963594445958733559e-04 2.582207787781953812e-03
6.955000000000000000e+03 6.496973419189453125e+01 1.345479679107666016e+01 -2.312601776793599129e-03 -4.480394127313047647e-04 -8.281923946924507618e-04 5.302164237946271896e-03
6.956000000000000000e+03 6.338795471191406250e+01 1.319123458862304688e+01 -2.673857845366001129e-03 1.554132904857397079e-04 -7.555334013886749744e-04 5.635905079543590546e-03
6.957000000000000000e+03 6.207835769653320312e+01 8.961978912353515625e+00 -1.525744795799255371e-03 -2.656394599398481660e-06 -4.585203714668750763e-04 6.750423461198806763e-03
6.958000000000000000e+03 6.429699707031250000e+01 1.761390876770019531e+01 -3.041106043383479118e-03 3.322790726087987423e-04 -8.126480970531702042e-04 4.072782117873430252e-03
6.959000000000000000e+03 5.949750137329101562e+01 2.146977996826171875e+01 -4.908466711640357971e-03 1.795296557247638702e-03 -9.339510579593479633e-04 2.424304839223623276e-03
6.960000000000000000e+03 6.095903396606445312e+01 -7.162435054779052734e+00 2.227589255198836327e-03 8.525210432708263397e-04 9.240330546163022518e-04 3.783042775467038155e-03
6.961000000000000000e+03 6.205166625976562500e+01 -1.607988595962524414e+00 1.844857935793697834e-03 -9.590860572643578053e-04 2.657315635588020086e-04 5.461235530674457550e-03
6.962000000000000000e+03 6.462566375732421875e+01 1.644871902465820312e+01 -2.852194011211395264e-03 1.208441317430697381e-04 -8.194049587473273277e-04 4.424321465194225311e-03
6.963000000000000000e+03 6.430580902099609375e+01 1.565012550354003906e+01 -2.881809836253523827e-03 1.630744663998484612e-04 -8.156206458806991577e-04 4.741744603961706161e-03
6.964000000000000000e+03 3.924165344238281250e+01 2.743574976921081543e-01 3.530856221914291382e-02 6.899149622768163681e-03 1.266231294721364975e-02 -1.964611560106277466e-02
6.965000000000000000e+03 6.177800750732421875e+01 3.093637943267822266e+00 7.739055436104536057e-04 -8.095740340650081635e-04 -1.070054986485047266e-05 6.520763505250215530e-03
6.966000000000000000e+03 5.020530319213867188e+01 -9.773181915283203125e+00 3.992743324488401413e-03 1.290531456470489502e-02 5.069417413324117661e-03 -3.579276148229837418e-03
6.967000000000000000e+03 6.177891159057617188e+01 7.374684333801269531e+00 -8.617914863862097263e-04 -2.089009503833949566e-04 -3.212077426724135876e-04 6.918769795447587967e-03
6.968000000000000000e+03 4.890182113647460938e+01 -7.443802356719970703e+00 5.742808803915977478e-03 1.176355872303247452e-02 5.251910537481307983e-03 -4.685082472860813141e-03
6.969000000000000000e+03 5.056900787353515625e+01 -1.173428344726562500e+01 3.054716857150197029e-03 1.426845509558916092e-02 5.196951329708099365e-03 -3.371214028447866440e-03
6.970000000000000000e+03 4.901374435424804688e+01 -5.539738178253173828e+00 7.359216455370187759e-03 9.375139139592647552e-03 5.020306445658206940e-03 -3.883207915350794792e-03
6.971000000000000000e+03 6.156733703613281250e+01 -6.204957485198974609e+00 2.106742002069950104e-03 8.337457256857305765e-05 6.570349796675145626e-04 4.112754948437213898e-03
6.972000000000000000e+03 6.170348739624023438e+01 -7.701084136962890625e+00 2.106739440932869911e-03 3.460312727838754654e-04 7.358312141150236130e-04 3.773977281525731087e-03
6.973000000000000000e+03 5.433432388305664062e+01 -1.288966178894042969e+01 2.423977013677358627e-03 1.082285214215517044e-02 3.974048420786857605e-03 -5.456579383462667465e-04
6.974000000000000000e+03 5.141263961791992188e+01 -1.235310363769531250e+01 2.754780231043696404e-03 1.383395958691835403e-02 4.976621828973293304e-03 -2.758856862783432007e-03
6.975000000000000000e+03 6.384641265869140625e+01 1.868292999267578125e+01 -3.268046304583549500e-03 5.744256777688860893e-04 -8.080861880443990231e-04 3.716664155945181847e-03
6.976000000000000000e+03 4.717011260986328125e+01 -2.868969917297363281e+00 1.126023754477500916e-02 7.058334536850452423e-03 5.495571531355381012e-03 -4.297628533095121384e-03
6.977000000000000000e+03 4.718395614624023438e+01 -3.879431962966918945e+00 1.023312099277973175e-02 8.730315603315830231e-03 5.689030978828668594e-03 -5.259169265627861023e-03
6.978000000000000000e+03 5.924459075927734375e+01 -9.350598335266113281e+00 2.501995069906115532e-03 3.207511035725474358e-03 1.712851808406412601e-03 2.707349602133035660e-03
6.979000000000000000e+03 5.809722137451171875e+01 -1.182291126251220703e+01 2.230643993243575096e-03 5.714618135243654251e-03 2.383578568696975708e-03 1.713659032247960567e-03
6.980000000000000000e+03 6.038653945922851562e+01 -1.313849353790283203e+01 1.932030078023672104e-03 3.407583106309175491e-03 1.601884025149047375e-03 2.535744570195674896e-03
6.981000000000000000e+03 6.022027969360351562e+01 -1.187660408020019531e+01 1.961510162800550461e-03 3.178717335686087608e-03 1.542068202979862690e-03 2.577546751126646996e-03
6.982000000000000000e+03 6.170646286010742188e+01 5.858575820922851562e+00 -2.427834406262263656e-04 -4.255087987985461950e-04 -2.004876732826232910e-04 6.907485425472259521e-03
6.983000000000000000e+03 6.215151596069335938e+01 -8.444926261901855469e+00 1.988444477319717407e-03 1.170186078525148332e-04 6.316389190033078194e-04 3.778142854571342468e-03
6.984000000000000000e+03 6.135027313232421875e+01 -8.516137123107910156e+00 2.112702932208776474e-03 9.511641110293567181e-04 9.191601420752704144e-04 3.533359151333570480e-03
6.985000000000000000e+03 6.114553070068359375e+01 -2.587697029113769531e+00 2.189913764595985413e-03 -2.839542867150157690e-04 5.717878229916095734e-04 5.049212370067834854e-03
6.986000000000000000e+03 6.041623306274414062e+01 -3.726190328598022461e+00 2.489916747435927391e-03 4.669283807743340731e-04 8.870535530149936676e-04 4.602883011102676392e-03
6.987000000000000000e+03 6.127360534667968750e+01 -4.764442443847656250e-01 1.868320629000663757e-03 -5.487414309754967690e-04 3.958737652283161879e-04 5.672626662999391556e-03
6.988000000000000000e+03 6.080058670043945312e+01 5.086780548095703125e+00 2.022324042627587914e-04 -1.319023431278765202e-04 2.109902015945408493e-05 6.999478675425052643e-03
6.989000000000000000e+03 5.698756408691406250e+01 -1.787212753295898438e+01 2.054558135569095612e-03 9.902449324727058411e-03 3.587102284654974937e-03 8.198924479074776173e-04
6.990000000000000000e+03 6.171638870239257812e+01 -2.347497177124023438e+01 2.092759823426604271e-03 4.114991053938865662e-03 1.862325356341898441e-03 1.697923988103866577e-03
6.991000000000000000e+03 5.693053054809570312e+01 -1.961140441894531250e+01 2.056108089163899422e-03 1.090029068291187286e-02 3.886919468641281128e-03 7.432079291902482510e-04
6.992000000000000000e+03 5.409770584106445312e+01 -1.760206222534179688e+01 2.082725521177053452e-03 1.409871969372034073e-02 4.854433704167604446e-03 -7.557979552075266838e-04
6.993000000000000000e+03 5.892405319213867188e+01 -2.571335601806640625e+01 2.993317088112235069e-03 9.248082526028156281e-03 3.672419814392924309e-03 4.354479315225034952e-04
6.994000000000000000e+03 4.769796371459960938e+01 1.707896614074707031e+01 -1.484738104045391083e-02 5.382023286074399948e-03 -2.839607186615467072e-03 1.658345106989145279e-03
6.995000000000000000e+03 4.823593902587890625e+01 1.949547004699707031e+01 -1.274380832910537720e-02 3.505937987938523293e-03 -2.771361032500863075e-03 -6.337221129797399044e-04
6.996000000000000000e+03 4.501580429077148438e+01 1.620125198364257812e+01 -1.996891386806964874e-02 6.121344864368438721e-03 -4.154270514845848083e-03 7.359526352956891060e-04
6.997000000000000000e+03 4.877156066894531250e+01 1.962401199340820312e+01 -1.211439166218042374e-02 3.617913229390978813e-03 -2.548943739384412766e-03 -3.406781470403075218e-04
6.998000000000000000e+03 4.224688339233398438e+01 1.231025123596191406e+01 -2.565007843077182770e-02 1.019801013171672821e-02 -4.635620396584272385e-03 1.117377169430255890e-02
6.999000000000000000e+03 4.285843658447265625e+01 1.450527858734130859e+01 -2.634436637163162231e-02 8.549238555133342743e-03 -5.338537972420454025e-03 2.482919255271553993e-03
7.000000000000000000e+03 4.416128921508789062e+01 1.461320018768310547e+01 -2.254550531506538391e-02 8.007870055735111237e-03 -4.361290950328111649e-03 3.832844318822026253e-03
7.001000000000000000e+03 4.323652267456054688e+01 1.430653572082519531e+01 -2.546626701951026917e-02 8.599464781582355499e-03 -5.060040391981601715e-03 3.764722263440489769e-03
7.002000000000000000e+03 4.610103607177734375e+01 1.754992675781250000e+01 -1.696647517383098602e-02 4.782685544341802597e-03 -3.655136562883853912e-03 -4.624196735676378012e-04
7.003000000000000000e+03 4.037305068969726562e+01 9.506419181823730469e+00 -1.372988428920507431e-02 6.572670303285121918e-03 -2.147164195775985718e-03 2.649623341858386993e-02
7.004000000000000000e+03 3.999538421630859375e+01 9.942017555236816406e+00 -1.972759328782558441e-02 9.277929551899433136e-03 -3.134898841381072998e-03 2.663610316812992096e-02
7.005000000000000000e+03 5.327183532714843750e+01 2.377206420898437500e+01 -6.702152080833911896e-03 1.942184986546635628e-03 -1.427990151569247246e-03 -1.513084716862067580e-04
7.006000000000000000e+03 4.338243484497070312e+01 1.471953105926513672e+01 -2.464615367352962494e-02 7.977326400578022003e-03 -5.000648088753223419e-03 2.243666676804423332e-03
7.007000000000000000e+03 4.775220108032226562e+01 1.920915603637695312e+01 -1.334241311997175217e-02 3.733923658728599548e-03 -2.882546745240688324e-03 -8.186262566596269608e-04
7.008000000000000000e+03 5.318343353271484375e+01 2.304697227478027344e+01 -7.183465175330638885e-03 2.216079505160450935e-03 -1.490215770900249481e-03 8.187953062588348985e-05
7.009000000000000000e+03 4.929777526855468750e+01 1.969372367858886719e+01 -1.162871904671192169e-02 3.582060104236006737e-03 -2.413997659459710121e-03 -2.923906095020356588e-06
7.010000000000000000e+03 4.536344146728515625e+01 1.717317008972167969e+01 -1.835182122886180878e-02 5.175662226974964142e-03 -3.952847793698310852e-03 -6.968820816837251186e-04
7.011000000000000000e+03 5.371944046020507812e+01 2.268344306945800781e+01 -7.143339607864618301e-03 2.420861506834626198e-03 -1.416743500158190727e-03 4.500315408222377300e-04
7.012000000000000000e+03 4.202774047851562500e+01 1.372119617462158203e+01 -3.002317808568477631e-02 9.573896415531635284e-03 -6.134784314781427383e-03 4.984824452549219131e-03
7.013000000000000000e+03 5.023912811279296875e+01 2.231721687316894531e+01 -8.972281590104103088e-03 2.191664651036262512e-03 -2.034185221418738365e-03 -1.046780729666352272e-03
7.014000000000000000e+03 4.240951538085937500e+01 1.267877292633056641e+01 -2.618511579930782318e-02 1.012734789401292801e-02 -4.817329812794923782e-03 9.667695499956607819e-03
7.015000000000000000e+03 4.053554534912109375e+01 1.174742984771728516e+01 -3.188607096672058105e-02 1.163775660097599030e-02 -6.074494682252407074e-03 1.508006546646356583e-02
7.016000000000000000e+03 4.025789260864257812e+01 1.132638835906982422e+01 -3.117252327501773834e-02 1.214812044054269791e-02 -5.707321222871541977e-03 1.720865443348884583e-02
7.017000000000000000e+03 3.736256027221679688e+01 4.943834304809570312e+00 6.615788489580154419e-02 -1.348733808845281601e-02 1.580116339027881622e-02 9.240078739821910858e-03
7.018000000000000000e+03 5.091872787475585938e+01 2.254174041748046875e+01 -8.457320742309093475e-03 2.177570713683962822e-03 -1.883925171568989754e-03 -7.684050360694527626e-04
7.019000000000000000e+03 5.046679687500000000e+01 2.258280181884765625e+01 -8.717995136976242065e-03 2.088458510115742683e-03 -1.988861011341214180e-03 -9.956673020496964455e-04
7.020000000000000000e+03 3.594745635986328125e+01 1.504623413085937500e+00 5.673219263553619385e-02 1.643235236406326294e-02 2.194936387240886688e-02 -3.591896221041679382e-02
7.021000000000000000e+03 3.653813171386718750e+01 2.937479972839355469e+00 7.081560790538787842e-02 8.903917478164657950e-05 2.127139270305633545e-02 -2.284288033843040466e-02
7.022000000000000000e+03 3.437551116943359375e+01 1.580669164657592773e+00 5.798066407442092896e-02 3.437132388353347778e-02 2.770559675991535187e-02 -4.739272594451904297e-02
7.023000000000000000e+03 3.789390945434570312e+01 7.591672420501708984e+00 2.023372240364551544e-02 -3.611980238929390907e-03 4.986522719264030457e-03 4.022250324487686157e-02
7.024000000000000000e+03 4.464565277099609375e+01 1.510056591033935547e+01 -2.108997106552124023e-02 7.295120973140001297e-03 -4.138454794883728027e-03 2.686744090169668198e-03
7.025000000000000000e+03 4.200542449951171875e+01 1.124097061157226562e+01 -2.221642620861530304e-02 1.015319488942623138e-02 -3.618969349190592766e-03 1.605627499520778656e-02
7.026000000000000000e+03 4.067421722412109375e+01 -7.976703643798828125e-01 2.557971701025962830e-02 8.743428625166416168e-03 1.029694359749555588e-02 -1.640373095870018005e-02
7.027000000000000000e+03 5.571353149414062500e+01 2.341193580627441406e+01 -5.975536536425352097e-03 2.061913954094052315e-03 -1.174086821265518665e-03 8.226141217164695263e-04
7.028000000000000000e+03 4.721440124511718750e+01 1.805471229553222656e+01 -1.496268901973962784e-02 4.481834359467029572e-03 -3.144256537780165672e-03 -8.408484973188024014e-06
7.029000000000000000e+03 4.845637512207031250e+01 1.897449493408203125e+01 -1.288272347301244736e-02 4.085116088390350342e-03 -2.639282029122114182e-03 2.468252205289900303e-06
7.030000000000000000e+03 5.281320190429687500e+01 2.259388351440429688e+01 -7.565125823020935059e-03 2.415097784250974655e-03 -1.545008504763245583e-03 1.050935097737237811e-04
7.031000000000000000e+03 3.539336395263671875e+01 2.651350021362304688e+00 7.377884536981582642e-02 1.031814608722925186e-02 2.522909641265869141e-02 -3.612485900521278381e-02
7.032000000000000000e+03 3.448831176757812500e+01 1.975411891937255859e+00 6.438469886779785156e-02 2.914261072874069214e-02 2.805819176137447357e-02 -4.656733945012092590e-02
7.033000000000000000e+03 3.700373077392578125e+01 6.677232265472412109e+00 4.832559823989868164e-02 -1.469206903129816055e-02 1.009005773812532425e-02 3.594997897744178772e-02
7.034000000000000000e+03 3.686365890502929688e+01 5.966139316558837891e+00 6.648726016283035278e-02 -1.854565553367137909e-02 1.438248064368963242e-02 2.586456947028636932e-02
7.035000000000000000e+03 4.913063049316406250e+01 2.066288948059082031e+01 -1.103006210178136826e-02 2.911244984716176987e-03 -2.435645088553428650e-03 -8.199934964068233967e-04
7.036000000000000000e+03 5.046919250488281250e+01 2.188732719421386719e+01 -9.220532141625881195e-03 2.432412002235651016e-03 -2.036435995250940323e-03 -6.997795426286756992e-04
7.037000000000000000e+03 5.471183776855468750e+01 2.394483757019042969e+01 -6.063899025321006775e-03 1.923641772009432316e-03 -1.242077210918068886e-03 2.967589534819126129e-04
7.038000000000000000e+03 4.939937210083007812e+01 2.156478881835937500e+01 -1.011211425065994263e-02 2.424982842057943344e-03 -2.306139562278985977e-03 -1.197814824990928173e-03
7.039000000000000000e+03 3.730602264404296875e+01 9.663278460502624512e-01 4.543046280741691589e-02 1.083482056856155396e-02 1.687958464026451111e-02 -2.798303216695785522e-02
7.040000000000000000e+03 5.697924041748046875e+01 2.218971824645996094e+01 -5.864849779754877090e-03 2.212721388787031174e-03 -1.095638494007289410e-03 1.658464432694017887e-03
7.041000000000000000e+03 5.745140457153320312e+01 2.138593292236328125e+01 -5.833934061229228973e-03 2.288731280714273453e-03 -1.063560834154486656e-03 2.180174225941300392e-03
7.042000000000000000e+03 4.013835906982421875e+01 1.064421176910400391e+01 -2.666781097650527954e-02 1.140951551496982574e-02 -4.577488638460636139e-03 2.180840075016021729e-02
7.043000000000000000e+03 3.859341049194335938e+01 7.922105789184570312e+00 1.027272548526525497e-02 -5.678231827914714813e-04 2.911470597609877586e-03 3.681242465972900391e-02
7.044000000000000000e+03 3.559983062744140625e+01 1.951465725898742676e+00 6.285759061574935913e-02 1.459794584661722183e-02 2.323666214942932129e-02 -3.702510520815849304e-02
7.045000000000000000e+03 6.073246765136718750e+01 2.025728797912597656e+01 -4.479339346289634705e-03 1.562309334985911846e-03 -8.751089917495846748e-04 3.077858593314886093e-03
7.046000000000000000e+03 6.190065765380859375e+01 2.073027801513671875e+01 -3.982063848525285721e-03 1.204149099066853523e-03 -8.333743899129331112e-04 2.916553989052772522e-03
7.047000000000000000e+03 4.022686004638671875e+01 -1.777244061231613159e-01 2.965481393039226532e-02 7.072662934660911560e-03 1.101824268698692322e-02 -1.664717309176921844e-02
7.048000000000000000e+03 3.766782379150390625e+01 4.248513698577880859e+00 6.364692747592926025e-02 -1.026354078203439713e-02 1.601501554250717163e-02 5.530369817279279232e-04
7.049000000000000000e+03 3.986114883422851562e+01 4.267555475234985352e-01 3.345734253525733948e-02 5.190285388380289078e-03 1.159428898245096207e-02 -1.622994430363178253e-02
7.050000000000000000e+03 3.709677124023437500e+01 2.187309741973876953e+00 5.850860103964805603e-02 4.101756028831005096e-03 1.878310739994049072e-02 -2.393811941146850586e-02
7.051000000000000000e+03 3.720479202270507812e+01 5.608491897583007812e+00 6.397356837987899780e-02 -1.522699464112520218e-02 1.462397165596485138e-02 1.998595893383026123e-02
7.052000000000000000e+03 4.962777709960937500e+01 -6.557480335235595703e+00 6.352410651743412018e-03 1.004763040691614151e-02 4.920012317597866058e-03 -3.526332788169384003e-03
7.053000000000000000e+03 6.113901519775390625e+01 8.840018272399902344e+00 -1.544016879051923752e-03 2.930957707576453686e-04 -3.752763150259852409e-04 6.969321053475141525e-03
7.054000000000000000e+03 6.066224288940429688e+01 1.103622055053710938e+01 -2.642640611156821251e-03 9.922805475071072578e-04 -4.951080190949141979e-04 6.667100358754396439e-03
7.055000000000000000e+03 4.976178741455078125e+01 -8.185763359069824219e+00 4.991957452148199081e-03 1.175454538315534592e-02 5.023950710892677307e-03 -3.755900077521800995e-03
7.056000000000000000e+03 6.349079132080078125e+01 1.404467391967773438e+01 -2.809216035529971123e-03 2.094018855132162571e-04 -7.799442391842603683e-04 5.362047813832759857e-03
7.057000000000000000e+03 4.509515762329101562e+01 -1.330155968666076660e+00 1.611652970314025879e-02 5.520461127161979675e-03 6.491097155958414078e-03 -5.703565664589405060e-03
7.058000000000000000e+03 3.908089828491210938e+01 8.168908357620239258e-01 3.802136331796646118e-02 4.985168110579252243e-03 1.290195994079113007e-02 -1.792364567518234253e-02
7.059000000000000000e+03 3.726819229125976562e+01 3.314196586608886719e+00 6.526992470026016235e-02 -4.495502449572086334e-03 1.823232695460319519e-02 -1.313008181750774384e-02
7.060000000000000000e+03 5.819350814819335938e+01 2.185515022277832031e+01 -5.409032106399536133e-03 2.043863292783498764e-03 -1.009550760500133038e-03 2.069593640044331551e-03
7.061000000000000000e+03 6.218891906738281250e+01 1.282751369476318359e+01 -2.924280473962426186e-03 6.087609799578785896e-04 -6.946558132767677307e-04 5.927269812673330307e-03
7.062000000000000000e+03 6.252774810791015625e+01 1.172119140625000000e+01 -2.478398149833083153e-03 2.737076429184526205e-04 -6.614071899093687534e-04 6.183227989822626114e-03
7.063000000000000000e+03 4.266893005371093750e+01 -1.622916460037231445e-01 2.301876991987228394e-02 4.179727751761674881e-03 8.159549906849861145e-03 -8.804086595773696899e-03
7.064000000000000000e+03 6.340983963012695312e+01 1.973749542236328125e+01 -3.442441113293170929e-03 7.580523379147052765e-04 -8.053166093304753304e-04 3.337784670293331146e-03
7.065000000000000000e+03 4.602951049804687500e+01 -2.052301645278930664e+00 1.374478079378604889e-02 6.304465234279632568e-03 6.014773622155189514e-03 -5.185859743505716324e-03
7.066000000000000000e+03 6.353841018676757812e+01 1.797349739074707031e+01 -3.365983953699469566e-03 6.444822647608816624e-04 -8.164505125023424625e-04 4.004774149507284164e-03
7.067000000000000000e+03 5.882629394531250000e+01 2.166448402404785156e+01 -5.157216452062129974e-03 1.934274216182529926e-03 -9.668826824054121971e-04 2.222322160378098488e-03
7.068000000000000000e+03 6.179710006713867188e+01 1.024926424026489258e+00 1.376743428409099579e-03 -8.655723650008440018e-04 1.533513423055410385e-04 6.099402438849210739e-03
7.069000000000000000e+03 6.255168151855468750e+01 1.427367448806762695e+00 1.063663046807050705e-03 -1.387715805321931839e-03 -9.721583046484738588e-05 6.186137441545724869e-03
7.070000000000000000e+03 4.839842605590820312e+01 -3.878443002700805664e+00 9.214624762535095215e-03 7.728644646704196930e-03 5.082980729639530182e-03 -3.567492822185158730e-03
7.071000000000000000e+03 6.094366073608398438e+01 6.608902454376220703e+00 -5.179847357794642448e-04 -9.132763807429000735e-06 -1.581352407811209559e-04 7.093405816704034805e-03
7.072000000000000000e+03 6.340299224853515625e+01 1.492287731170654297e+01 -3.054587403312325478e-03 4.162313998676836491e-04 -7.915068417787551880e-04 5.066677927970886230e-03
7.073000000000000000e+03 6.176876068115234375e+01 1.220863246917724609e+01 -2.820034511387348175e-03 6.934974226169288158e-04 -6.379611440934240818e-04 6.156871095299720764e-03
7.074000000000000000e+03 6.105042648315429688e+01 3.678739309310913086e+00 6.968694506213068962e-04 -4.240859125275164843e-04 8.183506724890321493e-05 6.738284602761268616e-03
7.075000000000000000e+03 6.186188507080078125e+01 1.853027582168579102e+00 1.149044372141361237e-03 -8.799981442280113697e-04 8.071385673247277737e-05 6.303721573203802109e-03
7.076000000000000000e+03 5.218432235717773438e+01 -8.877355575561523438e+00 4.195237532258033752e-03 1.010776311159133911e-02 4.290900193154811859e-03 -1.749566057696938515e-03
7.077000000000000000e+03 5.325430297851562500e+01 -1.301680850982666016e+01 2.605455229058861732e-03 1.213455758988857269e-02 4.422003868967294693e-03 -1.320874202065169811e-03
7.078000000000000000e+03 5.558642578125000000e+01 -1.291161823272705078e+01 2.488953527063131332e-03 9.236965328454971313e-03 3.517775796353816986e-03 2.137225819751620293e-04
7.079000000000000000e+03 6.025043106079101562e+01 7.342796802520751953e+00 -8.499626419506967068e-04 4.524821415543556213e-04 -1.192441632156260312e-04 7.183059118688106537e-03
7.080000000000000000e+03 6.048251724243164062e+01 -8.201525688171386719e+00 2.393089933320879936e-03 1.712563564069569111e-03 1.231695991009473801e-03 3.282667370513081551e-03
7.081000000000000000e+03 6.328049850463867188e+01 1.658803939819335938e+01 -3.322073956951498985e-03 6.273267790675163269e-04 -8.084241417236626148e-04 4.523253999650478363e-03
7.082000000000000000e+03 6.261086273193359375e+01 1.418762397766113281e+01 -3.150023054331541061e-03 6.449312204495072365e-04 -7.515275501646101475e-04 5.463606677949428558e-03
7.083000000000000000e+03 5.689499664306640625e+01 -1.463863468170166016e+01 2.199639799073338509e-03 8.517347276210784912e-03 3.215096192434430122e-03 8.503506542183458805e-04
7.084000000000000000e+03 5.555696105957031250e+01 -1.771674537658691406e+01 1.878626528196036816e-03 1.209863089025020599e-02 4.193177446722984314e-03 1.195635340991429985e-04
7.085000000000000000e+03 5.128890609741210938e+01 -9.005284309387207031e+00 4.242938943207263947e-03 1.114370394498109818e-02 4.615992773324251175e-03 -2.561859320849180222e-03
7.086000000000000000e+03 5.103949356079101562e+01 -6.891235351562500000e+00 5.647830199450254440e-03 9.161582216620445251e-03 4.442824050784111023e-03 -2.232963917776942253e-03
7.087000000000000000e+03 5.435490036010742188e+01 -1.441992282867431641e+01 2.258288208395242691e-03 1.168351061642169952e-02 4.182539880275726318e-03 -5.683520575985312462e-04
7.088000000000000000e+03 5.960505294799804688e+01 -1.618070602416992188e+01 1.781143248081207275e-03 5.558839999139308929e-03 2.201994881033897400e-03 1.860683783888816833e-03
7.089000000000000000e+03 5.998261260986328125e+01 -1.990888833999633789e+00 2.497120527550578117e-03 3.707382129505276680e-04 8.603575988672673702e-04 5.075653083622455597e-03
7.090000000000000000e+03 5.388061141967773438e+01 -1.153931999206542969e+01 2.957616467028856277e-03 1.012687291949987411e-02 3.925346769392490387e-03 -6.274066981859505177e-04
7.091000000000000000e+03 6.274734115600585938e+01 -2.829012298583984375e+01 2.250253222882747650e-03 2.986155916005373001e-03 1.570922788232564926e-03 1.012162771075963974e-03
7.092000000000000000e+03 5.840615844726562500e+01 -1.796462059020996094e+01 1.802328159101307392e-03 7.893773727118968964e-03 2.908830530941486359e-03 1.347803394310176373e-03
7.093000000000000000e+03 4.803630065917968750e+01 1.871768188476562500e+01 -1.353555917739868164e-02 4.103286191821098328e-03 -2.829681849107146263e-03 1.633828674130199943e-06
7.094000000000000000e+03 4.487262344360351562e+01 1.552275276184082031e+01 -2.085343003273010254e-02 6.998145021498203278e-03 -4.156585782766342163e-03 1.934931962750852108e-03
7.095000000000000000e+03 4.344841384887695312e+01 1.266779422760009766e+01 -2.183318696916103363e-02 9.329780936241149902e-03 -3.751021577045321465e-03 9.425422176718711853e-03
7.096000000000000000e+03 4.347740936279296875e+01 1.368731975555419922e+01 -2.399906516075134277e-02 8.976713754236698151e-03 -4.506705328822135925e-03 6.125220097601413727e-03
7.097000000000000000e+03 4.214071273803710938e+01 1.194311618804931641e+01 -2.448006719350814819e-02 1.051162462681531906e-02 -4.190532956272363663e-03 1.295175682753324509e-02
7.098000000000000000e+03 4.673381423950195312e+01 1.788906478881835938e+01 -1.571464724838733673e-02 4.751505330204963684e-03 -3.288942389190196991e-03 -2.204933261964470148e-04
7.099000000000000000e+03 4.663385772705078125e+01 1.743033981323242188e+01 -1.616904512047767639e-02 5.148060619831085205e-03 -3.306295489892363548e-03 2.260521869175136089e-04
7.100000000000000000e+03 4.987813568115234375e+01 1.920351219177246094e+01 -1.146733481436967850e-02 3.980633802711963654e-03 -2.246010350063443184e-03 7.826972869224846363e-04
7.101000000000000000e+03 5.028954696655273438e+01 2.022883415222167969e+01 -1.053347252309322357e-02 3.405790310353040695e-03 -2.138304524123668671e-03 2.047231682809069753e-04
7.102000000000000000e+03 4.301475524902343750e+01 1.390466690063476562e+01 -2.568938210606575012e-02 9.150930680334568024e-03 -4.961535334587097168e-03 4.819435067474842072e-03
7.103000000000000000e+03 4.367799758911132812e+01 1.413497543334960938e+01 -2.358464710414409637e-02 8.572185412049293518e-03 -4.503738135099411011e-03 4.753631073981523514e-03
7.104000000000000000e+03 5.361978912353515625e+01 2.341340637207031250e+01 -6.752514746040105820e-03 2.126788720488548279e-03 -1.387717900797724724e-03 9.833572403294965625e-05
7.105000000000000000e+03 4.590776443481445312e+01 1.715639305114746094e+01 -1.745989359915256500e-02 5.233313422650098801e-03 -3.667974378913640976e-03 -1.932419691001996398e-04
7.106000000000000000e+03 4.236410903930664062e+01 1.358907318115234375e+01 -2.799884788691997528e-02 9.560752660036087036e-03 -5.531428381800651550e-03 5.480740685015916824e-03
7.107000000000000000e+03 4.216529846191406250e+01 1.321664524078369141e+01 -2.846383489668369293e-02 9.949686937034130096e-03 -5.554244387894868851e-03 7.116379216313362122e-03
7.108000000000000000e+03 4.259863281250000000e+01 1.305789947509765625e+01 -2.623213082551956177e-02 1.002872083336114883e-02 -4.861023277044296265e-03 8.109038695693016052e-03
7.109000000000000000e+03 4.278964996337890625e+01 1.347826385498046875e+01 -2.634056098759174347e-02 9.543989785015583038e-03 -5.038971081376075745e-03 6.441864650696516037e-03
7.110000000000000000e+03 5.425143814086914062e+01 2.237761116027832031e+01 -7.066601421684026718e-03 2.473620465025305748e-03 -1.377894310280680656e-03 7.765811751596629620e-04
7.111000000000000000e+03 5.441627502441406250e+01 2.350164222717285156e+01 -6.396067328751087189e-03 2.104160608723759651e-03 -1.287572085857391357e-03 3.675889165606349707e-04
7.112000000000000000e+03 4.528667068481445312e+01 1.578693771362304688e+01 -1.937516033649444580e-02 6.681134458631277084e-03 -3.808207809925079346e-03 1.609184197150170803e-03
7.113000000000000000e+03 5.007342529296875000e+01 2.171072387695312500e+01 -9.582827799022197723e-03 2.540978835895657539e-03 -2.112554619088768959e-03 -8.526192395947873592e-04
7.114000000000000000e+03 4.975967788696289062e+01 2.159911155700683594e+01 -9.900841861963272095e-03 2.470597391948103905e-03 -2.229073317721486092e-03 -9.840467246249318123e-04
7.115000000000000000e+03 4.168608856201171875e+01 1.201877307891845703e+01 -2.707747183740139008e-02 1.052573695778846741e-02 -4.965520463883876801e-03 1.283467281609773636e-02
7.116000000000000000e+03 4.905587768554687500e+01 2.111421585083007812e+01 -1.068002451211214066e-02 2.620421815663576126e-03 -2.417881041765213013e-03 -1.182195730507373810e-03
7.117000000000000000e+03 4.963401794433593750e+01 2.073018836975097656e+01 -1.060397271066904068e-02 3.044259967282414436e-03 -2.267913892865180969e-03 -5.257797893136739731e-04
7.118000000000000000e+03 5.197326278686523438e+01 2.236117172241210938e+01 -8.129939436912536621e-03 2.495746593922376633e-03 -1.690257922746241093e-03 -1.327031495748087764e-04
7.119000000000000000e+03 5.254297256469726562e+01 2.205350685119628906e+01 -8.073179051280021667e-03 2.618689788505434990e-03 -1.636346918530762196e-03 2.720319898799061775e-04
7.120000000000000000e+03 4.463545989990234375e+01 1.457300281524658203e+01 -2.128218673169612885e-02 8.126570843160152435e-03 -3.946684766560792923e-03 4.102498758584260941e-03
7.121000000000000000e+03 4.589110183715820312e+01 1.648567771911621094e+01 -1.807334274053573608e-02 5.858895368874073029e-03 -3.664334304630756378e-03 1.143787638284265995e-03
7.122000000000000000e+03 4.830210494995117188e+01 1.828394699096679688e+01 -1.341805700212717056e-02 4.577897954732179642e-03 -2.652047667652368546e-03 6.013262900523841381e-04
7.123000000000000000e+03 3.932092285156250000e+01 8.172819137573242188e+00 4.134535789489746094e-03 1.313530141487717628e-03 1.634419779293239117e-03 3.276965394616127014e-02
7.124000000000000000e+03 3.995997238159179688e+01 9.270863533020019531e+00 -1.118115615099668503e-02 6.442856974899768829e-03 -1.421489752829074860e-03 2.876280806958675385e-02
7.125000000000000000e+03 5.100866317749023438e+01 2.200255775451660156e+01 -8.866553194820880890e-03 2.534903818741440773e-03 -1.899494789540767670e-03 -4.367874062154442072e-04
7.126000000000000000e+03 5.173497009277343750e+01 2.154954147338867188e+01 -8.790224790573120117e-03 2.841572044417262077e-03 -1.784595777280628681e-03 1.555462076794356108e-04
7.127000000000000000e+03 4.128020095825195312e+01 1.006515407562255859e+01 -1.644192449748516083e-02 7.911616005003452301e-03 -2.559092361479997635e-03 2.185773849487304688e-02
7.128000000000000000e+03 3.646410369873046875e+01 1.606179237365722656e+00 5.597851425409317017e-02 1.175324432551860809e-02 2.031952701508998871e-02 -3.189369663596153259e-02
7.129000000000000000e+03 3.743704223632812500e+01 3.795986890792846680e+00 6.463569402694702148e-02 -9.511618874967098236e-03 1.653722301125526428e-02 -5.943950731307268143e-03
7.130000000000000000e+03 3.775917816162109375e+01 7.073678493499755859e+00 3.219244629144668579e-02 -1.033768709748983383e-02 6.556427571922540665e-03 3.707618266344070435e-02
7.131000000000000000e+03 3.841112136840820312e+01 7.449978828430175781e+00 1.991727016866207123e-02 -6.028505042195320129e-03 4.166629631072282791e-03 3.506903350353240967e-02
7.132000000000000000e+03 5.521401596069335938e+01 2.373208618164062500e+01 -5.990751087665557861e-03 2.005669986829161644e-03 -1.195524353533983231e-03 5.254996940493583679e-04
7.133000000000000000e+03 5.538144302368164062e+01 2.293563461303710938e+01 -6.318234372884035110e-03 2.258307998999953270e-03 -1.217977958731353283e-03 8.816908230073750019e-04
7.134000000000000000e+03 5.528598403930664062e+01 2.173318290710449219e+01 -6.812191568315029144e-03 2.569232136011123657e-03 -1.272887806408107281e-03 1.403187285177409649e-03
7.135000000000000000e+03 5.617105484008789062e+01 2.178328323364257812e+01 -6.361738778650760651e-03 2.437554067000746727e-03 -1.177255297079682350e-03 1.664067967794835567e-03
7.136000000000000000e+03 5.062572097778320312e+01 2.138447189331054688e+01 -9.509808383882045746e-03 2.819848479703068733e-03 -2.006988041102886200e-03 -3.004328755196183920e-04
7.137000000000000000e+03 5.680317687988281250e+01 2.153592681884765625e+01 -6.159861106425523758e-03 2.432838082313537598e-03 -1.118106883950531483e-03 1.921982737258076668e-03
7.138000000000000000e+03 3.819363403320312500e+01 6.125782489776611328e+00 4.335107281804084778e-02 -1.125942822545766830e-02 9.627493098378181458e-03 2.567759528756141663e-02
7.139000000000000000e+03 3.706445312500000000e+01 1.554481863975524902e+00 5.266801640391349792e-02 7.952789776027202606e-03 1.818624138832092285e-02 -2.765824459493160248e-02
7.140000000000000000e+03 4.062808609008789062e+01 1.093998050689697266e+01 -2.677065134048461914e-02 1.025347225368022919e-02 -4.955153446644544601e-03 1.930832676589488983e-02
7.141000000000000000e+03 4.046701812744140625e+01 1.021963405609130859e+01 -2.148622088134288788e-02 9.116774424910545349e-03 -3.710833610966801643e-03 2.349071763455867767e-02
7.142000000000000000e+03 3.788005828857421875e+01 6.601078510284423828e+00 3.969542309641838074e-02 -1.134660094976425171e-02 8.504645898938179016e-03 3.173107281327247620e-02
7.143000000000000000e+03 3.646132278442382812e+01 2.290778160095214844e+00 6.329222768545150757e-02 5.641054362058639526e-03 2.067998424172401428e-02 -2.817021124064922333e-02
7.144000000000000000e+03 3.841479492187500000e+01 6.915890574455261230e-01 3.993441909551620483e-02 7.706900127232074738e-03 1.429239567369222641e-02 -2.249193191528320312e-02
7.145000000000000000e+03 3.804270172119140625e+01 3.556535959243774414e+00 5.804330110549926758e-02 -6.940223276615142822e-03 1.533092278987169266e-02 -5.293106660246849060e-03
7.146000000000000000e+03 3.836315536499023438e+01 1.358296513557434082e+00 4.438491910696029663e-02 3.804527921602129936e-03 1.445683464407920837e-02 -1.961084268987178802e-02
7.147000000000000000e+03 6.273192214965820312e+01 1.828082466125488281e+01 -3.679336747154593468e-03 9.423888986930251122e-04 -8.210843661800026894e-04 3.898272756487131119e-03
7.148000000000000000e+03 6.328361892700195312e+01 1.728901672363281250e+01 -3.423031186684966087e-03 7.100328220985829830e-04 -8.138995035551488400e-04 4.237461369484663010e-03
7.149000000000000000e+03 5.870228195190429688e+01 2.099053382873535156e+01 -5.338764283806085587e-03 2.056284109130501747e-03 -9.847440524026751518e-04 2.505628857761621475e-03
7.150000000000000000e+03 5.791595840454101562e+01 2.051469039916992188e+01 -5.774202756583690643e-03 2.320817438885569572e-03 -1.036015572026371956e-03 2.640625927597284317e-03
7.151000000000000000e+03 6.125240707397460938e+01 1.160961914062500000e+01 -2.742948709055781364e-03 7.967649726197123528e-04 -5.838550860062241554e-04 6.440400145947933197e-03
7.152000000000000000e+03 6.065308761596679688e+01 9.742214202880859375e+00 -2.036027144640684128e-03 7.189300958998501301e-04 -3.951291146222501993e-04 6.903711240738630295e-03
7.153000000000000000e+03 6.138315963745117188e+01 1.032570838928222656e+01 -2.195157110691070557e-03 5.050063482485711575e-04 -5.070452461950480938e-04 6.695899181067943573e-03
7.154000000000000000e+03 5.171333694458007812e+01 -6.455978393554687500e+00 5.455435719341039658e-03 8.290948346257209778e-03 4.123915452510118484e-03 -1.467045745812356472e-03
7.155000000000000000e+03 5.940729904174804688e+01 1.125141620635986328e+01 -3.063403768464922905e-03 1.569260726682841778e-03 -4.482429067138582468e-04 6.827332545071840286e-03
7.156000000000000000e+03 5.907252883911132812e+01 8.852359771728515625e+00 -1.764906570315361023e-03 1.255801878869533539e-03 -1.527314016129821539e-04 7.360707502812147141e-03
7.157000000000000000e+03 4.597713470458984375e+01 -1.212873697280883789e+00 1.472069416195154190e-02 5.178322084248065948e-03 5.969705060124397278e-03 -4.002677276730537415e-03
7.158000000000000000e+03 6.248350906372070312e+01 1.347634124755859375e+01 -3.007674124091863632e-03 5.891211912967264652e-04 -7.255658856593072414e-04 5.671626422554254532e-03
7.159000000000000000e+03 6.002745819091796875e+01 2.057836723327636719e+01 -4.773490596562623978e-03 1.737809157930314541e-03 -9.107043733820319176e-04 2.882984932512044907e-03
7.160000000000000000e+03 5.935251235961914062e+01 2.081289863586425781e+01 -5.085408221930265427e-03 1.937612774781882763e-03 -9.443386225029826164e-04 2.674374030902981758e-03
7.161000000000000000e+03 4.350165557861328125e+01 -4.622495472431182861e-01 2.049752324819564819e-02 5.064298398792743683e-03 7.668546400964260101e-03 -7.589151151478290558e-03
7.162000000000000000e+03 4.196985626220703125e+01 3.450690805912017822e-01 2.648133412003517151e-02 3.599056974053382874e-03 9.024117141962051392e-03 -9.269124828279018402e-03
7.163000000000000000e+03 5.973465347290039062e+01 3.276129066944122314e-01 2.118757460266351700e-03 2.040456893155351281e-04 6.968409288674592972e-04 5.846307147294282913e-03
7.164000000000000000e+03 6.114427566528320312e+01 2.339044570922851562e+00 1.173207070678472519e-03 -5.433973274193704128e-04 1.889429113361984491e-04 6.469347514212131500e-03
7.165000000000000000e+03 4.534870147705078125e+01 -6.453448534011840820e-02 1.666787452995777130e-02 3.418633015826344490e-03 6.025951821357011795e-03 -2.971128560602664948e-03
7.166000000000000000e+03 4.834905624389648438e+01 -2.725412368774414062e+00 1.011009886860847473e-02 6.527387537062168121e-03 4.991245921701192856e-03 -2.531927078962326050e-03
7.167000000000000000e+03 4.711204910278320312e+01 -1.855523467063903809e+00 1.238277927041053772e-02 5.885851103812456131e-03 5.480589345097541809e-03 -3.238160861656069756e-03
7.168000000000000000e+03 6.043912506103515625e+01 1.837816047668457031e+01 -4.656656645238399506e-03 1.723222434520721436e-03 -8.800302166491746902e-04 3.906344994902610779e-03
7.169000000000000000e+03 6.000764846801757812e+01 5.883539199829101562e+00 -7.606092549394816160e-05 3.245707484893500805e-04 7.455294689862057567e-05 7.156344596296548843e-03
7.170000000000000000e+03 6.035449218750000000e+01 1.698506236076354980e+00 1.555626746267080307e-03 -1.516959309810772538e-04 4.211792547721415758e-04 6.273233797401189804e-03
7.171000000000000000e+03 5.228483581542968750e+01 -9.990139007568359375e+00 3.545083105564117432e-03 1.093939039856195450e-02 4.345342051237821579e-03 -1.723841647617518902e-03
7.172000000000000000e+03 5.237501144409179688e+01 -7.369969844818115234e+00 4.943725652992725372e-03 8.545147255063056946e-03 4.046661779284477234e-03 -1.220490201376378536e-03
7.173000000000000000e+03 5.965943145751953125e+01 -7.623787879943847656e+00 2.549329074099659920e-03 2.277133986353874207e-03 1.447938848286867142e-03 3.220625221729278564e-03
7.174000000000000000e+03 5.386229324340820312e+01 -9.714858055114746094e+00 3.536815056577324867e-03 9.081572294235229492e-03 3.785516135394573212e-03 -5.307888495735824108e-04
7.175000000000000000e+03 5.962977981567382812e+01 8.084213256835937500e+00 -1.310365041717886925e-03 8.344794623553752899e-04 -1.427656679879873991e-04 7.311951369047164917e-03
7.176000000000000000e+03 5.927664184570312500e+01 -1.323785591125488281e+01 1.948839402757585049e-03 4.871535580605268478e-03 2.046112436801195145e-03 2.034153556451201439e-03
7.177000000000000000e+03 5.919374084472656250e+01 -1.189659404754638672e+01 2.210616599768400192e-03 4.357802681624889374e-03 1.970525830984115601e-03 2.212679479271173477e-03
7.178000000000000000e+03 6.243941116333007812e+01 1.577295875549316406e+01 -3.554791444912552834e-03 9.138728491961956024e-04 -7.922755903564393520e-04 4.886362235993146896e-03
7.179000000000000000e+03 6.338257598876953125e+01 1.578546810150146484e+01 -3.189312294125556946e-03 5.038690287619829178e-04 -8.056329679675400257e-04 4.763838835060596466e-03
7.180000000000000000e+03 5.708526611328125000e+01 -1.023958396911621094e+01 2.698439871892333031e-03 6.078212056308984756e-03 2.632995601743459702e-03 1.477891113609075546e-03
7.181000000000000000e+03 5.574132156372070312e+01 -1.135333442687988281e+01 2.677368465811014175e-03 8.253184147179126740e-03 3.279165830463171005e-03 4.985552513971924782e-04
7.182000000000000000e+03 5.123136520385742188e+01 -5.559496879577636719e+00 6.316529586911201477e-03 7.711473852396011353e-03 4.208400845527648926e-03 -1.494327676482498646e-03
7.183000000000000000e+03 4.991126251220703125e+01 -4.928739070892333984e+00 7.385217584669589996e-03 8.032264187932014465e-03 4.625244531780481339e-03 -2.436439972370862961e-03
7.184000000000000000e+03 5.890594482421875000e+01 -1.717480778694152832e+00 2.858222462236881256e-03 9.844230953603982925e-04 1.152793643996119499e-03 4.900457337498664856e-03
7.185000000000000000e+03 5.557320022583007812e+01 -3.560652732849121094e+00 4.439006559550762177e-03 3.531403606757521629e-03 2.391122980043292046e-03 2.911644522100687027e-03
7.186000000000000000e+03 6.061107635498046875e+01 -5.541445255279541016e+00 2.375814132392406464e-03 7.944721728563308716e-04 9.510858799330890179e-04 4.087574314326047897e-03
7.187000000000000000e+03 5.043691635131835938e+01 -5.960697174072265625e+00 6.281211040914058685e-03 8.756971918046474457e-03 4.511454608291387558e-03 -2.445953898131847382e-03
7.188000000000000000e+03 5.560399627685546875e+01 -1.452645492553710938e+01 2.054713899269700050e-03 1.032222341746091843e-02 3.713081125169992447e-03 1.666656316956505179e-04
7.189000000000000000e+03 5.810468673706054688e+01 -1.322599411010742188e+01 2.217092784121632576e-03 6.258979439735412598e-03 2.542821690440177917e-03 1.575219677761197090e-03
7.190000000000000000e+03 6.037326431274414062e+01 -2.464211845397949219e+01 2.367432229220867157e-03 6.613411009311676025e-03 2.694252878427505493e-03 1.230020425282418728e-03
7.191000000000000000e+03 6.007844924926757812e+01 -7.880408763885498047e-01 2.296388847753405571e-03 7.025276136118918657e-05 7.099924841895699501e-04 5.508632399141788483e-03
7.192000000000000000e+03 5.829835510253906250e+01 -9.174456596374511719e+00 2.670739311724901199e-03 4.258993547409772873e-03 2.078919904306530952e-03 2.298251492902636528e-03
7.193000000000000000e+03 5.124314498901367188e+01 -1.004790973663330078e+01 3.787802765145897865e-03 1.194307487457990646e-02 4.719263408333063126e-03 -2.755141351372003555e-03
7.194000000000000000e+03 5.313508987426757812e+01 -1.045596981048583984e+01 3.316590562462806702e-03 1.026112213730812073e-02 4.073313903063535690e-03 -1.267944113351404667e-03
7.195000000000000000e+03 4.306535339355468750e+01 1.162357997894287109e+01 -1.983702927827835083e-02 8.507419377565383911e-03 -3.398882923647761345e-03 1.343537494540214539e-02
7.196000000000000000e+03 4.254930877685546875e+01 1.188417911529541016e+01 -2.269571088254451752e-02 9.321927092969417572e-03 -4.012134857475757599e-03 1.280036196112632751e-02
7.197000000000000000e+03 4.975736999511718750e+01 2.024137878417968750e+01 -1.088631153106689453e-02 3.306133439764380455e-03 -2.274053404107689857e-03 -1.261975849047303200e-04
7.198000000000000000e+03 4.511133956909179688e+01 1.492230224609375000e+01 -1.996539346873760223e-02 7.621966768056154251e-03 -3.703028196468949318e-03 3.676307620480656624e-03
7.199000000000000000e+03 4.537001419067382812e+01 1.675518608093261719e+01 -1.866747438907623291e-02 5.460809450596570969e-03 -3.961999434977769852e-03 2.124197999364696443e-05
7.200000000000000000e+03 4.687096786499023438e+01 1.676237297058105469e+01 -1.616066135466098785e-02 5.809748545289039612e-03 -3.105273935943841934e-03 1.366588636301457882e-03
7.201000000000000000e+03 4.417109298706054688e+01 1.406367778778076172e+01 -2.202021330595016479e-02 8.616960607469081879e-03 -4.020975902676582336e-03 5.299519281834363937e-03
7.202000000000000000e+03 4.751496505737304688e+01 1.758797264099121094e+01 -1.478302385658025742e-02 5.073502194136381149e-03 -2.912856405600905418e-03 7.668104371987283230e-04
7.203000000000000000e+03 4.795396804809570312e+01 1.792268371582031250e+01 -1.417871005833148956e-02 4.699612036347389221e-03 -2.843729453161358833e-03 8.021614630706608295e-04
7.204000000000000000e+03 4.320942687988281250e+01 1.227228355407714844e+01 -2.166094258427619934e-02 9.046605788171291351e-03 -3.784300992265343666e-03 1.135174650698900223e-02
7.205000000000000000e+03 4.938383865356445312e+01 1.921115303039550781e+01 -1.190990582108497620e-02 3.994357306510210037e-03 -2.374664647504687309e-03 4.427872190717607737e-04
7.206000000000000000e+03 5.040536880493164062e+01 2.069213867187500000e+01 -1.013013999909162521e-02 3.181175794452428818e-03 -2.084689214825630188e-03 -6.822052091592922807e-05
7.207000000000000000e+03 4.559835433959960938e+01 1.542506980895996094e+01 -1.928115077316761017e-02 7.003047969192266464e-03 -3.683430841192603111e-03 2.861742861568927765e-03
7.208000000000000000e+03 4.649115753173828125e+01 1.643037986755371094e+01 -1.704829186201095581e-02 5.904975347220897675e-03 -3.342994954437017441e-03 1.789895817637443542e-03
7.209000000000000000e+03 5.507352066040039062e+01 2.248711204528808594e+01 -6.640465930104255676e-03 2.378498669713735580e-03 -1.278590294532477856e-03 9.913400281220674515e-04
7.210000000000000000e+03 4.322166061401367188e+01 1.328061866760253906e+01 -2.397262677550315857e-02 9.438643231987953186e-03 -4.360195249319076538e-03 7.377866189926862717e-03
7.211000000000000000e+03 4.359418869018554688e+01 1.307937526702880859e+01 -2.271826937794685364e-02 9.201390668749809265e-03 -4.055063705891370773e-03 8.351854048669338226e-03
7.212000000000000000e+03 4.467609405517578125e+01 1.406230163574218750e+01 -2.060059644281864166e-02 8.061177097260951996e-03 -3.761826083064079285e-03 5.639228504151105881e-03
7.213000000000000000e+03 4.549905395507812500e+01 1.490722465515136719e+01 -1.908336579799652100e-02 7.279282435774803162e-03 -3.541225101798772812e-03 3.988463431596755981e-03
7.214000000000000000e+03 4.289244461059570312e+01 1.198210239410400391e+01 -2.194717526435852051e-02 1.008794363588094711e-02 -3.557769581675529480e-03 1.220067963004112244e-02
7.215000000000000000e+03 4.424296569824218750e+01 1.354353618621826172e+01 -2.151973545551300049e-02 8.526159450411796570e-03 -3.898072522133588791e-03 6.915155332535505295e-03
7.216000000000000000e+03 3.823745727539062500e+01 6.963748931884765625e+00 2.901372686028480530e-02 -6.375571712851524353e-03 6.791446357965469360e-03 3.292864933609962463e-02
7.217000000000000000e+03 5.157981491088867188e+01 2.207411384582519531e+01 -8.514745160937309265e-03 2.533654915168881416e-03 -1.794327166862785816e-03 -1.576585636939853430e-04
7.218000000000000000e+03 5.317138671875000000e+01 2.178632545471191406e+01 -7.843273691833019257e-03 2.763727447018027306e-03 -1.523863757029175758e-03 6.723487749695777893e-04
7.219000000000000000e+03 5.341371917724609375e+01 2.225549125671386719e+01 -7.516365498304367065e-03 2.546181436628103256e-03 -1.491055241785943508e-03 5.407299031503498554e-04
7.220000000000000000e+03 3.766547775268554688e+01 1.460225343704223633e+00 4.832300916314125061e-02 6.461481098085641861e-03 1.643534563481807709e-02 -2.337495982646942139e-02
7.221000000000000000e+03 3.952173614501953125e+01 8.594477653503417969e+00 -2.975825686007738113e-03 2.762963529676198959e-03 -6.385866436176002026e-05 3.154961392283439636e-02
7.222000000000000000e+03 4.208751296997070312e+01 9.998683929443359375e+00 -1.363524515181779861e-02 7.262005936354398727e-03 -1.911971834488213062e-03 2.005399763584136963e-02
7.223000000000000000e+03 4.018466949462890625e+01 8.854335784912109375e+00 -5.508692003786563873e-03 3.505056258291006088e-03 -6.010907236486673355e-04 2.815812453627586365e-02
7.224000000000000000e+03 5.733385467529296875e+01 2.081529426574707031e+01 -5.978798493742942810e-03 2.409196225926280022e-03 -1.070880680344998837e-03 2.348264912143349648e-03
7.225000000000000000e+03 5.488982772827148438e+01 2.323274612426757812e+01 -6.402001716196537018e-03 2.169252838939428329e-03 -1.269824686460196972e-03 6.223515956662595272e-04
7.226000000000000000e+03 4.138581466674804688e+01 1.074366378784179688e+01 -2.157977223396301270e-02 9.388534352183341980e-03 -3.657371504232287407e-03 1.902215927839279175e-02
7.227000000000000000e+03 5.560213470458984375e+01 2.215267753601074219e+01 -6.527275778353214264e-03 2.470562700182199478e-03 -1.217014039866626263e-03 1.308962935581803322e-03
7.228000000000000000e+03 5.579273605346679688e+01 2.130047035217285156e+01 -6.670611444860696793e-03 2.663522725924849510e-03 -1.202126615680754185e-03 1.808409811928868294e-03
7.229000000000000000e+03 5.477327346801757812e+01 2.207604026794433594e+01 -6.928702350705862045e-03 2.575693419203162193e-03 -1.305902726016938686e-03 1.099752262234687805e-03
7.230000000000000000e+03 5.115100860595703125e+01 2.148861312866210938e+01 -9.170859120786190033e-03 2.786082448437809944e-03 -1.915432862006127834e-03 -1.163312772405333817e-04
7.231000000000000000e+03 5.237179183959960938e+01 2.148207664489746094e+01 -8.443234488368034363e-03 2.871718723326921463e-03 -1.671454636380076408e-03 4.680365091189742088e-04
7.232000000000000000e+03 5.075349044799804688e+01 2.095050048828125000e+01 -9.787351824343204498e-03 3.011291148141026497e-03 -2.032818272709846497e-03 -4.220736809656955302e-05
7.233000000000000000e+03 5.123063659667968750e+01 2.101420021057128906e+01 -9.413758292794227600e-03 3.069496247917413712e-03 -1.903278753161430359e-03 2.067657624138519168e-04
7.234000000000000000e+03 3.912024688720703125e+01 1.346736311912536621e+00 4.056757688522338867e-02 2.800892340019345284e-03 1.301054097712039948e-02 -1.556038483977317810e-02
7.235000000000000000e+03 3.845654296875000000e+01 2.010471343994140625e+00 4.859628900885581970e-02 6.840836722403764725e-04 1.478411257266998291e-02 -1.586236618459224701e-02
7.236000000000000000e+03 5.041851425170898438e+01 1.914657783508300781e+01 -1.103017106652259827e-02 4.070495720952749252e-03 -2.087902743369340897e-03 1.149325747974216938e-03
7.237000000000000000e+03 4.890827560424804688e+01 1.913234138488769531e+01 -1.242228038609027863e-02 3.922611009329557419e-03 -2.549900673329830170e-03 1.956992346094921231e-04
7.238000000000000000e+03 6.257158279418945312e+01 1.495722961425781250e+01 -3.318908624351024628e-03 7.187476148828864098e-04 -7.800482562743127346e-04 5.173666868358850479e-03
7.239000000000000000e+03 4.161406707763671875e+01 1.127401256561279297e+01 -2.391210012137889862e-02 9.543011896312236786e-03 -4.310726653784513474e-03 1.613814942538738251e-02
7.240000000000000000e+03 4.082667160034179688e+01 9.776479721069335938e+00 -1.467299461364746094e-02 8.014773018658161163e-03 -1.997466431930661201e-03 2.434858493506908417e-02
7.241000000000000000e+03 4.100354385375976562e+01 1.689892172813415527e+00 3.252838179469108582e-02 -5.417424254119396210e-04 9.595992043614387512e-03 -6.905544083565473557e-03
7.242000000000000000e+03 3.774607467651367188e+01 2.083169698715209961e+00 5.280843377113342285e-02 9.667147533036768436e-04 1.613254472613334656e-02 -1.908879168331623077e-02
7.243000000000000000e+03 5.885747909545898438e+01 7.608102798461914062e+00 -1.022187876515090466e-03 1.084867049939930439e-03 1.880376294138841331e-05 7.447951007634401321e-03
7.244000000000000000e+03 5.905274963378906250e+01 4.286719799041748047e+00 8.659223094582557678e-04 5.136417457833886147e-04 4.138692165724933147e-04 7.037811912596225739e-03
7.245000000000000000e+03 6.103461456298828125e+01 1.902798080444335938e+01 -4.423007834702730179e-03 1.549511915072798729e-03 -8.620488224551081657e-04 3.612312488257884979e-03
7.246000000000000000e+03 3.820262908935546875e+01 5.213458538055419922e+00 5.316813290119171143e-02 -1.185992546379566193e-02 1.239246316254138947e-02 1.454211585223674774e-02
7.247000000000000000e+03 4.135659790039062500e+01 7.935748100280761719e-01 2.951908484101295471e-02 1.997471321374177933e-03 9.454966522753238678e-03 -9.506002068519592285e-03
7.248000000000000000e+03 5.856511688232421875e+01 2.026812934875488281e+01 -5.491864867508411407e-03 2.195463050156831741e-03 -9.889205684885382652e-04 2.817632863298058510e-03
7.249000000000000000e+03 6.186821365356445312e+01 1.858641815185546875e+01 -4.059840459376573563e-03 1.251858891919255257e-03 -8.423944236710667610e-04 3.826306434348225594e-03
7.250000000000000000e+03 5.815155410766601562e+01 -1.274405002593994141e+00 3.182340878993272781e-03 1.302160555496811867e-03 1.345350407063961029e-03 4.949510097503662109e-03
7.251000000000000000e+03 3.854640960693359375e+01 4.484725952148437500e+00 5.238921940326690674e-02 -1.009384728968143463e-02 1.268861163407564163e-02 6.590029690414667130e-03
7.252000000000000000e+03 4.436408233642578125e+01 -5.603803992271423340e-01 1.805170997977256775e-02 4.485791549086570740e-03 6.761250086128711700e-03 -5.630642175674438477e-03
7.253000000000000000e+03 4.463837814331054688e+01 1.899349987506866455e-01 1.874777302145957947e-02 3.188709029927849770e-03 6.580944638699293137e-03 -3.501074155792593956e-03
7.254000000000000000e+03 6.110103225708007812e+01 1.270213985443115234e+01 -3.205934073776006699e-03 1.052223029546439648e-03 -6.461133598349988461e-04 6.151446606963872910e-03
7.255000000000000000e+03 4.951439285278320312e+01 -2.594249010086059570e+00 9.237025864422321320e-03 5.614134017378091812e-03 4.455348011106252670e-03 -1.171428128145635128e-03
7.256000000000000000e+03 6.150027465820312500e+01 1.320452690124511719e+01 -3.248486900702118874e-03 9.846548782661557198e-04 -6.791496416553854942e-04 5.900614894926548004e-03
7.257000000000000000e+03 6.002871322631835938e+01 1.172045230865478516e+01 -3.131547942757606506e-03 1.345172175206243992e-03 -5.359127535484731197e-04 6.614643149077892303e-03
7.258000000000000000e+03 5.941585159301757812e+01 6.773587226867675781e+00 -5.303956568241119385e-04 6.641915533691644669e-04 4.013877332909032702e-05 7.342373952269554138e-03
7.259000000000000000e+03 4.511780929565429688e+01 -6.587976217269897461e-01 1.685084775090217590e-02 4.564934410154819489e-03 6.424734834581613541e-03 -4.526740871369838715e-03
7.260000000000000000e+03 5.830287551879882812e+01 -7.217380046844482422e+00 3.001695033162832260e-03 3.295192262157797813e-03 1.889066188596189022e-03 2.764979144558310509e-03
7.261000000000000000e+03 6.000312423706054688e+01 1.052103710174560547e+01 -2.573857782408595085e-03 1.141636399552226067e-03 -4.296664264984428883e-04 6.918188650161027908e-03
7.262000000000000000e+03 5.616194152832031250e+01 2.070958518981933594e+01 -6.649392191320657730e-03 2.696321811527013779e-03 -1.185921137221157551e-03 2.181201009079813957e-03
7.263000000000000000e+03 6.032375335693359375e+01 1.954158592224121094e+01 -4.718993790447711945e-03 1.723547466099262238e-03 -8.986339089460670948e-04 3.349048551172018051e-03
7.264000000000000000e+03 6.064822387695312500e+01 1.530469036102294922e+01 -4.138336051255464554e-03 1.594481989741325378e-03 -7.631562184542417526e-04 5.266434978693723679e-03
7.265000000000000000e+03 6.011301040649414062e+01 -6.655944824218750000e+00 2.489415928721427917e-03 1.409821677953004837e-03 1.169771305285394192e-03 3.646851517260074615e-03
7.266000000000000000e+03 5.727217102050781250e+01 -8.844826698303222656e+00 3.018352435901761055e-03 4.951228853315114975e-03 2.390874316915869713e-03 1.821888959966599941e-03
7.267000000000000000e+03 6.014980316162109375e+01 4.172234058380126953e+00 6.979655590839684010e-04 3.707769064931198955e-05 2.205129712820053101e-04 6.884308531880378723e-03
7.268000000000000000e+03 5.886083602905273438e+01 -8.284093856811523438e+00 2.660013036802411079e-03 3.252865746617317200e-03 1.773863681592047215e-03 2.669616835191845894e-03
7.269000000000000000e+03 5.231600952148437500e+01 -6.053325176239013672e+00 5.530697759240865707e-03 7.469573989510536194e-03 3.900081384927034378e-03 -7.939948700368404388e-04
7.270000000000000000e+03 5.269602966308593750e+01 -5.474117755889892578e+00 5.529508460313081741e-03 6.648338399827480316e-03 3.653354011476039886e-03 -1.153092671302147210e-04
7.271000000000000000e+03 5.815763092041015625e+01 -1.047457885742187500e+01 2.605578629299998283e-03 4.911961499601602554e-03 2.255262108519673347e-03 1.934280619025230408e-03
7.272000000000000000e+03 5.463991165161132812e+01 -1.075555038452148438e+01 2.921178238466382027e-03 9.054360911250114441e-03 3.592661814764142036e-03 -2.080143021885305643e-04
7.273000000000000000e+03 5.093527984619140625e+01 -4.588607788085937500e+00 6.914838217198848724e-03 6.983871571719646454e-03 4.169612657278776169e-03 -1.184537075459957123e-03
7.274000000000000000e+03 5.299549865722656250e+01 -6.773619651794433594e+00 4.872303921729326248e-03 7.638826966285705566e-03 3.753339406102895737e-03 -5.412574973888695240e-04
7.275000000000000000e+03 5.694755554199218750e+01 -1.622089958190917969e+01 1.883047400042414665e-03 9.308738633990287781e-03 3.357535926625132561e-03 8.245796198025345802e-04
7.276000000000000000e+03 5.817894744873046875e+01 -1.469385433197021484e+01 1.922797528095543385e-03 6.903678178787231445e-03 2.647942630574107170e-03 1.444678287953138351e-03
7.277000000000000000e+03 4.960788726806640625e+01 -3.774616479873657227e+00 8.270828984677791595e-03 7.160806562751531601e-03 4.629490897059440613e-03 -2.078603720292448997e-03
7.278000000000000000e+03 5.879630279541015625e+01 -4.138940334320068359e+00 3.073097439482808113e-03 1.736512756906449795e-03 1.442883047275245190e-03 3.999878652393817902e-03
7.279000000000000000e+03 5.383520507812500000e+01 -5.051282882690429688e+00 5.096611566841602325e-03 5.415034946054220200e-03 3.153494093567132950e-03 1.063607633113861084e-03
7.280000000000000000e+03 5.844244003295898438e+01 -2.618046045303344727e+00 3.094643354415893555e-03 1.473505166359245777e-03 1.370444544591009617e-03 4.479879513382911682e-03
7.281000000000000000e+03 5.315340042114257812e+01 -8.470771789550781250e+00 4.016580525785684586e-03 8.860637433826923370e-03 3.863165387883782387e-03 -8.655891288071870804e-04
7.282000000000000000e+03 6.578875732421875000e+01 -2.742597961425781250e+01 1.564606209285557270e-03 -2.558254403993487358e-03 -2.980944409500807524e-04 1.334914006292819977e-03
7.283000000000000000e+03 5.694703292846679688e+01 -1.164629173278808594e+01 2.574563492089509964e-03 6.869318429380655289e-03 2.833164529874920845e-03 1.147355302236974239e-03
7.284000000000000000e+03 5.598800277709960938e+01 -9.938927650451660156e+00 3.074007807299494743e-03 6.812229286879301071e-03 2.965871011838316917e-03 8.382813539355993271e-04
7.285000000000000000e+03 4.775340652465820312e+01 1.652293205261230469e+01 -1.490302570164203644e-02 5.915143992751836777e-03 -2.696364419534802437e-03 2.481063129380345345e-03
7.286000000000000000e+03 4.859228897094726562e+01 1.795905113220214844e+01 -1.344389654695987701e-02 4.736173432320356369e-03 -2.612316980957984924e-03 1.170864677987992764e-03
7.287000000000000000e+03 4.473691940307617188e+01 1.357354068756103516e+01 -1.989728771150112152e-02 8.595009334385395050e-03 -3.390683326870203018e-03 6.932853721082210541e-03
7.288000000000000000e+03 4.383207321166992188e+01 1.339373397827148438e+01 -2.209799736738204956e-02 9.149510413408279419e-03 -3.884545993059873581e-03 7.092782296240329742e-03
7.289000000000000000e+03 4.885927581787109375e+01 1.816786766052246094e+01 -1.288289017975330353e-02 4.625059664249420166e-03 -2.477349247783422470e-03 1.068204757757484913e-03
7.290000000000000000e+03 5.080691909790039062e+01 2.058090019226074219e+01 -9.960351511836051941e-03 3.260581288486719131e-03 -2.009931020438671112e-03 2.953957591671496630e-04
7.291000000000000000e+03 4.570381546020507812e+01 1.598718643188476562e+01 -1.881103590130805969e-02 6.398189347237348557e-03 -3.723854199051856995e-03 1.824157778173685074e-03
7.292000000000000000e+03 4.302161788940429688e+01 1.287740135192871094e+01 -2.433901466429233551e-02 9.585060179233551025e-03 -4.426186438649892807e-03 9.101050905883312225e-03
7.293000000000000000e+03 4.582477188110351562e+01 1.679458999633789062e+01 -1.792658306658267975e-02 5.671573337167501450e-03 -3.676502732560038567e-03 3.881276643369346857e-04
7.294000000000000000e+03 4.526732635498046875e+01 1.521582794189453125e+01 -1.947036571800708771e-02 7.283518090844154358e-03 -3.656054381281137466e-03 3.115000901743769646e-03
7.295000000000000000e+03 5.448899459838867188e+01 2.168917846679687500e+01 -7.229563314467668533e-03 2.679506782442331314e-03 -1.365017029456794262e-03 1.192922005429863930e-03
7.296000000000000000e+03 4.722015762329101562e+01 1.638047790527343750e+01 -1.575467549264431000e-02 5.764037370681762695e-03 -2.997191622853279114e-03 2.342311432585120201e-03
7.297000000000000000e+03 4.640556335449218750e+01 1.701467323303222656e+01 -1.681280508637428284e-02 5.379749462008476257e-03 -3.429916454479098320e-03 7.574568153358995914e-04
7.298000000000000000e+03 4.257195281982421875e+01 1.150936508178710938e+01 -2.100050635635852814e-02 1.002486702054738998e-02 -3.292691893875598907e-03 1.420429442077875137e-02
7.299000000000000000e+03 4.512531280517578125e+01 1.451044273376464844e+01 -1.976773142814636230e-02 7.610060740262269974e-03 -3.647301346063613892e-03 4.630547016859054565e-03
7.300000000000000000e+03 4.829741287231445312e+01 1.706311607360839844e+01 -1.409286819398403168e-02 5.448478274047374725e-03 -2.593317069113254547e-03 2.114340430125594139e-03
7.301000000000000000e+03 3.911145019531250000e+01 7.734038352966308594e+00 1.203646510839462280e-02 -2.971688518300652504e-03 2.719433046877384186e-03 3.231848776340484619e-02
7.302000000000000000e+03 5.373899078369140625e+01 2.153363609313964844e+01 -7.681518327444791794e-03 2.805956406518816948e-03 -1.462668529711663723e-03 1.038964604958891869e-03
7.303000000000000000e+03 5.783559799194335938e+01 1.949321365356445312e+01 -5.937212146818637848e-03 2.499926136806607246e-03 -1.031185849569737911e-03 3.128977492451667786e-03
7.304000000000000000e+03 5.923888015747070312e+01 1.613874626159667969e+01 -4.955790471285581589e-03 2.175503177568316460e-03 -8.340862113982439041e-04 4.950679372996091843e-03
7.305000000000000000e+03 3.984463119506835938e+01 7.950655460357666016e+00 6.581722293049097061e-03 -4.187084850855171680e-04 1.848904183134436607e-03 2.917317114770412445e-02
7.306000000000000000e+03 5.492574691772460938e+01 2.076458549499511719e+01 -7.317987270653247833e-03 2.968488493934273720e-03 -1.304849749431014061e-03 1.861161203123629093e-03
7.307000000000000000e+03 4.093576049804687500e+01 1.049205875396728516e+01 -2.096208371222019196e-02 9.969111531972885132e-03 -3.297891467809677124e-03 2.100394479930400848e-02
7.308000000000000000e+03 5.174809265136718750e+01 2.100620269775390625e+01 -9.100146591663360596e-03 3.099449910223484039e-03 -1.800208934582769871e-03 4.921816289424896240e-04
7.309000000000000000e+03 3.785107421875000000e+01 3.146345376968383789e+00 5.864969640970230103e-02 -5.729003809392452240e-03 1.587620750069618225e-02 -1.051267422735691071e-02
7.310000000000000000e+03 3.716383361816406250e+01 2.776652574539184570e+00 6.266979128122329712e-02 -1.997587038204073906e-03 1.820166222751140594e-02 -1.819736324250698090e-02
7.311000000000000000e+03 5.299237442016601562e+01 2.127675056457519531e+01 -8.216349408030509949e-03 2.957630902528762817e-03 -1.577615505084395409e-03 8.993621449917554855e-04
7.312000000000000000e+03 5.355619812011718750e+01 2.106115150451660156e+01 -7.954168133437633514e-03 3.005136502906680107e-03 -1.484709559008479118e-03 1.215969095937907696e-03
7.313000000000000000e+03 3.856547164916992188e+01 5.694131374359130859e+00 4.499543458223342896e-02 -1.191199105232954025e-02 9.925032965838909149e-03 1.987976022064685822e-02
7.314000000000000000e+03 4.905771636962890625e+01 1.868373489379882812e+01 -1.242691650986671448e-02 4.283981397747993469e-03 -2.442880533635616302e-03 6.765468278899788857e-04
7.315000000000000000e+03 4.866564559936523438e+01 1.853201103210449219e+01 -1.300380565226078033e-02 4.315625410526990891e-03 -2.606454072520136833e-03 6.615851889364421368e-04
7.316000000000000000e+03 4.177808761596679688e+01 1.096897888183593750e+01 -2.104360796511173248e-02 9.701661765575408936e-03 -3.402583999559283257e-03 1.710803061723709106e-02
7.317000000000000000e+03 4.208393096923828125e+01 1.158173751831054688e+01 -2.294236794114112854e-02 9.386493824422359467e-03 -4.066762514412403107e-03 1.433482579886913300e-02
7.318000000000000000e+03 5.124368286132812500e+01 2.057729530334472656e+01 -9.721028618514537811e-03 3.321638097986578941e-03 -1.919817179441452026e-03 5.055126384831964970e-04
7.319000000000000000e+03 5.170520782470703125e+01 2.051614379882812500e+01 -9.419365786015987396e-03 3.350868821144104004e-03 -1.820549136027693748e-03 8.150176145136356354e-04
7.320000000000000000e+03 3.872938919067382812e+01 6.419810295104980469e+00 3.401124477386474609e-02 -9.062823839485645294e-03 7.484525907784700394e-03 2.648441679775714874e-02
7.321000000000000000e+03 3.793205261230468750e+01 4.713535785675048828e+00 5.896980315446853638e-02 -1.291274093091487885e-02 1.381711848080158234e-02 7.326237857341766357e-03
7.322000000000000000e+03 5.533293533325195312e+01 2.098125839233398438e+01 -7.043708581477403641e-03 2.791271312162280083e-03 -1.275731134228408337e-03 1.848320476710796356e-03
7.323000000000000000e+03 5.676545715332031250e+01 2.088424873352050781e+01 -6.289050914347171783e-03 2.562479581683874130e-03 -1.117971376515924931e-03 2.257181564345955849e-03
7.324000000000000000e+03 6.240643692016601562e+01 1.663416290283203125e+01 -3.659150796011090279e-03 9.550025570206344128e-04 -8.112444193102419376e-04 4.572987090796232224e-03
7.325000000000000000e+03 6.060064697265625000e+01 1.220699977874755859e+01 -3.160479711368680000e-03 1.221553422510623932e-03 -5.816778866574168205e-04 6.356682162731885910e-03
7.326000000000000000e+03 6.004965209960937500e+01 1.283370113372802734e+01 -3.595769172534346581e-03 1.512373797595500946e-03 -6.250186124816536903e-04 6.263310089707374573e-03
7.327000000000000000e+03 3.960866165161132812e+01 1.026670932769775391e+00 3.752997890114784241e-02 2.627447480335831642e-03 1.204722747206687927e-02 -1.495760679244995117e-02
7.328000000000000000e+03 4.042475509643554688e+01 7.395961880683898926e-01 3.257115185260772705e-02 3.482446307316422462e-03 1.081607956439256668e-02 -1.309728063642978668e-02
7.329000000000000000e+03 6.152125167846679688e+01 1.558421134948730469e+01 -3.828763496130704880e-03 1.200188416987657547e-03 -7.885725353844463825e-04 5.061555653810501099e-03
7.330000000000000000e+03 5.920123672485351562e+01 2.017620849609375000e+01 -5.219047423452138901e-03 2.038729377090930939e-03 -9.540954488329589367e-04 2.963728737086057663e-03
7.331000000000000000e+03 4.394594955444335938e+01 1.300585556030273438e+01 -2.124393172562122345e-02 8.816934190690517426e-03 -3.728099167346954346e-03 8.396025747060775757e-03
7.332000000000000000e+03 6.251912307739257812e+01 1.748409080505371094e+01 -3.709903452545404434e-03 9.706914424896240234e-04 -8.217636495828628540e-04 4.212825093418359756e-03
7.333000000000000000e+03 5.975859832763671875e+01 1.895023536682128906e+01 -5.004410166293382645e-03 1.977136591449379921e-03 -9.081821190193295479e-04 3.569603664800524712e-03
7.334000000000000000e+03 3.831287384033203125e+01 3.989980459213256836e+00 5.532199516892433167e-02 -9.961868636310100555e-03 1.360803842544555664e-02 -6.105931242927908897e-05
7.335000000000000000e+03 5.927206802368164062e+01 1.953943061828613281e+01 -5.207663867622613907e-03 2.049503847956657410e-03 -9.474479593336582184e-04 3.287729108706116676e-03
7.336000000000000000e+03 6.167599868774414062e+01 1.769208908081054688e+01 -4.064142238348722458e-03 1.283374847844243050e-03 -8.342302171513438225e-04 4.169486928731203079e-03
7.337000000000000000e+03 5.948139953613281250e+01 1.241205692291259766e+01 -3.602851880714297295e-03 1.740947598591446877e-03 -5.585713079199194908e-04 6.467227824032306671e-03
7.338000000000000000e+03 6.179220581054687500e+01 1.488028812408447266e+01 -3.593539819121360779e-03 1.075812848284840584e-03 -7.553180912509560585e-04 5.301124416291713715e-03
7.339000000000000000e+03 4.579352569580078125e+01 -5.121697783470153809e-01 1.570890098810195923e-02 4.070825409144163132e-03 5.933917593210935593e-03 -3.038652939721941948e-03
7.340000000000000000e+03 3.928874969482421875e+01 1.969994068145751953e+00 4.271964356303215027e-02 -1.184197608381509781e-03 1.246063411235809326e-02 -1.176437549293041229e-02
7.341000000000000000e+03 6.176939010620117188e+01 1.373434829711914062e+01 -3.323002485558390617e-03 9.249372524209320545e-04 -7.194196223281323910e-04 5.696838255971670151e-03
7.342000000000000000e+03 6.056449890136718750e+01 1.322954559326171875e+01 -3.572881920263171196e-03 1.404159353114664555e-03 -6.506168283522129059e-04 6.033040583133697510e-03
7.343000000000000000e+03 5.983943176269531250e+01 9.304046630859375000e+00 -1.919783768244087696e-03 9.681287920102477074e-04 -2.854964986909180880e-04 7.184638176113367081e-03
7.344000000000000000e+03 6.098529815673828125e+01 1.357767581939697266e+01 -3.548074513673782349e-03 1.232978538610041142e-03 -6.945288041606545448e-04 5.870853550732135773e-03
7.345000000000000000e+03 4.240724182128906250e+01 1.061560153961181641e+00 2.609756961464881897e-02 1.067248173058032990e-03 8.149445056915283203e-03 -5.592408590018749237e-03
7.346000000000000000e+03 5.531784057617187500e+01 -7.072400569915771484e+00 3.972193226218223572e-03 5.786338821053504944e-03 2.927559660747647285e-03 1.207859488204121590e-03
7.347000000000000000e+03 5.818983459472656250e+01 -5.083782196044921875e+00 3.202420892193913460e-03 2.470450941473245621e-03 1.701861619949340820e-03 3.385014599189162254e-03
7.348000000000000000e+03 4.968724822998046875e+01 -3.441678583621978760e-01 9.657145477831363678e-03 3.437681822106242180e-03 3.928448073565959930e-03 1.486864988692104816e-03
7.349000000000000000e+03 5.896459197998046875e+01 -8.723447322845458984e-01 2.792586572468280792e-03 7.993756444193422794e-04 1.077588647603988647e-03 5.280077923089265823e-03
7.350000000000000000e+03 5.936752319335937500e+01 1.300017714500427246e+00 2.011192496865987778e-03 2.542443980928510427e-04 6.796310772188007832e-04 6.159075535833835602e-03
7.351000000000000000e+03 5.891708755493164062e+01 5.349156379699707031e+00 3.435665275901556015e-04 6.083796615712344646e-04 2.855838683899492025e-04 7.245945744216442108e-03
7.352000000000000000e+03 5.908285903930664062e+01 2.243235826492309570e+00 1.756170298904180527e-03 4.090479342266917229e-04 6.495654815807938576e-04 6.444702856242656708e-03
7.353000000000000000e+03 5.803544616699218750e+01 7.173595428466796875e+00 -7.267801556736230850e-04 1.239574281498789787e-03 1.538382202852517366e-04 7.610316853970289230e-03
7.354000000000000000e+03 5.942604827880859375e+01 -3.116406440734863281e+00 2.741602715104818344e-03 9.854229865595698357e-04 1.118107698857784271e-03 4.505610093474388123e-03
7.355000000000000000e+03 5.753361511230468750e+01 -2.076315402984619141e+00 3.465700894594192505e-03 1.768928836099803448e-03 1.570388907566666603e-03 4.404425155371427536e-03
7.356000000000000000e+03 5.863482666015625000e+01 -3.354586428031325340e-03 2.610892523080110550e-03 7.325929473154246807e-04 1.003045705147087574e-03 5.645861383527517319e-03
7.357000000000000000e+03 4.386061859130859375e+01 4.242621362209320068e-01 2.097314782440662384e-02 2.354645635932683945e-03 6.998337805271148682e-03 -4.309235606342554092e-03
7.358000000000000000e+03 5.829235839843750000e+01 9.444232583045959473e-01 2.456320449709892273e-03 8.372676675207912922e-04 9.880764409899711609e-04 5.916675087064504623e-03
7.359000000000000000e+03 5.993503952026367188e+01 2.493103504180908203e+00 1.456163241527974606e-03 4.300582986616063863e-06 4.381391336210072041e-04 6.528859492391347885e-03
7.360000000000000000e+03 5.887887954711914062e+01 -5.697909355163574219e+00 2.902169479057192802e-03 2.185286954045295715e-03 1.526236883364617825e-03 3.528892295435070992e-03
7.361000000000000000e+03 5.069607543945312500e+01 -2.452322244644165039e+00 8.059322834014892578e-03 5.248411092907190323e-03 3.992320038378238678e-03 1.794496201910078526e-04
7.362000000000000000e+03 5.193514633178710938e+01 -4.456757068634033203e+00 6.345990579575300217e-03 6.249316968023777008e-03 3.778592217713594437e-03 -1.823530474212020636e-04
7.363000000000000000e+03 5.198033142089843750e+01 -5.336882114410400391e+00 5.982854869216680527e-03 7.052248809486627579e-03 3.910531289875507355e-03 -6.819929694756865501e-04
7.364000000000000000e+03 5.199344253540039062e+01 -3.397183656692504883e+00 6.647377274930477142e-03 5.399205256253480911e-03 3.613974666222929955e-03 6.397087126970291138e-04
7.365000000000000000e+03 5.078178024291992188e+01 -3.534660577774047852e+00 7.608762942254543304e-03 5.970460828393697739e-03 4.073766991496086121e-03 -5.834748153574764729e-04
7.366000000000000000e+03 5.720896530151367188e+01 -6.260547637939453125e+00 3.488220740109682083e-03 3.647748380899429321e-03 2.140790689736604691e-03 2.601513871923089027e-03
7.367000000000000000e+03 5.486748123168945312e+01 -9.569899559020996094e+00 3.330621402710676193e-03 7.868337444961071014e-03 3.359687514603137970e-03 2.680915640667080879e-04
7.368000000000000000e+03 4.525139236450195312e+01 1.357013034820556641e+01 -1.846031285822391510e-02 7.909326814115047455e-03 -3.165296046063303947e-03 7.085172459483146667e-03
7.369000000000000000e+03 5.033249664306640625e+01 1.971016120910644531e+01 -1.078380458056926727e-02 3.677228232845664024e-03 -2.131972927600145340e-03 6.221939693205058575e-04
7.370000000000000000e+03 5.121097183227539062e+01 2.018322372436523438e+01 -9.901898913085460663e-03 3.477721940726041794e-03 -1.927252975292503834e-03 7.544412510469555855e-04
7.371000000000000000e+03 4.518697357177734375e+01 1.404684543609619141e+01 -1.927651092410087585e-02 8.168414235115051270e-03 -3.332428634166717529e-03 5.834695883095264435e-03
7.372000000000000000e+03 4.392604064941406250e+01 1.207370662689208984e+01 -1.858863793313503265e-02 8.270908147096633911e-03 -3.095318796113133430e-03 1.136599387973546982e-02
7.373000000000000000e+03 4.548584365844726562e+01 1.635868072509765625e+01 -1.872626133263111115e-02 6.136370822787284851e-03 -3.776967292651534081e-03 6.935567362233996391e-04
7.374000000000000000e+03 4.981983947753906250e+01 1.971723365783691406e+01 -1.119727641344070435e-02 3.710987512022256851e-03 -2.245886716991662979e-03 3.344958240631967783e-04
7.375000000000000000e+03 5.082496261596679688e+01 1.973202133178710938e+01 -1.043150760233402252e-02 3.752595977857708931e-03 -2.003673464059829712e-03 8.734168368391692638e-04
7.376000000000000000e+03 4.438000869750976562e+01 1.259931659698486328e+01 -1.894588954746723175e-02 8.375876583158969879e-03 -3.171003889292478561e-03 9.638960473239421844e-03
7.377000000000000000e+03 4.434321975708007812e+01 1.306110668182373047e+01 -1.993523724377155304e-02 8.863590657711029053e-03 -3.321493975818157196e-03 8.483131416141986847e-03
7.378000000000000000e+03 5.452429580688476562e+01 2.073335456848144531e+01 -7.549710106104612350e-03 3.003015648573637009e-03 -1.364008407108485699e-03 1.729872194118797779e-03
7.379000000000000000e+03 5.397336578369140625e+01 2.196606445312500000e+01 -7.353782653808593750e-03 2.668372821062803268e-03 -1.405622926540672779e-03 8.900272659957408905e-04
7.380000000000000000e+03 4.562182998657226562e+01 1.450811672210693359e+01 -1.847367547452449799e-02 7.743762806057929993e-03 -3.218973753973841667e-03 4.955192096531391144e-03
7.381000000000000000e+03 4.390958404541015625e+01 1.255993938446044922e+01 -2.010963484644889832e-02 9.107088670134544373e-03 -3.300763666629791260e-03 1.005806308239698410e-02
7.382000000000000000e+03 4.921863174438476562e+01 1.827671813964843750e+01 -1.263161189854145050e-02 4.557062871754169464e-03 -2.422364894300699234e-03 1.278575742617249489e-03
7.383000000000000000e+03 4.838920593261718750e+01 1.758038902282714844e+01 -1.379912346601486206e-02 5.083481315523386002e-03 -2.614692784845829010e-03 1.467288238927721977e-03
7.384000000000000000e+03 4.834149169921875000e+01 1.649920463562011719e+01 -1.405825465917587280e-02 5.629729945212602615e-03 -2.528557321056723595e-03 2.864673268049955368e-03
7.385000000000000000e+03 4.348767471313476562e+01 1.193494987487792969e+01 -1.972900517284870148e-02 9.603579528629779816e-03 -3.037628019228577614e-03 1.189303025603294373e-02
7.386000000000000000e+03 4.377924346923828125e+01 1.162894153594970703e+01 -1.764580979943275452e-02 8.422143757343292236e-03 -2.767099533230066299e-03 1.278116181492805481e-02
7.387000000000000000e+03 4.030425262451171875e+01 7.685690879821777344e+00 8.669056929647922516e-03 -4.287094634491950274e-04 2.472104271873831749e-03 2.702216804027557373e-02
7.388000000000000000e+03 4.071215438842773438e+01 9.005736351013183594e+00 -6.285063922405242920e-03 5.321455188095569611e-03 -2.890825853683054447e-04 2.640803903341293335e-02
7.389000000000000000e+03 3.780189132690429688e+01 2.647367477416992188e+00 5.681046470999717712e-02 -1.439494313672184944e-03 1.661129109561443329e-02 -1.559255365282297134e-02
7.390000000000000000e+03 4.250001907348632812e+01 1.037764263153076172e+01 -1.480079721659421921e-02 7.914678193628787994e-03 -2.065835520625114441e-03 1.789497211575508118e-02
7.391000000000000000e+03 3.960917663574218750e+01 7.528641223907470703e+00 1.321039814502000809e-02 -1.417679362930357456e-03 3.537815762683749199e-03 2.946114726364612579e-02
7.392000000000000000e+03 5.495440292358398438e+01 2.137932777404785156e+01 -7.075028028339147568e-03 2.758855465799570084e-03 -1.294851768761873245e-03 1.518183853477239609e-03
7.393000000000000000e+03 5.466568374633789062e+01 2.107173347473144531e+01 -7.368476130068302155e-03 2.863852074369788170e-03 -1.351387123577296734e-03 1.591627835296094418e-03
7.394000000000000000e+03 3.890329742431640625e+01 7.292092800140380859e+00 1.954677142202854156e-02 -3.603523597121238708e-03 4.782974254339933395e-03 3.227222338318824768e-02
7.395000000000000000e+03 4.171281433105468750e+01 1.036366367340087891e+01 -1.689193956553936005e-02 8.618902415037155151e-03 -2.481911098584532738e-03 1.971276849508285522e-02
7.396000000000000000e+03 5.286149978637695312e+01 2.073877525329589844e+01 -8.514434099197387695e-03 3.179342253133654594e-03 -1.600527670234441757e-03 1.128566451370716095e-03
7.397000000000000000e+03 5.077749633789062500e+01 2.017987442016601562e+01 -1.016925554722547531e-02 3.466057358309626579e-03 -2.010959433391690254e-03 5.238399025984108448e-04
7.398000000000000000e+03 5.097020339965820312e+01 1.828589439392089844e+01 -1.087674684822559357e-02 4.412890877574682236e-03 -1.939156791195273399e-03 2.201559720560908318e-03
7.399000000000000000e+03 4.961774063110351562e+01 1.840495681762695312e+01 -1.200710609555244446e-02 4.475291352719068527e-03 -2.259544329717755318e-03 1.332556130364537239e-03
7.400000000000000000e+03 5.558294677734375000e+01 2.048136329650878906e+01 -7.045690901577472687e-03 2.935443073511123657e-03 -1.233074464835226536e-03 2.193648135289549828e-03
7.401000000000000000e+03 5.341901397705078125e+01 2.054369544982910156e+01 -8.286146447062492371e-03 3.222455270588397980e-03 -1.519107259809970856e-03 1.499626785516738892e-03
7.402000000000000000e+03 6.084687042236328125e+01 1.765434837341308594e+01 -4.439482465386390686e-03 1.627247198484838009e-03 -8.436705684289336205e-04 4.238540306687355042e-03
7.403000000000000000e+03 4.691617202758789062e+01 -9.025935530662536621e-01 1.334874518215656281e-02 4.417304415255784988e-03 5.329814739525318146e-03 -2.066798275336623192e-03
7.404000000000000000e+03 4.501288986206054688e+01 9.243862032890319824e-01 1.828875392675399780e-02 1.622385228984057903e-03 5.973341874778270721e-03 -1.036143861711025238e-03
7.405000000000000000e+03 4.066713333129882812e+01 8.067927360534667969e+00 3.504650667309761047e-03 1.360910362564027309e-03 1.459668274037539959e-03 2.621768042445182800e-02
7.406000000000000000e+03 4.290052032470703125e+01 1.081311416625976562e+01 -1.674433238804340363e-02 8.289100602269172668e-03 -2.536569489166140556e-03 1.626066677272319794e-02
7.407000000000000000e+03 5.159216308593750000e+01 2.008094978332519531e+01 -9.702440351247787476e-03 3.605011152103543282e-03 -1.829228829592466354e-03 1.033811131492257118e-03
7.408000000000000000e+03 5.708248138427734375e+01 2.039175796508789062e+01 -6.243305280804634094e-03 2.559336367994546890e-03 -1.105190603993833065e-03 2.559254644438624382e-03
7.409000000000000000e+03 4.334221267700195312e+01 1.123883724212646484e+01 -1.709541119635105133e-02 8.685201406478881836e-03 -2.523063216358423233e-03 1.409399602562189102e-02
7.410000000000000000e+03 3.906418991088867188e+01 5.407094001770019531e+00 4.223365336656570435e-02 -9.409836493432521820e-03 9.847145527601242065e-03 1.622784323990345001e-02
7.411000000000000000e+03 3.902535629272460938e+01 6.084490299224853516e+00 3.567562997341156006e-02 -8.552304469048976898e-03 8.136997930705547333e-03 2.334637567400932312e-02
7.412000000000000000e+03 3.839977264404296875e+01 3.154799222946166992e+00 5.332688987255096436e-02 -5.200937855988740921e-03 1.443778537213802338e-02 -7.828589528799057007e-03
7.413000000000000000e+03 5.229800796508789062e+01 2.091053581237792969e+01 -8.851002901792526245e-03 3.160442691296339035e-03 -1.707167946733534336e-03 8.198187570087611675e-04
7.414000000000000000e+03 4.677660369873046875e+01 1.610637664794921875e+01 -1.663456298410892487e-02 6.401380524039268494e-03 -3.069954691454768181e-03 2.334436168894171715e-03
7.415000000000000000e+03 4.742642974853515625e+01 1.597380352020263672e+01 -1.546048466116189957e-02 6.333641707897186279e-03 -2.738052746281027794e-03 3.123362082988023758e-03
7.416000000000000000e+03 4.890003967285156250e+01 1.743878364562988281e+01 -1.321202609688043594e-02 5.140518303960561752e-03 -2.421452198177576065e-03 2.057784469798207283e-03
7.417000000000000000e+03 4.893576812744140625e+01 1.783155250549316406e+01 -1.313610561192035675e-02 4.905557259917259216e-03 -2.469164319336414337e-03 1.584928366355597973e-03
7.418000000000000000e+03 5.801644134521484375e+01 1.037024021148681641e+01 -2.903732703998684883e-03 1.981499604880809784e-03 -2.766699471976608038e-04 7.314327172935009003e-03
7.419000000000000000e+03 3.977451324462890625e+01 3.407742738723754883e+00 4.225901514291763306e-02 -5.281624849885702133e-03 1.109321787953376770e-02 -7.863119826652109623e-04
7.420000000000000000e+03 3.905120086669921875e+01 3.270125865936279297e+00 4.857388138771057129e-02 -6.780619267374277115e-03 1.253797952085733414e-02 -3.395078703761100769e-03
7.421000000000000000e+03 3.880020904541015625e+01 4.957073688507080078e+00 4.736923053860664368e-02 -1.128627918660640717e-02 1.082488521933555603e-02 1.166100520640611649e-02
7.422000000000000000e+03 3.847407150268554688e+01 2.599447250366210938e+00 5.067928507924079895e-02 -3.379067406058311462e-03 1.419006474316120148e-02 -1.144586130976676941e-02
7.423000000000000000e+03 4.311220550537109375e+01 7.116031646728515625e-01 2.344651147723197937e-02 2.284626010805368423e-03 7.719341199845075607e-03 -4.933216143399477005e-03
7.424000000000000000e+03 4.171916198730468750e+01 1.405788898468017578e+00 2.940551564097404480e-02 8.814326138235628605e-04 9.086084552109241486e-03 -6.090268027037382126e-03
7.425000000000000000e+03 5.853609085083007812e+01 9.614851951599121094e+00 -2.315993420779705048e-03 1.558138756081461906e-03 -2.273563877679407597e-04 7.384687662124633789e-03
7.426000000000000000e+03 5.928115844726562500e+01 1.005753898620605469e+01 -2.446591621264815331e-03 1.391109661199152470e-03 -3.166446113027632236e-04 7.122236769646406174e-03
7.427000000000000000e+03 5.513811492919921875e+01 1.978440475463867188e+01 -7.425982970744371414e-03 3.186552785336971283e-03 -1.271829009056091309e-03 2.500520320609211922e-03
7.428000000000000000e+03 5.849750137329101562e+01 6.304102420806884766e+00 -1.921937655424699187e-04 9.748212178237736225e-04 2.347882400499656796e-04 7.441075984388589859e-03
7.429000000000000000e+03 5.873200225830078125e+01 1.080268859863281250e+01 -3.010811284184455872e-03 1.719444175250828266e-03 -3.874101676046848297e-04 7.095046807080507278e-03
7.430000000000000000e+03 5.788453674316406250e+01 -3.582256555557250977e+00 3.364693140611052513e-03 2.046101726591587067e-03 1.623238436877727509e-03 3.851214190945029259e-03
7.431000000000000000e+03 4.946942901611328125e+01 -1.428727626800537109e+00 9.679963812232017517e-03 4.685962107032537460e-03 4.309777636080980301e-03 1.012542561511509120e-04
7.432000000000000000e+03 5.793771362304687500e+01 4.072660446166992188e+00 1.286573475226759911e-03 8.566435426473617554e-04 6.429650820791721344e-04 7.048485800623893738e-03
7.433000000000000000e+03 5.898290252685546875e+01 3.226703405380249023e+00 1.427987474016845226e-03 3.991115954704582691e-04 5.481297266669571400e-04 6.737205199897289276e-03
7.434000000000000000e+03 6.074157714843750000e+01 1.401974201202392578e+01 -3.773129079490900040e-03 1.441361382603645325e-03 -6.995302974246442318e-04 5.751360673457384109e-03
7.435000000000000000e+03 6.122020339965820312e+01 1.397382545471191406e+01 -3.578571137040853500e-03 1.195263583213090897e-03 -7.149922312237322330e-04 5.660183727741241455e-03
7.436000000000000000e+03 6.148037719726562500e+01 1.985725975036621094e+01 -4.198447801172733307e-03 1.340886112302541733e-03 -8.572685765102505684e-04 3.282671095803380013e-03
7.437000000000000000e+03 5.753331756591796875e+01 -5.228777527809143066e-01 3.311726730316877365e-03 1.422816189005970955e-03 1.420362852513790131e-03 5.108255427330732346e-03
7.438000000000000000e+03 5.831704711914062500e+01 8.411503791809082031e+00 -1.566454418934881687e-03 1.395355327986180782e-03 -5.132974183652549982e-05 7.561418693512678146e-03
7.439000000000000000e+03 5.499907302856445312e+01 -8.278416633605957031e+00 3.705320181325078011e-03 6.869406439363956451e-03 3.172417869791388512e-03 5.632523680105805397e-04
7.440000000000000000e+03 5.520855331420898438e+01 -2.136785268783569336e+00 4.777839407324790955e-03 3.027192549780011177e-03 2.341509563848376274e-03 3.481989260762929916e-03
7.441000000000000000e+03 5.009983444213867188e+01 4.868142008781433105e-01 9.118653833866119385e-03 2.851739991456270218e-03 3.591118147596716881e-03 3.096692031249403954e-03
7.442000000000000000e+03 5.922187423706054688e+01 -6.689415454864501953e+00 2.692170906811952591e-03 2.281115390360355377e-03 1.491985865868628025e-03 3.300068667158484459e-03
7.443000000000000000e+03 5.560872268676757812e+01 -5.978850841522216797e+00 4.049351904541254044e-03 4.814573563635349274e-03 2.659177640452980995e-03 1.761139952577650547e-03
7.444000000000000000e+03 5.694404602050781250e+01 2.823086738586425781e+00 2.346201566979289055e-03 1.145418616943061352e-03 1.047486090101301670e-03 6.590884178876876831e-03
7.445000000000000000e+03 5.615879058837890625e+01 -8.615309715270996094e+00 3.261001082137227058e-03 5.999354645609855652e-03 2.778106601908802986e-03 1.305048121139407158e-03
7.446000000000000000e+03 5.631402969360351562e+01 -7.376021385192871094e+00 3.578553674742579460e-03 5.109967198222875595e-03 2.606556285172700882e-03 1.662051770836114883e-03
7.447000000000000000e+03 5.436068725585937500e+01 -6.578454971313476562e+00 4.414971452206373215e-03 6.154311820864677429e-03 3.170785028487443924e-03 7.198628154583275318e-04
7.448000000000000000e+03 5.290806198120117188e+01 -4.627271652221679688e+00 5.716913845390081406e-03 5.909542553126811981e-03 3.487936919555068016e-03 5.210721283219754696e-04
7.449000000000000000e+03 5.192606353759765625e+01 -2.272821426391601562e+00 6.992270238697528839e-03 4.384534433484077454e-03 3.413041355088353157e-03 1.486552762798964977e-03
7.450000000000000000e+03 5.389385223388671875e+01 -7.627023696899414062e+00 4.217005800455808640e-03 7.490815129131078720e-03 3.512346418574452400e-03 1.638492904021404684e-05
7.451000000000000000e+03 4.572063827514648438e+01 1.404746341705322266e+01 -1.797621697187423706e-02 7.579987868666648865e-03 -3.118868684396147728e-03 6.009294185787439346e-03
7.452000000000000000e+03 4.416540145874023438e+01 1.133919143676757812e+01 -1.547456812113523483e-02 8.195518516004085541e-03 -2.183714881539344788e-03 1.301066111773252487e-02
7.453000000000000000e+03 5.095623016357421875e+01 1.922653961181640625e+01 -1.058791857212781906e-02 3.953273873776197433e-03 -1.990393269807100296e-03 1.352029154077172279e-03
7.454000000000000000e+03 4.527963638305664062e+01 1.311018085479736328e+01 -1.773927547037601471e-02 8.287611417472362518e-03 -2.835499588400125504e-03 8.302581496536731720e-03
7.455000000000000000e+03 4.479064559936523438e+01 1.310849285125732422e+01 -1.907789707183837891e-02 8.282967843115329742e-03 -3.238478675484657288e-03 8.220123127102851868e-03
7.456000000000000000e+03 4.986264038085937500e+01 1.871426200866699219e+01 -1.179308257997035980e-02 4.299215972423553467e-03 -2.248159842565655708e-03 1.196289085783064365e-03
7.457000000000000000e+03 4.331903076171875000e+01 1.047585010528564453e+01 -1.340733189135789871e-02 7.593471556901931763e-03 -1.744158100336790085e-03 1.612220704555511475e-02
7.458000000000000000e+03 4.244248199462890625e+01 1.107742881774902344e+01 -1.924050785601139069e-02 8.901101537048816681e-03 -3.101821988821029663e-03 1.561536639928817749e-02
7.459000000000000000e+03 4.658627319335937500e+01 1.483445739746093750e+01 -1.661754399538040161e-02 7.210461888462305069e-03 -2.822124632075428963e-03 4.736330825835466385e-03
7.460000000000000000e+03 4.597760009765625000e+01 1.562981700897216797e+01 -1.810245215892791748e-02 6.844467483460903168e-03 -3.377395449206233025e-03 2.627669833600521088e-03
7.461000000000000000e+03 4.579019546508789062e+01 1.354679203033447266e+01 -1.709040999412536621e-02 7.931490428745746613e-03 -2.747675869613885880e-03 7.162035908550024033e-03
7.462000000000000000e+03 4.785547256469726562e+01 1.601781845092773438e+01 -1.477881241589784622e-02 6.027496419847011566e-03 -2.625394845381379128e-03 3.347174264490604401e-03
7.463000000000000000e+03 4.443087005615234375e+01 1.212934875488281250e+01 -1.742571219801902771e-02 8.748603053390979767e-03 -2.603132743388414383e-03 1.096263341605663300e-02
7.464000000000000000e+03 4.490122985839843750e+01 1.228470706939697266e+01 -1.655003242194652557e-02 7.781945168972015381e-03 -2.630426315590739250e-03 1.050394028425216675e-02
7.465000000000000000e+03 4.373844528198242188e+01 1.090450191497802734e+01 -1.486677583307027817e-02 7.769757881760597229e-03 -2.129105385392904282e-03 1.488768588751554489e-02
7.466000000000000000e+03 4.165825653076171875e+01 9.650300025939941406e+00 -1.130702625960111618e-02 6.899304687976837158e-03 -1.322316471487283707e-03 2.185659855604171753e-02
7.467000000000000000e+03 4.939939117431640625e+01 1.742108154296875000e+01 -1.263904944062232971e-02 5.034316796809434891e-03 -2.281419700011610985e-03 2.336087170988321304e-03
7.468000000000000000e+03 4.112288284301757812e+01 8.485463142395019531e+00 -7.579090306535363197e-04 2.528083510696887970e-03 5.310522974468767643e-04 2.488668821752071381e-02
7.469000000000000000e+03 4.010214614868164062e+01 8.386871337890625000e+00 6.377477548085153103e-04 2.415757160633802414e-03 9.160515037365257740e-04 2.905387990176677704e-02
7.470000000000000000e+03 5.450711441040039062e+01 2.028861999511718750e+01 -7.697079796344041824e-03 3.157025901600718498e-03 -1.362016191706061363e-03 1.999044790863990784e-03
7.471000000000000000e+03 5.219887924194335938e+01 2.037617111206054688e+01 -9.114073589444160461e-03 3.386799478903412819e-03 -1.718182116746902466e-03 1.091300975531339645e-03
7.472000000000000000e+03 4.120341110229492188e+01 9.318355560302734375e+00 -9.263505227863788605e-03 5.453018471598625183e-03 -1.143146189860999584e-03 2.394373528659343719e-02
7.473000000000000000e+03 4.944854736328125000e+01 1.694282913208007812e+01 -1.263676490634679794e-02 5.354131106287240982e-03 -2.184790326282382011e-03 2.903833752498030663e-03
7.474000000000000000e+03 4.988232040405273438e+01 1.748034286499023438e+01 -1.204859279096126556e-02 5.001290701329708099e-03 -2.114190720021724701e-03 2.512701321393251419e-03
7.475000000000000000e+03 3.869979858398437500e+01 6.837290287017822266e+00 2.808969281613826752e-02 -8.192131295800209045e-03 5.969268269836902618e-03 3.013911657035350800e-02
7.476000000000000000e+03 5.406945419311523438e+01 2.087000465393066406e+01 -7.772401906549930573e-03 3.026408841833472252e-03 -1.423797919414937496e-03 1.531755551695823669e-03
7.477000000000000000e+03 5.396561431884765625e+01 2.037792778015136719e+01 -7.982110604643821716e-03 3.195392200723290443e-03 -1.436015591025352478e-03 1.760415965691208839e-03
7.478000000000000000e+03 4.770001602172851562e+01 1.565694427490234375e+01 -1.505994331091642380e-02 6.263020448386669159e-03 -2.639077138155698776e-03 3.812905633822083473e-03
7.479000000000000000e+03 5.629632949829101562e+01 2.007592582702636719e+01 -6.668223999440670013e-03 2.828944707289338112e-03 -1.151783741079270840e-03 2.607945818454027176e-03
7.480000000000000000e+03 4.934020233154296875e+01 1.786647605895996094e+01 -1.259826496243476868e-02 4.848871845752000809e-03 -2.324817935004830360e-03 1.749355345964431763e-03
7.481000000000000000e+03 5.846009063720703125e+01 1.864369392395019531e+01 -5.625294987112283707e-03 2.401899546384811401e-03 -9.670185972936451435e-04 3.656585235148668289e-03
7.482000000000000000e+03 3.898078536987304688e+01 3.819188117980957031e+00 4.977225512266159058e-02 -7.247444707900285721e-03 1.275744289159774780e-02 1.424811925971880555e-04
7.483000000000000000e+03 5.987611770629882812e+01 1.508611011505126953e+01 -4.381877370178699493e-03 1.813017064705491066e-03 -7.706581382080912590e-04 5.386978387832641602e-03
7.484000000000000000e+03 5.760095977783203125e+01 2.002627754211425781e+01 -5.934430286288261414e-03 2.476364606991410255e-03 -1.037419773638248444e-03 2.850995631888508797e-03
7.485000000000000000e+03 5.728099441528320312e+01 9.953244209289550781e+00 -2.785386517643928528e-03 2.117369556799530983e-03 -2.004051057156175375e-04 7.593399379402399063e-03
7.486000000000000000e+03 5.142833709716796875e+01 1.943108940124511719e+01 -1.004269532859325409e-02 3.880972974002361298e-03 -1.848516636528074741e-03 1.439660671167075634e-03
7.487000000000000000e+03 4.032646560668945312e+01 6.173705101013183594e+00 2.552191913127899170e-02 -5.305852741003036499e-03 6.064819637686014175e-03 2.053755521774291992e-02
7.488000000000000000e+03 5.424337387084960938e+01 2.129918479919433594e+01 -7.473324425518512726e-03 2.860294422134757042e-03 -1.383908907882869244e-03 1.332596060819923878e-03
7.489000000000000000e+03 3.996723556518554688e+01 2.851529598236083984e+00 4.107862710952758789e-02 -4.463928751647472382e-03 1.098440960049629211e-02 -3.380688372999429703e-03
7.490000000000000000e+03 4.078617858886718750e+01 1.146060943603515625e+00 3.301906958222389221e-02 1.546086277812719345e-03 1.036954671144485474e-02 -9.876765310764312744e-03
7.491000000000000000e+03 5.779037094116210938e+01 9.189274787902832031e+00 -2.125454833731055260e-03 1.816181931644678116e-03 -9.278184734284877777e-05 7.583582308143377304e-03
7.492000000000000000e+03 5.704453659057617188e+01 8.776801109313964844e+00 -1.918410183861851692e-03 1.929722959175705910e-03 3.393812448848620988e-06 7.810571696609258652e-03
7.493000000000000000e+03 6.021160888671875000e+01 1.380973815917968750e+01 -3.889162559062242508e-03 1.563438563607633114e-03 -6.977171869948506355e-04 5.864042788743972778e-03
7.494000000000000000e+03 5.887519454956054688e+01 1.197870254516601562e+01 -3.604138502851128578e-03 1.868823193944990635e-03 -5.205945926718413830e-04 6.727181840687990189e-03
7.495000000000000000e+03 3.924380874633789062e+01 2.642913818359375000e+00 4.522809013724327087e-02 -2.986578503623604774e-03 1.267245318740606308e-02 -7.991703227162361145e-03
7.496000000000000000e+03 5.955559158325195312e+01 1.741788482666015625e+01 -5.016142968088388443e-03 2.079583238810300827e-03 -8.809678838588297367e-04 4.325888119637966156e-03
7.497000000000000000e+03 5.174642181396484375e+01 -1.230046153068542480e+00 7.231713272631168365e-03 3.886670107021927834e-03 3.335515037178993225e-03 2.216532360762357712e-03
7.498000000000000000e+03 3.938694763183593750e+01 7.105147838592529297e+00 2.068807370960712433e-02 -5.694572813808917999e-03 4.498050548136234283e-03 2.844329923391342163e-02
7.499000000000000000e+03 4.743740463256835938e+01 4.970988929271697998e-01 1.313530188053846359e-02 2.637701574712991714e-03 4.731900990009307861e-03 9.230969008058309555e-04
7.500000000000000000e+03 4.653121566772460938e+01 -2.624864690005779266e-02 1.443338394165039062e-02 3.377076936885714531e-03 5.343138240277767181e-03 -1.114544807933270931e-03
7.501000000000000000e+03 4.422582244873046875e+01 1.205569386482238770e+00 2.070218324661254883e-02 1.382057438604533672e-03 6.625272333621978760e-03 -1.385849900543689728e-03
7.502000000000000000e+03 4.275582504272460938e+01 1.785428166389465332e+00 2.569494768977165222e-02 1.066190161509439349e-04 7.740469649434089661e-03 -2.067639492452144623e-03
7.503000000000000000e+03 6.118313980102539062e+01 1.627646446228027344e+01 -4.084346815943717957e-03 1.415126840583980083e-03 -8.007659344002604485e-04 4.786239936947822571e-03
7.504000000000000000e+03 6.161680603027343750e+01 1.683308601379394531e+01 -4.002028144896030426e-03 1.280123484320938587e-03 -8.165714098140597343e-04 4.602188244462013245e-03
7.505000000000000000e+03 5.854738616943359375e+01 1.945839500427246094e+01 -5.551941227167844772e-03 2.292320830747485161e-03 -9.778860257938504219e-04 3.256502561271190643e-03
7.506000000000000000e+03 5.593714523315429688e+01 1.930350303649902344e+01 -6.991485133767127991e-03 3.095226828008890152e-03 -1.168877584859728813e-03 2.976603806018829346e-03
7.507000000000000000e+03 5.642844009399414062e+01 -6.291386604309082031e+00 3.693734295666217804e-03 4.435794893652200699e-03 2.438858617097139359e-03 2.176813082769513130e-03
7.508000000000000000e+03 5.347594451904296875e+01 -5.980361461639404297e+00 4.967547021806240082e-03 6.558962166309356689e-03 3.457952756434679031e-03 3.105519281234592199e-04
7.509000000000000000e+03 4.956444931030273438e+01 9.475121498107910156e-01 9.448845870792865753e-03 2.567353658378124237e-03 3.604860045015811920e-03 3.296359442174434662e-03
7.510000000000000000e+03 4.585538101196289062e+01 5.895062685012817383e-01 1.622403599321842194e-02 2.536427229642868042e-03 5.628138780593872070e-03 -6.158325122669339180e-04
7.511000000000000000e+03 4.348120880126953125e+01 1.491646766662597656e+00 2.294603362679481506e-02 2.514908846933394670e-04 6.959257181733846664e-03 -1.864982768893241882e-03
7.512000000000000000e+03 5.064577865600585938e+01 -1.402474284172058105e+00 8.301761001348495483e-03 4.103888757526874542e-03 3.721694927662611008e-03 1.250555855222046375e-03
7.513000000000000000e+03 5.797938156127929688e+01 3.032425403594970703e+00 1.803794642910361290e-03 8.517979294992983341e-04 7.966777193360030651e-04 6.717139389365911484e-03
7.514000000000000000e+03 5.807293319702148438e+01 1.971077919006347656e+00 2.266810275614261627e-03 7.691886858083307743e-04 9.107996593229472637e-04 6.294453516602516174e-03
7.515000000000000000e+03 5.316959762573242188e+01 -3.599938392639160156e+00 5.833157338201999664e-03 4.774566739797592163e-03 3.182317130267620087e-03 1.405024551786482334e-03
7.516000000000000000e+03 5.697395706176757812e+01 -3.043815612792968750e+00 3.788528963923454285e-03 2.464636694639921188e-03 1.875949674285948277e-03 3.804241772741079330e-03
7.517000000000000000e+03 5.709836959838867188e+01 5.115256905555725098e-01 3.197635523974895477e-03 1.326447119936347008e-03 1.357224769890308380e-03 5.546404980123043060e-03
7.518000000000000000e+03 5.677139282226562500e+01 -5.458728790283203125e+00 3.662366652861237526e-03 3.651402890682220459e-03 2.194130793213844299e-03 2.602804452180862427e-03
7.519000000000000000e+03 5.732895660400390625e+01 -4.595625877380371094e+00 3.575731068849563599e-03 2.879338804632425308e-03 1.936521031893789768e-03 3.261374076828360558e-03
7.520000000000000000e+03 5.511753463745117188e+01 -4.540565967559814453e+00 4.520756192505359650e-03 4.275314975529909134e-03 2.638821257278323174e-03 2.146048005670309067e-03
7.521000000000000000e+03 5.781449890136718750e+01 5.047215938568115234e+00 7.628300809301435947e-04 1.063647912815213203e-03 5.479434039443731308e-04 7.334429305046796799e-03
7.522000000000000000e+03 5.696552658081054688e+01 1.699115633964538574e+00 2.827941440045833588e-03 1.305763493292033672e-03 1.240111421793699265e-03 6.098864600062370300e-03
7.523000000000000000e+03 4.979032897949218750e+01 1.797720146179199219e+01 -1.211441587656736374e-02 4.698969889432191849e-03 -2.224633703008294106e-03 1.906532677821815014e-03
7.524000000000000000e+03 5.389094543457031250e+01 1.981326675415039062e+01 -8.198576048016548157e-03 3.398140426725149155e-03 -1.440130756236612797e-03 2.108036540448665619e-03
7.525000000000000000e+03 4.482811737060546875e+01 1.267584419250488281e+01 -1.772403158247470856e-02 8.491302840411663055e-03 -2.769818529486656189e-03 9.440905414521694183e-03
7.526000000000000000e+03 4.291093826293945312e+01 1.004673671722412109e+01 -1.214375253766775131e-02 6.894273217767477036e-03 -1.574843889102339745e-03 1.814200915396213531e-02
7.527000000000000000e+03 5.203784179687500000e+01 1.987137413024902344e+01 -9.478073567152023315e-03 3.605533856898546219e-03 -1.761761959642171860e-03 1.409224816597998142e-03
7.528000000000000000e+03 5.128921890258789062e+01 1.982083892822265625e+01 -1.003917399793863297e-02 3.658771514892578125e-03 -1.914120628498494625e-03 1.087624114006757736e-03
7.529000000000000000e+03 5.273363494873046875e+01 2.018796348571777344e+01 -8.885139599442481995e-03 3.432413330301642418e-03 -1.635817927308380604e-03 1.474652905017137527e-03
7.530000000000000000e+03 4.627395248413085938e+01 1.525218009948730469e+01 -1.768648996949195862e-02 6.853824947029352188e-03 -3.249799599871039391e-03 3.739237086847424507e-03
7.531000000000000000e+03 4.461367797851562500e+01 1.170260429382324219e+01 -1.605525426566600800e-02 7.869292981922626495e-03 -2.455788198858499527e-03 1.203204598277807236e-02
7.532000000000000000e+03 4.503366851806640625e+01 1.194945335388183594e+01 -1.555470656603574753e-02 8.259059861302375793e-03 -2.188693732023239136e-03 1.088869292289018631e-02
7.533000000000000000e+03 4.580949020385742188e+01 1.301695919036865234e+01 -1.604768820106983185e-02 7.581651676446199417e-03 -2.539811190217733383e-03 8.423278108239173889e-03
7.534000000000000000e+03 4.628102493286132812e+01 1.408515930175781250e+01 -1.666944287717342377e-02 7.559717167168855667e-03 -2.732917666435241699e-03 6.097067613154649734e-03
7.535000000000000000e+03 4.839382171630859375e+01 1.594756889343261719e+01 -1.406063046306371689e-02 6.100042257457971573e-03 -2.388176508247852325e-03 3.672995604574680328e-03
7.536000000000000000e+03 4.162176132202148438e+01 8.866282463073730469e+00 -4.506830591708421707e-03 4.582134541124105453e-03 2.259118809888605028e-05 2.296601980924606323e-02
7.537000000000000000e+03 4.636924362182617188e+01 1.585211563110351562e+01 -1.749254576861858368e-02 6.381585262715816498e-03 -3.333288244903087616e-03 2.625231631100177765e-03
7.538000000000000000e+03 4.588367080688476562e+01 1.504761886596679688e+01 -1.813175342977046967e-02 7.292271591722965240e-03 -3.251844784244894981e-03 3.894645487889647484e-03
7.539000000000000000e+03 4.665659713745117188e+01 1.549829006195068359e+01 -1.677550375461578369e-02 6.822079885751008987e-03 -2.986027160659432411e-03 3.438421757891774178e-03
7.540000000000000000e+03 4.733104324340820312e+01 1.540699005126953125e+01 -1.546297315508127213e-02 6.639327388256788254e-03 -2.647093730047345161e-03 4.037929233163595200e-03
7.541000000000000000e+03 4.454848861694335938e+01 1.100243282318115234e+01 -1.344518642872571945e-02 7.369120139628648758e-03 -1.822820049710571766e-03 1.360780838876962662e-02
7.542000000000000000e+03 4.415101242065429688e+01 1.058390808105468750e+01 -1.228822674602270126e-02 7.258926518261432648e-03 -1.508790068328380585e-03 1.472899969667196274e-02
7.543000000000000000e+03 5.453115081787109375e+01 1.908683967590332031e+01 -7.933962158858776093e-03 3.505396423861384392e-03 -1.328569836914539337e-03 2.791681326925754547e-03
7.544000000000000000e+03 5.574191665649414062e+01 1.991492462158203125e+01 -7.018869277089834213e-03 2.951182657852768898e-03 -1.220306032337248325e-03 2.508884062990546227e-03
7.545000000000000000e+03 3.918495178222656250e+01 4.275862216949462891e+00 4.592149704694747925e-02 -9.017796255648136139e-03 1.107111107558012009e-02 5.550036672502756119e-03
7.546000000000000000e+03 5.235313796997070312e+01 1.913018035888671875e+01 -9.514730423688888550e-03 3.868929343298077583e-03 -1.693740370683372021e-03 2.057484118267893791e-03
7.547000000000000000e+03 3.975960540771484375e+01 5.672088146209716797e+00 3.405996784567832947e-02 -7.803538348525762558e-03 7.876928895711898804e-03 1.801063492894172668e-02
7.548000000000000000e+03 3.945169067382812500e+01 4.744567871093750000e+00 4.258960857987403870e-02 -8.332355879247188568e-03 1.027717534452676773e-02 1.022607367485761642e-02
7.549000000000000000e+03 3.988649749755859375e+01 6.873351097106933594e+00 1.991295814514160156e-02 -3.511376213282346725e-03 4.920474253594875336e-03 2.580144628882408142e-02
7.550000000000000000e+03 4.295309448242187500e+01 9.277368545532226562e+00 -6.883850321173667908e-03 5.180651322007179260e-03 -5.109598278068006039e-04 1.920359395444393158e-02
7.551000000000000000e+03 5.923122024536132812e+01 1.834413909912109375e+01 -5.226209294050931931e-03 2.141927834600210190e-03 -9.252844029106199741e-04 3.867869032546877861e-03
7.552000000000000000e+03 5.891561126708984375e+01 1.765587806701660156e+01 -5.355997011065483093e-03 2.313653007149696350e-03 -9.127031662501394749e-04 4.207112360745668411e-03
7.553000000000000000e+03 5.038208007812500000e+01 1.855417823791503906e+01 -1.133528072386980057e-02 4.376039374619722366e-03 -2.087772358208894730e-03 1.631261780858039856e-03
7.554000000000000000e+03 4.335467910766601562e+01 9.709848403930664062e+00 -8.968751877546310425e-03 6.171837914735078812e-03 -8.390743169002234936e-04 1.757097989320755005e-02
7.555000000000000000e+03 3.950607681274414062e+01 6.441913127899169922e+00 2.693960443139076233e-02 -7.011739537119865417e-03 5.978359375149011612e-03 2.444913610816001892e-02
7.556000000000000000e+03 3.961710739135742188e+01 5.231791019439697266e+00 3.766607493162155151e-02 -9.123815223574638367e-03 8.562677539885044098e-03 1.432529836893081665e-02
7.557000000000000000e+03 4.017099761962890625e+01 1.251613378524780273e+00 3.584256768226623535e-02 1.431429176591336727e-03 1.118219830095767975e-02 -1.187861617654561996e-02
7.558000000000000000e+03 5.822577667236328125e+01 1.154222393035888672e+01 -3.569102380424737930e-03 2.124332124367356300e-03 -4.334311233833432198e-04 6.951126735657453537e-03
7.559000000000000000e+03 5.962748336791992188e+01 1.349489116668701172e+01 -4.032921511679887772e-03 1.855726935900747776e-03 -6.531584076583385468e-04 6.050536874681711197e-03
7.560000000000000000e+03 4.045947265625000000e+01 2.482954978942871094e+00 3.722409531474113464e-02 -2.980574499815702438e-03 1.027305610477924347e-02 -4.902423359453678131e-03
7.561000000000000000e+03 5.680012893676757812e+01 1.996797943115234375e+01 -6.391989532858133316e-03 2.718331757932901382e-03 -1.102097332477569580e-03 2.754062181338667870e-03
7.562000000000000000e+03 4.250033950805664062e+01 9.636870384216308594e+00 -9.728936478495597839e-03 6.355640012770891190e-03 -1.011988846585154533e-03 1.956582628190517426e-02
7.563000000000000000e+03 4.026830673217773438e+01 4.154266834259033203e+00 3.781821206212043762e-02 -6.243886426091194153e-03 9.472297504544258118e-03 6.034720689058303833e-03
7.564000000000000000e+03 4.057578277587890625e+01 7.285024166107177734e+00 1.279664970934391022e-02 -1.198203768581151962e-03 3.479533595964312553e-03 2.455014735460281372e-02
7.565000000000000000e+03 4.161641693115234375e+01 8.018162727355957031e+00 3.548843087628483772e-03 1.862189383246004581e-03 1.623309799470007420e-03 2.262517996132373810e-02
7.566000000000000000e+03 5.667087173461914062e+01 -1.438537955284118652e+00 3.881269833073019981e-03 2.049189759418368340e-03 1.779137877747416496e-03 4.521194379776716232e-03
7.567000000000000000e+03 5.664125823974609375e+01 5.653563976287841797e+00 6.110290414653718472e-04 1.499173464253544807e-03 6.330607575364410877e-04 7.626241538673639297e-03
7.568000000000000000e+03 5.902146148681640625e+01 1.313005542755126953e+01 -4.094868432730436325e-03 1.987513387575745583e-03 -6.322064436972141266e-04 6.305817048996686935e-03
7.569000000000000000e+03 5.909793853759765625e+01 1.554339790344238281e+01 -4.891896620392799377e-03 2.207250101491808891e-03 -8.053939091041684151e-04 5.268733017146587372e-03
7.570000000000000000e+03 5.840431594848632812e+01 1.271410942077636719e+01 -4.125472623854875565e-03 2.240501577034592628e-03 -5.654913256876170635e-04 6.519661750644445419e-03
7.571000000000000000e+03 6.039012145996093750e+01 1.601640701293945312e+01 -4.372444935142993927e-03 1.673624152317643166e-03 -8.096463279798626900e-04 4.967066459357738495e-03
7.572000000000000000e+03 6.072753524780273438e+01 1.461189174652099609e+01 -3.916752990335226059e-03 1.438216422684490681e-03 -7.435610168613493443e-04 5.491245072335004807e-03
7.573000000000000000e+03 5.819507598876953125e+01 1.789875602722167969e+01 -5.725869443267583847e-03 2.539770910516381264e-03 -9.558295132592320442e-04 4.077557474374771118e-03
7.574000000000000000e+03 5.728680419921875000e+01 1.962655067443847656e+01 -6.226154509931802750e-03 2.642097184434533119e-03 -1.075217267498373985e-03 3.020344069227576256e-03
7.575000000000000000e+03 5.753205108642578125e+01 1.111528682708740234e+01 -3.533931914716959000e-03 2.263501053676009178e-03 -3.811292699538171291e-04 7.240554783493280411e-03
7.576000000000000000e+03 5.680357360839843750e+01 1.070700550079345703e+01 -3.448653500527143478e-03 2.543949987739324570e-03 -2.714110596571117640e-04 7.487900089472532272e-03
7.577000000000000000e+03 4.887164688110351562e+01 1.836943179368972778e-01 1.078446675091981888e-02 3.170151263475418091e-03 4.186385311186313629e-03 1.684393268078565598e-03
7.578000000000000000e+03 5.769124221801757812e+01 1.882554244995117188e+01 -6.022960413247346878e-03 2.612965181469917297e-03 -1.022998476400971413e-03 3.485705703496932983e-03
7.579000000000000000e+03 5.984841918945312500e+01 1.792476272583007812e+01 -4.912088625133037567e-03 1.979661639779806137e-03 -8.797280606813728809e-04 4.096135031431913376e-03
7.580000000000000000e+03 4.380947494506835938e+01 2.225973844528198242e+00 2.198765240609645844e-02 -2.002474357141181827e-04 6.536221597343683243e-03 1.263035810552537441e-03
7.581000000000000000e+03 4.533676528930664062e+01 1.667873263359069824e+00 1.773611642420291901e-02 1.216563978232443333e-03 5.685803946107625961e-03 1.190593349747359753e-03
7.582000000000000000e+03 5.580985641479492188e+01 1.539376854896545410e+00 3.477965015918016434e-03 1.579052535817027092e-03 1.517105265520513058e-03 5.851299501955509186e-03
7.583000000000000000e+03 5.594826507568359375e+01 4.602867603302001953e+00 1.568606123328208923e-03 1.566422055475413799e-03 9.405084419995546341e-04 7.438032422214746475e-03
7.584000000000000000e+03 4.796846389770507812e+01 1.818784713745117188e+00 1.174050662666559219e-02 1.785602187737822533e-03 4.057832527905702591e-03 3.583136945962905884e-03
7.585000000000000000e+03 5.755181121826171875e+01 5.945159435272216797e+00 1.789948000805452466e-04 1.186135923489928246e-03 4.095392068848013878e-04 7.543668616563081741e-03
7.586000000000000000e+03 5.371522140502929688e+01 -2.605088949203491211e+00 5.650429520756006241e-03 3.985570743680000305e-03 2.890800125896930695e-03 2.400773344561457634e-03
7.587000000000000000e+03 5.683812332153320312e+01 4.800812721252441406e+00 1.149904099293053150e-03 1.255139010027050972e-03 7.215129444375634193e-04 7.365602534264326096e-03
7.588000000000000000e+03 5.304033660888671875e+01 -1.842100977897644043e+00 6.114762742072343826e-03 3.873986890539526939e-03 2.996624913066625595e-03 2.452267566695809364e-03
7.589000000000000000e+03 5.754676055908203125e+01 7.991380691528320312e+00 -1.281126751564443111e-03 1.645179348997771740e-03 1.092157835955731571e-04 7.714641746133565903e-03
7.590000000000000000e+03 5.419292449951171875e+01 -4.072722911834716797e+00 5.051680840551853180e-03 4.636476747691631317e-03 2.906447276473045349e-03 1.890492276288568974e-03
7.591000000000000000e+03 5.466191482543945312e+01 -3.110135793685913086e+00 4.968566820025444031e-03 3.764857072383165359e-03 2.620027167722582817e-03 2.595922444015741348e-03
7.592000000000000000e+03 4.620442962646484375e+01 1.417942643165588379e+00 1.540707144886255264e-02 1.441614818759262562e-03 5.054606124758720398e-03 1.453183125704526901e-03
7.593000000000000000e+03 4.050008773803710938e+01 6.738183975219726562e+00 1.830407790839672089e-02 -4.209375008940696716e-03 4.228410776704549789e-03 2.287031337618827820e-02
7.594000000000000000e+03 5.645330810546875000e+01 -4.035434722900390625e+00 4.019221290946006775e-03 3.176329424604773521e-03 2.158665098249912262e-03 3.021258395165205002e-03
7.595000000000000000e+03 5.598001480102539062e+01 -4.991237640380859375e+00 4.044445231556892395e-03 3.979932516813278198e-03 2.407313324511051178e-03 2.497527282685041428e-03
7.596000000000000000e+03 5.076217651367187500e+01 3.856978714466094971e-01 8.357877843081951141e-03 2.785611664876341820e-03 3.343046875670552254e-03 3.182596527040004730e-03
7.597000000000000000e+03 5.582029724121093750e+01 2.472126036882400513e-01 3.938740119338035583e-03 1.955720363184809685e-03 1.768338144756853580e-03 5.141656845808029175e-03
7.598000000000000000e+03 5.473324203491210938e+01 -5.542621135711669922e+00 4.508746787905693054e-03 5.222463048994541168e-03 2.919362857937812805e-03 1.473200973123311996e-03
7.599000000000000000e+03 3.976747512817382812e+01 6.088177680969238281e+00 2.860242873430252075e-02 -6.955068558454513550e-03 6.494208239018917084e-03 2.174686640501022339e-02
7.600000000000000000e+03 4.375156021118164062e+01 1.014860343933105469e+01 -1.106634456664323807e-02 6.676626391708850861e-03 -1.316915382631123066e-03 1.635956391692161560e-02
7.601000000000000000e+03 5.126868057250976562e+01 1.876862144470214844e+01 -1.043140143156051636e-02 4.206853453069925308e-03 -1.867364393547177315e-03 1.888226834125816822e-03
7.602000000000000000e+03 4.529236602783203125e+01 1.171841526031494141e+01 -1.461834926158189774e-02 7.747146300971508026e-03 -2.061360981315374374e-03 1.144029945135116577e-02
7.603000000000000000e+03 4.565055847167968750e+01 1.259303665161132812e+01 -1.584700495004653931e-02 7.745210081338882446e-03 -2.430538181215524673e-03 9.472462348639965057e-03
7.604000000000000000e+03 4.696114730834960938e+01 1.514048099517822266e+01 -1.615875773131847382e-02 6.661822088062763214e-03 -2.849081065505743027e-03 4.364868625998497009e-03
7.605000000000000000e+03 4.542190551757812500e+01 1.206814289093017578e+01 -1.488740276545286179e-02 7.371531799435615540e-03 -2.254761289805173874e-03 1.085336040705442429e-02
7.606000000000000000e+03 4.634115600585937500e+01 1.353553676605224609e+01 -1.598939858376979828e-02 7.378164678812026978e-03 -2.583370078355073929e-03 7.279001176357269287e-03
7.607000000000000000e+03 4.787477111816406250e+01 1.472313690185546875e+01 -1.436808705329895020e-02 6.729309912770986557e-03 -2.291633049026131630e-03 5.361078307032585144e-03
7.608000000000000000e+03 4.459777832031250000e+01 1.027487850189208984e+01 -1.025924365967512131e-02 6.494902539998292923e-03 -1.129302312619984150e-03 1.481244713068008423e-02
7.609000000000000000e+03 4.530846405029296875e+01 1.111076545715332031e+01 -1.249214261770248413e-02 7.134360261261463165e-03 -1.607334706932306290e-03 1.265486050397157669e-02
7.610000000000000000e+03 4.892518615722656250e+01 1.644796562194824219e+01 -1.335757505148649216e-02 5.722619127482175827e-03 -2.290486823767423630e-03 3.238885197788476944e-03
7.611000000000000000e+03 4.207577896118164062e+01 9.246969223022460938e+00 -7.605953142046928406e-03 5.209310445934534073e-03 -7.189928437583148479e-04 2.144064567983150482e-02
7.612000000000000000e+03 4.383390426635742188e+01 9.376133918762207031e+00 -6.647677626460790634e-03 5.268485751003026962e-03 -4.137575451750308275e-04 1.721438951790332794e-02
7.613000000000000000e+03 5.291383361816406250e+01 1.881172561645507812e+01 -9.140983223915100098e-03 3.936570137739181519e-03 -1.561323995701968670e-03 2.461486961692571640e-03
7.614000000000000000e+03 5.027130508422851562e+01 1.802556610107421875e+01 -1.159182749688625336e-02 4.628772847354412079e-03 -2.088916487991809845e-03 2.043435117229819298e-03
7.615000000000000000e+03 4.111372375488281250e+01 7.573268413543701172e+00 8.842315524816513062e-03 -7.817913428880274296e-04 2.418157178908586502e-03 2.383966371417045593e-02
7.616000000000000000e+03 5.741764831542968750e+01 1.812992095947265625e+01 -6.170862819999456406e-03 2.786301542073488235e-03 -1.015368383377790451e-03 3.822751110419631004e-03
7.617000000000000000e+03 5.649839019775390625e+01 1.953684234619140625e+01 -6.683890707790851593e-03 2.873541787266731262e-03 -1.143104746006429195e-03 2.976480638608336449e-03
7.618000000000000000e+03 4.496836853027343750e+01 1.070499324798583984e+01 -1.135202497243881226e-02 6.947089452296495438e-03 -1.321480609476566315e-03 1.357314921915531158e-02
7.619000000000000000e+03 4.493451309204101562e+01 1.137712001800537109e+01 -1.378244534134864807e-02 7.655569817870855331e-03 -1.838062773458659649e-03 1.241577230393886566e-02
7.620000000000000000e+03 4.704372787475585938e+01 1.575226879119873047e+01 -1.610893011093139648e-02 6.246492266654968262e-03 -2.958731492981314659e-03 3.240919439122080803e-03
7.621000000000000000e+03 5.917092895507812500e+01 1.487806034088134766e+01 -4.686289001256227493e-03 2.183141186833381653e-03 -7.509443094022572041e-04 5.541963968425989151e-03
7.622000000000000000e+03 5.871382522583007812e+01 1.697882652282714844e+01 -5.395716987550258636e-03 2.418234013020992279e-03 -8.932449272833764553e-04 4.558532033115625381e-03
7.623000000000000000e+03 5.933907318115234375e+01 1.417921638488769531e+01 -4.368216730654239655e-03 1.968544675037264824e-03 -7.199016399681568146e-04 5.810136441141366959e-03
7.624000000000000000e+03 6.001853179931640625e+01 1.443620777130126953e+01 -4.195691086351871490e-03 1.794688869267702103e-03 -7.203006534837186337e-04 5.639041308313608170e-03
7.625000000000000000e+03 4.613496017456054688e+01 1.460092926025390625e+01 -1.751407235860824585e-02 7.191583514213562012e-03 -3.096746513620018959e-03 5.032941699028015137e-03
7.626000000000000000e+03 6.015369033813476562e+01 1.741323089599609375e+01 -4.749316256493330002e-03 1.858647097833454609e-03 -8.672007243148982525e-04 4.301249049603939056e-03
7.627000000000000000e+03 3.959542083740234375e+01 3.930289506912231445e+00 4.342855140566825867e-02 -7.921593263745307922e-03 1.065208762884140015e-02 3.624439937993884087e-03
7.628000000000000000e+03 4.306683731079101562e+01 2.506951093673706055e+00 2.455465309321880341e-02 -1.593424938619136810e-03 6.888368632644414902e-03 1.061604823917150497e-03
7.629000000000000000e+03 4.017008972167968750e+01 4.689823150634765625e+00 3.685702756047248840e-02 -8.070943877100944519e-03 8.635824546217918396e-03 9.725593961775302887e-03
7.630000000000000000e+03 5.795901870727539062e+01 1.345760059356689453e+01 -4.704751539975404739e-03 2.478006761521100998e-03 -6.680235383100807667e-04 6.287179887294769287e-03
7.631000000000000000e+03 5.164704132080078125e+01 1.907961845397949219e+01 -1.004755496978759766e-02 3.958213608711957932e-03 -1.826802617870271206e-03 1.793141942471265793e-03
7.632000000000000000e+03 5.314857101440429688e+01 1.939913749694824219e+01 -8.855191059410572052e-03 3.668353660032153130e-03 -1.556051080115139484e-03 2.157868817448616028e-03
7.633000000000000000e+03 4.834103393554687500e+01 9.964060783386230469e-01 1.141053065657615662e-02 2.556623658165335655e-03 4.190146457403898239e-03 2.407859312370419502e-03
7.634000000000000000e+03 4.455610656738281250e+01 1.940503716468811035e+00 1.952980086207389832e-02 1.200543483719229698e-04 5.894956178963184357e-03 1.061325310729444027e-03
7.635000000000000000e+03 4.210076141357421875e+01 6.714483737945556641e+00 1.355409715324640274e-02 -1.566138933412730694e-03 3.596387337893247604e-03 1.878887973725795746e-02
7.636000000000000000e+03 4.158139419555664062e+01 7.109929561614990234e+00 1.171648222953081131e-02 -1.096827560104429722e-03 3.185896202921867371e-03 2.099454589188098907e-02
7.637000000000000000e+03 5.155957412719726562e+01 6.160709261894226074e-01 7.295757532119750977e-03 2.825274365022778511e-03 3.036309499293565750e-03 3.920814488083124161e-03
7.638000000000000000e+03 5.366453552246093750e+01 -4.840892255306243896e-01 5.675803869962692261e-03 2.972132060676813126e-03 2.594380872324109077e-03 3.823329228907823563e-03
7.639000000000000000e+03 4.124580383300781250e+01 2.293019294738769531e+00 3.289987891912460327e-02 -1.504368148744106293e-03 9.418653324246406555e-03 -3.593486966565251350e-03
7.640000000000000000e+03 4.201802062988281250e+01 2.059974908828735352e+00 2.871055342257022858e-02 -1.370675978250801563e-03 8.201963268220424652e-03 -2.634038683027029037e-03
7.641000000000000000e+03 5.700978088378906250e+01 1.910364151000976562e+01 -6.403323262929916382e-03 2.819598419591784477e-03 -1.075117499567568302e-03 3.218358149752020836e-03
7.642000000000000000e+03 5.033896636962890625e+01 1.757519721984863281e+01 -1.166193280369043350e-02 4.846138879656791687e-03 -2.044738270342350006e-03 2.677187789231538773e-03
7.643000000000000000e+03 5.169995498657226562e+01 1.846623039245605469e+01 -1.030749827623367310e-02 4.292207770049571991e-03 -1.804587198421359062e-03 2.356912707909941673e-03
7.644000000000000000e+03 5.562830734252929688e+01 1.108804798126220703e+01 -4.114243667572736740e-03 3.094024257734417915e-03 -3.060658345930278301e-04 7.634027861058712006e-03
7.645000000000000000e+03 5.969331359863281250e+01 1.573112773895263672e+01 -4.651042167097330093e-03 2.006178256124258041e-03 -7.934592431411147118e-04 5.112071987241506577e-03
7.646000000000000000e+03 5.718886947631835938e+01 6.792050838470458984e+00 -3.703588445205241442e-04 1.521857688203454018e-03 3.454496618360280991e-04 7.730603218078613281e-03
7.647000000000000000e+03 5.257466125488281250e+01 1.964607429504394531e+01 -9.130527265369892120e-03 3.667326411232352257e-03 -1.638960326090455055e-03 1.745754270814359188e-03
7.648000000000000000e+03 5.862951278686523438e+01 1.389592742919921875e+01 -4.600182175636291504e-03 2.330465707927942276e-03 -6.809149635955691338e-04 6.002094596624374390e-03
7.649000000000000000e+03 5.944829940795898438e+01 1.677276420593261719e+01 -4.977239295840263367e-03 2.110686851665377617e-03 -8.599657448939979076e-04 4.624044056981801987e-03
7.650000000000000000e+03 5.069024658203125000e+01 -4.312887489795684814e-01 8.347623050212860107e-03 3.615228226408362389e-03 3.588855499401688576e-03 2.278143540024757385e-03
7.651000000000000000e+03 5.061002731323242188e+01 1.004186749458312988e+00 8.151594549417495728e-03 2.571323188021779060e-03 3.216875251382589340e-03 3.976895473897457123e-03
7.652000000000000000e+03 4.712411880493164062e+01 1.462072968482971191e+00 1.347837503999471664e-02 2.036227146163582802e-03 4.654380492866039276e-03 2.332666190341114998e-03
7.653000000000000000e+03 5.594395446777343750e+01 2.713302373886108398e+00 2.866602502763271332e-03 1.510930946096777916e-03 1.313260057941079140e-03 6.562168244272470474e-03
7.654000000000000000e+03 5.439964294433593750e+01 -1.784354090690612793e+00 5.150482524186372757e-03 3.084349678829312325e-03 2.470449544489383698e-03 3.341074101626873016e-03
7.655000000000000000e+03 5.577327728271484375e+01 5.398922920227050781e+00 9.956922149285674095e-04 1.608097343705594540e-03 7.811368559487164021e-04 7.658940274268388748e-03
7.656000000000000000e+03 4.910412979125976562e+01 1.571314930915832520e+00 9.905694983899593353e-03 2.241086680442094803e-03 3.644034499302506447e-03 3.938938025385141373e-03
7.657000000000000000e+03 5.692990875244140625e+01 3.859443426132202148e+00 1.752315787598490715e-03 1.234447932802140713e-03 8.960291161201894283e-04 7.079658564180135727e-03
7.658000000000000000e+03 5.608814239501953125e+01 -2.543792009353637695e+00 4.299686290323734283e-03 2.723492216318845749e-03 2.106953645125031471e-03 3.586446866393089294e-03
7.659000000000000000e+03 5.569420242309570312e+01 -1.020530819892883301e+00 4.320473875850439072e-03 2.220465801656246185e-03 1.962281996384263039e-03 4.369130823761224747e-03
7.660000000000000000e+03 5.274151992797851562e+01 -9.070804715156555176e-01 6.535082589834928513e-03 3.248801222071051598e-03 2.935165073722600937e-03 3.084849100559949875e-03
7.661000000000000000e+03 5.420381927490234375e+01 3.047577857971191406e+00 3.633493790403008461e-03 1.903922297060489655e-03 1.661224872805178165e-03 6.707273889333009720e-03
7.662000000000000000e+03 4.485481643676757812e+01 2.661599397659301758e+00 1.829135604202747345e-02 7.822425686754286289e-05 5.510874092578887939e-03 3.578633302822709084e-03
7.663000000000000000e+03 4.309264755249023438e+01 7.609030246734619141e+00 4.627034533768892288e-03 1.282991725020110607e-03 1.773007796145975590e-03 1.848175376653671265e-02
7.664000000000000000e+03 5.654133987426757812e+01 9.547867774963378906e+00 -2.571416785940527916e-03 2.363363513723015785e-03 -6.241593655431643128e-05 7.820862345397472382e-03
7.665000000000000000e+03 5.634962463378906250e+01 6.459006309509277344e+00 -8.040351531235501170e-06 1.639515627175569534e-03 4.894426092505455017e-04 7.847493514418601990e-03
7.666000000000000000e+03 5.803007507324218750e+01 -6.062631607055664062e+00 3.191304393112659454e-03 3.128677606582641602e-03 1.895994530059397221e-03 2.945485757663846016e-03
7.667000000000000000e+03 4.697732925415039062e+01 1.449734687805175781e+01 -1.583916321396827698e-02 6.973908748477697372e-03 -2.659576479345560074e-03 5.541335325688123703e-03
7.668000000000000000e+03 4.421649551391601562e+01 9.829094886779785156e+00 -8.520716801285743713e-03 6.049839779734611511e-03 -7.412632694467902184e-04 1.589102670550346375e-02
7.669000000000000000e+03 4.597817993164062500e+01 1.131679630279541016e+01 -1.175961177796125412e-02 6.968874949961900711e-03 -1.437221071682870388e-03 1.166115142405033112e-02
7.670000000000000000e+03 5.356293487548828125e+01 1.850077629089355469e+01 -8.663660846650600433e-03 3.832212882116436958e-03 -1.449434435926377773e-03 2.963192295283079147e-03
7.671000000000000000e+03 4.561358642578125000e+01 1.149968338012695312e+01 -1.301726326346397400e-02 7.332644890993833542e-03 -1.705385511741042137e-03 1.145576126873493195e-02
7.672000000000000000e+03 4.626735687255859375e+01 1.068494129180908203e+01 -9.397267363965511322e-03 6.277212873101234436e-03 -9.360162075608968735e-04 1.231114380061626434e-02
7.673000000000000000e+03 4.574713516235351562e+01 1.088471031188964844e+01 -1.085140276700258255e-02 6.696640513837337494e-03 -1.246428699232637882e-03 1.249324716627597809e-02
7.674000000000000000e+03 5.196371459960937500e+01 1.783858871459960938e+01 -9.951446205377578735e-03 4.369943402707576752e-03 -1.674450933933258057e-03 3.040171694010496140e-03
7.675000000000000000e+03 4.640069580078125000e+01 1.295534038543701172e+01 -1.484621688723564148e-02 7.606045342981815338e-03 -2.172051463276147842e-03 8.397554047405719757e-03
7.676000000000000000e+03 4.589463043212890625e+01 1.220296669006347656e+01 -1.434374414384365082e-02 7.753519807010889053e-03 -1.977067207917571068e-03 9.889210574328899384e-03
7.677000000000000000e+03 4.761587524414062500e+01 1.507169914245605469e+01 -1.512257475405931473e-02 6.550344638526439667e-03 -2.571668941527605057e-03 4.691345617175102234e-03
7.678000000000000000e+03 4.847484207153320312e+01 1.541241741180419922e+01 -1.378742326050996780e-02 6.129678338766098022e-03 -2.297323429957032204e-03 4.515001550316810608e-03
7.679000000000000000e+03 4.898618698120117188e+01 1.590506935119628906e+01 -1.311831735074520111e-02 5.780348088592290878e-03 -2.201390685513615608e-03 4.011683631688356400e-03
7.680000000000000000e+03 4.951259231567382812e+01 1.642634773254394531e+01 -1.254541147500276566e-02 5.445566959679126740e-03 -2.129953354597091675e-03 3.553089685738086700e-03
7.681000000000000000e+03 4.253605270385742188e+01 8.855965614318847656e+00 -3.932854160666465759e-03 4.405733197927474976e-03 1.418637693859636784e-04 2.035291865468025208e-02
7.682000000000000000e+03 5.071593093872070312e+01 1.780595397949218750e+01 -1.114386599510908127e-02 4.714423324912786484e-03 -1.928832847625017166e-03 2.497337991371750832e-03
7.683000000000000000e+03 4.209011459350585938e+01 8.440604209899902344e+00 -7.934327586553990841e-04 2.888608491048216820e-03 6.285526906140148640e-04 2.187022380530834198e-02
7.684000000000000000e+03 5.625259780883789062e+01 1.808574104309082031e+01 -6.832647137343883514e-03 3.187617519870400429e-03 -1.093508908525109291e-03 3.739971900358796120e-03
7.685000000000000000e+03 5.450977706909179688e+01 1.973935127258300781e+01 -7.848402485251426697e-03 3.297046991065144539e-03 -1.365406671538949013e-03 2.302167238667607307e-03
7.686000000000000000e+03 4.098656463623046875e+01 4.344758033752441406e+00 3.208529204130172729e-02 -5.999044049531221390e-03 7.825874723494052887e-03 8.206953294575214386e-03
7.687000000000000000e+03 4.021214294433593750e+01 5.189301490783691406e+00 3.420745953917503357e-02 -6.903274916112422943e-03 8.191254921257495880e-03 1.398031134158372879e-02
7.688000000000000000e+03 4.080914688110351562e+01 5.265748023986816406e+00 2.961188741028308868e-02 -6.685959175229072571e-03 6.877778563648462296e-03 1.403705962002277374e-02
7.689000000000000000e+03 4.508658599853515625e+01 9.977512359619140625e+00 -8.195087313652038574e-03 5.961358081549406052e-03 -6.701188394799828529e-04 1.447487436234951019e-02
7.690000000000000000e+03 4.543979263305664062e+01 1.043452167510986328e+01 -9.665504097938537598e-03 6.336970720440149307e-03 -9.985598735511302948e-04 1.350454799830913544e-02
7.691000000000000000e+03 5.606936264038085938e+01 1.868349838256835938e+01 -6.975692231208086014e-03 3.117547603324055672e-03 -1.157443388365209103e-03 3.292764304205775261e-03
7.692000000000000000e+03 5.524621582031250000e+01 1.918731498718261719e+01 -7.430994883179664612e-03 3.241652622818946838e-03 -1.256802701391279697e-03 2.871402306482195854e-03
7.693000000000000000e+03 4.085181045532226562e+01 6.091912746429443359e+00 2.281714044511318207e-02 -5.151859950274229050e-03 5.299584008753299713e-03 1.909943856298923492e-02
7.694000000000000000e+03 4.999094390869140625e+01 1.698620986938476562e+01 -1.204632502049207687e-02 5.137952044606208801e-03 -2.072511939331889153e-03 3.126577241346240044e-03
7.695000000000000000e+03 4.344181442260742188e+01 8.922817230224609375e+00 -3.977229353040456772e-03 4.493501968681812286e-03 1.548817963339388371e-04 1.816500350832939148e-02
7.696000000000000000e+03 5.799103164672851562e+01 1.717265319824218750e+01 -5.770641379058361053e-03 2.640901133418083191e-03 -9.389220504090189934e-04 4.397936630994081497e-03
7.697000000000000000e+03 5.843418121337890625e+01 1.473227405548095703e+01 -4.956568591296672821e-03 2.407435094937682152e-03 -7.647400489076972008e-04 5.672959610819816589e-03
7.698000000000000000e+03 4.052576065063476562e+01 3.596670866012573242e+00 3.663084283471107483e-02 -5.651134531944990158e-03 9.293912909924983978e-03 2.777758520096540451e-03
7.699000000000000000e+03 5.188024139404296875e+01 1.941695594787597656e+01 -9.726129472255706787e-03 3.814058145508170128e-03 -1.773621421307325363e-03 1.578962081111967564e-03
7.700000000000000000e+03 4.258454513549804688e+01 8.032150268554687500e+00 2.275039441883563995e-03 2.265017246827483177e-03 1.362017006613314152e-03 2.009330131113529205e-02
7.701000000000000000e+03 5.132070922851562500e+01 1.396327853202819824e+00 7.273277267813682556e-03 2.356044715270400047e-03 2.888796618208289146e-03 4.661357030272483826e-03
7.702000000000000000e+03 5.201554107666015625e+01 1.876845932006835938e+01 -9.829934686422348022e-03 4.113408736884593964e-03 -1.714957877993583679e-03 2.174628665670752525e-03
7.703000000000000000e+03 5.157541656494140625e+01 1.752145767211914062e+01 -1.033544633537530899e-02 4.633885342627763748e-03 -1.710468321107327938e-03 3.094476182013750076e-03
7.704000000000000000e+03 5.776944351196289062e+01 1.226636028289794922e+01 -4.144276957958936691e-03 2.368326764553785324e-03 -5.327850813046097755e-04 6.800924893468618393e-03
7.705000000000000000e+03 5.638353347778320312e+01 1.144271087646484375e+01 -4.135043825954198837e-03 2.779959002509713173e-03 -4.065255052410066128e-04 7.370830979198217392e-03
7.706000000000000000e+03 5.629999923706054688e+01 8.377712249755859375e+00 -1.607349724508821964e-03 2.163401804864406586e-03 1.668156037339940667e-04 7.987887598574161530e-03
7.707000000000000000e+03 5.502338027954101562e+01 2.784269809722900391e+00 3.267202526330947876e-03 1.642310176976025105e-03 1.472853822633624077e-03 6.527624558657407761e-03
7.708000000000000000e+03 5.601221847534179688e+01 3.719834804534912109e+00 2.220992231741547585e-03 1.400802982971072197e-03 1.086538541130721569e-03 7.012104149907827377e-03
7.709000000000000000e+03 5.091874313354492188e+01 2.079707145690917969e+00 7.134750485420227051e-03 2.200538292527198792e-03 2.800586633384227753e-03 5.311179440468549728e-03
7.710000000000000000e+03 4.584280395507812500e+01 3.169528722763061523e+00 1.497010886669158936e-02 2.993332745973020792e-04 4.580832552164793015e-03 5.629623774439096451e-03
7.711000000000000000e+03 4.412533950805664062e+01 2.936553478240966797e+00 2.002256922423839569e-02 -1.092701219022274017e-03 5.678960587829351425e-03 3.804667154327034950e-03
7.712000000000000000e+03 5.553600692749023438e+01 6.161625385284423828e+00 5.071877385489642620e-04 1.876417081803083420e-03 7.150814635679125786e-04 7.945724762976169586e-03
7.713000000000000000e+03 4.065798950195312500e+01 3.030399799346923828e+00 3.606117144227027893e-02 -3.752415068447589874e-03 9.692626073956489563e-03 -2.753417065832763910e-04
7.714000000000000000e+03 5.380658340454101562e+01 1.915865898132324219e+01 -8.396049961447715759e-03 3.618702525272965431e-03 -1.433204277418553829e-03 2.519225003197789192e-03
7.715000000000000000e+03 5.559878921508789062e+01 1.795684432983398438e+01 -7.272504270076751709e-03 3.373522544279694557e-03 -1.169694587588310242e-03 3.749188035726547241e-03
7.716000000000000000e+03 4.769643020629882812e+01 2.680913448333740234e+00 1.162041351199150085e-02 1.475271536037325859e-03 3.928705584257841110e-03 5.073295440524816513e-03
7.717000000000000000e+03 5.676424789428710938e+01 7.598704814910888672e+00 -9.893721435219049454e-04 1.753289019688963890e-03 2.291750570293515921e-04 7.890411652624607086e-03
7.718000000000000000e+03 5.348500442504882812e+01 3.458200931549072266e+00 3.749395487830042839e-03 1.949768397025763988e-03 1.709749223664402962e-03 6.833342369645833969e-03
7.719000000000000000e+03 5.477178192138671875e+01 5.902853965759277344e+00 9.119757451117038727e-04 1.904203090816736221e-03 8.448536391369998455e-04 7.958783768117427826e-03
7.720000000000000000e+03 5.339662170410156250e+01 1.114094018936157227e+00 5.315910093486309052e-03 2.353042829781770706e-03 2.300685970112681389e-03 5.169547162950038910e-03
7.721000000000000000e+03 5.744422531127929688e+01 1.401932334899902344e+01 -5.134706851094961166e-03 2.769725397229194641e-03 -7.094944594427943230e-04 6.050248164683580399e-03
7.722000000000000000e+03 4.979493331909179688e+01 2.155046463012695312e+00 8.492578752338886261e-03 2.039702842012047768e-03 3.159684361889958382e-03 5.060228984802961349e-03
7.723000000000000000e+03 4.697447204589843750e+01 2.375912427902221680e+00 1.329502183943986893e-02 9.387916070409119129e-04 4.270144272595643997e-03 4.268372897058725357e-03
7.724000000000000000e+03 4.727809524536132812e+01 1.481865119934082031e+01 -1.536860130727291107e-02 6.892038509249687195e-03 -2.542968839406967163e-03 4.951453767716884613e-03
7.725000000000000000e+03 4.356596374511718750e+01 8.081997871398925781e+00 1.304496661759912968e-03 2.663273829966783524e-03 1.190331182442605495e-03 1.783349923789501190e-02
7.726000000000000000e+03 5.213910293579101562e+01 1.834375000000000000e+01 -9.821118786931037903e-03 4.230140708386898041e-03 -1.677293446846306324e-03 2.606268040835857391e-03
7.727000000000000000e+03 5.009858322143554688e+01 1.646106529235839844e+01 -1.188790332525968552e-02 5.414102226495742798e-03 -1.942140399478375912e-03 3.693484468385577202e-03
7.728000000000000000e+03 4.721410369873046875e+01 1.242168807983398438e+01 -1.239645946770906448e-02 7.025748956948518753e-03 -1.611213199794292450e-03 9.058343246579170227e-03
7.729000000000000000e+03 4.799731445312500000e+01 1.530569934844970703e+01 -1.445286069065332413e-02 6.521380506455898285e-03 -2.379443962126970291e-03 4.456732887774705887e-03
7.730000000000000000e+03 4.471638107299804688e+01 9.515051841735839844e+00 -6.528162397444248199e-03 5.352718755602836609e-03 -3.526330401655286551e-04 1.553307659924030304e-02
7.731000000000000000e+03 4.650162124633789062e+01 1.235239696502685547e+01 -1.356537640094757080e-02 7.031272631138563156e-03 -1.960231224074959755e-03 9.687449783086776733e-03
7.732000000000000000e+03 4.596183776855468750e+01 1.017767429351806641e+01 -8.067740127444267273e-03 5.880223587155342102e-03 -6.562549970112740993e-04 1.323585957288742065e-02
7.733000000000000000e+03 4.026487731933593750e+01 5.666740417480468750e+00 3.018825873732566833e-02 -7.042067591100931168e-03 6.943857297301292419e-03 1.718962192535400391e-02
7.734000000000000000e+03 4.146921157836914062e+01 2.937841653823852539e+00 3.169323503971099854e-02 -3.650462720543146133e-03 8.412831462919712067e-03 5.991764483042061329e-04
7.735000000000000000e+03 5.539917755126953125e+01 1.856910133361816406e+01 -7.366489619016647339e-03 3.361669136211276054e-03 -1.201446168124675751e-03 3.267135471105575562e-03
7.736000000000000000e+03 4.561123657226562500e+01 9.684310913085937500e+00 -6.495756562799215317e-03 5.369049031287431717e-03 -3.380122361704707146e-04 1.408326718956232071e-02
7.737000000000000000e+03 4.209913635253906250e+01 7.592624187469482422e+00 6.231626030057668686e-03 6.147527019493281841e-04 2.053913660347461700e-03 2.087723091244697571e-02
7.738000000000000000e+03 5.068170166015625000e+01 1.656397438049316406e+01 -1.126527599990367889e-02 5.091280676424503326e-03 -1.852198736742138863e-03 3.803760977461934090e-03
7.739000000000000000e+03 5.052080535888671875e+01 1.710355567932128906e+01 -1.147500798106193542e-02 5.075937137007713318e-03 -1.919721486046910286e-03 3.141607157886028290e-03
7.740000000000000000e+03 5.471125793457031250e+01 1.840919303894042969e+01 -7.870249450206756592e-03 3.540554316714406013e-03 -1.298908493481576443e-03 3.259054850786924362e-03
7.741000000000000000e+03 5.671084594726562500e+01 1.849345588684082031e+01 -6.609723903238773346e-03 2.972775837406516075e-03 -1.091084326617419720e-03 3.571697976440191269e-03
7.742000000000000000e+03 4.113545227050781250e+01 6.575443267822265625e+00 1.768832653760910034e-02 -2.920808270573616028e-03 4.430255852639675140e-03 2.079483121633529663e-02
7.743000000000000000e+03 4.687846374511718750e+01 1.355338478088378906e+01 -1.493158470839262009e-02 7.366181816905736923e-03 -2.269621007144451141e-03 7.236485835164785385e-03
7.744000000000000000e+03 4.229283142089843750e+01 2.740033149719238281e+00 2.768164686858654022e-02 -1.807668129913508892e-03 7.762193679809570312e-03 9.842962026596069336e-04
7.745000000000000000e+03 5.581052780151367188e+01 9.148562431335449219e+00 -2.348346868529915810e-03 2.437024842947721481e-03 2.660342215676791966e-05 8.072747848927974701e-03
7.746000000000000000e+03 4.139403915405273438e+01 5.452764034271240234e+00 2.428319118916988373e-02 -4.077906720340251923e-03 6.061585620045661926e-03 1.453605853021144867e-02
7.747000000000000000e+03 5.844812011718750000e+01 1.555680370330810547e+01 -5.228106863796710968e-03 2.504541538655757904e-03 -8.170695509761571884e-04 5.276246462017297745e-03
7.748000000000000000e+03 5.693960189819335938e+01 1.355795574188232422e+01 -5.211116280406713486e-03 2.911069197580218315e-03 -6.900141015648841858e-04 6.401096470654010773e-03
7.749000000000000000e+03 5.246144485473632812e+01 9.684588909149169922e-01 6.232099141925573349e-03 2.397134667262434959e-03 2.588770119473338127e-03 4.647403024137020111e-03
7.750000000000000000e+03 5.342969894409179688e+01 2.851111292839050293e-01 5.749358795583248138e-03 2.582083921879529953e-03 2.499432768672704697e-03 4.308771342039108276e-03
7.751000000000000000e+03 5.855241012573242188e+01 1.629273605346679688e+01 -5.336560774594545364e-03 2.439691685140132904e-03 -8.690606919117271900e-04 4.846451804041862488e-03
7.752000000000000000e+03 4.729853057861328125e+01 1.397613906860351562e+01 -1.468313578516244888e-02 6.998531054705381393e-03 -2.305381232872605324e-03 6.555433850735425949e-03
7.753000000000000000e+03 5.734355926513671875e+01 1.294593906402587891e+01 -4.695539828389883041e-03 2.750610699877142906e-03 -5.834787152707576752e-04 6.611130665987730026e-03
7.754000000000000000e+03 5.150323867797851562e+01 1.802991676330566406e+01 -1.046300772577524185e-02 4.486503545194864273e-03 -1.792951137758791447e-03 2.599371364340186119e-03
7.755000000000000000e+03 5.709840774536132812e+01 1.183712100982666016e+01 -4.137918353080749512e-03 2.657794393599033356e-03 -4.440371994860470295e-04 7.055871654301881790e-03
7.756000000000000000e+03 5.531307601928710938e+01 9.930317878723144531e+00 -3.124315990135073662e-03 2.903516869992017746e-03 -6.623969238717108965e-05 8.074757643043994904e-03
7.757000000000000000e+03 5.605724716186523438e+01 1.031727123260498047e+01 -3.358428366482257843e-03 2.663108753040432930e-03 -2.085958403768017888e-04 7.805505301803350449e-03
7.758000000000000000e+03 4.701419830322265625e+01 1.302304935455322266e+01 -1.392309740185737610e-02 6.971197202801704407e-03 -2.085570245981216431e-03 8.257796987891197205e-03
7.759000000000000000e+03 5.457705688476562500e+01 3.908304929733276367e+00 2.734968438744544983e-03 1.760515151545405388e-03 1.348645077086985111e-03 7.148487493395805359e-03
7.760000000000000000e+03 5.406443023681640625e+01 5.042900085449218750e+00 2.004018751904368401e-03 1.880735973827540874e-03 1.165426452644169331e-03 7.861957885324954987e-03
7.761000000000000000e+03 5.491220855712890625e+01 5.148411750793457031e+00 1.479731989093124866e-03 1.888913684524595737e-03 1.010593725368380547e-03 7.726600859314203262e-03
7.762000000000000000e+03 5.367366409301757812e+01 1.751128768920898438e+01 -8.598397485911846161e-03 4.014605190604925156e-03 -1.375137828290462494e-03 3.734879195690155029e-03
7.763000000000000000e+03 5.266032409667968750e+01 1.821676063537597656e+01 -9.421712718904018402e-03 4.133865702897310257e-03 -1.586354104802012444e-03 2.887958427891135216e-03
7.764000000000000000e+03 5.107712936401367188e+01 3.285691261291503906e+00 5.995624233037233353e-03 2.005992690101265907e-03 2.400485100224614143e-03 6.599941756576299667e-03
7.765000000000000000e+03 5.022472000122070312e+01 1.555682063102722168e+00 8.369515649974346161e-03 2.294122474268078804e-03 3.199091646820306778e-03 4.485658835619688034e-03
7.766000000000000000e+03 4.475653457641601562e+01 4.213901042938232422e+00 1.577996648848056793e-02 -9.607868851162493229e-04 4.445753525942564011e-03 8.240798488259315491e-03
7.767000000000000000e+03 5.706659317016601562e+01 1.573807621002197266e+01 -5.980009678751230240e-03 3.037316724658012390e-03 -8.828079444356262684e-04 5.235078744590282440e-03
7.768000000000000000e+03 5.520799255371093750e+01 6.891391754150390625e+00 -2.383223618380725384e-04 2.056451980024576187e-03 5.454388447105884552e-04 8.198660798370838165e-03
7.769000000000000000e+03 5.598214340209960938e+01 7.235232830047607422e+00 -5.989470519125461578e-04 1.999623607844114304e-03 4.202029667794704437e-04 8.032076060771942139e-03
7.770000000000000000e+03 5.714305496215820312e+01 1.653731346130371094e+01 -6.159552838653326035e-03 2.985907951369881630e-03 -9.520934545435011387e-04 4.742202814668416977e-03
7.771000000000000000e+03 5.621739196777343750e+01 1.431244468688964844e+01 -5.919502582401037216e-03 3.277990967035293579e-03 -7.924534729681909084e-04 6.011867895722389221e-03
7.772000000000000000e+03 4.685684585571289062e+01 3.717624187469482422e+00 1.192845311015844345e-02 7.339255535043776035e-04 3.798713674768805504e-03 7.070362102240324020e-03
7.773000000000000000e+03 4.558351898193359375e+01 2.424061536788940430e+00 1.622763089835643768e-02 4.343287728261202574e-04 4.998588003218173981e-03 3.290492808446288109e-03
7.774000000000000000e+03 5.521771240234375000e+01 3.680791616439819336e+00 2.614637138321995735e-03 1.668476499617099762e-03 1.284934114664793015e-03 7.046099286526441574e-03
7.775000000000000000e+03 5.513952255249023438e+01 4.412047386169433594e+00 2.065653214231133461e-03 1.639035996049642563e-03 1.111406832933425903e-03 7.441892288625240326e-03
7.776000000000000000e+03 4.120425796508789062e+01 3.857739210128784180e+00 3.233397006988525391e-02 -4.902638029307126999e-03 8.229399099946022034e-03 4.860522225499153137e-03
7.777000000000000000e+03 5.374807739257812500e+01 2.081508636474609375e+00 4.651939962059259415e-03 2.024165820330381393e-03 2.002831781283020973e-03 5.822305101901292801e-03
7.778000000000000000e+03 5.472881317138671875e+01 1.711617588996887207e+00 4.070222843438386917e-03 1.973841106519103050e-03 1.813219161704182625e-03 5.815720185637474060e-03
7.779000000000000000e+03 5.471884918212890625e+01 -9.612382054328918457e-01 4.873793572187423706e-03 2.693873364478349686e-03 2.270300174131989479e-03 4.057579208165407181e-03
7.780000000000000000e+03 5.464491271972656250e+01 -1.703184284269809723e-02 4.799944814294576645e-03 2.240525791421532631e-03 2.112141111865639687e-03 4.698484204709529877e-03
7.781000000000000000e+03 4.870680236816406250e+01 2.247312545776367188e+00 1.019430998712778091e-02 1.880417345091700554e-03 3.622418269515037537e-03 4.696628078818321228e-03
7.782000000000000000e+03 5.785592651367187500e+01 1.642192077636718750e+01 -5.741514265537261963e-03 2.740944735705852509e-03 -9.001708240248262882e-04 4.829926416277885437e-03
7.783000000000000000e+03 5.722317886352539062e+01 1.735207366943359375e+01 -6.245475262403488159e-03 2.937436336651444435e-03 -9.924116311594843864e-04 4.276053048670291901e-03
7.784000000000000000e+03 5.776356506347656250e+01 1.563113021850585938e+01 -5.573841743171215057e-03 2.722882898524403572e-03 -8.552875369787216187e-04 5.222402513027191162e-03
7.785000000000000000e+03 4.683256149291992188e+01 1.405876064300537109e+01 -1.569816656410694122e-02 7.142510730773210526e-03 -2.566696843132376671e-03 6.206779740750789642e-03
7.786000000000000000e+03 5.103931045532226562e+01 1.731921195983886719e+01 -1.092903967946767807e-02 4.744751378893852234e-03 -1.855286536738276482e-03 3.138655796647071838e-03
7.787000000000000000e+03 4.652293014526367188e+01 9.907976150512695312e+00 -6.610079668462276459e-03 5.411137826740741730e-03 -3.596825990825891495e-04 1.281664241105318069e-02
7.788000000000000000e+03 4.727319335937500000e+01 1.174720287322998047e+01 -1.103278901427984238e-02 6.461681798100471497e-03 -1.371331978589296341e-03 1.019817590713500977e-02
7.789000000000000000e+03 4.738426589965820312e+01 1.429693317413330078e+01 -1.485425420105457306e-02 7.020357064902782440e-03 -2.350169233977794647e-03 6.002002395689487457e-03
7.790000000000000000e+03 4.260223770141601562e+01 4.175062656402587891e+00 2.407412789762020111e-02 -2.946961205452680588e-03 6.338150240480899811e-03 7.884764112532138824e-03
7.791000000000000000e+03 4.162608718872070312e+01 4.556425571441650391e+00 2.740290760993957520e-02 -4.468943923711776733e-03 6.880188826471567154e-03 9.106951765716075897e-03
7.792000000000000000e+03 4.903597259521484375e+01 1.535808944702148438e+01 -1.296237017959356308e-02 6.123365368694067001e-03 -2.051701303571462631e-03 4.751772154122591019e-03
7.793000000000000000e+03 4.958530807495117188e+01 1.587287521362304688e+01 -1.240532472729682922e-02 5.767665803432464600e-03 -1.991297816857695580e-03 4.220359958708286285e-03
7.794000000000000000e+03 5.319851684570312500e+01 1.791329574584960938e+01 -8.983810432255268097e-03 4.155155271291732788e-03 -1.448596594855189323e-03 3.299789270386099815e-03
7.795000000000000000e+03 4.757718658447265625e+01 1.453550052642822266e+01 -1.483054924756288528e-02 6.771649233996868134e-03 -2.417670097202062607e-03 5.578330717980861664e-03
7.796000000000000000e+03 4.657744598388671875e+01 1.177276039123535156e+01 -1.218015141785144806e-02 7.135089021176099777e-03 -1.513518858700990677e-03 1.043353229761123657e-02
7.797000000000000000e+03 4.615877151489257812e+01 9.384607315063476562e+00 -4.919786006212234497e-03 4.882897716015577316e-03 -1.106639956560684368e-05 1.364297699183225632e-02
7.798000000000000000e+03 5.184718322753906250e+01 1.693836975097656250e+01 -1.015061233192682266e-02 4.689402878284454346e-03 -1.638362766243517399e-03 3.782982239499688148e-03
7.799000000000000000e+03 4.579463577270507812e+01 8.873735427856445312e+00 -3.091445192694664001e-03 4.288638476282358170e-03 3.591580316424369812e-04 1.427390053868293762e-02
7.800000000000000000e+03 4.395873260498046875e+01 8.579641342163085938e+00 -1.999944448471069336e-03 3.735495265573263168e-03 5.206651985645294189e-04 1.730282790958881378e-02
7.801000000000000000e+03 4.524524688720703125e+01 9.198480606079101562e+00 -4.628447815775871277e-03 4.794426728039979935e-03 4.979367804480716586e-05 1.490445807576179504e-02
7.802000000000000000e+03 4.434245300292968750e+01 9.048125267028808594e+00 -4.359652753919363022e-03 4.665175918489694595e-03 9.165696246782317758e-05 1.641193404793739319e-02
7.803000000000000000e+03 4.735176849365234375e+01 1.362417221069335938e+01 -1.416097022593021393e-02 6.834011990576982498e-03 -2.198087517172098160e-03 7.158683147281408310e-03
7.804000000000000000e+03 5.430083084106445312e+01 1.579498291015625000e+01 -7.817429490387439728e-03 4.113113507628440857e-03 -1.111294957809150219e-03 5.102934781461954117e-03
7.805000000000000000e+03 4.757241821289062500e+01 1.320729732513427734e+01 -1.325291208922863007e-02 7.046923972666263580e-03 -1.861796481534838676e-03 7.816039025783538818e-03
7.806000000000000000e+03 5.634195709228515625e+01 1.319466209411621094e+01 -5.266368389129638672e-03 3.181160427629947662e-03 -6.255623302422463894e-04 6.646524649113416672e-03
7.807000000000000000e+03 5.411674499511718750e+01 1.804929733276367188e+01 -8.277487941086292267e-03 3.858420299366116524e-03 -1.325720339082181454e-03 3.366460092365741730e-03
7.808000000000000000e+03 5.126045989990234375e+01 1.672915267944335938e+01 -1.064378768205642700e-02 5.002855323255062103e-03 -1.692279824055731297e-03 3.803812665864825249e-03
7.809000000000000000e+03 4.839595031738281250e+01 2.905066013336181641e+00 9.962847456336021423e-03 1.441012253053486347e-03 3.421158064156770706e-03 5.785797256976366043e-03
7.810000000000000000e+03 5.575299453735351562e+01 1.732615661621093750e+01 -7.153052836656570435e-03 3.468366106972098351e-03 -1.105405972339212894e-03 4.156466107815504074e-03
7.811000000000000000e+03 5.697429656982421875e+01 1.495246601104736328e+01 -5.809690803289413452e-03 3.043817123398184776e-03 -8.297621388919651508e-04 5.628543905913829803e-03
7.812000000000000000e+03 4.788356399536132812e+01 1.268733882904052734e+01 -1.199949067085981369e-02 6.513694766908884048e-03 -1.645738608203828335e-03 8.667061105370521545e-03
7.813000000000000000e+03 5.430512619018554688e+01 1.511197090148925781e+01 -7.554356474429368973e-03 4.064006265252828598e-03 -1.047104946337640285e-03 5.547309760004281998e-03
7.814000000000000000e+03 5.395510482788085938e+01 4.259042263031005859e+00 2.828621538355946541e-03 1.915776170790195465e-03 1.423319336026906967e-03 7.406653836369514465e-03
7.815000000000000000e+03 5.556067657470703125e+01 7.990986347198486328e+00 -1.303416676819324493e-03 2.216625958681106567e-03 2.739627962000668049e-04 8.182046934962272644e-03
7.816000000000000000e+03 5.644374084472656250e+01 1.739192390441894531e+01 -6.726716645061969757e-03 3.183054737746715546e-03 -1.063098548911511898e-03 4.167922772467136383e-03
7.817000000000000000e+03 5.604423904418945312e+01 1.214992618560791016e+01 -4.755394533276557922e-03 3.133924910798668861e-03 -4.864408110734075308e-04 7.115803658962249756e-03
7.818000000000000000e+03 5.671200561523437500e+01 1.252425956726074219e+01 -4.677206743508577347e-03 2.822933718562126160e-03 -5.562819424085319042e-04 6.889046169817447662e-03
7.819000000000000000e+03 4.751022720336914062e+01 1.016016483306884766e+01 -6.684539373964071274e-03 5.385885946452617645e-03 -3.895960981026291847e-04 1.171672716736793518e-02
7.820000000000000000e+03 4.337714004516601562e+01 3.253670930862426758e+00 2.267393469810485840e-02 -1.586995553225278854e-03 6.326081696897745132e-03 4.646334331482648849e-03
7.821000000000000000e+03 4.514036560058593750e+01 3.372885942459106445e+00 1.628107577562332153e-02 -4.049401322845369577e-04 4.762840922921895981e-03 5.698003340512514114e-03
7.822000000000000000e+03 5.284590148925781250e+01 3.983278751373291016e+00 3.797007957473397255e-03 2.007751259952783585e-03 1.741427695378661156e-03 7.320481352508068085e-03
7.823000000000000000e+03 5.161801910400390625e+01 2.619527816772460938e+00 6.061667110770940781e-03 2.033893484622240067e-03 2.428668085485696793e-03 6.097162142395973206e-03
7.824000000000000000e+03 5.630156326293945312e+01 1.505549335479736328e+01 -6.202055606991052628e-03 3.329954808577895164e-03 -8.616302511654794216e-04 5.639087874442338943e-03
7.825000000000000000e+03 5.683263778686523438e+01 1.420558547973632812e+01 -5.585998296737670898e-03 3.075354732573032379e-03 -7.531929877586662769e-04 6.051109638065099716e-03
7.826000000000000000e+03 4.349211883544921875e+01 7.090924739837646484e+00 7.440406363457441330e-03 8.990192436613142490e-04 2.501827664673328400e-03 1.700532436370849609e-02
7.827000000000000000e+03 4.608899307250976562e+01 3.944274187088012695e+00 1.312706060707569122e-02 3.058352604057290591e-06 3.939035814255475998e-03 7.424396928399801254e-03
7.828000000000000000e+03 5.510116577148437500e+01 8.748635292053222656e+00 -1.995614264160394669e-03 2.642701379954814911e-03 1.941261143656447530e-04 8.272619917988777161e-03
7.829000000000000000e+03 5.768550109863281250e+01 1.478282070159912109e+01 -5.340113304555416107e-03 2.754463581368327141e-03 -7.756948471069335938e-04 5.738252773880958557e-03
7.830000000000000000e+03 4.172148513793945312e+01 3.549001216888427734e+00 3.016678802669048309e-02 -3.730560885742306709e-03 7.930868305265903473e-03 4.328100476413965225e-03
7.831000000000000000e+03 5.481861114501953125e+01 7.611011028289794922e+00 -8.698169258423149586e-04 2.422044752165675163e-03 4.656683595385402441e-04 8.327789604663848877e-03
7.832000000000000000e+03 4.654188919067382812e+01 2.933889627456665039e+00 1.337515749037265778e-02 6.777647649869322777e-04 4.215876571834087372e-03 5.167744122445583344e-03
7.833000000000000000e+03 4.891400527954101562e+01 3.311197757720947266e+00 8.688945323228836060e-03 1.630295882932841778e-03 3.095772350206971169e-03 6.357232574373483658e-03
7.834000000000000000e+03 5.044844818115234375e+01 2.723017215728759766e+00 7.172929123044013977e-03 1.990296179428696632e-03 2.748967614024877548e-03 6.036227103322744370e-03
7.835000000000000000e+03 5.081398773193359375e+01 1.598141288757324219e+01 -1.098827086389064789e-02 5.342985037714242935e-03 -1.693585771135985851e-03 4.442414268851280212e-03
7.836000000000000000e+03 5.242496109008789062e+01 1.764919853210449219e+01 -9.654998779296875000e-03 4.404975101351737976e-03 -1.575007219798862934e-03 3.291974775493144989e-03
7.837000000000000000e+03 4.901348495483398438e+01 1.482999801635742188e+01 -1.268309075385332108e-02 6.141939666122198105e-03 -1.962345326319336891e-03 5.464002024382352829e-03
7.838000000000000000e+03 4.303231811523437500e+01 8.472136497497558594e+00 -1.162287546321749687e-03 3.254744689911603928e-03 6.277370848692953587e-04 1.940673403441905975e-02
7.839000000000000000e+03 4.671167755126953125e+01 9.067145347595214844e+00 -3.669710597023367882e-03 4.486047662794589996e-03 2.449011080898344517e-04 1.310967002063989639e-02
7.840000000000000000e+03 5.394719696044921875e+01 9.074689865112304688e+00 -2.447640756145119667e-03 3.092763014137744904e-03 1.935366744874045253e-04 8.580214343965053558e-03
7.841000000000000000e+03 4.963791656494140625e+01 1.528180313110351562e+01 -1.205403916537761688e-02 5.744856782257556915e-03 -1.892754575237631798e-03 4.996560513973236084e-03
7.842000000000000000e+03 5.019655609130859375e+01 1.589312076568603516e+01 -1.166138984262943268e-02 5.422820802778005600e-03 -1.871570711955428123e-03 4.402088932693004608e-03
7.843000000000000000e+03 4.711592864990234375e+01 1.107018566131591797e+01 -9.475022554397583008e-03 6.297731306403875351e-03 -9.531873511150479317e-04 1.118012610822916031e-02
7.844000000000000000e+03 4.634992980957031250e+01 8.550271034240722656e+00 -1.764210872352123260e-03 3.849979024380445480e-03 6.257304921746253967e-04 1.357712224125862122e-02
7.845000000000000000e+03 5.636930847167968750e+01 1.582103252410888672e+01 -6.430420558899641037e-03 3.285671351477503777e-03 -9.434247040189802647e-04 5.140557419508695602e-03
7.846000000000000000e+03 4.487644195556640625e+01 8.715191841125488281e+00 -2.486038254573941231e-03 4.052298143506050110e-03 4.698779084719717503e-04 1.569153554737567902e-02
7.847000000000000000e+03 4.543360900878906250e+01 8.361703872680664062e+00 -8.658645674586296082e-04 3.546263324096798897e-03 8.041196269914507866e-04 1.471177395433187485e-02
7.848000000000000000e+03 5.518112564086914062e+01 1.678000068664550781e+01 -7.423540577292442322e-03 3.678178181871771812e-03 -1.123608672060072422e-03 4.528690595179796219e-03
7.849000000000000000e+03 4.413636016845703125e+01 7.787188529968261719e+00 2.753163455054163933e-03 2.279392676427960396e-03 1.509766792878508568e-03 1.666453666985034943e-02
7.850000000000000000e+03 4.255201721191406250e+01 3.457695245742797852e+00 2.571400441229343414e-02 -3.179871710017323494e-03 6.760240066796541214e-03 4.571678582578897476e-03
7.851000000000000000e+03 5.642840957641601562e+01 1.660124778747558594e+01 -6.555662490427494049e-03 3.257890697568655014e-03 -9.893315145745873451e-04 4.718900658190250397e-03
7.852000000000000000e+03 5.577822113037109375e+01 1.279062175750732422e+01 -5.258041899651288986e-03 3.243724582716822624e-03 -6.042952300049364567e-04 6.925223860889673233e-03
7.853000000000000000e+03 5.588350677490234375e+01 1.375420951843261719e+01 -5.881248973309993744e-03 3.371914615854620934e-03 -7.528002606704831123e-04 6.378662306815385818e-03
7.854000000000000000e+03 4.812508773803710938e+01 1.434029579162597656e+01 -1.364471018314361572e-02 6.502009462565183640e-03 -2.142810029909014702e-03 6.077514495700597763e-03
7.855000000000000000e+03 4.767810821533203125e+01 1.385387229919433594e+01 -1.380630116909742355e-02 6.917093880474567413e-03 -2.066762186586856842e-03 6.685352418571710587e-03
7.856000000000000000e+03 5.529994583129882812e+01 1.187381362915039062e+01 -4.884831141680479050e-03 3.287944942712783813e-03 -4.790658713318407536e-04 7.424532435834407806e-03
7.857000000000000000e+03 4.804120635986328125e+01 1.355131244659423828e+01 -1.290529966354370117e-02 6.561481393873691559e-03 -1.903145457617938519e-03 7.351950276643037796e-03
7.858000000000000000e+03 4.430654144287109375e+01 4.483073234558105469e+00 1.639502309262752533e-02 -1.174740144051611423e-03 4.566085059195756912e-03 9.433495812118053436e-03
7.859000000000000000e+03 5.540852737426757812e+01 1.326986122131347656e+01 -5.854933056980371475e-03 3.557415679097175598e-03 -6.892551900818943977e-04 6.680414080619812012e-03
7.860000000000000000e+03 4.257030487060546875e+01 7.190885543823242188e+00 8.618913590908050537e-03 1.239362463820725679e-04 2.622854895889759064e-03 1.885268464684486389e-02
7.861000000000000000e+03 4.163254547119140625e+01 6.225241661071777344e+00 1.815423183143138885e-02 -2.874321769922971725e-03 4.583972971886396408e-03 1.757492870092391968e-02
7.862000000000000000e+03 5.291946411132812500e+01 2.589673519134521484e+00 4.981589503586292267e-03 2.032398013398051262e-03 2.104196231812238693e-03 6.218969821929931641e-03
7.863000000000000000e+03 5.168108749389648438e+01 3.884201049804687500e+00 4.877252504229545593e-03 1.960424007847905159e-03 2.051302930340170860e-03 7.269752211868762970e-03
7.864000000000000000e+03 4.201110839843750000e+01 4.939635276794433594e+00 2.353338897228240967e-02 -3.247579792514443398e-03 6.085743196308612823e-03 1.169704366475343704e-02
7.865000000000000000e+03 4.381454467773437500e+01 3.947035074234008789e+00 1.957977376878261566e-02 -1.877632574178278446e-03 5.310642533004283905e-03 7.232668809592723846e-03
7.866000000000000000e+03 5.227195358276367188e+01 3.258188724517822266e+00 4.946964327245950699e-03 2.044468885287642479e-03 2.097429940477013588e-03 6.639470811933279037e-03
7.867000000000000000e+03 5.404736328125000000e+01 7.214844703674316406e+00 -3.526117943692952394e-04 2.379137324169278145e-03 6.079576560296118259e-04 8.546328172087669373e-03
7.868000000000000000e+03 5.445571136474609375e+01 6.526172637939453125e+00 4.030744603369385004e-04 2.197284251451492310e-03 7.801076280884444714e-04 8.306522853672504425e-03
7.869000000000000000e+03 4.310003280639648438e+01 4.962913990020751953e+00 1.949321851134300232e-02 -2.345293760299682617e-03 5.144377704709768295e-03 1.088297646492719650e-02
7.870000000000000000e+03 5.143641281127929688e+01 1.612539863586425781e+01 -1.041283458471298218e-02 5.001188721507787704e-03 -1.623493619263172150e-03 4.463871009647846222e-03
7.871000000000000000e+03 5.241894912719726562e+01 1.711443138122558594e+01 -9.637803770601749420e-03 4.572459030896425247e-03 -1.519603421911597252e-03 3.698112675920128822e-03
7.872000000000000000e+03 5.451109695434570312e+01 1.753534698486328125e+01 -7.970859296619892120e-03 3.750021802261471748e-03 -1.266251318156719208e-03 3.856381401419639587e-03
7.873000000000000000e+03 5.285993957519531250e+01 1.740384101867675781e+01 -9.276313707232475281e-03 4.290009383112192154e-03 -1.495891367085278034e-03 3.648007521405816078e-03
7.874000000000000000e+03 5.401850891113281250e+01 5.886656284332275391e+00 1.115102088078856468e-03 2.207988407462835312e-03 9.969271486625075340e-04 8.168738335371017456e-03
7.875000000000000000e+03 5.561600494384765625e+01 1.435076332092285156e+01 -6.325857248157262802e-03 3.607124788686633110e-03 -8.156198309734463692e-04 6.094576325267553329e-03
7.876000000000000000e+03 5.519361114501953125e+01 1.262575054168701172e+01 -5.521511659026145935e-03 3.584487130865454674e-03 -5.811072769574820995e-04 7.112686987966299057e-03
7.877000000000000000e+03 4.317045593261718750e+01 6.306734085083007812e+00 1.261308044195175171e-02 -5.148703930899500847e-04 3.629463026300072670e-03 1.548966858536005020e-02
7.878000000000000000e+03 4.445898437500000000e+01 3.609743118286132812e+00 1.827049255371093750e-02 -8.533589425496757030e-04 5.225140135735273361e-03 6.286235991865396500e-03
7.879000000000000000e+03 4.765110397338867188e+01 3.592658281326293945e+00 1.038470398634672165e-02 9.686636622063815594e-04 3.406010335311293602e-03 6.686639506369829178e-03
7.880000000000000000e+03 4.935543441772460938e+01 2.767852067947387695e+00 8.519230410456657410e-03 1.808162662200629711e-03 3.098218003287911415e-03 5.933020729571580887e-03
7.881000000000000000e+03 4.148509979248046875e+01 4.989848613739013672e+00 2.634876407682895660e-02 -5.557916127145290375e-03 6.237254478037357330e-03 1.208248082548379898e-02
7.882000000000000000e+03 4.086782836914062500e+01 4.813975811004638672e+00 3.080777078866958618e-02 -5.199262406677007675e-03 7.682552561163902283e-03 1.109579019248485565e-02
7.883000000000000000e+03 4.703920745849609375e+01 4.603669643402099609e+00 9.483971633017063141e-03 7.385294302366673946e-04 3.066750243306159973e-03 8.739181794226169586e-03
7.884000000000000000e+03 5.460108184814453125e+01 9.514324188232421875e+00 -2.863680245354771614e-03 2.926732413470745087e-03 1.891565261757932603e-05 8.360704407095909119e-03
7.885000000000000000e+03 4.882438659667968750e+01 1.435886192321777344e+01 -1.267757546156644821e-02 6.267766933888196945e-03 -1.922942581586539745e-03 6.097618024796247482e-03
7.886000000000000000e+03 4.961649322509765625e+01 1.463345718383789062e+01 -1.179422624409198761e-02 6.009583361446857452e-03 -1.735392841510474682e-03 5.831798538565635681e-03
7.887000000000000000e+03 5.157664871215820312e+01 1.550285243988037109e+01 -1.002610940486192703e-02 5.190402269363403320e-03 -1.450712094083428383e-03 5.117421038448810577e-03
7.888000000000000000e+03 5.206456375122070312e+01 1.630709266662597656e+01 -9.797573089599609375e-03 4.882709588855504990e-03 -1.474459189921617508e-03 4.429015330970287323e-03
7.889000000000000000e+03 5.194943237304687500e+01 6.707432746887207031e+00 1.007865997962653637e-03 2.656725002452731133e-03 1.099377288483083248e-03 8.972818963229656219e-03
7.890000000000000000e+03 5.374714660644531250e+01 1.150936126708984375e+01 -5.213444586843252182e-03 3.796263830736279488e-03 -4.251542850397527218e-04 7.988970726728439331e-03
7.891000000000000000e+03 4.781332397460937500e+01 1.083480262756347656e+01 -8.153920061886310577e-03 5.687362048774957657e-03 -7.399675669148564339e-04 1.099630724638700485e-02
7.892000000000000000e+03 4.600922393798828125e+01 8.017827033996582031e+00 3.341485862620174885e-04 3.201181534677743912e-03 1.060599111951887608e-03 1.392909791320562363e-02
7.893000000000000000e+03 4.837479782104492188e+01 1.221261405944824219e+01 -1.041227392852306366e-02 6.263103801757097244e-03 -1.244751038029789925e-03 9.058911353349685669e-03
7.894000000000000000e+03 4.260766983032226562e+01 6.405350685119628906e+00 1.392841152846813202e-02 -1.794928917661309242e-03 3.640044713392853737e-03 1.629308797419071198e-02
7.895000000000000000e+03 4.305032348632812500e+01 5.754082679748535156e+00 1.539163105189800262e-02 -1.949899364262819290e-03 4.032519645988941193e-03 1.383654680103063583e-02
7.896000000000000000e+03 4.709984970092773438e+01 9.591525077819824219e+00 -5.125524941831827164e-03 4.922012332826852798e-03 -6.105386273702606559e-05 1.254980172961950302e-02
7.897000000000000000e+03 5.449667739868164062e+01 1.161109828948974609e+01 -5.002067890018224716e-03 3.662593895569443703e-03 -4.018421459477394819e-04 7.713500875979661942e-03
7.898000000000000000e+03 5.521311187744140625e+01 1.728388595581054688e+01 -7.458112202584743500e-03 3.587103914469480515e-03 -1.161302556283771992e-03 4.140670876950025558e-03
7.899000000000000000e+03 5.500685501098632812e+01 1.781031227111816406e+01 -7.660451345145702362e-03 3.653431776911020279e-03 -1.202105777338147163e-03 3.752524964511394501e-03
7.900000000000000000e+03 4.193158340454101562e+01 5.780338764190673828e+00 1.988932304084300995e-02 -3.796401200816035271e-03 4.827876575291156769e-03 1.578017510473728180e-02
7.901000000000000000e+03 5.463917160034179688e+01 1.280978584289550781e+01 -5.859185010194778442e-03 3.761562285944819450e-03 -6.292868638411164284e-04 7.093313615769147873e-03
7.902000000000000000e+03 4.336235809326171875e+01 4.449291229248046875e+00 2.000860311090946198e-02 -2.413867041468620300e-03 5.278420634567737579e-03 9.331073611974716187e-03
7.903000000000000000e+03 5.483068084716796875e+01 1.073893928527832031e+01 -4.105517640709877014e-03 3.218703437596559525e-03 -2.660442260093986988e-04 7.993501611053943634e-03
7.904000000000000000e+03 5.279621505737304688e+01 5.259038925170898438e+00 2.440579002723097801e-03 2.184489043429493904e-03 1.387520460411906242e-03 8.117645978927612305e-03
7.905000000000000000e+03 4.997166061401367188e+01 4.592484951019287109e+00 5.618668626993894577e-03 1.956185791641473770e-03 2.272456418722867966e-03 8.049633353948593140e-03
7.906000000000000000e+03 4.842124557495117188e+01 1.313649654388427734e+01 -1.173909753561019897e-02 6.538761779665946960e-03 -1.560100703500211239e-03 7.746469229459762573e-03
7.907000000000000000e+03 4.255233001708984375e+01 4.782880306243896484e+00 2.191329188644886017e-02 -3.705547656863927841e-03 5.462323315441608429e-03 1.082766149193048477e-02
7.908000000000000000e+03 5.320888137817382812e+01 6.100053310394287109e+00 1.285149599425494671e-03 2.222932176664471626e-03 1.052424544468522072e-03 8.389801718294620514e-03
7.909000000000000000e+03 5.338249969482421875e+01 4.710728168487548828e+00 2.683594357222318649e-03 2.066664164885878563e-03 1.425077556632459164e-03 7.669254206120967865e-03
7.910000000000000000e+03 5.215377807617187500e+01 1.873147964477539062e+00 6.013395730406045914e-03 2.292026532813906670e-03 2.491626655682921410e-03 5.414613988250494003e-03
7.911000000000000000e+03 5.271000289916992188e+01 1.653036689758300781e+01 -9.309577755630016327e-03 4.508913494646549225e-03 -1.440199208445847034e-03 4.359698388725519180e-03
7.912000000000000000e+03 5.424278259277343750e+01 1.236359119415283203e+01 -5.833214148879051208e-03 3.807664848864078522e-03 -6.076648714952170849e-04 7.408411242067813873e-03
7.913000000000000000e+03 5.573534774780273438e+01 1.663182640075683594e+01 -7.046018727123737335e-03 3.507702611386775970e-03 -1.061494811438024044e-03 4.607750568538904190e-03
7.914000000000000000e+03 5.410750579833984375e+01 1.710988235473632812e+01 -8.248082362115383148e-03 4.019340965896844864e-03 -1.268622465431690216e-03 4.016848281025886536e-03
7.915000000000000000e+03 4.994144439697265625e+01 3.354868173599243164e+00 7.100967224687337875e-03 1.892407308332622051e-03 2.698012394830584526e-03 6.568137556314468384e-03
7.916000000000000000e+03 4.837081909179687500e+01 3.577225208282470703e+00 9.283133782446384430e-03 1.547302003018558025e-03 3.249130677431821823e-03 6.831442471593618393e-03
7.917000000000000000e+03 5.563971710205078125e+01 1.510170650482177734e+01 -6.662123836576938629e-03 3.577188821509480476e-03 -9.254805045202374458e-04 5.587365012615919113e-03
7.918000000000000000e+03 4.522817993164062500e+01 6.173921585083007812e+00 8.582934737205505371e-03 4.159338423050940037e-04 2.699660602957010269e-03 1.285237539559602737e-02
7.919000000000000000e+03 4.537574005126953125e+01 4.091268062591552734e+00 1.473186817020177841e-02 -2.291363780386745930e-04 4.350819624960422516e-03 7.859900593757629395e-03
7.920000000000000000e+03 5.496364212036132812e+01 1.431976413726806641e+01 -6.724024657160043716e-03 3.791754599660634995e-03 -8.796809706836938858e-04 6.101060658693313599e-03
7.921000000000000000e+03 5.052973175048828125e+01 3.923353433609008789e+00 5.983967799693346024e-03 1.873667002655565739e-03 2.357290359213948250e-03 7.305288221687078476e-03
7.922000000000000000e+03 4.782429885864257812e+01 4.476333141326904297e+00 8.705320768058300018e-03 1.309832325205206871e-03 3.004546044394373894e-03 8.524326607584953308e-03
7.923000000000000000e+03 5.373056793212890625e+01 7.996418952941894531e+00 -1.260459423065185547e-03 2.830329583957791328e-03 4.709610075224190950e-04 8.695810101926326752e-03
7.924000000000000000e+03 5.441212844848632812e+01 8.351366996765136719e+00 -1.641054754145443439e-03 2.630466828122735023e-03 2.968235930893570185e-04 8.498372510075569153e-03
7.925000000000000000e+03 5.324645996093750000e+01 6.988826274871826172e+00 9.104633500101044774e-05 2.613765187561511993e-03 8.114434895105659962e-04 8.690450340509414673e-03
7.926000000000000000e+03 4.801454162597656250e+01 1.156920146942138672e+01 -9.797261096537113190e-03 6.229445803910493851e-03 -1.070344587787985802e-03 9.980469010770320892e-03
7.927000000000000000e+03 4.407238006591796875e+01 7.289124965667724609e+00 5.483196582645177841e-03 1.001544645987451077e-03 1.945422380231320858e-03 1.633368805050849915e-02
7.928000000000000000e+03 5.303049468994140625e+01 1.442055892944335938e+01 -8.153252303600311279e-03 4.641422536224126816e-03 -1.053548767231404781e-03 6.116155534982681274e-03
7.929000000000000000e+03 5.031966018676757812e+01 1.457342815399169922e+01 -1.094849221408367157e-02 5.638068541884422302e-03 -1.593127031810581684e-03 5.969249643385410309e-03
7.930000000000000000e+03 5.027442550659179688e+01 1.527346515655517578e+01 -1.136219035834074020e-02 5.674242507666349411e-03 -1.706384355202317238e-03 5.090075079351663589e-03
7.931000000000000000e+03 4.846278762817382812e+01 1.395280647277832031e+01 -1.258930563926696777e-02 6.537076551467180252e-03 -1.815668772906064987e-03 6.641920655965805054e-03
7.932000000000000000e+03 4.461387634277343750e+01 7.453548431396484375e+00 3.875481197610497475e-03 2.194114727899432182e-03 1.820878707803785801e-03 1.507185492664575577e-02
7.933000000000000000e+03 4.764992904663085938e+01 9.198062896728515625e+00 -3.912017680704593658e-03 4.497068934142589569e-03 1.755153061822056770e-04 1.217548642307519913e-02
7.934000000000000000e+03 5.339007186889648438e+01 8.666046142578125000e+00 -2.078861696645617485e-03 2.985461615025997162e-03 2.719799522310495377e-04 8.818473666906356812e-03
7.935000000000000000e+03 4.724724578857421875e+01 8.718188285827636719e+00 -2.391820773482322693e-03 4.066058900207281113e-03 5.022714613005518913e-04 1.257735677063465118e-02
7.936000000000000000e+03 5.406699752807617188e+01 1.027318859100341797e+01 -3.844969207420945168e-03 3.454041900113224983e-03 -1.172781921923160553e-04 8.325859904289245605e-03
7.937000000000000000e+03 4.245804214477539062e+01 5.911930561065673828e+00 1.676755398511886597e-02 -1.949471537955105305e-03 4.445424769073724747e-03 1.585823297500610352e-02
7.938000000000000000e+03 4.936589431762695312e+01 3.978007316589355469e+00 7.166828960180282593e-03 1.718187704682350159e-03 2.665505046024918556e-03 7.530643604695796967e-03
7.939000000000000000e+03 5.210639190673828125e+01 5.706339836120605469e+00 2.215843880549073219e-03 2.314487472176551819e-03 1.359099405817687511e-03 8.415060117840766907e-03
7.940000000000000000e+03 4.962620925903320312e+01 5.385018348693847656e+00 4.751237574964761734e-03 1.860513351857662201e-03 1.983525231480598450e-03 8.941106498241424561e-03
7.941000000000000000e+03 5.232840728759765625e+01 1.318859195709228516e+01 -7.761701010167598724e-03 4.799256101250648499e-03 -8.887334843166172504e-04 7.202597800642251968e-03
7.942000000000000000e+03 4.928358459472656250e+01 1.321661853790283203e+01 -1.092053670436143875e-02 6.184190977364778519e-03 -1.420903718098998070e-03 7.510715164244174957e-03
7.943000000000000000e+03 4.934685134887695312e+01 1.405133914947509766e+01 -1.146325375884771347e-02 6.078676786273717880e-03 -1.615373068489134312e-03 6.496360991150140762e-03
7.944000000000000000e+03 5.325616455078125000e+01 1.694547271728515625e+01 -8.878654800355434418e-03 4.354447126388549805e-03 -1.357262372039258480e-03 4.044581670314073563e-03
7.945000000000000000e+03 5.566605377197265625e+01 1.587269401550292969e+01 -6.870961748063564301e-03 3.580678254365921021e-03 -9.870850481092929840e-04 5.125148221850395203e-03
7.946000000000000000e+03 5.482552337646484375e+01 1.710656356811523438e+01 -7.797251455485820770e-03 3.856495954096317291e-03 -1.182226580567657948e-03 4.202148411422967911e-03
7.947000000000000000e+03 5.092301940917968750e+01 1.536017227172851562e+01 -1.070639584213495255e-02 5.327018909156322479e-03 -1.613813219591975212e-03 5.152083002030849457e-03
7.948000000000000000e+03 5.224562835693359375e+01 4.543275833129882812e+00 3.678029635921120644e-03 2.067563822492957115e-03 1.723677967675030231e-03 7.687568198889493942e-03
7.949000000000000000e+03 5.251641845703125000e+01 6.946171760559082031e+00 4.485372628550976515e-04 2.555387327447533607e-03 9.011773508973419666e-04 8.972859941422939301e-03
7.950000000000000000e+03 4.274015045166015625e+01 5.263469696044921875e+00 1.969061791896820068e-02 -2.753851702436804771e-03 5.081029608845710754e-03 1.258647721260786057e-02
7.951000000000000000e+03 5.484352111816406250e+01 1.353831195831298828e+01 -6.283480674028396606e-03 3.774388460442423820e-03 -7.527276757173240185e-04 6.612861994653940201e-03
7.952000000000000000e+03 5.364357757568359375e+01 1.442195320129394531e+01 -7.711186539381742477e-03 4.321279004216194153e-03 -1.016972237266600132e-03 6.077032536268234253e-03
7.953000000000000000e+03 4.457785415649414062e+01 5.340260505676269531e+00 1.301996968686580658e-02 -7.132403552532196045e-04 3.692018799483776093e-03 1.140299160033464432e-02
7.954000000000000000e+03 4.810428619384765625e+01 9.708888053894042969e+00 -5.018704105168581009e-03 4.879205487668514252e-03 -4.184951103525236249e-05 1.154008507728576660e-02
7.955000000000000000e+03 4.505721282958984375e+01 7.845760345458984375e+00 1.796780386939644814e-03 2.603245200589299202e-03 1.320007722824811935e-03 1.516985334455966949e-02
7.956000000000000000e+03 5.302988815307617188e+01 7.768393039703369141e+00 -9.625796810723841190e-04 2.778356429189443588e-03 5.447330186143517494e-04 8.968161419034004211e-03
7.957000000000000000e+03 5.336326980590820312e+01 9.724514961242675781e+00 -3.364152275025844574e-03 3.407952841371297836e-03 1.314019300480140373e-05 8.746233768761157990e-03
7.958000000000000000e+03 5.164770126342773438e+01 5.074878215789794922e+00 3.325414145365357399e-03 2.158051822334527969e-03 1.645039767026901245e-03 8.264247328042984009e-03
7.959000000000000000e+03 5.229261779785156250e+01 7.617045402526855469e+00 -5.571460351347923279e-04 3.013664158061146736e-03 7.369554368779063225e-04 9.142573922872543335e-03
7.960000000000000000e+03 4.645010757446289062e+01 5.586577892303466797e+00 8.191348984837532043e-03 8.031146135181188583e-04 2.698339056223630905e-03 1.074881013482809067e-02
7.961000000000000000e+03 4.624697494506835938e+01 4.782281875610351562e+00 1.092390343546867371e-02 5.898064700886607170e-04 3.454112913459539413e-03 9.416895918548107147e-03
7.962000000000000000e+03 5.412739944458007812e+01 1.297750473022460938e+01 -6.342410109937191010e-03 4.025318194180727005e-03 -6.951277027837932110e-04 7.076752837747335434e-03
7.963000000000000000e+03 5.483011627197265625e+01 1.641749000549316406e+01 -7.537316065281629562e-03 3.865234088152647018e-03 -1.101624686270952225e-03 4.716159310191869736e-03
7.964000000000000000e+03 5.292240524291992188e+01 1.583862781524658203e+01 -8.915349841117858887e-03 4.637936130166053772e-03 -1.283223973587155342e-03 4.940276034176349640e-03
7.965000000000000000e+03 5.234764862060546875e+01 1.501447868347167969e+01 -9.049736894667148590e-03 4.914852324873209000e-03 -1.240465324372053146e-03 5.616955459117889404e-03
7.966000000000000000e+03 4.857527923583984375e+01 9.198149681091308594e+00 -3.687965916469693184e-03 4.285250790417194366e-03 1.791854156181216240e-04 1.126145571470260620e-02
7.967000000000000000e+03 4.689083862304687500e+01 8.234816551208496094e+00 -7.191844051703810692e-04 3.546578343957662582e-03 8.482181583531200886e-04 1.295034401118755341e-02
7.968000000000000000e+03 5.062304306030273438e+01 5.031560897827148438e+00 4.303559195250272751e-03 2.028375398367643356e-03 1.899580238386988640e-03 8.419338613748550415e-03
7.969000000000000000e+03 4.658456802368164062e+01 7.714181423187255859e+00 1.215062802657485008e-03 2.877245657145977020e-03 1.227692584507167339e-03 1.307094190269708633e-02
7.970000000000000000e+03 5.105634307861328125e+01 5.560056209564208984e+00 3.070587525144219398e-03 2.202681265771389008e-03 1.581980730406939983e-03 8.661196567118167877e-03
7.971000000000000000e+03 5.122481918334960938e+01 1.002315425872802734e+01 -4.394525196403264999e-03 4.284894559532403946e-03 -3.288919469923712313e-05 9.498021565377712250e-03
7.972000000000000000e+03 4.850190353393554688e+01 1.067441368103027344e+01 -7.185064256191253662e-03 5.511983763426542282e-03 -5.019241943955421448e-04 1.068773120641708374e-02
7.973000000000000000e+03 4.888910675048828125e+01 1.358738803863525391e+01 -1.178017351776361465e-02 6.260639056563377380e-03 -1.655860221944749355e-03 7.303451187908649445e-03
7.974000000000000000e+03 5.223648834228515625e+01 1.566763877868652344e+01 -9.494801983237266541e-03 4.803074523806571960e-03 -1.407518051564693451e-03 5.022843368351459503e-03
7.975000000000000000e+03 4.396770095825195312e+01 4.936208724975585938e+00 1.607032306492328644e-02 -1.241171732544898987e-03 4.448745399713516235e-03 1.030136551707983017e-02
7.976000000000000000e+03 4.867985153198242188e+01 1.008816146850585938e+01 -5.901827476918697357e-03 4.933426622301340103e-03 -2.905202272813767195e-04 1.097387261688709259e-02
7.977000000000000000e+03 5.102674102783203125e+01 1.470526313781738281e+01 -1.015256252139806747e-02 5.473545752465724945e-03 -1.403704984113574028e-03 5.886013153940439224e-03
7.978000000000000000e+03 5.169493484497070312e+01 1.486903476715087891e+01 -9.610312059521675110e-03 5.056967493146657944e-03 -1.366003300063312054e-03 5.725262220948934555e-03
7.979000000000000000e+03 5.376946640014648438e+01 1.655704498291015625e+01 -8.459282107651233673e-03 4.202645272016525269e-03 -1.276990980841219425e-03 4.483126569539308548e-03
7.980000000000000000e+03 4.480584716796875000e+01 4.765001773834228516e+00 1.427075453102588654e-02 -4.390326212160289288e-04 4.149516578763723373e-03 9.748637676239013672e-03
7.981000000000000000e+03 5.112031936645507812e+01 4.475125312805175781e+00 4.710745066404342651e-03 1.990126213058829308e-03 2.010261407122015953e-03 7.805233821272850037e-03
7.982000000000000000e+03 4.428703308105468750e+01 6.768814086914062500e+00 7.792055606842041016e-03 1.041330164298415184e-03 2.650015754625201225e-03 1.498978864401578903e-02
7.983000000000000000e+03 4.670063781738281250e+01 6.289386749267578125e+00 5.782112944871187210e-03 1.761090476065874100e-03 2.262960886582732201e-03 1.167053915560245514e-02
7.984000000000000000e+03 5.432594680786132812e+01 1.636895942687988281e+01 -7.900046184659004211e-03 3.998583182692527771e-03 -1.170439063571393490e-03 4.686639644205570221e-03
7.985000000000000000e+03 5.362273025512695312e+01 1.586986541748046875e+01 -8.351554162800312042e-03 4.285744391381740570e-03 -1.219742931425571442e-03 4.954986274242401123e-03
7.986000000000000000e+03 5.311618041992187500e+01 1.145001316070556641e+01 -5.464445799589157104e-03 4.178962670266628265e-03 -3.856450493913143873e-04 8.249942213296890259e-03
7.987000000000000000e+03 5.118088531494140625e+01 1.403901100158691406e+01 -9.576652199029922485e-03 5.255506373941898346e-03 -1.296343863941729069e-03 6.512443535029888153e-03
7.988000000000000000e+03 5.182925033569335938e+01 1.094701671600341797e+01 -5.503792781382799149e-03 4.433046560734510422e-03 -3.212239535059779882e-04 8.820397779345512390e-03
7.989000000000000000e+03 5.350836181640625000e+01 1.087667369842529297e+01 -4.683163948357105255e-03 3.714204300194978714e-03 -2.906878653448075056e-04 8.283271454274654388e-03
7.990000000000000000e+03 5.246843338012695312e+01 6.325801372528076172e+00 1.343982643447816372e-03 2.468051388859748840e-03 1.143610221333801746e-03 8.759208023548126221e-03
7.991000000000000000e+03 4.816804885864257812e+01 8.722417831420898438e+00 -2.320472616702318192e-03 3.991390112787485123e-03 5.012752953916788101e-04 1.168835349380970001e-02
7.992000000000000000e+03 4.974710845947265625e+01 1.295670700073242188e+01 -9.941336698830127716e-03 5.779389292001724243e-03 -1.248584128916263580e-03 7.702113594859838486e-03
7.993000000000000000e+03 4.631237411499023438e+01 7.156180381774902344e+00 3.394144354388117790e-03 2.367932815104722977e-03 1.728623174130916595e-03 1.298742834478616714e-02
7.994000000000000000e+03 4.567263031005859375e+01 7.454362869262695312e+00 2.827095333486795425e-03 2.290653763338923454e-03 1.535324729047715664e-03 1.385175436735153198e-02
7.995000000000000000e+03 4.863622665405273438e+01 4.358903884887695312e+00 7.555189542472362518e-03 1.441054744645953178e-03 2.698873169720172882e-03 7.894733920693397522e-03
7.996000000000000000e+03 4.797562789916992188e+01 5.292943477630615234e+00 6.724348291754722595e-03 1.368448953144252300e-03 2.427839208394289017e-03 9.376756846904754639e-03
7.997000000000000000e+03 5.497611999511718750e+01 1.510056114196777344e+01 -7.057469338178634644e-03 3.858546027913689613e-03 -9.596769814379513264e-04 5.607345607131719589e-03
7.998000000000000000e+03 5.287472534179687500e+01 9.125014305114746094e+00 -2.723317127674818039e-03 3.368506906554102898e-03 1.935569744091480970e-04 8.948009461164474487e-03
7.999000000000000000e+03 5.181902694702148438e+01 1.424495792388916016e+01 -9.074473753571510315e-03 5.155425984412431717e-03 -1.175714307464659214e-03 6.304793991148471832e-03
8.000000000000000000e+03 5.421707916259765625e+01 1.365786457061767578e+01 -6.824820302426815033e-03 4.062849096953868866e-03 -8.285913500003516674e-04 6.595084443688392639e-03
8.001000000000000000e+03 4.415513992309570312e+01 5.904293060302734375e+00 1.184353884309530258e-02 -2.686283551156520844e-04 3.472473006695508957e-03 1.309874840080738068e-02
8.002000000000000000e+03 4.868921661376953125e+01 1.129454421997070312e+01 -8.334697224199771881e-03 5.674733780324459076e-03 -7.979891379363834858e-04 9.970198385417461395e-03
8.003000000000000000e+03 4.774621582031250000e+01 8.309865951538085938e+00 -1.212458941154181957e-03 3.609011182561516762e-03 7.189656607806682587e-04 1.203055772930383682e-02
8.004000000000000000e+03 4.739488601684570312e+01 7.930948257446289062e+00 2.197879075538367033e-04 3.183538094162940979e-03 1.020997762680053711e-03 1.239395048469305038e-02
8.005000000000000000e+03 4.690856933593750000e+01 6.907492637634277344e+00 3.650609636679291725e-03 2.076700795441865921e-03 1.718193176202476025e-03 1.199240516871213913e-02
8.006000000000000000e+03 4.358226776123046875e+01 5.428666591644287109e+00 1.577521488070487976e-02 -1.560562173835933208e-03 4.264395684003829956e-03 1.257513556629419327e-02
8.007000000000000000e+03 4.935430908203125000e+01 1.241571331024169922e+01 -9.587981738150119781e-03 5.887781269848346710e-03 -1.110060024075210094e-03 8.562165312469005585e-03
8.008000000000000000e+03 5.046905136108398438e+01 1.380048274993896484e+01 -1.007630955427885056e-02 5.691720638424158096e-03 -1.315376604907214642e-03 6.773395929485559464e-03
8.009000000000000000e+03 5.497136688232421875e+01 1.583388996124267578e+01 -7.328260224312543869e-03 3.786355955526232719e-03 -1.062571187503635883e-03 5.064018536359071732e-03
8.010000000000000000e+03 5.282219696044921875e+01 8.459213256835937500e+00 -1.782536157406866550e-03 3.222683444619178772e-03 4.320442094467580318e-04 9.026756510138511658e-03
8.011000000000000000e+03 4.464964294433593750e+01 6.368971824645996094e+00 8.902345784008502960e-03 4.262303991708904505e-04 2.798572881147265434e-03 1.369086187332868576e-02
8.012000000000000000e+03 5.249956893920898438e+01 1.119094562530517578e+01 -5.569328553974628448e-03 4.198135808110237122e-03 -4.113578179385513067e-04 8.461624383926391602e-03
8.013000000000000000e+03 4.480614852905273438e+01 6.922776699066162109e+00 5.687284749001264572e-03 1.009970670565962791e-03 2.009176649153232574e-03 1.462964527308940887e-02
8.014000000000000000e+03 4.714683914184570312e+01 7.447700977325439453e+00 1.618471345864236355e-03 2.847779542207717896e-03 1.339875278063118458e-03 1.240116916596889496e-02
8.015000000000000000e+03 5.299404525756835938e+01 1.511050415039062500e+01 -8.545159362256526947e-03 4.552536644041538239e-03 -1.197786768898367882e-03 5.575705319643020630e-03
8.016000000000000000e+03 5.428733062744140625e+01 1.438626003265380859e+01 -7.220818661153316498e-03 4.143304657191038132e-03 -9.232542943209409714e-04 6.132845301181077957e-03
8.017000000000000000e+03 4.905517578125000000e+01 9.565073013305664062e+00 -4.324329085648059845e-03 4.597833380103111267e-03 8.205118501791730523e-05 1.093873288482427597e-02
8.018000000000000000e+03 5.208603286743164062e+01 9.233739852905273438e+00 -2.841660520061850548e-03 3.657860681414604187e-03 2.448600425850600004e-04 9.308731183409690857e-03
8.019000000000000000e+03 4.580870056152343750e+01 5.914478778839111328e+00 8.393933065235614777e-03 9.316615760326385498e-04 2.797678345814347267e-03 1.183413434773683548e-02
8.020000000000000000e+03 4.720914077758789062e+01 5.399653434753417969e+00 7.708172313868999481e-03 1.364866504445672035e-03 2.721911761909723282e-03 1.008204463869333267e-02
8.021000000000000000e+03 4.885539245605468750e+01 1.274398136138916016e+01 -1.087038498371839523e-02 6.174945272505283356e-03 -1.408631796948611736e-03 8.188350126147270203e-03
8.022000000000000000e+03 5.117743301391601562e+01 9.160360336303710938e+00 -3.003243589773774147e-03 3.752375254407525063e-03 2.247394586447626352e-04 9.722923859953880310e-03
8.023000000000000000e+03 4.952295684814453125e+01 1.159466552734375000e+01 -8.052253164350986481e-03 5.497470032423734665e-03 -7.664350559934973717e-04 9.310679510235786438e-03
8.024000000000000000e+03 5.360353469848632812e+01 1.370390987396240234e+01 -7.296203169971704483e-03 4.380259662866592407e-03 -8.747830288484692574e-04 6.653687451034784317e-03
8.025000000000000000e+03 4.879248809814453125e+01 5.243989467620849609e+00 5.872657988220453262e-03 1.931583276018500328e-03 2.341272542253136635e-03 9.174210950732231140e-03
8.026000000000000000e+03 4.546811676025390625e+01 4.848816394805908203e+00 1.230129040777683258e-02 -3.077590663451701403e-04 3.598059294745326042e-03 9.840948507189750671e-03
8.027000000000000000e+03 4.528438568115234375e+01 5.553963184356689453e+00 1.078377850353717804e-02 2.663440245669335127e-04 3.315036650747060776e-03 1.139887142926454544e-02
8.028000000000000000e+03 5.145423507690429688e+01 6.189695358276367188e+00 1.928887562826275826e-03 2.440132433548569679e-03 1.310706022195518017e-03 9.029597975313663483e-03
8.029000000000000000e+03 5.283763504028320312e+01 1.040756320953369141e+01 -4.246227443218231201e-03 3.893716027960181236e-03 -1.057533590937964618e-04 8.726832456886768341e-03
8.030000000000000000e+03 5.047847747802734375e+01 1.006588745117187500e+01 -4.772634245455265045e-03 4.375809337943792343e-03 -1.190474795293994248e-04 9.760670363903045654e-03
8.031000000000000000e+03 4.770853805541992188e+01 7.212038993835449219e+00 1.916784909553825855e-03 2.723217708989977837e-03 1.392000704072415829e-03 1.159369014203548431e-02
8.032000000000000000e+03 5.301684951782226562e+01 1.372776317596435547e+01 -7.779882289469242096e-03 4.539102315902709961e-03 -9.722340037114918232e-04 6.633499637246131897e-03
8.033000000000000000e+03 4.897719192504882812e+01 1.187477684020996094e+01 -9.144591167569160461e-03 5.866443738341331482e-03 -9.834440425038337708e-04 9.269974194467067719e-03
8.034000000000000000e+03 5.158168411254882812e+01 1.171599292755126953e+01 -6.810173857957124710e-03 4.714172799140214920e-03 -6.288003642112016678e-04 8.443783968687057495e-03
8.035000000000000000e+03 4.607174301147460938e+01 6.548048496246337891e+00 5.791668780148029327e-03 1.379117136821150780e-03 2.151235938072204590e-03 1.235641166567802429e-02
8.036000000000000000e+03 4.871767044067382812e+01 8.366700172424316406e+00 -1.217482960782945156e-03 3.633329411968588829e-03 7.247539469972252846e-04 1.136332098394632339e-02
8.037000000000000000e+03 5.121513366699218750e+01 8.203194618225097656e+00 -1.211211085319519043e-03 3.420917084440588951e-03 6.629117997363209724e-04 9.725534357130527496e-03
8.038000000000000000e+03 4.793991088867187500e+01 7.755356311798095703e+00 5.431452300399541855e-04 3.202581312507390976e-03 1.123717986047267914e-03 1.185899600386619568e-02
8.039000000000000000e+03 4.805080413818359375e+01 6.063018798828125000e+00 4.875764250755310059e-03 2.112728543579578400e-03 2.096547745168209076e-03 1.045060437172651291e-02
8.040000000000000000e+03 5.039776229858398438e+01 5.663010120391845703e+00 3.420673776417970657e-03 2.387555781751871109e-03 1.742468914017081261e-03 9.006808511912822723e-03
8.041000000000000000e+03 5.364113616943359375e+01 1.513511085510253906e+01 -8.085009641945362091e-03 4.419606644660234451e-03 -1.099620945751667023e-03 5.577611736953258514e-03
8.042000000000000000e+03 4.747538757324218750e+01 6.726747512817382812e+00 3.739666426554322243e-03 2.366975648328661919e-03 1.831992645747959614e-03 1.149789895862340927e-02
8.043000000000000000e+03 4.542779922485351562e+01 6.820764064788818359e+00 5.548743065446615219e-03 1.746382564306259155e-03 2.188537735491991043e-03 1.368075609207153320e-02
8.044000000000000000e+03 5.027231216430664062e+01 1.262818336486816406e+01 -8.975710719823837280e-03 5.578407086431980133e-03 -1.019190880469977856e-03 8.066833950579166412e-03
8.045000000000000000e+03 4.978636932373046875e+01 1.355874538421630859e+01 -1.070876512676477432e-02 5.839434452354907990e-03 -1.460799248889088631e-03 7.157057058066129684e-03
8.046000000000000000e+03 5.247568511962890625e+01 1.376379776000976562e+01 -8.133442141115665436e-03 4.822719376534223557e-03 -9.932169923558831215e-04 6.649843882769346237e-03
8.047000000000000000e+03 5.355371093750000000e+01 1.297526073455810547e+01 -6.735229864716529846e-03 4.220239352434873581e-03 -7.544970721937716007e-04 7.154653780162334442e-03
8.048000000000000000e+03 5.242775344848632812e+01 1.437398338317871094e+01 -8.616425096988677979e-03 4.775406327098608017e-03 -1.152305514551699162e-03 6.191830150783061981e-03
8.049000000000000000e+03 5.222613525390625000e+01 1.200260925292968750e+01 -6.612353026866912842e-03 4.634322132915258408e-03 -5.934093496762216091e-04 8.109431713819503784e-03
8.050000000000000000e+03 5.292342758178710938e+01 1.219699382781982422e+01 -6.423110608011484146e-03 4.310267977416515350e-03 -6.338529055938124657e-04 7.793648168444633484e-03
8.051000000000000000e+03 5.026149368286132812e+01 1.176502799987792969e+01 -7.772911339998245239e-03 5.323878489434719086e-03 -7.347098435275256634e-04 8.850933052599430084e-03
8.052000000000000000e+03 5.082653427124023438e+01 1.307071685791015625e+01 -9.138020686805248260e-03 5.391563288867473602e-03 -1.123937312513589859e-03 7.514713332056999207e-03
8.053000000000000000e+03 5.090639877319335938e+01 6.801845550537109375e+00 1.251832232810556889e-03 2.755585359409451485e-03 1.202225219458341599e-03 9.392566978931427002e-03
8.054000000000000000e+03 4.736232376098632812e+01 6.115866184234619141e+00 5.426361691206693649e-03 1.592319109477102757e-03 2.105604391545057297e-03 1.087062712758779526e-02
8.055000000000000000e+03 5.203964996337890625e+01 1.011266994476318359e+01 -4.258484579622745514e-03 3.926574718207120895e-03 -9.957285510608926415e-05 9.094431996345520020e-03
8.056000000000000000e+03 4.929725646972656250e+01 1.104468059539794922e+01 -7.219742517918348312e-03 5.373512394726276398e-03 -5.538690602406859398e-04 9.924931451678276062e-03
8.057000000000000000e+03 4.975074386596679688e+01 1.021975326538085938e+01 -5.434331018477678299e-03 4.822082351893186569e-03 -1.836745941545814276e-04 1.015623472630977631e-02
8.058000000000000000e+03 5.198204421997070312e+01 1.365735816955566406e+01 -8.536589331924915314e-03 4.945565480738878250e-03 -1.077307271771132946e-03 6.846897769719362259e-03
8.059000000000000000e+03 5.144678115844726562e+01 1.338249778747558594e+01 -8.792454376816749573e-03 5.252005998045206070e-03 -1.062134397216141224e-03 7.091551087796688080e-03
8.060000000000000000e+03 4.910634994506835938e+01 1.048579216003417969e+01 -6.226607132703065872e-03 5.020685493946075439e-03 -3.617763868533074856e-04 1.024323888123035431e-02
8.061000000000000000e+03 4.942080307006835938e+01 9.135704994201660156e+00 -3.266485873609781265e-03 4.095787648111581802e-03 2.487905439920723438e-04 1.070910319685935974e-02
8.062000000000000000e+03 4.984792327880859375e+01 1.210861015319824219e+01 -8.737058378756046295e-03 5.582524463534355164e-03 -9.463602327741682529e-04 8.697717450559139252e-03
8.063000000000000000e+03 4.900878524780273438e+01 8.794734001159667969e+00 -2.561196684837341309e-03 4.030732437968254089e-03 4.408606910146772861e-04 1.110011339187622070e-02
8.064000000000000000e+03 4.803139114379882812e+01 6.767414093017578125e+00 2.977986121550202370e-03 2.205354161560535431e-03 1.555002178065478802e-03 1.104394625872373581e-02
8.065000000000000000e+03 4.942209243774414062e+01 7.765030860900878906e+00 -6.519877388200256974e-06 3.342143725603818893e-03 1.000687130726873875e-03 1.076758373528718948e-02
8.066000000000000000e+03 4.863528823852539062e+01 7.710412025451660156e+00 2.164187753805890679e-04 3.059184644371271133e-03 9.826810564845800400e-04 1.117342524230480194e-02
8.067000000000000000e+03 5.099659347534179688e+01 1.148196887969970703e+01 -6.741408724337816238e-03 4.950849805027246475e-03 -5.371677689254283905e-04 8.836186490952968597e-03
8.068000000000000000e+03 5.185327529907226562e+01 1.273671817779541016e+01 -7.789097726345062256e-03 4.870364442467689514e-03 -8.756198803894221783e-04 7.632321678102016449e-03
8.069000000000000000e+03 4.989220428466796875e+01 1.083065319061279297e+01 -6.475383881479501724e-03 4.941985942423343658e-03 -4.600193642545491457e-04 9.626687504351139069e-03
8.070000000000000000e+03 4.952286911010742188e+01 6.231551170349121094e+00 3.282272256910800934e-03 2.433696528896689415e-03 1.714790589176118374e-03 9.847398847341537476e-03
8.071000000000000000e+03 5.153014755249023438e+01 7.342203617095947266e+00 2.039816754404455423e-04 2.792602637782692909e-03 8.989752968773245811e-04 9.469661861658096313e-03
8.072000000000000000e+03 5.209653091430664062e+01 8.380138397216796875e+00 -1.633594045415520668e-03 3.156687365844845772e-03 4.569279844872653484e-04 9.315705858170986176e-03
8.073000000000000000e+03 5.028751754760742188e+01 6.382186412811279297e+00 2.466914243996143341e-03 2.345012500882148743e-03 1.443578046746551991e-03 9.540685452520847321e-03
8.074000000000000000e+03 4.869361495971679688e+01 6.921967029571533203e+00 2.299707150086760521e-03 2.749094041064381599e-03 1.514640403911471367e-03 1.086210925132036209e-02
8.075000000000000000e+03 5.124549102783203125e+01 1.241144371032714844e+01 -7.744351867586374283e-03 5.106738302856683731e-03 -7.912841392681002617e-04 8.082546293735504150e-03
8.076000000000000000e+03 5.047827529907226562e+01 1.132243061065673828e+01 -6.913495250046253204e-03 4.935421980917453766e-03 -5.934220971539616585e-04 9.049861691892147064e-03
8.077000000000000000e+03 5.027858352661132812e+01 7.962056636810302734e+00 -6.838690023869276047e-04 3.151800017803907394e-03 7.403792697004973888e-04 1.014419831335544586e-02
8.078000000000000000e+03 5.000944137573242188e+01 1.136441802978515625e+01 -7.317857816815376282e-03 5.253337789326906204e-03 -6.193561130203306675e-04 9.311074391007423401e-03
8.079000000000000000e+03 4.964515304565429688e+01 9.606960296630859375e+00 -4.315435420721769333e-03 4.381767474114894867e-03 1.989972042792942375e-05 1.056921388953924179e-02
8.080000000000000000e+03 4.930557632446289062e+01 8.370936393737792969e+00 -1.224108971655368805e-03 3.465873189270496368e-03 6.725292769260704517e-04 1.078538037836551666e-02
8.081000000000000000e+03 4.876830673217773438e+01 6.112771511077880859e+00 3.934567794203758240e-03 2.019151579588651657e-03 1.786115812137722969e-03 9.959634393453598022e-03
8.082000000000000000e+03 4.947077178955078125e+01 7.025526046752929688e+00 1.312590902671217918e-03 2.669116249307990074e-03 1.194512122310698032e-03 1.026060711592435837e-02
8.083000000000000000e+03 5.051393890380859375e+01 1.074059581756591797e+01 -5.927528720349073410e-03 4.835646599531173706e-03 -3.275646013207733631e-04 9.479696862399578094e-03
8.084000000000000000e+03 5.027266311645507812e+01 7.119107246398925781e+00 9.441034053452312946e-04 2.926495159044861794e-03 1.161179621703922749e-03 9.969888255000114441e-03
8.085000000000000000e+03 5.115930175781250000e+01 1.078946685791015625e+01 -5.679975263774394989e-03 4.493859130889177322e-03 -3.558349271770566702e-04 9.114165790379047394e-03
8.086000000000000000e+03 4.992672729492187500e+01 8.693564414978027344e+00 -2.123035490512847900e-03 3.823733655735850334e-03 5.102094728499650955e-04 1.048817485570907593e-02
8.087000000000000000e+03 5.034871673583984375e+01 9.311715126037597656e+00 -3.373663173988461494e-03 4.096961580216884613e-03 2.169896033592522144e-04 1.018678490072488785e-02
8.088000000000000000e+03 5.519985580444335938e+01 -3.381521224975585938e+01 3.836192423477768898e-03 1.937930285930633545e-02 6.964648608118295670e-03 -3.125856863334774971e-03
8.089000000000000000e+03 5.265520858764648438e+01 -3.126786041259765625e+01 6.406879518181085587e-03 2.361752651631832123e-02 9.007321670651435852e-03 -2.751326421275734901e-03
8.090000000000000000e+03 1.361032009124755859e+01 -3.095869636535644531e+01 -2.431326312944293022e-03 8.059971965849399567e-03 1.688593765720725060e-03 3.256789175793528557e-03
8.091000000000000000e+03 5.668118286132812500e+01 -2.972075843811035156e+01 3.808307927101850510e-03 1.460722554475069046e-02 5.524659994989633560e-03 -8.207525825127959251e-04
8.092000000000000000e+03 5.982185745239257812e+01 -2.769352912902832031e+01 2.919701626524329185e-03 8.354369550943374634e-03 3.382221329957246780e-03 4.687963810283690691e-04
8.093000000000000000e+03 6.666987609863281250e+01 -3.764567947387695312e+01 5.955034284852445126e-04 -3.653974272310733795e-03 -9.175412706099450588e-04 1.332848769379779696e-04
8.094000000000000000e+03 6.742232322692871094e+00 -3.790673446655273438e+01 -7.917400798760354519e-04 1.417217031121253967e-02 4.014129284769296646e-03 1.046883407980203629e-03
8.095000000000000000e+03 1.029305171966552734e+01 -3.513897705078125000e+01 -1.733647077344357967e-03 1.103131286799907684e-02 2.789299702271819115e-03 1.816451433114707470e-03
8.096000000000000000e+03 5.581898880004882812e+01 -2.764966011047363281e+01 4.064512904733419418e-03 1.575354300439357758e-02 5.945416633039712906e-03 -5.905696889385581017e-04
8.097000000000000000e+03 5.485646820068359375e+01 -3.088069152832031250e+01 4.799033049494028091e-03 1.834057271480560303e-02 6.941881962120532990e-03 -2.308581257238984108e-03
8.098000000000000000e+03 6.145977020263671875e+01 -3.266963195800781250e+01 1.781076076440513134e-03 6.235483568161725998e-03 2.404968021437525749e-03 -8.785941463429480791e-05
8.099000000000000000e+03 1.797670936584472656e+01 -2.611753463745117188e+01 -3.108900506049394608e-03 5.070492625236511230e-03 5.884777056053280830e-04 3.915928769856691360e-03
8.100000000000000000e+03 6.145278167724609375e+01 -2.645221710205078125e+01 2.593289129436016083e-03 5.171680822968482971e-03 2.329491078853607178e-03 1.031443476676940918e-03
8.101000000000000000e+03 1.423685073852539062e+01 -2.931526374816894531e+01 -2.674085786566138268e-03 7.592754904180765152e-03 1.475600758567452431e-03 3.378439461812376976e-03
8.102000000000000000e+03 2.063360404968261719e+01 -3.621342468261718750e+01 -4.149666987359523773e-03 2.899058861657977104e-03 -3.751824551727622747e-04 2.166591351851820946e-03
8.103000000000000000e+03 2.758398437500000000e+01 -3.863280105590820312e+01 -7.925029844045639038e-03 -2.003579400479793549e-03 -2.978582866489887238e-03 2.508769743144512177e-03
8.104000000000000000e+03 6.603020477294921875e+01 -3.481572723388671875e+01 1.372414990328252316e-03 -2.048224909231066704e-03 -2.027429436566308141e-04 1.198173995362594724e-04
8.105000000000000000e+03 6.756704711914062500e+01 -3.220166778564453125e+01 1.151648000814020634e-03 -5.461484193801879883e-03 -1.292950822971761227e-03 8.987098699435591698e-04
8.106000000000000000e+03 6.459719085693359375e+01 -2.964932632446289062e+01 1.881735981442034245e-03 -4.025420930702239275e-04 4.437581810634583235e-04 8.279926260001957417e-04
8.107000000000000000e+03 8.265088081359863281e+00 -4.106799697875976562e+01 -9.471419034525752068e-04 1.319355517625808716e-02 3.673923900350928307e-03 2.851681201718747616e-04
8.108000000000000000e+03 6.425248622894287109e+00 -3.601157760620117188e+01 -9.930517990142107010e-04 1.435297634452581406e-02 4.007977433502674103e-03 1.393227837979793549e-03
8.109000000000000000e+03 1.897832298278808594e+01 -3.386713027954101562e+01 -3.914574161171913147e-03 3.919200971722602844e-03 1.388036480420851149e-06 2.531245350837707520e-03
8.110000000000000000e+03 5.336781311035156250e+01 -4.066643142700195312e+01 -5.735301412642002106e-03 3.074861131608486176e-02 7.503992877900600433e-03 -2.301711589097976685e-03
8.111000000000000000e+03 5.178554534912109375e+01 -3.657925033569335938e+01 2.084881532937288284e-03 2.925411239266395569e-02 9.401698596775531769e-03 -6.860627792775630951e-03
8.112000000000000000e+03 2.362910652160644531e+01 -3.796796798706054688e+01 -5.700394976884126663e-03 6.316118524409830570e-04 -1.520634861662983894e-03 1.577358343638479710e-03
8.113000000000000000e+03 1.727660369873046875e+01 -3.783853149414062500e+01 -3.845000639557838440e-03 5.198746919631958008e-03 4.061239305883646011e-04 1.511479495093226433e-03
8.114000000000000000e+03 1.313831806182861328e+01 -3.829692840576171875e+01 -2.289772965013980865e-03 8.901794441044330597e-03 1.983606489375233650e-03 1.159225590527057648e-03
8.115000000000000000e+03 5.842710113525390625e+01 -3.727950286865234375e+01 4.026202659588307142e-04 1.490382943302392960e-02 4.591934848576784134e-03 -1.888555474579334259e-03
8.116000000000000000e+03 5.468136215209960938e+01 -3.714199829101562500e+01 2.024061395786702633e-04 2.335133962333202362e-02 7.066124118864536285e-03 -5.201749037951231003e-03
8.117000000000000000e+03 6.320172882080078125e+01 -3.457163238525390625e+01 1.511142938397824764e-03 3.598770825192332268e-03 1.532974187284708023e-03 -1.864791993284597993e-04
8.118000000000000000e+03 5.848160171508789062e+01 -3.361534118652343750e+01 2.560152439400553703e-03 1.251720916479825974e-02 4.523208830505609512e-03 -1.974882790818810463e-03
8.119000000000000000e+03 6.074055480957031250e+01 -2.992198753356933594e+01 2.939233556389808655e-03 7.035563699901103973e-03 2.992439083755016327e-03 2.884168679884169251e-05
8.120000000000000000e+03 1.775309371948242188e+01 -3.176379776000976562e+01 -3.106204792857170105e-03 5.008274223655462265e-03 5.706208175979554653e-04 3.139179665595293045e-03
8.121000000000000000e+03 1.517662334442138672e+01 -3.076050186157226562e+01 -2.563918009400367737e-03 6.899498403072357178e-03 1.300674048252403736e-03 3.263931954279541969e-03
8.122000000000000000e+03 1.637482070922851562e+01 -3.507926940917968750e+01 -2.886838279664516449e-03 6.030081305652856827e-03 9.429728961549699306e-04 2.189802704378962517e-03
8.123000000000000000e+03 1.343193244934082031e+01 -3.299551391601562500e+01 -2.215730957686901093e-03 8.314865641295909882e-03 1.829740474931895733e-03 2.503769705072045326e-03
8.124000000000000000e+03 6.379587554931640625e+01 -3.209458160400390625e+01 1.727844472043216228e-03 1.323822070844471455e-03 9.154999861493706703e-04 1.295024139835732058e-05
8.125000000000000000e+03 5.839956283569335938e+01 -3.064872550964355469e+01 3.702855436131358147e-03 1.164910476654767990e-02 4.605588037520647049e-03 -7.045319653116166592e-04
8.126000000000000000e+03 1.802737426757812500e+01 -1.308926939964294434e+00 2.589274942874908447e-02 2.611423283815383911e-02 1.560209505259990692e-02 2.006709203124046326e-02
8.127000000000000000e+03 1.834431838989257812e+01 -1.141918897628784180e+00 2.707015164196491241e-02 3.272660449147224426e-02 1.793902739882469177e-02 2.198706381022930145e-02
8.128000000000000000e+03 1.817119598388671875e+01 -1.209630012512207031e+00 2.717469446361064911e-02 2.827728539705276489e-02 1.663559488952159882e-02 2.033090777695178986e-02
8.129000000000000000e+03 1.918161392211914062e+01 -1.115934729576110840e+00 3.869463130831718445e-02 6.681219488382339478e-02 3.165204823017120361e-02 3.335149586200714111e-02
8.130000000000000000e+03 1.972217941284179688e+01 -2.189310938119888306e-01 1.887814141809940338e-02 7.002644985914230347e-02 2.667137794196605682e-02 3.920330852270126343e-02
8.131000000000000000e+03 1.998449897766113281e+01 -2.275431007146835327e-01 2.408550307154655457e-02 7.863924652338027954e-02 3.081742487847805023e-02 4.625337198376655579e-02
8.132000000000000000e+03 2.149669265747070312e+01 6.456421017646789551e-01 3.053894825279712677e-02 -1.556438161060214043e-03 8.694753050804138184e-03 4.825462773442268372e-02
8.133000000000000000e+03 2.141511535644531250e+01 8.147425651550292969e-01 3.299324214458465576e-02 1.266065798699855804e-02 1.369617041200399399e-02 5.130578577518463135e-02
8.134000000000000000e+03 2.157811355590820312e+01 9.181354045867919922e-01 3.530393540859222412e-02 5.734479986131191254e-03 1.231152471154928207e-02 4.438193887472152710e-02
8.135000000000000000e+03 2.177627754211425781e+01 5.792992115020751953e-01 2.999503724277019501e-02 -5.044588819146156311e-03 7.485134527087211609e-03 4.093161597847938538e-02
8.136000000000000000e+03 2.214730072021484375e+01 1.150557160377502441e+00 4.142564535140991211e-02 6.117672310210764408e-04 1.261122338473796844e-02 3.341727703809738159e-02
8.137000000000000000e+03 2.268992042541503906e+01 9.671576619148254395e-01 3.701815009117126465e-02 -9.644894860684871674e-03 8.211976848542690277e-03 2.628729864954948425e-02
8.138000000000000000e+03 2.282246208190917969e+01 1.654859066009521484e+00 5.042839050292968750e-02 -4.789053054992109537e-04 1.498484518378973007e-02 2.580728009343147278e-02
8.139000000000000000e+03 2.297199821472167969e+01 1.775155782699584961e+00 5.137326195836067200e-02 -1.961874775588512421e-03 1.482341624796390533e-02 2.446901239454746246e-02
8.140000000000000000e+03 2.347020530700683594e+01 2.058947563171386719e+00 5.503987148404121399e-02 -4.318614490330219269e-03 1.521637663245201111e-02 2.052422799170017242e-02
8.141000000000000000e+03 2.337800598144531250e+01 1.789035439491271973e+00 5.143135040998458862e-02 -4.608938936144113541e-03 1.404672395437955856e-02 2.099128998816013336e-02
8.142000000000000000e+03 2.365012741088867188e+01 2.133366584777832031e+00 5.530960112810134888e-02 -6.086921319365501404e-03 1.476680394262075424e-02 1.943920738995075226e-02
8.143000000000000000e+03 2.434971046447753906e+01 2.105300426483154297e+00 5.378206819295883179e-02 -1.092582289129495621e-02 1.285687368363142014e-02 1.513675600290298462e-02
8.144000000000000000e+03 2.454495620727539062e+01 2.175804853439331055e+00 5.418431386351585388e-02 -1.035284623503684998e-02 1.314944028854370117e-02 1.475996617227792740e-02
8.145000000000000000e+03 2.476530647277832031e+01 2.242015361785888672e+00 5.433179065585136414e-02 -1.112924795597791672e-02 1.296076271682977676e-02 1.423784997314214706e-02
8.146000000000000000e+03 2.523651123046875000e+01 2.863137006759643555e+00 5.812318623065948486e-02 -1.091986801475286484e-02 1.416099630296230316e-02 1.408253610134124756e-02
8.147000000000000000e+03 2.520022010803222656e+01 3.144231319427490234e+00 5.753578990697860718e-02 -1.125100161880254745e-02 1.388543657958507538e-02 1.320617273449897766e-02
8.148000000000000000e+03 2.536105346679687500e+01 3.246816873550415039e+00 5.773794278502464294e-02 -1.197522506117820740e-02 1.372881513088941574e-02 1.317485328763723373e-02
8.149000000000000000e+03 2.581729698181152344e+01 3.147842168807983398e+00 6.034310907125473022e-02 -1.098462846130132675e-02 1.480754464864730835e-02 1.559829059988260269e-02
8.150000000000000000e+03 2.650653457641601562e+01 3.593621730804443359e+00 6.429234147071838379e-02 -7.736696396023035049e-03 1.696669310331344604e-02 2.065108157694339752e-02
8.151000000000000000e+03 2.729500770568847656e+01 4.024639606475830078e+00 6.887076050043106079e-02 1.126376911997795105e-02 2.404035814106464386e-02 3.356818482279777527e-02
8.152000000000000000e+03 2.723917388916015625e+01 4.351543426513671875e+00 6.968742609024047852e-02 5.964644878986291587e-05 2.092412114143371582e-02 3.010163456201553345e-02
8.153000000000000000e+03 2.798985481262207031e+01 4.806764125823974609e+00 7.841928303241729736e-02 4.766239970922470093e-02 3.782450407743453979e-02 5.524934455752372742e-02
8.154000000000000000e+03 2.828955650329589844e+01 5.049273014068603516e+00 7.679891586303710938e-02 9.965711086988449097e-02 5.293680727481842041e-02 6.511210650205612183e-02
8.155000000000000000e+03 2.844879722595214844e+01 5.159793376922607422e+00 7.486267387866973877e-02 1.345408707857131958e-01 6.282106041908264160e-02 6.505797803401947021e-02
8.156000000000000000e+03 2.911226844787597656e+01 5.239262104034423828e+00 6.895937025547027588e-02 2.857792377471923828e-01 1.064215824007987976e-01 -8.548617479391396046e-04
8.157000000000000000e+03 2.934791946411132812e+01 9.603806495666503906e+00 -1.282742023468017578e+00 -1.430899351835250854e-01 -4.277496039867401123e-01 -6.857442259788513184e-01
8.158000000000000000e+03 2.845765304565429688e+01 9.072260856628417969e+00 -2.284932136535644531e+00 -1.080740213394165039e+00 -1.009701728820800781e+00 -1.355421900749206543e+00
8.159000000000000000e+03 2.742446899414062500e+01 8.270462036132812500e+00 -3.404538631439208984e+00 -1.754853129386901855e+00 -1.547817587852478027e+00 -2.629225492477416992e+00
8.160000000000000000e+03 2.710645866394042969e+01 8.175975799560546875e+00 -4.041303634643554688e+00 -2.699842691421508789e+00 -2.022343873977661133e+00 -3.359601497650146484e+00
8.161000000000000000e+03 2.679904937744140625e+01 7.842626571655273438e+00 -3.498893737792968750e+00 -2.233910799026489258e+00 -1.719841361045837402e+00 -3.313530445098876953e+00
8.162000000000000000e+03 2.596863937377929688e+01 7.303055763244628906e+00 -5.453489780426025391e+00 -2.759049892425537109e+00 -2.463761806488037109e+00 -3.363549232482910156e+00
8.163000000000000000e+03 1.872742080688476562e+01 -1.958185553550720215e+00 3.352129086852073669e-02 6.535594910383224487e-02 2.966317161917686462e-02 3.907934576272964478e-02
8.164000000000000000e+03 4.444735717773437500e+01 -4.071883392333984375e+01 -2.900034561753273010e-02 3.014914505183696747e-02 3.446397313382476568e-04 -7.265916210599243641e-04
8.165000000000000000e+03 4.663702011108398438e+01 -3.900922775268554688e+01 -1.380611583590507507e-02 4.645059630274772644e-02 9.793343953788280487e-03 -1.162111107259988785e-02
8.166000000000000000e+03 2.119084358215332031e+01 -1.324742883443832397e-01 1.375209540128707886e-02 -1.179304346442222595e-02 5.877154762856662273e-04 5.608421564102172852e-02
8.167000000000000000e+03 2.792317581176757812e+01 4.271058082580566406e+00 6.897600740194320679e-02 5.433040112257003784e-02 3.699192404747009277e-02 4.707507416605949402e-02
8.168000000000000000e+03 2.827394294738769531e+01 3.758276462554931641e+00 5.757521092891693115e-02 8.636793494224548340e-02 4.318294301629066467e-02 3.927591070532798767e-02
8.169000000000000000e+03 2.858975601196289062e+01 4.704877376556396484e+00 6.483113765716552734e-02 1.408699154853820801e-01 6.171031668782234192e-02 4.819255322217941284e-02
8.170000000000000000e+03 2.874307632446289062e+01 4.816991329193115234e+00 6.199207156896591187e-02 1.772263646125793457e-01 7.176553457975387573e-02 3.885190933942794800e-02
8.171000000000000000e+03 2.886308860778808594e+01 4.931066036224365234e+00 6.279679387807846069e-02 2.068219333887100220e-01 8.088561892509460449e-02 3.690337389707565308e-02
8.172000000000000000e+03 2.891568374633789062e+01 5.173796176910400391e+00 6.635430455207824707e-02 2.407804578542709351e-01 9.214042872190475464e-02 3.264112770557403564e-02
8.173000000000000000e+03 2.945197868347167969e+01 5.016603469848632812e+00 7.804207503795623779e-02 2.809459269046783447e-01 1.076963990926742554e-01 -3.825470432639122009e-02
8.174000000000000000e+03 2.073777389526367188e+01 -2.321307510137557983e-01 1.923832297325134277e-02 2.378920838236808777e-02 1.290825940668582916e-02 7.445269078016281128e-02
8.175000000000000000e+03 2.562644195556640625e+01 2.910332918167114258e+00 5.911022424697875977e-02 -1.083221752196550369e-02 1.448340248316526413e-02 1.498875580728054047e-02
8.176000000000000000e+03 2.547685623168945312e+01 3.066609144210815430e+00 5.860471352934837341e-02 -1.153003145009279251e-02 1.412240508943796158e-02 1.416057813912630081e-02
8.177000000000000000e+03 2.546418952941894531e+01 2.800325155258178711e+00 5.895216017961502075e-02 -1.071065384894609451e-02 1.447245199233293533e-02 1.498786732554435730e-02
8.178000000000000000e+03 2.511584472656250000e+01 2.028442859649658203e+00 5.229911208152770996e-02 -1.033467147499322891e-02 1.258933171629905701e-02 1.436151657253503799e-02
8.179000000000000000e+03 2.503484153747558594e+01 2.520857334136962891e+00 5.692873522639274597e-02 -1.066411100327968597e-02 1.387938670814037323e-02 1.449780352413654327e-02
8.180000000000000000e+03 2.308991813659667969e+01 1.624115943908691406e+00 5.102044343948364258e-02 -4.376002121716737747e-03 1.399333216249942780e-02 2.305446006357669830e-02
8.181000000000000000e+03 2.524648857116699219e+01 2.313373088836669922e+00 5.509448796510696411e-02 -1.005769148468971252e-02 1.351103838533163071e-02 1.468466222286224365e-02
8.182000000000000000e+03 2.546399688720703125e+01 2.599008560180664062e+00 5.738567933440208435e-02 -9.517549537122249603e-03 1.436043903231620789e-02 1.542950421571731567e-02
8.183000000000000000e+03 2.315540695190429688e+01 1.460499644279479980e+00 4.614289849996566772e-02 -7.886765524744987488e-03 1.147683989256620407e-02 2.166906744241714478e-02
8.184000000000000000e+03 2.315135383605957031e+01 1.234035968780517578e+00 4.184003546833992004e-02 -9.449326433241367340e-03 9.717212989926338196e-03 2.227271720767021179e-02
8.185000000000000000e+03 2.238838958740234375e+01 9.549992680549621582e-01 3.787302598357200623e-02 -4.288400057703256607e-03 1.007538754492998123e-02 3.047144971787929535e-02
8.186000000000000000e+03 1.776454162597656250e+01 -1.825260758399963379e+00 2.669754996895790100e-02 2.500719018280506134e-02 1.551142241805791855e-02 1.947123557329177856e-02
8.187000000000000000e+03 1.915549659729003906e+01 -1.975659966468811035e+00 3.178663924336433411e-02 8.462305366992950439e-02 3.492290899157524109e-02 4.363572597503662109e-02
8.188000000000000000e+03 1.969673538208007812e+01 -9.987162351608276367e-01 4.774700105190277100e-02 9.181363880634307861e-02 4.186819121241569519e-02 5.097842961549758911e-02
8.189000000000000000e+03 2.049389648437500000e+01 -6.149534583091735840e-01 7.649169862270355225e-02 7.077019661664962769e-02 4.417856782674789429e-02 7.221586257219314575e-02
8.190000000000000000e+03 1.575763893127441406e+01 -3.148124456405639648e+00 1.920768804848194122e-02 5.375734996050596237e-03 7.375027053058147430e-03 1.003271806985139847e-02
8.191000000000000000e+03 2.041201782226562500e+01 -2.157039344310760498e-01 2.915523201227188110e-02 1.054016351699829102e-01 4.036705940961837769e-02 7.315462082624435425e-02
8.192000000000000000e+03 1.329258155822753906e+01 -3.549598693847656250e+01 -2.642269479110836983e-03 8.423285558819770813e-03 1.734304707497358322e-03 2.133437432348728180e-03
8.193000000000000000e+03 2.172799110412597656e+01 3.241207301616668701e-01 2.285760641098022461e-02 -8.148466236889362335e-03 4.412742331624031067e-03 4.259411990642547607e-02
8.194000000000000000e+03 2.136307716369628906e+01 3.321709632873535156e-01 2.599587664008140564e-02 -6.048028822988271713e-03 5.984354298561811447e-03 5.261517316102981567e-02
8.195000000000000000e+03 1.764710807800292969e+01 -2.047552824020385742e+00 3.134287893772125244e-02 2.701073326170444489e-02 1.750608347356319427e-02 1.868567429482936859e-02
8.196000000000000000e+03 2.892637825012207031e+01 4.666646957397460938e+00 5.999064818024635315e-02 1.979968398809432983e-01 7.739624381065368652e-02 2.904449589550495148e-02
8.197000000000000000e+03 3.961422348022460938e+01 2.038869285583496094e+01 -1.172292698174715042e-02 -9.229741059243679047e-03 -6.285800598561763763e-03 -1.058147568255662918e-02
8.198000000000000000e+03 1.780119895935058594e+01 -2.542637825012207031e+00 3.261747211217880249e-02 4.013603925704956055e-02 2.182605303823947906e-02 1.981816254556179047e-02
8.199000000000000000e+03 1.813281059265136719e+01 -2.604644298553466797e+00 2.887471392750740051e-02 5.607746914029121399e-02 2.548565529286861420e-02 2.423294074833393097e-02
8.200000000000000000e+03 2.740512847900390625e+01 3.475989103317260742e+00 6.444469839334487915e-02 2.642446011304855347e-02 2.726074866950511932e-02 3.541706129908561707e-02
8.201000000000000000e+03 2.916806030273437500e+01 4.578891754150390625e+00 5.766140297055244446e-02 2.100932598114013672e-01 8.032640069723129272e-02 5.590445827692747116e-03
8.202000000000000000e+03 2.912272644042968750e+01 4.335815429687500000e+00 5.349785089492797852e-02 1.834281384944915771e-01 7.107779383659362793e-02 1.074152905493974686e-02
8.203000000000000000e+03 4.629655456542968750e+01 2.663530731201171875e+01 -4.048322793096303940e-03 -2.585185924544930458e-03 -1.990052638575434685e-03 -3.429136006161570549e-03
8.204000000000000000e+03 4.781835174560546875e+01 2.748325157165527344e+01 -3.770090639591217041e-03 -1.724180998280644417e-03 -1.648281468078494072e-03 -2.620196435600519180e-03
8.205000000000000000e+03 4.748984527587890625e+01 2.772031021118164062e+01 -3.381799673661589622e-03 -1.963156973943114281e-03 -1.603487064130604267e-03 -2.654294250532984734e-03
8.206000000000000000e+03 5.298073959350585938e+01 3.246058654785156250e+01 -9.461419540457427502e-04 -1.752427633618935943e-04 -3.364154254086315632e-04 -5.572268855758011341e-04
8.207000000000000000e+03 3.565789413452148438e+01 1.481896972656250000e+01 -5.724208056926727295e-02 -2.088375203311443329e-02 -2.343774959444999695e-02 -3.424911201000213623e-02
8.208000000000000000e+03 3.691987609863281250e+01 1.646163368225097656e+01 -3.290563449263572693e-02 -1.767708733677864075e-02 -1.517481636255979538e-02 -2.518268115818500519e-02
8.209000000000000000e+03 3.656516265869140625e+01 1.672669410705566406e+01 -3.125829622149467468e-02 -2.282760478556156158e-02 -1.622577011585235596e-02 -2.548172697424888611e-02
8.210000000000000000e+03 2.515564537048339844e+01 1.813089847564697266e+00 5.028401315212249756e-02 -1.033869478851556778e-02 1.198359578847885132e-02 1.390379667282104492e-02
8.211000000000000000e+03 2.512753295898437500e+01 1.564875245094299316e+00 4.551474377512931824e-02 -9.822859428822994232e-03 1.070756465196609497e-02 1.317166630178689957e-02
8.212000000000000000e+03 2.603127479553222656e+01 1.767328739166259766e+00 4.672871157526969910e-02 -7.647411257494240999e-05 1.399567071348428726e-02 1.640225015580654144e-02
8.213000000000000000e+03 2.572416877746582031e+01 1.732741594314575195e+00 4.740937054157257080e-02 -4.027403891086578369e-03 1.301458943635225296e-02 1.546960417181253433e-02
8.214000000000000000e+03 3.092424392700195312e+01 1.055820178985595703e+01 -4.746209084987640381e-01 -5.619787052273750305e-02 -1.592456400394439697e-01 -1.555238366127014160e-01
8.215000000000000000e+03 2.168104743957519531e+01 -5.042919516563415527e-01 2.412355970591306686e-03 -2.201825007796287537e-02 -5.881768185645341873e-03 4.190638661384582520e-02
8.216000000000000000e+03 1.940715026855468750e+01 -1.382160902023315430e+00 5.859868973493576050e-02 9.692503511905670166e-02 4.665711894631385803e-02 5.277358740568161011e-02
8.217000000000000000e+03 1.957871627807617188e+01 -1.774108767509460449e+00 3.300251066684722900e-02 1.322037130594253540e-01 4.956186562776565552e-02 5.813323706388473511e-02
8.218000000000000000e+03 1.911098480224609375e+01 -1.563259482383728027e+00 4.050819575786590576e-02 7.695279270410537720e-02 3.523829579353332520e-02 4.611537978053092957e-02
8.219000000000000000e+03 1.881384468078613281e+01 -3.037769317626953125e+00 2.288127504289150238e-02 9.062302857637405396e-02 3.405129164457321167e-02 2.819936349987983704e-02
8.220000000000000000e+03 1.847478866577148438e+01 -2.374457120895385742e+00 2.565507777035236359e-02 6.274380534887313843e-02 2.651966549456119537e-02 3.429883718490600586e-02
8.221000000000000000e+03 2.648640060424804688e+01 2.648236036300659180e+00 5.810610204935073853e-02 3.080731257796287537e-03 1.835604943335056305e-02 2.201385423541069031e-02
8.222000000000000000e+03 2.697656822204589844e+01 2.696573257446289062e+00 5.670551210641860962e-02 1.558419596403837204e-02 2.168691344559192657e-02 2.579322271049022675e-02
8.223000000000000000e+03 2.692862510681152344e+01 3.003543853759765625e+00 6.025766581296920776e-02 1.183721236884593964e-02 2.162846364080905914e-02 2.635086141526699066e-02
8.224000000000000000e+03 1.804258728027343750e+01 -4.167001247406005859e+00 1.511383522301912308e-02 4.376567527651786804e-02 1.766385324299335480e-02 2.085759304463863373e-02
8.225000000000000000e+03 7.778999328613281250e+01 -3.582136535644531250e+01 2.550921344663947821e-04 -2.647159062325954437e-02 -7.864949293434619904e-03 9.732228500070050359e-05
8.226000000000000000e+03 2.355015373229980469e+01 3.983328640460968018e-01 2.391180768609046936e-02 -1.810883544385433197e-02 1.740891602821648121e-03 1.838354393839836121e-02
8.227000000000000000e+03 2.398574066162109375e+01 4.889841675758361816e-01 2.717105299234390259e-02 -1.745258457958698273e-02 2.915540244430303574e-03 1.557305548340082169e-02
8.228000000000000000e+03 2.367474937438964844e+01 1.462142586708068848e+00 4.534028843045234680e-02 -1.040351483970880508e-02 1.048103161156177521e-02 1.783770322799682617e-02
8.229000000000000000e+03 1.118433284759521484e+01 -3.252812957763671875e+01 -1.848984626121819019e-03 9.820536710321903229e-03 2.391465473920106888e-03 2.810194157063961029e-03
8.230000000000000000e+03 2.900592613220214844e+01 4.833192348480224609e+00 6.105707958340644836e-02 2.192290276288986206e-01 8.408582955598831177e-02 1.787305809557437897e-02
8.231000000000000000e+03 2.588001060485839844e+01 2.120759963989257812e+00 5.346251279115676880e-02 -3.898817813023924828e-03 1.486910879611968994e-02 1.712050661444664001e-02
8.232000000000000000e+03 3.503626632690429688e+01 1.419940090179443359e+01 -7.123772054910659790e-02 -2.357362210750579834e-02 -2.844340354204177856e-02 -3.984750062227249146e-02
8.233000000000000000e+03 2.554695320129394531e+01 -3.024520492553710938e+01 -4.395489115267992020e-03 -2.636957680806517601e-03 -2.109734108671545982e-03 3.894435008987784386e-03
8.234000000000000000e+03 4.515255737304687500e+01 2.466462326049804688e+01 -6.856719963252544403e-03 -3.017948940396308899e-03 -2.962400671094655991e-03 -4.680719226598739624e-03
8.235000000000000000e+03 4.557884979248046875e+01 2.469972038269042969e+01 -6.824701558798551559e-03 -2.619839971885085106e-03 -2.833362435922026634e-03 -4.381066188216209412e-03
8.236000000000000000e+03 4.681873703002929688e+01 2.659898567199707031e+01 -4.309409763664007187e-03 -2.158342860639095306e-03 -1.940325833857059479e-03 -3.277065698057413101e-03
8.237000000000000000e+03 7.597259521484375000e+01 3.066299819946289062e+01 -1.615621877135708928e-04 -1.239414268638938665e-04 -8.565108146285638213e-05 1.265747268917039037e-04
8.238000000000000000e+03 2.421951866149902344e+01 1.203352212905883789e+00 4.077519476413726807e-02 -1.423839107155799866e-02 7.961040362715721130e-03 1.471060235053300858e-02
8.239000000000000000e+03 2.827941131591796875e+01 3.115594863891601562e+00 4.998938366770744324e-02 7.580351829528808594e-02 3.773787245154380798e-02 3.131941705942153931e-02
8.240000000000000000e+03 2.941895103454589844e+01 4.556026935577392578e+00 5.929658189415931702e-02 2.144064605236053467e-01 8.211091160774230957e-02 -1.360844448208808899e-02
8.241000000000000000e+03 2.513968467712402344e+01 1.253440976142883301e+00 4.082143306732177734e-02 -9.351800195872783661e-03 9.440889582037925720e-03 1.365410815924406052e-02
8.242000000000000000e+03 2.546394920349121094e+01 1.249451518058776855e+00 3.964558243751525879e-02 -5.912002641707658768e-03 1.012007426470518112e-02 1.386457495391368866e-02
8.243000000000000000e+03 5.220875167846679688e+01 -2.684503936767578125e+01 4.546821583062410355e-03 2.256473153829574585e-02 8.133465424180030823e-03 -1.684922142885625362e-03
8.244000000000000000e+03 2.943511009216308594e+01 4.336637496948242188e+00 5.630593746900558472e-02 2.030899524688720703e-01 7.781876623630523682e-02 -1.516388636082410812e-02
8.245000000000000000e+03 3.345943450927734375e+01 1.200317668914794922e+01 -1.659785211086273193e-01 -8.614052087068557739e-03 -5.237777158617973328e-02 -5.386766791343688965e-02
8.246000000000000000e+03 4.731048202514648438e+01 2.609642982482910156e+01 -5.173455923795700073e-03 -1.559620373882353306e-03 -2.019922947511076927e-03 -3.259418299421668053e-03
8.247000000000000000e+03 4.950160980224609375e+01 -2.911573600769042969e+01 6.041252054274082184e-03 3.105681575834751129e-02 1.112942025065422058e-02 -4.040230531245470047e-03
8.248000000000000000e+03 2.699971199035644531e+01 2.244329929351806641e+00 4.994883760809898376e-02 2.000190876424312592e-02 2.098522335290908813e-02 2.352724038064479828e-02
8.249000000000000000e+03 2.420361518859863281e+01 7.966489195823669434e-01 3.334359824657440186e-02 -1.618436910212039948e-02 5.147768184542655945e-03 1.412928290665149689e-02
8.250000000000000000e+03 4.838550186157226562e+01 2.712564468383789062e+01 -4.297370556741952896e-03 -1.266943407244980335e-03 -1.669294200837612152e-03 -2.599446801468729973e-03
8.251000000000000000e+03 5.418158721923828125e+01 -2.849185752868652344e+01 4.965862259268760681e-03 1.926384866237640381e-02 7.268913090229034424e-03 -1.033528475090861320e-03
8.252000000000000000e+03 5.372616195678710938e+01 -2.647326087951660156e+01 3.867736319079995155e-03 1.952237449586391449e-02 7.017033174633979797e-03 -1.164646353572607040e-03
8.253000000000000000e+03 8.860425949096679688e+00 -5.805061340332031250e+00 4.516252782195806503e-03 1.728036906570196152e-03 1.873286906629800797e-03 3.512528724968433380e-03
8.254000000000000000e+03 1.747475242614746094e+01 -6.687710285186767578e+00 3.966525197029113770e-03 2.893024869263172150e-02 9.869032539427280426e-03 1.204876974225044250e-02
8.255000000000000000e+03 1.703218841552734375e+01 -7.383636951446533203e+00 4.355498123914003372e-03 2.226180955767631531e-02 7.985192351043224335e-03 1.089902315288782120e-02
8.256000000000000000e+03 2.679425621032714844e+01 1.719769835472106934e+00 4.370751231908798218e-02 1.608360372483730316e-02 1.793733425438404083e-02 2.017897926270961761e-02
8.257000000000000000e+03 3.417621231079101562e+01 5.886960983276367188e+00 1.437524706125259399e-01 -2.621333301067352295e-02 3.526173904538154602e-02 1.548300124704837799e-02
8.258000000000000000e+03 3.614863204956054688e+01 1.389844703674316406e+01 -7.050424069166183472e-02 -3.011343302205204964e-03 -2.205467596650123596e-02 -2.705943398177623749e-02
8.259000000000000000e+03 3.689525604248046875e+01 1.496406078338623047e+01 -5.221949517726898193e-02 -8.602668531239032745e-03 -1.824664883315563202e-02 -2.426697872579097748e-02
8.260000000000000000e+03 4.431645202636718750e+01 2.377004051208496094e+01 -8.092777803540229797e-03 -3.533921437337994576e-03 -3.488009795546531677e-03 -5.523655563592910767e-03
8.261000000000000000e+03 2.876504325866699219e+01 3.195442438125610352e+00 4.420083016157150269e-02 1.090289428830146790e-01 4.596893116831779480e-02 1.932144351303577423e-02
8.262000000000000000e+03 2.583630943298339844e+01 7.919503450393676758e-01 3.169312328100204468e-02 -1.988199801417067647e-04 9.448291733860969543e-03 1.369841117411851883e-02
8.263000000000000000e+03 6.093867301940917969e+00 -1.090129661560058594e+01 1.474545104429125786e-03 4.650372080504894257e-03 1.837475108914077282e-03 4.711545538157224655e-03
8.264000000000000000e+03 4.704751968383789062e+01 2.591868972778320312e+01 -5.423480179160833359e-03 -1.714082201942801476e-03 -2.141268691048026085e-03 -3.386500058695673943e-03
8.265000000000000000e+03 4.604760742187500000e+01 2.392102241516113281e+01 -8.090963587164878845e-03 -1.481794985011219978e-03 -2.871827455237507820e-03 -4.204737953841686249e-03
8.266000000000000000e+03 2.655967712402343750e+01 2.005136728286743164e+00 4.908941313624382019e-02 8.544863201677799225e-03 1.729028299450874329e-02 1.987149007618427277e-02
8.267000000000000000e+03 2.414665031433105469e+01 -2.625210952758789062e+01 -3.320344490930438042e-03 -1.571014057844877243e-03 -1.467407564632594585e-03 3.641218878328800201e-03
8.268000000000000000e+03 3.821633148193359375e+01 1.563600158691406250e+01 -4.063060507178306580e-02 -2.814597683027386665e-03 -1.303356047719717026e-02 -1.682974211871623993e-02
8.269000000000000000e+03 4.088367080688476562e+01 1.943336486816406250e+01 -1.648207008838653564e-02 -4.677625838667154312e-03 -6.347909104079008102e-03 -1.095583382993936539e-02
8.270000000000000000e+03 4.179233551025390625e+01 1.977937889099121094e+01 -1.603137329220771790e-02 -3.427167190238833427e-03 -5.837562028318643570e-03 -9.010159410536289215e-03
8.271000000000000000e+03 4.823521041870117188e+01 2.667306900024414062e+01 -4.719413816928863525e-03 -1.137041952461004257e-03 -1.756936660967767239e-03 -2.704559592530131340e-03
8.272000000000000000e+03 4.825647735595703125e+01 2.691062355041503906e+01 -4.427169449627399445e-03 -1.221325714141130447e-03 -1.694548525847494602e-03 -2.617184771224856377e-03
8.273000000000000000e+03 2.656482315063476562e+01 1.237435460090637207e+00 3.700320795178413391e-02 1.159270759671926498e-02 1.457877550274133682e-02 1.626710593700408936e-02
8.274000000000000000e+03 3.608578109741210938e+01 1.227234363555908203e+01 -8.724055439233779907e-02 1.260864734649658203e-02 -2.238957211375236511e-02 -3.598725888878107071e-03
8.275000000000000000e+03 7.178100109100341797e+00 -1.178344249725341797e+01 1.283107907511293888e-03 5.772441159933805466e-03 2.116664778441190720e-03 5.717092659324407578e-03
8.276000000000000000e+03 4.596101379394531250e+01 2.425079536437988281e+01 -7.591098546981811523e-03 -1.899086637422442436e-03 -2.847055671736598015e-03 -4.257989581674337387e-03
8.277000000000000000e+03 3.321978378295898438e+01 4.729783058166503906e+00 1.549290716648101807e-01 1.371269673109054565e-02 5.059252679347991943e-02 -4.901280254125595093e-02
8.278000000000000000e+03 3.489275741577148438e+01 5.703393459320068359e+00 1.172067150473594666e-01 -2.345511130988597870e-02 2.812548168003559113e-02 1.555745024234056473e-02
8.279000000000000000e+03 5.305199432373046875e+01 -2.342395019531250000e+01 2.645238302648067474e-03 1.925511285662651062e-02 6.570105440914630890e-03 -1.356273423880338669e-03
8.280000000000000000e+03 7.500894165039062500e+01 -3.003141403198242188e+01 2.853104087989777327e-04 -2.009416930377483368e-02 -5.942657589912414551e-03 7.895346498116850853e-04
8.281000000000000000e+03 4.711728668212890625e+01 2.532644462585449219e+01 -6.189110688865184784e-03 -1.336954184807837009e-03 -2.257819520309567451e-03 -3.458072198554873466e-03
8.282000000000000000e+03 5.170269393920898438e+01 -2.268009185791015625e+01 2.444623736664652824e-03 2.108654379844665527e-02 7.059350144118070602e-03 -2.102290978655219078e-03
8.283000000000000000e+03 5.068452835083007812e+01 -2.325640106201171875e+01 2.882161876186728477e-03 2.313043177127838135e-02 7.803778164088726044e-03 -2.648314228281378746e-03
8.284000000000000000e+03 2.713642883300781250e+01 5.485475808382034302e-02 1.243393588811159134e-02 2.318322844803333282e-02 1.068514958024024963e-02 1.051859557628631592e-02
8.285000000000000000e+03 3.287321090698242188e+01 1.193565368652343750e+01 -1.813054382801055908e-01 -2.165409922599792480e-02 -6.088786199688911438e-02 -7.939080148935317993e-02
8.286000000000000000e+03 7.528675079345703125e+01 2.910436820983886719e+01 -2.677475276868790388e-04 -2.551683282945305109e-04 -1.568747538840398192e-04 3.070650273002684116e-04
8.287000000000000000e+03 7.579508972167968750e+01 2.672611045837402344e+01 -2.753625740297138691e-04 -5.278324242681264877e-04 -2.409584994893521070e-04 5.225781351327896118e-04
8.288000000000000000e+03 7.663321685791015625e+01 2.715081596374511719e+01 -1.734544057399034500e-04 -4.355474957264959812e-04 -1.827005762606859207e-04 3.531001566443592310e-04
8.289000000000000000e+03 3.299896621704101562e+01 -6.447318553924560547e+00 -1.341984514147043228e-02 3.173185139894485474e-02 5.493602249771356583e-03 -1.036173105239868164e-02
8.290000000000000000e+03 4.161548233032226562e+01 2.090189361572265625e+01 -1.251976005733013153e-02 -5.369307473301887512e-03 -5.366720259189605713e-03 -8.926305919885635376e-03
8.291000000000000000e+03 7.500280761718750000e+01 2.634024429321289062e+01 -3.625187382567673922e-04 -5.787336849607527256e-04 -2.823757240548729897e-04 6.529184756800532341e-04
8.292000000000000000e+03 5.402040863037109375e+01 -2.295130157470703125e+01 2.644454594701528549e-03 1.722198352217674255e-02 5.959931295365095139e-03 -5.388460122048854828e-04
8.293000000000000000e+03 5.131497573852539062e+01 -2.163510704040527344e+01 2.372249262407422066e-03 2.093935199081897736e-02 6.993480492383241653e-03 -2.186167053878307343e-03
8.294000000000000000e+03 1.025239562988281250e+01 -6.704707622528076172e+00 5.773846060037612915e-03 2.498190384358167648e-03 2.481610979884862900e-03 5.394432693719863892e-03
8.295000000000000000e+03 2.775362014770507812e+01 8.405883312225341797e-01 2.246729843318462372e-02 3.850806504487991333e-02 1.829260960221290588e-02 1.223523076623678207e-02
8.296000000000000000e+03 5.168190765380859375e+01 2.970108413696289062e+01 -2.593862824141979218e-03 -2.747277321759611368e-04 -8.605771581642329693e-04 -1.220148871652781963e-03
8.297000000000000000e+03 2.949479675292968750e+01 2.199235677719116211e+00 2.990717813372612000e-02 1.008732691407203674e-01 3.923413529992103577e-02 -6.162981037050485611e-03
8.298000000000000000e+03 3.390420150756835938e+01 4.540815830230712891e+00 1.338218152523040771e-01 3.004792612046003342e-03 4.104798287153244019e-02 -3.624597191810607910e-02
8.299000000000000000e+03 4.194558715820312500e+01 2.001300239562988281e+01 -1.501298230141401291e-02 -3.534458344802260399e-03 -5.564232356846332550e-03 -8.837291970849037170e-03
8.300000000000000000e+03 4.202421188354492188e+01 1.946256637573242188e+01 -1.669153571128845215e-02 -2.296199323609471321e-03 -5.696320440620183945e-03 -8.895386941730976105e-03
8.301000000000000000e+03 3.563223266601562500e+01 5.548094272613525391e+00 9.638649225234985352e-02 -1.997559517621994019e-02 2.292326837778091431e-02 1.438368856906890869e-02
8.302000000000000000e+03 4.773937606811523438e+01 2.490250015258789062e+01 -6.847924552857875824e-03 -6.022125016897916794e-04 -2.235041232779622078e-03 -3.084919182583689690e-03
8.303000000000000000e+03 3.758694839477539062e+01 1.452766704559326172e+01 -5.332591757178306580e-02 7.556740893051028252e-04 -1.577107235789299011e-02 -1.648961193859577179e-02
8.304000000000000000e+03 4.743413162231445312e+01 2.496122360229492188e+01 -6.776265799999237061e-03 -8.643314358778297901e-04 -2.292179269716143608e-03 -3.336268011480569839e-03
8.305000000000000000e+03 3.416695785522460938e+01 1.095032215118408203e+01 -1.487338691949844360e-01 3.240445256233215332e-02 -3.489882871508598328e-02 1.565111428499221802e-02
8.306000000000000000e+03 4.065264129638671875e+01 1.851093292236328125e+01 -2.099122665822505951e-02 -3.523933701217174530e-03 -7.354548200964927673e-03 -1.138905994594097137e-02
8.307000000000000000e+03 4.100411224365234375e+01 1.885764312744140625e+01 -1.931451261043548584e-02 -3.483081003651022911e-03 -6.839278154075145721e-03 -1.083140354603528976e-02
8.308000000000000000e+03 5.271237564086914062e+01 -2.205458831787109375e+01 2.512264531105756760e-03 1.851053349673748016e-02 6.306839175522327423e-03 -1.375158317387104034e-03
8.309000000000000000e+03 3.405514144897460938e+01 6.989240169525146484e+00 1.142833381891250610e-01 -3.163385391235351562e-02 2.479484677314758301e-02 6.819357722997665405e-02
8.310000000000000000e+03 1.644820785522460938e+01 -2.331770133972167969e+01 -2.996445400640368462e-03 6.751638371497392654e-03 1.126557937823235989e-03 4.364995285868644714e-03
8.311000000000000000e+03 4.830199432373046875e+01 -1.951445579528808594e+01 1.911590690724551678e-03 2.330095134675502777e-02 7.563762366771697998e-03 -4.792859777808189392e-03
8.312000000000000000e+03 7.413769531250000000e+01 -2.606543922424316406e+01 4.400974721647799015e-04 -1.779210753738880157e-02 -5.205602850764989853e-03 1.382557325996458530e-03
8.313000000000000000e+03 2.825190734863281250e+01 3.149367570877075195e-01 1.337488275021314621e-02 4.582878574728965759e-02 1.776110008358955383e-02 6.673733703792095184e-03
8.314000000000000000e+03 2.959632873535156250e+01 1.784059882164001465e+00 2.535579353570938110e-02 9.157142043113708496e-02 3.507816419005393982e-02 -8.201036602258682251e-03
8.315000000000000000e+03 3.719619369506835938e+01 1.455372047424316406e+01 -5.443791300058364868e-02 -2.096790587529540062e-03 -1.696041040122509003e-02 -1.983745582401752472e-02
8.316000000000000000e+03 5.138970565795898438e+01 -1.998061180114746094e+01 1.957306172698736191e-03 1.977112144231796265e-02 6.518528331071138382e-03 -2.314144745469093323e-03
8.317000000000000000e+03 3.503671646118164062e+01 1.049615764617919922e+01 -9.914419800043106079e-02 3.107722103595733643e-02 -2.042009308934211731e-02 3.618153184652328491e-02
8.318000000000000000e+03 6.651356697082519531e+00 -1.990342521667480469e+01 -9.059545118361711502e-04 9.782751090824604034e-03 2.663038903847336769e-03 4.804547410458326340e-03
8.319000000000000000e+03 8.167403221130371094e+00 -2.057573699951171875e+01 -1.297190203331410885e-03 9.768851101398468018e-03 2.541498281061649323e-03 5.165760405361652374e-03
8.320000000000000000e+03 3.461399078369140625e+01 4.298058986663818359e+00 1.139563620090484619e-01 -2.052476862445473671e-03 3.357116505503654480e-02 -2.788463421165943146e-02
8.321000000000000000e+03 3.519345855712890625e+01 7.123576164245605469e+00 6.703882664442062378e-02 -1.687432080507278442e-02 1.504935137927532196e-02 6.095076724886894226e-02
8.322000000000000000e+03 3.213690185546875000e+01 2.647558212280273438e+00 6.970975548028945923e-02 7.710172981023788452e-02 4.404344409704208374e-02 -6.406104564666748047e-02
8.323000000000000000e+03 2.927159881591796875e+01 6.097162961959838867e-01 1.309148967266082764e-02 6.617930531501770020e-02 2.378123998641967773e-02 -4.692391958087682724e-03
8.324000000000000000e+03 3.890166473388671875e+01 1.479335403442382812e+01 -4.350749030709266663e-02 4.645631648600101471e-03 -1.165855769068002701e-02 -9.865310974419116974e-03
8.325000000000000000e+03 5.028853607177734375e+01 2.838599586486816406e+01 -3.430142533034086227e-03 -5.412243190221488476e-04 -1.191410003229975700e-03 -1.739635947160422802e-03
8.326000000000000000e+03 3.922368240356445312e+01 -1.362945365905761719e+01 6.859696586616337299e-04 2.535753324627876282e-02 7.813050411641597748e-03 -9.876124560832977295e-03
8.327000000000000000e+03 1.562708187103271484e+01 -1.670266914367675781e+01 -2.777559682726860046e-03 9.260645136237144470e-03 1.944925519637763500e-03 5.561635363847017288e-03
8.328000000000000000e+03 5.171459579467773438e+01 2.916360473632812500e+01 -3.003761637955904007e-03 -1.618728128960356116e-04 -9.496903512626886368e-04 -1.299455645494163036e-03
8.329000000000000000e+03 5.303215408325195312e+01 3.038248634338378906e+01 -2.260058186948299408e-03 2.264038448629435152e-05 -6.712253671139478683e-04 -9.030883084051311016e-04
8.330000000000000000e+03 3.473348236083984375e+01 1.058653450012207031e+01 -1.109066754579544067e-01 2.715356647968292236e-02 -2.512593381106853485e-02 3.259179741144180298e-02
8.331000000000000000e+03 1.033571434020996094e+01 -8.419558525085449219e+00 4.633294884115457535e-03 4.574750550091266632e-03 2.762413583695888519e-03 6.927556823939085007e-03
8.332000000000000000e+03 4.796305465698242188e+01 2.386361312866210938e+01 -8.073383010923862457e-03 9.746762953000143170e-05 -2.392774447798728943e-03 -2.946305787190794945e-03
8.333000000000000000e+03 3.191072273254394531e+01 2.141595602035522461e+00 5.343459546566009521e-02 8.205444365739822388e-02 4.064671322703361511e-02 -5.681892111897468567e-02
8.334000000000000000e+03 3.538988113403320312e+01 1.084792613983154297e+01 -9.646929055452346802e-02 2.621776983141899109e-02 -2.107545547187328339e-02 2.629233710467815399e-02
8.335000000000000000e+03 3.566027069091796875e+01 1.072780132293701172e+01 -8.475831151008605957e-02 2.497326768934726715e-02 -1.793551258742809296e-02 3.042557649314403534e-02
8.336000000000000000e+03 4.045054626464843750e+01 1.641142082214355469e+01 -3.034989349544048309e-02 1.806225744076073170e-03 -8.563100360333919525e-03 -9.841780178248882294e-03
8.337000000000000000e+03 3.341415023803710938e+01 -1.862181663513183594e+00 5.874398164451122284e-03 4.611745849251747131e-02 1.559755671769380569e-02 -3.136540949344635010e-02
8.338000000000000000e+03 3.781668472290039062e+01 1.278727722167968750e+01 -6.044496223330497742e-02 1.381258293986320496e-02 -1.398971304297447205e-02 2.587459130154456943e-05
8.339000000000000000e+03 3.020569038391113281e+01 1.521010398864746094e+00 2.419452182948589325e-02 9.198597073554992676e-02 3.485414758324623108e-02 -2.189381048083305359e-02
8.340000000000000000e+03 3.846158218383789062e+01 1.274006366729736328e+01 -5.303997546434402466e-02 1.355245895683765411e-02 -1.184625457972288132e-02 3.642107360064983368e-03
8.341000000000000000e+03 7.522526550292968750e+01 2.535624122619628906e+01 -3.596178139559924603e-04 -7.131361635401844978e-04 -3.218261990696191788e-04 7.518206257373094559e-04
8.342000000000000000e+03 3.929103469848632812e+01 1.420520782470703125e+01 -4.377831146121025085e-02 8.060362190008163452e-03 -1.071538496762514114e-02 -5.072649102658033371e-03
8.343000000000000000e+03 4.093579864501953125e+01 1.845428848266601562e+01 -2.103010378777980804e-02 -2.727188169956207275e-03 -7.127187680453062057e-03 -1.075235847383737564e-02
8.344000000000000000e+03 1.924411201477050781e+01 -1.968700790405273438e+01 -3.013702807947993279e-03 4.555768333375453949e-03 4.626196750905364752e-04 3.347181482240557671e-03
8.345000000000000000e+03 1.117358970642089844e+01 -1.432104492187500000e+01 -5.851909518241882324e-04 9.039475582540035248e-03 2.536285435780882835e-03 7.440869230777025223e-03
8.346000000000000000e+03 1.037640762329101562e+01 -1.366814899444580078e+01 3.090452228207141161e-04 8.326090872287750244e-03 2.590540796518325806e-03 7.284951861947774887e-03
8.347000000000000000e+03 4.592026519775390625e+01 -1.592434597015380859e+01 1.677508465945720673e-03 2.299729175865650177e-02 7.402440067380666733e-03 -7.060876116156578064e-03
8.348000000000000000e+03 4.677067184448242188e+01 -1.612120246887207031e+01 1.693855505436658859e-03 2.208085730671882629e-02 7.132413797080516815e-03 -6.158474832773208618e-03
8.349000000000000000e+03 4.620149993896484375e+01 -1.486481571197509766e+01 1.760515384376049042e-03 2.190460637211799622e-02 7.099536247551441193e-03 -6.878260523080825806e-03
8.350000000000000000e+03 7.217228698730468750e+01 2.760977363586425781e+01 -7.259114063344895840e-04 -3.729723975993692875e-04 -3.296651411801576614e-04 8.165523177012801170e-04
8.351000000000000000e+03 5.297802352905273438e+01 2.943072128295898438e+01 -2.884035231545567513e-03 1.556765782879665494e-04 -8.185075712390244007e-04 -1.005386468023061752e-03
8.352000000000000000e+03 3.101887893676757812e+01 1.194334268569946289e+00 2.587687037885189056e-02 8.552979677915573120e-02 3.342200070619583130e-02 -3.556126356124877930e-02
8.353000000000000000e+03 3.157530593872070312e+01 1.621024727821350098e+00 3.625591844320297241e-02 8.426496386528015137e-02 3.615626320242881775e-02 -4.600952193140983582e-02
8.354000000000000000e+03 4.894768905639648438e+01 2.366785621643066406e+01 -8.112480863928794861e-03 8.353125886060297489e-04 -2.183150500059127808e-03 -2.293412573635578156e-03
8.355000000000000000e+03 7.228211975097656250e+01 -1.754256248474121094e+01 3.866587358061224222e-04 -1.307569630444049835e-02 -3.806711407378315926e-03 2.595133613795042038e-03
8.356000000000000000e+03 4.030087280273437500e+01 1.552821159362792969e+01 -3.479064628481864929e-02 4.318496678024530411e-03 -9.141644462943077087e-03 -7.298280950635671616e-03
8.357000000000000000e+03 3.906039428710937500e+01 1.269627857208251953e+01 -4.678129404783248901e-02 1.286919880658388138e-02 -1.017362810671329498e-02 5.926595535129308701e-03
8.358000000000000000e+03 3.625107574462890625e+01 9.834533691406250000e+00 -5.288007855415344238e-02 1.738617755472660065e-02 -1.064817048609256744e-02 4.822739586234092712e-02
8.359000000000000000e+03 4.316909790039062500e+01 1.901730155944824219e+01 -1.750073581933975220e-02 4.643029533326625824e-04 -5.110929720103740692e-03 -6.569627672433853149e-03
8.360000000000000000e+03 6.886732482910156250e+01 -1.850796508789062500e+01 8.534152875654399395e-04 -7.884066551923751831e-03 -2.109195338562130928e-03 2.836109139025211334e-03
8.361000000000000000e+03 4.766971969604492188e+01 -1.472597217559814453e+01 1.746893511153757572e-03 2.052955888211727142e-02 6.682935636490583420e-03 -5.693491082638502121e-03
8.362000000000000000e+03 1.020822620391845703e+01 -1.902576065063476562e+01 -1.634882413782179356e-03 9.273041971027851105e-03 2.291447948664426804e-03 5.838041193783283234e-03
8.363000000000000000e+03 1.117595672607421875e+01 -1.812543487548828125e+01 -1.587367965839803219e-03 9.319109842181205750e-03 2.319522667676210403e-03 6.247866898775100708e-03
8.364000000000000000e+03 3.966455459594726562e+01 -2.864482879638671875e+00 1.672194153070449829e-02 1.751583814620971680e-02 1.027133408933877945e-02 -2.081781625747680664e-02
8.365000000000000000e+03 3.323480606079101562e+01 2.668798923492431641e+00 7.993890345096588135e-02 4.865147918462753296e-02 3.857711330056190491e-02 -5.851256474852561951e-02
8.366000000000000000e+03 1.210766696929931641e+01 -1.711098098754882812e+01 -1.765838242135941982e-03 9.289362467825412750e-03 2.257057232782244682e-03 6.424613296985626221e-03
8.367000000000000000e+03 9.225683212280273438e+00 -1.981467247009277344e+01 -1.235986477695405483e-03 9.509074501693248749e-03 2.481926465407013893e-03 5.557663738727569580e-03
8.368000000000000000e+03 4.164021682739257812e+01 -6.197407722473144531e+00 6.737600546330213547e-03 1.961243338882923126e-02 7.905010133981704712e-03 -1.468433998525142670e-02
8.369000000000000000e+03 5.260297775268554688e+01 2.897014808654785156e+01 -3.218133235350251198e-03 1.750214869389310479e-04 -9.129335521720349789e-04 -1.117620151489973068e-03
8.370000000000000000e+03 3.963932037353515625e+01 1.313889217376708984e+01 -4.292632266879081726e-02 1.186356600373983383e-02 -9.318826720118522644e-03 3.541328711435198784e-03
8.371000000000000000e+03 6.993480682373046875e+01 -1.777246665954589844e+01 6.532396073453128338e-04 -9.381310082972049713e-03 -2.618421334773302078e-03 2.871616976335644722e-03
8.372000000000000000e+03 6.942292022705078125e+01 -1.660142707824707031e+01 7.020070916041731834e-04 -8.611740544438362122e-03 -2.372919814661145210e-03 3.045640652999281883e-03
8.373000000000000000e+03 4.694087219238281250e+01 -1.504027748107910156e+01 1.863172743469476700e-03 2.121109701693058014e-02 6.922280881553888321e-03 -6.154814269393682480e-03
8.374000000000000000e+03 4.813259506225585938e+01 -1.394894218444824219e+01 2.189612714573740959e-03 1.906132511794567108e-02 6.375281605869531631e-03 -5.397154483944177628e-03
8.375000000000000000e+03 4.233870697021484375e+01 1.803716468811035156e+01 -2.150939404964447021e-02 1.077288878150284290e-03 -6.129631306976079941e-03 -7.381852716207504272e-03
8.376000000000000000e+03 6.394019317626953125e+01 -1.300286483764648438e+01 1.441816450096666813e-03 -1.030239160172641277e-03 1.234731898875907063e-04 3.416841151192784309e-03
8.377000000000000000e+03 6.290507888793945312e+01 -1.368664360046386719e+01 1.562570454552769661e-03 3.512316325213760138e-04 5.741406348533928394e-04 3.094944637268781662e-03
8.378000000000000000e+03 3.309667968750000000e+01 3.174462795257568359e+00 9.465064853429794312e-02 4.631303623318672180e-02 4.228910431265830994e-02 -6.388252228498458862e-02
8.379000000000000000e+03 3.439848709106445312e+01 2.469553709030151367e+00 7.650884985923767090e-02 2.510352060198783875e-02 3.048371151089668274e-02 -4.757533222436904907e-02
8.380000000000000000e+03 4.220070266723632812e+01 1.829029464721679688e+01 -2.024416998028755188e-02 8.749102562433108687e-05 -6.047003436833620071e-03 -8.040889166295528412e-03
8.381000000000000000e+03 3.764236450195312500e+01 5.399318218231201172e+00 5.801514536142349243e-02 -1.491022389382123947e-02 1.293147634714841843e-02 1.655903644859790802e-02
8.382000000000000000e+03 3.764449691772460938e+01 5.858985900878906250e+00 5.448839813470840454e-02 -1.457587257027626038e-02 1.197375822812318802e-02 2.309076301753520966e-02
8.383000000000000000e+03 3.736157989501953125e+01 6.310609340667724609e+00 4.871321469545364380e-02 -1.257389131933450699e-02 1.084179710596799850e-02 3.103836625814437866e-02
8.384000000000000000e+03 3.578138732910156250e+01 -7.709627747535705566e-01 2.730452083051204681e-02 2.966013737022876740e-02 1.708939857780933380e-02 -3.569023311138153076e-02
8.385000000000000000e+03 3.530993652343750000e+01 -1.125027060508728027e+00 2.266705781221389771e-02 3.500215336680412292e-02 1.730076409876346588e-02 -3.634249418973922729e-02
8.386000000000000000e+03 7.129303741455078125e+01 -1.531707668304443359e+01 4.839874745812267065e-04 -1.115810684859752655e-02 -3.202235791832208633e-03 2.937653334811329842e-03
8.387000000000000000e+03 5.435275268554687500e+01 2.863285064697265625e+01 -3.414127044379711151e-03 5.697421729564666748e-04 -8.533154032193124294e-04 -7.372850086539983749e-04
8.388000000000000000e+03 7.354168701171875000e+01 2.694207191467285156e+01 -5.225169588811695576e-04 -5.029564490541815758e-04 -3.076420107390731573e-04 7.487313705496490002e-04
8.389000000000000000e+03 4.424964523315429688e+01 2.043394279479980469e+01 -1.404578331857919693e-02 -3.254381299484521151e-04 -4.311366472393274307e-03 -5.584451835602521896e-03
8.390000000000000000e+03 4.435946273803710938e+01 -3.727664470672607422e+00 1.254730671644210815e-02 1.115378737449645996e-02 7.110328413546085358e-03 -9.981290437281131744e-03
8.391000000000000000e+03 5.260223007202148438e+01 2.659850883483886719e+01 -4.935864824801683426e-03 8.073357166722416878e-04 -1.238558674231171608e-03 -1.068042358383536339e-03
8.392000000000000000e+03 3.516792678833007812e+01 1.583545565605163574e+00 5.827397480607032776e-02 2.440832555294036865e-02 2.480469085276126862e-02 -4.233679547905921936e-02
8.393000000000000000e+03 4.737041854858398438e+01 -1.371441268920898438e+01 2.102038357406854630e-03 1.990554481744766235e-02 6.602274719625711441e-03 -6.254713051021099091e-03
8.394000000000000000e+03 7.115841674804687500e+01 -1.855879592895507812e+01 5.918927490711212158e-04 -1.125476788729429245e-02 -3.198862774297595024e-03 2.674596384167671204e-03
8.395000000000000000e+03 7.033047485351562500e+01 2.618834877014160156e+01 -1.135906553827226162e-03 -3.747420269064605236e-04 -4.531945742201060057e-04 1.232410315424203873e-03
8.396000000000000000e+03 4.505848312377929688e+01 -1.294985771179199219e+01 1.760247745551168919e-03 2.152929827570915222e-02 6.986863911151885986e-03 -8.109430782496929169e-03
8.397000000000000000e+03 4.635090637207031250e+01 -1.220470809936523438e+01 2.440999029204249382e-03 1.945320703089237213e-02 6.568261887878179550e-03 -7.174505386501550674e-03
8.398000000000000000e+03 4.533386230468750000e+01 -1.187738609313964844e+01 2.396209863945841789e-03 2.046835236251354218e-02 6.859368644654750824e-03 -8.184875361621379852e-03
8.399000000000000000e+03 5.203565216064453125e+01 -1.399876880645751953e+01 2.353027695789933205e-03 1.445068791508674622e-02 5.041114520281553268e-03 -2.279178239405155182e-03
8.400000000000000000e+03 4.201913070678710938e+01 1.580707454681396484e+01 -2.825641632080078125e-02 5.563517566770315170e-03 -6.807869765907526016e-03 -3.305827267467975616e-03
8.401000000000000000e+03 4.200492858886718750e+01 1.535150718688964844e+01 -2.894574403762817383e-02 6.390826310962438583e-03 -6.766475271433591843e-03 -1.785032451152801514e-03
8.402000000000000000e+03 5.306651687622070312e+01 2.720155143737792969e+01 -4.454624373465776443e-03 7.162705878727138042e-04 -1.121506211347877979e-03 -9.812219068408012390e-04
8.403000000000000000e+03 7.116378784179687500e+01 1.394423770904541016e+01 -9.146926458925008774e-04 -2.812658902257680893e-03 -1.118205487728118896e-03 3.755175042897462845e-03
8.404000000000000000e+03 6.019225311279296875e+01 -1.066116333007812500e+01 2.154489280655980110e-03 2.769435057416558266e-03 1.477177371270954609e-03 2.797377528622746468e-03
8.405000000000000000e+03 7.155309295654296875e+01 2.372250175476074219e+01 -9.984740754589438438e-04 -7.919036434032022953e-04 -5.371132865548133850e-04 1.598775153979659081e-03
8.406000000000000000e+03 4.178267288208007812e+01 1.611515998840332031e+01 -2.795105054974555969e-02 5.180330947041511536e-03 -6.831215694546699524e-03 -5.084795411676168442e-03
8.407000000000000000e+03 3.935617065429687500e+01 5.805490970611572266e+00 3.601668402552604675e-02 -9.529576636850833893e-03 7.946131750941276550e-03 2.015162259340286255e-02
8.408000000000000000e+03 4.501088714599609375e+01 -2.085214376449584961e+00 1.506901998072862625e-02 7.281105499714612961e-03 6.705037783831357956e-03 -7.057983428239822388e-03
8.409000000000000000e+03 3.521300888061523438e+01 2.270288705825805664e+00 6.973300874233245850e-02 1.697856560349464417e-02 2.601347304880619049e-02 -3.870141133666038513e-02
8.410000000000000000e+03 7.067012023925781250e+01 8.193882942199707031e+00 -4.829687240999191999e-04 -4.430672153830528259e-03 -1.474092248827219009e-03 4.680431447923183441e-03
8.411000000000000000e+03 4.251988983154296875e+01 1.567234706878662109e+01 -2.700675465166568756e-02 6.287516560405492783e-03 -6.215771194547414780e-03 -1.824497012421488762e-03
8.412000000000000000e+03 3.615806198120117188e+01 2.286985367536544800e-01 3.818220272660255432e-02 2.338224463164806366e-02 1.846933364868164062e-02 -3.580017387866973877e-02
8.413000000000000000e+03 5.532258224487304688e+01 2.738296699523925781e+01 -4.035304766148328781e-03 9.569201502017676830e-04 -9.235153556801378727e-04 -3.932614927180111408e-04
8.414000000000000000e+03 5.532086181640625000e+01 2.803442955017089844e+01 -3.692091908305883408e-03 8.038298110477626324e-04 -8.664786000736057758e-04 -4.898726474493741989e-04
8.415000000000000000e+03 3.912579345703125000e+01 6.708225727081298828e+00 2.541835978627204895e-02 -5.480696912854909897e-03 5.981298629194498062e-03 2.770189195871353149e-02
8.416000000000000000e+03 3.909057617187500000e+01 -2.538797557353973389e-01 3.111192211508750916e-02 1.002559810876846313e-02 1.234125625342130661e-02 -2.111058495938777924e-02
8.417000000000000000e+03 4.616768264770507812e+01 -9.401249885559082031e+00 4.058184102177619934e-03 1.704279519617557526e-02 6.330293603241443634e-03 -7.894222624599933624e-03
8.418000000000000000e+03 3.961374664306640625e+01 -6.120668649673461914e-01 2.921562828123569489e-02 1.004653051495552063e-02 1.177864801138639450e-02 -2.020127326250076294e-02
8.419000000000000000e+03 6.954401397705078125e+01 2.513257026672363281e+01 -1.354157226160168648e-03 -3.757394733838737011e-04 -5.189689691178500652e-04 1.507557695731520653e-03
8.420000000000000000e+03 4.984866714477539062e+01 2.126111221313476562e+01 -1.014897413551807404e-02 2.741735428571701050e-03 -2.222171751782298088e-03 -7.740041473880410194e-04
8.421000000000000000e+03 4.179315948486328125e+01 1.344833755493164062e+01 -3.034221753478050232e-02 1.047229487448930740e-02 -5.960976704955101013e-03 5.557725206017494202e-03
8.422000000000000000e+03 6.656626892089843750e+01 2.503954124450683594e+01 -2.047379035502672195e-03 3.784499131143093109e-05 -6.028601783327758312e-04 1.668331795372068882e-03
8.423000000000000000e+03 4.007484054565429688e+01 7.323963642120361328e+00 1.477741915732622147e-02 -3.491823095828294754e-03 3.385678632184863091e-03 2.664234675467014313e-02
8.424000000000000000e+03 4.330078125000000000e+01 1.539976024627685547e+01 -2.435563504695892334e-02 7.126528769731521606e-03 -5.168731790035963058e-03 2.026545553235337138e-04
8.425000000000000000e+03 4.299496459960937500e+01 1.516950988769531250e+01 -2.586177177727222443e-02 7.335592992603778839e-03 -5.557853728532791138e-03 9.380368283018469810e-04
8.426000000000000000e+03 5.732760620117187500e+01 -7.475587844848632812e+00 3.121994202956557274e-03 4.279552958905696869e-03 2.220464171841740608e-03 2.262337133288383484e-03
8.427000000000000000e+03 4.076271438598632812e+01 5.684021949768066406e+00 2.734932675957679749e-02 -5.483037792146205902e-03 6.559886503964662552e-03 1.659874431788921356e-02
8.428000000000000000e+03 4.211128616333007812e+01 1.068684196472167969e+01 -1.840161159634590149e-02 8.816095069050788879e-03 -2.875655191019177437e-03 1.796638779342174530e-02
8.429000000000000000e+03 4.018804168701171875e+01 1.877906560897827148e+00 3.755387291312217712e-02 -2.040434919763356447e-04 1.120494864881038666e-02 -8.797489106655120850e-03
8.430000000000000000e+03 4.302773666381835938e+01 1.586512947082519531e+01 -2.493574656546115875e-02 5.945016164332628250e-03 -5.697219166904687881e-03 -1.507299253717064857e-03
8.431000000000000000e+03 6.660813903808593750e+01 1.844079399108886719e+01 -2.331426134333014488e-03 -3.583614306990057230e-04 -8.069362957030534744e-04 3.565068356692790985e-03
8.432000000000000000e+03 4.784831237792968750e+01 -9.385744094848632812e+00 4.224637523293495178e-03 1.520348154008388519e-02 5.828435998409986496e-03 -6.132636219263076782e-03
8.433000000000000000e+03 6.623597717285156250e+01 1.020177078247070312e+01 -1.321551855653524399e-03 -1.715628313831984997e-03 -9.111540275625884533e-04 5.700411740690469742e-03
8.434000000000000000e+03 4.289478302001953125e+01 1.617429161071777344e+01 -2.476765960454940796e-02 5.993593949824571609e-03 -5.632219836115837097e-03 -2.763688331469893456e-03
8.435000000000000000e+03 4.276623153686523438e+01 1.580722141265869141e+01 -2.588604390621185303e-02 6.544676609337329865e-03 -5.802410654723644257e-03 -2.112958114594221115e-03
8.436000000000000000e+03 5.167098999023437500e+01 -7.807499885559082031e+00 4.678696859627962112e-03 9.561435319483280182e-03 4.272039979696273804e-03 -1.911150291562080383e-03
8.437000000000000000e+03 5.052667617797851562e+01 -8.796008110046386719e+00 4.524337593466043472e-03 1.150851417332887650e-02 4.809855483472347260e-03 -3.240212565287947655e-03
8.438000000000000000e+03 4.610601425170898438e+01 1.618112945556640625e+01 -1.774657703936100006e-02 6.356250960379838943e-03 -3.417097963392734528e-03 1.621274044737219810e-03
8.439000000000000000e+03 4.618356704711914062e+01 1.668800735473632812e+01 -1.724255084991455078e-02 5.793618038296699524e-03 -3.434679703786969185e-03 8.447991567663848400e-04
8.440000000000000000e+03 5.528221511840820312e+01 2.628071594238281250e+01 -4.681897349655628204e-03 1.262791338376700878e-03 -1.025731791742146015e-03 -1.844508806243538857e-04
8.441000000000000000e+03 4.119153213500976562e+01 5.852202892303466797e+00 2.302980981767177582e-02 -4.772779531776905060e-03 5.477108992636203766e-03 1.747482083737850189e-02
8.442000000000000000e+03 5.456260299682617188e+01 2.279220390319824219e+01 -6.722817663103342056e-03 2.358731348067522049e-03 -1.309225917793810368e-03 6.955201970413327217e-04
8.443000000000000000e+03 5.329756164550781250e+01 1.998491859436035156e+01 -8.519278839230537415e-03 3.429088275879621506e-03 -1.527057262137532234e-03 1.789311994798481464e-03
8.444000000000000000e+03 4.597109222412109375e+01 1.804170227050781250e+01 -1.662193052470684052e-02 4.240587819367647171e-03 -3.714402904734015465e-03 -1.131999539211392403e-03
8.445000000000000000e+03 4.554077529907226562e+01 1.801987075805664062e+01 -1.722868531942367554e-02 3.913004882633686066e-03 -3.994704224169254303e-03 -1.919117872603237629e-03
8.446000000000000000e+03 5.099136352539062500e+01 -8.194248199462890625e+00 4.766383673995733261e-03 1.055028103291988373e-02 4.594999365508556366e-03 -2.633401891216635704e-03
8.447000000000000000e+03 6.609416198730468750e+01 9.042617797851562500e+00 -1.079881563782691956e-03 -1.912288134917616844e-03 -8.976508979685604572e-04 5.900157149881124496e-03
8.448000000000000000e+03 6.551232147216796875e+01 9.585702896118164062e+00 -1.291692489758133888e-03 -1.520938239991664886e-03 -8.437891956418752670e-04 5.983582697808742523e-03
8.449000000000000000e+03 5.019302749633789062e+01 2.131969070434570312e+01 -9.772306308150291443e-03 2.724869875237345695e-03 -2.114230999723076820e-03 -5.368546117097139359e-04
8.450000000000000000e+03 5.035688400268554688e+01 -7.435612201690673828e+00 5.272556096315383911e-03 1.040149666368961334e-02 4.702215548604726791e-03 -3.071773564442992210e-03
8.451000000000000000e+03 4.262696456909179688e+01 1.219085502624511719e+01 -2.359946072101593018e-02 9.764026850461959839e-03 -4.150629974901676178e-03 1.161166932433843613e-02
8.452000000000000000e+03 4.282168197631835938e+01 1.250903701782226562e+01 -2.405274100601673126e-02 1.000785734504461288e-02 -4.213465377688407898e-03 1.017547678202390671e-02
8.453000000000000000e+03 4.225870132446289062e+01 5.442739963531494141e+00 2.001727372407913208e-02 -3.297468880191445351e-03 5.015941336750984192e-03 1.349033880978822708e-02
8.454000000000000000e+03 4.945495986938476562e+01 1.877645874023437500e+01 -1.216521393507719040e-02 4.228604957461357117e-03 -2.380982739850878716e-03 8.387154084630310535e-04
8.455000000000000000e+03 5.670236968994140625e+01 2.542756080627441406e+01 -4.707083106040954590e-03 1.436272286809980869e-03 -9.812432108446955681e-04 3.781059640459716320e-04
8.456000000000000000e+03 4.182291412353515625e+01 4.093890666961669922e+00 2.766161784529685974e-02 -4.475244320929050446e-03 6.955911871045827866e-03 7.728139869868755341e-03
8.457000000000000000e+03 4.374210357666015625e+01 1.461566925048828125e+01 -2.331891655921936035e-02 8.130165748298168182e-03 -4.556625150144100189e-03 3.246494568884372711e-03
8.458000000000000000e+03 6.727772521972656250e+01 2.417729949951171875e+01 -1.949515775777399540e-03 -1.074535393854603171e-04 -6.170907872729003429e-04 1.876358292065560818e-03
8.459000000000000000e+03 4.715777587890625000e+01 1.720354652404785156e+01 -1.563399471342563629e-02 5.278123077005147934e-03 -3.106761490926146507e-03 1.169098075479269028e-03
8.460000000000000000e+03 4.629504013061523438e+01 2.246545314788818359e+00 1.497401669621467590e-02 1.071714563295245171e-03 4.813719540834426880e-03 3.486018162220716476e-03
8.461000000000000000e+03 4.888632965087890625e+01 1.696893310546875000e+01 -1.326025277376174927e-02 5.304449703544378281e-03 -2.386740641668438911e-03 2.557870233431458473e-03
8.462000000000000000e+03 6.500398254394531250e+01 2.378934097290039062e+01 -2.637173980474472046e-03 3.511550603434443474e-04 -6.858056876808404922e-04 1.985804876312613487e-03
8.463000000000000000e+03 5.390578842163085938e+01 -1.246651530265808105e+00 5.510915536433458328e-03 3.021095879375934601e-03 2.559603424742817879e-03 3.551300847902894020e-03
8.464000000000000000e+03 4.296889495849609375e+01 6.789012908935546875e+00 1.004006341099739075e-02 -5.226114299148321152e-04 2.855235477909445763e-03 1.734398305416107178e-02
8.465000000000000000e+03 5.165500640869140625e+01 -2.725483477115631104e-01 7.399776484817266464e-03 3.080488182604312897e-03 3.144079353660345078e-03 3.003343474119901657e-03
8.466000000000000000e+03 5.257101821899414062e+01 4.319854080677032471e-03 6.409701891243457794e-03 3.005751874297857285e-03 2.824636176228523254e-03 3.731917357072234154e-03
8.467000000000000000e+03 6.310179519653320312e+01 2.126971483230590820e+00 8.485679863952100277e-04 -1.619616872631013393e-03 -2.313146833330392838e-04 6.247013807296752930e-03
8.468000000000000000e+03 6.304650878906250000e+01 1.903463172912597656e+01 -3.589341416954994202e-03 8.557714172638952732e-04 -8.200709708034992218e-04 3.619577735662460327e-03
8.469000000000000000e+03 4.376169967651367188e+01 6.478233814239501953e+00 1.043291855603456497e-02 -5.685095093213021755e-04 2.959322882816195488e-03 1.506817433983087540e-02
8.470000000000000000e+03 4.450062561035156250e+01 8.245223999023437500e+00 -1.704423193586990237e-04 3.292344743385910988e-03 9.365707519464194775e-04 1.632092706859111786e-02
8.471000000000000000e+03 4.530901336669921875e+01 1.239727878570556641e+01 -1.570092886686325073e-02 8.090595714747905731e-03 -2.283100038766860962e-03 9.741703979671001434e-03
8.472000000000000000e+03 6.190509414672851562e+01 1.429839801788330078e+01 -3.372161183506250381e-03 8.962046122178435326e-04 -7.427869713865220547e-04 5.476834252476692200e-03
8.473000000000000000e+03 4.525682449340820312e+01 1.271829986572265625e+01 -1.690939441323280334e-02 7.928259670734405518e-03 -2.694340422749519348e-03 9.058327414095401764e-03
8.474000000000000000e+03 6.054339981079101562e+01 2.954875946044921875e+00 1.119109103456139565e-03 -2.214027772424742579e-04 2.693118876777589321e-04 6.575711071491241455e-03
8.475000000000000000e+03 5.419929504394531250e+01 7.753302454948425293e-01 4.765728954225778580e-03 2.220781054347753525e-03 2.095952862873673439e-03 5.044622346758842468e-03
8.476000000000000000e+03 4.775289535522460938e+01 1.421318531036376953e+01 -1.395566575229167938e-02 6.824419368058443069e-03 -2.139373915269970894e-03 6.340208463370800018e-03
8.477000000000000000e+03 4.818628692626953125e+01 1.490878677368164062e+01 -1.402405183762311935e-02 6.380227860063314438e-03 -2.293147146701812744e-03 5.146858748048543930e-03
8.478000000000000000e+03 4.854370117187500000e+01 1.495547103881835938e+01 -1.347969472408294678e-02 6.405683234333992004e-03 -2.122203586623072624e-03 5.245022010058164597e-03
8.479000000000000000e+03 4.842847442626953125e+01 1.461228942871093750e+01 -1.331559661775827408e-02 6.544120144098997116e-03 -2.031442942097783089e-03 5.732954014092683792e-03
8.480000000000000000e+03 4.601177978515625000e+01 1.173434448242187500e+01 -1.316203735768795013e-02 7.081551942974328995e-03 -1.824145438149571419e-03 1.106141414493322372e-02
8.481000000000000000e+03 5.451065826416015625e+01 1.678499221801757812e+01 -7.953173480927944183e-03 3.905595047399401665e-03 -1.214273390360176563e-03 4.341882187873125076e-03
8.482000000000000000e+03 6.094136047363281250e+01 1.689911460876464844e+01 -4.284238908439874649e-03 1.520005636848509312e-03 -8.292699349112808704e-04 4.538431763648986816e-03
8.483000000000000000e+03 6.134862136840820312e+01 1.450177955627441406e+01 -3.679168410599231720e-03 1.203114399686455727e-03 -7.428161916323006153e-04 5.488363560289144516e-03
8.484000000000000000e+03 6.021643066406250000e+01 1.673975563049316406e+01 -4.598043859004974365e-03 1.825241721235215664e-03 -8.318406762555241585e-04 4.633102566003799438e-03
8.485000000000000000e+03 5.070236206054687500e+01 1.208994865417480469e+01 -7.944735698401927948e-03 5.163337104022502899e-03 -8.344193920493125916e-04 8.404348976910114288e-03
8.486000000000000000e+03 5.291523742675781250e+01 1.298747539520263672e+01 -7.185834925621747971e-03 4.562633112072944641e-03 -7.869605324231088161e-04 7.268270477652549744e-03
8.487000000000000000e+03 5.360932922363281250e+01 1.225296592712402344e+01 -5.978327244520187378e-03 4.116342868655920029e-03 -5.585952894762158394e-04 7.554918061941862106e-03
8.488000000000000000e+03 2.584385490417480469e+01 7.212893962860107422e+00 -4.861813545227050781e+00 -2.547040224075317383e+00 -2.222656011581420898e+00 -3.687757253646850586e+00
8.489000000000000000e+03 2.572077751159667969e+01 7.138329982757568359e+00 -5.005652904510498047e+00 -2.471229076385498047e+00 -2.243064641952514648e+00 -3.443471908569335938e+00
8.490000000000000000e+03 2.635003471374511719e+01 7.597809314727783203e+00 -4.676284313201904297e+00 -2.809855699539184570e+00 -2.245841979980468750e+00 -3.708038568496704102e+00
8.491000000000000000e+03 2.616857719421386719e+01 7.457324981689453125e+00 -5.246664047241210938e+00 -3.265822887420654297e+00 -2.553745985031127930e+00 -3.852722644805908203e+00
8.492000000000000000e+03 2.605969047546386719e+01 7.377255916595458984e+00 -3.803163290023803711e+00 -2.260386228561401367e+00 -1.819064855575561523e+00 -3.578899621963500977e+00
8.493000000000000000e+03 2.605792617797851562e+01 7.358781337738037109e+00 -4.492690563201904297e+00 -2.502452611923217773e+00 -2.098542928695678711e+00 -3.880303621292114258e+00
8.494000000000000000e+03 2.596427917480468750e+01 7.311719894409179688e+00 -5.878584384918212891e+00 -3.077452659606933594e+00 -2.686811208724975586e+00 -3.741232395172119141e+00
8.495000000000000000e+03 2.575144386291503906e+01 7.166223526000976562e+00 -5.018709182739257812e+00 -2.535787105560302734e+00 -2.266348838806152344e+00 -3.522530317306518555e+00
8.496000000000000000e+03 2.577385520935058594e+01 7.179347991943359375e+00 -4.799691677093505859e+00 -2.204688549041748047e+00 -2.101314067840576172e+00 -3.086211442947387695e+00
8.497000000000000000e+03 2.584323883056640625e+01 7.228387832641601562e+00 -4.909815311431884766e+00 -2.489953041076660156e+00 -2.219930648803710938e+00 -3.739850997924804688e+00
8.498000000000000000e+03 2.585375595092773438e+01 7.228115081787109375e+00 -4.907824993133544922e+00 -2.623467683792114258e+00 -2.259387731552124023e+00 -3.922939777374267578e+00
8.499000000000000000e+03 2.606327629089355469e+01 7.392076492309570312e+00 -4.851117134094238281e+00 -2.792913913726806641e+00 -2.293209314346313477e+00 -3.727014303207397461e+00
8.500000000000000000e+03 2.861505317687988281e+01 7.151432037353515625e+00 -1.689193248748779297e+00 -7.308308780193328857e-02 -5.286828875541687012e-01 -8.628240823745727539e-01
8.501000000000000000e+03 2.862838935852050781e+01 7.137201309204101562e+00 -1.672897219657897949e+00 5.196583867073059082e-01 -3.459716439247131348e-01 -9.668673276901245117e-01
8.502000000000000000e+03 2.864424514770507812e+01 7.125844955444335938e+00 -1.193391919136047363e+00 8.578540086746215820e-01 -1.006613671779632568e-01 -1.115527510643005371e+00
8.503000000000000000e+03 2.866201019287109375e+01 7.117798805236816406e+00 -6.452728509902954102e-01 1.227770209312438965e+00 1.747492104768753052e-01 -1.281770110130310059e+00
8.504000000000000000e+03 2.868100357055664062e+01 7.113371372222900391e+00 -2.219303883612155914e-02 1.583023667335510254e+00 4.682491719722747803e-01 -1.453236699104309082e+00
8.505000000000000000e+03 2.870049476623535156e+01 7.112733364105224609e+00 6.421285271644592285e-01 1.885844945907592773e+00 7.583920359611511230e-01 -1.661056399345397949e+00
8.506000000000000000e+03 2.871973609924316406e+01 7.115909099578857422e+00 1.407318472862243652e+00 2.089357852935791016e+00 1.049002885818481445e+00 -1.883404612541198730e+00
8.507000000000000000e+03 2.873798942565917969e+01 7.122776508331298828e+00 2.189294576644897461e+00 2.134460687637329102e+00 1.297126650810241699e+00 -2.051495552062988281e+00
8.508000000000000000e+03 2.875455474853515625e+01 7.133071899414062500e+00 3.149506807327270508e+00 2.046064138412475586e+00 1.558671236038208008e+00 -2.114725112915039062e+00
8.509000000000000000e+03 2.876879119873046875e+01 7.146399497985839844e+00 3.932978868484497070e+00 1.806354165077209473e+00 1.721799850463867188e+00 -2.038661718368530273e+00
8.510000000000000000e+03 2.878015708923339844e+01 7.162248134613037109e+00 4.800632953643798828e+00 1.600249886512756348e+00 1.920264959335327148e+00 -1.716239571571350098e+00
8.511000000000000000e+03 2.878821182250976562e+01 7.180008888244628906e+00 5.334040164947509766e+00 1.346662163734436035e+00 2.004210710525512695e+00 -1.296582937240600586e+00
8.512000000000000000e+03 2.879265022277832031e+01 7.198999881744384766e+00 5.749218463897705078e+00 1.330891489982604980e+00 2.124032974243164062e+00 -6.795704364776611328e-01
8.513000000000000000e+03 2.879329872131347656e+01 7.218491554260253906e+00 5.770280361175537109e+00 1.263533949851989746e+00 2.110144376754760742e+00 -1.538075953722000122e-01
8.514000000000000000e+03 2.879013252258300781e+01 7.237735271453857422e+00 5.673170566558837891e+00 1.655848622322082520e+00 2.198705673217773438e+00 3.859908878803253174e-01
8.515000000000000000e+03 2.878327560424804688e+01 7.255992412567138672e+00 5.300712585449218750e+00 1.764591932296752930e+00 2.119591474533081055e+00 7.415399551391601562e-01
8.516000000000000000e+03 2.877298927307128906e+01 7.272561550140380859e+00 4.958829402923583984e+00 2.289397239685058594e+00 2.174468040466308594e+00 9.156384468078613281e-01
8.517000000000000000e+03 2.875966835021972656e+01 7.286806106567382812e+00 4.572761535644531250e+00 2.431217908859252930e+00 2.101193904876708984e+00 9.825977087020874023e-01
8.518000000000000000e+03 2.874382781982421875e+01 7.298179626464843750e+00 4.419404506683349609e+00 2.871379375457763672e+00 2.187235116958618164e+00 8.223046660423278809e-01
8.519000000000000000e+03 2.872607040405273438e+01 7.306245326995849609e+00 4.224850177764892578e+00 3.013206958770751953e+00 2.171416997909545898e+00 6.897122263908386230e-01
8.520000000000000000e+03 2.870708084106445312e+01 7.310693264007568359e+00 4.318951129913330078e+00 3.183798551559448242e+00 2.250824928283691406e+00 4.938650727272033691e-01
8.521000000000000000e+03 2.868759155273437500e+01 7.311352252960205078e+00 4.779667377471923828e+00 3.406592369079589844e+00 2.455877780914306641e+00 2.314490526914596558e-01
8.522000000000000000e+03 2.866834640502929688e+01 7.308197498321533203e+00 4.995644092559814453e+00 3.350114107131958008e+00 2.503727436065673828e+00 -7.404025644063949585e-02
8.523000000000000000e+03 2.865008544921875000e+01 7.301350116729736328e+00 5.735991001129150391e+00 3.457716226577758789e+00 2.758112192153930664e+00 -1.790363639593124390e-01
8.524000000000000000e+03 2.863351058959960938e+01 7.291072845458984375e+00 6.778046131134033203e+00 3.267571687698364258e+00 3.013685226440429688e+00 -2.951581180095672607e-01
8.525000000000000000e+03 2.861925697326660156e+01 7.277760505676269531e+00 7.460777282714843750e+00 2.782006502151489258e+00 3.072835206985473633e+00 -2.959556877613067627e-01
8.526000000000000000e+03 2.860787582397460938e+01 7.261924266815185547e+00 8.664648056030273438e+00 2.744307518005371094e+00 3.422686576843261719e+00 1.582064181566238403e-01
8.527000000000000000e+03 2.859980010986328125e+01 7.244172573089599609e+00 9.307653427124023438e+00 2.011511325836181641e+00 3.395749568939208984e+00 7.327412962913513184e-01
8.528000000000000000e+03 2.859534263610839844e+01 7.225186347961425781e+00 9.904552459716796875e+00 2.072598457336425781e+00 3.593145132064819336e+00 1.564515590667724609e+00
8.529000000000000000e+03 2.859467124938964844e+01 7.205695629119873047e+00 9.887773513793945312e+00 1.798926591873168945e+00 3.506009817123413086e+00 2.554937124252319336e+00
8.530000000000000000e+03 2.859781646728515625e+01 7.186448097229003906e+00 9.605937004089355469e+00 2.094779014587402344e+00 3.510214805603027344e+00 3.414590597152709961e+00
8.531000000000000000e+03 2.860465431213378906e+01 7.168183803558349609e+00 8.643607139587402344e+00 2.492451667785644531e+00 3.340817689895629883e+00 4.373970985412597656e+00
