# el_label, x, y, sXX, sYY, sZZ, sXY
1.000000000000000000e+00 5.825167465209960938e+01 3.472907257080078125e+01 -6.409326076507568359e+00 -1.883903980255126953e+00 -2.487968921661376953e+00 -2.293869495391845703e+00
2.000000000000000000e+00 5.805280303955078125e+01 3.473726272583007812e+01 -6.877784132957458496e-01 8.101214170455932617e-01 3.670290112495422363e-02 8.604872226715087891e-01
3.000000000000000000e+00 5.785393142700195312e+01 3.474544906616210938e+01 -1.797878146171569824e+00 -4.869324862957000732e-01 -6.854431629180908203e-01 9.521993249654769897e-02
4.000000000000000000e+00 5.765505599975585938e+01 3.475363540649414062e+01 -1.738739252090454102e+00 2.919630408287048340e-01 -4.340328574180603027e-01 2.970041632652282715e-01
5.000000000000000000e+00 5.825499343872070312e+01 3.467076110839843750e+01 1.009960651397705078e+01 -2.637294292449951172e+00 2.238693714141845703e+00 -1.415269374847412109e-01
6.000000000000000000e+00 5.805833053588867188e+01 3.464007568359375000e+01 3.355903625488281250e+00 6.402731407433748245e-03 1.008691906929016113e+00 7.169624567031860352e-01
7.000000000000000000e+00 5.786166763305664062e+01 3.460939025878906250e+01 3.657144308090209961e+00 4.190584719181060791e-01 1.222860813140869141e+00 1.345089316368103027e+00
8.000000000000000000e+00 5.766500854492187500e+01 3.457870101928710938e+01 2.105299711227416992e+00 -2.190734744071960449e-01 5.658678412437438965e-01 9.445554614067077637e-01
9.000000000000000000e+00 5.826959609985351562e+01 3.461420822143554688e+01 1.719789505004882812e+01 4.184128046035766602e-01 5.284892082214355469e+00 6.628752708435058594e+00
1.000000000000000000e+01 5.808267211914062500e+01 3.454582595825195312e+01 1.030841541290283203e+01 3.141884803771972656e-01 3.186781167984008789e+00 3.575580358505249023e+00
1.100000000000000000e+01 5.789574813842773438e+01 3.447743988037109375e+01 6.924743652343750000e+00 1.077195763587951660e+00 2.400581836700439453e+00 3.106368303298950195e+00
1.200000000000000000e+01 5.770882797241210938e+01 3.440904998779296875e+01 6.215121269226074219e+00 7.317047715187072754e-01 2.084047794342041016e+00 3.052419900894165039e+00
1.300000000000000000e+01 5.829493331909179688e+01 3.456158447265625000e+01 2.056216812133789062e+01 5.709451675415039062e+00 7.881485939025878906e+00 1.242476654052734375e+01
1.400000000000000000e+01 5.812490081787109375e+01 3.445811462402343750e+01 1.310339164733886719e+01 3.590031385421752930e+00 5.008027076721191406e+00 7.967253208160400391e+00
1.500000000000000000e+01 5.795486831665039062e+01 3.435464477539062500e+01 1.031565284729003906e+01 2.893691062927246094e+00 3.962803125381469727e+00 6.163204193115234375e+00
1.600000000000000000e+01 5.778483581542968750e+01 3.425117492675781250e+01 8.375810623168945312e+00 2.539679288864135742e+00 3.274646997451782227e+00 5.232601642608642578e+00
1.700000000000000000e+01 5.833003234863281250e+01 3.451490402221679688e+01 1.977052116394042969e+01 1.353236961364746094e+01 9.990867614746093750e+00 1.705285072326660156e+01
1.800000000000000000e+01 5.818339538574218750e+01 3.438030624389648438e+01 1.411827659606933594e+01 8.355772018432617188e+00 6.742214679718017578e+00 1.162562751770019531e+01
1.900000000000000000e+01 5.803675842285156250e+01 3.424571228027343750e+01 1.106532764434814453e+01 6.815045833587646484e+00 5.364111900329589844e+00 9.195263862609863281e+00
2.000000000000000000e+01 5.789012527465820312e+01 3.411112213134765625e+01 9.408668518066406250e+00 5.677121639251708984e+00 4.525737285614013672e+00 7.803045749664306641e+00
2.100000000000000000e+01 5.837354660034179688e+01 3.447594451904296875e+01 1.733626365661621094e+01 2.172814178466796875e+01 1.171932220458984375e+01 1.941081619262695312e+01
2.200000000000000000e+01 5.825591659545898438e+01 3.431537628173828125e+01 1.282043838500976562e+01 1.501028251647949219e+01 8.349216461181640625e+00 1.381212425231933594e+01
2.300000000000000000e+01 5.813829421997070312e+01 3.415481185913085938e+01 1.061316299438476562e+01 1.147368335723876953e+01 6.626053810119628906e+00 1.134758186340332031e+01
2.400000000000000000e+01 5.802066802978515625e+01 3.399424362182617188e+01 8.903697967529296875e+00 1.018742084503173828e+01 5.727335929870605469e+00 9.782657623291015625e+00
2.500000000000000000e+01 5.842380905151367188e+01 3.444620132446289062e+01 1.401417541503906250e+01 3.060039329528808594e+01 1.338437080383300781e+01 1.883824539184570312e+01
2.600000000000000000e+01 5.833969497680664062e+01 3.426580810546875000e+01 1.077432441711425781e+01 2.126663208007812500e+01 9.612286567687988281e+00 1.459389591217041016e+01
2.700000000000000000e+01 5.825558090209960938e+01 3.408541488647460938e+01 8.872935295104980469e+00 1.758033943176269531e+01 7.935982227325439453e+00 1.174209594726562500e+01
2.800000000000000000e+01 5.817146682739257812e+01 3.390502166748046875e+01 7.886217117309570312e+00 1.437477397918701172e+01 6.678297519683837891e+00 1.050204658508300781e+01
2.900000000000000000e+01 5.847890472412109375e+01 3.442681503295898438e+01 1.101496696472167969e+01 3.780550384521484375e+01 1.464614105224609375e+01 1.629043006896972656e+01
3.000000000000000000e+01 5.843152236938476562e+01 3.423349761962890625e+01 8.826106071472167969e+00 2.744925880432128906e+01 1.088260936737060547e+01 1.307932949066162109e+01
3.100000000000000000e+01 5.838413619995117188e+01 3.404018020629882812e+01 6.859468936920166016e+00 2.286544227600097656e+01 8.917473793029785156e+00 1.140888118743896484e+01
3.200000000000000000e+01 5.833675003051757812e+01 3.384685897827148438e+01 6.123671054840087891e+00 2.009700584411621094e+01 7.866203308105468750e+00 9.143114089965820312e+00
3.300000000000000000e+01 5.853672027587890625e+01 3.441852569580078125e+01 9.547369956970214844e+00 4.314796829223632812e+01 1.580860137939453125e+01 1.184194850921630859e+01
3.400000000000000000e+01 5.852787780761718750e+01 3.421968078613281250e+01 7.400123596191406250e+00 3.235718154907226562e+01 1.192719173431396484e+01 1.046462249755859375e+01
3.500000000000000000e+01 5.851903533935546875e+01 3.402083587646484375e+01 5.703490734100341797e+00 2.702158546447753906e+01 9.817523002624511719e+00 9.257086753845214844e+00
3.600000000000000000e+01 5.851019287109375000e+01 3.382199096679687500e+01 4.265410423278808594e+00 2.490899085998535156e+01 8.752320289611816406e+00 8.328794479370117188e+00
3.700000000000000000e+01 5.859504318237304688e+01 3.442164993286132812e+01 1.002790737152099609e+01 4.610629272460937500e+01 1.684025955200195312e+01 6.894681930541992188e+00
3.800000000000000000e+01 5.862508010864257812e+01 3.422488784790039062e+01 7.060863018035888672e+00 3.549850463867187500e+01 1.276780986785888672e+01 6.798478603363037109e+00
3.900000000000000000e+01 5.865512084960937500e+01 3.402812576293945312e+01 5.599611759185791016e+00 3.007723999023437500e+01 1.070305538177490234e+01 6.352445602416992188e+00
4.000000000000000000e+01 5.868515777587890625e+01 3.383136749267578125e+01 4.140525817871093750e+00 2.632381820678710938e+01 9.139303207397460938e+00 6.415494918823242188e+00
4.100000000000000000e+01 5.865164184570312500e+01 3.443606948852539062e+01 1.207863712310791016e+01 4.660791015625000000e+01 1.760596466064453125e+01 2.130910158157348633e+00
4.200000000000000000e+01 5.871941375732421875e+01 3.424892044067382812e+01 8.295278549194335938e+00 3.696664810180664062e+01 1.357857799530029297e+01 3.120331525802612305e+00
4.300000000000000000e+01 5.878718185424804688e+01 3.406177139282226562e+01 6.415732860565185547e+00 3.134963989257812500e+01 1.132961177825927734e+01 3.007236480712890625e+00
4.400000000000000000e+01 5.885495376586914062e+01 3.387462615966796875e+01 5.565241813659667969e+00 2.700040817260742188e+01 9.769695281982421875e+00 3.003828287124633789e+00
4.500000000000000000e+01 5.870434951782226562e+01 3.446123123168945312e+01 1.554468345642089844e+01 4.547917175292968750e+01 1.830715560913085938e+01 -1.394758462905883789e+00
4.600000000000000000e+01 5.880725860595703125e+01 3.429085922241210938e+01 1.067042446136474609e+01 3.658688735961914062e+01 1.417719364166259766e+01 -1.904636919498443604e-01
4.700000000000000000e+01 5.891016769409179688e+01 3.412048721313476562e+01 8.358144760131835938e+00 3.134243965148925781e+01 1.191017532348632812e+01 1.334525942802429199e-01
4.800000000000000000e+01 5.901307678222656250e+01 3.395011138916015625e+01 7.093345642089843750e+00 2.777712440490722656e+01 1.046114063262939453e+01 -3.904240727424621582e-01
4.900000000000000000e+01 5.875114822387695312e+01 3.449617385864257812e+01 1.955899238586425781e+01 4.303831100463867188e+01 1.877919197082519531e+01 -3.478479623794555664e+00
5.000000000000000000e+01 5.888525772094726562e+01 3.434909820556640625e+01 1.389797782897949219e+01 3.518550872802734375e+01 1.472504520416259766e+01 -2.365118980407714844e+00
5.100000000000000000e+01 5.901936721801757812e+01 3.420201873779296875e+01 1.106973838806152344e+01 3.013265419006347656e+01 1.236071777343750000e+01 -1.998029589653015137e+00
5.200000000000000000e+01 5.915347671508789062e+01 3.405493927001953125e+01 8.864748954772949219e+00 2.763278007507324219e+01 1.094925880432128906e+01 -1.823849558830261230e+00
5.300000000000000000e+01 5.879025268554687500e+01 3.453956222534179688e+01 2.371092987060546875e+01 4.053886795043945312e+01 1.927493858337402344e+01 -3.866908073425292969e+00
5.400000000000000000e+01 5.895042800903320312e+01 3.442140579223632812e+01 1.720945549011230469e+01 3.279870605468750000e+01 1.500244808197021484e+01 -3.261831521987915039e+00
5.500000000000000000e+01 5.911060333251953125e+01 3.430324935913085938e+01 1.404596805572509766e+01 2.869705390930175781e+01 1.282290649414062500e+01 -2.763526201248168945e+00
5.600000000000000000e+01 5.927078247070312500e+01 3.418509674072265625e+01 1.168230056762695312e+01 2.559152030944824219e+01 1.118214607238769531e+01 -2.165881395339965820e+00
5.700000000000000000e+01 5.882015991210937500e+01 3.458972930908203125e+01 2.679327201843261719e+01 3.776085662841796875e+01 1.936623954772949219e+01 -3.036017179489135742e+00
5.800000000000000000e+01 5.900027465820312500e+01 3.450502014160156250e+01 2.047745323181152344e+01 3.093745422363281250e+01 1.542447185516357422e+01 -2.608977317810058594e+00
5.900000000000000000e+01 5.918038940429687500e+01 3.442031097412109375e+01 1.649606895446777344e+01 2.653244209289550781e+01 1.290855312347412109e+01 -2.306717634201049805e+00
6.000000000000000000e+01 5.936050415039062500e+01 3.433560180664062500e+01 1.453170108795166016e+01 2.398324394226074219e+01 1.155448341369628906e+01 -1.945225715637207031e+00
6.100000000000000000e+01 5.883972549438476562e+01 3.464476013183593750e+01 2.919580459594726562e+01 3.646247482299804688e+01 1.969748306274414062e+01 -9.700875282287597656e-01
6.200000000000000000e+01 5.903288650512695312e+01 3.459673690795898438e+01 2.241080474853515625e+01 2.886066246032714844e+01 1.538144016265869141e+01 -1.013969302177429199e+00
6.300000000000000000e+01 5.922604751586914062e+01 3.454871368408203125e+01 1.864510917663574219e+01 2.544161415100097656e+01 1.322601699829101562e+01 -6.814410090446472168e-01
6.400000000000000000e+01 5.941920852661132812e+01 3.450069046020507812e+01 1.572700309753417969e+01 2.245191001892089844e+01 1.145367336273193359e+01 -8.146595358848571777e-01
6.500000000000000000e+01 5.884820556640625000e+01 3.470254516601562500e+01 2.987041664123535156e+01 3.527865600585937500e+01 1.954472160339355469e+01 1.606576442718505859e+00
6.600000000000000000e+01 5.904701995849609375e+01 3.469304656982421875e+01 2.328760337829589844e+01 2.858674049377441406e+01 1.556230258941650391e+01 1.393771529197692871e+00
6.700000000000000000e+01 5.924583435058593750e+01 3.468354797363281250e+01 1.929093360900878906e+01 2.435676765441894531e+01 1.309431076049804688e+01 1.280913352966308594e+00
6.800000000000000000e+01 5.944464874267578125e+01 3.467404937744140625e+01 1.658219337463378906e+01 2.232616615295410156e+01 1.167250823974609375e+01 1.376843452453613281e+00
6.900000000000000000e+01 5.884527206420898438e+01 3.476087570190429688e+01 2.930858993530273438e+01 3.593244934082031250e+01 1.957231140136718750e+01 4.279703617095947266e+00
7.000000000000000000e+01 5.904213333129882812e+01 3.479026794433593750e+01 2.244284820556640625e+01 2.871815109252929688e+01 1.534829998016357422e+01 3.912136554718017578e+00
7.100000000000000000e+01 5.923899078369140625e+01 3.481965637207031250e+01 1.858031082153320312e+01 2.506847953796386719e+01 1.309463691711425781e+01 3.329369068145751953e+00
7.200000000000000000e+01 5.943584823608398438e+01 3.484904861450195312e+01 1.639744758605957031e+01 2.215340042114257812e+01 1.156525421142578125e+01 3.127904176712036133e+00
7.300000000000000000e+01 5.883103942871093750e+01 3.481752395629882812e+01 2.699305915832519531e+01 3.721273040771484375e+01 1.926173591613769531e+01 6.713421344757080078e+00
7.400000000000000000e+01 5.901840972900390625e+01 3.488467788696289062e+01 2.032457542419433594e+01 3.037072753906250000e+01 1.520859050750732422e+01 5.785397529602050781e+00
7.500000000000000000e+01 5.920578384399414062e+01 3.495182800292968750e+01 1.653236579895019531e+01 2.624296379089355469e+01 1.283259868621826172e+01 5.078133583068847656e+00
7.600000000000000000e+01 5.939315032958984375e+01 3.501898193359375000e+01 1.420257568359375000e+01 2.362310218811035156e+01 1.134770298004150391e+01 4.108244419097900391e+00
7.700000000000000000e+01 5.880604934692382812e+01 3.487031173706054688e+01 2.358613395690917969e+01 3.977933120727539062e+01 1.900963973999023438e+01 8.142341613769531250e+00
7.800000000000000000e+01 5.897676467895507812e+01 3.497266006469726562e+01 1.682165908813476562e+01 3.243395233154296875e+01 1.477668285369873047e+01 6.754642009735107422e+00
7.900000000000000000e+01 5.914747619628906250e+01 3.507500457763671875e+01 1.368503952026367188e+01 2.823960876464843750e+01 1.257739448547363281e+01 5.674386024475097656e+00
8.000000000000000000e+01 5.931818771362304688e+01 3.517735290527343750e+01 1.105838394165039062e+01 2.555311775207519531e+01 1.098344993591308594e+01 5.071417331695556641e+00
8.100000000000000000e+01 5.877126312255859375e+01 3.491722869873046875e+01 1.889458274841308594e+01 4.241510772705078125e+01 1.839290809631347656e+01 8.310241699218750000e+00
8.200000000000000000e+01 5.891878128051757812e+01 3.505084991455078125e+01 1.307354831695556641e+01 3.506036376953125000e+01 1.444017410278320312e+01 6.264083862304687500e+00
8.300000000000000000e+01 5.906630325317382812e+01 3.518447494506835938e+01 9.938239097595214844e+00 3.010726737976074219e+01 1.201365184783935547e+01 5.191875934600830078e+00
8.400000000000000000e+01 5.921382141113281250e+01 3.531809997558593750e+01 8.421403884887695312e+00 2.715538406372070312e+01 1.067303657531738281e+01 4.713544368743896484e+00
8.500000000000000000e+01 5.872800827026367188e+01 3.495647430419921875e+01 1.424144840240478516e+01 4.553530120849609375e+01 1.793302536010742188e+01 6.576367378234863281e+00
8.600000000000000000e+01 5.884669113159179688e+01 3.511626052856445312e+01 8.977912902832031250e+00 3.660607528686523438e+01 1.367519569396972656e+01 4.476768493652343750e+00
8.700000000000000000e+01 5.896537017822265625e+01 3.527604675292968750e+01 6.838348865509033203e+00 3.199185562133789062e+01 1.164906120300292969e+01 3.499174356460571289e+00
8.800000000000000000e+01 5.908405303955078125e+01 3.543583297729492188e+01 5.108875751495361328e+00 2.809281158447265625e+01 9.960506439208984375e+00 2.835916042327880859e+00
8.900000000000000000e+01 5.867793655395507812e+01 3.498654556274414062e+01 9.567573547363281250e+00 4.712337493896484375e+01 1.700728416442871094e+01 3.324523448944091797e+00
9.000000000000000000e+01 5.876324081420898438e+01 3.516638183593750000e+01 5.986863136291503906e+00 3.763856124877929688e+01 1.308762741088867188e+01 1.251783728599548340e+00
9.100000000000000000e+01 5.884854507446289062e+01 3.534621429443359375e+01 4.078410625457763672e+00 3.197171592712402344e+01 1.081503772735595703e+01 8.574421405792236328e-01
9.200000000000000000e+01 5.893384933471679688e+01 3.552605056762695312e+01 2.948194026947021484e+00 2.924245643615722656e+01 9.657195091247558594e+00 6.686787009239196777e-01
9.300000000000000000e+01 5.862297439575195312e+01 3.500629425048828125e+01 6.401506423950195312e+00 4.740710449218750000e+01 1.614258384704589844e+01 -1.581991910934448242e+00
9.400000000000000000e+01 5.867163467407226562e+01 3.519929504394531250e+01 3.971742391586303711e+00 3.646073913574218750e+01 1.212974452972412109e+01 -2.487767219543457031e+00
9.500000000000000000e+01 5.872029495239257812e+01 3.539229583740234375e+01 2.492445230484008789e+00 3.116709136962890625e+01 1.009786128997802734e+01 -2.552780389785766602e+00
9.600000000000000000e+01 5.876895141601562500e+01 3.558529663085937500e+01 2.256684780120849609e+00 2.731858444213867188e+01 8.872580528259277344e+00 -1.934779286384582520e+00
9.700000000000000000e+01 5.856521606445312500e+01 3.501496505737304688e+01 5.059337139129638672e+00 4.506531143188476562e+01 1.503739452362060547e+01 -6.876996517181396484e+00
9.800000000000000000e+01 5.857537078857421875e+01 3.521374511718750000e+01 3.288596391677856445e+00 3.368588256835937500e+01 1.109234428405761719e+01 -6.645832061767578125e+00
9.900000000000000000e+01 5.858552169799804688e+01 3.541252899169921875e+01 2.436228275299072266e+00 2.812421226501464844e+01 9.168131828308105469e+00 -5.525982856750488281e+00
1.000000000000000000e+02 5.859567642211914062e+01 3.561130905151367188e+01 1.796198725700378418e+00 2.458476257324218750e+01 7.914288520812988281e+00 -5.415832519531250000e+00
1.010000000000000000e+02 5.850687408447265625e+01 3.501222610473632812e+01 5.430918216705322266e+00 4.004180908203125000e+01 1.364181900024414062e+01 -1.213719654083251953e+01
1.020000000000000000e+02 5.847813415527343750e+01 3.520917892456054688e+01 4.260163307189941406e+00 2.904166030883789062e+01 9.990547180175781250e+00 -9.718009948730468750e+00
1.030000000000000000e+02 5.844939422607421875e+01 3.540613555908203125e+01 3.110060930252075195e+00 2.357257843017578125e+01 8.004792213439941406e+00 -8.507829666137695312e+00
1.040000000000000000e+02 5.842065429687500000e+01 3.560308837890625000e+01 2.455470085144042969e+00 2.065421295166015625e+01 6.932905197143554688e+00 -7.189748287200927734e+00
1.050000000000000000e+02 5.845018386840820312e+01 3.499817657470703125e+01 7.870753288269042969e+00 3.296225738525390625e+01 1.224990272521972656e+01 -1.553732490539550781e+01
1.060000000000000000e+02 5.838364791870117188e+01 3.518576812744140625e+01 5.771363735198974609e+00 2.259792137145996094e+01 8.510786056518554688e+00 -1.192185783386230469e+01
1.070000000000000000e+02 5.831711196899414062e+01 3.537335968017578125e+01 4.691394329071044922e+00 1.842702674865722656e+01 6.935526371002197266e+00 -9.656600952148437500e+00
1.080000000000000000e+02 5.825057983398437500e+01 3.556095123291015625e+01 3.653858661651611328e+00 1.524582195281982422e+01 5.669904232025146484e+00 -8.621711730957031250e+00
1.090000000000000000e+02 5.839730834960937500e+01 3.497336578369140625e+01 1.065263652801513672e+01 2.372229385375976562e+01 1.031247901916503906e+01 -1.694482803344726562e+01
1.100000000000000000e+02 5.829552841186523438e+01 3.514441299438476562e+01 7.802889347076416016e+00 1.600333213806152344e+01 7.141866683959960938e+00 -1.189318466186523438e+01
1.110000000000000000e+02 5.819374465942382812e+01 3.531546401977539062e+01 6.039161682128906250e+00 1.223300266265869141e+01 5.481649398803710938e+00 -9.639286994934082031e+00
1.120000000000000000e+02 5.809196090698242188e+01 3.548651123046875000e+01 4.805288314819335938e+00 1.086160373687744141e+01 4.700067996978759766e+00 -8.246359825134277344e+00
1.130000000000000000e+02 5.835028076171875000e+01 3.493873214721679688e+01 1.349448680877685547e+01 1.464264297485351562e+01 8.441139221191406250e+00 -1.524876594543457031e+01
1.140000000000000000e+02 5.821714401245117188e+01 3.508669281005859375e+01 8.583049774169921875e+00 8.800357818603515625e+00 5.215022563934326172e+00 -1.006618499755859375e+01
1.150000000000000000e+02 5.808400726318359375e+01 3.523465347290039062e+01 6.745659828186035156e+00 7.507012367248535156e+00 4.275801658630371094e+00 -7.807923316955566406e+00
1.160000000000000000e+02 5.795087432861328125e+01 3.538261032104492188e+01 5.191029548645019531e+00 6.261589527130126953e+00 3.435785770416259766e+00 -6.735306262969970703e+00
1.170000000000000000e+02 5.831089401245117188e+01 3.489560317993164062e+01 1.336648654937744141e+01 5.479234218597412109e+00 5.653716087341308594e+00 -1.102809906005859375e+01
1.180000000000000000e+02 5.815149688720703125e+01 3.501481628417968750e+01 8.243696212768554688e+00 3.761693954467773438e+00 3.601617097854614258e+00 -6.352394104003906250e+00
1.190000000000000000e+02 5.799210357666015625e+01 3.513402557373046875e+01 5.271397590637207031e+00 3.190976142883300781e+00 2.538712263107299805e+00 -4.914056777954101562e+00
1.200000000000000000e+02 5.783271026611328125e+01 3.525323104858398438e+01 4.336986064910888672e+00 3.811182498931884766e+00 2.444450616836547852e+00 -4.342346191406250000e+00
1.210000000000000000e+02 5.828065490722656250e+01 3.484563827514648438e+01 1.068679809570312500e+01 -1.028719663619995117e+00 2.897423505783081055e+00 -4.103361606597900391e+00
1.220000000000000000e+02 5.810110473632812500e+01 3.493153381347656250e+01 3.487578868865966797e+00 4.504636526107788086e-01 1.181412816047668457e+00 -2.038151502609252930e+00
1.230000000000000000e+02 5.792155075073242188e+01 3.501742935180664062e+01 3.051119804382324219e+00 2.071576595306396484e+00 1.536808967590332031e+00 -2.513928413391113281e+00
1.240000000000000000e+02 5.774199676513671875e+01 3.510332489013671875e+01 1.986329197883605957e+00 3.555575907230377197e-01 7.025660276412963867e-01 -1.695956230163574219e+00
1.250000000000000000e+02 5.826072311401367188e+01 3.479073715209960938e+01 -3.102378606796264648e+00 -4.079838752746582031e+00 -2.154665231704711914e+00 2.690848350524902344e+00
1.260000000000000000e+02 5.806788635253906250e+01 3.484003448486328125e+01 -9.341727197170257568e-02 1.809429407119750977e+00 5.148036479949951172e-01 -6.159235239028930664e-01
1.270000000000000000e+02 5.787504577636718750e+01 3.488932800292968750e+01 -1.326080203056335449e+00 -9.090849757194519043e-01 -6.705495119094848633e-01 3.875845670700073242e-02
1.280000000000000000e+02 5.768220520019531250e+01 3.493862533569335938e+01 -1.658816099166870117e+00 6.548308134078979492e-01 -3.011955916881561279e-01 1.717815250158309937e-01
1.290000000000000000e+02 5.512427139282226562e+01 3.407757186889648438e+01 6.170873045921325684e-01 2.481880933046340942e-01 2.595826387405395508e-01 -5.577139183878898621e-02
1.300000000000000000e+02 5.481814956665039062e+01 3.451995849609375000e+01 -3.213914334774017334e-01 3.077200651168823242e-01 -4.101417027413845062e-03 -2.638415694236755371e-01
1.310000000000000000e+02 5.337675857543945312e+01 3.478978729248046875e+01 -3.775316774845123291e-01 -4.033844470977783203e-01 -2.342748343944549561e-01 -4.535736739635467529e-01
1.320000000000000000e+02 5.446947860717773438e+01 3.480155944824218750e+01 -6.860597729682922363e-01 2.226714193820953369e-01 -1.390165090560913086e-01 -3.242795169353485107e-01
1.330000000000000000e+02 5.461284637451171875e+01 3.518520355224609375e+01 -8.991893529891967773e-01 4.549422115087509155e-02 -2.561085224151611328e-01 2.097709476947784424e-02
1.340000000000000000e+02 5.544050979614257812e+01 3.500044250488281250e+01 -1.799460172653198242e+00 -1.402188390493392944e-01 -5.819036960601806641e-01 2.064876109361648560e-01
1.350000000000000000e+02 5.541947174072265625e+01 3.482927322387695312e+01 -1.357659816741943359e+00 1.119524613022804260e-01 -3.737122118473052979e-01 -9.345472604036331177e-02
1.360000000000000000e+02 5.385259246826171875e+01 3.543170547485351562e+01 -2.101671397686004639e-01 -9.499251842498779297e-03 -6.589991599321365356e-02 -4.450738057494163513e-02
1.370000000000000000e+02 5.374354553222656250e+01 3.463299942016601562e+01 -3.430072069168090820e-01 4.576285555958747864e-02 -8.917330950498580933e-02 -3.902539014816284180e-01
1.380000000000000000e+02 5.316307830810546875e+01 3.449039077758789062e+01 -3.789067566394805908e-01 -6.128483414649963379e-01 -2.975265383720397949e-01 -5.227254629135131836e-01
1.390000000000000000e+02 5.503569793701171875e+01 3.472283172607421875e+01 -7.150251269340515137e-01 1.182861179113388062e-01 -1.790217161178588867e-01 -1.005526557564735413e-01
1.400000000000000000e+02 5.536919021606445312e+01 3.466235733032226562e+01 -7.329340577125549316e-01 3.908031806349754333e-02 -2.081561237573623657e-01 -5.717729032039642334e-02
1.410000000000000000e+02 5.518635940551757812e+01 3.429737854003906250e+01 2.738420963287353516e-01 2.122321128845214844e-01 1.458222568035125732e-01 -1.155735924839973450e-01
1.420000000000000000e+02 5.501195907592773438e+01 3.387571334838867188e+01 8.465417623519897461e-01 3.915694355964660645e-01 3.714333474636077881e-01 1.105362325906753540e-01
1.430000000000000000e+02 5.359716796875000000e+01 3.509931564331054688e+01 -3.172577321529388428e-01 -1.088600456714630127e-01 -1.278353333473205566e-01 -2.840285301208496094e-01
1.440000000000000000e+02 5.363389587402343750e+01 3.433803558349609375e+01 -2.731685340404510498e-01 -7.430573552846908569e-02 -1.042422801256179810e-01 -3.708897531032562256e-01
1.450000000000000000e+02 5.423028564453125000e+01 3.420930480957031250e+01 -2.817006595432758331e-02 2.959266304969787598e-01 8.032697439193725586e-02 -2.920753359794616699e-01
1.460000000000000000e+02 5.420636367797851562e+01 3.514558792114257812e+01 -6.186814904212951660e-01 4.203277081251144409e-02 -1.729946136474609375e-01 -1.361745893955230713e-01
1.470000000000000000e+02 5.391957473754882812e+01 3.489270019531250000e+01 -5.287698507308959961e-01 1.092337071895599365e-01 -1.258608549833297729e-01 -3.657594025135040283e-01
1.480000000000000000e+02 5.413901138305664062e+01 3.460410690307617188e+01 -3.794322609901428223e-01 1.636421531438827515e-01 -6.473702937364578247e-02 -4.025618433952331543e-01
1.490000000000000000e+02 5.472978210449218750e+01 3.416357421875000000e+01 2.106802612543106079e-01 3.970380723476409912e-01 1.823154985904693604e-01 -1.789462119340896606e-01
1.500000000000000000e+02 5.527832412719726562e+01 3.449470138549804688e+01 -2.173740863800048828e-01 1.582856774330139160e-01 -1.772652380168437958e-02 -1.726216375827789307e-01
1.510000000000000000e+02 5.523984146118164062e+01 3.480257034301757812e+01 -1.197043180465698242e+00 1.238527521491050720e-01 -3.219571113586425781e-01 -1.980205066502094269e-03
1.520000000000000000e+02 5.521170043945312500e+01 3.497543716430664062e+01 -1.310162425041198730e+00 3.374759554862976074e-01 -2.918059527873992920e-01 4.967616498470306396e-02
1.530000000000000000e+02 5.497900009155273438e+01 3.503221893310546875e+01 -1.304308056831359863e+00 -4.013136029243469238e-02 -4.033318161964416504e-01 9.113956987857818604e-02
1.540000000000000000e+02 5.523999786376953125e+01 3.514148712158203125e+01 -1.658738970756530762e+00 4.027166217565536499e-02 -4.855402112007141113e-01 3.271099925041198730e-01
1.550000000000000000e+02 5.613559722900390625e+01 3.597171020507812500e+01 3.406497538089752197e-01 5.376681685447692871e-01 2.634953856468200684e-01 -1.658547818660736084e-01
1.560000000000000000e+02 5.904800796508789062e+01 3.570299148559570312e+01 2.440238475799560547e+00 2.641906738281250000e+01 8.657792091369628906e+00 8.801400661468505859e-01
1.570000000000000000e+02 5.959325408935546875e+01 3.555479049682617188e+01 7.011237144470214844e+00 2.161189651489257812e+01 8.586939811706542969e+00 4.482583522796630859e+00
1.580000000000000000e+02 5.988675308227539062e+01 3.488578033447265625e+01 1.250467395782470703e+01 1.932310676574707031e+01 9.548334121704101562e+00 2.593940258026123047e+00
1.590000000000000000e+02 5.958820343017578125e+01 3.452000427246093750e+01 1.377195739746093750e+01 2.182833862304687500e+01 1.068008899688720703e+01 -6.781353354454040527e-01
1.600000000000000000e+02 5.941172409057617188e+01 3.405809020996093750e+01 9.343178749084472656e+00 2.365482521057128906e+01 9.899400711059570312e+00 -1.323586344718933105e+00
1.610000000000000000e+02 5.905539703369140625e+01 3.377403259277343750e+01 5.817711353302001953e+00 2.582435989379882812e+01 9.492621421813964844e+00 6.559811532497406006e-02
1.620000000000000000e+02 5.888129425048828125e+01 3.373583221435546875e+01 4.720810890197753906e+00 2.318202018737792969e+01 8.370849609375000000e+00 3.032836914062500000e+00
1.630000000000000000e+02 5.821409988403320312e+01 3.364098739624023438e+01 5.627579689025878906e+00 1.571814346313476562e+01 6.403717041015625000e+00 8.835027694702148438e+00
1.640000000000000000e+02 5.744092559814453125e+01 3.474477767944335938e+01 -1.833995938301086426e+00 -3.285757303237915039e-01 -6.487714648246765137e-01 2.493987232446670532e-01
1.650000000000000000e+02 5.971397399902343750e+01 3.488174438476562500e+01 1.463036155700683594e+01 1.985886001586914062e+01 1.034676647186279297e+01 3.149844884872436523e+00
1.660000000000000000e+02 5.570509719848632812e+01 3.525734710693359375e+01 -2.335726737976074219e+00 -2.581027448177337646e-01 -7.781488299369812012e-01 2.888808846473693848e-01
1.670000000000000000e+02 5.589655685424804688e+01 3.522114944458007812e+01 -2.346302747726440430e+00 -2.293725870549678802e-02 -7.107719779014587402e-01 4.979438185691833496e-01
1.680000000000000000e+02 5.708119964599609375e+01 3.508021545410156250e+01 -2.308812618255615234e+00 -1.841384023427963257e-01 -7.478852868080139160e-01 2.527397274971008301e-01
1.690000000000000000e+02 5.593181991577148438e+01 3.541121292114257812e+01 -1.661253333091735840e+00 -3.354806685820221901e-03 -4.993824362754821777e-01 3.470500707626342773e-01
1.700000000000000000e+02 5.711613464355468750e+01 3.534317398071289062e+01 3.091303706169128418e-01 8.187156915664672852e-01 3.383538126945495605e-01 -8.203607201576232910e-01
1.710000000000000000e+02 5.748665237426757812e+01 3.498916244506835938e+01 -1.903794765472412109e+00 -4.324785768985748291e-01 -7.008820176124572754e-01 1.762890666723251343e-01
1.720000000000000000e+02 5.958892059326171875e+01 3.487014770507812500e+01 1.504027080535888672e+01 2.126023674011230469e+01 1.089015197753906250e+01 2.994991302490234375e+00
1.730000000000000000e+02 5.953650665283203125e+01 3.506580352783203125e+01 1.325837898254394531e+01 2.139280509948730469e+01 1.039535522460937500e+01 3.956503868103027344e+00
1.740000000000000000e+02 5.848390960693359375e+01 3.609970855712890625e+01 5.917832851409912109e-01 1.835953521728515625e+01 5.685395717620849609e+00 -5.395246982574462891e+00
1.750000000000000000e+02 5.755100250244140625e+01 3.519449996948242188e+01 1.315053582191467285e+00 1.229817390441894531e+00 7.634612917900085449e-01 -1.490300297737121582e+00
1.760000000000000000e+02 5.709925460815429688e+01 3.453052902221679688e+01 8.521510958671569824e-01 6.120409816503524780e-02 2.740065753459930420e-01 4.700195193290710449e-01
1.770000000000000000e+02 5.762306594848632812e+01 3.413341522216796875e+01 7.427555561065673828e+00 2.557464122772216797e+00 2.995506048202514648e+00 4.931415557861328125e+00
1.780000000000000000e+02 5.951008224487304688e+01 3.420782470703125000e+01 1.322879505157470703e+01 2.147815895080566406e+01 1.041208553314208984e+01 -2.041042089462280273e+00
1.790000000000000000e+02 5.627984237670898438e+01 3.429456329345703125e+01 1.092972040176391602e+00 1.682730317115783691e-01 3.783735036849975586e-01 4.303927123546600342e-01
1.800000000000000000e+02 5.579940795898437500e+01 3.475597381591796875e+01 -1.289822816848754883e+00 -4.051550850272178650e-02 -3.991014957427978516e-01 1.374412477016448975e-01
1.810000000000000000e+02 5.545704269409179688e+01 3.418614959716796875e+01 6.631934046745300293e-01 2.593891024589538574e-01 2.767747640609741211e-01 -2.409936487674713135e-02
1.820000000000000000e+02 5.573734664916992188e+01 3.454610824584960938e+01 -4.173949956893920898e-01 3.894018754363059998e-02 -1.135364398360252380e-01 8.608245290815830231e-03
1.830000000000000000e+02 5.565363311767578125e+01 3.501264572143554688e+01 -2.280917406082153320e+00 -1.664324104785919189e-01 -7.342049479484558105e-01 3.426468670368194580e-01
1.840000000000000000e+02 5.537318801879882812e+01 3.377394485473632812e+01 1.486058115959167480e+00 6.460248231887817383e-01 6.396248936653137207e-01 5.438600182533264160e-01
1.850000000000000000e+02 5.556399154663085938e+01 3.374863052368164062e+01 1.701707959175109863e+00 5.350932478904724121e-01 6.710403561592102051e-01 6.280952095985412598e-01
1.860000000000000000e+02 5.653779602050781250e+01 3.364138412475585938e+01 3.818695545196533203e+00 1.381180167198181152e+00 1.559962749481201172e+00 2.357429981231689453e+00
1.870000000000000000e+02 5.585158920288085938e+01 3.497791671752929688e+01 -2.281367301940917969e+00 -2.577071636915206909e-02 -6.921414136886596680e-01 2.703764736652374268e-01
1.880000000000000000e+02 5.789963912963867188e+01 3.344760894775390625e+01 5.673406600952148438e+00 1.064055252075195312e+01 4.894187450408935547e+00 7.987309455871582031e+00
1.890000000000000000e+02 5.769995117187500000e+01 3.370062637329101562e+01 7.034255027770996094e+00 7.079514980316162109e+00 4.234130859375000000e+00 7.392814159393310547e+00
1.900000000000000000e+02 5.699185562133789062e+01 3.382868576049804688e+01 4.664611816406250000e+00 1.594859838485717773e+00 1.877841472625732422e+00 2.948223590850830078e+00
1.910000000000000000e+02 5.673088455200195312e+01 3.360963439941406250e+01 4.338254451751708984e+00 1.806592345237731934e+00 1.843454003334045410e+00 2.854029178619384766e+00
1.920000000000000000e+02 5.599256896972656250e+01 3.649285507202148438e+01 8.453291654586791992e-01 2.026954412460327148e+00 8.616850376129150391e-01 -9.230929613113403320e-01
1.930000000000000000e+02 5.642229080200195312e+01 3.612260437011718750e+01 1.162296772003173828e+00 1.067460775375366211e+00 6.689272522926330566e-01 -9.280884861946105957e-01
1.940000000000000000e+02 5.692647171020507812e+01 3.566007995605468750e+01 1.062604188919067383e+00 1.309236884117126465e+00 7.115523219108581543e-01 -1.297604441642761230e+00
1.950000000000000000e+02 5.706286239624023438e+01 3.634454727172851562e+01 2.104558944702148438e+00 3.705936670303344727e+00 1.743148684501647949e+00 -2.964404344558715820e+00
1.960000000000000000e+02 5.715772247314453125e+01 3.613009643554687500e+01 2.372706413269042969e+00 3.498710155487060547e+00 1.761425018310546875e+00 -3.358026266098022461e+00
1.970000000000000000e+02 5.770631790161132812e+01 3.596987915039062500e+01 3.026684761047363281e+00 7.739686012268066406e+00 3.229911088943481445e+00 -5.669863700866699219e+00
1.980000000000000000e+02 5.824868774414062500e+01 3.613566589355468750e+01 1.362923979759216309e+00 1.417611598968505859e+01 4.661712169647216797e+00 -5.917624473571777344e+00
1.990000000000000000e+02 5.807944869995117188e+01 3.340339279174804688e+01 4.789869308471679688e+00 1.313182258605957031e+01 5.376507282257080078e+00 8.449223518371582031e+00
2.000000000000000000e+02 5.752455139160156250e+01 3.430929565429687500e+01 5.656661033630371094e+00 8.290796279907226562e-01 1.945722222328186035e+00 2.716297149658203125e+00
2.010000000000000000e+02 5.680736541748046875e+01 3.388684463500976562e+01 3.988898992538452148e+00 1.184567928314208984e+00 1.552040100097656250e+00 2.357407093048095703e+00
2.020000000000000000e+02 5.541513442993164062e+01 3.398096466064453125e+01 9.640332460403442383e-01 4.455972909927368164e-01 4.228891730308532715e-01 2.177005261182785034e-01
2.030000000000000000e+02 5.774541854858398438e+01 3.397820281982421875e+01 8.092907905578613281e+00 4.972879409790039062e+00 3.919736146926879883e+00 6.986148357391357422e+00
2.040000000000000000e+02 5.748830032348632812e+01 3.348007583618164062e+01 5.958244800567626953e+00 5.818664550781250000e+00 3.533072710037231445e+00 6.236478328704833984e+00
2.050000000000000000e+02 5.694174194335937500e+01 3.434230041503906250e+01 2.262660741806030273e+00 2.010129541158676147e-01 7.391021251678466797e-01 9.586911797523498535e-01
2.060000000000000000e+02 5.599271011352539062e+01 3.398046875000000000e+01 1.798359751701354980e+00 4.405547082424163818e-01 6.716743707656860352e-01 6.973997354507446289e-01
2.070000000000000000e+02 5.818946838378906250e+01 3.573751068115234375e+01 2.837548971176147461e+00 1.454692554473876953e+01 5.215342521667480469e+00 -7.667641162872314453e+00
2.080000000000000000e+02 5.912186431884765625e+01 3.591852569580078125e+01 1.494909167289733887e+00 2.375547218322753906e+01 7.575114727020263672e+00 -1.296035647392272949e-01
2.090000000000000000e+02 5.934096908569335938e+01 3.540797042846679688e+01 7.406908035278320312e+00 2.587330245971679688e+01 9.984063148498535156e+00 5.055593490600585938e+00
2.100000000000000000e+02 5.878152847290039062e+01 3.580319976806640625e+01 1.282213687896728516e+00 2.380666542053222656e+01 7.526663780212402344e+00 -2.608868360519409180e+00
2.110000000000000000e+02 5.959372711181640625e+01 3.467639160156250000e+01 1.539105319976806641e+01 2.087002944946289062e+01 1.087832450866699219e+01 1.617138981819152832e+00
2.120000000000000000e+02 5.871770477294921875e+01 3.607024383544921875e+01 7.379686832427978516e-01 2.074960899353027344e+01 6.446273326873779297e+00 -3.475886583328247070e+00
2.130000000000000000e+02 5.923768997192382812e+01 3.555501174926757812e+01 5.504837512969970703e+00 2.568820381164550781e+01 9.357912063598632812e+00 2.644989490509033203e+00
2.140000000000000000e+02 5.945290756225585938e+01 3.524481582641601562e+01 9.592120170593261719e+00 2.408387756347656250e+01 1.010279941558837891e+01 3.966054677963256836e+00
2.150000000000000000e+02 5.836138916015625000e+01 3.579589462280273438e+01 2.091500759124755859e+00 1.767067337036132812e+01 5.928651809692382812e+00 -7.169420719146728516e+00
2.160000000000000000e+02 5.881338500976562500e+01 3.365575027465820312e+01 3.957607984542846680e+00 2.244119071960449219e+01 7.919639587402343750e+00 4.399586200714111328e+00
2.170000000000000000e+02 5.745211791992187500e+01 3.451243591308593750e+01 2.339874505996704102e+00 1.978434473276138306e-01 7.613154053688049316e-01 1.164696931838989258e+00
2.180000000000000000e+02 5.803861236572265625e+01 3.370340347290039062e+01 6.642781734466552734e+00 1.233297443389892578e+01 5.692727088928222656e+00 9.315343856811523438e+00
2.190000000000000000e+02 5.787721252441406250e+01 3.382278442382812500e+01 7.706897258758544922e+00 8.613343238830566406e+00 4.896071910858154297e+00 8.588639259338378906e+00
2.200000000000000000e+02 5.746589660644531250e+01 3.397778320312500000e+01 6.682352066040039062e+00 2.767622232437133789e+00 2.834992170333862305e+00 4.706165790557861328e+00
2.210000000000000000e+02 5.983109283447265625e+01 3.453713989257812500e+01 1.129252719879150391e+01 1.959394073486328125e+01 9.265939712524414062e+00 3.755407035350799561e-01
2.220000000000000000e+02 5.926024627685546875e+01 3.388370132446289062e+01 7.327227592468261719e+00 2.589857864379882812e+01 9.967741966247558594e+00 -1.650005102157592773e+00
2.230000000000000000e+02 5.979761886596679688e+01 3.421018600463867188e+01 1.131828784942626953e+01 1.975583076477050781e+01 9.322235107421875000e+00 -2.063138008117675781e+00
2.240000000000000000e+02 5.935742950439453125e+01 3.367018890380859375e+01 5.516510009765625000e+00 2.328964996337890625e+01 8.641847610473632812e+00 -9.567509293556213379e-01
2.250000000000000000e+02 5.957615280151367188e+01 3.397948837280273438e+01 9.117297172546386719e+00 2.080586051940917969e+01 8.976947784423828125e+00 -1.397665381431579590e+00
2.260000000000000000e+02 5.969503402709960938e+01 3.465310668945312500e+01 1.359260082244873047e+01 2.079327201843261719e+01 1.031576251983642578e+01 1.804455876350402832e+00
2.270000000000000000e+02 5.666708755493164062e+01 3.514945220947265625e+01 -2.495851039886474609e+00 -1.926604360342025757e-01 -8.065534234046936035e-01 3.818556666374206543e-01
2.280000000000000000e+02 5.627714157104492188e+01 3.516958999633789062e+01 -2.555193185806274414e+00 -1.087634488940238953e-01 -7.991870045661926270e-01 4.408458173274993896e-01
2.290000000000000000e+02 5.733986282348632812e+01 3.528047943115234375e+01 8.210259079933166504e-01 2.680689990520477295e-01 3.267284631729125977e-01 -1.151813149452209473e+00
2.300000000000000000e+02 5.685420608520507812e+01 3.483059310913085938e+01 -2.289067983627319336e+00 -3.771666437387466431e-02 -6.980354189872741699e-01 2.963996827602386475e-01
2.310000000000000000e+02 5.665037536621093750e+01 3.483116912841796875e+01 -2.296112537384033203e+00 -5.857219919562339783e-02 -7.064054608345031738e-01 3.075628876686096191e-01
2.320000000000000000e+02 5.604901123046875000e+01 3.494144058227539062e+01 -2.311143875122070312e+00 -2.382720448076725006e-02 -7.004913091659545898e-01 2.900125980377197266e-01
2.330000000000000000e+02 5.692555236816406250e+01 3.464827346801757812e+01 -9.459526538848876953e-01 2.327684126794338226e-02 -2.768027484416961670e-01 4.610803425312042236e-01
2.340000000000000000e+02 5.644374465942382812e+01 3.486745834350585938e+01 -2.311839580535888672e+00 -2.291687577962875366e-02 -7.004269361495971680e-01 3.133452236652374268e-01
2.350000000000000000e+02 5.685870742797851562e+01 3.634611129760742188e+01 1.862597465515136719e+00 3.108502388000488281e+00 1.491329908370971680e+00 -2.609971046447753906e+00
2.360000000000000000e+02 5.801984024047851562e+01 3.617536163330078125e+01 1.972342252731323242e+00 1.197893905639648438e+01 4.185384273529052734e+00 -6.316699981689453125e+00
2.370000000000000000e+02 5.760038375854492188e+01 3.626815795898437500e+01 2.309064149856567383e+00 7.866245746612548828e+00 3.052592992782592773e+00 -5.301967144012451172e+00
2.380000000000000000e+02 5.755476379394531250e+01 3.574686431884765625e+01 3.221607446670532227e+00 4.266584396362304688e+00 2.246457576751708984e+00 -4.466702461242675781e+00
2.390000000000000000e+02 5.620747756958007812e+01 3.644602966308593750e+01 1.175588011741638184e+00 1.452958583831787109e+00 7.885639667510986328e-01 -1.027624249458312988e+00
2.400000000000000000e+02 5.618308258056640625e+01 3.619717788696289062e+01 8.321161866188049316e-01 1.313791751861572266e+00 6.437724232673645020e-01 -8.431513905525207520e-01
2.410000000000000000e+02 5.716269683837890625e+01 3.558925628662109375e+01 1.861990213394165039e+00 1.257230281829833984e+00 9.357661604881286621e-01 -1.907307624816894531e+00
2.420000000000000000e+02 5.798479843139648438e+01 3.568493270874023438e+01 3.935592651367187500e+00 9.667666435241699219e+00 4.080977916717529297e+00 -7.220574378967285156e+00
2.430000000000000000e+02 5.780429840087890625e+01 3.621388244628906250e+01 2.363198280334472656e+00 9.318339347839355469e+00 3.504461288452148438e+00 -5.494563579559326172e+00
2.440000000000000000e+02 5.579798889160156250e+01 3.566089630126953125e+01 -5.729291439056396484e-01 1.193486005067825317e-01 -1.360741555690765381e-01 4.797317087650299072e-01
2.450000000000000000e+02 5.562839889526367188e+01 3.415813446044921875e+01 8.498381376266479492e-01 2.828474044799804688e-01 3.398056626319885254e-01 1.449040919542312622e-01
2.460000000000000000e+02 5.578902053833007812e+01 3.395226669311523438e+01 1.558133721351623535e+00 4.282644689083099365e-01 5.959194302558898926e-01 5.312038064002990723e-01
2.470000000000000000e+02 5.710986328125000000e+01 3.354170227050781250e+01 5.399460792541503906e+00 3.287789583206176758e+00 2.606175184249877930e+00 4.496264457702636719e+00
2.480000000000000000e+02 5.729826736450195312e+01 3.351137161254882812e+01 5.695339679718017578e+00 4.470372676849365234e+00 3.049713611602783203e+00 5.362715721130371094e+00
2.490000000000000000e+02 5.634372711181640625e+01 3.367109298706054688e+01 3.294722080230712891e+00 1.033774375915527344e+00 1.298548936843872070e+00 1.778737545013427734e+00
2.500000000000000000e+02 5.615011215209960938e+01 3.369705581665039062e+01 2.882774353027343750e+00 8.868561983108520508e-01 1.130889177322387695e+00 1.468440055847167969e+00
2.510000000000000000e+02 5.779013442993164062e+01 3.556351089477539062e+01 4.139065265655517578e+00 6.101583003997802734e+00 3.072194337844848633e+00 -5.605827331542968750e+00
2.520000000000000000e+02 5.646857452392578125e+01 3.516354370117187500e+01 -2.537672042846679688e+00 6.668511033058166504e-02 -7.412960529327392578e-01 3.557747006416320801e-01
2.530000000000000000e+02 5.624571990966796875e+01 3.490419769287109375e+01 -2.321614503860473633e+00 -3.927620872855186462e-02 -7.082672119140625000e-01 2.984199821949005127e-01
2.540000000000000000e+02 5.664292907714843750e+01 3.636568832397460938e+01 1.684040188789367676e+00 2.295736789703369141e+00 1.193933129310607910e+00 -1.872330069541931152e+00
2.550000000000000000e+02 5.590541839599609375e+01 3.606239700317382812e+01 3.497166037559509277e-01 6.106203794479370117e-01 2.881010770797729492e-01 -5.284778028726577759e-02
2.560000000000000000e+02 5.764899444580078125e+01 3.538623428344726562e+01 3.423352241516113281e+00 2.251118659973144531e+00 1.702341198921203613e+00 -3.559391498565673828e+00
2.570000000000000000e+02 5.574836730957031250e+01 3.545945739746093750e+01 -1.220412850379943848e+00 -2.477936744689941406e-01 -4.404619634151458740e-01 5.137756466865539551e-01
2.580000000000000000e+02 5.795767974853515625e+01 3.592137527465820312e+01 2.887190103530883789e+00 9.936861038208007812e+00 3.847215414047241211e+00 -6.499324321746826172e+00
2.590000000000000000e+02 5.677668380737304688e+01 3.444956970214843750e+01 9.142757058143615723e-01 1.180352643132209778e-01 3.096933066844940186e-01 4.349184036254882812e-01
2.600000000000000000e+02 5.713719940185546875e+01 3.400774383544921875e+01 4.932775497436523438e+00 1.361265182495117188e+00 1.888212203979492188e+00 2.878930091857910156e+00
2.610000000000000000e+02 5.735372161865234375e+01 3.376151657104492188e+01 6.232486248016357422e+00 3.478140592575073242e+00 2.913187980651855469e+00 4.953420639038085938e+00
2.620000000000000000e+02 5.667562484741210938e+01 3.419020462036132812e+01 2.504683732986450195e+00 3.970360159873962402e-01 8.705159425735473633e-01 1.164199471473693848e+00
2.630000000000000000e+02 5.708751678466796875e+01 3.581683349609375000e+01 2.173041105270385742e+00 1.961475253105163574e+00 1.240354895591735840e+00 -2.457551956176757812e+00
2.640000000000000000e+02 5.638537216186523438e+01 3.585445022583007812e+01 4.739003181457519531e-01 9.024621844291687012e-01 4.129087328910827637e-01 -5.754406452178955078e-01
2.650000000000000000e+02 5.599237442016601562e+01 3.470223617553710938e+01 -1.107539534568786621e+00 3.066316246986389160e-02 -3.230628967285156250e-01 1.116123422980308533e-01
2.660000000000000000e+02 5.658001708984375000e+01 3.453482437133789062e+01 -6.431151926517486572e-02 5.902418494224548340e-02 -1.586200552992522717e-03 2.829573452472686768e-01
2.670000000000000000e+02 5.693867492675781250e+01 3.606597137451171875e+01 1.990490078926086426e+00 2.381185293197631836e+00 1.311502575874328613e+00 -2.238312005996704102e+00
2.680000000000000000e+02 5.583305740356445312e+01 3.430046463012695312e+01 4.934938549995422363e-01 1.637620329856872559e-01 1.971767693758010864e-01 8.898029476404190063e-02
2.690000000000000000e+02 5.748695755004882812e+01 3.608517456054687500e+01 2.908733129501342773e+00 5.203055381774902344e+00 2.433536529541015625e+00 -4.463819980621337891e+00
2.700000000000000000e+02 5.648260498046875000e+01 3.424506378173828125e+01 1.812789082527160645e+00 2.220784276723861694e-01 6.104602217674255371e-01 6.856546401977539062e-01
2.710000000000000000e+02 5.618341827392578125e+01 3.464196014404296875e+01 -8.558017611503601074e-01 4.379433020949363708e-02 -2.436022311449050903e-01 1.522786468267440796e-01
2.720000000000000000e+02 5.642722702026367188e+01 3.542903518676757812e+01 -1.012490987777709961e+00 1.065240874886512756e-01 -2.717900574207305908e-01 1.722475886344909668e-01
2.730000000000000000e+02 5.598895263671875000e+01 3.559581756591796875e+01 -6.742132902145385742e-01 -7.948759198188781738e-02 -2.261102795600891113e-01 3.809682726860046387e-01
2.740000000000000000e+02 5.628277206420898438e+01 3.564631652832031250e+01 -1.789011359214782715e-01 1.542017161846160889e-01 -7.409826386719942093e-03 -3.764007613062858582e-02
2.750000000000000000e+02 5.575860595703125000e+01 3.372879409790039062e+01 2.074497699737548828e+00 6.597447395324707031e-01 8.202727437019348145e-01 8.441620469093322754e-01
2.760000000000000000e+02 5.579424285888671875e+01 3.414266967773437500e+01 1.171445369720458984e+00 3.137978613376617432e-01 4.455729424953460693e-01 3.154375851154327393e-01
2.770000000000000000e+02 5.595531082153320312e+01 3.371459197998046875e+01 2.512303590774536133e+00 7.267984151840209961e-01 9.717305898666381836e-01 1.124752044677734375e+00
2.780000000000000000e+02 5.567435073852539062e+01 3.434980010986328125e+01 2.672931551933288574e-01 1.700806766748428345e-01 1.312121450901031494e-01 -6.753648631274700165e-03
2.790000000000000000e+02 5.550352096557617188e+01 3.438988876342773438e+01 9.963716566562652588e-02 1.690818667411804199e-01 8.061570674180984497e-02 -3.600403293967247009e-02
2.800000000000000000e+02 5.555459213256835938e+01 3.459423065185546875e+01 -6.230365037918090820e-01 1.353622525930404663e-01 -1.463022679090499878e-01 -8.160447329282760620e-02
2.810000000000000000e+02 5.560570907592773438e+01 3.480152511596679688e+01 -1.266955733299255371e+00 -7.524760067462921143e-02 -4.026609957218170166e-01 3.591102361679077148e-02
2.820000000000000000e+02 5.640631103515625000e+01 3.395783233642578125e+01 2.698722124099731445e+00 6.146231293678283691e-01 9.940035343170166016e-01 1.321510434150695801e+00
2.830000000000000000e+02 5.620240402221679688e+01 3.399087524414062500e+01 2.188956260681152344e+00 4.301747083663940430e-01 7.857392430305480957e-01 9.051830768585205078e-01
2.840000000000000000e+02 5.660426330566406250e+01 3.392076873779296875e+01 3.285123825073242188e+00 7.979116439819335938e-01 1.224910736083984375e+00 1.670001149177551270e+00
2.850000000000000000e+02 5.692078018188476562e+01 3.357398986816406250e+01 4.912897586822509766e+00 2.324443817138671875e+00 2.171202421188354492e+00 3.616280078887939453e+00
2.860000000000000000e+02 5.716751098632812500e+01 3.379309082031250000e+01 5.647239208221435547e+00 2.398226737976074219e+00 2.413639783859252930e+00 3.992242097854614258e+00
2.870000000000000000e+02 5.760785675048828125e+01 3.385198211669921875e+01 7.435425281524658203e+00 4.988288402557373047e+00 3.727113962173461914e+00 6.455303668975830078e+00
2.880000000000000000e+02 5.769295883178710938e+01 3.346934127807617188e+01 6.050319194793701172e+00 8.152613639831542969e+00 4.260879993438720703e+00 7.425144672393798828e+00
2.890000000000000000e+02 5.826528167724609375e+01 3.343201065063476562e+01 4.612721443176269531e+00 1.573054027557373047e+01 6.102978706359863281e+00 8.095632553100585938e+00
2.900000000000000000e+02 5.608710098266601562e+01 3.518831253051757812e+01 -2.502593994140625000e+00 -4.946270212531089783e-02 -7.656170129776000977e-01 4.089442193508148193e-01
2.910000000000000000e+02 5.688608932495117188e+01 3.539970016479492188e+01 -9.092155843973159790e-02 1.934875994920730591e-01 3.076981008052825928e-02 -4.035381972789764404e-01
2.920000000000000000e+02 5.606523895263671875e+01 3.577540206909179688e+01 -3.353931754827499390e-02 4.334596693515777588e-01 1.199761033058166504e-01 7.094759494066238403e-02
2.930000000000000000e+02 5.585219573974609375e+01 3.586033630371093750e+01 -1.575630605220794678e-01 1.175632849335670471e-01 -1.199993491172790527e-02 2.652800977230072021e-01
2.940000000000000000e+02 5.595296859741210938e+01 3.627258682250976562e+01 5.109574794769287109e-01 9.593504071235656738e-01 4.410923719406127930e-01 -7.287208735942840576e-02
2.950000000000000000e+02 5.642386245727539062e+01 3.640230560302734375e+01 1.506822466850280762e+00 2.010523796081542969e+00 1.055203914642333984e+00 -1.695630788803100586e+00
2.960000000000000000e+02 5.724699020385742188e+01 3.635117721557617188e+01 2.189916133880615234e+00 4.735878944396972656e+00 2.077738523483276367e+00 -3.875221252441406250e+00
2.970000000000000000e+02 5.741743087768554688e+01 3.632677078247070312e+01 2.441172361373901367e+00 5.708903312683105469e+00 2.445022821426391602e+00 -4.028364658355712891e+00
2.980000000000000000e+02 5.637617111206054688e+01 3.458555221557617188e+01 -5.513898134231567383e-01 1.557578425854444504e-02 -1.607442051172256470e-01 1.753750145435333252e-01
2.990000000000000000e+02 5.732471466064453125e+01 3.621221542358398438e+01 2.415792226791381836e+00 5.039958000183105469e+00 2.236725091934204102e+00 -3.793375253677368164e+00
3.000000000000000000e+02 5.703738784790039062e+01 3.482156372070312500e+01 -2.216571092605590820e+00 -5.759267136454582214e-03 -6.666991114616394043e-01 3.442499041557312012e-01
3.010000000000000000e+02 5.722482681274414062e+01 3.476337814331054688e+01 -1.940641164779663086e+00 2.974959835410118103e-02 -5.732674598693847656e-01 4.629728794097900391e-01
3.020000000000000000e+02 5.723836517333984375e+01 3.436650085449218750e+01 3.123569011688232422e+00 2.368955165147781372e-01 1.008139371871948242e+00 1.353806734085083008e+00
3.030000000000000000e+02 5.687352752685546875e+01 3.511863327026367188e+01 -2.434162616729736328e+00 1.600753515958786011e-01 -6.822262406349182129e-01 3.201837539672851562e-01
3.040000000000000000e+02 5.728599548339843750e+01 3.503779983520507812e+01 -2.122114419937133789e+00 2.444025874137878418e-01 -5.633135437965393066e-01 2.092551589012145996e-01
3.050000000000000000e+02 5.862939453125000000e+01 3.367172622680664062e+01 3.368395090103149414e+00 2.431414604187011719e+01 8.304761886596679688e+00 7.471489429473876953e+00
3.060000000000000000e+02 5.820094680786132812e+01 3.590788650512695312e+01 2.309163093566894531e+00 1.503003692626953125e+01 5.201759815216064453e+00 -7.136803150177001953e+00
3.070000000000000000e+02 5.943423461914062500e+01 3.547945022583007812e+01 7.301071643829345703e+00 2.406177520751953125e+01 9.408853530883789062e+00 4.172007083892822266e+00
3.080000000000000000e+02 5.741493988037109375e+01 3.552265167236328125e+01 2.587292432785034180e+00 2.380268096923828125e+00 1.490268111228942871e+00 -2.843468904495239258e+00
3.090000000000000000e+02 5.855360031127929688e+01 3.583213043212890625e+01 1.317844033241271973e+00 2.091102790832519531e+01 6.668661594390869141e+00 -5.165524959564208984e+00
3.100000000000000000e+02 5.956232833862304688e+01 3.527617263793945312e+01 8.948395729064941406e+00 2.183705139160156250e+01 9.235633850097656250e+00 4.373692989349365234e+00
3.110000000000000000e+02 5.965377426147460938e+01 3.436565780639648438e+01 1.357184123992919922e+01 2.130757522583007812e+01 1.046382522583007812e+01 -1.809698224067687988e+00
3.120000000000000000e+02 5.899127960205078125e+01 3.356925582885742188e+01 3.972582578659057617e+00 2.272869300842285156e+01 8.010382652282714844e+00 2.211398839950561523e+00
3.130000000000000000e+02 5.610154342651367188e+01 3.536364746093750000e+01 -1.697498202323913574e+00 -7.756872475147247314e-02 -5.325200557708740234e-01 4.708001911640167236e-01
3.140000000000000000e+02 5.591720199584960938e+01 3.448069000244140625e+01 -1.506087183952331543e-01 4.726215824484825134e-02 -3.100396506488323212e-02 1.185233965516090393e-01
3.150000000000000000e+02 5.559821701049804688e+01 3.395840454101562500e+01 1.372252464294433594e+00 4.592736065387725830e-01 5.494578480720520020e-01 4.226503968238830566e-01
3.160000000000000000e+02 5.625649642944335938e+01 3.536547851562500000e+01 -1.537338972091674805e+00 7.138840854167938232e-03 -4.590600430965423584e-01 2.641281783580780029e-01
3.170000000000000000e+02 5.664619064331054688e+01 3.544991302490234375e+01 -4.974395930767059326e-01 3.297788500785827637e-01 -5.029822513461112976e-02 -2.227425873279571533e-01
3.180000000000000000e+02 5.731740951538085938e+01 3.592503356933593750e+01 2.623510837554931641e+00 3.916191577911376953e+00 1.961910724639892578e+00 -3.429910182952880859e+00
3.190000000000000000e+02 5.666487121582031250e+01 3.575720214843750000e+01 8.507568240165710449e-01 6.103095412254333496e-01 4.383199214935302734e-01 -8.419335484504699707e-01
3.200000000000000000e+02 5.668089675903320312e+01 3.606213378906250000e+01 1.610182166099548340e+00 1.771528244018554688e+00 1.014513134956359863e+00 -1.765738964080810547e+00
3.210000000000000000e+02 5.873827743530273438e+01 3.370489120483398438e+01 3.827724218368530273e+00 2.560844421386718750e+01 8.830850601196289062e+00 6.458325386047363281e+00
3.220000000000000000e+02 5.733800506591796875e+01 3.415275955200195312e+01 5.371368885040283203e+00 1.270875453948974609e+00 1.992673277854919434e+00 2.996212482452392578e+00
3.230000000000000000e+02 5.704629135131835938e+01 3.419575119018554688e+01 3.631417512893676758e+00 6.597297787666320801e-01 1.287344217300415039e+00 1.761479020118713379e+00
3.240000000000000000e+02 5.595564651489257812e+01 3.419484329223632812e+01 1.125647187232971191e+00 1.945718675851821899e-01 3.960657119750976562e-01 3.357929289340972900e-01
3.250000000000000000e+02 5.686147689819335938e+01 3.414008331298828125e+01 3.324285745620727539e+00 5.764614939689636230e-01 1.170224189758300781e+00 1.581447005271911621e+00
3.260000000000000000e+02 5.973930740356445312e+01 3.522660446166992188e+01 9.557419776916503906e+00 2.080530929565429688e+01 9.108819007873535156e+00 3.982318878173828125e+00
3.270000000000000000e+02 5.964333343505859375e+01 3.510417556762695312e+01 1.233454799652099609e+01 2.114595603942871094e+01 1.004415130615234375e+01 3.229243516921997070e+00
3.280000000000000000e+02 5.865321350097656250e+01 3.346758651733398438e+01 3.225568294525146484e+00 2.183672332763671875e+01 7.518687725067138672e+00 5.671373367309570312e+00
3.290000000000000000e+02 5.752571487426757812e+01 3.369593429565429688e+01 6.646069049835205078e+00 5.146522045135498047e+00 3.537777185440063477e+00 6.216947555541992188e+00
3.300000000000000000e+02 5.609130859375000000e+01 3.438066101074218750e+01 4.598142802715301514e-01 1.304563283920288086e-01 1.770811825990676880e-01 2.319734692573547363e-01
3.310000000000000000e+02 5.615962219238281250e+01 3.550825881958007812e+01 -1.105774164199829102e+00 1.458976566791534424e-01 -2.879629433155059814e-01 2.765900194644927979e-01
3.320000000000000000e+02 2.197723960876464844e+01 6.197319030761718750e-01 -1.370250463485717773e+00 -1.998206079006195068e-01 -4.710213243961334229e-01 -9.741670489311218262e-01
3.330000000000000000e+02 2.248686027526855469e+01 1.426791667938232422e+00 -1.497094631195068359e+00 -3.902040123939514160e-01 -5.661895871162414551e-01 -9.170243740081787109e-01
3.340000000000000000e+02 2.267547607421875000e+01 1.194363236427307129e+00 -1.411565899848937988e+00 -1.591875106096267700e-01 -4.712260067462921143e-01 -7.967495322227478027e-01
3.350000000000000000e+02 3.366631698608398438e+01 6.132322788238525391e+00 -4.457010328769683838e-01 -1.522820740938186646e-01 -1.793949306011199951e-01 -2.913763225078582764e-01
3.360000000000000000e+02 4.206224822998046875e+01 -1.203315734863281250e+00 -3.068361803889274597e-02 1.565421462059020996e+00 4.604213535785675049e-01 1.464308202266693115e-01
3.370000000000000000e+02 4.683145904541015625e+01 6.670839786529541016e-01 -1.551732867956161499e-01 2.610268831253051758e+00 7.365286946296691895e-01 2.686727643013000488e-01
3.380000000000000000e+02 6.618974304199218750e+01 1.894419074058532715e+00 -3.170459270477294922e-01 6.994592189788818359e+00 2.003263950347900391e+00 4.000012949109077454e-02
3.390000000000000000e+02 7.934529876708984375e+01 2.782470941543579102e+00 -1.358545501716434956e-03 9.539915084838867188e+00 2.861567020416259766e+00 -3.085023164749145508e-02
3.400000000000000000e+02 7.809168243408203125e+01 4.177292823791503906e+00 -1.351149100810289383e-02 9.222157478332519531e+00 2.762593746185302734e+00 -6.869752705097198486e-02
3.410000000000000000e+02 7.941320037841796875e+01 8.339386940002441406e+00 1.465637586079537868e-03 9.339963912963867188e+00 2.802428722381591797e+00 -6.189462915062904358e-02
3.420000000000000000e+02 7.827517700195312500e+01 1.104088783264160156e+01 -2.862390130758285522e-02 8.896578788757324219e+00 2.660386562347412109e+00 -1.904027909040451050e-01
3.430000000000000000e+02 7.942242431640625000e+01 1.665154647827148438e+01 5.274613853543996811e-03 8.312974929809570312e+00 2.495474815368652344e+00 -1.360244452953338623e-01
3.440000000000000000e+02 7.348114013671875000e+01 2.242732620239257812e+01 -2.333426475524902344e-01 7.691359519958496094e+00 2.237405061721801758e+00 -1.290936231613159180e+00
3.450000000000000000e+02 6.143071746826171875e+01 3.203231430053710938e+01 2.399740219116210938e+00 1.407229518890380859e+01 4.941610336303710938e+00 -1.257687211036682129e+00
3.460000000000000000e+02 5.870206832885742188e+01 3.305686187744140625e+01 2.382831811904907227e+00 1.862262535095214844e+01 6.301637172698974609e+00 4.373442649841308594e+00
3.470000000000000000e+02 5.806648635864257812e+01 3.277165985107421875e+01 3.040333509445190430e+00 1.288567066192626953e+01 4.777801036834716797e+00 6.672430515289306641e+00
3.480000000000000000e+02 5.335431671142578125e+01 2.699432754516601562e+01 5.306743979454040527e-01 3.320294857025146484e+00 1.155290722846984863e+00 1.958940386772155762e+00
3.490000000000000000e+02 6.096330642700195312e+01 1.695377731323242188e+01 -1.035287380218505859e+00 7.139052391052246094e+00 1.831129550933837891e+00 2.555415332317352295e-01
3.500000000000000000e+02 5.997575759887695312e+01 6.864428997039794922e+00 -5.666796565055847168e-01 5.923999786376953125e+00 1.607195973396301270e+00 2.302404195070266724e-01
3.510000000000000000e+02 5.864055633544921875e+01 1.993837714195251465e+00 -3.947933614253997803e-01 5.433162212371826172e+00 1.511510729789733887e+00 2.582238316535949707e-01
3.520000000000000000e+02 2.342096138000488281e+01 -2.267278432846069336e+00 3.835517168045043945e-01 3.107931613922119141e-01 2.083034515380859375e-01 -5.462573766708374023e-01
3.530000000000000000e+02 2.554572486877441406e+01 -4.213249683380126953e+00 2.310123443603515625e-01 1.633143723011016846e-01 1.182980164885520935e-01 -2.956595122814178467e-01
3.540000000000000000e+02 3.545478439331054688e+01 -6.791968345642089844e+00 1.510723233222961426e-01 3.793037235736846924e-01 1.591128110885620117e-01 -2.532324194908142090e-02
3.550000000000000000e+02 4.673778152465820312e+01 -4.719552040100097656e+00 -9.219131618738174438e-02 2.665180921554565430e+00 7.718968987464904785e-01 1.496665775775909424e-01
3.560000000000000000e+02 6.092935562133789062e+01 -3.475564956665039062e+00 -2.611442208290100098e-01 5.833430767059326172e+00 1.671686053276062012e+00 2.158159017562866211e-01
3.570000000000000000e+02 6.624258422851562500e+01 -2.263950347900390625e+00 -2.287912964820861816e-01 6.918073654174804688e+00 2.006784677505493164e+00 1.217888221144676208e-01
3.580000000000000000e+02 7.239173889160156250e+01 -4.128314495086669922e+00 -8.169840276241302490e-02 8.081995964050292969e+00 2.400089263916015625e+00 7.777813822031021118e-02
3.590000000000000000e+02 7.928969573974609375e+01 -5.604732036590576172e+00 -1.751415547914803028e-03 9.489614486694335938e+00 2.846359014511108398e+00 -1.138482126407325268e-03
3.600000000000000000e+02 7.788624572753906250e+01 -2.828430891036987305e+00 -1.185941044241189957e-02 9.216720581054687500e+00 2.761458396911621094e+00 5.020434968173503876e-03
3.610000000000000000e+02 2.839593505859375000e+01 -5.783732891082763672e+00 2.416804730892181396e-01 -1.109972968697547913e-01 3.920495510101318359e-02 -5.603238567709922791e-02
3.620000000000000000e+02 3.220746231079101562e+01 -1.132027244567871094e+01 -3.047365695238113403e-02 -1.212023571133613586e-01 -4.550280421972274780e-02 7.586356252431869507e-02
3.630000000000000000e+02 3.275289916992187500e+01 -1.423217105865478516e+01 -1.013849526643753052e-01 -2.332453727722167969e-01 -1.003891006112098694e-01 1.633018702268600464e-01
3.640000000000000000e+02 3.566795730590820312e+01 -1.889391708374023438e+01 -5.455079674720764160e-02 1.745356991887092590e-02 -1.112916786223649979e-02 4.782233014702796936e-02
3.650000000000000000e+02 4.043238449096679688e+01 -2.728377151489257812e+01 2.153310775756835938e-01 9.347932934761047363e-01 3.450373113155364990e-01 -4.416294693946838379e-01
3.660000000000000000e+02 4.140162658691406250e+01 -2.660339164733886719e+01 1.023940742015838623e-01 1.419106364250183105e+00 4.564501345157623291e-01 -4.864736795425415039e-01
3.670000000000000000e+02 4.520317459106445312e+01 -3.466496658325195312e+01 8.181160092353820801e-01 5.496214866638183594e+00 1.894299268722534180e+00 -4.192281961441040039e-01
3.680000000000000000e+02 4.454875946044921875e+01 -3.762782287597656250e+01 1.254633545875549316e+00 5.603733539581298828e+00 2.057510137557983398e+00 1.271484136581420898e+00
3.690000000000000000e+02 4.496347045898437500e+01 -3.918270492553710938e+01 7.115697860717773438e-01 4.903903007507324219e+00 1.684641718864440918e+00 2.867636382579803467e-01
3.700000000000000000e+02 4.465556716918945312e+01 -4.106967544555664062e+01 7.239966392517089844e-01 3.395897388458251953e+00 1.235968232154846191e+00 1.339010149240493774e-01
3.710000000000000000e+02 3.827408981323242188e+01 -4.151877212524414062e+01 1.228531122207641602e+00 2.374816536903381348e-01 4.398038089275360107e-01 -2.838341891765594482e-01
3.720000000000000000e+02 3.708763122558593750e+01 -3.762562942504882812e+01 8.516876697540283203e-01 4.630548954010009766e-01 3.944227695465087891e-01 -4.416763186454772949e-01
3.730000000000000000e+02 3.201391983032226562e+01 -3.138201332092285156e+01 3.850940465927124023e-01 7.361047863960266113e-01 3.363596498966217041e-01 -4.512423872947692871e-01
3.740000000000000000e+02 2.403713798522949219e+01 -2.598183441162109375e+01 1.553611457347869873e-01 3.760690689086914062e-01 1.594290584325790405e-01 -2.635887563228607178e-01
3.750000000000000000e+02 1.930273056030273438e+01 -1.798937416076660156e+01 1.528636217117309570e-01 1.778163462877273560e-01 9.920398890972137451e-02 -2.328726798295974731e-01
3.760000000000000000e+02 1.019250488281250000e+01 -7.389176845550537109e+00 -9.815261512994766235e-02 -2.312706708908081055e-01 -9.882698208093643188e-02 -4.042766094207763672e-01
3.770000000000000000e+02 3.768774271011352539e+00 -1.986942410469055176e+00 -5.282271653413772583e-02 -1.852551475167274475e-02 -2.140446938574314117e-02 -4.183989390730857849e-02
3.780000000000000000e+02 5.103560686111450195e-01 -1.067522430419921875e+01 -4.623694345355033875e-03 -3.361188471317291260e-01 -1.022227630019187927e-01 -2.999258041381835938e-02
3.790000000000000000e+02 1.542449712753295898e+00 -1.063434219360351562e+01 3.223836189135909081e-03 -3.287636041641235352e-01 -9.766193479299545288e-02 -8.802449703216552734e-02
3.800000000000000000e+02 6.032022833824157715e-01 -1.768278121948242188e+01 4.713173024356365204e-03 -7.051848173141479492e-01 -2.101414948701858521e-01 -2.491990663111209869e-02
3.810000000000000000e+02 7.378500461578369141e+00 -2.385771369934082031e+01 4.938139021396636963e-02 -5.088260173797607422e-01 -1.378333866596221924e-01 -1.491584181785583496e-01
3.820000000000000000e+02 1.378371620178222656e+01 -2.905739212036132812e+01 8.327709883451461792e-02 -2.176860421895980835e-01 -4.032268375158309937e-02 -1.445290297269821167e-01
3.830000000000000000e+02 2.809202384948730469e+01 -3.867924880981445312e+01 3.616819381713867188e-01 3.325488567352294922e-01 2.082692384719848633e-01 -1.277174502611160278e-01
3.840000000000000000e+02 3.121862411499023438e+01 -3.658225631713867188e+01 3.714913129806518555e-01 4.250312745571136475e-01 2.389567792415618896e-01 -2.682553827762603760e-01
3.850000000000000000e+02 3.565235137939453125e+01 -4.033587265014648438e+01 8.680891394615173340e-01 1.852971613407135010e-01 3.160158991813659668e-01 -1.615321785211563110e-01
3.860000000000000000e+02 3.595180892944335938e+01 -1.691971015930175781e+01 -5.232177302241325378e-02 2.209780663251876831e-01 5.059688910841941833e-02 4.093735944479703903e-03
3.870000000000000000e+02 4.017113113403320312e+01 -2.424630737304687500e+01 2.675580233335494995e-02 1.026991248130798340e+00 3.161241114139556885e-01 -3.099064230918884277e-01
3.880000000000000000e+02 3.169727706909179688e+01 -3.318194580078125000e+01 3.893906772136688232e-01 5.911163687705993652e-01 2.941521108150482178e-01 -3.554950654506683350e-01
3.890000000000000000e+02 2.998606681823730469e+01 -2.776818084716796875e+01 1.654572188854217529e-01 6.867444515228271484e-01 2.556605041027069092e-01 -3.591156899929046631e-01
3.900000000000000000e+02 2.635490226745605469e+01 -2.032887268066406250e+01 1.499725878238677979e-01 5.671812295913696289e-01 2.151461392641067505e-01 -2.975711524486541748e-01
3.910000000000000000e+02 2.372750854492187500e+01 -1.554619216918945312e+01 2.008360773324966431e-01 4.823843836784362793e-01 2.049661427736282349e-01 -3.016362786293029785e-01
3.920000000000000000e+02 1.908987808227539062e+01 -1.017020988464355469e+01 1.725741028785705566e-01 1.769742667675018311e-01 1.048645079135894775e-01 -1.856726557016372681e-01
3.930000000000000000e+02 1.941551017761230469e+01 -6.842541217803955078e+00 2.636811695992946625e-04 1.573792099952697754e-01 4.729286581277847290e-02 -1.326545625925064087e-01
3.940000000000000000e+02 1.579911804199218750e+01 -2.455212116241455078e+00 -1.023918151855468750e+00 -5.875481367111206055e-01 -4.834398925304412842e-01 -6.445217728614807129e-01
3.950000000000000000e+02 1.921997261047363281e+01 -1.026798248291015625e+00 -1.458134531974792480e+00 -6.936662793159484863e-01 -6.455402374267578125e-01 -1.121314287185668945e+00
3.960000000000000000e+02 1.918759155273437500e+01 -5.475100278854370117e-01 -2.074157476425170898e+00 -7.449597716331481934e-01 -8.457351922988891602e-01 -1.019675254821777344e+00
3.970000000000000000e+02 1.952265930175781250e+01 -4.313718676567077637e-01 -2.397375583648681641e+00 -1.223978996276855469e+00 -1.086406350135803223e+00 -7.146415114402770996e-01
3.980000000000000000e+02 2.040513992309570312e+01 -1.239167898893356323e-01 -1.911623001098632812e+00 -2.041426181793212891e+00 -1.185914754867553711e+00 -1.426121950149536133e+00
3.990000000000000000e+02 2.330287742614746094e+01 -1.736465263366699219e+01 1.569746881723403931e-01 4.393888115882873535e-01 1.789090484380722046e-01 -2.811165452003479004e-01
4.000000000000000000e+02 2.230759048461914062e+01 -1.319786930084228516e+01 1.933950632810592651e-01 4.859308898448944092e-01 2.037977874279022217e-01 -2.831499278545379639e-01
4.010000000000000000e+02 5.394057464599609375e+01 3.789608001708984375e+01 -3.880863785743713379e-01 -1.641395092010498047e+00 -6.088444590568542480e-01 2.700448930263519287e-01
4.020000000000000000e+02 5.454550170898437500e+01 3.737344741821289062e+01 9.572649374604225159e-03 -3.270937204360961914e-01 -9.525632113218307495e-02 3.415038585662841797e-01
4.030000000000000000e+02 5.625136566162109375e+01 3.671439361572265625e+01 1.453346729278564453e+00 2.453910112380981445e+00 1.172177076339721680e+00 -1.577568888664245605e+00
4.040000000000000000e+02 5.565766143798828125e+01 3.700583267211914062e+01 7.095720767974853516e-01 1.629198908805847168e+00 7.016313076019287109e-01 -3.911090195178985596e-01
4.050000000000000000e+02 5.250202560424804688e+01 3.895359802246093750e+01 -1.037988901138305664e+00 -3.810436427593231201e-01 -4.257097840309143066e-01 3.757686018943786621e-01
4.060000000000000000e+02 5.195249176025390625e+01 3.883388900756835938e+01 -4.680896401405334473e-01 4.691707715392112732e-02 -1.263517737388610840e-01 -2.453850768506526947e-02
4.070000000000000000e+02 4.871513366699218750e+01 3.741387557983398438e+01 1.113357394933700562e-01 1.026729270815849304e-01 6.420259922742843628e-02 9.589407593011856079e-02
4.080000000000000000e+02 4.959471893310546875e+01 3.760557937622070312e+01 4.725326970219612122e-02 2.165739238262176514e-02 2.067319862544536591e-02 3.371683135628700256e-02
4.090000000000000000e+02 5.646193313598632812e+01 3.668984985351562500e+01 1.497293233871459961e+00 2.339512348175048828e+00 1.151041746139526367e+00 -1.804882287979125977e+00
4.100000000000000000e+02 5.929107666015625000e+01 3.637361145019531250e+01 6.449192762374877930e-01 2.015739059448242188e+01 6.240692615509033203e+00 2.398846596479415894e-01
4.110000000000000000e+02 6.047265625000000000e+01 3.527906417846679688e+01 8.408685684204101562e+00 1.630806541442871094e+01 7.415025711059570312e+00 2.355665683746337891e+00
4.120000000000000000e+02 6.036642456054687500e+01 3.338366317749023438e+01 6.079720020294189453e+00 1.749357604980468750e+01 7.071988582611083984e+00 -1.883036136627197266e+00
4.130000000000000000e+02 6.096478652954101562e+01 3.468789672851562500e+01 8.900491714477539062e+00 1.490725231170654297e+01 7.142323493957519531e+00 6.070512533187866211e-01
4.140000000000000000e+02 7.338978576660156250e+01 2.371098518371582031e+01 -1.959486752748489380e-01 7.601881980895996094e+00 2.221780061721801758e+00 -1.380291819572448730e+00
4.150000000000000000e+02 7.825421905517578125e+01 1.787972450256347656e+01 -1.940458081662654877e-02 7.977310657501220703e+00 2.387371778488159180e+00 -3.831852674484252930e-01
4.160000000000000000e+02 7.939858245849609375e+01 2.358323287963867188e+01 -2.329664491117000580e-02 6.502643585205078125e+00 1.943804144859313965e+00 -2.155392318964004517e-01
4.170000000000000000e+02 7.573516845703125000e+01 2.424273681640625000e+01 -7.886562496423721313e-02 7.025375366210937500e+00 2.083952903747558594e+00 -1.106829166412353516e+00
4.180000000000000000e+02 7.933391571044921875e+01 2.913978576660156250e+01 -2.423077449202537537e-02 4.685284614562988281e+00 1.398316144943237305e+00 -2.257188856601715088e-01
4.190000000000000000e+02 6.884373474121093750e+01 3.776143646240234375e+01 7.299748063087463379e-01 9.291319847106933594e+00 3.006388425827026367e+00 -7.834991812705993652e-02
4.200000000000000000e+02 6.137099838256835938e+01 3.818503189086914062e+01 -1.145679056644439697e-01 1.503244304656982422e+01 4.475362777709960938e+00 1.831926703453063965e+00
4.210000000000000000e+02 5.401935195922851562e+01 3.372015762329101562e+01 3.242986202239990234e-01 2.846134603023529053e-01 1.826736181974411011e-01 -7.574687898159027100e-02
4.220000000000000000e+02 5.295911407470703125e+01 3.415417480468750000e+01 -3.699905276298522949e-01 -7.286562919616699219e-01 -3.295940458774566650e-01 -5.393540263175964355e-01
4.230000000000000000e+02 5.274581146240234375e+01 3.378171920776367188e+01 -3.579294085502624512e-01 -7.661027908325195312e-01 -3.372096717357635498e-01 -5.366233587265014648e-01
4.240000000000000000e+02 4.946997070312500000e+01 3.019718551635742188e+01 -4.594715312123298645e-02 -5.479718744754791260e-02 -3.022330254316329956e-02 -4.888661205768585205e-02
4.250000000000000000e+02 4.743593597412109375e+01 2.829171752929687500e+01 -1.331693828105926514e-01 -8.410365879535675049e-02 -6.518191099166870117e-02 -1.059359237551689148e-01
4.260000000000000000e+02 4.626482009887695312e+01 2.666815567016601562e+01 -1.557127833366394043e-01 -4.200215637683868408e-02 -5.931448191404342651e-02 -1.012289300560951233e-01
4.270000000000000000e+02 4.883213424682617188e+01 2.233209419250488281e+01 -2.155692689120769501e-02 1.775479316711425781e+00 5.261767506599426270e-01 8.029866814613342285e-01
4.280000000000000000e+02 4.806570434570312500e+01 1.437908649444580078e+01 -3.205109834671020508e-01 2.438003778457641602e+00 6.352478265762329102e-01 5.954701304435729980e-01
4.290000000000000000e+02 4.753721237182617188e+01 1.391385793685913086e+00 -1.833875775337219238e-01 2.763274669647216797e+00 7.739660739898681641e-01 3.004267811775207520e-01
4.300000000000000000e+02 4.598869705200195312e+01 2.693740463256835938e+01 -2.067791074514389038e-01 -1.643175929784774780e-01 -1.113290116190910339e-01 -1.875815391540527344e-01
4.310000000000000000e+02 3.938215637207031250e+01 2.008842849731445312e+01 -4.747382998466491699e-01 -4.750298261642456055e-01 -2.849304378032684326e-01 -5.111730694770812988e-01
4.320000000000000000e+02 3.900279235839843750e+01 1.221848773956298828e+01 -4.413757324218750000e-01 2.753063142299652100e-01 -4.982082173228263855e-02 -1.554981321096420288e-01
4.330000000000000000e+02 4.183965301513671875e+01 5.296294689178466797e-01 -6.547231227159500122e-02 1.482180714607238770e+00 4.250125288963317871e-01 1.671972572803497314e-01
4.340000000000000000e+02 3.240125656127929688e+01 1.293215370178222656e+01 -8.582934141159057617e-01 -9.029673337936401367e-01 -5.283782482147216797e-01 -8.957666158676147461e-01
4.350000000000000000e+02 3.184346580505371094e+01 1.235276126861572266e+01 -9.251478910446166992e-01 -1.007359385490417480e+00 -5.797522068023681641e-01 -9.623063206672668457e-01
4.360000000000000000e+02 3.212203979492187500e+01 1.264356517791748047e+01 -8.747523427009582520e-01 -9.535946249961853027e-01 -5.485040545463562012e-01 -9.166744947433471680e-01
4.370000000000000000e+02 3.127995681762695312e+01 1.178178596496582031e+01 -1.092856526374816895e+00 -1.022354006767272949e+00 -6.345631480216979980e-01 -1.034024596214294434e+00
4.380000000000000000e+02 3.071902275085449219e+01 1.122450733184814453e+01 -1.129124283790588379e+00 -9.172482490539550781e-01 -6.139117479324340820e-01 -1.011669635772705078e+00
4.390000000000000000e+02 3.068979835510253906e+01 7.425463676452636719e+00 -3.836694359779357910e-01 -7.038025856018066406e-01 -3.262416124343872070e-01 -6.073307991027832031e-01
4.400000000000000000e+02 2.990016174316406250e+01 6.020288467407226562e+00 -8.180110454559326172e-01 -4.675562381744384766e-01 -3.856701850891113281e-01 -7.306821942329406738e-01
4.410000000000000000e+02 3.048142623901367188e+01 6.236609935760498047e+00 -6.416773796081542969e-01 -4.697448611259460449e-01 -3.334266543388366699e-01 -7.097929716110229492e-01
4.420000000000000000e+02 1.906232070922851562e+01 -3.992300510406494141e+00 -1.475433856248855591e-01 -3.141700029373168945e-01 -1.385140120983123779e-01 -1.786964684724807739e-01
4.430000000000000000e+02 1.170240306854248047e+01 -2.200997829437255859e+00 -5.952707529067993164e-01 -1.675508543848991394e-02 -1.836077421903610229e-01 -2.457620501518249512e-01
4.440000000000000000e+02 1.096824073791503906e+01 -2.098946571350097656e+00 -5.040491223335266113e-01 -9.123090654611587524e-03 -1.539516597986221313e-01 -2.000936120748519897e-01
4.450000000000000000e+02 1.023507308959960938e+01 -1.998678207397460938e+00 -4.167786240577697754e-01 8.182368241250514984e-03 -1.225788742303848267e-01 -1.597431451082229614e-01
4.460000000000000000e+02 1.815720200538635254e+00 -1.751985549926757812e+01 1.858919160440564156e-03 -6.371036767959594727e-01 -1.905734390020370483e-01 -7.373534142971038818e-02
4.470000000000000000e+02 6.382418870925903320e-01 -2.331628227233886719e+01 3.620086936280131340e-03 -8.934073448181152344e-01 -2.669361829757690430e-01 -1.623807847499847412e-02
4.480000000000000000e+02 1.674900627136230469e+01 -4.055405044555664062e+01 1.401535123586654663e-01 -9.413058310747146606e-02 1.380687952041625977e-02 -3.550043702125549316e-02
4.490000000000000000e+02 2.336034965515136719e+01 -4.087686538696289062e+01 2.482546716928482056e-01 1.688579022884368896e-01 1.251337677240371704e-01 -2.295705862343311310e-02
4.500000000000000000e+02 6.381722092628479004e-01 -2.472122764587402344e+01 -1.756353536620736122e-03 -9.279241561889648438e-01 -2.789041697978973389e-01 -1.444905344396829605e-02
4.510000000000000000e+02 7.175661921501159668e-01 -3.033761596679687500e+01 -2.972598653286695480e-03 -1.021226644515991211e+00 -3.072597682476043701e-01 -7.572809234261512756e-03
4.520000000000000000e+02 1.207681179046630859e+01 -3.742232513427734375e+01 7.338676601648330688e-02 -3.533576428890228271e-01 -8.399126678705215454e-02 -5.754212290048599243e-02
4.530000000000000000e+02 2.015531349182128906e+01 -3.902070999145507812e+01 1.586718559265136719e-01 4.573149606585502625e-02 6.132100895047187805e-02 -5.433591455221176147e-02
4.540000000000000000e+02 7.878697514533996582e-01 -3.174744033813476562e+01 3.664655610918998718e-03 -1.034469127655029297e+00 -3.092413544654846191e-01 -6.202847696840763092e-03
4.550000000000000000e+02 1.234321713447570801e+00 -3.748619079589843750e+01 6.722361780703067780e-03 -1.061535000801086426e+00 -3.164438009262084961e-01 -1.425134716555476189e-03
4.560000000000000000e+02 7.572202205657958984e+00 -4.102145767211914062e+01 2.560744620859622955e-02 -6.223776936531066895e-01 -1.790310740470886230e-01 -1.294214371591806412e-02
4.570000000000000000e+02 6.915442466735839844e+00 -3.849530029296875000e+01 1.561186090111732483e-02 -6.592749953269958496e-01 -1.930989325046539307e-01 -2.617982402443885803e-02
4.580000000000000000e+02 4.680620193481445312e+01 -3.236308670043945312e+01 3.451237380504608154e-01 4.613163948059082031e+00 1.487486362457275391e+00 8.545263856649398804e-02
4.590000000000000000e+02 4.549287796020507812e+01 -2.570089340209960938e+01 -1.510703712701797485e-01 3.047260284423828125e+00 8.688569664955139160e-01 -2.533593177795410156e-01
4.600000000000000000e+02 4.831714248657226562e+01 -2.038485145568847656e+01 -2.080334126949310303e-01 3.476652622222900391e+00 9.805857539176940918e-01 -2.832765504717826843e-02
4.610000000000000000e+02 4.597144699096679688e+01 -1.095287990570068359e+01 -9.309469908475875854e-02 2.626682043075561523e+00 7.600761651992797852e-01 -4.283644258975982666e-03
4.620000000000000000e+02 4.596009826660156250e+01 -1.242943763732910156e+01 -9.971449524164199829e-02 2.654798507690429688e+00 7.665252089500427246e-01 -2.188578620553016663e-02
4.630000000000000000e+02 3.877955627441406250e+01 -1.079033660888671875e+01 4.588609933853149414e-02 1.000425219535827637e+00 3.138934075832366943e-01 -7.687783241271972656e-02
4.640000000000000000e+02 3.970951080322265625e+01 -1.054432487487792969e+01 2.739450708031654358e-02 1.192028999328613281e+00 3.658270537853240967e-01 -7.032833993434906006e-02
4.650000000000000000e+02 4.070968246459960938e+01 -1.451545715332031250e+01 -4.343687370419502258e-02 1.421905159950256348e+00 4.135404825210571289e-01 -1.263291835784912109e-01
4.660000000000000000e+02 3.974957656860351562e+01 -1.706434631347656250e+01 -5.093634501099586487e-02 1.152406454086303711e+00 3.304410278797149658e-01 -1.524000018835067749e-01
4.670000000000000000e+02 5.009535217285156250e+01 -1.931510353088378906e+01 -2.052073776721954346e-01 3.827592372894287109e+00 1.086715459823608398e+00 5.500662326812744141e-02
4.680000000000000000e+02 7.236270904541015625e+01 -4.106168365478515625e+01 1.014850139617919922e-01 7.450058937072753906e+00 2.265463113784790039e+00 2.993499115109443665e-02
4.690000000000000000e+02 7.870843505859375000e+01 -4.039102554321289062e+01 -1.043040864169597626e-02 8.166202545166015625e+00 2.446731567382812500e+00 5.975471436977386475e-02
4.700000000000000000e+02 7.691115570068359375e+01 -3.761266326904296875e+01 8.266922086477279663e-03 8.037070274353027344e+00 2.413601160049438477e+00 7.690525799989700317e-02
4.710000000000000000e+02 7.788986968994140625e+01 -3.057054710388183594e+01 3.619777737185359001e-03 8.324273109436035156e+00 2.498368024826049805e+00 7.743039727210998535e-02
4.720000000000000000e+02 7.801538848876953125e+01 -2.376336097717285156e+01 -2.099537057802081108e-03 8.603109359741210938e+00 2.580302953720092773e+00 8.251331746578216553e-02
4.730000000000000000e+02 7.800413513183593750e+01 -1.686373138427734375e+01 -2.365518128499388695e-03 8.875670433044433594e+00 2.661991357803344727e+00 7.213144004344940186e-02
4.740000000000000000e+02 7.792368316650390625e+01 -9.893595695495605469e+00 -7.741317618638277054e-03 9.089514732360839844e+00 2.724532127380371094e+00 4.851325973868370056e-02
4.750000000000000000e+02 7.932302856445312500e+01 -1.259006690979003906e+01 3.135415900032967329e-04 9.289477348327636719e+00 2.786937236785888672e+00 1.271943841129541397e-02
4.760000000000000000e+02 7.115333557128906250e+01 -1.058661270141601562e+01 -6.512024998664855957e-02 7.754101753234863281e+00 2.306694507598876953e+00 1.982146650552749634e-01
4.770000000000000000e+02 7.251764678955078125e+01 -1.178944396972656250e+01 -4.743597283959388733e-02 7.989713191986083984e+00 2.382683277130126953e+00 1.855498701333999634e-01
4.780000000000000000e+02 7.257971191406250000e+01 -1.864030647277832031e+01 -2.840446121990680695e-02 7.858559131622314453e+00 2.349046468734741211e+00 2.414757758378982544e-01
4.790000000000000000e+02 7.256446075439453125e+01 -2.381558036804199219e+01 7.899487391114234924e-04 7.754579067230224609e+00 2.326610803604125977e+00 2.479005903005599976e-01
4.800000000000000000e+02 7.388917541503906250e+01 -3.130390548706054688e+01 3.617566078901290894e-02 7.776861190795898438e+00 2.343910932540893555e+00 1.768719404935836792e-01
4.810000000000000000e+02 6.382031631469726562e+01 -3.748295974731445312e+01 3.148921132087707520e-01 6.233277797698974609e+00 1.964450955390930176e+00 1.686192750930786133e-01
4.820000000000000000e+02 6.763067626953125000e+01 -4.102746963500976562e+01 2.157778888940811157e-01 6.805442333221435547e+00 2.106365919113159180e+00 3.497549518942832947e-02
4.830000000000000000e+02 7.926692199707031250e+01 3.194149208068847656e+01 -1.235624868422746658e-02 3.902145862579345703e+00 1.166936874389648438e+00 -1.918603777885437012e-01
4.840000000000000000e+02 7.910499572753906250e+01 3.755078887939453125e+01 4.632916674017906189e-02 3.248968601226806641e+00 9.885893464088439941e-01 6.315175443887710571e-02
4.850000000000000000e+02 6.939250183105468750e+01 3.589260482788085938e+01 1.230149149894714355e+00 8.398646354675292969e+00 2.888638734817504883e+00 -3.386914432048797607e-01
4.860000000000000000e+02 4.532195663452148438e+01 3.499279785156250000e+01 1.059542596340179443e-01 4.304201528429985046e-02 4.469888284802436829e-02 7.841520011425018311e-02
4.870000000000000000e+02 4.266105270385742188e+01 3.644347000122070312e+01 9.783694148063659668e-02 7.235177606344223022e-02 5.105661600828170776e-02 7.034600526094436646e-02
4.880000000000000000e+02 4.098968887329101562e+01 3.896741485595703125e+01 8.083112537860870361e-02 7.099776715040206909e-02 4.554866999387741089e-02 1.461193431168794632e-02
4.890000000000000000e+02 3.200473022460937500e+01 3.895230102539062500e+01 4.390551522374153137e-02 6.936728209257125854e-02 3.398184105753898621e-02 1.479113567620515823e-02
4.900000000000000000e+02 1.766745185852050781e+01 4.081483078002929688e+01 -4.202854353934526443e-03 3.605027124285697937e-02 9.554225020110607147e-03 2.330252202227711678e-03
4.910000000000000000e+02 2.460546016693115234e+00 3.688109970092773438e+01 2.361289443797431886e-05 -1.145080476999282837e-01 -3.434533253312110901e-02 -5.103962495923042297e-03
4.920000000000000000e+02 7.392209172248840332e-01 3.315421295166015625e+01 6.050033261999487877e-04 -1.390060633420944214e-01 -4.152031987905502319e-02 -1.997370040044188499e-03
4.930000000000000000e+02 2.007559537887573242e+00 3.001911926269531250e+01 -1.497501973062753677e-03 -1.307301372289657593e-01 -3.966829180717468262e-02 -6.199507508426904678e-03
4.940000000000000000e+02 6.310268640518188477e-01 2.752219009399414062e+01 7.056976319290697575e-04 -1.584372222423553467e-01 -4.731945693492889404e-02 -3.042308147996664047e-03
4.950000000000000000e+02 1.850469708442687988e+00 2.584260559082031250e+01 3.169814590364694595e-04 -1.465543955564498901e-01 -4.387122392654418945e-02 -8.904411457479000092e-03
4.960000000000000000e+02 6.207374095916748047e+00 1.957864761352539062e+01 -9.898690041154623032e-04 -6.505169719457626343e-02 -1.981247030198574066e-02 -2.171646058559417725e-02
4.970000000000000000e+02 1.693885040283203125e+01 6.701128482818603516e+00 2.200944274663925171e-01 2.291432917118072510e-01 1.347713172435760498e-01 2.297178208827972412e-01
4.980000000000000000e+02 2.140341949462890625e+01 1.133830642700195312e+01 1.558351516723632812e-01 1.674213111400604248e-01 9.697693586349487305e-02 1.612232476472854614e-01
4.990000000000000000e+02 2.481517410278320312e+01 1.473998165130615234e+01 1.301665306091308594e-01 1.193261072039604187e-01 7.484778761863708496e-02 1.264270544052124023e-01
5.000000000000000000e+02 2.624404525756835938e+01 1.614764595031738281e+01 1.166765466332435608e-01 1.291008293628692627e-01 7.373321056365966797e-02 1.222603097558021545e-01
5.010000000000000000e+02 2.510806465148925781e+01 1.570777130126953125e+01 1.150881797075271606e-01 1.243662536144256592e-01 7.183632999658584595e-02 1.237597838044166565e-01
5.020000000000000000e+02 3.078328895568847656e+01 2.064210128784179688e+01 9.388275444507598877e-02 9.328497946262359619e-02 5.615032091736793518e-02 9.306064993143081665e-02
5.030000000000000000e+02 2.569510459899902344e+01 2.856931877136230469e+01 2.792740426957607269e-02 9.295068681240081787e-02 3.626342862844467163e-02 5.372088775038719177e-02
5.040000000000000000e+02 1.305962085723876953e+01 3.800901412963867188e+01 -7.602368947118520737e-03 -2.312321914359927177e-03 -2.974407281726598740e-03 -6.391092319972813129e-04
5.050000000000000000e+02 1.687867355346679688e+01 2.724123191833496094e+01 -4.473789595067501068e-03 6.469814479351043701e-02 1.806730777025222778e-02 2.029261551797389984e-02
5.060000000000000000e+02 1.461731719970703125e+01 2.848676872253417969e+01 -6.619987078011035919e-03 4.069872945547103882e-02 1.022362243384122849e-02 7.119080983102321625e-03
5.070000000000000000e+02 7.263824939727783203e+00 3.247743988037109375e+01 -6.985760759562253952e-03 -5.703294649720191956e-02 -1.920561306178569794e-02 -9.013230912387371063e-03
5.080000000000000000e+02 9.284167289733886719e+00 3.823524475097656250e+01 -5.949930753558874130e-03 -3.706701099872589111e-02 -1.290508266538381577e-02 -3.122278256341814995e-03
5.090000000000000000e+02 2.055398941040039062e+00 4.163598251342773438e+01 -4.318730905652046204e-03 -1.159393042325973511e-01 -3.607740998268127441e-02 -1.218894612975418568e-03
5.100000000000000000e+02 5.719340443611145020e-01 2.047323799133300781e+01 -1.659461297094821930e-03 -2.028789818286895752e-01 -6.136153265833854675e-02 -4.248674958944320679e-03
5.110000000000000000e+02 1.703025817871093750e+00 1.607672500610351562e+01 -3.114529827143996954e-04 -2.003348916769027710e-01 -6.019390374422073364e-02 -1.135240215808153152e-02
5.120000000000000000e+02 6.582432270050048828e+00 1.121829509735107422e+01 5.549607425928115845e-02 -6.015102937817573547e-02 -1.396485953591763973e-03 -4.310349933803081512e-03
5.130000000000000000e+02 1.394142341613769531e+01 3.434098720550537109e+00 3.218933641910552979e-01 1.727278113365173340e+00 6.147514581680297852e-01 5.334540605545043945e-01
5.140000000000000000e+02 1.664838027954101562e+01 6.425217628479003906e+00 2.484988421201705933e-01 2.609091401100158691e-01 1.528223901987075806e-01 2.489803135395050049e-01
5.150000000000000000e+02 1.607793807983398438e+01 5.853554725646972656e+00 2.573104202747344971e-01 3.596113622188568115e-01 1.850765347480773926e-01 2.857457995414733887e-01
5.160000000000000000e+02 5.552473068237304688e-01 1.485278320312500000e+01 -1.088745659217238426e-03 -2.478425204753875732e-01 -7.467938214540481567e-02 -3.513938747346401215e-03
5.170000000000000000e+02 1.539350271224975586e+00 9.230329513549804688e+00 9.474488906562328339e-03 -2.002823054790496826e-01 -5.724234506487846375e-02 2.137495949864387512e-02
5.180000000000000000e+02 8.976605415344238281e+00 1.812117815017700195e+00 -2.810393869876861572e-01 -2.121620476245880127e-01 -1.479604244232177734e-01 3.704948127269744873e-01
5.190000000000000000e+02 1.052367877960205078e+01 1.708001613616943359e+00 -1.970946192741394043e-01 -3.975262641906738281e-01 -1.783862709999084473e-01 4.894082546234130859e-01
5.200000000000000000e+02 1.127313804626464844e+01 1.576358318328857422e+00 -7.096508890390396118e-02 -4.303350448608398438e-01 -1.503900438547134399e-01 5.050463080406188965e-01
5.210000000000000000e+02 2.157682657241821289e+00 3.350304603576660156e+00 -1.724353060126304626e-02 -6.606666743755340576e-02 -2.499306015670299530e-02 6.637816876173019409e-02
5.220000000000000000e+02 5.317624211311340332e-01 6.438164710998535156e+00 3.225716063752770424e-04 -1.663093119859695435e-01 -4.979602247476577759e-02 1.871943846344947815e-02
5.230000000000000000e+02 5.246879577636718750e+00 2.609179019927978516e+00 -8.681115508079528809e-02 -6.603861600160598755e-02 -4.585492983460426331e-02 1.496073901653289795e-01
5.240000000000000000e+02 1.382047939300537109e+01 4.686587810516357422e+00 1.414816677570343018e-01 8.974543809890747070e-01 3.116808235645294189e-01 1.777890324592590332e-01
5.250000000000000000e+02 1.383868312835693359e+01 1.714296936988830566e+00 1.678138494491577148e+00 3.133244991302490234e+00 1.443415045738220215e+00 -1.580381274223327637e+00
5.260000000000000000e+02 1.411781406402587891e+01 1.345381498336791992e+00 2.887384891510009766e+00 2.924645662307739258e+00 1.743609070777893066e+00 -2.163535833358764648e+00
5.270000000000000000e+02 1.541033267974853516e+01 8.580548763275146484e-01 7.671121597290039062e+00 1.969795823097229004e-01 2.360430240631103516e+00 -7.200177907943725586e-01
5.280000000000000000e+02 3.138153266906738281e+01 2.119221878051757812e+01 9.014245867729187012e-02 8.423049747943878174e-02 5.231188610196113586e-02 8.731815218925476074e-02
5.290000000000000000e+02 2.794891357421875000e+01 3.852955627441406250e+01 2.701040916144847870e-02 8.004269748926162720e-02 3.211593255400657654e-02 1.927644014358520508e-02
5.300000000000000000e+02 3.539303588867187500e+01 2.563356399536132812e+01 6.945627927780151367e-02 8.952604234218597412e-02 4.769469425082206726e-02 7.827220857143402100e-02
5.310000000000000000e+02 3.960574340820312500e+01 3.572174072265625000e+01 8.761893212795257568e-02 7.170036435127258301e-02 4.779578745365142822e-02 6.042984500527381897e-02
5.320000000000000000e+02 4.563220596313476562e+01 3.529197311401367188e+01 1.027044281363487244e-01 5.557454004883766174e-02 4.748369008302688599e-02 7.595083862543106079e-02
5.330000000000000000e+02 5.394647216796875000e+01 3.744274520874023438e+01 6.643524765968322754e-02 -1.727503061294555664e+00 -4.983203411102294922e-01 1.515267044305801392e-01
5.340000000000000000e+02 7.130638122558593750e+01 -2.728589296340942383e+00 -1.145604923367500305e-01 7.880437850952148438e+00 2.329763174057006836e+00 6.269636005163192749e-02
5.350000000000000000e+02 6.660620117187500000e+01 -3.553705453872680664e+00 -2.034743428230285645e-01 6.976557254791259766e+00 2.031924962997436523e+00 1.370387375354766846e-01
5.360000000000000000e+02 5.922391128540039062e+01 -9.299002289772033691e-01 -3.225732445716857910e-01 5.507078170776367188e+00 1.555351495742797852e+00 2.424432039260864258e-01
5.370000000000000000e+02 4.768208312988281250e+01 -5.427548885345458984e+00 -1.073685735464096069e-01 2.890159606933593750e+00 8.348373174667358398e-01 1.532489657402038574e-01
5.380000000000000000e+02 4.146924591064453125e+01 -6.381254673004150391e+00 4.684577137231826782e-02 1.525908231735229492e+00 4.718261957168579102e-01 2.579095773398876190e-02
5.390000000000000000e+02 3.459162139892578125e+01 -7.089231014251708984e+00 1.554332077503204346e-01 2.589362263679504395e-01 1.243108287453651428e-01 -2.107988856732845306e-02
5.400000000000000000e+02 2.743806076049804688e+01 -6.306696414947509766e+00 6.899448484182357788e-02 5.293330177664756775e-03 2.228634431958198547e-02 -8.769422024488449097e-02
5.410000000000000000e+02 3.312202453613281250e+01 -1.070707702636718750e+01 4.699855297803878784e-02 1.259952411055564880e-02 1.787942275404930115e-02 2.041087485849857330e-02
5.420000000000000000e+02 3.420468139648437500e+01 -1.655578613281250000e+01 -8.255252987146377563e-02 -1.406678408384323120e-01 -6.696610897779464722e-02 1.186678111553192139e-01
5.430000000000000000e+02 6.267639541625976562e+01 -1.952945899963378906e+01 -8.229565620422363281e-02 6.174261569976806641e+00 1.827589869499206543e+00 3.380803763866424561e-01
5.440000000000000000e+02 6.711131286621093750e+01 -1.063611221313476562e+01 -1.260218471288681030e-01 6.980313777923583984e+00 2.056287527084350586e+00 2.348609864711761475e-01
5.450000000000000000e+02 6.584896087646484375e+01 -1.203192806243896484e+01 -1.214461773633956909e-01 6.745643138885498047e+00 1.987259149551391602e+00 2.593189179897308350e-01
5.460000000000000000e+02 5.964494323730468750e+01 -1.512020492553710938e+01 -1.607826650142669678e-01 5.601068019866943359e+00 1.632085680961608887e+00 2.776443958282470703e-01
5.470000000000000000e+02 5.475110244750976562e+01 -1.868198013305664062e+01 -1.839829087257385254e-01 4.751219749450683594e+00 1.370171070098876953e+00 2.192662507295608521e-01
5.480000000000000000e+02 6.580231475830078125e+01 -2.732659721374511719e+01 7.363996654748916626e-02 6.642209529876708984e+00 2.014754772186279297e+00 3.514690399169921875e-01
5.490000000000000000e+02 6.544724273681640625e+01 -1.793583488464355469e+01 -8.261415362358093262e-02 6.652206420898437500e+00 1.970877766609191895e+00 3.242422938346862793e-01
5.500000000000000000e+02 7.934180450439453125e+01 -2.232567596435546875e+01 -1.428842660970985889e-03 8.878475189208984375e+00 2.663113832473754883e+00 2.381864935159683228e-02
5.510000000000000000e+02 7.142420196533203125e+01 -1.728840255737304688e+01 -4.171156510710716248e-02 7.695235252380371094e+00 2.296056985855102539e+00 2.533682286739349365e-01
5.520000000000000000e+02 3.127763938903808594e+01 -1.193655109405517578e+01 -6.839386373758316040e-02 -2.479421198368072510e-01 -9.490079432725906372e-02 1.567447036504745483e-01
5.530000000000000000e+02 5.329523849487304688e+01 -1.851709938049316406e+01 -1.764223426580429077e-01 4.478110790252685547e+00 1.290506601333618164e+00 1.772319972515106201e-01
5.540000000000000000e+02 5.451391601562500000e+01 -2.048485946655273438e+01 -1.485253870487213135e-01 4.762533187866210938e+00 1.384202361106872559e+00 2.323761731386184692e-01
5.550000000000000000e+02 6.594347381591796875e+01 -3.189376449584960938e+01 1.492734700441360474e-01 6.638617038726806641e+00 2.036367177963256836e+00 2.894914746284484863e-01
5.560000000000000000e+02 6.664195251464843750e+01 -2.435457229614257812e+01 1.533939875662326813e-02 6.796755313873291016e+00 2.043628454208374023e+00 3.523797988891601562e-01
5.570000000000000000e+02 7.933949279785156250e+01 -2.648423194885253906e+01 -4.124363767914474010e-04 8.682894706726074219e+00 2.604744672775268555e+00 2.620113268494606018e-02
5.580000000000000000e+02 7.117758178710937500e+01 -2.364442443847656250e+01 1.892225001938641071e-03 7.512815952301025391e+00 2.254412412643432617e+00 2.925723791122436523e-01
5.590000000000000000e+02 4.236797714233398438e+01 -2.595999145507812500e+01 1.070301234722137451e-02 1.878254413604736328e+00 5.666872262954711914e-01 -4.545912742614746094e-01
5.600000000000000000e+02 4.632295989990234375e+01 -2.444645690917968750e+01 -1.832444220781326294e-01 3.211208343505859375e+00 9.083891510963439941e-01 -1.908506304025650024e-01
5.610000000000000000e+02 5.608147811889648438e+01 -2.070229530334472656e+01 -1.518528312444686890e-01 5.045442104339599609e+00 1.468076825141906738e+00 2.793481647968292236e-01
5.620000000000000000e+02 6.276479339599609375e+01 -4.079640197753906250e+01 3.838499188423156738e-01 6.081357955932617188e+00 1.939562439918518066e+00 6.521666795015335083e-02
5.630000000000000000e+02 6.507585144042968750e+01 -3.448362731933593750e+01 2.361095696687698364e-01 6.463430404663085938e+00 2.009861946105957031e+00 2.455102652311325073e-01
5.640000000000000000e+02 7.916739654541015625e+01 -3.343522644042968750e+01 -2.261184388771653175e-03 8.386774063110351562e+00 2.515353679656982422e+00 2.733803726732730865e-02
5.650000000000000000e+02 7.290959167480468750e+01 -3.079906082153320312e+01 3.554971888661384583e-02 7.624826431274414062e+00 2.298112869262695312e+00 1.941048651933670044e-01
5.660000000000000000e+02 4.392045211791992188e+01 -3.288871383666992188e+01 6.320427656173706055e-01 4.251372814178466797e+00 1.465024709701538086e+00 -1.290511846542358398e+00
5.670000000000000000e+02 4.750027465820312500e+01 -2.998938369750976562e+01 7.004319131374359131e-02 4.168386459350585938e+00 1.271528840065002441e+00 5.844772607088088989e-02
5.680000000000000000e+02 5.534883117675781250e+01 -3.057811546325683594e+01 2.513038814067840576e-01 5.106091022491455078e+00 1.607218384742736816e+00 3.629824817180633545e-01
5.690000000000000000e+02 5.523293685913085938e+01 -3.397039794921875000e+01 5.005080699920654297e-01 5.115828037261962891e+00 1.684900760650634766e+00 3.094712197780609131e-01
5.700000000000000000e+02 5.785771560668945312e+01 -4.072218704223632812e+01 5.493785142898559570e-01 5.452744960784912109e+00 1.800637006759643555e+00 6.006529927253723145e-02
5.710000000000000000e+02 3.282125854492187500e+01 -3.251755905151367188e+01 3.771552443504333496e-01 6.165659427642822266e-01 2.981163561344146729e-01 -4.945230484008789062e-01
5.720000000000000000e+02 2.672972106933593750e+01 -3.307497406005859375e+01 2.755638659000396729e-01 4.145542383193969727e-01 2.070354223251342773e-01 -2.517609894275665283e-01
5.730000000000000000e+02 2.684590148925781250e+01 -3.118601989746093750e+01 2.151782661676406860e-01 4.401895403861999512e-01 1.966103464365005493e-01 -2.573167383670806885e-01
5.740000000000000000e+02 1.844315338134765625e+01 -3.595090103149414062e+01 1.499566733837127686e-01 -2.052832394838333130e-02 3.882850334048271179e-02 -1.022741720080375671e-01
5.750000000000000000e+02 4.590805816650390625e+01 -3.812213134765625000e+01 8.631647229194641113e-01 4.854271411895751953e+00 1.715230822563171387e+00 7.548773288726806641e-02
5.760000000000000000e+02 1.810173797607421875e+01 -2.184077835083007812e+01 1.314176917076110840e-01 8.074522018432617188e-02 6.364887207746505737e-02 -2.247024029493331909e-01
5.770000000000000000e+02 1.761726760864257812e+01 -2.382176589965820312e+01 1.246760562062263489e-01 4.392665624618530273e-02 5.058081448078155518e-02 -2.146114856004714966e-01
5.780000000000000000e+02 7.061595439910888672e+00 -2.689037704467773438e+01 3.488091751933097839e-02 -5.543204545974731445e-01 -1.558318585157394409e-01 -1.199757754802703857e-01
5.790000000000000000e+02 2.813332366943359375e+01 -2.405156707763671875e+01 1.745428144931793213e-01 6.475161314010620117e-01 2.466176897287368774e-01 -3.236245214939117432e-01
5.800000000000000000e+02 2.575961112976074219e+01 -2.218787574768066406e+01 1.505185514688491821e-01 5.177690386772155762e-01 2.004862874746322632e-01 -2.956472039222717285e-01
5.810000000000000000e+02 6.689672470092773438e+00 -1.664461708068847656e+01 5.006963759660720825e-02 -4.313149750232696533e-01 -1.143736019730567932e-01 -2.166499197483062744e-01
5.820000000000000000e+02 7.037086009979248047e+00 -1.940782928466796875e+01 5.057526379823684692e-02 -4.630383551120758057e-01 -1.237389296293258667e-01 -1.866159439086914062e-01
5.830000000000000000e+02 1.887353515625000000e+01 -1.680690002441406250e+01 1.626652181148529053e-01 1.378676593303680420e-01 9.015986323356628418e-02 -2.338809818029403687e-01
5.840000000000000000e+02 1.335553741455078125e+01 -9.499312400817871094e+00 7.372081279754638672e-02 -2.865010201930999756e-01 -6.383406370878219604e-02 -3.839893639087677002e-01
5.850000000000000000e+02 2.270110702514648438e+01 4.087990570068359375e+01 5.452239885926246643e-03 6.395057588815689087e-02 2.082084491848945618e-02 5.125059280544519424e-03
5.860000000000000000e+02 2.312742424011230469e+01 3.049330139160156250e+01 1.435862947255373001e-02 8.481551706790924072e-02 2.975224331021308899e-02 3.900571167469024658e-02
5.870000000000000000e+02 7.319092559814453125e+01 3.293668746948242188e+01 5.841639041900634766e-01 6.878764629364013672e+00 2.238878488540649414e+00 -9.909161925315856934e-01
5.880000000000000000e+02 7.270413970947265625e+01 3.414417266845703125e+01 6.570380330085754395e-01 6.918874263763427734e+00 2.272773504257202148e+00 -7.896431684494018555e-01
5.890000000000000000e+02 6.244706344604492188e+01 2.877267837524414062e+01 -1.721022129058837891e-01 1.150289440155029297e+01 3.399237871170043945e+00 -7.390891313552856445e-01
5.900000000000000000e+02 6.284243392944335938e+01 2.815821075439453125e+01 -3.161105513572692871e-01 1.099036693572998047e+01 3.202276945114135742e+00 -7.929134964942932129e-01
5.910000000000000000e+02 4.019212722778320312e+01 2.147551155090332031e+01 -5.560501813888549805e-01 -4.410971999168395996e-01 -2.991442084312438965e-01 -5.044833421707153320e-01
5.920000000000000000e+02 4.873451995849609375e+01 2.274501228332519531e+01 -5.456572864204645157e-03 1.650180339813232422e+00 4.934171140193939209e-01 7.756646871566772461e-01
5.930000000000000000e+02 6.069718551635742188e+01 1.602854919433593750e+01 -9.948385953903198242e-01 6.937320709228515625e+00 1.782744646072387695e+00 2.780946493148803711e-01
5.940000000000000000e+02 6.629992675781250000e+01 1.623150634765625000e+01 -8.611939549446105957e-01 7.897716522216796875e+00 2.110956668853759766e+00 -5.302857160568237305e-01
5.950000000000000000e+02 7.355551910400390625e+01 1.592142772674560547e+01 -3.013594448566436768e-01 8.075141906738281250e+00 2.332134962081909180e+00 -7.937309741973876953e-01
5.960000000000000000e+02 7.352606964111328125e+01 1.723605537414550781e+01 -3.013340234756469727e-01 8.018681526184082031e+00 2.315204143524169922e+00 -8.885302543640136719e-01
5.970000000000000000e+02 6.649155426025390625e+01 1.737649345397949219e+01 -8.937088251113891602e-01 8.049665451049804688e+00 2.146786928176879883e+00 -6.330364346504211426e-01
5.980000000000000000e+02 3.324281692504882812e+01 1.379072761535644531e+01 -9.174859523773193359e-01 -9.425331354141235352e-01 -5.580057501792907715e-01 -9.152358174324035645e-01
5.990000000000000000e+02 3.356945037841796875e+01 1.354660320281982422e+01 -8.382248282432556152e-01 -8.673797249794006348e-01 -5.116813778877258301e-01 -8.287868499755859375e-01
6.000000000000000000e+02 4.570591354370117188e+01 2.666005516052246094e+01 -2.206766903400421143e-01 -1.862738877534866333e-01 -1.220851764082908630e-01 -2.051296085119247437e-01
6.010000000000000000e+02 4.782744216918945312e+01 1.501154327392578125e+01 -3.067471385002136230e-01 2.324118614196777344e+00 6.052114963531494141e-01 5.939629673957824707e-01
6.020000000000000000e+02 5.967742538452148438e+01 1.025706195831298828e+01 -7.069222331047058105e-01 6.092337131500244141e+00 1.615624547004699707e+00 2.767990231513977051e-01
6.030000000000000000e+02 6.766565704345703125e+01 8.861181259155273438e+00 -4.862077534198760986e-01 7.485400199890136719e+00 2.099757671356201172e+00 -2.385900616645812988e-01
6.040000000000000000e+02 7.369609832763671875e+01 1.087047100067138672e+01 -2.219653874635696411e-01 8.259103775024414062e+00 2.411141633987426758e+00 -4.455775618553161621e-01
6.050000000000000000e+02 7.254135131835937500e+01 1.202457141876220703e+01 -3.106739819049835205e-01 8.121024131774902344e+00 2.343104839324951172e+00 -5.370932221412658691e-01
6.060000000000000000e+02 6.656183624267578125e+01 1.127763557434082031e+01 -6.512684226036071777e-01 7.464828014373779297e+00 2.044067859649658203e+00 -2.859824895858764648e-01
6.070000000000000000e+02 3.273017501831054688e+01 5.588836193084716797e+00 -4.872257411479949951e-01 -2.203938812017440796e-01 -2.122858762741088867e-01 -3.456643223762512207e-01
6.080000000000000000e+02 6.415536499023437500e+01 -1.025081634521484375e+00 -2.862402796745300293e-01 6.530563831329345703e+00 1.873297095298767090e+00 1.439172625541687012e-01
6.090000000000000000e+02 7.195436859130859375e+01 5.031140327453613281e+00 -2.044299840927124023e-01 8.058011054992675781e+00 2.356074333190917969e+00 -1.726401895284652710e-01
6.100000000000000000e+02 3.878777313232421875e+01 2.006732559204101562e+01 -4.724308848381042480e-01 -6.002683639526367188e-01 -3.218097686767578125e-01 -5.445424914360046387e-01
6.110000000000000000e+02 7.882641792297363281e+00 3.021830749511718750e+01 -7.173716090619564056e-03 -4.817085340619087219e-02 -1.660337112843990326e-02 -1.035931333899497986e-02
6.120000000000000000e+02 6.649712085723876953e+00 2.449288368225097656e+01 -4.823563620448112488e-03 -6.199307739734649658e-02 -2.004499174654483795e-02 -1.677913777530193329e-02
6.130000000000000000e+02 1.801722908020019531e+01 1.313978958129882812e+01 8.015359193086624146e-02 1.837294399738311768e-01 7.916490733623504639e-02 1.188265681266784668e-01
6.140000000000000000e+02 1.403195571899414062e+01 2.626010322570800781e+01 -7.925594225525856018e-03 4.315558820962905884e-02 1.056899782270193100e-02 7.089382968842983246e-03
6.150000000000000000e+02 1.289048480987548828e+01 2.549792480468750000e+01 -8.554857224225997925e-03 3.635912761092185974e-02 8.341280743479728699e-03 4.028304945677518845e-03
6.160000000000000000e+02 2.773568725585937500e+01 2.281595230102539062e+01 5.626044794917106628e-02 1.056780442595481873e-01 4.858154803514480591e-02 8.210615068674087524e-02
6.170000000000000000e+02 2.550410079956054688e+01 2.162191772460937500e+01 5.547476932406425476e-02 1.173819601535797119e-01 5.185701698064804077e-02 8.482564240694046021e-02
6.180000000000000000e+02 7.479311943054199219e+00 2.290434837341308594e+01 -5.625990219414234161e-03 -4.286744073033332825e-02 -1.454802975058555603e-02 -1.740798354148864746e-02
6.190000000000000000e+02 7.574256420135498047e+00 1.637528228759765625e+01 7.050008047372102737e-03 -2.327709831297397614e-02 -4.868127405643463135e-03 -1.832753792405128479e-02
6.200000000000000000e+02 1.933304595947265625e+01 1.437589550018310547e+01 8.316294103860855103e-02 1.660076975822448730e-01 7.475119084119796753e-02 1.144857183098793030e-01
6.210000000000000000e+02 6.249083995819091797e+00 1.254453563690185547e+01 3.456079587340354919e-02 -6.392031162977218628e-02 -8.807854726910591125e-03 -1.008687168359756470e-02
6.220000000000000000e+02 2.449428176879882812e+01 -3.211158514022827148e+00 5.178313851356506348e-01 3.321961164474487305e-01 2.550082504749298096e-01 -2.949268519878387451e-01
6.230000000000000000e+02 2.835019683837890625e+01 -7.317718505859375000e+00 8.272743225097656250e-02 -7.123779505491256714e-02 3.446892602369189262e-03 2.393656596541404724e-02
6.240000000000000000e+02 3.003030967712402344e+01 -7.893810749053955078e+00 1.033434793353080750e-01 -1.628588289022445679e-01 -1.785460673272609711e-02 1.106168795377016068e-02
6.250000000000000000e+02 2.918943405151367188e+01 -8.401355743408203125e+00 -4.946833476424217224e-02 -1.907415091991424561e-01 -7.206295430660247803e-02 6.530873477458953857e-02
6.260000000000000000e+02 3.150032043457031250e+01 -1.018771457672119141e+01 1.847661100327968597e-02 -1.441280990839004517e-01 -3.769544884562492371e-02 7.003912329673767090e-02
6.270000000000000000e+02 3.348434829711914062e+01 -1.539000797271728516e+01 -1.021604463458061218e-01 -1.987615525722503662e-01 -9.027659893035888672e-02 1.420961916446685791e-01
6.280000000000000000e+02 3.492926788330078125e+01 -1.772357940673828125e+01 -7.108891010284423828e-02 -6.783132255077362061e-02 -4.167607054114341736e-02 8.556354045867919922e-02
6.290000000000000000e+02 3.639059066772460938e+01 -2.007802009582519531e+01 -3.308240324258804321e-02 1.186822280287742615e-01 2.567994780838489532e-02 3.940755501389503479e-03
6.300000000000000000e+02 3.772571563720703125e+01 -2.251185989379882812e+01 2.199253998696804047e-02 3.084122836589813232e-01 9.912144392728805542e-02 -9.851846843957901001e-02
6.310000000000000000e+02 3.907592391967773438e+01 -2.491602134704589844e+01 1.050394475460052490e-01 5.880742669105529785e-01 2.079341113567352295e-01 -2.498071640729904175e-01
6.320000000000000000e+02 4.075467681884765625e+01 -2.238620376586914062e+01 -4.443417116999626160e-02 1.314319014549255371e+00 3.809654414653778076e-01 -2.813549935817718506e-01
6.330000000000000000e+02 4.209090805053710938e+01 -2.771647834777832031e+01 1.389206200838088989e-01 1.765436887741088867e+00 5.713072419166564941e-01 -5.799510478973388672e-01
6.340000000000000000e+02 4.189441299438476562e+01 -2.957596206665039062e+01 4.041061997413635254e-01 1.607819437980651855e+00 6.035776734352111816e-01 -7.691967487335205078e-01
6.350000000000000000e+02 4.330875778198242188e+01 -3.183603858947753906e+01 5.612444877624511719e-01 2.807439327239990234e+00 1.010605096817016602e+00 -1.213608860969543457e+00
6.360000000000000000e+02 4.510693359375000000e+01 -3.313971328735351562e+01 5.696789622306823730e-01 4.601036071777343750e+00 1.551214456558227539e+00 -6.706535220146179199e-01
6.370000000000000000e+02 3.807984924316406250e+01 -3.878426742553710938e+01 8.920150995254516602e-01 4.114038646221160889e-01 3.910256922245025635e-01 -6.557134389877319336e-01
6.380000000000000000e+02 3.559796524047851562e+01 -3.560760879516601562e+01 5.394400954246520996e-01 4.710409343242645264e-01 3.031443059444427490e-01 -3.712828755378723145e-01
6.390000000000000000e+02 3.458956527709960938e+01 -3.468891143798828125e+01 3.551901578903198242e-01 4.681146144866943359e-01 2.469914406538009644e-01 -4.578174650669097900e-01
6.400000000000000000e+02 3.367970275878906250e+01 -3.362179946899414062e+01 4.408184885978698730e-01 5.477492213249206543e-01 2.965703010559082031e-01 -4.321961104869842529e-01
6.410000000000000000e+02 3.061977577209472656e+01 -2.900195312500000000e+01 2.354619801044464111e-01 7.305327057838439941e-01 2.897984087467193604e-01 -3.704631626605987549e-01
6.420000000000000000e+02 3.128605842590332031e+01 -3.020635032653808594e+01 2.409394234418869019e-01 7.508416175842285156e-01 2.975343167781829834e-01 -4.389216601848602295e-01
6.430000000000000000e+02 2.695655059814453125e+01 -2.156541061401367188e+01 1.554766893386840820e-01 5.971424579620361328e-01 2.257857471704483032e-01 -3.048737049102783203e-01
6.440000000000000000e+02 2.516765975952148438e+01 -2.095532608032226562e+01 1.565125882625579834e-01 4.902783930301666260e-01 1.940372884273529053e-01 -2.917743921279907227e-01
6.450000000000000000e+02 2.754888725280761719e+01 -2.280624008178710938e+01 1.519379019737243652e-01 6.199819445610046387e-01 2.315759658813476562e-01 -3.140446245670318604e-01
6.460000000000000000e+02 2.509889602661132812e+01 -1.789855957031250000e+01 1.604824364185333252e-01 5.072561502456665039e-01 2.003215700387954712e-01 -2.883072197437286377e-01
6.470000000000000000e+02 2.300837135314941406e+01 -1.438117218017578125e+01 1.915175467729568481e-01 4.865912199020385742e-01 2.034326344728469849e-01 -3.155460357666015625e-01
6.480000000000000000e+02 2.091736412048339844e+01 -1.079472732543945312e+01 1.719861030578613281e-01 4.179826676845550537e-01 1.769906282424926758e-01 -2.371277064085006714e-01
6.490000000000000000e+02 2.025326919555664062e+01 -9.550767898559570312e+00 1.123055070638656616e-01 3.724711835384368896e-01 1.454330086708068848e-01 -2.280528396368026733e-01
6.500000000000000000e+02 1.790827751159667969e+01 -2.966483592987060547e+00 -3.867083787918090820e-01 -5.516889095306396484e-01 -2.815192043781280518e-01 -5.552539229393005371e-01
6.510000000000000000e+02 5.605802536010742188e+01 3.677238464355468750e+01 1.271417021751403809e+00 1.828282833099365234e+00 9.299099445343017578e-01 -1.226723909378051758e+00
6.520000000000000000e+02 5.723664855957031250e+01 3.653205490112304688e+01 1.927158355712890625e+00 4.946766853332519531e+00 2.062177419662475586e+00 -3.368896961212158203e+00
6.530000000000000000e+02 5.741754150390625000e+01 3.651494598388671875e+01 1.959806084632873535e+00 6.541490077972412109e+00 2.550388813018798828e+00 -4.520675182342529297e+00
6.540000000000000000e+02 5.813074493408203125e+01 3.708087158203125000e+01 4.633849486708641052e-02 1.230714797973632812e+01 3.706045866012573242e+00 -4.266488075256347656e+00
6.550000000000000000e+02 5.810910415649414062e+01 3.654985427856445312e+01 8.462461829185485840e-01 1.254157924652099609e+01 4.016347408294677734e+00 -4.958323478698730469e+00
6.560000000000000000e+02 5.833683395385742188e+01 3.646656417846679688e+01 3.856765329837799072e-01 1.544407463073730469e+01 4.748925209045410156e+00 -4.651724338531494141e+00
6.570000000000000000e+02 5.862075042724609375e+01 3.663872909545898438e+01 -1.605563163757324219e-01 1.679714775085449219e+01 4.990977287292480469e+00 -4.137920379638671875e+00
6.580000000000000000e+02 5.588845062255859375e+01 3.345520401000976562e+01 2.793212652206420898e+00 1.086820483207702637e+00 1.164009928703308105e+00 1.525752544403076172e+00
6.590000000000000000e+02 5.528694915771484375e+01 3.317253875732421875e+01 2.070606470108032227e+00 9.601034522056579590e-01 9.092129468917846680e-01 1.101279973983764648e+00
6.600000000000000000e+02 5.223077392578125000e+01 3.309780883789062500e+01 -3.022991716861724854e-01 -7.422224283218383789e-01 -3.133564889430999756e-01 -4.572439491748809814e-01
6.610000000000000000e+02 5.271160507202148438e+01 3.237900924682617188e+01 4.687412381172180176e-01 -6.011515390127897263e-03 1.388189196586608887e-01 2.876513004302978516e-01
6.620000000000000000e+02 5.195755004882812500e+01 3.278933715820312500e+01 -2.766125202178955078e-01 -6.319274306297302246e-01 -2.725619673728942871e-01 -4.143182337284088135e-01
6.630000000000000000e+02 5.141906356811523438e+01 3.219195938110351562e+01 -2.161597758531570435e-01 -4.040673971176147461e-01 -1.860681474208831787e-01 -2.967682480812072754e-01
6.640000000000000000e+02 5.114912414550781250e+01 3.189935302734375000e+01 -1.763889938592910767e-01 -3.163103461265563965e-01 -1.478098034858703613e-01 -2.307125926017761230e-01
6.650000000000000000e+02 5.168773651123046875e+01 3.248846817016601562e+01 -2.550262510776519775e-01 -5.239772796630859375e-01 -2.337010651826858521e-01 -3.510887324810028076e-01
6.660000000000000000e+02 5.087717437744140625e+01 3.160999488830566406e+01 -1.355925053358078003e-01 -2.310063987970352173e-01 -1.099796742200851440e-01 -1.785164028406143188e-01
6.670000000000000000e+02 5.060187530517578125e+01 3.132316780090332031e+01 -1.023631393909454346e-01 -1.736055165529251099e-01 -8.279059827327728271e-02 -1.314727067947387695e-01
6.680000000000000000e+02 4.918366622924804688e+01 2.991933059692382812e+01 -4.802354425191879272e-02 -4.716828092932701111e-02 -2.855754829943180084e-02 -4.501969739794731140e-02
6.690000000000000000e+02 4.860711669921875000e+01 2.936883354187011719e+01 -6.594700366258621216e-02 -4.623881354928016663e-02 -3.365574404597282410e-02 -5.323847383260726929e-02
6.700000000000000000e+02 4.831589889526367188e+01 2.909707641601562500e+01 -7.984575629234313965e-02 -5.113409459590911865e-02 -3.929395601153373718e-02 -6.395801901817321777e-02
6.710000000000000000e+02 4.802312850952148438e+01 2.882748222351074219e+01 -9.733113646507263184e-02 -6.068432703614234924e-02 -4.740463942289352417e-02 -7.587195932865142822e-02
6.720000000000000000e+02 4.685136413574218750e+01 2.775455665588378906e+01 -1.663285344839096069e-01 -1.125248149037361145e-01 -8.365600556135177612e-02 -1.380558013916015625e-01
6.730000000000000000e+02 4.656144332885742188e+01 2.748409652709960938e+01 -1.804611235857009888e-01 -1.282135695219039917e-01 -9.260240197181701660e-02 -1.542052477598190308e-01
6.740000000000000000e+02 4.598573684692382812e+01 2.639435386657714844e+01 -1.755731403827667236e-01 -6.202484294772148132e-02 -7.127939164638519287e-02 -1.236746162176132202e-01
6.750000000000000000e+02 4.627385330200195312e+01 2.721190261840820312e+01 -1.945469826459884644e-01 -1.456088572740554810e-01 -1.020467504858970642e-01 -1.701709479093551636e-01
6.760000000000000000e+02 4.542567443847656250e+01 2.637930870056152344e+01 -2.352407574653625488e-01 -2.106588780879974365e-01 -1.337698847055435181e-01 -2.262067496776580811e-01
6.770000000000000000e+02 4.514776611328125000e+01 2.609535789489746094e+01 -2.565761208534240723e-01 -2.400270849466323853e-01 -1.489809602499008179e-01 -2.494818121194839478e-01
6.780000000000000000e+02 4.313609313964843750e+01 2.416154479980468750e+01 -4.652068912982940674e-01 -3.501867353916168213e-01 -2.446180880069732666e-01 -4.038880467414855957e-01
6.790000000000000000e+02 4.254604721069335938e+01 2.362811470031738281e+01 -4.862366318702697754e-01 -3.783317804336547852e-01 -2.593705356121063232e-01 -4.318758249282836914e-01
6.800000000000000000e+02 4.196363449096679688e+01 2.308532333374023438e+01 -5.172311663627624512e-01 -4.238755702972412109e-01 -2.823320329189300537e-01 -4.695824384689331055e-01
6.810000000000000000e+02 4.167366790771484375e+01 2.281078529357910156e+01 -5.450164675712585449e-01 -4.457216858863830566e-01 -2.972214519977569580e-01 -4.912092089653015137e-01
6.820000000000000000e+02 4.138185882568359375e+01 2.253732872009277344e+01 -5.763050913810729980e-01 -4.577787220478057861e-01 -3.102251589298248291e-01 -5.084802508354187012e-01
6.830000000000000000e+02 4.078874969482421875e+01 2.200249099731445312e+01 -5.984597206115722656e-01 -4.455605745315551758e-01 -3.132060766220092773e-01 -5.146913528442382812e-01
6.840000000000000000e+02 3.970065689086914062e+01 1.981486892700195312e+01 -4.658727645874023438e-01 -3.915812969207763672e-01 -2.572362124919891357e-01 -4.776536822319030762e-01
6.850000000000000000e+02 3.989884567260742188e+01 2.120698738098144531e+01 -5.300180315971374512e-01 -4.559054672718048096e-01 -2.957770526409149170e-01 -5.041942596435546875e-01
6.860000000000000000e+02 3.961083984375000000e+01 2.093229675292968750e+01 -5.077654123306274414e-01 -4.811002910137176514e-01 -2.966597080230712891e-01 -5.079492330551147461e-01
6.870000000000000000e+02 3.932900619506835938e+01 2.065090370178222656e+01 -4.893310964107513428e-01 -5.134750008583068848e-01 -3.008418381214141846e-01 -5.156106352806091309e-01
6.880000000000000000e+02 3.852758026123046875e+01 1.976644134521484375e+01 -4.782375693321228027e-01 -6.511808633804321289e-01 -3.388255238533020020e-01 -5.664376020431518555e-01
6.890000000000000000e+02 3.827218246459960938e+01 1.946123886108398438e+01 -4.924558997154235840e-01 -7.020147442817687988e-01 -3.583411872386932373e-01 -5.935900807380676270e-01
6.900000000000000000e+02 3.905453109741210938e+01 2.036249542236328125e+01 -4.768315255641937256e-01 -5.534698963165283203e-01 -3.090904355049133301e-01 -5.273604393005371094e-01
6.910000000000000000e+02 3.884105682373046875e+01 1.951013755798339844e+01 -4.914012849330902100e-01 -5.484756827354431152e-01 -3.119630813598632812e-01 -5.442643761634826660e-01
6.920000000000000000e+02 3.751333618164062500e+01 1.853602981567382812e+01 -5.880590081214904785e-01 -8.259598016738891602e-01 -4.242056310176849365e-01 -6.903365850448608398e-01
6.930000000000000000e+02 3.725638198852539062e+01 1.822996139526367188e+01 -6.276175379753112793e-01 -8.431518077850341797e-01 -4.412308037281036377e-01 -7.198158502578735352e-01
6.940000000000000000e+02 3.673091125488281250e+01 1.762786483764648438e+01 -6.840441226959228516e-01 -8.434328436851501465e-01 -4.582431018352508545e-01 -7.546853423118591309e-01
6.950000000000000000e+02 3.646403503417968750e+01 1.733098411560058594e+01 -7.007873654365539551e-01 -8.416160941123962402e-01 -4.627210199832916260e-01 -7.637184858322143555e-01
6.960000000000000000e+02 3.699541091918945312e+01 1.792724800109863281e+01 -6.615042090415954590e-01 -8.468806147575378418e-01 -4.525154531002044678e-01 -7.401911020278930664e-01
6.970000000000000000e+02 3.538699722290039062e+01 1.615523719787597656e+01 -7.428112030029296875e-01 -8.590682744979858398e-01 -4.805638492107391357e-01 -7.971255779266357422e-01
6.980000000000000000e+02 3.511705780029296875e+01 1.586287212371826172e+01 -7.453539967536926270e-01 -8.645079135894775391e-01 -4.829585552215576172e-01 -8.049361705780029297e-01
6.990000000000000000e+02 3.484791183471679688e+01 1.557017421722412109e+01 -7.484399676322937012e-01 -8.757739067077636719e-01 -4.872641861438751221e-01 -8.107726573944091797e-01
7.000000000000000000e+02 3.431529235839843750e+01 1.497986125946044922e+01 -7.632797360420227051e-01 -9.231516122817993164e-01 -5.059294104576110840e-01 -8.398954272270202637e-01
7.010000000000000000e+02 3.405141448974609375e+01 1.468115329742431641e+01 -7.920615673065185547e-01 -9.549787044525146484e-01 -5.241121053695678711e-01 -8.684270381927490234e-01
7.020000000000000000e+02 3.378636932373046875e+01 1.438176155090332031e+01 -8.429347872734069824e-01 -9.776423573493957520e-01 -5.461731553077697754e-01 -8.950353264808654785e-01
7.030000000000000000e+02 3.351737594604492188e+01 1.408410072326660156e+01 -8.900205492973327637e-01 -9.719870090484619141e-01 -5.586022734642028809e-01 -9.166217446327209473e-01
7.040000000000000000e+02 3.296343612670898438e+01 1.350234031677246094e+01 -9.068122506141662598e-01 -9.044164419174194336e-01 -5.433686375617980957e-01 -9.045335054397583008e-01
7.050000000000000000e+02 3.091343307495117188e+01 1.065551662445068359e+01 -1.088780641555786133e+00 -8.230623602867126465e-01 -5.735529065132141113e-01 -8.961014151573181152e-01
7.060000000000000000e+02 3.052847099304199219e+01 8.962967872619628906e+00 -9.668058753013610840e-01 -6.129567027091979980e-01 -4.739287793636322021e-01 -5.653885006904602051e-01
7.070000000000000000e+02 3.012310409545898438e+01 9.563629150390625000e+00 -1.189612746238708496e+00 -6.659560203552246094e-01 -5.566706061363220215e-01 -8.063074350357055664e-01
7.080000000000000000e+02 2.943775558471679688e+01 1.004194545745849609e+01 -1.326933264732360840e+00 -8.880739808082580566e-01 -6.645021438598632812e-01 -1.110385417938232422e+00
7.090000000000000000e+02 2.913936042785644531e+01 9.870992660522460938e+00 -1.413956046104431152e+00 -1.084185242652893066e+00 -7.494423985481262207e-01 -1.306636452674865723e+00
7.100000000000000000e+02 2.885745048522949219e+01 9.637542724609375000e+00 -1.512064337730407715e+00 -1.331197738647460938e+00 -8.529786467552185059e-01 -1.407860517501831055e+00
7.110000000000000000e+02 2.960324478149414062e+01 9.125943183898925781e+00 -1.407485127449035645e+00 -5.490456819534301758e-01 -5.869592428207397461e-01 -6.804597973823547363e-01
7.120000000000000000e+02 2.797873687744140625e+01 8.813863754272460938e+00 -3.137080669403076172e+00 -1.832415461540222168e+00 -1.490848779678344727e+00 -2.350297212600708008e+00
7.130000000000000000e+02 2.861095428466796875e+01 9.373424530029296875e+00 -1.913872003555297852e+00 -1.454567074775695801e+00 -1.010531663894653320e+00 -1.610858559608459473e+00
7.140000000000000000e+02 2.835399818420410156e+01 8.795678138732910156e+00 -2.685827732086181641e+00 -1.035726189613342285e+00 -1.116466164588928223e+00 -1.608630180358886719e+00
7.150000000000000000e+02 2.771314430236816406e+01 8.554718017578125000e+00 -3.497544527053833008e+00 -2.056763172149658203e+00 -1.666292309761047363e+00 -2.811400413513183594e+00
7.160000000000000000e+02 2.727041435241699219e+01 8.159408569335937500e+00 -3.628180742263793945e+00 -2.308135986328125000e+00 -1.780894994735717773e+00 -2.895979404449462891e+00
7.170000000000000000e+02 2.679916191101074219e+01 7.842544555664062500e+00 -3.956656217575073242e+00 -2.490081548690795898e+00 -1.934021353721618652e+00 -3.641489982604980469e+00
7.180000000000000000e+02 2.632369041442871094e+01 7.528412818908691406e+00 -5.285986423492431641e+00 -2.886651992797851562e+00 -2.451791524887084961e+00 -3.844079017639160156e+00
7.190000000000000000e+02 2.598052787780761719e+01 7.298555850982666016e+00 -5.812069892883300781e+00 -3.030774593353271484e+00 -2.652853488922119141e+00 -3.951580762863159180e+00
7.200000000000000000e+02 2.616625404357910156e+01 7.424830436706542969e+00 -5.114214897155761719e+00 -3.403030872344970703e+00 -2.555173873901367188e+00 -4.104340553283691406e+00
7.210000000000000000e+02 2.648073196411132812e+01 7.650238037109375000e+00 -4.846633911132812500e+00 -3.245912790298461914e+00 -2.427763938903808594e+00 -4.027114868164062500e+00
7.220000000000000000e+02 2.664261054992675781e+01 7.755420207977294922e+00 -4.991590023040771484e+00 -3.229010581970214844e+00 -2.466180324554443359e+00 -3.641777753829956055e+00
7.230000000000000000e+02 2.673066902160644531e+01 7.884767055511474609e+00 -4.560177326202392578e+00 -3.165216684341430664e+00 -2.317618131637573242e+00 -3.963969230651855469e+00
7.240000000000000000e+02 2.691510009765625000e+01 7.947913169860839844e+00 -4.618605136871337891e+00 -2.921309947967529297e+00 -2.261974573135375977e+00 -3.334200859069824219e+00
7.250000000000000000e+02 2.707943534851074219e+01 8.053480148315429688e+00 -4.070343971252441406e+00 -2.656138658523559570e+00 -2.017944812774658203e+00 -3.326355695724487305e+00
7.260000000000000000e+02 2.733045387268066406e+01 8.364109039306640625e+00 -4.105029106140136719e+00 -2.788888216018676758e+00 -2.068175315856933594e+00 -3.342969894409179688e+00
7.270000000000000000e+02 2.755171966552734375e+01 8.395728111267089844e+00 -3.882256746292114258e+00 -2.133502960205078125e+00 -1.804728031158447266e+00 -2.764073610305786133e+00
7.280000000000000000e+02 2.883260917663574219e+01 5.169641971588134766e+00 -1.014940142631530762e+00 -6.363993287086486816e-01 -4.954018294811248779e-01 -6.061897873878479004e-01
7.290000000000000000e+02 2.911828231811523438e+01 5.532493114471435547e+00 -1.014973640441894531e+00 -5.982252359390258789e-01 -4.839596450328826904e-01 -6.217284798622131348e-01
7.300000000000000000e+02 2.648939323425292969e+01 3.548161983489990234e+00 -1.205843806266784668e+00 -4.903547763824462891e-01 -5.088595747947692871e-01 -6.523274779319763184e-01
7.310000000000000000e+02 2.674551582336425781e+01 4.044144630432128906e+00 -1.235188126564025879e+00 -5.369232296943664551e-01 -5.316334366798400879e-01 -7.190679311752319336e-01
7.320000000000000000e+02 2.488825988769531250e+01 2.926584959030151367e+00 -1.405145764350891113e+00 -4.154588282108306885e-01 -5.461813807487487793e-01 -7.209429144859313965e-01
7.330000000000000000e+02 2.074022102355957031e+01 3.908833563327789307e-01 -1.451559185981750488e+00 -1.040314316749572754e+00 -7.475620508193969727e-01 -1.391951799392700195e+00
7.340000000000000000e+02 2.025417709350585938e+01 6.384760141372680664e-02 -1.282466650009155273e+00 -1.365330696105957031e+00 -7.943391799926757812e-01 -1.054174065589904785e+00
7.350000000000000000e+02 2.092509841918945312e+01 -1.608818173408508301e-01 -1.594729065895080566e+00 -1.462942212820053101e-01 -5.223069787025451660e-01 -1.253877758979797363e+00
7.360000000000000000e+02 2.009135437011718750e+01 -4.125431180000305176e-02 -1.797930240631103516e+00 -1.338726282119750977e+00 -9.409969449043273926e-01 -9.302021861076354980e-01
7.370000000000000000e+02 1.929027748107910156e+01 -6.658695936203002930e-01 -2.014202117919921875e+00 -5.327570438385009766e-01 -7.640877366065979004e-01 -8.771951794624328613e-01
7.380000000000000000e+02 1.889900207519531250e+01 -7.671910524368286133e-01 -1.941510319709777832e+00 -5.798200368881225586e-01 -7.563990950584411621e-01 -1.058157801628112793e+00
7.390000000000000000e+02 1.857588005065917969e+01 -1.015483140945434570e+00 -1.657648801803588867e+00 -5.842763185501098633e-01 -6.725775003433227539e-01 -9.376466274261474609e-01
7.400000000000000000e+02 1.848690795898437500e+01 -1.419511198997497559e+00 -1.501801967620849609e+00 -5.536454916000366211e-01 -6.166342496871948242e-01 -9.171890616416931152e-01
7.410000000000000000e+02 1.822644042968750000e+01 -1.260669827461242676e+00 -1.540062427520751953e+00 -5.524661540985107422e-01 -6.277585625648498535e-01 -8.573851585388183594e-01
7.420000000000000000e+02 1.840604782104492188e+01 -1.135537147521972656e+00 -1.556487798690795898e+00 -4.840368926525115967e-01 -6.121574044227600098e-01 -9.331774711608886719e-01
7.430000000000000000e+02 1.783616447448730469e+01 -1.435728311538696289e+00 -1.497053980827331543e+00 -5.347536802291870117e-01 -6.095423102378845215e-01 -7.820564508438110352e-01
7.440000000000000000e+02 1.803970146179199219e+01 -1.377994418144226074e+00 -1.480618596076965332e+00 -4.550554156303405762e-01 -5.807021856307983398e-01 -8.275808095932006836e-01
7.450000000000000000e+02 1.736393165588378906e+01 -1.798262238502502441e+00 -1.332970380783081055e+00 -5.271274447441101074e-01 -5.580293536186218262e-01 -6.518431305885314941e-01
7.460000000000000000e+02 1.753170776367187500e+01 -1.658104419708251953e+00 -1.422812700271606445e+00 -5.736322402954101562e-01 -5.989335179328918457e-01 -7.199962735176086426e-01
7.470000000000000000e+02 1.699580383300781250e+01 -2.059263229370117188e+00 -1.124678373336791992e+00 -6.434998512268066406e-01 -5.304535031318664551e-01 -5.893774628639221191e-01
7.480000000000000000e+02 1.658971405029296875e+01 -2.296683073043823242e+00 -1.040866732597351074e+00 -6.451123952865600586e-01 -5.057937502861022949e-01 -5.968737006187438965e-01
7.490000000000000000e+02 1.736495018005371094e+01 -2.297412633895874023e+00 -9.708652496337890625e-01 -5.937275886535644531e-01 -4.693778455257415771e-01 -5.990027189254760742e-01
7.500000000000000000e+02 1.634206581115722656e+01 -2.414226055145263672e+00 -9.991589188575744629e-01 -6.758934855461120605e-01 -5.025157332420349121e-01 -6.323558688163757324e-01
7.510000000000000000e+02 1.665171623229980469e+01 -2.780848741531372070e+00 -7.825090289115905762e-01 -6.727370619773864746e-01 -4.365738332271575928e-01 -6.111457347869873047e-01
7.520000000000000000e+02 1.244135761260986328e+01 -2.297431707382202148e+00 -6.969025135040283203e-01 -6.887737661600112915e-02 -2.297339588403701782e-01 -3.067880570888519287e-01
7.530000000000000000e+02 1.324390220642089844e+01 -2.363937377929687500e+00 -8.147423267364501953e-01 -9.070483595132827759e-02 -2.716341316699981689e-01 -3.670192956924438477e-01
7.540000000000000000e+02 1.410693645477294922e+01 -2.402285575866699219e+00 -9.605772495269775391e-01 -2.049468308687210083e-01 -3.496572077274322510e-01 -5.071768164634704590e-01
7.550000000000000000e+02 1.099573802947998047e+01 -2.907333374023437500e+00 -4.697419703006744385e-01 -3.767582774162292480e-02 -1.522253453731536865e-01 -2.892821431159973145e-01
7.560000000000000000e+02 9.469151496887207031e+00 -1.941109418869018555e+00 -3.367469608783721924e-01 -2.737741451710462570e-03 -1.018454134464263916e-01 -1.368076950311660767e-01
7.570000000000000000e+02 8.664839744567871094e+00 -1.930333018302917480e+00 -2.739899158477783203e-01 -1.834902679547667503e-03 -8.274744451045989990e-02 -1.200219541788101196e-01
7.580000000000000000e+02 7.852909088134765625e+00 -1.930089116096496582e+00 -2.143239378929138184e-01 -1.371248066425323486e-02 -6.841092556715011597e-02 -1.078072711825370789e-01
7.590000000000000000e+02 7.038065433502197266e+00 -1.935679912567138672e+00 -1.732512563467025757e-01 -1.292529422789812088e-02 -5.585296452045440674e-02 -9.622178971767425537e-02
7.600000000000000000e+02 5.404725074768066406e+00 -1.955139398574829102e+00 -1.022915914654731750e-01 -1.702841185033321381e-02 -3.579600155353546143e-02 -6.968303024768829346e-02
7.610000000000000000e+02 2.946572065353393555e+00 -2.018852949142456055e+00 -3.268796578049659729e-02 -2.031866274774074554e-02 -1.590198837220668793e-02 -2.979951538145542145e-02
7.620000000000000000e+02 3.109248876571655273e+00 -3.016347169876098633e+00 -4.663234204053878784e-02 -3.737386688590049744e-02 -2.520186267793178558e-02 -5.283926427364349365e-02
7.630000000000000000e+02 2.115780115127563477e+00 -2.072820425033569336e+00 -1.877280883491039276e-02 -1.888107135891914368e-02 -1.129616424441337585e-02 -1.631414704024791718e-02
7.640000000000000000e+02 1.278334021568298340e+00 -2.147364616394042969e+00 -6.235468201339244843e-03 -1.073089893907308578e-02 -5.089910235255956650e-03 -4.748230800032615662e-03
7.650000000000000000e+02 4.296803176403045654e-01 -2.197494983673095703e+00 -3.530634101480245590e-03 4.514869768172502518e-03 2.952707000076770782e-04 -1.325457938946783543e-03
7.660000000000000000e+02 1.922318696975708008e+00 -4.176426315307617188e+01 -3.853563219308853149e-02 -1.014582276344299316e+00 -3.159353733062744141e-01 1.101436000317335129e-02
7.670000000000000000e+02 1.371016979217529297e+00 -4.035950088500976562e+01 9.836096316576004028e-03 -1.034665346145629883e+00 -3.074487745761871338e-01 2.758959308266639709e-02
7.680000000000000000e+02 1.351055145263671875e+00 -3.895897674560546875e+01 1.902566105127334595e-02 -1.054922580718994141e+00 -3.107690811157226562e-01 1.322466507554054260e-02
7.690000000000000000e+02 9.850902557373046875e-01 -3.457851028442382812e+01 1.065281569026410580e-03 -1.051070094108581543e+00 -3.150014579296112061e-01 -4.744923207908868790e-03
7.700000000000000000e+02 8.783915638923645020e-01 -3.315875625610351562e+01 -1.229714485816657543e-03 -1.043717265129089355e+00 -3.134841024875640869e-01 -4.496035631746053696e-03
7.710000000000000000e+02 6.707370877265930176e-01 -2.892804145812988281e+01 4.261141177266836166e-03 -1.004699587821960449e+00 -3.001315295696258545e-01 -7.976518012583255768e-03
7.720000000000000000e+02 6.474335193634033203e-01 -2.752419471740722656e+01 -2.055523451417684555e-03 -9.840744733810424805e-01 -2.958389818668365479e-01 -1.105683110654354095e-02
7.730000000000000000e+02 6.392645239830017090e-01 -2.612313079833984375e+01 3.517856355756521225e-03 -9.578838944435119629e-01 -2.863098084926605225e-01 -1.218987349420785904e-02
7.740000000000000000e+02 6.355795860290527344e-01 -2.190862083435058594e+01 -1.945925178006291389e-03 -8.545191884040832520e-01 -2.569395303726196289e-01 -1.831573620438575745e-02
7.750000000000000000e+02 6.284128427505493164e-01 -2.049974632263183594e+01 4.196779802441596985e-03 -8.106284141540527344e-01 -2.419295012950897217e-01 -2.051826938986778259e-02
7.760000000000000000e+02 1.892831683158874512e+00 -2.031979370117187500e+01 2.054382348433136940e-03 -7.287029623985290527e-01 -2.179945856332778931e-01 -6.110698357224464417e-02
7.770000000000000000e+02 5.869803428649902344e-01 -1.627659034729003906e+01 -3.232786664739251137e-03 -6.428097486495971680e-01 -1.938127577304840088e-01 -2.704767696559429169e-02
7.780000000000000000e+02 5.686872005462646484e-01 -1.487311935424804688e+01 4.878472071141004562e-03 -5.740829706192016602e-01 -1.707613617181777954e-01 -2.869493141770362854e-02
7.790000000000000000e+02 5.494585037231445312e-01 -1.347141933441162109e+01 -4.004655871540307999e-03 -4.990743994712829590e-01 -1.509237140417098999e-01 -3.001106530427932739e-02
7.800000000000000000e+02 1.657310605049133301e+00 -1.336612606048583984e+01 7.145882118493318558e-03 -4.643537998199462891e-01 -1.371623724699020386e-01 -8.852521330118179321e-02
7.810000000000000000e+02 4.932896792888641357e-01 -9.282328605651855469e+00 3.314875764772295952e-03 -2.531680762767791748e-01 -7.495595514774322510e-02 -2.860956080257892609e-02
7.820000000000000000e+02 4.813135564327239990e-01 -7.893976688385009766e+00 -5.000965204089879990e-03 -1.743528395891189575e-01 -5.380614101886749268e-02 -2.517680078744888306e-02
7.830000000000000000e+02 3.915611743927001953e+00 -2.945679426193237305e+00 -6.215338408946990967e-02 -4.060626402497291565e-02 -3.082789480686187744e-02 -6.999286264181137085e-02
7.840000000000000000e+02 4.065415859222412109e+00 -3.887720823287963867e+00 -7.065362483263015747e-02 -6.365524977445602417e-02 -4.029266163706779480e-02 -9.991867840290069580e-02
7.850000000000000000e+02 6.804940795898437500e+01 -3.798457717895507812e+01 1.969271749258041382e-01 6.872996330261230469e+00 2.120977163314819336e+00 1.156041175127029419e-01
7.860000000000000000e+02 4.746911621093750000e+01 -3.865312957763671875e+01 8.470928668975830078e-01 4.569481849670410156e+00 1.624972343444824219e+00 -8.711481839418411255e-02
7.870000000000000000e+02 1.222627639770507812e+01 -4.078709411621093750e+01 6.540426611900329590e-02 -3.552021682262420654e-01 -8.693936467170715332e-02 -1.356454845517873764e-02
7.880000000000000000e+02 7.529344177246093750e+01 4.014582443237304688e+01 1.051346734166145325e-01 5.250316619873046875e+00 1.606635451316833496e+00 -3.526481986045837402e-01
7.890000000000000000e+02 7.888726806640625000e+01 4.015576934814453125e+01 2.118075639009475708e-01 3.486591815948486328e+00 1.109519839286804199e+00 1.665712147951126099e-01
7.900000000000000000e+02 7.911019897460937500e+01 3.890242004394531250e+01 -9.864638000726699829e-02 3.308089256286621094e+00 9.628328680992126465e-01 1.210445351898670197e-02
7.910000000000000000e+02 7.723944854736328125e+01 3.739577484130859375e+01 1.907649636268615723e-01 4.060720920562744141e+00 1.275445818901062012e+00 -1.944929361343383789e-01
7.920000000000000000e+02 7.924776458740234375e+01 3.475705337524414062e+01 -8.888190612196922302e-03 3.361074924468994141e+00 1.005656003952026367e+00 -1.260412931442260742e-01
7.930000000000000000e+02 7.768887329101562500e+01 3.320353698730468750e+01 8.364971727132797241e-02 4.559738636016845703e+00 1.393016457557678223e+00 -4.414126873016357422e-01
7.940000000000000000e+02 7.923905181884765625e+01 3.335360717773437500e+01 4.606480151414871216e-02 3.601461648941040039e+00 1.094257950782775879e+00 -1.547998338937759399e-01
7.950000000000000000e+02 7.930400848388671875e+01 3.053534317016601562e+01 3.485661745071411133e-02 4.269860744476318359e+00 1.291415214538574219e+00 -2.062083333730697632e-01
7.960000000000000000e+02 7.801343536376953125e+01 2.887879943847656250e+01 4.732460528612136841e-02 5.327398777008056641e+00 1.612416982650756836e+00 -6.025352478027343750e-01
7.970000000000000000e+02 7.937394714355468750e+01 2.635996055603027344e+01 -2.480786107480525970e-02 5.589596748352050781e+00 1.669436573982238770e+00 -2.307099550962448120e-01
7.980000000000000000e+02 7.687984466552734375e+01 2.586003112792968750e+01 -1.764220930635929108e-02 6.430029392242431641e+00 1.923716187477111816e+00 -9.168187379837036133e-01
7.990000000000000000e+02 7.938769531250000000e+01 2.497124290466308594e+01 1.902312412858009338e-02 6.053876399993896484e+00 1.821869850158691406e+00 -2.152089476585388184e-01
8.000000000000000000e+02 7.941207885742187500e+01 2.080889320373535156e+01 -2.120006270706653595e-02 7.332146644592285156e+00 2.193284034729003906e+00 -1.878929585218429565e-01
8.010000000000000000e+02 7.941640472412109375e+01 1.942280197143554688e+01 7.913657464087009430e-03 7.697913646697998047e+00 2.311748266220092773e+00 -1.666305363178253174e-01
8.020000000000000000e+02 7.823331451416015625e+01 2.061951828002929688e+01 -1.535481028258800507e-02 7.412155628204345703e+00 2.219040155410766602e+00 -4.725000560283660889e-01
8.030000000000000000e+02 7.941963958740234375e+01 1.803705215454101562e+01 -1.851710863411426544e-02 8.023530960083007812e+00 2.401504278182983398e+00 -1.558158546686172485e-01
8.040000000000000000e+02 7.942666625976562500e+01 1.388071727752685547e+01 3.733976976945996284e-03 8.780251502990722656e+00 2.635195493698120117e+00 -1.074220091104507446e-01
8.050000000000000000e+02 7.942767333984375000e+01 1.249562835693359375e+01 -1.295712497085332870e-02 8.963130950927734375e+00 2.685052156448364258e+00 -9.645587205886840820e-02
8.060000000000000000e+02 7.942626953125000000e+01 1.111050510406494141e+01 2.622701693326234818e-03 9.115900993347167969e+00 2.735557317733764648e+00 -8.236215263605117798e-02
8.070000000000000000e+02 7.940026092529296875e+01 6.951913356781005859e+00 -7.599696051329374313e-03 9.417220115661621094e+00 2.822885990142822266e+00 -5.427005514502525330e-02
8.080000000000000000e+02 7.938377380371093750e+01 5.563251018524169922e+00 -2.678142627701163292e-04 9.474786758422851562e+00 2.842355728149414062e+00 -4.500559344887733459e-02
8.090000000000000000e+02 7.814993286132812500e+01 5.558975696563720703e+00 -2.034055255353450775e-02 9.193769454956054688e+00 2.752028703689575195e+00 -9.040525555610656738e-02
8.100000000000000000e+02 7.936482238769531250e+01 4.173518180847167969e+00 -5.438271909952163696e-03 9.514709472656250000e+00 2.852781534194946289e+00 -3.820769861340522766e-02
8.110000000000000000e+02 7.931330871582031250e+01 -4.046857357025146484e-03 -1.217074575833976269e-03 9.555735588073730469e+00 2.866355419158935547e+00 -1.997038349509239197e-02
8.120000000000000000e+02 7.930209350585937500e+01 -1.401772499084472656e+00 -3.820354817435145378e-03 9.550396919250488281e+00 2.863972902297973633e+00 -1.462465059012174606e-02
8.130000000000000000e+02 7.929047393798828125e+01 -4.204663753509521484e+00 -2.834949875250458717e-03 9.516450881958007812e+00 2.854084730148315430e+00 -5.518442485481500626e-03
8.140000000000000000e+02 7.929951477050781250e+01 -8.401174545288085938e+00 -2.827896503731608391e-03 9.422132492065429688e+00 2.825791358947753906e+00 4.499967209994792938e-03
8.150000000000000000e+02 7.931587219238281250e+01 -1.119522285461425781e+01 -2.831095131114125252e-03 9.337619781494140625e+00 2.800436496734619141e+00 9.707664139568805695e-03
8.160000000000000000e+02 7.933309936523437500e+01 -1.537661361694335938e+01 3.657759516499936581e-04 9.183436393737792969e+00 2.755140781402587891e+00 1.664877869188785553e-02
8.170000000000000000e+02 7.933900451660156250e+01 -1.815865898132324219e+01 5.968348705209791660e-04 9.067157745361328125e+00 2.720326185226440430e+00 2.019815146923065186e-02
8.180000000000000000e+02 7.934117889404296875e+01 -2.371385002136230469e+01 1.323501055594533682e-04 8.813328742980957031e+00 2.644038438796997070e+00 2.548499964177608490e-02
8.190000000000000000e+02 7.934057617187500000e+01 -2.510022544860839844e+01 -2.374955365667119622e-04 8.747667312622070312e+00 2.624228954315185547e+00 2.529024519026279449e-02
8.200000000000000000e+02 7.932171630859375000e+01 -2.924878883361816406e+01 -9.239329956471920013e-04 8.556135177612304688e+00 2.566563367843627930e+00 2.642456255853176117e-02
8.210000000000000000e+02 7.923962402343750000e+01 -3.203188705444335938e+01 8.223069598898291588e-04 8.438510894775390625e+00 2.531800031661987305e+00 2.624350972473621368e-02
8.220000000000000000e+02 7.901056671142578125e+01 -3.623884201049804688e+01 1.624990487471222878e-03 8.290386199951171875e+00 2.487603425979614258e+00 3.013857081532478333e-02
8.230000000000000000e+02 7.893387603759765625e+01 -3.763928604125976562e+01 1.181789487600326538e-02 8.253473281860351562e+00 2.479587554931640625e+00 2.124959230422973633e-02
8.240000000000000000e+02 7.879906463623046875e+01 -3.903700637817382812e+01 -3.492518886923789978e-02 8.217426300048828125e+00 2.454750299453735352e+00 3.464084863662719727e-02
8.250000000000000000e+02 7.810566711425781250e+01 -4.177510452270507812e+01 7.471562922000885010e-02 8.122006416320800781e+00 2.459016561508178711e+00 2.086882665753364563e-02
8.260000000000000000e+02 5.148346900939941406e+00 4.034559631347656250e+01 -4.628786351531744003e-03 -8.755750954151153564e-02 -2.765588834881782532e-02 8.353400626219809055e-04
8.270000000000000000e+02 4.029190242290496826e-01 2.199441432952880859e+00 -2.888329327106475830e-03 -1.755623705685138702e-02 -6.133369635790586472e-03 8.200993761420249939e-03
8.280000000000000000e+02 2.965921163558959961e+00 3.113369941711425781e+00 -3.005579300224781036e-02 -5.892213806509971619e-02 -2.669337950646877289e-02 8.555071055889129639e-02
8.290000000000000000e+02 1.526706695556640625e+00 4.936283111572265625e+00 4.904545494355261326e-04 -1.101411357522010803e-01 -3.289520367980003357e-02 5.667242035269737244e-02
8.300000000000000000e+02 5.132877230644226074e-01 9.259104728698730469e+00 6.343538989312946796e-04 -2.394725978374481201e-01 -7.165147364139556885e-02 8.037357591092586517e-03
8.310000000000000000e+02 5.284454226493835449e-01 1.205182647705078125e+01 -3.377111861482262611e-04 -2.591545581817626953e-01 -7.784768193960189819e-02 1.455041056033223867e-04
8.320000000000000000e+02 1.596338510513305664e+00 1.193806171417236328e+01 6.505951285362243652e-03 -2.145932763814926147e-01 -6.242619827389717102e-02 9.076115675270557404e-04
8.330000000000000000e+02 5.641704797744750977e-01 1.625739479064941406e+01 1.737477257847785950e-03 -2.372253388166427612e-01 -7.064636051654815674e-02 -4.783229436725378036e-03
8.340000000000000000e+02 1.715037465095520020e+00 1.746918296813964844e+01 1.623795833438634872e-03 -1.922772228717803955e-01 -5.719602853059768677e-02 -1.301574148237705231e-02
8.350000000000000000e+02 5.683807730674743652e-01 1.766306877136230469e+01 -1.567274797707796097e-03 -2.259072065353393555e-01 -6.824234127998352051e-02 -4.440343938767910004e-03
8.360000000000000000e+02 5.771407485008239746e-01 2.187966156005859375e+01 1.357987406663596630e-03 -1.920420080423355103e-01 -5.720520392060279846e-02 -4.502969328314065933e-03
8.370000000000000000e+02 5.863785743713378906e-01 2.328815460205078125e+01 -1.493474119342863560e-03 -1.822559386491775513e-01 -5.512482300400733948e-02 -3.731191391125321388e-03
8.380000000000000000e+02 1.759330153465270996e+00 2.303177642822265625e+01 4.790450038854032755e-04 -1.606094837188720703e-01 -4.803913086652755737e-02 -1.086910720914602280e-02
8.390000000000000000e+02 5.996644496917724609e-01 2.469881248474121094e+01 1.045146142132580280e-03 -1.733205318450927734e-01 -5.168261379003524780e-02 -3.741868771612644196e-03
8.400000000000000000e+02 6.463772058486938477e-01 2.892837715148925781e+01 -9.899492142722010612e-04 -1.526242941617965698e-01 -4.608427360653877258e-02 -2.381180413067340851e-03
8.410000000000000000e+02 6.671402454376220703e-01 3.033284950256347656e+01 7.189103052951395512e-04 -1.473664194345474243e-01 -4.399425163865089417e-02 -2.450432395562529564e-03
8.420000000000000000e+02 3.296391487121582031e+00 2.833769798278808594e+01 -3.001217730343341827e-03 -1.170024946331977844e-01 -3.600111603736877441e-02 -1.077865529805421829e-02
8.430000000000000000e+02 6.990749835968017578e-01 3.174254608154296875e+01 -8.637892315164208412e-04 -1.429375559091567993e-01 -4.314040020108222961e-02 -1.960314344614744186e-03
8.440000000000000000e+02 8.074786663055419922e-01 3.594927978515625000e+01 -3.258158685639500618e-04 -1.309566050767898560e-01 -3.938472643494606018e-02 -2.006092341616749763e-03
8.450000000000000000e+02 8.624299764633178711e-01 3.733222579956054688e+01 6.981929182074964046e-04 -1.269119232892990112e-01 -3.786411881446838379e-02 -2.598193939775228500e-03
8.460000000000000000e+02 1.031554579734802246e+00 3.869031143188476562e+01 2.766741381492465734e-04 -1.221261546015739441e-01 -3.655484318733215332e-02 -3.232583170756697655e-03
8.470000000000000000e+02 1.386767983436584473e+00 4.006552124023437500e+01 5.559168639592826366e-04 -1.177101731300354004e-01 -3.514627739787101746e-02 -3.831183537840843201e-03
8.480000000000000000e+02 9.755785942077636719e+00 1.788118720054626465e+00 -2.540836334228515625e-01 -2.839170992374420166e-01 -1.614002287387847900e-01 4.159722328186035156e-01
8.490000000000000000e+02 8.200837135314941406e+00 1.824656367301940918e+00 -2.844384908676147461e-01 -1.168369650840759277e-01 -1.203826367855072021e-01 2.899374961853027344e-01
8.500000000000000000e+02 8.243954658508300781e+00 2.483365774154663086e+00 -1.108435019850730896e-01 -1.849720776081085205e-01 -8.874467015266418457e-02 2.942824363708496094e-01
8.510000000000000000e+02 7.427310466766357422e+00 1.832215666770935059e+00 -2.419641166925430298e-01 -8.788584917783737183e-02 -9.895499050617218018e-02 2.286346703767776489e-01
8.520000000000000000e+02 5.118691444396972656e+00 1.874861598014831543e+00 -1.241866648197174072e-01 -3.233467042446136475e-02 -4.695639759302139282e-02 1.203991472721099854e-01
8.530000000000000000e+02 4.345520019531250000e+00 1.916149735450744629e+00 -9.178400784730911255e-02 -3.421664237976074219e-02 -3.780019655823707581e-02 9.956355392932891846e-02
8.540000000000000000e+02 3.568205118179321289e+00 1.976354718208312988e+00 -6.559009850025177002e-02 -2.836030907928943634e-02 -2.818512357771396637e-02 7.853791862726211548e-02
8.550000000000000000e+02 1.997963666915893555e+00 2.119144201278686523e+00 -2.503521181643009186e-02 -3.049319237470626831e-02 -1.665852218866348267e-02 4.181375354528427124e-02
8.560000000000000000e+02 1.204300761222839355e+00 2.171927452087402344e+00 -1.163156330585479736e-02 -3.013800270855426788e-02 -1.253086980432271957e-02 2.520092204213142395e-02
8.570000000000000000e+02 1.209697437286376953e+01 3.576386690139770508e+00 5.610424876213073730e-01 3.653181791305541992e-01 2.779082059860229492e-01 -3.124214112758636475e-01
8.580000000000000000e+02 1.367434024810791016e+01 2.602984189987182617e+00 4.907368123531341553e-01 2.873045921325683594e+00 1.009134769439697266e+00 -3.753618896007537842e-01
8.590000000000000000e+02 1.457880115509033203e+01 1.086878538131713867e+00 5.027101039886474609e+00 2.390530586242675781e+00 2.225289583206176758e+00 -2.950980663299560547e+00
8.600000000000000000e+02 1.507567787170410156e+01 8.763384222984313965e-01 8.467838287353515625e+00 9.413139224052429199e-01 2.822745800018310547e+00 -2.336753845214843750e+00
8.610000000000000000e+02 1.374277687072753906e+01 3.047410964965820312e+00 3.431276082992553711e-01 2.379709720611572266e+00 8.168511986732482910e-01 1.467135995626449585e-01
8.620000000000000000e+02 1.416772747039794922e+01 3.785390615463256836e+00 4.289794862270355225e-01 1.229116916656494141e+00 4.974289238452911377e-01 5.941301584243774414e-01
8.630000000000000000e+02 1.502010059356689453e+01 4.658298969268798828e+00 2.922780513763427734e-01 3.466562032699584961e-01 1.916802823543548584e-01 3.257345855236053467e-01
8.640000000000000000e+02 1.469896507263183594e+01 4.987081527709960938e+00 2.057543545961380005e-01 5.440316796302795410e-01 2.249357998371124268e-01 3.494632542133331299e-01
8.650000000000000000e+02 1.581710147857666016e+01 5.546862602233886719e+00 2.218685597181320190e-01 3.640507459640502930e-01 1.757757961750030518e-01 2.794525921344757080e-01
8.660000000000000000e+02 1.556584835052490234e+01 5.235541343688964844e+00 2.035862952470779419e-01 3.329177796840667725e-01 1.609512269496917725e-01 2.669182419776916504e-01
8.670000000000000000e+02 1.722169303894042969e+01 6.980342864990234375e+00 2.023090273141860962e-01 2.230776846408843994e-01 1.276160180568695068e-01 2.134196311235427856e-01
8.680000000000000000e+02 1.777050018310546875e+01 7.556052207946777344e+00 1.844217479228973389e-01 2.264504283666610718e-01 1.232616528868675232e-01 2.038853466510772705e-01
8.690000000000000000e+02 1.830962753295898438e+01 8.147929191589355469e+00 1.906846165657043457e-01 2.331975549459457397e-01 1.271646469831466675e-01 2.066324502229690552e-01
8.700000000000000000e+02 1.885602760314941406e+01 9.301342964172363281e+00 1.721248477697372437e-01 2.056863754987716675e-01 1.133433654904365540e-01 1.808396279811859131e-01
8.710000000000000000e+02 1.858108329772949219e+01 8.443902015686035156e+00 1.986238509416580200e-01 2.267025113105773926e-01 1.275979131460189819e-01 2.095475792884826660e-01
8.720000000000000000e+02 1.914405059814453125e+01 9.018967628479003906e+00 2.013941854238510132e-01 1.904466599225997925e-01 1.175522580742835999e-01 1.940225958824157715e-01
8.730000000000000000e+02 1.972041320800781250e+01 9.578297615051269531e+00 1.670569926500320435e-01 1.607017964124679565e-01 9.832763671875000000e-02 1.687415540218353271e-01
8.740000000000000000e+02 2.027553749084472656e+01 1.017118167877197266e+01 1.475303918123245239e-01 1.687180250883102417e-01 9.487453103065490723e-02 1.617562174797058105e-01
8.750000000000000000e+02 2.054771614074707031e+01 1.047636699676513672e+01 1.502554863691329956e-01 1.778008192777633667e-01 9.841689467430114746e-02 1.629750728607177734e-01
8.760000000000000000e+02 2.000131988525390625e+01 9.868962287902832031e+00 1.535358428955078125e-01 1.619358807802200317e-01 9.464152157306671143e-02 1.617974489927291870e-01
8.770000000000000000e+02 1.930648803710937500e+01 1.053044700622558594e+01 1.417387276887893677e-01 1.873056888580322266e-01 9.871332347393035889e-02 1.677059680223464966e-01
8.780000000000000000e+02 2.082424926757812500e+01 1.077364253997802734e+01 1.550563722848892212e-01 1.802459508180618286e-01 1.005906984210014343e-01 1.655666083097457886e-01
8.790000000000000000e+02 2.198793220520019531e+01 1.188877105712890625e+01 1.437050253152847290e-01 1.571621894836425781e-01 9.026017040014266968e-02 1.522022187709808350e-01
8.800000000000000000e+02 2.254995536804199219e+01 1.245603084564208984e+01 1.405419707298278809e-01 1.620748341083526611e-01 9.078504145145416260e-02 1.512510180473327637e-01
8.810000000000000000e+02 2.282501792907714844e+01 1.274505805969238281e+01 1.436666846275329590e-01 1.640592813491821289e-01 9.231778979301452637e-02 1.523962318897247314e-01
8.820000000000000000e+02 2.309980773925781250e+01 1.303473281860351562e+01 1.475434303283691406e-01 1.623363792896270752e-01 9.296394884586334229e-02 1.532344520092010498e-01
8.830000000000000000e+02 2.337682151794433594e+01 1.332362937927246094e+01 1.507574170827865601e-01 1.576509773731231689e-01 9.252252429723739624e-02 1.521536558866500854e-01
8.840000000000000000e+02 2.365758514404296875e+01 1.361144733428955078e+01 1.523580849170684814e-01 1.506038606166839600e-01 9.088858217000961304e-02 1.494895666837692261e-01
8.850000000000000000e+02 2.394279670715332031e+01 1.389769077301025391e+01 1.516242176294326782e-01 1.420518904924392700e-01 8.810283243656158447e-02 1.449505537748336792e-01
8.860000000000000000e+02 2.423193931579589844e+01 1.418111038208007812e+01 1.472808718681335449e-01 1.327263563871383667e-01 8.400216698646545410e-02 1.388609558343887329e-01
8.870000000000000000e+02 2.510602378845214844e+01 1.501930046081542969e+01 1.219415292143821716e-01 1.179793998599052429e-01 7.197628170251846313e-02 1.223382204771041870e-01
8.880000000000000000e+02 2.567907905578613281e+01 1.558312416076660156e+01 1.146968826651573181e-01 1.240695565938949585e-01 7.162992656230926514e-02 1.204342320561408997e-01
8.890000000000000000e+02 2.596161270141601562e+01 1.586551380157470703e+01 1.150300428271293640e-01 1.273855268955230713e-01 7.272467017173767090e-02 1.213672086596488953e-01
8.900000000000000000e+02 2.652782249450683594e+01 1.642875289916992188e+01 1.188170015811920166e-01 1.288542896509170532e-01 7.430138438940048218e-02 1.228220537304878235e-01
8.910000000000000000e+02 2.710016441345214844e+01 1.698409843444824219e+01 1.222415193915367126e-01 1.233979314565658569e-01 7.369183748960494995e-02 1.214736178517341614e-01
8.920000000000000000e+02 2.738900947570800781e+01 1.725832366943359375e+01 1.221105828881263733e-01 1.181405633687973022e-01 7.207534462213516235e-02 1.192623153328895569e-01
8.930000000000000000e+02 2.767901611328125000e+01 1.753107070922851562e+01 1.204598918557167053e-01 1.130408719182014465e-01 7.005023211240768433e-02 1.159489229321479797e-01
8.940000000000000000e+02 2.825851249694824219e+01 1.807735061645507812e+01 1.136440113186836243e-01 1.048671007156372070e-01 6.555332988500595093e-02 1.092025786638259888e-01
8.950000000000000000e+02 2.796924781799316406e+01 1.780383300781250000e+01 1.172023937106132507e-01 1.080441921949386597e-01 6.757397949695587158e-02 1.125162616372108459e-01
8.960000000000000000e+02 2.854618644714355469e+01 1.835139846801757812e+01 1.104409620165824890e-01 1.021806225180625916e-01 6.378647685050964355e-02 1.063625812530517578e-01
8.970000000000000000e+02 2.939775085449218750e+01 1.918028259277343750e+01 1.014850288629531860e-01 9.712639451026916504e-02 5.958342924714088440e-02 9.991858154535293579e-02
8.980000000000000000e+02 2.967322158813476562e+01 1.946767616271972656e+01 9.880111366510391235e-02 9.620135277509689331e-02 5.850073695182800293e-02 9.773148596286773682e-02
8.990000000000000000e+02 2.994841766357421875e+01 1.975527572631835938e+01 9.601388126611709595e-02 9.537628293037414551e-02 5.741705000400543213e-02 9.646449983119964600e-02
9.000000000000000000e+02 3.281060791015625000e+01 2.256974792480468750e+01 6.424757093191146851e-02 8.787236362695693970e-02 4.563597962260246277e-02 7.706119865179061890e-02
9.010000000000000000e+02 3.306695175170898438e+01 2.287134933471679688e+01 6.807245314121246338e-02 9.338058531284332275e-02 4.843591153621673584e-02 7.830996811389923096e-02
9.020000000000000000e+02 3.254737854003906250e+01 2.227709770202636719e+01 6.497699022293090820e-02 8.146716654300689697e-02 4.393324628472328186e-02 7.440339773893356323e-02
9.030000000000000000e+02 3.357072830200195312e+01 2.349776649475097656e+01 7.012300193309783936e-02 9.163764864206314087e-02 4.852819442749023438e-02 7.918553799390792847e-02
9.040000000000000000e+02 3.382608795166015625e+01 2.380557250976562500e+01 6.658086180686950684e-02 8.908347040414810181e-02 4.669930040836334229e-02 7.878667116165161133e-02
9.050000000000000000e+02 3.435433959960937500e+01 2.440719413757324219e+01 6.385708600282669067e-02 9.143345803022384644e-02 4.658716171979904175e-02 7.788168638944625854e-02
9.060000000000000000e+02 3.461222839355468750e+01 2.471193122863769531e+01 6.579655408859252930e-02 9.524263441562652588e-02 4.831175506114959717e-02 7.853130251169204712e-02
9.070000000000000000e+02 3.486928939819335938e+01 2.501884078979492188e+01 6.913302838802337646e-02 9.603029489517211914e-02 4.954899474978446960e-02 8.031716942787170410e-02
9.080000000000000000e+02 3.512984848022460938e+01 2.532636451721191406e+01 7.032045722007751465e-02 9.355513751506805420e-02 4.916267842054367065e-02 8.017658442258834839e-02
9.090000000000000000e+02 3.565536117553710938e+01 2.594284629821777344e+01 6.603939086198806763e-02 8.590922504663467407e-02 4.558458551764488220e-02 7.614295929670333862e-02
9.100000000000000000e+02 3.591539382934570312e+01 2.625292205810546875e+01 6.169614568352699280e-02 8.615572750568389893e-02 4.435556381940841675e-02 7.540460675954818726e-02
9.110000000000000000e+02 3.643332672119140625e+01 2.686306190490722656e+01 6.395103782415390015e-02 9.235250204801559448e-02 4.689106345176696777e-02 7.699651271104812622e-02
9.120000000000000000e+02 3.668975448608398438e+01 2.717243576049804688e+01 6.848460435867309570e-02 9.533122181892395020e-02 4.914474859833717346e-02 7.899726927280426025e-02
9.130000000000000000e+02 3.696265792846679688e+01 2.747138977050781250e+01 7.223627716302871704e-02 9.496170282363891602e-02 5.015939474105834961e-02 8.178570121526718140e-02
9.140000000000000000e+02 3.752752304077148438e+01 2.803771400451660156e+01 7.807759940624237061e-02 8.646173030138015747e-02 4.936179891228675842e-02 8.145873993635177612e-02
9.150000000000000000e+02 3.780050277709960938e+01 2.831580924987792969e+01 7.695600390434265137e-02 8.250062912702560425e-02 4.783698916435241699e-02 7.913942635059356689e-02
9.160000000000000000e+02 3.724433898925781250e+01 2.776243782043457031e+01 7.624163478612899780e-02 9.196882694959640503e-02 5.046313628554344177e-02 8.086868375539779663e-02
9.170000000000000000e+02 3.857044219970703125e+01 2.925500106811523438e+01 7.168856263160705566e-02 7.363733649253845215e-02 4.359776899218559265e-02 7.379527390003204346e-02
9.180000000000000000e+02 3.769510269165039062e+01 2.885990524291992188e+01 7.498088479042053223e-02 8.093115687370300293e-02 4.677361249923706055e-02 7.489126175642013550e-02
9.190000000000000000e+02 3.868832015991210938e+01 3.001626396179199219e+01 7.900990545749664307e-02 7.832512259483337402e-02 4.720050841569900513e-02 7.221205532550811768e-02
9.200000000000000000e+02 4.102258300781250000e+01 3.140341949462890625e+01 8.122044056653976440e-02 7.147689163684844971e-02 4.580920189619064331e-02 6.170912832021713257e-02
9.210000000000000000e+02 4.051404953002929688e+01 3.152354621887207031e+01 7.450566440820693970e-02 7.741021364927291870e-02 4.557476192712783813e-02 6.539709866046905518e-02
9.220000000000000000e+02 4.161364746093750000e+01 3.192746353149414062e+01 8.293601870536804199e-02 6.917957216501235962e-02 4.563467577099800110e-02 5.793932452797889709e-02
9.230000000000000000e+02 4.190341567993164062e+01 3.220019531250000000e+01 7.416986674070358276e-02 4.702362418174743652e-02 3.635804727673530579e-02 7.439250499010086060e-02
9.240000000000000000e+02 4.250239562988281250e+01 3.273620605468750000e+01 7.952068746089935303e-02 5.319255590438842773e-02 3.981397300958633423e-02 6.740922480821609497e-02
9.250000000000000000e+02 4.281480789184570312e+01 3.300778198242187500e+01 8.654283732175827026e-02 5.804469808936119080e-02 4.337625950574874878e-02 6.620465964078903198e-02
9.260000000000000000e+02 4.377503204345703125e+01 3.372151565551757812e+01 7.828424870967864990e-02 3.753566369414329529e-02 3.474597260355949402e-02 8.488010615110397339e-02
9.270000000000000000e+02 4.347259140014648438e+01 3.352163314819335938e+01 1.001375392079353333e-01 6.474004685878753662e-02 4.946327582001686096e-02 5.831583961844444275e-02
9.280000000000000000e+02 4.468175125122070312e+01 3.451154327392578125e+01 8.545680344104766846e-02 4.603918269276618958e-02 3.944879397749900818e-02 9.056444466114044189e-02
9.290000000000000000e+02 4.500722503662109375e+01 3.474211120605468750e+01 1.022130101919174194e-01 7.523416727781295776e-02 5.323415249586105347e-02 6.121876090764999390e-02
9.300000000000000000e+02 4.658566284179687500e+01 3.604262924194335938e+01 1.180577203631401062e-01 1.022544950246810913e-01 6.609366834163665771e-02 6.902669370174407959e-02
9.310000000000000000e+02 4.728146362304687500e+01 3.653765487670898438e+01 1.614347845315933228e-01 3.996279090642929077e-02 6.041927635669708252e-02 1.141907051205635071e-01
9.320000000000000000e+02 4.795325851440429688e+01 3.697364425659179688e+01 2.043942958116531372e-01 9.384226799011230469e-02 8.947096765041351318e-02 7.063355296850204468e-02
9.330000000000000000e+02 5.030202484130859375e+01 3.773784255981445312e+01 2.717857062816619873e-02 -4.346922039985656738e-02 -4.887195769697427750e-03 2.149332687258720398e-02
9.340000000000000000e+02 5.016828536987304688e+01 3.807084274291992188e+01 5.535659566521644592e-02 -2.772291190922260284e-03 1.577529124915599823e-02 6.308624148368835449e-02
9.350000000000000000e+02 5.060329437255859375e+01 3.785168075561523438e+01 1.279967650771141052e-02 4.746157675981521606e-02 1.807837560772895813e-02 -6.290815304964780807e-03
9.360000000000000000e+02 5.045414352416992188e+01 3.798182678222656250e+01 -5.101142451167106628e-02 2.517562545835971832e-02 -7.750740274786949158e-03 1.124887354671955109e-02
9.370000000000000000e+02 5.091022872924804688e+01 3.800550460815429688e+01 -1.042940467596054077e-01 -2.064799331128597260e-02 -3.748261183500289917e-02 9.771493263542652130e-03
9.380000000000000000e+02 5.146630096435546875e+01 3.855358505249023438e+01 -2.735420465469360352e-01 -2.085475064814090729e-02 -8.831903338432312012e-02 5.267397686839103699e-02
9.390000000000000000e+02 4.487051391601562500e+01 2.580970764160156250e+01 -2.854401469230651855e-01 -2.693571448326110840e-01 -1.664391905069351196e-01 -2.770424485206604004e-01
9.400000000000000000e+02 4.459128570556640625e+01 2.552476119995117188e+01 -3.228738903999328613e-01 -2.960537970066070557e-01 -1.856783032417297363e-01 -3.058391213417053223e-01
9.410000000000000000e+02 4.430780410766601562e+01 2.524331474304199219e+01 -3.629011213779449463e-01 -3.144782185554504395e-01 -2.032137960195541382e-01 -3.332751393318176270e-01
9.420000000000000000e+02 4.372686004638671875e+01 2.469570159912109375e+01 -4.275583028793334961e-01 -3.330092430114746094e-01 -2.281702607870101929e-01 -3.744696378707885742e-01
9.430000000000000000e+02 3.156325340270996094e+01 1.206393623352050781e+01 -1.014325499534606934e+00 -1.042139530181884766e+00 -6.169394850730895996e-01 -1.003656029701232910e+00
9.440000000000000000e+02 5.922310256958007812e+01 3.281702423095703125e+01 1.996652007102966309e+00 1.950635719299316406e+01 6.450902938842773438e+00 1.962152361869812012e+00
9.450000000000000000e+02 5.703547286987304688e+01 3.296514892578125000e+01 4.565963268280029297e+00 5.094141006469726562e+00 2.898031234741210938e+00 5.029569149017333984e+00
9.460000000000000000e+02 5.764704895019531250e+01 3.316936874389648438e+01 4.963623523712158203e+00 8.688194274902343750e+00 4.095545291900634766e+00 6.860454082489013672e+00
9.470000000000000000e+02 5.530913162231445312e+01 3.350390243530273438e+01 1.884463906288146973e+00 6.472361087799072266e-01 7.595099806785583496e-01 7.298169732093811035e-01
9.480000000000000000e+02 5.745210647583007812e+01 3.320780563354492188e+01 5.243326187133789062e+00 6.890509128570556641e+00 3.640150547027587891e+00 6.364132881164550781e+00
9.490000000000000000e+02 5.666960906982421875e+01 3.331405639648437500e+01 4.368933677673339844e+00 2.504852056503295898e+00 2.062135696411132812e+00 3.399911165237426758e+00
9.500000000000000000e+02 5.607358932495117188e+01 3.339474105834960938e+01 3.171442270278930664e+00 1.299685835838317871e+00 1.341338396072387695e+00 1.860468029975891113e+00
9.510000000000000000e+02 5.552500152587890625e+01 3.322510528564453125e+01 2.457941532135009766e+00 1.174008965492248535e+00 1.089585185050964355e+00 1.396571993827819824e+00
9.520000000000000000e+02 5.579957962036132812e+01 3.304279327392578125e+01 2.933060884475708008e+00 1.502948164939880371e+00 1.330802679061889648e+00 1.909500122070312500e+00
9.530000000000000000e+02 2.954238319396972656e+01 5.755121707916259766e+00 -9.691962599754333496e-01 -4.815762937068939209e-01 -4.352317750453948975e-01 -6.497025489807128906e-01
9.540000000000000000e+02 2.816329574584960938e+01 4.913463592529296875e+00 -1.089627265930175781e+00 -6.833168268203735352e-01 -5.318832397460937500e-01 -6.866768598556518555e-01
9.550000000000000000e+02 2.859495162963867188e+01 4.827880382537841797e+00 -1.006838202476501465e+00 -6.197027564048767090e-01 -4.879623055458068848e-01 -5.911336541175842285e-01
9.560000000000000000e+02 2.826784706115722656e+01 4.528388977050781250e+00 -1.020001649856567383e+00 -6.042971611022949219e-01 -4.872896671295166016e-01 -5.968601107597351074e-01
9.570000000000000000e+02 2.694070625305175781e+01 3.876380681991577148e+00 -1.168983101844787598e+00 -5.213838815689086914e-01 -5.071100592613220215e-01 -6.626536250114440918e-01
9.580000000000000000e+02 2.088205909729003906e+01 2.544748485088348389e-01 -1.553739547729492188e+00 -5.930039882659912109e-01 -6.440230607986450195e-01 -1.478221178054809570e+00
9.590000000000000000e+02 2.183336067199707031e+01 9.544952511787414551e-01 -1.460642576217651367e+00 -3.609131276607513428e-01 -5.464667081832885742e-01 -9.847044944763183594e-01
9.600000000000000000e+02 2.116603088378906250e+01 -8.576287031173706055e-01 -1.373983621597290039e+00 -3.152609989047050476e-02 -4.216529130935668945e-01 -4.164317846298217773e-01
9.610000000000000000e+02 1.996109199523925781e+01 -1.793508231639862061e-01 -1.667590022087097168e+00 -1.191649198532104492e+00 -8.577717542648315430e-01 -9.064311385154724121e-01
9.620000000000000000e+02 1.933937263488769531e+01 -4.728924036026000977e-01 -2.005388021469116211e+00 -6.023336648941040039e-01 -7.823165059089660645e-01 -9.192169308662414551e-01
9.630000000000000000e+02 1.977031898498535156e+01 -3.387150168418884277e-01 -1.939678907394409180e+00 -1.188129544258117676e+00 -9.383425116539001465e-01 -8.356005549430847168e-01
9.640000000000000000e+02 1.992405509948730469e+01 -7.367227077484130859e-01 -2.756267309188842773e+00 -1.752220511436462402e+00 -1.352546334266662598e+00 -1.346405863761901855e+00
9.650000000000000000e+02 1.890157699584960938e+01 -1.817634463310241699e+00 -1.132538080215454102e+00 -7.798147201538085938e-01 -5.737058520317077637e-01 -9.398183226585388184e-01
9.660000000000000000e+02 1.718400382995605469e+01 -1.934279680252075195e+00 -1.345436215400695801e+00 -5.910038352012634277e-01 -5.809320211410522461e-01 -6.903627514839172363e-01
9.670000000000000000e+02 2.747081947326660156e+01 4.444761753082275391e+00 -1.152399539947509766e+00 -6.071921586990356445e-01 -5.278775095939636230e-01 -7.034319639205932617e-01
9.680000000000000000e+02 2.933110809326171875e+01 5.620722293853759766e+00 -9.910199046134948730e-01 -5.498788952827453613e-01 -4.622696340084075928e-01 -6.333870887756347656e-01
9.690000000000000000e+02 2.891691780090332031e+01 5.327392101287841797e+00 -1.013810038566589355e+00 -6.420595645904541016e-01 -4.967608749866485596e-01 -6.241446137428283691e-01
9.700000000000000000e+02 2.863499069213867188e+01 5.285169124603271484e+00 -1.057150840759277344e+00 -7.034799456596374512e-01 -5.281892418861389160e-01 -6.645879149436950684e-01
9.710000000000000000e+02 2.832958221435546875e+01 5.034877777099609375e+00 -1.075274467468261719e+00 -7.001410722732543945e-01 -5.326246619224548340e-01 -6.808081269264221191e-01
9.720000000000000000e+02 2.729502296447753906e+01 4.309928894042968750e+00 -1.173974990844726562e+00 -5.899133682250976562e-01 -5.291665196418762207e-01 -7.047172188758850098e-01
9.730000000000000000e+02 2.690234756469726562e+01 4.150993824005126953e+00 -1.227121949195861816e+00 -5.620444416999816895e-01 -5.367498993873596191e-01 -7.178373336791992188e-01
9.740000000000000000e+02 2.638723754882812500e+01 3.832819700241088867e+00 -1.278705835342407227e+00 -4.961660802364349365e-01 -5.324615836143493652e-01 -7.188308238983154297e-01
9.750000000000000000e+02 2.586066627502441406e+01 3.532613277435302734e+00 -1.329706072807312012e+00 -4.783053994178771973e-01 -5.424033999443054199e-01 -7.220290303230285645e-01
9.760000000000000000e+02 2.603500366210937500e+01 3.637023210525512695e+00 -1.305278062820434570e+00 -4.666574895381927490e-01 -5.315806865692138672e-01 -7.088635563850402832e-01
9.770000000000000000e+02 2.536217117309570312e+01 3.057567358016967773e+00 -1.353329896926879883e+00 -4.160872101783752441e-01 -5.308251380920410156e-01 -6.897935867309570312e-01
9.780000000000000000e+02 2.517120361328125000e+01 3.022585391998291016e+00 -1.354864478111267090e+00 -4.199558794498443604e-01 -5.324460864067077637e-01 -7.020061612129211426e-01
9.790000000000000000e+02 2.404158401489257812e+01 2.402930021286010742e+00 -1.449091911315917969e+00 -3.800110518932342529e-01 -5.487308502197265625e-01 -7.264088988304138184e-01
9.800000000000000000e+02 2.333634948730468750e+01 1.951876044273376465e+00 -1.464300513267517090e+00 -3.174772858619689941e-01 -5.345333218574523926e-01 -7.627837657928466797e-01
9.810000000000000000e+02 2.315670204162597656e+01 1.856937885284423828e+00 -1.490809440612792969e+00 -3.454681038856506348e-01 -5.508832931518554688e-01 -7.842471003532409668e-01
9.820000000000000000e+02 2.158537673950195312e+01 3.309469819068908691e-01 -1.425601720809936523e+00 -2.214079201221466064e-01 -4.941028952598571777e-01 -1.048444390296936035e+00
9.830000000000000000e+02 2.110146141052246094e+01 5.008063316345214844e-01 -1.502603054046630859e+00 -5.728522539138793945e-01 -6.226366162300109863e-01 -1.215112328529357910e+00
9.840000000000000000e+02 2.229080390930175781e+01 6.565860509872436523e-01 -1.420884966850280762e+00 -1.615426093339920044e-01 -4.747282862663269043e-01 -8.661836385726928711e-01
9.850000000000000000e+02 1.767992401123046875e+01 -1.525035381317138672e+00 -1.498438596725463867e+00 -4.443915486335754395e-01 -5.828490257263183594e-01 -7.531957626342773438e-01
9.860000000000000000e+02 1.689659881591796875e+01 -2.591476440429687500e+00 -8.425008654594421387e-01 -6.763692498207092285e-01 -4.556610286235809326e-01 -6.197741627693176270e-01
9.870000000000000000e+02 1.801338577270507812e+01 -2.060299396514892578e+00 -1.105434656143188477e+00 -6.538662314414978027e-01 -5.277902483940124512e-01 -7.383955121040344238e-01
9.880000000000000000e+02 1.756884384155273438e+01 -2.093260765075683594e+00 -1.182128190994262695e+00 -6.122405529022216797e-01 -5.383105874061584473e-01 -7.239376902580261230e-01
9.890000000000000000e+02 2.244158554077148438e+01 1.097849369049072266e+00 -1.473640561103820801e+00 -2.762263119220733643e-01 -5.249600410461425781e-01 -8.939116597175598145e-01
9.900000000000000000e+02 2.512308120727539062e+01 2.826035499572753906e+00 -1.364702582359313965e+00 -3.857322335243225098e-01 -5.251304507255554199e-01 -6.688535809516906738e-01
9.910000000000000000e+02 2.452926826477050781e+01 2.702059984207153320e+00 -1.426067829132080078e+00 -3.912856280803680420e-01 -5.452060699462890625e-01 -7.143542766571044922e-01
9.920000000000000000e+02 2.810269737243652344e+01 4.375097751617431641e+00 -1.028863549232482910e+00 -5.929420590400695801e-01 -4.865417182445526123e-01 -5.986651182174682617e-01
9.930000000000000000e+02 5.683591079711914062e+01 3.659683990478515625e+01 1.808763265609741211e+00 3.635368585586547852e+00 1.633239507675170898e+00 -2.632494211196899414e+00
9.940000000000000000e+02 5.851390075683593750e+01 3.638133239746093750e+01 -2.063114894554018974e-03 1.702512359619140625e+01 5.106918334960937500e+00 -4.961036205291748047e+00
9.950000000000000000e+02 5.760792922973632812e+01 3.654104614257812500e+01 1.650057435035705566e+00 8.300841331481933594e+00 2.985269784927368164e+00 -4.565057277679443359e+00
9.960000000000000000e+02 5.703585052490234375e+01 3.658168792724609375e+01 1.930265665054321289e+00 4.244422912597656250e+00 1.852406620979309082e+00 -3.249093770980834961e+00
9.970000000000000000e+02 5.665533447265625000e+01 3.663019561767578125e+01 1.531470894813537598e+00 3.177948236465454102e+00 1.412825703620910645e+00 -2.210576772689819336e+00
9.980000000000000000e+02 5.867838287353515625e+01 3.713966751098632812e+01 -8.455872535705566406e-01 1.566368579864501953e+01 4.445429325103759766e+00 -3.027534008026123047e+00
9.990000000000000000e+02 5.301568222045898438e+01 3.893391036987304688e+01 -1.372814655303955078e+00 7.175057381391525269e-02 -3.903192281723022461e-01 5.103027820587158203e-01
1.000000000000000000e+03 5.383890151977539062e+01 3.839548873901367188e+01 -6.101213693618774414e-01 -1.236196279525756836e+00 -5.538952946662902832e-01 5.059568881988525391e-01
1.001000000000000000e+03 5.448324966430664062e+01 3.798763275146484375e+01 -1.906030923128128052e-01 -2.258908897638320923e-01 -1.249481961131095886e-01 1.165071576833724976e-01
1.002000000000000000e+03 5.351557159423828125e+01 3.878447723388671875e+01 -1.188908100128173828e+00 -1.001423239707946777e+00 -6.570994257926940918e-01 2.901250422000885010e-01
1.003000000000000000e+03 5.385807037353515625e+01 3.971676635742187500e+01 1.639749556779861450e-01 9.314492344856262207e-01 3.286272585391998291e-01 -4.701278209686279297e-01
1.004000000000000000e+03 3.099579811096191406e+01 1.150675296783447266e+01 -1.136595726013183594e+00 -9.733068346977233887e-01 -6.329707503318786621e-01 -1.029121279716491699e+00
1.005000000000000000e+03 5.600469207763671875e+01 3.307217788696289062e+01 3.313953876495361328e+00 1.903182864189147949e+00 1.565141081809997559e+00 2.347081184387207031e+00
1.006000000000000000e+03 3.330038833618164062e+01 1.323922538757324219e+01 -8.390622735023498535e-01 -8.640398383140563965e-01 -5.109306573867797852e-01 -8.391556143760681152e-01
1.007000000000000000e+03 3.268204498291015625e+01 1.321735477447509766e+01 -8.828718662261962891e-01 -8.889256119728088379e-01 -5.315392613410949707e-01 -8.907766938209533691e-01
1.008000000000000000e+03 3.244499588012695312e+01 1.236332988739013672e+01 -8.961995244026184082e-01 -8.506703376770019531e-01 -5.240609645843505859e-01 -8.833172917366027832e-01
1.009000000000000000e+03 3.966227722167968750e+01 2.037052917480468750e+01 -4.751039147377014160e-01 -4.446223676204681396e-01 -2.759178876876831055e-01 -4.968150556087493896e-01
1.010000000000000000e+03 5.160802078247070312e+01 3.192891120910644531e+01 6.726745516061782837e-02 -2.532302141189575195e-01 -5.578882992267608643e-02 -4.627169296145439148e-02
1.011000000000000000e+03 3.994764328002929688e+01 2.064838409423828125e+01 -4.798829257488250732e-01 -4.191624522209167480e-01 -2.697136104106903076e-01 -4.846784472465515137e-01
1.012000000000000000e+03 4.048947143554687500e+01 2.173961067199707031e+01 -5.815727710723876953e-01 -4.379177093505859375e-01 -3.058471381664276123e-01 -5.093657374382019043e-01
1.013000000000000000e+03 2.979263877868652344e+01 1.023670959472656250e+01 -1.254436373710632324e+00 -8.539349436759948730e-01 -6.325114369392395020e-01 -1.028748869895935059e+00
1.014000000000000000e+03 3.017116546630859375e+01 1.054531002044677734e+01 -1.200856208801269531e+00 -8.607619404792785645e-01 -6.184854507446289062e-01 -9.872685074806213379e-01
1.015000000000000000e+03 4.401931381225585938e+01 2.496706581115722656e+01 -3.990403711795806885e-01 -3.254913389682769775e-01 -2.173595130443572998e-01 -3.559361100196838379e-01
1.016000000000000000e+03 4.427736282348632812e+01 2.473879051208496094e+01 -3.489750325679779053e-01 -2.105086594820022583e-01 -1.678451001644134521e-01 -2.660805284976959229e-01
1.017000000000000000e+03 4.052428436279296875e+01 2.119495201110839844e+01 -4.976459145545959473e-01 -3.899912536144256592e-01 -2.662911415100097656e-01 -4.643570780754089355e-01
1.018000000000000000e+03 3.801938629150390625e+01 1.915331840515136719e+01 -5.166155099868774414e-01 -7.507774829864501953e-01 -3.802179098129272461e-01 -6.238647103309631348e-01
1.019000000000000000e+03 3.910864257812500000e+01 1.980158615112304688e+01 -4.806360900402069092e-01 -5.099359154701232910e-01 -2.971715927124023438e-01 -5.264757871627807617e-01
1.020000000000000000e+03 5.133769226074218750e+01 3.164516258239746094e+01 7.645145803689956665e-02 -1.749976575374603271e-01 -2.956386096775531769e-02 -1.871266216039657593e-02
1.021000000000000000e+03 4.110234069824218750e+01 2.173862075805664062e+01 -5.153212547302246094e-01 -3.775890171527862549e-01 -2.678730785846710205e-01 -4.423009753227233887e-01
1.022000000000000000e+03 4.108688735961914062e+01 2.226766395568847656e+01 -5.970430970191955566e-01 -4.556971490383148193e-01 -3.158220648765563965e-01 -5.167665481567382812e-01
1.023000000000000000e+03 3.302527236938476562e+01 1.293943786621093750e+01 -8.398799896240234375e-01 -8.530740141868591309e-01 -5.078862309455871582e-01 -8.568465113639831543e-01
1.024000000000000000e+03 3.390444946289062500e+01 1.331528949737548828e+01 -7.979108095169067383e-01 -7.820019721984863281e-01 -4.739738404750823975e-01 -7.609427571296691895e-01
1.025000000000000000e+03 2.999164009094238281e+01 8.488954544067382812e+00 -8.349115252494812012e-01 -5.932746529579162598e-01 -4.284558594226837158e-01 -3.841924965381622314e-01
1.026000000000000000e+03 4.343196487426757812e+01 2.442773056030273438e+01 -4.494706392288208008e-01 -3.408271968364715576e-01 -2.370893508195877075e-01 -3.898333013057708740e-01
1.027000000000000000e+03 4.196561813354492188e+01 2.257076644897460938e+01 -5.004554390907287598e-01 -3.365415334701538086e-01 -2.510990798473358154e-01 -4.109098315238952637e-01
1.028000000000000000e+03 4.542248153686523438e+01 2.584368133544921875e+01 -2.262800186872482300e-01 -1.090433597564697266e-01 -1.005970165133476257e-01 -1.705583333969116211e-01
1.029000000000000000e+03 5.318720245361328125e+01 3.352084350585937500e+01 4.331959038972854614e-02 -1.738579422235488892e-01 -3.916150704026222229e-02 -2.154612988233566284e-01
1.030000000000000000e+03 5.249771499633789062e+01 3.342750167846679688e+01 -3.107343018054962158e-01 -7.712206840515136719e-01 -3.245864808559417725e-01 -5.198028087615966797e-01
1.031000000000000000e+03 4.570481109619140625e+01 2.611955070495605469e+01 -1.992082446813583374e-01 -8.487075567245483398e-02 -8.522370457649230957e-02 -1.464677602052688599e-01
1.032000000000000000e+03 3.488046646118164062e+01 1.505723571777343750e+01 -7.399725914001464844e-01 -8.200631737709045410e-01 -4.680107235908508301e-01 -7.844709157943725586e-01
1.033000000000000000e+03 3.458050155639648438e+01 1.527616500854492188e+01 -7.483294010162353516e-01 -8.930715918540954590e-01 -4.924203157424926758e-01 -8.230605125427246094e-01
1.034000000000000000e+03 3.274022674560546875e+01 1.264877700805664062e+01 -8.649588823318481445e-01 -8.481819629669189453e-01 -5.139422416687011719e-01 -8.694695234298706055e-01
1.035000000000000000e+03 4.598322677612304688e+01 2.585548782348632812e+01 -1.608680337667465210e-01 4.772562161087989807e-02 -3.394272550940513611e-02 -5.974605679512023926e-02
1.036000000000000000e+03 5.032265853881835938e+01 3.103872108459472656e+01 -7.844749838113784790e-02 -1.247249767184257507e-01 -6.095173954963684082e-02 -9.790346771478652954e-02
1.037000000000000000e+03 5.107308197021484375e+01 3.135849571228027344e+01 9.350708127021789551e-02 -1.164884641766548157e-01 -6.894414313137531281e-03 1.553219463676214218e-02
1.038000000000000000e+03 3.776708602905273438e+01 1.884435653686523438e+01 -5.482414364814758301e-01 -7.930991053581237793e-01 -4.024021625518798828e-01 -6.575598716735839844e-01
1.039000000000000000e+03 3.619578552246093750e+01 1.703570556640625000e+01 -7.118620276451110840e-01 -8.424893617630004883e-01 -4.663054347038269043e-01 -7.732102274894714355e-01
1.040000000000000000e+03 3.727565765380859375e+01 1.770606040954589844e+01 -6.314454674720764160e-01 -7.412240505218505859e-01 -4.118008613586425781e-01 -6.680489778518676758e-01
1.041000000000000000e+03 4.738218307495117188e+01 2.776299667358398438e+01 -8.107541501522064209e-02 2.063212357461452484e-02 -1.813298836350440979e-02 -2.563594467937946320e-02
1.042000000000000000e+03 3.831781005859375000e+01 1.891501426696777344e+01 -5.304967761039733887e-01 -6.285399198532104492e-01 -3.477109968662261963e-01 -5.851126313209533691e-01
1.043000000000000000e+03 4.311476135253906250e+01 2.366232299804687500e+01 -4.278351068496704102e-01 -2.714233398437500000e-01 -2.097775340080261230e-01 -3.471679687500000000e-01
1.044000000000000000e+03 4.225382232666015625e+01 2.335821914672851562e+01 -4.977381825447082520e-01 -3.993426859378814697e-01 -2.691242694854736328e-01 -4.490019679069519043e-01
1.045000000000000000e+03 4.398685073852539062e+01 2.446726989746093750e+01 -3.739402592182159424e-01 -2.280679941177368164e-01 -1.806024760007858276e-01 -2.885165512561798096e-01
1.046000000000000000e+03 3.104518127441406250e+01 1.098709487915039062e+01 -1.092221140861511230e+00 -8.836769461631774902e-01 -5.927694439888000488e-01 -9.421969652175903320e-01
1.047000000000000000e+03 5.004014968872070312e+01 3.075660514831542969e+01 -6.069386377930641174e-02 -9.235121309757232666e-02 -4.591352492570877075e-02 -7.427492737770080566e-02
1.048000000000000000e+03 5.080581665039062500e+01 3.106982612609863281e+01 9.942485392093658447e-02 -5.264583975076675415e-02 1.403370406478643417e-02 4.409604892134666443e-02
1.049000000000000000e+03 5.287802886962890625e+01 3.310815048217773438e+01 1.419921815395355225e-01 -2.642732262611389160e-01 -3.668431192636489868e-02 -4.918228089809417725e-02
1.050000000000000000e+03 3.592670059204101562e+01 1.674145126342773438e+01 -7.242876291275024414e-01 -8.478078842163085938e-01 -4.716286361217498779e-01 -7.810988426208496094e-01
1.051000000000000000e+03 3.701130294799804688e+01 1.740657043457031250e+01 -6.502099037170410156e-01 -7.524696588516235352e-01 -4.208038747310638428e-01 -6.853186488151550293e-01
1.052000000000000000e+03 4.284047317504882812e+01 2.389548683166503906e+01 -4.770689010620117188e-01 -3.625525534152984619e-01 -2.518864274024963379e-01 -4.173704981803894043e-01
1.053000000000000000e+03 4.282568740844726562e+01 2.339343070983886719e+01 -4.434144496917724609e-01 -2.867411673069000244e-01 -2.190466821193695068e-01 -3.655338585376739502e-01
1.054000000000000000e+03 4.654273223876953125e+01 2.694163894653320312e+01 -1.357990801334381104e-01 -2.441799640655517578e-02 -4.806512221693992615e-02 -8.133024722337722778e-02
1.055000000000000000e+03 4.714305496215820312e+01 2.802362632751464844e+01 -1.501856893301010132e-01 -9.728928655385971069e-02 -7.424249500036239624e-02 -1.221825107932090759e-01
1.056000000000000000e+03 4.023564147949218750e+01 2.092290496826171875e+01 -4.881254136562347412e-01 -4.014174342155456543e-01 -2.668628394603729248e-01 -4.740975797176361084e-01
1.057000000000000000e+03 4.253816986083984375e+01 2.312240791320800781e+01 -4.611014425754547119e-01 -3.023939132690429688e-01 -2.290486097335815430e-01 -3.829665780067443848e-01
1.058000000000000000e+03 4.225187301635742188e+01 2.284819030761718750e+01 -4.808263480663299561e-01 -3.190959990024566650e-01 -2.399767041206359863e-01 -3.981634676456451416e-01
1.059000000000000000e+03 3.214695358276367188e+01 1.207963085174560547e+01 -9.450323581695556641e-01 -8.721312284469604492e-01 -5.451490879058837891e-01 -8.866785168647766113e-01
1.060000000000000000e+03 4.975557327270507812e+01 3.047628784179687500e+01 -5.082190781831741333e-02 -7.013086229562759399e-02 -3.628582879900932312e-02 -5.771096795797348022e-02
1.061000000000000000e+03 5.053177642822265625e+01 3.078166198730468750e+01 1.051383092999458313e-01 -1.002096571028232574e-02 2.853520400822162628e-02 6.395311653614044189e-02
1.062000000000000000e+03 4.081303024291992188e+01 2.146615219116210938e+01 -5.071346163749694824e-01 -3.838497996330261230e-01 -2.672953307628631592e-01 -4.532471299171447754e-01
1.063000000000000000e+03 4.852666854858398438e+01 2.884296417236328125e+01 3.787241410464048386e-03 6.489089876413345337e-02 2.060344256460666656e-02 4.238148778676986694e-02
1.064000000000000000e+03 4.772950744628906250e+01 2.855939483642578125e+01 -1.147610917687416077e-01 -7.072734087705612183e-02 -5.564653128385543823e-02 -9.093382209539413452e-02
1.065000000000000000e+03 3.857809066772460938e+01 1.921435737609863281e+01 -5.087152719497680664e-01 -5.890135765075683594e-01 -3.293186426162719727e-01 -5.634596347808837891e-01
1.066000000000000000e+03 4.513896179199218750e+01 2.556686592102050781e+01 -2.571403980255126953e-01 -1.365702599287033081e-01 -1.181131899356842041e-01 -1.942820101976394653e-01
1.067000000000000000e+03 4.369577407836914062e+01 2.419801712036132812e+01 -3.945970237255096436e-01 -2.428695559501647949e-01 -1.912399679422378540e-01 -3.093338906764984131e-01
1.068000000000000000e+03 3.409647369384765625e+01 1.416234588623046875e+01 -8.162540793418884277e-01 -8.587766885757446289e-01 -5.025092363357543945e-01 -8.174961209297180176e-01
1.069000000000000000e+03 3.435737991333007812e+01 1.446481227874755859e+01 -7.901705503463745117e-01 -8.468509912490844727e-01 -4.911064505577087402e-01 -8.089189529418945312e-01
1.070000000000000000e+03 3.565699005126953125e+01 1.644803810119628906e+01 -7.332727909088134766e-01 -8.527356386184692383e-01 -4.758025407791137695e-01 -7.906355857849121094e-01
1.071000000000000000e+03 3.674571609497070312e+01 1.710895729064941406e+01 -6.646059155464172363e-01 -7.587093710899353027e-01 -4.269945919513702393e-01 -7.016032338142395020e-01
1.072000000000000000e+03 4.889629364013671875e+01 2.964301300048828125e+01 -5.399595201015472412e-02 -4.365418478846549988e-02 -2.929504029452800751e-02 -4.745593667030334473e-02
1.073000000000000000e+03 4.710075378417968750e+01 2.748975181579589844e+01 -9.952887147665023804e-02 7.428794633597135544e-03 -2.763002179563045502e-02 -4.372255131602287292e-02
1.074000000000000000e+03 4.766552352905273438e+01 2.803452873229980469e+01 -6.102361902594566345e-02 3.432188555598258972e-02 -8.010519668459892273e-03 -8.015116676688194275e-03
1.075000000000000000e+03 5.025137710571289062e+01 3.049609756469726562e+01 1.030243486166000366e-01 2.673848532140254974e-02 3.892884775996208191e-02 7.693209499120712280e-02
1.076000000000000000e+03 3.047007179260253906e+01 1.089027595520019531e+01 -1.158912181854248047e+00 -8.856700658798217773e-01 -6.133747100830078125e-01 -9.806044101715087891e-01
1.077000000000000000e+03 4.682102966308593750e+01 2.721557235717773438e+01 -1.184838041663169861e-01 -8.028564974665641785e-03 -3.795371204614639282e-02 -6.226595118641853333e-02
1.078000000000000000e+03 3.621194458007812500e+01 1.651838493347167969e+01 -6.901121139526367188e-01 -7.706012129783630371e-01 -4.382140040397644043e-01 -7.260991930961608887e-01
1.079000000000000000e+03 3.594430923461914062e+01 1.622504806518554688e+01 -7.017290592193603516e-01 -7.789980173110961914e-01 -4.442181289196014404e-01 -7.356584072113037109e-01
1.080000000000000000e+03 3.514435958862304688e+01 1.534956359863281250e+01 -7.242196798324584961e-01 -8.073841333389282227e-01 -4.594811499118804932e-01 -7.714362740516662598e-01
1.081000000000000000e+03 3.567684555053710938e+01 1.593266010284423828e+01 -7.085726261138916016e-01 -7.871708869934082031e-01 -4.487230479717254639e-01 -7.471729516983032227e-01
1.082000000000000000e+03 3.541000747680664062e+01 1.564105796813964844e+01 -7.176591753959655762e-01 -7.974856495857238770e-01 -4.545434415340423584e-01 -7.574369907379150391e-01
1.083000000000000000e+03 4.996690368652343750e+01 3.021383285522460938e+01 9.587896615266799927e-02 4.905514419078826904e-02 4.348023235797882080e-02 8.309071511030197144e-02
1.084000000000000000e+03 4.910457229614257812e+01 2.938498878479003906e+01 4.640125110745429993e-02 7.412531226873397827e-02 3.615796938538551331e-02 6.889493018388748169e-02
1.085000000000000000e+03 4.968030166625976562e+01 2.993477058410644531e+01 8.253994584083557129e-02 6.420866400003433228e-02 4.402458295226097107e-02 8.297303318977355957e-02
1.086000000000000000e+03 4.681724166870117188e+01 2.667070960998535156e+01 -8.488007634878158569e-02 1.077896133065223694e-01 6.872863043099641800e-03 1.262549404054880142e-02
1.087000000000000000e+03 2.899226951599121094e+01 8.890361785888671875e+00 -1.789703845977783203e+00 -3.553925156593322754e-01 -6.435289382934570312e-01 -7.685682177543640137e-01
1.088000000000000000e+03 1.288690376281738281e+01 1.300761699676513672e+00 8.637735843658447266e-01 -1.909433752298355103e-01 2.018490582704544067e-01 3.332232832908630371e-01
1.089000000000000000e+03 1.314869499206542969e+01 2.174988985061645508e+00 1.260041117668151855e+00 1.526619791984558105e+00 8.359982967376708984e-01 -8.086933493614196777e-01
1.090000000000000000e+03 1.374400901794433594e+01 2.143716573715209961e+00 6.180417537689208984e-01 3.144112825393676758e+00 1.128646373748779297e+00 -9.376611113548278809e-01
1.091000000000000000e+03 1.347802639007568359e+01 4.999391555786132812e+00 1.101240068674087524e-01 8.076416850090026855e-01 2.753297090530395508e-01 5.802606791257858276e-02
1.092000000000000000e+03 1.443083763122558594e+01 4.103520393371582031e+00 4.559643268585205078e-01 7.782474160194396973e-01 3.702635169029235840e-01 5.351254343986511230e-01
1.093000000000000000e+03 1.386182022094726562e+01 4.061565399169921875e+00 2.440119832754135132e-01 1.178059458732604980e+00 4.266214370727539062e-01 2.770436704158782959e-01
1.094000000000000000e+03 1.472191715240478516e+01 4.389009952545166016e+00 3.893242776393890381e-01 4.918248653411865234e-01 2.643447518348693848e-01 4.169680774211883545e-01
1.095000000000000000e+03 1.413696765899658203e+01 4.385383129119873047e+00 2.266802638769149780e-01 9.315345883369445801e-01 3.474644422531127930e-01 3.399530351161956787e-01
1.096000000000000000e+03 1.635727500915527344e+01 6.145548343658447266e+00 2.635104060173034668e-01 3.075426816940307617e-01 1.713159233331680298e-01 2.771130800247192383e-01
1.097000000000000000e+03 1.524737930297851562e+01 5.568691253662109375e+00 2.207055538892745972e-01 3.788934648036956787e-01 1.798796951770782471e-01 2.976964116096496582e-01
1.098000000000000000e+03 4.802481079101562500e+01 3.746802902221679688e+01 9.240203350782394409e-02 2.101813070476055145e-02 3.402604907751083374e-02 8.237604051828384399e-02
1.099000000000000000e+03 4.760512924194335938e+01 3.677153396606445312e+01 1.635036766529083252e-01 8.977793157100677490e-02 7.598448544740676880e-02 1.088224723935127258e-01
1.100000000000000000e+03 1.610108947753906250e+01 6.435724735260009766e+00 2.138299047946929932e-01 3.281678259372711182e-01 1.625993251800537109e-01 2.421674132347106934e-01
1.101000000000000000e+03 4.997589874267578125e+01 3.767324066162109375e+01 2.195100486278533936e-02 2.395174838602542877e-02 1.377082616090774536e-02 6.025655660778284073e-03
1.102000000000000000e+03 4.904064941406250000e+01 3.861019515991210938e+01 2.450788766145706177e-02 1.468979716300964355e-01 5.142175778746604919e-02 1.790479868650436401e-01
1.103000000000000000e+03 1.441812038421630859e+01 4.693185806274414062e+00 2.150603532791137695e-01 6.973623037338256836e-01 2.737267911434173584e-01 3.575730919837951660e-01
1.104000000000000000e+03 1.912417602539062500e+01 9.599860191345214844e+00 1.609361469745635986e-01 1.937446296215057373e-01 1.064042299985885620e-01 1.788639128208160400e-01
1.105000000000000000e+03 1.777336502075195312e+01 8.121245384216308594e+00 1.833391487598419189e-01 2.290333807468414307e-01 1.237117573618888855e-01 2.020418047904968262e-01
1.106000000000000000e+03 1.885876655578613281e+01 8.735161781311035156e+00 2.071172147989273071e-01 2.140233516693115234e-01 1.263421773910522461e-01 2.035679370164871216e-01
1.107000000000000000e+03 4.629266738891601562e+01 3.573099136352539062e+01 9.124067425727844238e-02 3.132964298129081726e-02 3.677109628915786743e-02 1.113622114062309265e-01
1.108000000000000000e+03 3.332048034667968750e+01 2.318199729919433594e+01 6.978159397840499878e-02 9.321866929531097412e-02 4.890007898211479187e-02 8.075331151485443115e-02
1.109000000000000000e+03 3.227272415161132812e+01 2.199455833435058594e+01 6.810795515775680542e-02 7.640916854143142700e-02 4.335513710975646973e-02 7.524303346872329712e-02
1.110000000000000000e+03 1.497433757781982422e+01 5.276655197143554688e+00 2.141855806112289429e-01 4.383569359779357910e-01 1.957627534866333008e-01 3.259335160255432129e-01
1.111000000000000000e+03 3.617717742919921875e+01 2.655569458007812500e+01 6.175469234585762024e-02 8.947466313838958740e-02 4.536880925297737122e-02 7.402217388153076172e-02
1.112000000000000000e+03 3.527863693237304688e+01 2.627856445312500000e+01 6.217403337359428406e-02 9.101614356040954590e-02 4.595705494284629822e-02 7.731784880161285400e-02
1.113000000000000000e+03 3.105434799194335938e+01 2.158039093017578125e+01 7.884771376848220825e-02 9.192302823066711426e-02 5.123122036457061768e-02 8.489136397838592529e-02
1.114000000000000000e+03 3.168743515014648438e+01 2.145654869079589844e+01 8.404672145843505859e-02 7.917326688766479492e-02 4.896599426865577698e-02 8.179549872875213623e-02
1.115000000000000000e+03 4.977595520019531250e+01 3.810346603393554688e+01 3.279779106378555298e-02 2.701899223029613495e-02 1.794503442943096161e-02 2.097460068762302399e-02
1.116000000000000000e+03 1.943317794799804688e+01 9.297576904296875000e+00 1.870315968990325928e-01 1.723320186138153076e-01 1.078090891242027283e-01 1.789292842149734497e-01
1.117000000000000000e+03 1.965512466430664062e+01 1.021850585937500000e+01 1.496955752372741699e-01 1.770662218332290649e-01 9.802854061126708984e-02 1.721935123205184937e-01
1.118000000000000000e+03 4.916852569580078125e+01 3.756872940063476562e+01 7.386962324380874634e-02 4.571400582790374756e-02 3.587508946657180786e-02 5.516529083251953125e-02
1.119000000000000000e+03 3.606515502929687500e+01 2.721155738830566406e+01 6.791657954454421997e-02 8.989719301462173462e-02 4.734413325786590576e-02 7.678999751806259155e-02
1.120000000000000000e+03 1.667610359191894531e+01 6.994464874267578125e+00 1.963814049959182739e-01 2.698005139827728271e-01 1.398545801639556885e-01 2.312552183866500854e-01
1.121000000000000000e+03 1.749801254272460938e+01 7.265429973602294922e+00 1.879286915063858032e-01 2.205640226602554321e-01 1.225478127598762512e-01 2.089087218046188354e-01
1.122000000000000000e+03 2.539429664611816406e+01 1.530074691772460938e+01 1.166621744632720947e-01 1.202387809753417969e-01 7.107028365135192871e-02 1.206092387437820435e-01
1.123000000000000000e+03 2.420695114135742188e+01 1.551165199279785156e+01 1.117791533470153809e-01 1.348366737365722656e-01 7.398474961519241333e-02 1.262948811054229736e-01
1.124000000000000000e+03 1.722125625610351562e+01 7.553432464599609375e+00 1.848508864641189575e-01 2.389030158519744873e-01 1.271261721849441528e-01 2.135268598794937134e-01
1.125000000000000000e+03 3.409104919433593750e+01 2.410536193847656250e+01 6.505051255226135254e-02 8.983235806226730347e-02 4.646486043930053711e-02 7.647307217121124268e-02
1.126000000000000000e+03 3.343448638916015625e+01 2.415270996093750000e+01 6.544440239667892456e-02 9.147319942712783813e-02 4.707528278231620789e-02 7.762149721384048462e-02
1.127000000000000000e+03 3.478588104248046875e+01 2.562555503845214844e+01 6.626959890127182007e-02 9.210602194070816040e-02 4.751268774271011353e-02 7.639346271753311157e-02
1.128000000000000000e+03 3.223674011230468750e+01 2.261298751831054688e+01 6.912101805210113525e-02 8.450970053672790527e-02 4.608921706676483154e-02 8.169648796319961548e-02
1.129000000000000000e+03 3.805860900878906250e+01 2.861011505126953125e+01 7.635608315467834473e-02 7.875922322273254395e-02 4.653459414839744568e-02 7.662668079137802124e-02
1.130000000000000000e+03 2.111011505126953125e+01 1.106001186370849609e+01 1.585344672203063965e-01 1.766277402639389038e-01 1.005486622452735901e-01 1.643578410148620605e-01
1.131000000000000000e+03 2.019907569885253906e+01 1.088377571105957031e+01 1.483980715274810791e-01 1.719225496053695679e-01 9.609618782997131348e-02 1.611447632312774658e-01
1.132000000000000000e+03 2.169775199890136719e+01 1.161280536651611328e+01 1.503638476133346558e-01 1.609237939119338989e-01 9.338629245758056641e-02 1.556170135736465454e-01
1.133000000000000000e+03 2.113098335266113281e+01 1.172066402435302734e+01 1.408148109912872314e-01 1.712567657232284546e-01 9.362147748470306396e-02 1.537448912858963013e-01
1.134000000000000000e+03 2.540590667724609375e+01 1.598243904113769531e+01 1.143152192234992981e-01 1.240892708301544189e-01 7.152134925127029419e-02 1.215717867016792297e-01
1.135000000000000000e+03 5.116109466552734375e+01 3.822851943969726562e+01 7.011363655328750610e-02 -3.392718732357025146e-03 2.001627534627914429e-02 -3.523880243301391602e-02
1.136000000000000000e+03 3.107486343383789062e+01 2.092486953735351562e+01 9.406124055385589600e-02 9.041348099708557129e-02 5.534241348505020142e-02 9.054725617170333862e-02
1.137000000000000000e+03 1.804048919677734375e+01 7.850943088531494141e+00 1.824845075607299805e-01 2.287717759609222412e-01 1.233768835663795471e-01 2.065910845994949341e-01
1.138000000000000000e+03 1.749725151062011719e+01 7.835519313812255859e+00 1.807082593441009521e-01 2.307689934968948364e-01 1.234431713819503784e-01 2.092777937650680542e-01
1.139000000000000000e+03 3.580956268310546875e+01 2.692587089538574219e+01 6.767962872982025146e-02 8.846274018287658691e-02 4.684271290898323059e-02 7.895717769861221313e-02
1.140000000000000000e+03 2.227168273925781250e+01 1.216986083984375000e+01 1.404107362031936646e-01 1.593219488859176636e-01 8.991980552673339844e-02 1.503122597932815552e-01
1.141000000000000000e+03 2.144507598876953125e+01 1.197511959075927734e+01 1.391652971506118774e-01 1.659777611494064331e-01 9.154291450977325439e-02 1.538103222846984863e-01
1.142000000000000000e+03 3.718999862670898438e+01 2.867195129394531250e+01 7.534603774547576904e-02 8.644402772188186646e-02 4.853701964020729065e-02 7.488429546356201172e-02
1.143000000000000000e+03 2.369369316101074219e+01 1.420976257324218750e+01 1.360297501087188721e-01 1.445710361003875732e-01 8.418023586273193359e-02 1.365613937377929688e-01
1.144000000000000000e+03 3.198516845703125000e+01 2.172213935852050781e+01 7.563926279544830322e-02 7.493209838867187500e-02 4.517140984535217285e-02 7.776477932929992676e-02
1.145000000000000000e+03 3.136582565307617188e+01 2.183714675903320312e+01 7.518880814313888550e-02 8.780483156442642212e-02 4.889808967709541321e-02 8.490770310163497925e-02
1.146000000000000000e+03 2.260540771484375000e+01 1.304418373107910156e+01 1.405923664569854736e-01 1.581500172615051270e-01 8.962271362543106079e-02 1.468815058469772339e-01
1.147000000000000000e+03 4.402463531494140625e+01 3.469736862182617188e+01 7.173609733581542969e-02 7.580281049013137817e-02 4.426167160272598267e-02 7.703623175621032715e-02
1.148000000000000000e+03 2.204258537292480469e+01 1.249480819702148438e+01 1.387666314840316772e-01 1.591551154851913452e-01 8.937652409076690674e-02 1.505565643310546875e-01
1.149000000000000000e+03 2.452332687377929688e+01 1.446142768859863281e+01 1.394627392292022705e-01 1.243851780891418457e-01 7.915437221527099609e-02 1.322132200002670288e-01
1.150000000000000000e+03 2.452124404907226562e+01 1.512819766998291016e+01 1.195301339030265808e-01 1.298550367355346680e-01 7.481554895639419556e-02 1.282541006803512573e-01
1.151000000000000000e+03 3.250760650634765625e+01 2.287563896179199219e+01 6.986999511718750000e-02 8.529733866453170776e-02 4.655019938945770264e-02 7.903670519590377808e-02
1.152000000000000000e+03 3.276520919799804688e+01 2.315034294128417969e+01 6.888777017593383789e-02 8.830168843269348145e-02 4.715683683753013611e-02 7.922083884477615356e-02
1.153000000000000000e+03 1.694871139526367188e+01 7.273749828338623047e+00 1.874721795320510864e-01 2.473996281623840332e-01 1.304615437984466553e-01 2.240650504827499390e-01
1.154000000000000000e+03 3.400408935546875000e+01 2.473362350463867188e+01 6.583675742149353027e-02 9.112602472305297852e-02 4.708883538842201233e-02 7.819624245166778564e-02
1.155000000000000000e+03 3.831333541870117188e+01 2.891679191589355469e+01 7.450696825981140137e-02 7.502660155296325684e-02 4.486007243394851685e-02 7.448942959308624268e-02
1.156000000000000000e+03 2.988556098937988281e+01 2.035050964355468750e+01 9.136709570884704590e-02 9.675913304090499878e-02 5.643787235021591187e-02 9.530084580183029175e-02
1.157000000000000000e+03 3.050501823425292969e+01 2.034238433837890625e+01 9.407270699739456177e-02 9.481882303953170776e-02 5.666745826601982117e-02 9.412399679422378540e-02
1.158000000000000000e+03 2.424127960205078125e+01 1.482586002349853516e+01 1.241305992007255554e-01 1.344401985406875610e-01 7.757123559713363647e-02 1.305654644966125488e-01
1.159000000000000000e+03 2.570243835449218750e+01 1.624805831909179688e+01 1.139864325523376465e-01 1.244911104440689087e-01 7.154326140880584717e-02 1.196352764964103699e-01
1.160000000000000000e+03 1.831677818298339844e+01 8.705295562744140625e+00 1.861685365438461304e-01 2.211668193340301514e-01 1.222006082534790039e-01 1.914622932672500610e-01
1.161000000000000000e+03 1.666387748718261719e+01 7.570723056793212891e+00 1.726203560829162598e-01 2.703339159488677979e-01 1.328862756490707397e-01 2.167461067438125610e-01
1.162000000000000000e+03 4.283264160156250000e+01 3.368880081176757812e+01 8.522363752126693726e-02 5.032489821314811707e-02 4.066456109285354614e-02 6.721705943346023560e-02
1.163000000000000000e+03 1.639337158203125000e+01 6.715053081512451172e+00 2.024941742420196533e-01 2.956956326961517334e-01 1.494569480419158936e-01 2.413950115442276001e-01
1.164000000000000000e+03 2.681316184997558594e+01 1.670768928527832031e+01 1.206776201725006104e-01 1.267535090446472168e-01 7.422933727502822876e-02 1.226723864674568176e-01
1.165000000000000000e+03 2.514372253417968750e+01 1.639059448242187500e+01 1.092460453510284424e-01 1.255037784576416016e-01 7.042495161294937134e-02 1.192661821842193604e-01
1.166000000000000000e+03 3.372663879394531250e+01 2.444605255126953125e+01 6.578239798545837402e-02 9.072401374578475952e-02 4.695192351937294006e-02 7.971242815256118774e-02
1.167000000000000000e+03 4.346919250488281250e+01 3.393591690063476562e+01 7.364939898252487183e-02 4.571427032351493835e-02 3.580909967422485352e-02 6.903956085443496704e-02
1.168000000000000000e+03 4.071462631225585938e+01 3.115942382812500000e+01 7.290574908256530762e-02 5.301978439092636108e-02 3.777765855193138123e-02 7.579638063907623291e-02
1.169000000000000000e+03 4.006127929687500000e+01 3.067200469970703125e+01 7.464198768138885498e-02 6.162793561816215515e-02 4.088097810745239258e-02 7.521896064281463623e-02
1.170000000000000000e+03 3.887780380249023438e+01 2.953568077087402344e+01 6.758230179548263550e-02 7.331363856792449951e-02 4.226878285408020020e-02 7.278183847665786743e-02
1.171000000000000000e+03 2.232764053344726562e+01 1.276629924774169922e+01 1.395664662122726440e-01 1.588382422924041748e-01 8.952140808105468750e-02 1.483229249715805054e-01
1.172000000000000000e+03 4.219810867309570312e+01 3.247013473510742188e+01 7.939771562814712524e-02 6.760510057210922241e-02 4.410084709525108337e-02 6.415525078773498535e-02
1.173000000000000000e+03 2.725140190124511719e+01 1.810253334045410156e+01 1.049705222249031067e-01 1.168735548853874207e-01 6.655322015285491943e-02 1.092414706945419312e-01
1.174000000000000000e+03 2.174891662597656250e+01 1.223147678375244141e+01 1.386432647705078125e-01 1.623474955558776855e-01 9.029722958803176880e-02 1.521785557270050049e-01
1.175000000000000000e+03 4.405562973022460938e+01 3.399796295166015625e+01 8.643747121095657349e-02 7.262901216745376587e-02 4.771994799375534058e-02 6.103094294667243958e-02
1.176000000000000000e+03 3.503610229492187500e+01 2.594554901123046875e+01 6.471017003059387207e-02 9.156524389982223511e-02 4.688262566924095154e-02 7.607427239418029785e-02
1.177000000000000000e+03 3.022680091857910156e+01 2.004470825195312500e+01 9.429160505533218384e-02 9.525053203105926514e-02 5.686264112591743469e-02 9.495997428894042969e-02
1.178000000000000000e+03 2.961153602600097656e+01 2.005624389648437500e+01 9.279903024435043335e-02 9.773189574480056763e-02 5.715927481651306152e-02 9.585300832986831665e-02
1.179000000000000000e+03 2.599919891357421875e+01 1.651014518737792969e+01 1.142950505018234253e-01 1.252564787864685059e-01 7.186546176671981812e-02 1.185507625341415405e-01
1.180000000000000000e+03 4.313632965087890625e+01 3.330183792114257812e+01 8.311200141906738281e-02 5.126685649156570435e-02 4.031365737318992615e-02 7.098361104726791382e-02
1.181000000000000000e+03 2.935865974426269531e+01 1.974937248229980469e+01 9.407742321491241455e-02 9.895799309015274048e-02 5.791062489151954651e-02 9.774693101644515991e-02
1.182000000000000000e+03 4.080083084106445312e+01 3.173600578308105469e+01 6.959327310323715210e-02 5.457625910639762878e-02 3.725086152553558350e-02 6.818382441997528076e-02
1.183000000000000000e+03 3.039200973510742188e+01 2.103037643432617188e+01 8.585061877965927124e-02 9.455104917287826538e-02 5.412049964070320129e-02 8.900621533393859863e-02
1.184000000000000000e+03 3.014737319946289062e+01 2.066732025146484375e+01 8.859754353761672974e-02 9.629298001527786255e-02 5.546715855598449707e-02 9.198177605867385864e-02
1.185000000000000000e+03 4.597639465332031250e+01 3.551950836181640625e+01 1.303386539220809937e-01 6.458067148923873901e-02 5.847579613327980042e-02 6.164349988102912903e-02
1.186000000000000000e+03 4.619672775268554688e+01 3.654418945312500000e+01 1.561054587364196777e-01 5.089379474520683289e-02 6.209977716207504272e-02 8.606389164924621582e-02
1.187000000000000000e+03 2.830801391601562500e+01 1.862719345092773438e+01 1.041085869073867798e-01 1.060135811567306519e-01 6.303665041923522949e-02 1.056829765439033508e-01
1.188000000000000000e+03 2.911712646484375000e+01 1.889920616149902344e+01 1.045665368437767029e-01 9.887287765741348267e-02 6.103182211518287659e-02 1.015872582793235779e-01
1.189000000000000000e+03 4.132073974609375000e+01 3.166021537780761719e+01 6.813273578882217407e-02 5.018668249249458313e-02 3.549582511186599731e-02 7.381704449653625488e-02
1.190000000000000000e+03 2.803095245361328125e+01 1.835245895385742188e+01 1.071305796504020691e-01 1.081183329224586487e-01 6.457467377185821533e-02 1.078125089406967163e-01
1.191000000000000000e+03 2.883246040344238281e+01 1.862493133544921875e+01 1.071399375796318054e-01 1.004505380988121033e-01 6.227714195847511292e-02 1.042346432805061340e-01
1.192000000000000000e+03 3.552154159545898438e+01 2.663656234741210938e+01 6.542583554983139038e-02 8.847068995237350464e-02 4.616895690560340881e-02 7.673685997724533081e-02
1.193000000000000000e+03 3.565425109863281250e+01 2.735908508300781250e+01 6.101248785853385925e-02 8.499301224946975708e-02 4.380165040493011475e-02 7.286198437213897705e-02
1.194000000000000000e+03 2.884167098999023438e+01 1.965861892700195312e+01 9.295274317264556885e-02 1.024269834160804749e-01 5.861391872167587280e-02 9.928987920284271240e-02
1.195000000000000000e+03 3.944095230102539062e+01 3.010751152038574219e+01 6.948313862085342407e-02 6.732114404439926147e-02 4.104128479957580566e-02 7.586108893156051636e-02
1.196000000000000000e+03 2.775064086914062500e+01 1.808048820495605469e+01 1.094672158360481262e-01 1.119103729724884033e-01 6.641327589750289917e-02 1.102186441421508789e-01
1.197000000000000000e+03 4.038111877441406250e+01 3.093883323669433594e+01 8.295030891895294189e-02 7.172226160764694214e-02 4.640177264809608459e-02 6.515277922153472900e-02
1.198000000000000000e+03 2.911858177185058594e+01 1.944031906127929688e+01 9.680930525064468384e-02 1.005220785737037659e-01 5.919941514730453491e-02 9.918770939111709595e-02
1.199000000000000000e+03 5.154874801635742188e+01 3.951022338867187500e+01 -2.436545193195343018e-01 -3.643131256103515625e-02 -8.402574807405471802e-02 3.691050112247467041e-01
1.200000000000000000e+03 5.045526504516601562e+01 3.847101974487304688e+01 -1.028591021895408630e-01 6.825780868530273438e-02 -1.038038823753595352e-02 1.729904673993587494e-02
1.201000000000000000e+03 5.524704360961914062e+01 3.756515121459960938e+01 4.929164648056030273e-01 9.228760600090026855e-01 4.247377514839172363e-01 -2.685511410236358643e-01
1.202000000000000000e+03 5.345428085327148438e+01 3.395923995971679688e+01 -2.066875696182250977e-01 -1.262402385473251343e-01 -9.987834095954895020e-02 -3.288103044033050537e-01
1.203000000000000000e+03 5.393593978881835938e+01 3.289928436279296875e+01 9.568614959716796875e-01 5.377134680747985840e-01 4.483724832534790039e-01 5.468062758445739746e-01
1.204000000000000000e+03 5.306117248535156250e+01 3.244346237182617188e+01 6.108692884445190430e-01 1.741269677877426147e-01 2.354988753795623779e-01 4.325023591518402100e-01
1.205000000000000000e+03 1.029766750335693359e+01 -3.659859657287597656e+00 -3.670412003993988037e-01 -6.370625644922256470e-02 -1.292242407798767090e-01 -3.122091889381408691e-01
1.206000000000000000e+03 1.174212551116943359e+01 -2.971917152404785156e+00 -5.398415327072143555e-01 -7.989742606878280640e-02 -1.859216839075088501e-01 -3.448380231857299805e-01
1.207000000000000000e+03 9.499015808105468750e+00 -2.805792808532714844e+00 -3.442041873931884766e-01 -1.899695955216884613e-02 -1.089603379368782043e-01 -2.118954062461853027e-01
1.208000000000000000e+03 1.367784500122070312e+01 1.106969952583312988e+00 1.934811234474182129e+00 1.100567936897277832e+00 9.106137752532958984e-01 -3.643993139266967773e-01
1.209000000000000000e+03 1.205466175079345703e+01 1.455485105514526367e+00 2.142388373613357544e-01 -3.520751893520355225e-01 -4.135090857744216919e-02 5.021279454231262207e-01
1.210000000000000000e+03 9.016165733337402344e+00 2.449626445770263672e+00 -6.870827078819274902e-02 -2.370604276657104492e-01 -9.173060953617095947e-02 3.193006515502929688e-01
1.211000000000000000e+03 1.247379970550537109e+01 2.597165346145629883e+00 8.859160542488098145e-01 2.619734704494476318e-01 3.443668782711029053e-01 -3.679993748664855957e-01
1.212000000000000000e+03 1.192410182952880859e+01 2.540133714675903320e+00 7.417691349983215332e-01 -1.177669763565063477e-01 1.872006356716156006e-01 -4.659512266516685486e-02
1.213000000000000000e+03 6.007155609130859375e+01 3.598899459838867188e+01 4.499167442321777344e+00 1.921389961242675781e+01 7.113920211791992188e+00 3.438057422637939453e+00
1.214000000000000000e+03 6.150028228759765625e+01 3.558213043212890625e+01 5.641770362854003906e+00 1.395298099517822266e+01 5.878425598144531250e+00 2.561817884445190430e+00
1.215000000000000000e+03 5.965184402465820312e+01 3.320763778686523438e+01 4.180301189422607422e+00 1.996494293212890625e+01 7.243573188781738281e+00 -6.425682306289672852e-01
1.216000000000000000e+03 6.186334991455078125e+01 3.688617324829101562e+01 2.418929100036621094e+00 1.454726123809814453e+01 5.089857101440429688e+00 2.403336286544799805e+00
1.217000000000000000e+03 6.037343597412109375e+01 3.402479553222656250e+01 8.765176773071289062e+00 1.678011512756347656e+01 7.663587570190429688e+00 -1.176679968833923340e+00
1.218000000000000000e+03 3.033063316345214844e+01 7.852630615234375000e+00 -3.937196731567382812e-01 -7.341307997703552246e-01 -3.383551537990570068e-01 -4.913719892501831055e-01
1.219000000000000000e+03 3.142440032958984375e+01 7.822156906127929688e+00 -5.471410155296325684e-01 -6.063055992126464844e-01 -3.460339903831481934e-01 -5.036739110946655273e-01
1.220000000000000000e+03 3.046783065795898438e+01 6.836564064025878906e+00 -4.799622595310211182e-01 -6.069446802139282227e-01 -3.260720670223236084e-01 -7.260176539421081543e-01
1.221000000000000000e+03 3.086436462402343750e+01 7.988151550292968750e+00 -5.519753098487854004e-01 -6.498757600784301758e-01 -3.605553209781646729e-01 -4.607941508293151855e-01
1.222000000000000000e+03 6.116143417358398438e+01 3.356843948364257812e+01 6.165760040283203125e+00 1.426391315460205078e+01 6.128901958465576172e+00 -1.151003479957580566e+00
1.223000000000000000e+03 3.113664627075195312e+01 6.748670101165771484e+00 -5.237036943435668945e-01 -5.135898590087890625e-01 -3.111880719661712646e-01 -5.784822702407836914e-01
1.224000000000000000e+03 5.887568950653076172e+00 1.851591706275939941e+00 -1.600202172994613647e-01 -4.830007255077362061e-02 -6.249608844518661499e-02 1.489111334085464478e-01
1.225000000000000000e+03 6.656233787536621094e+00 1.839529991149902344e+00 -2.008812129497528076e-01 -5.383031070232391357e-02 -7.641345262527465820e-02 1.814432889223098755e-01
1.226000000000000000e+03 7.481213569641113281e+00 2.504132270812988281e+00 -1.287761479616165161e-01 -1.213798597455024719e-01 -7.504680007696151733e-02 2.459125369787216187e-01
1.227000000000000000e+03 1.550379872322082520e+00 7.862852573394775391e+00 9.036585688591003418e-03 -1.804567873477935791e-01 -5.142606049776077271e-02 3.618034720420837402e-02
1.228000000000000000e+03 5.397594928741455078e+00 3.304936885833740234e+00 -4.512144625186920166e-02 -8.592028915882110596e-02 -3.931252285838127136e-02 1.605663597583770752e-01
1.229000000000000000e+03 1.316353559494018555e+00 3.523447036743164062e+00 -7.412788458168506622e-03 -6.446272879838943481e-02 -2.156265638768672943e-02 4.412832111120223999e-02
1.230000000000000000e+03 2.786022186279296875e+00 2.048522233963012695e+00 -4.298209026455879211e-02 -3.276248648762702942e-02 -2.272337302565574646e-02 6.099596619606018066e-02
1.231000000000000000e+03 1.057258510589599609e+01 2.279978990554809570e+00 1.384673565626144409e-01 -3.783295154571533203e-01 -7.195864617824554443e-02 3.382639288902282715e-01
1.232000000000000000e+03 9.798810005187988281e+00 2.389207363128662109e+00 1.424230448901653290e-02 -3.221246600151062012e-01 -9.236470609903335571e-02 3.513337969779968262e-01
1.233000000000000000e+03 8.722476959228515625e+00 -2.790199995040893555e+00 -2.799107134342193604e-01 -2.843458764255046844e-02 -9.250359237194061279e-02 -1.846274137496948242e-01
1.234000000000000000e+03 7.932293891906738281e+00 -2.795245170593261719e+00 -2.334750294685363770e-01 -2.459904365241527557e-02 -7.742222398519515991e-02 -1.618404835462570190e-01
1.235000000000000000e+03 6.221831798553466797e+00 -1.944404006004333496e+00 -1.313199698925018311e-01 -1.863723248243331909e-02 -4.498716071248054504e-02 -8.353967964649200439e-02
1.236000000000000000e+03 9.549326896667480469e+00 -3.641197443008422852e+00 -3.141293227672576904e-01 -6.492442637681961060e-02 -1.137161254882812500e-01 -2.765127122402191162e-01
1.237000000000000000e+03 4.587333202362060547e+00 -1.968070864677429199e+00 -7.208545506000518799e-02 -2.017618343234062195e-02 -2.767849154770374298e-02 -5.621619522571563721e-02
1.238000000000000000e+03 6.331936359405517578e+00 -2.840229749679565430e+00 -1.505302637815475464e-01 -3.285223245620727539e-02 -5.501474812626838684e-02 -1.246163472533226013e-01
1.239000000000000000e+03 5.656031131744384766e+00 -3.797547578811645508e+00 -1.229657083749771118e-01 -6.034533679485321045e-02 -5.499331280589103699e-02 -1.443057209253311157e-01
1.240000000000000000e+03 7.134500980377197266e+00 -2.813968420028686523e+00 -1.833182126283645630e-01 -3.470711410045623779e-02 -6.540760397911071777e-02 -1.429669409990310669e-01
1.241000000000000000e+03 1.492192029953002930e+00 -9.286521911621093750e+00 -5.944787058979272842e-03 -2.594366073608398438e-01 -7.961441576480865479e-02 -8.277416974306106567e-02
1.242000000000000000e+03 4.840917289257049561e-01 -6.506667613983154297e+00 2.042141044512391090e-03 -1.047084331512451172e-01 -3.079988807439804077e-02 -2.204007096588611603e-02
1.243000000000000000e+03 2.549352884292602539e+00 -4.040073394775390625e+00 -3.324885293841362000e-02 -5.787535011768341064e-02 -2.733726240694522858e-02 -6.031805649399757385e-02
1.244000000000000000e+03 5.114250779151916504e-01 -3.627065420150756836e+00 -1.845609280280768871e-03 -1.464943028986454010e-02 -4.948511719703674316e-03 -1.043186616152524948e-02
1.245000000000000000e+03 1.496651268005371094e+01 -2.432899236679077148e+00 -9.857658743858337402e-01 -3.777694702148437500e-01 -4.090605974197387695e-01 -6.097726225852966309e-01
1.246000000000000000e+03 1.491618442535400391e+01 -3.064867734909057617e+00 -7.476443052291870117e-01 -4.286730289459228516e-01 -3.528952002525329590e-01 -6.114535331726074219e-01
1.247000000000000000e+03 1.414238834381103516e+01 -3.818239927291870117e+00 -5.347918272018432617e-01 -3.478604853153228760e-01 -2.647956907749176025e-01 -5.703285336494445801e-01
1.248000000000000000e+03 1.249886894226074219e+01 -3.027080535888671875e+00 -6.071691513061523438e-01 -1.030686870217323303e-01 -2.130713611841201782e-01 -3.939568102359771729e-01
1.249000000000000000e+03 1.329058074951171875e+01 -3.060126066207885742e+00 -6.896886825561523438e-01 -1.850304454565048218e-01 -2.624157369136810303e-01 -4.807157814502716064e-01
1.250000000000000000e+03 5.753865051269531250e+01 3.749882507324218750e+01 5.368608236312866211e-01 8.259358406066894531e+00 2.638865709304809570e+00 -3.505584478378295898e+00
1.251000000000000000e+03 1.977677345275878906e+01 -1.475200772285461426e+00 -1.175323843955993652e+00 -1.774335741996765137e+00 -8.848978877067565918e-01 -1.257755756378173828e+00
1.252000000000000000e+03 2.227942848205566406e+01 -1.459851622581481934e+00 7.040398120880126953e-01 4.759883582592010498e-01 3.540084660053253174e-01 -2.768444120883941650e-01
1.253000000000000000e+03 2.136940956115722656e+01 -4.407783448696136475e-01 -1.215386748313903809e+00 8.285965770483016968e-02 -3.397581279277801514e-01 -8.532292842864990234e-01
1.254000000000000000e+03 4.372309875488281250e+01 -3.861591339111328125e+01 1.822950005531311035e+00 2.794924736022949219e+00 1.385362505912780762e+00 1.446545004844665527e+00
1.255000000000000000e+03 4.173976135253906250e+01 -3.979780197143554688e+01 1.508111715316772461e+00 8.180859684944152832e-01 6.978592872619628906e-01 4.339729845523834229e-01
1.256000000000000000e+03 4.215261459350585938e+01 -4.164328002929687500e+01 1.302914857864379883e+00 1.683183193206787109e+00 8.958294391632080078e-01 3.105194866657257080e-01
1.257000000000000000e+03 4.261683273315429688e+01 -3.071298599243164062e+01 4.612981677055358887e-01 2.117875576019287109e+00 7.737520933151245117e-01 -9.698639512062072754e-01
1.258000000000000000e+03 3.968888092041015625e+01 -3.960726547241210938e+01 1.124056935310363770e+00 4.583364427089691162e-01 4.747180342674255371e-01 -4.269547760486602783e-01
1.259000000000000000e+03 4.514823532104492188e+01 -3.621668624877929688e+01 6.289613246917724609e-01 5.973156929016113281e+00 1.980635523796081543e+00 2.476352304220199585e-01
1.260000000000000000e+03 4.747277832031250000e+01 -3.383596038818359375e+01 7.688050270080566406e-01 4.507791519165039062e+00 1.582978963851928711e+00 2.433566749095916748e-01
1.261000000000000000e+03 3.058495330810546875e+01 -1.076518344879150391e+01 -7.856145501136779785e-02 -2.590241134166717529e-01 -1.012756675481796265e-01 1.281023025512695312e-01
1.262000000000000000e+03 3.017410087585449219e+01 -6.270706653594970703e+00 2.139741480350494385e-01 -1.491902172565460205e-01 1.943518221378326416e-02 -3.365423530340194702e-02
1.263000000000000000e+03 1.915377807617187500e+01 -5.446106910705566406e+00 9.340867400169372559e-02 3.627837449312210083e-02 3.890611603856086731e-02 -2.518505044281482697e-02
1.264000000000000000e+03 3.839427566528320312e+01 -2.372122192382812500e+01 4.788907244801521301e-02 4.248711466789245605e-01 1.418280750513076782e-01 -1.729786396026611328e-01
1.265000000000000000e+03 3.707406997680664062e+01 -2.128565979003906250e+01 -1.229243446141481400e-02 2.133495956659317017e-01 6.031715124845504761e-02 -5.163419246673583984e-02
1.266000000000000000e+03 2.755821418762207031e+01 -2.919677734375000000e+01 1.912913918495178223e-01 5.204730629920959473e-01 2.135293334722518921e-01 -3.137943744659423828e-01
1.267000000000000000e+03 2.161668777465820312e+01 -1.200129699707031250e+01 1.494903862476348877e-01 4.322843551635742188e-01 1.745324283838272095e-01 -2.813646793365478516e-01
1.268000000000000000e+03 1.975153160095214844e+01 -8.222595214843750000e+00 1.172280758619308472e-01 3.159487247467041016e-01 1.299530416727066040e-01 -1.377150565385818481e-01
1.269000000000000000e+03 2.817992401123046875e+01 -3.412132501602172852e+00 2.234877049922943115e-01 -1.670523136854171753e-01 1.693061925470829010e-02 -1.591610908508300781e-02
1.270000000000000000e+03 2.367904472351074219e+01 -1.543499588966369629e+00 3.461192548274993896e-01 2.120042890310287476e-01 1.674370616674423218e-01 -1.755228489637374878e-01
1.271000000000000000e+03 1.857332229614257812e+01 -8.688517570495605469e+00 1.246264502406120300e-01 4.798737168312072754e-02 5.178414657711982727e-02 -2.117870002985000610e-01
1.272000000000000000e+03 3.640975189208984375e+01 -3.651779937744140625e+01 3.675417304039001465e-01 3.907211422920227051e-01 2.274788618087768555e-01 -5.038930177688598633e-01
1.273000000000000000e+03 3.467124557495117188e+01 -3.838116073608398438e+01 6.142033338546752930e-01 3.539893031120300293e-01 2.904577851295471191e-01 -3.151290416717529297e-01
1.274000000000000000e+03 3.200799179077148438e+01 -1.308611011505126953e+01 -1.088082268834114075e-01 -2.477590292692184448e-01 -1.069701761007308960e-01 1.583604067564010620e-01
1.275000000000000000e+03 3.019579887390136719e+01 -3.087611389160156250e+01 3.209457993507385254e-01 6.209004521369934082e-01 2.825538814067840576e-01 -3.518958985805511475e-01
1.276000000000000000e+03 2.654176902770996094e+01 -5.243293762207031250e+00 2.836497724056243896e-01 1.076399087905883789e-01 1.173868998885154724e-01 -1.302456110715866089e-01
1.277000000000000000e+03 2.393334388732910156e+01 -1.854810523986816406e+01 1.525165438652038574e-01 4.403108954429626465e-01 1.778482347726821899e-01 -2.891322672367095947e-01
1.278000000000000000e+03 2.443568611145019531e+01 -1.670959091186523438e+01 1.625404953956604004e-01 4.695253074169158936e-01 1.896197348833084106e-01 -2.985275089740753174e-01
1.279000000000000000e+03 2.632093620300292969e+01 -2.343521499633789062e+01 1.685747504234313965e-01 5.406392216682434082e-01 2.127641886472702026e-01 -3.003149628639221191e-01
1.280000000000000000e+03 2.936350059509277344e+01 -2.652455329895019531e+01 1.839420497417449951e-01 6.571790575981140137e-01 2.523363232612609863e-01 -3.336615264415740967e-01
1.281000000000000000e+03 2.204322433471679688e+01 1.439629495143890381e-01 -1.221632957458496094e+00 2.994148992002010345e-02 -3.575074374675750732e-01 -7.710065245628356934e-01
1.282000000000000000e+03 2.945835113525390625e+01 -2.971912193298339844e+01 2.233627438545227051e-01 6.146151423454284668e-01 2.513933777809143066e-01 -3.635762929916381836e-01
1.283000000000000000e+03 2.132013893127441406e+01 -1.384083271026611328e+01 1.772796958684921265e-01 3.559130430221557617e-01 1.599578112363815308e-01 -2.668267190456390381e-01
1.284000000000000000e+03 2.877102851867675781e+01 -2.846838569641113281e+01 2.297670990228652954e-01 5.981026291847229004e-01 2.483609169721603394e-01 -3.352103531360626221e-01
1.285000000000000000e+03 2.573653411865234375e+01 -1.910646629333496094e+01 1.518445014953613281e-01 5.341520309448242188e-01 2.057989686727523804e-01 -2.947044372558593750e-01
1.286000000000000000e+03 3.957057189941406250e+01 -2.300890350341796875e+01 6.526611745357513428e-03 8.989117145538330078e-01 2.716315090656280518e-01 -2.366895973682403564e-01
1.287000000000000000e+03 3.974514389038085938e+01 -2.610898017883300781e+01 1.407894343137741089e-01 7.343876957893371582e-01 2.625531256198883057e-01 -3.469422459602355957e-01
1.288000000000000000e+03 2.874049568176269531e+01 -2.528920173645019531e+01 1.646195054054260254e-01 6.488809585571289062e-01 2.440501302480697632e-01 -3.365547657012939453e-01
1.289000000000000000e+03 2.810339927673339844e+01 -2.720063591003417969e+01 1.646121293306350708e-01 5.922004580497741699e-01 2.270437926054000854e-01 -3.302098810672760010e-01
1.290000000000000000e+03 4.283571243286132812e+01 -2.879145050048828125e+01 1.522055864334106445e-01 2.189290761947631836e+00 7.024489045143127441e-01 -6.679685115814208984e-01
1.291000000000000000e+03 4.358516311645507812e+01 -2.984790611267089844e+01 1.946648061275482178e-01 2.713093757629394531e+00 8.723276257514953613e-01 -7.506880760192871094e-01
1.292000000000000000e+03 2.761290168762207031e+01 -4.732479572296142578e+00 2.176004499197006226e-01 -7.839459180831909180e-02 4.176175594329833984e-02 -7.687495648860931396e-02
1.293000000000000000e+03 4.430395889282226562e+01 -3.089395713806152344e+01 1.465222239494323730e-01 3.511931896209716797e+00 1.097536206245422363e+00 -7.057850956916809082e-01
1.294000000000000000e+03 4.493492889404296875e+01 -3.190629959106445312e+01 2.659600973129272461e-01 3.815427541732788086e+00 1.224416255950927734e+00 -4.271522164344787598e-01
1.295000000000000000e+03 4.115025329589843750e+01 -2.843889808654785156e+01 2.758874595165252686e-01 1.173934459686279297e+00 4.349465668201446533e-01 -5.988100171089172363e-01
1.296000000000000000e+03 1.987084770202636719e+01 -1.145141029357910156e+01 1.572087258100509644e-01 2.630779147148132324e-01 1.260859966278076172e-01 -2.343630790710449219e-01
1.297000000000000000e+03 2.061417579650878906e+01 -1.265627384185791016e+01 1.790817975997924805e-01 3.402071893215179443e-01 1.557866930961608887e-01 -2.395477890968322754e-01
1.298000000000000000e+03 3.517366409301757812e+01 -1.579867744445800781e+01 -6.438035517930984497e-02 1.160018220543861389e-01 1.548643875867128372e-02 3.488824889063835144e-02
1.299000000000000000e+03 2.613958168029785156e+01 -3.515189170837402344e+00 3.778004348278045654e-01 2.859375439584255219e-02 1.219182610511779785e-01 -1.456279754638671875e-01
1.300000000000000000e+03 2.157163619995117188e+01 -1.681869506835937500e+01 1.583359837532043457e-01 3.447610735893249512e-01 1.509291231632232666e-01 -2.522706985473632812e-01
1.301000000000000000e+03 2.265923500061035156e+01 -1.619227218627929688e+01 1.589086949825286865e-01 4.120397865772247314e-01 1.712845414876937866e-01 -2.762597501277923584e-01
1.302000000000000000e+03 3.676728439331054688e+01 -1.805642890930175781e+01 -4.723004251718521118e-02 3.628604710102081299e-01 9.468913078308105469e-02 -3.544652462005615234e-02
1.303000000000000000e+03 3.441828155517578125e+01 -1.467908954620361328e+01 -5.567986518144607544e-02 2.996186353266239166e-02 -7.715400308370590210e-03 5.867423862218856812e-02
1.304000000000000000e+03 3.366958999633789062e+01 -1.355994796752929688e+01 -6.011109054088592529e-02 -3.617020323872566223e-02 -2.888438850641250610e-02 6.855076551437377930e-02
1.305000000000000000e+03 1.837391853332519531e+01 -7.167180538177490234e+00 1.095630899071693420e-01 -1.007561758160591125e-02 2.984624169766902924e-02 -1.437277197837829590e-01
1.306000000000000000e+03 3.779279708862304688e+01 -1.716154289245605469e+01 -4.316709563136100769e-02 6.503066420555114746e-01 1.821418702602386475e-01 -8.378462493419647217e-02
1.307000000000000000e+03 2.990923881530761719e+01 -9.575553894042968750e+00 -2.761225216090679169e-02 -2.402928471565246582e-01 -8.037152886390686035e-02 1.222702935338020325e-01
1.308000000000000000e+03 3.078605461120605469e+01 -9.037942886352539062e+00 8.821073919534683228e-03 -1.580518782138824463e-01 -4.476924240589141846e-02 3.849252685904502869e-02
1.309000000000000000e+03 2.687309455871582031e+01 -2.469232940673828125e+01 1.590108126401901245e-01 5.532559752464294434e-01 2.136800289154052734e-01 -3.030596375465393066e-01
1.310000000000000000e+03 7.920977020263671875e+01 3.615431213378906250e+01 8.615944534540176392e-02 3.219404458999633789e+00 9.916691780090332031e-01 -4.446219652891159058e-02
1.311000000000000000e+03 7.796632385253906250e+01 -2.920886802673339844e+01 1.776297693140804768e-03 8.382403373718261719e+00 2.515253782272338867e+00 7.942545413970947266e-02
1.312000000000000000e+03 7.933515167236328125e+01 -2.786632728576660156e+01 5.441903485916554928e-04 8.618588447570800781e+00 2.585739612579345703e+00 2.578282728791236877e-02
1.313000000000000000e+03 7.703017425537109375e+01 -3.622997283935546875e+01 1.100843306630849838e-02 8.094122886657714844e+00 2.431539297103881836e+00 6.528976559638977051e-02
1.314000000000000000e+03 7.908653259277343750e+01 -3.483990478515625000e+01 -1.403196714818477631e-03 8.337340354919433594e+00 2.500781297683715820e+00 3.046792186796665192e-02
1.315000000000000000e+03 7.934193420410156250e+01 -2.093688392639160156e+01 4.539951623883098364e-04 8.942945480346679688e+00 2.683019876480102539e+00 2.317353151738643646e-02
1.316000000000000000e+03 7.801089477539062500e+01 -2.513617706298828125e+01 5.992568330839276314e-04 8.547456741333007812e+00 2.564416885375976562e+00 8.477437496185302734e-02
1.317000000000000000e+03 7.800661468505859375e+01 -2.650066947937011719e+01 3.301113611087203026e-04 8.492081642150878906e+00 2.547723531723022461e+00 8.185823261737823486e-02
1.318000000000000000e+03 7.774381256103515625e+01 -3.195427322387695312e+01 6.027276627719402313e-03 8.256530761718750000e+00 2.478767633438110352e+00 7.617227733135223389e-02
1.319000000000000000e+03 7.929166412353515625e+01 -3.063629722595214844e+01 1.180024992208927870e-04 8.494949340820312500e+00 2.548520326614379883e+00 2.695189416408538818e-02
1.320000000000000000e+03 7.752668762207031250e+01 -3.336426544189453125e+01 6.255573593080043793e-03 8.187332153320312500e+00 2.458076238632202148e+00 7.158582657575607300e-02
1.321000000000000000e+03 7.501201629638671875e+01 -3.621501922607421875e+01 2.874226309359073639e-02 7.808063030242919922e+00 2.351041555404663086e+00 7.763586938381195068e-02
1.322000000000000000e+03 7.605847167968750000e+01 -4.070722579956054688e+01 3.623415902256965637e-02 8.007230758666992188e+00 2.413039445877075195e+00 -1.730184629559516907e-02
1.323000000000000000e+03 7.826866149902343750e+01 1.514137935638427734e+01 -1.920147798955440521e-02 8.427429199218750000e+00 2.522468328475952148e+00 -2.968213856220245361e-01
1.324000000000000000e+03 7.942467498779296875e+01 1.526600360870361328e+01 -1.562758907675743103e-02 8.563712120056152344e+00 2.564425230026245117e+00 -1.244011819362640381e-01
1.325000000000000000e+03 7.940642547607421875e+01 2.219570159912109375e+01 1.211353205144405365e-02 6.934379577636718750e+00 2.083947896957397461e+00 -1.953090876340866089e-01
1.326000000000000000e+03 7.782740783691406250e+01 3.169928741455078125e+01 9.854099154472351074e-02 4.772531032562255859e+00 1.461321592330932617e+00 -5.309399962425231934e-01
1.327000000000000000e+03 7.807450866699218750e+01 2.749750900268554688e+01 -5.463852081447839737e-03 5.664366722106933594e+00 1.697670817375183105e+00 -6.194913387298583984e-01
1.328000000000000000e+03 7.935651397705078125e+01 2.774924087524414062e+01 2.810236625373363495e-02 5.131793975830078125e+00 1.547968864440917969e+00 -2.195658683776855469e-01
1.329000000000000000e+03 7.816337585449218750e+01 2.474146652221679688e+01 -2.596254087984561920e-02 6.383375644683837891e+00 1.907223939895629883e+00 -5.925458073616027832e-01
1.330000000000000000e+03 7.819451904296875000e+01 2.336573410034179688e+01 -4.259570967406034470e-03 6.745939254760742188e+00 2.022503852844238281e+00 -5.518525838851928711e-01
1.331000000000000000e+03 7.709280395507812500e+01 1.636802482604980469e+01 -6.596541404724121094e-02 8.153830528259277344e+00 2.426359415054321289e+00 -5.058615207672119141e-01
1.332000000000000000e+03 7.826173400878906250e+01 1.651052093505859375e+01 -3.895694389939308167e-02 8.215249061584472656e+00 2.452887535095214844e+00 -3.440375924110412598e-01
1.333000000000000000e+03 7.711883544921875000e+01 1.366787147521972656e+01 -5.888415127992630005e-02 8.472461700439453125e+00 2.524073123931884766e+00 -3.818162083625793457e-01
1.334000000000000000e+03 7.712707519531250000e+01 1.232414817810058594e+01 -6.685473769903182983e-02 8.599142074584960938e+00 2.559686183929443359e+00 -3.307549655437469482e-01
1.335000000000000000e+03 7.826218414306640625e+01 9.674884796142578125e+00 -1.495573017746210098e-02 9.003722190856933594e+00 2.696629762649536133e+00 -1.581462472677230835e-01
1.336000000000000000e+03 7.942179107666015625e+01 9.725334167480468750e+00 -1.017190795391798019e-02 9.240324020385742188e+00 2.769045591354370117e+00 -7.303968816995620728e-02
1.337000000000000000e+03 7.793574523925781250e+01 9.949652012437582016e-04 -1.272550597786903381e-02 9.238718986511230469e+00 2.767797946929931641e+00 -2.107244357466697693e-02
1.338000000000000000e+03 7.932779693603515625e+01 1.390188813209533691e+00 -3.816697048023343086e-03 9.552626609802246094e+00 2.864643096923828125e+00 -2.505211345851421356e-02
1.339000000000000000e+03 7.823751068115234375e+01 8.307301521301269531e+00 -2.371235564351081848e-02 9.087194442749023438e+00 2.719044685363769531e+00 -1.345695704221725464e-01
1.340000000000000000e+03 7.789794158935546875e+01 -8.486509323120117188e+00 -5.628087092190980911e-03 9.120375633239746094e+00 2.734424352645874023e+00 4.203814268112182617e-02
1.341000000000000000e+03 7.929303741455078125e+01 -7.003220558166503906e+00 -5.968559999018907547e-04 9.457880973815917969e+00 2.837185382843017578e+00 1.429207623004913330e-03
1.342000000000000000e+03 7.799604797363281250e+01 -1.547577476501464844e+01 -5.329565610736608505e-03 8.924742698669433594e+00 2.675823926925659180e+00 6.755898147821426392e-02
1.343000000000000000e+03 7.932883453369140625e+01 -1.398386287689208984e+01 -2.253472339361906052e-03 9.237721443176269531e+00 2.770640373229980469e+00 1.427903398871421814e-02
1.344000000000000000e+03 7.934107971191406250e+01 -1.954798126220703125e+01 -1.975278370082378387e-03 9.005784034729003906e+00 2.701142787933349609e+00 2.120314538478851318e-02
1.345000000000000000e+03 7.801934051513671875e+01 -2.238541603088378906e+01 -9.625867241993546486e-04 8.659947395324707031e+00 2.597695350646972656e+00 8.278420567512512207e-02
1.346000000000000000e+03 7.566389465332031250e+01 3.661687469482421875e+01 2.786259949207305908e-01 5.348737716674804688e+00 1.688209176063537598e+00 -5.420689582824707031e-01
1.347000000000000000e+03 7.797780609130859375e+01 1.398684024810791016e+00 -1.129704806953668594e-02 9.241779327392578125e+00 2.769144773483276367e+00 -3.565354645252227783e-02
1.348000000000000000e+03 7.803137207031250000e+01 2.790230512619018555e+00 -1.638840325176715851e-02 9.236124038696289062e+00 2.765920639038085938e+00 -5.204431712627410889e-02
1.349000000000000000e+03 7.654629516601562500e+01 3.271931409835815430e-02 -2.792689576745033264e-02 8.935963630676269531e+00 2.672410964965820312e+00 -2.348569408059120178e-02
1.350000000000000000e+03 7.787306976318359375e+01 -4.249971389770507812e+00 -9.533633477985858917e-03 9.196556091308593750e+00 2.756106853485107422e+00 1.796941459178924561e-02
1.351000000000000000e+03 7.929460906982421875e+01 -2.802913427352905273e+00 -1.221442711539566517e-03 9.536790847778320312e+00 2.860670804977416992e+00 -9.705875068902969360e-03
1.352000000000000000e+03 7.786878967285156250e+01 -5.666482448577880859e+00 -7.344911806285381317e-03 9.173866271972656250e+00 2.749956607818603516e+00 2.627919614315032959e-02
1.353000000000000000e+03 7.794867706298828125e+01 -1.129546451568603516e+01 -4.589240532368421555e-03 9.053681373596191406e+00 2.714727640151977539e+00 5.553980544209480286e-02
1.354000000000000000e+03 7.930754852294921875e+01 -9.798785209655761719e+00 2.191032253904268146e-04 9.381909370422363281e+00 2.814638614654541016e+00 7.501222658902406693e-03
1.355000000000000000e+03 7.796929931640625000e+01 -1.269188117980957031e+01 -5.679538473486900330e-03 9.013760566711425781e+00 2.702424287796020508e+00 5.912416055798530579e-02
1.356000000000000000e+03 7.801158142089843750e+01 -1.824803733825683594e+01 -4.432139918208122253e-03 8.824073791503906250e+00 2.645892620086669922e+00 7.447772473096847534e-02
1.357000000000000000e+03 7.933620452880859375e+01 -1.676815605163574219e+01 -2.197267254814505577e-03 9.126347541809082031e+00 2.737245082855224609e+00 1.810818165540695190e-02
1.358000000000000000e+03 7.801770782470703125e+01 -1.962805557250976562e+01 -1.466372166760265827e-03 8.771039009094238281e+00 2.630871772766113281e+00 7.828059792518615723e-02
1.359000000000000000e+03 2.803665876388549805e+00 3.798389434814453125e+01 6.468984065577387810e-04 -1.105065047740936279e-01 -3.295788168907165527e-02 -5.103035364300012589e-03
1.360000000000000000e+03 7.752024531364440918e-01 3.455708694458007812e+01 -3.547713640728034079e-05 -1.348580867052078247e-01 -4.046806693077087402e-02 -2.417155774310231209e-03
1.361000000000000000e+03 6.155738234519958496e-01 2.611151504516601562e+01 -1.145631424151360989e-03 -1.654646098613739014e-01 -4.998306930065155029e-02 -3.165675560012459755e-03
1.362000000000000000e+03 1.953470945358276367e+00 2.863803863525390625e+01 -5.064371362095698714e-05 -1.353385150432586670e-01 -4.061675071716308594e-02 -7.272171322256326675e-03
1.363000000000000000e+03 1.102586865425109863e+00 -3.601762390136718750e+01 -1.448681228794157505e-03 -1.057858705520629883e+00 -3.177922368049621582e-01 -4.887587390840053558e-03
1.364000000000000000e+03 2.581772089004516602e+00 -3.278874969482421875e+01 9.170987643301486969e-03 -9.191739559173583984e-01 -2.730008959770202637e-01 -2.535415813326835632e-02
1.365000000000000000e+03 3.199391603469848633e+00 2.695391464233398438e+01 -9.635311434976756573e-04 -1.205844655632972717e-01 -3.646439686417579651e-02 -1.181683503091335297e-02
1.366000000000000000e+03 2.992025375366210938e+00 2.415717315673828125e+01 -8.745592203922569752e-04 -1.318764835596084595e-01 -3.982531279325485229e-02 -1.457559503614902496e-02
1.367000000000000000e+03 2.096101522445678711e+00 3.141362571716308594e+01 -2.983568083436693996e-05 -1.261228173971176147e-01 -3.784579783678054810e-02 -5.600415635854005814e-03
1.368000000000000000e+03 2.227249860763549805e+00 3.281719970703125000e+01 -9.822782594710588455e-04 -1.213986873626708984e-01 -3.671428933739662170e-02 -5.344692151993513107e-03
1.369000000000000000e+03 5.120891094207763672e+00 3.753920364379882812e+01 -1.426746952347457409e-03 -8.828148245811462402e-02 -2.691246755421161652e-02 -1.227365923114120960e-03
1.370000000000000000e+03 3.674196243286132812e+00 3.905246734619140625e+01 -4.892512806691229343e-04 -1.080610603094100952e-01 -3.256509453058242798e-02 -3.124299691990017891e-03
1.371000000000000000e+03 1.995410799980163574e+00 -2.862952041625976562e+01 1.777008641511201859e-03 -9.079579114913940430e-01 -2.718542814254760742e-01 -3.017466515302658081e-02
1.372000000000000000e+03 1.924568772315979004e+00 -2.588650894165039062e+01 1.165170571766793728e-03 -8.651664257049560547e-01 -2.592003643512725830e-01 -3.854224458336830139e-02
1.373000000000000000e+03 1.767809510231018066e+00 -1.612752914428710938e+01 9.049229323863983154e-03 -5.846938490867614746e-01 -1.726933866739273071e-01 -8.076069504022598267e-02
1.374000000000000000e+03 3.210650682449340820e+00 -3.569279479980468750e+01 8.096731267869472504e-03 -8.944660425186157227e-01 -2.659108042716979980e-01 -2.176256664097309113e-02
1.375000000000000000e+03 5.698640942573547363e-01 1.906824874877929688e+01 1.559224096126854420e-03 -2.141058146953582764e-01 -6.376397609710693359e-02 -4.998048767447471619e-03
1.376000000000000000e+03 5.424302816390991211e-01 1.345087528228759766e+01 2.167832339182496071e-03 -2.556609809398651123e-01 -7.604794204235076904e-02 -2.592062810435891151e-03
1.377000000000000000e+03 5.202396512031555176e-01 7.855977535247802734e+00 3.461016342043876648e-03 -2.096040248870849609e-01 -6.184290349483489990e-02 1.356557663530111313e-02
1.378000000000000000e+03 4.026525020599365234e+00 -4.078260040283203125e+01 3.834780072793364525e-03 -9.230512380599975586e-01 -2.757649421691894531e-01 -3.233304619789123535e-02
1.379000000000000000e+03 4.020389556884765625e+00 -3.895282745361328125e+01 2.846603281795978546e-02 -8.657351136207580566e-01 -2.511807382106781006e-01 -2.338213287293910980e-02
1.380000000000000000e+03 5.154295444488525391e+00 -3.523135757446289062e+01 6.687081884592771530e-03 -7.589853405952453613e-01 -2.256894707679748535e-01 -3.316152095794677734e-02
1.381000000000000000e+03 2.896883964538574219e+00 -3.421408462524414062e+01 -7.722640875726938248e-04 -9.115998148918151855e-01 -2.737116217613220215e-01 -2.416627109050750732e-02
1.382000000000000000e+03 2.319466114044189453e+00 -3.139581680297851562e+01 -3.679422952700406313e-04 -9.211125373840332031e-01 -2.764441370964050293e-01 -2.527582831680774689e-02
1.383000000000000000e+03 1.939260601997375488e+00 -2.725700187683105469e+01 7.162184454500675201e-03 -8.886839151382446289e-01 -2.644565105438232422e-01 -3.401081636548042297e-02
1.384000000000000000e+03 3.218678236007690430e+00 -2.699778175354003906e+01 7.108293939381837845e-03 -8.010042905807495117e-01 -2.381688058376312256e-01 -5.686172842979431152e-02
1.385000000000000000e+03 1.915816187858581543e+00 -2.172237014770507812e+01 8.386531844735145569e-03 -7.685064673423767090e-01 -2.280359864234924316e-01 -5.630736425518989563e-02
1.386000000000000000e+03 1.925638914108276367e+00 -2.450910949707031250e+01 7.130295969545841217e-03 -8.362025022506713867e-01 -2.487216591835021973e-01 -4.431382939219474792e-02
1.387000000000000000e+03 3.171246051788330078e+00 -2.012562751770019531e+01 1.751290075480937958e-02 -6.551835536956787109e-01 -1.913011968135833740e-01 -1.014821231365203857e-01
1.388000000000000000e+03 6.171398162841796875e-01 -1.909095001220703125e+01 -2.499924506992101669e-03 -7.609223127365112305e-01 -2.290266752243041992e-01 -2.275184541940689087e-02
1.389000000000000000e+03 1.857896208763122559e+00 -1.891832923889160156e+01 9.263454005122184753e-03 -6.857954263687133789e-01 -2.029595971107482910e-01 -6.892877072095870972e-02
1.390000000000000000e+03 1.598692893981933594e+00 -1.199560165405273438e+01 -2.011887030676007271e-03 -3.974191844463348389e-01 -1.198293268680572510e-01 -8.881304413080215454e-02
1.391000000000000000e+03 5.294011831283569336e-01 -1.207201862335205078e+01 4.433222115039825439e-03 -4.192740917205810547e-01 -1.244522631168365479e-01 -3.048629127442836761e-02
1.392000000000000000e+03 1.458355545997619629e+00 -6.651595592498779297e+00 -9.766286239027976990e-03 -1.339097768068313599e-01 -4.310281947255134583e-02 -6.468833237886428833e-02
1.393000000000000000e+03 1.450088143348693848e+00 -3.440240859985351562e+00 -1.388514507561922073e-02 -3.498587384819984436e-02 -1.466130558401346207e-02 -2.589317411184310913e-02
1.394000000000000000e+03 5.326649546623229980e-01 -5.085887432098388672e+00 -4.228896927088499069e-03 -4.835069552063941956e-02 -1.577387750148773193e-02 -1.734021678566932678e-02
1.395000000000000000e+03 5.037839412689208984e-01 5.014317989349365234e+00 3.741914115380495787e-04 -1.157262474298477173e-01 -3.460561484098434448e-02 1.956227049231529236e-02
1.396000000000000000e+03 4.511862754821777344e+00 7.087921142578125000e+00 5.506321042776107788e-02 -1.340332478284835815e-01 -2.369101159274578094e-02 7.951255887746810913e-02
1.397000000000000000e+03 1.558916449546813965e+00 1.058119487762451172e+01 5.886839702725410461e-03 -2.115382403135299683e-01 -6.169541925191879272e-02 1.061916071921586990e-02
1.398000000000000000e+03 5.171622037887573242e-01 1.065525627136230469e+01 2.790035912767052650e-03 -2.547149062156677246e-01 -7.557746767997741699e-02 3.161551896482706070e-03
1.399000000000000000e+03 1.640496253967285156e+00 1.330582046508789062e+01 2.319315215572714806e-03 -2.128477841615676880e-01 -6.315854191780090332e-02 -4.914615303277969360e-03
1.400000000000000000e+03 2.824221611022949219e+00 1.449898719787597656e+01 4.466933663934469223e-03 -1.686667650938034058e-01 -4.925995320081710815e-02 -1.184799894690513611e-02
1.401000000000000000e+03 1.717488527297973633e+00 1.885861015319824219e+01 -1.590017694979906082e-03 -1.843953132629394531e-01 -5.579560250043869019e-02 -1.250568963587284088e-02
1.402000000000000000e+03 1.799148678779602051e+00 2.443409729003906250e+01 -2.022347878664731979e-03 -1.531991064548492432e-01 -4.656643792986869812e-02 -9.827198460698127747e-03
1.403000000000000000e+03 5.620173263549804688e+01 3.302228164672851562e+01 3.620084285736083984e+00 2.140382289886474609e+00 1.728139996528625488e+00 2.730375289916992188e+00
1.404000000000000000e+03 5.571729660034179688e+01 3.349857330322265625e+01 2.399237871170043945e+00 8.588369488716125488e-01 9.774224162101745605e-01 1.165331721305847168e+00
1.405000000000000000e+03 5.760854721069335938e+01 3.284141921997070312e+01 4.139638900756835938e+00 8.874015808105468750e+00 3.904096364974975586e+00 6.385765075683593750e+00
1.406000000000000000e+03 5.805553054809570312e+01 3.310432815551757812e+01 4.163079261779785156e+00 1.297878837585449219e+01 5.142560482025146484e+00 7.266839981079101562e+00
1.407000000000000000e+03 5.706479263305664062e+01 3.326586532592773438e+01 5.010999679565429688e+00 4.142400741577148438e+00 2.746020078659057617e+00 4.818119049072265625e+00
1.408000000000000000e+03 5.683099365234375000e+01 3.299553298950195312e+01 4.388150691986083984e+00 4.013616561889648438e+00 2.520530223846435547e+00 4.375347614288330078e+00
1.409000000000000000e+03 5.660633087158203125e+01 3.269951248168945312e+01 3.889637470245361328e+00 4.055629730224609375e+00 2.383580207824707031e+00 4.108300685882568359e+00
1.410000000000000000e+03 5.729033660888671875e+01 3.272976684570312500e+01 4.158780574798583984e+00 7.075384616851806641e+00 3.370249509811401367e+00 5.693788051605224609e+00
1.411000000000000000e+03 5.647182464599609375e+01 3.333666992187500000e+01 4.003415107727050781e+00 1.972752094268798828e+00 1.792850255966186523e+00 2.799624919891357422e+00
1.412000000000000000e+03 5.537392044067382812e+01 3.284767913818359375e+01 2.488005876541137695e+00 1.571378469467163086e+00 1.217815279960632324e+00 1.720081567764282227e+00
1.413000000000000000e+03 2.218400192260742188e+01 1.195977449417114258e+00 -1.459907412528991699e+00 -3.520673215389251709e-01 -5.435923933982849121e-01 -9.471374750137329102e-01
1.414000000000000000e+03 2.718346595764160156e+01 3.842139005661010742e+00 -1.128547787666320801e+00 -5.355102419853210449e-01 -4.992174208164215088e-01 -6.347102522850036621e-01
1.415000000000000000e+03 2.764904212951660156e+01 4.561331748962402344e+00 -1.138651609420776367e+00 -6.410022974014282227e-01 -5.338962078094482422e-01 -7.109170556068420410e-01
1.416000000000000000e+03 2.282387733459472656e+01 1.345809698104858398e+00 -1.413648843765258789e+00 -2.298738956451416016e-01 -4.930568337440490723e-01 -7.607932090759277344e-01
1.417000000000000000e+03 2.663885498046875000e+01 3.341271877288818359e+00 -1.145239472389221191e+00 -4.574453830718994141e-01 -4.808054566383361816e-01 -5.947958230972290039e-01
1.418000000000000000e+03 2.477287292480468750e+01 2.561568737030029297e+00 -1.368275165557861328e+00 -3.605940043926239014e-01 -5.186607241630554199e-01 -6.548597216606140137e-01
1.419000000000000000e+03 2.388216018676757812e+01 1.869818091392517090e+00 -1.363789558410644531e+00 -3.046642839908599854e-01 -5.005361437797546387e-01 -6.356043815612792969e-01
1.420000000000000000e+03 2.231835746765136719e+01 1.326634049415588379e+00 -1.437921047210693359e+00 -3.701751530170440674e-01 -5.424288511276245117e-01 -9.161351919174194336e-01
1.421000000000000000e+03 2.311189460754394531e+01 1.562412500381469727e+00 -1.438354969024658203e+00 -2.901024222373962402e-01 -5.185372233390808105e-01 -7.534712553024291992e-01
1.422000000000000000e+03 1.679981803894042969e+01 -2.174057722091674805e+00 -1.163076519966125488e+00 -6.243330836296081543e-01 -5.362228751182556152e-01 -6.311976313591003418e-01
1.423000000000000000e+03 2.782567977905273438e+01 4.674334049224853516e+00 -1.127320289611816406e+00 -6.488146185874938965e-01 -5.328404903411865234e-01 -7.050028443336486816e-01
1.424000000000000000e+03 1.845833969116210938e+01 -1.789824724197387695e+00 -1.131255865097045898e+00 -6.457091569900512695e-01 -5.330895185470581055e-01 -8.238500356674194336e-01
1.425000000000000000e+03 2.555946159362792969e+01 3.123705625534057617e+00 -1.299321174621582031e+00 -4.082747697830200195e-01 -5.122787952423095703e-01 -6.633009910583496094e-01
1.426000000000000000e+03 2.515881538391113281e+01 3.169681787490844727e+00 -1.403335094451904297e+00 -4.421888887882232666e-01 -5.536571741104125977e-01 -7.300167679786682129e-01
1.427000000000000000e+03 2.418417930603027344e+01 2.523243904113769531e+00 -1.440051317214965820e+00 -3.971842825412750244e-01 -5.511706471443176270e-01 -7.264703512191772461e-01
1.428000000000000000e+03 2.368485641479492188e+01 1.791961312294006348e+00 -1.351880192756652832e+00 -2.703073918819427490e-01 -4.866562783718109131e-01 -6.711713075637817383e-01
1.429000000000000000e+03 2.389222335815429688e+01 2.262866735458374023e+00 -1.447356462478637695e+00 -3.572387993335723877e-01 -5.413785576820373535e-01 -7.302718162536621094e-01
1.430000000000000000e+03 2.371244621276855469e+01 2.142128229141235352e+00 -1.435106039047241211e+00 -3.385785818099975586e-01 -5.321053862571716309e-01 -7.298455238342285156e-01
1.431000000000000000e+03 1.759435844421386719e+01 -2.650402784347534180e+00 -8.396741747856140137e-01 -6.335104107856750488e-01 -4.419553875923156738e-01 -6.895645260810852051e-01
1.432000000000000000e+03 1.835844039916992188e+01 -2.246909856796264648e+00 -9.659060835838317871e-01 -5.874918699264526367e-01 -4.660193622112274170e-01 -6.597706079483032227e-01
1.433000000000000000e+03 2.789215660095214844e+01 4.258461475372314453e+00 -1.055475950241088867e+00 -5.710044503211975098e-01 -4.879440963268280029e-01 -6.100673675537109375e-01
1.434000000000000000e+03 2.709963798522949219e+01 4.207422256469726562e+00 -1.189880132675170898e+00 -5.626600980758666992e-01 -5.257620811462402344e-01 -7.041418552398681641e-01
1.435000000000000000e+03 2.657713127136230469e+01 3.923664808273315430e+00 -1.252935886383056641e+00 -5.251947045326232910e-01 -5.334391593933105469e-01 -7.129630446434020996e-01
1.436000000000000000e+03 2.294680404663085938e+01 1.474736213684082031e+00 -1.409205555915832520e+00 -2.689119875431060791e-01 -5.034352540969848633e-01 -7.643228173255920410e-01
1.437000000000000000e+03 2.329393959045410156e+01 1.645508408546447754e+00 -1.403454780578613281e+00 -2.421525567770004272e-01 -4.936822056770324707e-01 -7.140327095985412598e-01
1.438000000000000000e+03 5.553415679931640625e+01 4.073602676391601562e+01 -2.414864115417003632e-02 4.046682834625244141e+00 1.206760287284851074e+00 -4.631921648979187012e-01
1.439000000000000000e+03 5.783612823486328125e+01 3.655911254882812500e+01 1.306537747383117676e+00 1.025927925109863281e+01 3.469745159149169922e+00 -5.215378284454345703e+00
1.440000000000000000e+03 5.774940872192382812e+01 3.701289367675781250e+01 7.516310214996337891e-01 9.792542457580566406e+00 3.163252115249633789e+00 -4.093960285186767578e+00
1.441000000000000000e+03 2.149791145324707031e+01 7.068175673484802246e-01 -1.434199571609497070e+00 -3.800528943538665771e-01 -5.442757606506347656e-01 -1.089047312736511230e+00
1.442000000000000000e+03 2.021544456481933594e+01 -2.500552237033843994e-01 -1.716941595077514648e+00 -1.862946152687072754e+00 -1.073966383934020996e+00 -1.104888796806335449e+00
1.443000000000000000e+03 1.874244689941406250e+01 -8.875862956047058105e-01 -1.620690464973449707e+00 -5.242142081260681152e-01 -6.434714198112487793e-01 -1.062010645866394043e+00
1.444000000000000000e+03 2.074243354797363281e+01 8.554241061210632324e-02 -1.723196625709533691e+00 -1.009572029113769531e+00 -8.198305964469909668e-01 -1.492571592330932617e+00
1.445000000000000000e+03 1.910609054565429688e+01 -8.011266589164733887e-01 -2.155330657958984375e+00 -6.141445040702819824e-01 -8.308425545692443848e-01 -1.118499755859375000e+00
1.446000000000000000e+03 1.464960384368896484e+01 5.611141204833984375e+00 1.628611832857131958e-01 5.105118155479431152e-01 2.020118981599807739e-01 2.801506221294403076e-01
1.447000000000000000e+03 1.552432155609130859e+01 5.862887859344482422e+00 2.288596332073211670e-01 3.536566495895385742e-01 1.747548878192901611e-01 2.656789422035217285e-01
1.448000000000000000e+03 3.134931564331054688e+01 2.247317886352539062e+01 7.007461786270141602e-02 8.961630612611770630e-02 4.790727421641349792e-02 8.505313843488693237e-02
1.449000000000000000e+03 3.195426940917968750e+01 2.235445022583007812e+01 7.056440412998199463e-02 8.358029276132583618e-02 4.624341055750846863e-02 8.269794285297393799e-02
1.450000000000000000e+03 1.938998603820800781e+01 9.902975082397460938e+00 1.542586088180541992e-01 1.853740960359573364e-01 1.018898114562034607e-01 1.748664528131484985e-01
1.451000000000000000e+03 1.992292594909667969e+01 1.055008316040039062e+01 1.494598239660263062e-01 1.737246364355087280e-01 9.695533663034439087e-02 1.660479754209518433e-01
1.452000000000000000e+03 4.844464874267578125e+01 3.798190689086914062e+01 1.941613703966140747e-01 2.852369472384452820e-02 6.680551916360855103e-02 1.211242601275444031e-01
1.453000000000000000e+03 3.998802947998046875e+01 2.009206962585449219e+01 -4.576085507869720459e-01 -3.652561604976654053e-01 -2.468594163656234741e-01 -4.617020487785339355e-01
1.454000000000000000e+03 4.027983093261718750e+01 2.036781692504882812e+01 -4.535074234008789062e-01 -3.436421751976013184e-01 -2.391448765993118286e-01 -4.448868930339813232e-01
1.455000000000000000e+03 1.640513992309570312e+01 7.286497116088867188e+00 1.728815287351608276e-01 2.862653434276580811e-01 1.377440541982650757e-01 2.233044952154159546e-01
1.456000000000000000e+03 3.942047882080078125e+01 1.953462409973144531e+01 -4.769186377525329590e-01 -4.208532273769378662e-01 -2.693315744400024414e-01 -4.942018389701843262e-01
1.457000000000000000e+03 3.489757919311523438e+01 2.656384086608886719e+01 6.612468510866165161e-02 8.933514356613159180e-02 4.663794860243797302e-02 7.552473247051239014e-02
1.458000000000000000e+03 3.441170883178710938e+01 1.395025444030761719e+01 -7.836650013923645020e-01 -7.694638967514038086e-01 -4.659386873245239258e-01 -7.534018754959106445e-01
1.459000000000000000e+03 3.185255622863769531e+01 1.179705238342285156e+01 -9.884635210037231445e-01 -8.923612236976623535e-01 -5.642474293708801270e-01 -8.973180651664733887e-01
1.460000000000000000e+03 3.275146484375000000e+01 1.207494926452636719e+01 -8.753630518913269043e-01 -7.755872011184692383e-01 -4.952850639820098877e-01 -8.122228980064392090e-01
1.461000000000000000e+03 2.481096458435058594e+01 1.542211055755615234e+01 1.166327744722366333e-01 1.266031265258789062e-01 7.297077029943466187e-02 1.263355314731597900e-01
1.462000000000000000e+03 1.694151496887207031e+01 7.846710205078125000e+00 1.699623763561248779e-01 2.522225677967071533e-01 1.266554892063140869e-01 2.119238227605819702e-01
1.463000000000000000e+03 3.914698791503906250e+01 1.925071334838867188e+01 -4.922034144401550293e-01 -4.527736902236938477e-01 -2.834931313991546631e-01 -5.097045302391052246e-01
1.464000000000000000e+03 4.655485916137695312e+01 2.584864616394042969e+01 -9.238880127668380737e-02 2.127368897199630737e-01 3.610442951321601868e-02 6.053215637803077698e-02
1.465000000000000000e+03 4.167878723144531250e+01 2.229174041748046875e+01 -5.140869021415710449e-01 -3.536498844623565674e-01 -2.603210508823394775e-01 -4.212020039558410645e-01
1.466000000000000000e+03 4.654573822021484375e+01 2.639641952514648438e+01 -1.073012128472328186e-01 9.009090811014175415e-02 -5.163090769201517105e-03 -9.849200025200843811e-03
1.467000000000000000e+03 3.320041656494140625e+01 2.380878067016601562e+01 6.523680686950683594e-02 9.085863828659057617e-02 4.682863503694534302e-02 7.865233719348907471e-02
1.468000000000000000e+03 1.804651260375976562e+01 8.411209106445312500e+00 1.839895248413085938e-01 2.237562090158462524e-01 1.223237216472625732e-01 1.989880949258804321e-01
1.469000000000000000e+03 1.751131248474121094e+01 8.393265724182128906e+00 1.719225347042083740e-01 2.311423122882843018e-01 1.209194585680961609e-01 1.978947073221206665e-01
1.470000000000000000e+03 2.152910041809082031e+01 1.257523822784423828e+01 1.327459961175918579e-01 1.626516878604888916e-01 8.861930668354034424e-02 1.483506113290786743e-01
1.471000000000000000e+03 4.569491195678710938e+01 2.558660697937011719e+01 -1.904058307409286499e-01 2.017349377274513245e-02 -5.106970295310020447e-02 -8.540497720241546631e-02
1.472000000000000000e+03 2.545464134216308594e+01 1.664215278625488281e+01 1.095000207424163818e-01 1.247938349843025208e-01 7.028815150260925293e-02 1.172898039221763611e-01
1.473000000000000000e+03 3.805859375000000000e+01 1.861325645446777344e+01 -5.575516223907470703e-01 -6.656361818313598633e-01 -3.669563233852386475e-01 -6.065244078636169434e-01
1.474000000000000000e+03 3.887829589843750000e+01 1.896285629272460938e+01 -5.099022388458251953e-01 -4.862954020500183105e-01 -2.988592982292175293e-01 -5.260178446769714355e-01
1.475000000000000000e+03 4.310853958129882812e+01 2.316185951232910156e+01 -4.021880924701690674e-01 -1.880474835634231567e-01 -1.770706772804260254e-01 -2.940571010112762451e-01
1.476000000000000000e+03 4.710179519653320312e+01 2.639755821228027344e+01 -3.486050292849540710e-02 2.490056753158569336e-01 6.424354761838912964e-02 1.122737824916839600e-01
1.477000000000000000e+03 3.518103790283203125e+01 1.484036159515380859e+01 -7.209222912788391113e-01 -7.403247952461242676e-01 -4.383741319179534912e-01 -7.362632751464843750e-01
1.478000000000000000e+03 3.461833190917968750e+01 1.476288604736328125e+01 -7.593739628791809082e-01 -8.322443366050720215e-01 -4.774854779243469238e-01 -7.997130751609802246e-01
1.479000000000000000e+03 2.081004333496093750e+01 1.146119213104248047e+01 1.429353654384613037e-01 1.731653362512588501e-01 9.483020752668380737e-02 1.547085940837860107e-01
1.480000000000000000e+03 1.493800449371337891e+01 5.907551765441894531e+00 1.827788501977920532e-01 4.332780539989471436e-01 1.848170757293701172e-01 2.661575376987457275e-01
1.481000000000000000e+03 4.139115142822265625e+01 2.201376533508300781e+01 -5.189359188079833984e-01 -3.677107393741607666e-01 -2.659940123558044434e-01 -4.307718575000762939e-01
1.482000000000000000e+03 4.254512023925781250e+01 2.261418914794921875e+01 -4.374000430107116699e-01 -2.197108566761016846e-01 -1.971332728862762451e-01 -3.260961174964904785e-01
1.483000000000000000e+03 2.049430465698242188e+01 1.118847846984863281e+01 1.466814726591110229e-01 1.735325455665588379e-01 9.606420248746871948e-02 1.560598015785217285e-01
1.484000000000000000e+03 3.129332160949707031e+01 1.125065517425537109e+01 -1.048229217529296875e+00 -8.992693424224853516e-01 -5.842495560646057129e-01 -9.258124232292175293e-01
1.485000000000000000e+03 4.340488815307617188e+01 2.393011856079101562e+01 -4.124958813190460205e-01 -2.571488022804260254e-01 -2.008934020996093750e-01 -3.286412656307220459e-01
1.486000000000000000e+03 3.632579421997070312e+01 2.752923393249511719e+01 6.943137943744659424e-02 8.987305313348770142e-02 4.779133200645446777e-02 7.624730467796325684e-02
1.487000000000000000e+03 3.779911041259765625e+01 1.831034851074218750e+01 -5.847597718238830566e-01 -6.972754001617431641e-01 -3.846105635166168213e-01 -6.281723976135253906e-01
1.488000000000000000e+03 4.708615112304687500e+01 2.694907379150390625e+01 -6.119459494948387146e-02 1.223392561078071594e-01 1.834340021014213562e-02 3.357093781232833862e-02
1.489000000000000000e+03 3.544175338745117188e+01 1.513018608093261719e+01 -7.062483429908752441e-01 -7.316371798515319824e-01 -4.313656389713287354e-01 -7.224288582801818848e-01
1.490000000000000000e+03 2.396698570251464844e+01 1.451748371124267578e+01 1.302819997072219849e-01 1.392894536256790161e-01 8.087144047021865845e-02 1.331143677234649658e-01
1.491000000000000000e+03 3.243268966674804688e+01 1.179993057250976562e+01 -9.153732061386108398e-01 -7.826001048088073730e-01 -5.093920230865478516e-01 -8.198243975639343262e-01
1.492000000000000000e+03 2.211201858520507812e+01 1.307776641845703125e+01 1.343064010143280029e-01 1.574812382459640503e-01 8.753629028797149658e-02 1.443350464105606079e-01
1.493000000000000000e+03 4.339263534545898438e+01 2.343153953552246094e+01 -3.846560120582580566e-01 -1.721145063638687134e-01 -1.670311540365219116e-01 -2.744816243648529053e-01
1.494000000000000000e+03 2.629664802551269531e+01 1.677191162109375000e+01 1.143947839736938477e-01 1.250205188989639282e-01 7.182458788156509399e-02 1.176563650369644165e-01
1.495000000000000000e+03 2.576539421081542969e+01 1.688338470458984375e+01 1.090027689933776855e-01 1.239876449108123779e-01 6.989712268114089966e-02 1.153097152709960938e-01
1.496000000000000000e+03 3.466610717773437500e+01 1.425325965881347656e+01 -7.631410360336303711e-01 -7.591467499732971191e-01 -4.566863477230072021e-01 -7.527461647987365723e-01
1.497000000000000000e+03 4.823821640014648438e+01 2.857346725463867188e+01 -1.767504587769508362e-02 5.651879310607910156e-02 1.165312435477972031e-02 2.602743357419967651e-02
1.498000000000000000e+03 4.795092391967773438e+01 2.830440139770507812e+01 -3.999911993741989136e-02 4.499332234263420105e-02 1.498260186053812504e-03 9.721763432025909424e-03
1.499000000000000000e+03 2.924835586547851562e+01 2.037103843688964844e+01 8.726354688405990601e-02 1.012024208903312683e-01 5.653978884220123291e-02 9.592535346746444702e-02
1.500000000000000000e+03 4.057258987426757812e+01 2.064322280883789062e+01 -4.517824649810791016e-01 -3.259140253067016602e-01 -2.333089560270309448e-01 -4.276036620140075684e-01
1.501000000000000000e+03 4.485378265380859375e+01 2.528961563110351562e+01 -2.894478738307952881e-01 -1.632604151964187622e-01 -1.358124762773513794e-01 -2.181633412837982178e-01
1.502000000000000000e+03 4.540597534179687500e+01 2.531773757934570312e+01 -2.218204140663146973e-01 -7.696267217397689819e-03 -6.885500252246856689e-02 -1.100151240825653076e-01
1.503000000000000000e+03 5.017857742309570312e+01 2.994773483276367188e+01 2.272233814001083374e-01 1.896614879369735718e-01 1.250654608011245728e-01 2.335131466388702393e-01
1.504000000000000000e+03 1.437016201019287109e+01 5.310589790344238281e+00 1.495289653539657593e-01 6.124702095985412598e-01 2.285997569561004639e-01 2.748076021671295166e-01
1.505000000000000000e+03 2.900487136840820312e+01 2.000558853149414062e+01 9.078221768140792847e-02 1.020586788654327393e-01 5.785226821899414062e-02 9.711031615734100342e-02
1.506000000000000000e+03 4.939270019531250000e+01 2.965869903564453125e+01 6.657736748456954956e-02 7.201493531465530396e-02 4.157768934965133667e-02 7.786320894956588745e-02
1.507000000000000000e+03 3.426890945434570312e+01 2.502202224731445312e+01 6.755604594945907593e-02 9.083197265863418579e-02 4.751640558242797852e-02 7.811255007982254028e-02
1.508000000000000000e+03 3.452880096435546875e+01 2.531728172302246094e+01 6.665860116481781006e-02 9.192073345184326172e-02 4.757380113005638123e-02 7.621866464614868164e-02
1.509000000000000000e+03 4.436318969726562500e+01 3.426726531982421875e+01 1.059992089867591858e-01 4.686025902628898621e-02 4.585783928632736206e-02 6.376422196626663208e-02
1.510000000000000000e+03 5.046547317504882812e+01 3.023134040832519531e+01 2.529934942722320557e-01 1.674069315195083618e-01 1.261201202869415283e-01 2.399334609508514404e-01
1.511000000000000000e+03 2.832905387878417969e+01 1.919262123107910156e+01 9.597375988960266113e-02 1.069618836045265198e-01 6.088069453835487366e-02 1.026206463575363159e-01
1.512000000000000000e+03 4.735502624511718750e+01 2.722903442382812500e+01 -4.054284468293190002e-02 1.351008564233779907e-01 2.836740575730800629e-02 5.252200737595558167e-02
1.513000000000000000e+03 3.570442962646484375e+01 1.541972160339355469e+01 -6.916415691375732422e-01 -7.211435437202453613e-01 -4.238355457782745361e-01 -7.098729610443115234e-01
1.514000000000000000e+03 3.623369216918945312e+01 1.600153160095214844e+01 -6.712437272071838379e-01 -7.003153562545776367e-01 -4.114677309989929199e-01 -6.838108897209167480e-01
1.515000000000000000e+03 3.647919082641601562e+01 1.681298065185546875e+01 -6.793064475059509277e-01 -7.647023797035217285e-01 -4.332026541233062744e-01 -7.139085531234741211e-01
1.516000000000000000e+03 3.649925994873046875e+01 1.629454421997070312e+01 -6.618105769157409668e-01 -6.906772255897521973e-01 -4.057463407516479492e-01 -6.700695753097534180e-01
1.517000000000000000e+03 4.960105514526367188e+01 2.939466476440429688e+01 1.687990576028823853e-01 2.055741548538208008e-01 1.123119667172431946e-01 2.077060341835021973e-01
1.518000000000000000e+03 3.914419174194335938e+01 3.056521797180175781e+01 7.990217208862304688e-02 8.180497586727142334e-02 4.851214587688446045e-02 6.696905940771102905e-02
1.519000000000000000e+03 4.226529693603515625e+01 2.233361434936523438e+01 -4.515555500984191895e-01 -2.361405044794082642e-01 -2.063088119029998779e-01 -3.378034830093383789e-01
1.520000000000000000e+03 2.779639816284179688e+01 1.862416839599609375e+01 1.006344556808471680e-01 1.113889738917350769e-01 6.360702961683273315e-02 1.059986799955368042e-01
1.521000000000000000e+03 4.367790985107421875e+01 2.370006179809570312e+01 -3.669801056385040283e-01 -1.549862921237945557e-01 -1.565899252891540527e-01 -2.531892955303192139e-01
1.522000000000000000e+03 2.858419609069824219e+01 1.889822578430175781e+01 1.023586392402648926e-01 1.031676009297370911e-01 6.165787205100059509e-02 1.030367314815521240e-01
1.523000000000000000e+03 2.806010246276855469e+01 1.890307807922363281e+01 9.919796884059906006e-02 1.079500019550323486e-01 6.214439123868942261e-02 1.039112210273742676e-01
1.524000000000000000e+03 2.885955047607421875e+01 1.916038322448730469e+01 9.975470602512359619e-02 1.018857955932617188e-01 6.049215048551559448e-02 1.020096912980079651e-01
1.525000000000000000e+03 3.676480484008789062e+01 1.658909988403320312e+01 -6.488389968872070312e-01 -6.803242564201354980e-01 -3.987489640712738037e-01 -6.571222543716430664e-01
1.526000000000000000e+03 1.328784942626953125e+01 3.394218206405639648e+00 3.930740654468536377e-01 1.494810223579406738e+00 5.663653016090393066e-01 -3.010765910148620605e-01
1.527000000000000000e+03 4.028693389892578125e+01 3.181335639953613281e+01 7.516293972730636597e-02 6.091555580496788025e-02 4.082354903221130371e-02 6.588110327720642090e-02
1.528000000000000000e+03 4.018414306640625000e+01 3.142163276672363281e+01 6.977366656064987183e-02 5.063343793153762817e-02 3.612213209271430969e-02 7.222933322191238403e-02
1.529000000000000000e+03 3.140562057495117188e+01 9.728904724121093750e+00 -9.214050769805908203e-01 -6.648897528648376465e-01 -4.758884608745574951e-01 -6.671383380889892578e-01
1.530000000000000000e+03 3.058642959594726562e+01 9.935989379882812500e+00 -1.078109383583068848e+00 -7.381066679954528809e-01 -5.448648333549499512e-01 -8.027971386909484863e-01
1.531000000000000000e+03 3.300296783447265625e+01 2.345314407348632812e+01 6.883169710636138916e-02 9.062636643648147583e-02 4.783742129802703857e-02 7.680989056825637817e-02
1.532000000000000000e+03 3.070322036743164062e+01 2.133731079101562500e+01 8.134097605943679810e-02 9.324433654546737671e-02 5.237559601664543152e-02 8.715525269508361816e-02
1.533000000000000000e+03 2.979648399353027344e+01 2.091625976562500000e+01 8.434965461492538452e-02 9.707427024841308594e-02 5.442718043923377991e-02 9.125591069459915161e-02
1.534000000000000000e+03 2.746623611450195312e+01 1.781374740600585938e+01 1.116784214973449707e-01 1.151475906372070312e-01 6.804780662059783936e-02 1.122009083628654480e-01
1.535000000000000000e+03 4.762536239624023438e+01 2.750686454772949219e+01 -1.854888536036014557e-02 1.481462121009826660e-01 3.887919709086418152e-02 7.264931499958038330e-02
1.536000000000000000e+03 4.845536422729492188e+01 2.831961631774902344e+01 5.460584536194801331e-02 1.802444308996200562e-01 7.045508176088333130e-02 1.314910948276519775e-01
1.537000000000000000e+03 2.717845726013183594e+01 1.755225181579589844e+01 1.135764941573143005e-01 1.191321983933448792e-01 6.981261074542999268e-02 1.140422672033309937e-01
1.538000000000000000e+03 2.121748733520507812e+01 1.234208106994628906e+01 1.321132034063339233e-01 1.668872982263565063e-01 8.970014750957489014e-02 1.488382965326309204e-01
1.539000000000000000e+03 3.753829574584960938e+01 1.800753021240234375e+01 -6.107397675514221191e-01 -7.233324646949768066e-01 -4.002216756343841553e-01 -6.477885246276855469e-01
1.540000000000000000e+03 3.222520446777343750e+01 2.319333076477050781e+01 6.877123564481735229e-02 8.825686573982238770e-02 4.710843041539192200e-02 8.169333636760711670e-02
1.541000000000000000e+03 2.147001075744628906e+01 -3.095658309757709503e-02 -1.395823836326599121e+00 -2.199075222015380859e-01 -4.847193956375122070e-01 -9.727413058280944824e-01
1.542000000000000000e+03 1.810643196105957031e+01 -1.715835094451904297e+00 -1.343239426612854004e+00 -5.448076725006103516e-01 -5.664141178131103516e-01 -8.067776560783386230e-01
1.543000000000000000e+03 2.203262519836425781e+01 1.052136421203613281e+00 -1.386426925659179688e+00 -3.447728753089904785e-01 -5.193599462509155273e-01 -9.706223011016845703e-01
1.544000000000000000e+03 2.063837242126464844e+01 -2.562894523143768311e-01 -1.941496610641479492e+00 -8.779644966125488281e-01 -8.458383083343505859e-01 -1.351447582244873047e+00
1.545000000000000000e+03 1.884592628479003906e+01 -1.107352852821350098e+00 -1.609386086463928223e+00 -6.308605074882507324e-01 -6.720739603042602539e-01 -1.035262107849121094e+00
1.546000000000000000e+03 2.659324264526367188e+01 1.703305435180664062e+01 1.148813366889953613e-01 1.241467818617820740e-01 7.170843333005905151e-02 1.167196333408355713e-01
1.547000000000000000e+03 2.455574798583984375e+01 1.653118515014648438e+01 1.027121990919113159e-01 1.292933672666549683e-01 6.960166990756988525e-02 1.179392337799072266e-01
1.548000000000000000e+03 2.287820816040039062e+01 1.332692623138427734e+01 1.414071470499038696e-01 1.570863425731658936e-01 8.954804390668869019e-02 1.449781954288482666e-01
1.549000000000000000e+03 5.074722290039062500e+01 3.051968193054199219e+01 2.720102667808532715e-01 1.395984739065170288e-01 1.234826222062110901e-01 2.403695583343505859e-01
1.550000000000000000e+03 4.456655502319335938e+01 2.501312446594238281e+01 -3.209943473339080811e-01 -1.890248954296112061e-01 -1.530057787895202637e-01 -2.420663535594940186e-01
1.551000000000000000e+03 3.758548355102539062e+01 2.973455810546875000e+01 6.140542030334472656e-02 7.751696556806564331e-02 4.167671501636505127e-02 7.004039734601974487e-02
1.552000000000000000e+03 1.858631134033203125e+01 9.002755165100097656e+00 1.803051233291625977e-01 2.127906978130340576e-01 1.179287508130073547e-01 1.869754195213317871e-01
1.553000000000000000e+03 1.778433418273925781e+01 8.674256324768066406e+00 1.731471717357635498e-01 2.270823270082473755e-01 1.200688481330871582e-01 1.892213672399520874e-01
1.554000000000000000e+03 3.166266822814941406e+01 2.209575462341308594e+01 7.173520326614379883e-02 8.690099418163299561e-02 4.759085923433303833e-02 8.417945355176925659e-02
1.555000000000000000e+03 3.383425140380859375e+01 1.385573005676269531e+01 -8.369811773300170898e-01 -8.673746585845947266e-01 -5.113067626953125000e-01 -8.189988732337951660e-01
1.556000000000000000e+03 3.337636184692382812e+01 1.265931224822998047e+01 -8.180103898048400879e-01 -7.761407494544982910e-01 -4.782453477382659912e-01 -7.893082499504089355e-01
1.557000000000000000e+03 3.976746368408203125e+01 3.036813926696777344e+01 8.016233146190643311e-02 7.554539293050765991e-02 4.671231657266616821e-02 6.709920614957809448e-02
1.558000000000000000e+03 4.501002120971679688e+01 3.531832504272460938e+01 1.143931597471237183e-01 6.957324594259262085e-02 5.518992245197296143e-02 7.042475044727325439e-02
1.559000000000000000e+03 3.702996063232421875e+01 1.688506507873535156e+01 -6.372708678245544434e-01 -6.697906851768493652e-01 -3.921184539794921875e-01 -6.410684585571289062e-01
1.560000000000000000e+03 4.221189117431640625e+01 3.308679962158203125e+01 8.431642502546310425e-02 6.580644845962524414e-02 4.503686353564262390e-02 7.172908633947372437e-02
1.561000000000000000e+03 4.086345672607421875e+01 3.226016235351562500e+01 6.267986446619033813e-02 5.960683897137641907e-02 3.668601065874099731e-02 6.443734467029571533e-02
1.562000000000000000e+03 4.626794052124023438e+01 2.612522125244140625e+01 -1.331819742918014526e-01 7.085120677947998047e-02 -1.869922876358032227e-02 -3.336741402745246887e-02
1.563000000000000000e+03 3.867144775390625000e+01 3.056744384765625000e+01 6.380791217088699341e-02 6.772398203611373901e-02 3.945956751704216003e-02 6.987673044204711914e-02
1.564000000000000000e+03 3.915999221801757812e+01 2.981092071533203125e+01 7.661525160074234009e-02 7.421385496854782104e-02 4.524873197078704834e-02 6.788512319326400757e-02
1.565000000000000000e+03 4.523251724243164062e+01 3.568833541870117188e+01 8.554785698652267456e-02 4.797942936420440674e-02 4.005818441510200500e-02 8.657273650169372559e-02
1.566000000000000000e+03 5.101886749267578125e+01 3.081126213073730469e+01 2.850469946861267090e-01 9.193787723779678345e-02 1.130954623222351074e-01 2.326915711164474487e-01
1.567000000000000000e+03 2.488770866394042969e+01 1.681440925598144531e+01 1.029468774795532227e-01 1.273603439331054688e-01 6.909216195344924927e-02 1.159985885024070740e-01
1.568000000000000000e+03 4.198632049560546875e+01 2.204874992370605469e+01 -4.598873853683471680e-01 -2.532884180545806885e-01 -2.139527350664138794e-01 -3.490250408649444580e-01
1.569000000000000000e+03 4.086170578002929688e+01 2.091910362243652344e+01 -4.524251222610473633e-01 -3.129551112651824951e-01 -2.296140789985656738e-01 -4.097939133644104004e-01
1.570000000000000000e+03 4.142656326293945312e+01 2.147819900512695312e+01 -4.590950906276702881e-01 -2.870504558086395264e-01 -2.238436639308929443e-01 -3.754009008407592773e-01
1.571000000000000000e+03 5.253266143798828125e+01 3.276263809204101562e+01 1.329031884670257568e-01 -3.076535165309906006e-01 -5.242509767413139343e-02 -2.448551170527935028e-02
1.572000000000000000e+03 5.219013977050781250e+01 3.248468017578125000e+01 8.724489063024520874e-02 -3.649437725543975830e-01 -8.330965787172317505e-02 -5.724112689495086670e-02
1.573000000000000000e+03 4.396434783935546875e+01 2.396836471557617188e+01 -3.487283587455749512e-01 -1.368781626224517822e-01 -1.456819623708724976e-01 -2.308383584022521973e-01
1.574000000000000000e+03 4.425181579589843750e+01 2.423721313476562500e+01 -3.282351195812225342e-01 -1.162185296416282654e-01 -1.333360970020294189e-01 -2.074500173330307007e-01
1.575000000000000000e+03 2.752810668945312500e+01 1.835634040832519531e+01 1.030845046043395996e-01 1.134522855281829834e-01 6.496103852987289429e-02 1.076262667775154114e-01
1.576000000000000000e+03 3.861272430419921875e+01 1.867103385925292969e+01 -5.310141444206237793e-01 -5.207288861274719238e-01 -3.155229091644287109e-01 -5.416007041931152344e-01
1.577000000000000000e+03 3.729465484619140625e+01 1.718227958679199219e+01 -6.230090856552124023e-01 -6.558420062065124512e-01 -3.836553096771240234e-01 -6.250602006912231445e-01
1.578000000000000000e+03 4.253303146362304688e+01 3.335863494873046875e+01 8.093989640474319458e-02 5.650017410516738892e-02 4.123201966285705566e-02 6.255783140659332275e-02
1.579000000000000000e+03 4.227014160156250000e+01 3.366149139404296875e+01 8.917549252510070801e-02 6.386371701955795288e-02 4.591176286339759827e-02 7.842486351728439331e-02
1.580000000000000000e+03 3.510024642944335938e+01 2.693770980834960938e+01 5.915765464305877686e-02 9.029079228639602661e-02 4.483453556895256042e-02 7.625894993543624878e-02
1.581000000000000000e+03 3.156649589538574219e+01 1.151929664611816406e+01 -1.026584029197692871e+00 -9.093834161758422852e-01 -5.807902216911315918e-01 -9.046170711517333984e-01
1.582000000000000000e+03 2.314913368225097656e+01 1.361426353454589844e+01 1.413214057683944702e-01 1.541526764631271362e-01 8.864222466945648193e-02 1.431233286857604980e-01
1.583000000000000000e+03 2.182625198364257812e+01 1.281986236572265625e+01 1.335563808679580688e-01 1.600817888975143433e-01 8.809145539999008179e-02 1.464215219020843506e-01
1.584000000000000000e+03 5.188968658447265625e+01 3.220877456665039062e+01 6.293148547410964966e-02 -3.188936412334442139e-01 -7.678864896297454834e-02 -6.692344695329666138e-02
1.585000000000000000e+03 3.213093566894531250e+01 1.152239513397216797e+01 -9.511743783950805664e-01 -8.007737398147583008e-01 -5.255844593048095703e-01 -8.186479210853576660e-01
1.586000000000000000e+03 3.339197921752929688e+01 2.480462837219238281e+01 6.353941559791564941e-02 9.120997786521911621e-02 4.642481729388237000e-02 7.753614336252212524e-02
1.587000000000000000e+03 4.473991012573242188e+01 3.509387207031250000e+01 1.230131909251213074e-01 4.036230221390724182e-02 4.901264980435371399e-02 7.494569569826126099e-02
1.588000000000000000e+03 5.280831146240234375e+01 3.199019813537597656e+01 7.186447978019714355e-01 3.147582709789276123e-01 3.100209236145019531e-01 5.935528278350830078e-01
1.589000000000000000e+03 4.454001998901367188e+01 2.450699996948242188e+01 -3.061555325984954834e-01 -9.287470579147338867e-02 -1.197090744972229004e-01 -1.832317113876342773e-01
1.590000000000000000e+03 2.088733482360839844e+01 1.211420822143554688e+01 1.322318762540817261e-01 1.695678830146789551e-01 9.053993225097656250e-02 1.493298858404159546e-01
1.591000000000000000e+03 3.444903945922851562e+01 2.590587615966796875e+01 6.396023184061050415e-02 9.157162904739379883e-02 4.665955901145935059e-02 7.515530288219451904e-02
1.592000000000000000e+03 3.745734405517578125e+01 2.940073966979980469e+01 7.382111996412277222e-02 7.724203169345855713e-02 4.531894624233245850e-02 6.805361807346343994e-02
1.593000000000000000e+03 2.342068290710449219e+01 1.390791225433349609e+01 1.398722529411315918e-01 1.498473584651947021e-01 8.691588044166564941e-02 1.399720162153244019e-01
1.594000000000000000e+03 3.341009521484375000e+01 1.203504085540771484e+01 -8.075059056282043457e-01 -6.819511651992797852e-01 -4.468371272087097168e-01 -7.237588167190551758e-01
1.595000000000000000e+03 2.317622375488281250e+01 1.419223690032958984e+01 1.292382180690765381e-01 1.499805450439453125e-01 8.376562595367431641e-02 1.343748122453689575e-01
1.596000000000000000e+03 5.127729797363281250e+01 3.110233688354492188e+01 2.904074788093566895e-01 4.688172787427902222e-02 1.011867672204971313e-01 2.190773785114288330e-01
1.597000000000000000e+03 5.178760528564453125e+01 3.166065025329589844e+01 3.049915730953216553e-01 -6.069310754537582397e-02 7.328953593969345093e-02 1.908396184444427490e-01
1.598000000000000000e+03 2.368389320373535156e+01 1.482979774475097656e+01 1.193563491106033325e-01 1.426114588975906372e-01 7.859034836292266846e-02 1.295849084854125977e-01
1.599000000000000000e+03 2.343382644653320312e+01 1.449962425231933594e+01 1.248607710003852844e-01 1.466830074787139893e-01 8.146313577890396118e-02 1.314922571182250977e-01
1.600000000000000000e+03 3.364637374877929688e+01 1.298492908477783203e+01 -7.989058494567871094e-01 -7.778457999229431152e-01 -4.730255007743835449e-01 -7.757785320281982422e-01
1.601000000000000000e+03 5.292304229736328125e+01 3.164101409912109375e+01 8.890277147293090820e-01 5.527350306510925293e-01 4.325288236141204834e-01 8.155161142349243164e-01
1.602000000000000000e+03 3.248602294921875000e+01 2.342570877075195312e+01 6.888062506914138794e-02 8.737514913082122803e-02 4.687673225998878479e-02 7.864055037498474121e-02
1.603000000000000000e+03 5.152754592895507812e+01 3.138685035705566406e+01 3.020243644714355469e-01 -1.156941242516040802e-02 8.713648468255996704e-02 2.005091458559036255e-01
1.604000000000000000e+03 3.105900764465332031e+01 1.019744682312011719e+01 -1.020488977432250977e+00 -7.431149482727050781e-01 -5.290811657905578613e-01 -7.972909212112426758e-01
1.605000000000000000e+03 3.128231239318847656e+01 1.074639797210693359e+01 -1.024441480636596680e+00 -7.905156016349792480e-01 -5.444871187210083008e-01 -8.317232131958007812e-01
1.606000000000000000e+03 2.053524017333984375e+01 1.188408088684082031e+01 1.327977031469345093e-01 1.724331080913543701e-01 9.156924486160278320e-02 1.493185013532638550e-01
1.607000000000000000e+03 3.696151733398437500e+01 2.809318351745605469e+01 7.178116589784622192e-02 9.009645879268646240e-02 4.856328666210174561e-02 7.620591670274734497e-02
1.608000000000000000e+03 3.562261962890625000e+01 2.785711669921875000e+01 7.134567946195602417e-02 9.012699127197265625e-02 4.844180122017860413e-02 7.467577606439590454e-02
1.609000000000000000e+03 5.613242340087890625e+01 3.738533020019531250e+01 8.404196500778198242e-01 3.345298051834106445e+00 1.255715250968933105e+00 -1.551313161849975586e+00
1.610000000000000000e+03 5.669969177246093750e+01 3.748301315307617188e+01 8.842955231666564941e-01 5.237000465393066406e+00 1.836388826370239258e+00 -2.569864034652709961e+00
1.611000000000000000e+03 1.553917026519775391e+01 6.479115009307861328e+00 1.911870986223220825e-01 3.558827042579650879e-01 1.641209423542022705e-01 2.341468185186386108e-01
1.612000000000000000e+03 1.580923080444335938e+01 6.153033256530761719e+00 2.207547873258590698e-01 3.436136543750762939e-01 1.693105250597000122e-01 2.499044388532638550e-01
1.613000000000000000e+03 1.722843742370605469e+01 8.118869781494140625e+00 1.724123805761337280e-01 2.415276765823364258e-01 1.241820156574249268e-01 2.027893066406250000e-01
1.614000000000000000e+03 1.855574226379394531e+01 9.572317123413085938e+00 1.546831727027893066e-01 2.096924185752868652e-01 1.093126758933067322e-01 1.761172413825988770e-01
1.615000000000000000e+03 3.013556480407714844e+01 5.615177631378173828e+00 -7.719022035598754883e-01 -4.204001128673553467e-01 -3.576906919479370117e-01 -5.982361435890197754e-01
1.616000000000000000e+03 2.977811050415039062e+01 5.483040332794189453e+00 -8.899212479591369629e-01 -4.468789398670196533e-01 -4.010400772094726562e-01 -6.054906845092773438e-01
1.617000000000000000e+03 4.565839767456054688e+01 3.698044586181640625e+01 9.597849100828170776e-02 1.429603435099124908e-02 3.308235853910446167e-02 7.644882053136825562e-02
1.618000000000000000e+03 1.613668441772460938e+01 7.008015632629394531e+00 1.785135269165039062e-01 3.134927451610565186e-01 1.476018726825714111e-01 2.234991341829299927e-01
1.619000000000000000e+03 1.584240341186523438e+01 6.744347095489501953e+00 1.823839545249938965e-01 3.349963724613189697e-01 1.552141010761260986e-01 2.292615026235580444e-01
1.620000000000000000e+03 1.409392261505126953e+01 5.003006935119628906e+00 1.321807801723480225e-01 7.557973861694335938e-01 2.663934528827667236e-01 2.477452605962753296e-01
1.621000000000000000e+03 5.305055618286132812e+01 3.963338088989257812e+01 1.736245751380920410e-01 -5.692680478096008301e-01 -1.186930388212203979e-01 7.219856381416320801e-01
1.622000000000000000e+03 1.203081035614013672e+01 2.021198034286499023e+00 6.222238540649414062e-01 -2.369153797626495361e-01 1.155925542116165161e-01 1.842375844717025757e-01
1.623000000000000000e+03 1.358766746520996094e+01 3.728976964950561523e+00 2.369598299264907837e-01 1.531340599060058594e+00 5.304901599884033203e-01 9.645562618970870972e-02
1.624000000000000000e+03 5.484929275512695312e+01 3.945367050170898438e+01 2.393274009227752686e-01 1.441914319992065430e+00 5.043724775314331055e-01 -1.229919672012329102e+00
1.625000000000000000e+03 1.263882541656494141e+01 2.097901105880737305e+00 1.125211238861083984e+00 -6.257194280624389648e-02 3.187918066978454590e-01 -1.589588820934295654e-01
1.626000000000000000e+03 1.305183696746826172e+01 2.656370401382446289e+00 8.096355199813842773e-01 1.273329138755798340e+00 6.248894333839416504e-01 -5.371916890144348145e-01
1.627000000000000000e+03 5.325240707397460938e+01 3.283059692382812500e+01 5.210701227188110352e-01 1.434996426105499268e-01 1.993709355592727661e-01 2.792793512344360352e-01
1.628000000000000000e+03 5.081710052490234375e+01 3.903267288208007812e+01 -1.691925153136253357e-02 1.113179326057434082e-02 -1.736237667500972748e-03 8.944208920001983643e-02
1.629000000000000000e+03 4.992639923095703125e+01 3.912907028198242188e+01 2.132297726348042488e-03 1.221147254109382629e-01 3.727410733699798584e-02 1.003951728343963623e-01
1.630000000000000000e+03 1.025341510772705078e+01 -2.847109317779541016e+00 -4.026910364627838135e-01 -3.482739999890327454e-02 -1.312555372714996338e-01 -2.492854446172714233e-01
1.631000000000000000e+03 4.692972183227539062e+01 3.633749008178710938e+01 1.469613313674926758e-01 4.983560368418693542e-02 5.903907865285873413e-02 7.775570452213287354e-02
1.632000000000000000e+03 5.360313415527343750e+01 3.324214553833007812e+01 5.232303142547607422e-01 1.791370958089828491e-01 2.107102125883102417e-01 1.360074728727340698e-01
1.633000000000000000e+03 5.236968231201171875e+01 3.216165542602539062e+01 3.705165982246398926e-01 -1.024074330925941467e-01 8.043274283409118652e-02 2.309166938066482544e-01
1.634000000000000000e+03 1.104361152648925781e+01 -3.696762561798095703e+00 -4.124397933483123779e-01 -9.851900488138198853e-02 -1.532876342535018921e-01 -3.605651259422302246e-01
1.635000000000000000e+03 1.410892391204833984e+01 -3.071386337280273438e+00 -7.221988439559936523e-01 -2.760110199451446533e-01 -2.994629740715026855e-01 -5.457009673118591309e-01
1.636000000000000000e+03 1.129964542388916016e+01 2.127283096313476562e+00 2.853346467018127441e-01 -3.955199718475341797e-01 -3.305559977889060974e-02 3.254722952842712402e-01
1.637000000000000000e+03 9.855420112609863281e+00 3.034250020980834961e+00 1.996904760599136353e-01 -2.863359749317169189e-01 -2.599364519119262695e-02 2.214989066123962402e-01
1.638000000000000000e+03 3.104817962646484375e+01 8.557989120483398438e+00 -7.460207343101501465e-01 -6.186792254447937012e-01 -4.094099700450897217e-01 -4.939101040363311768e-01
1.639000000000000000e+03 5.957225799560546875e+01 3.234698104858398438e+01 1.777748227119445801e+00 1.755678367614746094e+01 5.800359249114990234e+00 6.790243983268737793e-01
1.640000000000000000e+03 3.125794601440429688e+01 7.281550407409667969e+00 -5.046435594558715820e-01 -5.683951377868652344e-01 -3.219116032123565674e-01 -5.585004687309265137e-01
1.641000000000000000e+03 3.111152839660644531e+01 6.231062412261962891e+00 -5.624450445175170898e-01 -4.523832798004150391e-01 -3.044485151767730713e-01 -5.777696371078491211e-01
1.642000000000000000e+03 5.985025405883789062e+00 2.553425312042236328e+00 -1.066427603363990784e-01 -7.073940336704254150e-02 -5.321465060114860535e-02 1.745929270982742310e-01
1.643000000000000000e+03 4.013894081115722656e+00 3.699636459350585938e+00 -2.484376542270183563e-02 -7.810159027576446533e-02 -3.088360652327537537e-02 1.200993284583091736e-01
1.644000000000000000e+03 3.113011121749877930e+00 5.533529281616210938e+00 1.446933299303054810e-02 -1.220959573984146118e-01 -3.228798508644104004e-02 8.989913761615753174e-02
1.645000000000000000e+03 3.742379903793334961e+00 2.889908790588378906e+00 -4.624862968921661377e-02 -5.919751524925231934e-02 -3.163384273648262024e-02 1.062467545270919800e-01
1.646000000000000000e+03 4.499930381774902344e+00 2.717229604721069336e+00 -6.700018793344497681e-02 -5.405018106102943420e-02 -3.631511330604553223e-02 1.247469559311866760e-01
1.647000000000000000e+03 8.288149833679199219e+00 3.163709402084350586e+00 2.378718368709087372e-02 -1.976984590291976929e-01 -5.217338353395462036e-02 2.453461438417434692e-01
1.648000000000000000e+03 6.727938175201416016e+00 2.523621797561645508e+00 -1.213313415646553040e-01 -9.911351650953292847e-02 -6.613345444202423096e-02 2.098210453987121582e-01
1.649000000000000000e+03 6.801949977874755859e+00 3.217853069305419922e+00 -4.057438299059867859e-02 -1.219456046819686890e-01 -4.875599592924118042e-02 2.060614526271820068e-01
1.650000000000000000e+03 7.536328792572021484e+00 3.192665100097656250e+00 -1.835504174232482910e-02 -1.645796149969100952e-01 -5.488039925694465637e-02 2.353062629699707031e-01
1.651000000000000000e+03 4.435433745384216309e-01 3.601199626922607422e+00 -2.226647222414612770e-03 -6.082493811845779419e-02 -1.891547441482543945e-02 1.697150059044361115e-02
1.652000000000000000e+03 9.095121383666992188e+00 3.815360546112060547e+00 1.932852566242218018e-01 -2.190430760383605957e-01 -7.727344520390033722e-03 1.600538194179534912e-01
1.653000000000000000e+03 5.625772094726562500e+01 3.699218368530273438e+01 1.163446664810180664e+00 2.763841152191162109e+00 1.178186416625976562e+00 -1.586954593658447266e+00
1.654000000000000000e+03 1.628355979919433594e+01 -2.980402946472167969e+00 -7.247073650360107422e-01 -6.440505981445312500e-01 -4.106273949146270752e-01 -5.978983640670776367e-01
1.655000000000000000e+03 8.789188385009765625e+00 -3.645043849945068359e+00 -2.741022706031799316e-01 -5.002214014530181885e-02 -9.723731875419616699e-02 -2.424869537353515625e-01
1.656000000000000000e+03 5.526492595672607422e+00 -2.869949340820312500e+00 -1.132567822933197021e-01 -3.921085968613624573e-02 -4.574029147624969482e-02 -1.066517084836959839e-01
1.657000000000000000e+03 7.240050792694091797e+00 -3.706178665161132812e+00 -1.902241855859756470e-01 -5.356225743889808655e-02 -7.313592731952667236e-02 -1.897095739841461182e-01
1.658000000000000000e+03 4.720844268798828125e+00 -2.902421712875366211e+00 -8.976539969444274902e-02 -3.732106089591979980e-02 -3.812593594193458557e-02 -8.776991814374923706e-02
1.659000000000000000e+03 6.451700687408447266e+00 -3.750996828079223633e+00 -1.483621597290039062e-01 -6.260535120964050293e-02 -6.329025328159332275e-02 -1.672451347112655640e-01
1.660000000000000000e+03 2.291441917419433594e+00 -3.153999567031860352e+00 -2.753745019435882568e-02 -3.929678350687026978e-02 -2.005027048289775848e-02 -3.998885676264762878e-02
1.661000000000000000e+03 3.441789388656616211e+00 -8.019169807434082031e+00 -1.921818405389785767e-02 -2.116235047578811646e-01 -6.925250589847564697e-02 -1.629962921142578125e-01
1.662000000000000000e+03 4.179996967315673828e+00 -4.842265129089355469e+00 -6.356216967105865479e-02 -9.762950986623764038e-02 -4.835750162601470947e-02 -1.308823525905609131e-01
1.663000000000000000e+03 1.551118850708007812e+00 -5.364985466003417969e+00 -8.980069309473037720e-03 -8.730489760637283325e-02 -2.888548932969570160e-02 -5.343770608305931091e-02
1.664000000000000000e+03 1.336895847320556641e+01 5.661005496978759766e+00 9.649835526943206787e-02 6.242502927780151367e-01 2.162245959043502808e-01 5.009903386235237122e-02
1.665000000000000000e+03 1.066819190979003906e+01 2.907283782958984375e+00 3.613172471523284912e-01 -3.069254159927368164e-01 1.631754450500011444e-02 1.599606424570083618e-01
1.666000000000000000e+03 2.894985580444335938e+01 9.336044311523437500e+00 -1.841684103012084961e+00 -8.954141139984130859e-01 -8.211294412612915039e-01 -1.270174980163574219e+00
1.667000000000000000e+03 1.341272449493408203e+01 -4.627298355102539062e+00 -3.699088394641876221e-01 -3.000930547714233398e-01 -2.010005712509155273e-01 -5.330876111984252930e-01
1.668000000000000000e+03 1.335114955902099609e+01 -3.817246437072753906e+00 -5.158798098564147949e-01 -2.408774793148040771e-01 -2.270271778106689453e-01 -5.143358111381530762e-01
1.669000000000000000e+03 1.179767608642578125e+01 -3.743611335754394531e+00 -4.548460543155670166e-01 -1.166745722293853760e-01 -1.714561879634857178e-01 -4.046361744403839111e-01
1.670000000000000000e+03 1.256449604034423828e+01 -3.788508176803588867e+00 -5.014404058456420898e-01 -1.810757219791412354e-01 -2.047548294067382812e-01 -4.698877334594726562e-01
1.671000000000000000e+03 1.821880912780761719e+01 -5.831558227539062500e+00 4.618633911013603210e-02 -2.420001327991485596e-01 -5.874413996934890747e-02 -1.906402558088302612e-01
1.672000000000000000e+03 1.563566112518310547e+01 -3.737721920013427734e+00 -4.920230209827423096e-01 -5.309222340583801270e-01 -3.068835735321044922e-01 -5.791297554969787598e-01
1.673000000000000000e+03 6.057667541503906250e+01 4.072927474975585938e+01 -1.991971254348754883e+00 1.368510246276855469e+01 3.507939338684082031e+00 5.780460834503173828e-01
1.674000000000000000e+03 6.057442855834960938e+01 3.705306243896484375e+01 1.499834060668945312e+00 1.627175331115722656e+01 5.331476211547851562e+00 2.366167306900024414e+00
1.675000000000000000e+03 6.001932907104492188e+01 3.256663513183593750e+01 2.690329790115356445e+00 1.682608413696289062e+01 5.854924201965332031e+00 -3.359369337558746338e-01
1.676000000000000000e+03 6.240575790405273438e+01 3.265937805175781250e+01 3.903585672378540039e+00 1.260449981689453125e+01 4.952425956726074219e+00 -1.400588750839233398e+00
1.677000000000000000e+03 6.188095855712890625e+01 3.419109344482421875e+01 6.169510364532470703e+00 1.308035373687744141e+01 5.774959087371826172e+00 -2.394704818725585938e-01
1.678000000000000000e+03 2.261532592773437500e+01 -9.335000514984130859e-01 -3.395107984542846680e-01 3.513914048671722412e-01 3.564188722521066666e-03 -2.749776244163513184e-01
1.679000000000000000e+03 1.933374786376953125e+01 -2.620818853378295898e+00 2.916020341217517853e-02 -7.776774168014526367e-01 -2.245551645755767822e-01 -2.896755933761596680e-01
1.680000000000000000e+03 1.922706794738769531e+01 -1.479175806045532227e+00 -1.234872937202453613e+00 -7.129229903221130371e-01 -5.843387842178344727e-01 -9.910576343536376953e-01
1.681000000000000000e+03 1.883589553833007812e+01 -1.425165891647338867e+00 -1.342970252037048340e+00 -6.997160911560058594e-01 -6.128059029579162598e-01 -9.185190200805664062e-01
1.682000000000000000e+03 3.458497619628906250e+01 -1.286807060241699219e+01 2.339684637263417244e-03 1.493041515350341797e-01 4.549315199255943298e-02 8.859391324222087860e-03
1.683000000000000000e+03 4.020812606811523438e+01 -2.105405235290527344e+01 -4.844280704855918884e-02 1.195382356643676758e+00 3.440818786621093750e-01 -2.217281609773635864e-01
1.684000000000000000e+03 2.338514709472656250e+01 -2.039050102233886719e+01 1.526897549629211426e-01 3.957306146621704102e-01 1.645261049270629883e-01 -2.791456580162048340e-01
1.685000000000000000e+03 2.921975898742675781e+01 -6.808073043823242188e+00 1.088168695569038391e-01 -1.420197933912277222e-01 -9.960874915122985840e-03 -1.882198080420494080e-02
1.686000000000000000e+03 2.960467910766601562e+01 -3.925546646118164062e+00 2.058673202991485596e-01 -1.893079727888107300e-01 4.967806395143270493e-03 -2.206786768510937691e-03
1.687000000000000000e+03 2.455647468566894531e+01 -1.974455070495605469e+01 1.504285484552383423e-01 4.722656309604644775e-01 1.868082582950592041e-01 -2.852709591388702393e-01
1.688000000000000000e+03 2.399740028381347656e+01 -2.158547592163085938e+01 1.465027928352355957e-01 4.266753792762756348e-01 1.719534546136856079e-01 -2.771604657173156738e-01
1.689000000000000000e+03 3.292931747436523438e+01 -1.244185161590576172e+01 -2.311272546648979187e-02 -8.961160480976104736e-02 -3.381729871034622192e-02 7.966358959674835205e-02
1.690000000000000000e+03 3.534316635131835938e+01 -1.394065570831298828e+01 -3.197997808456420898e-02 2.449271976947784424e-01 6.388416886329650879e-02 -6.077225785702466965e-03
1.691000000000000000e+03 3.323806762695312500e+01 -3.583680725097656250e+01 5.213480591773986816e-01 5.071921944618225098e-01 3.085620701313018799e-01 -3.819207549095153809e-01
1.692000000000000000e+03 2.284527969360351562e+01 -2.225728416442871094e+01 1.574357151985168457e-01 3.485466837882995605e-01 1.517947167158126831e-01 -2.702274322509765625e-01
1.693000000000000000e+03 2.373080253601074219e+01 -2.455146789550781250e+01 1.669993698596954346e-01 3.772018849849700928e-01 1.632603704929351807e-01 -2.701785862445831299e-01
1.694000000000000000e+03 2.216556549072265625e+01 -1.799946212768554688e+01 1.516744345426559448e-01 3.520113825798034668e-01 1.511057466268539429e-01 -2.659669816493988037e-01
1.695000000000000000e+03 2.521912574768066406e+01 -2.654965877532958984e+00 2.467802166938781738e-01 8.310031145811080933e-02 9.896416217088699341e-02 -1.881261318922042847e-01
1.696000000000000000e+03 4.302133178710937500e+01 -2.697669982910156250e+01 1.167888287454843521e-02 2.204523086547851562e+00 6.648606061935424805e-01 -5.051754117012023926e-01
1.697000000000000000e+03 4.129384613037109375e+01 -2.364777755737304688e+01 -2.346132695674896240e-02 1.472951292991638184e+00 4.348469972610473633e-01 -3.298018276691436768e-01
1.698000000000000000e+03 3.169855117797851562e+01 -8.473552703857421875e+00 1.124117374420166016e-01 -8.073066174983978271e-02 9.504322893917560577e-03 -1.324099837802350521e-03
1.699000000000000000e+03 2.684137535095214844e+01 -2.790789794921875000e+01 2.155547589063644409e-01 4.997104108333587646e-01 2.145795524120330811e-01 -2.971041202545166016e-01
1.700000000000000000e+03 2.746454811096191406e+01 -2.594776344299316406e+01 1.852114200592041016e-01 5.734075307846069336e-01 2.275856882333755493e-01 -3.078185021877288818e-01
1.701000000000000000e+03 4.379997634887695312e+01 -2.792388725280761719e+01 1.061427220702171326e-02 2.624397993087768555e+00 7.905036807060241699e-01 -5.302411317825317383e-01
1.702000000000000000e+03 3.690900039672851562e+01 -1.608139991760253906e+01 -4.734732583165168762e-02 4.853402674198150635e-01 1.313978880643844604e-01 -5.173359066247940063e-02
1.703000000000000000e+03 4.077259826660156250e+01 -2.544635200500488281e+01 7.463838160037994385e-02 1.209464073181152344e+00 3.852307200431823730e-01 -3.859050273895263672e-01
1.704000000000000000e+03 4.292553710937500000e+01 -2.432740402221679688e+01 -7.838037610054016113e-02 2.069529771804809570e+00 5.973448157310485840e-01 -3.737981021404266357e-01
1.705000000000000000e+03 3.758352661132812500e+01 -1.922057342529296875e+01 -4.075916856527328491e-02 4.965150952339172363e-01 1.367267817258834839e-01 -8.350869268178939819e-02
1.706000000000000000e+03 1.964554023742675781e+01 -1.334664630889892578e+01 1.767298281192779541e-01 2.152714878320693970e-01 1.176003888249397278e-01 -2.353655546903610229e-01
1.707000000000000000e+03 3.029470443725585938e+01 -4.758749008178710938e+00 2.399285882711410522e-01 -1.592884510755538940e-01 2.419203706085681915e-02 -1.931010000407695770e-02
1.708000000000000000e+03 1.496575832366943359e+01 -6.911188602447509766e+00 -1.376910228282213211e-02 -3.510772287845611572e-01 -1.094538941979408264e-01 -4.245804250240325928e-01
1.709000000000000000e+03 3.896220016479492188e+01 -2.173790359497070312e+01 -1.581999845802783966e-02 7.610137462615966797e-01 2.235581278800964355e-01 -1.826653778553009033e-01
1.710000000000000000e+03 3.831902313232421875e+01 -2.045161056518554688e+01 -3.047045879065990448e-02 6.263610124588012695e-01 1.787671744823455811e-01 -1.246400624513626099e-01
1.711000000000000000e+03 7.824529266357421875e+01 1.924918937683105469e+01 -4.136921837925910950e-02 7.706662178039550781e+00 2.299587726593017578e+00 -4.347509145736694336e-01
1.712000000000000000e+03 7.591864013671875000e+01 1.622475433349609375e+01 -1.431488394737243652e-01 8.112429618835449219e+00 2.390784263610839844e+00 -6.418402194976806641e-01
1.713000000000000000e+03 7.269721984863281250e+01 -3.585647201538085938e+01 7.452216744422912598e-02 7.499860763549804688e+00 2.272315025329589844e+00 1.467201709747314453e-01
1.714000000000000000e+03 7.503302001953125000e+01 -3.156763076782226562e+01 2.636884897947311401e-02 7.920718669891357422e+00 2.384126186370849609e+00 1.569428294897079468e-01
1.715000000000000000e+03 7.726736450195312500e+01 -3.479507827758789062e+01 4.270224308129400015e-04 8.131916046142578125e+00 2.439702987670898438e+00 6.742683053016662598e-02
1.716000000000000000e+03 7.534706115722656250e+01 -2.114267158508300781e+01 -9.432173334062099457e-03 8.262874603271484375e+00 2.476032733917236328e+00 1.732724010944366455e-01
1.717000000000000000e+03 7.799724578857421875e+01 -2.785652732849121094e+01 1.261864090338349342e-03 8.439105033874511719e+00 2.532110214233398438e+00 8.195780962705612183e-02
1.718000000000000000e+03 7.777842712402343750e+01 3.465152359008789062e+01 1.108224838972091675e-01 4.344178676605224609e+00 1.336500287055969238e+00 -3.422614037990570068e-01
1.719000000000000000e+03 7.618898773193359375e+01 3.283721542358398438e+01 2.314110100269317627e-01 5.327769279479980469e+00 1.667754054069519043e+00 -7.463675141334533691e-01
1.720000000000000000e+03 7.668587493896484375e+01 -2.244090652465820312e+01 -4.655785392969846725e-03 8.439914703369140625e+00 2.530577659606933594e+00 1.319956034421920776e-01
1.721000000000000000e+03 7.661886596679687500e+01 -2.915618705749511719e+01 5.621482152491807938e-03 8.207585334777832031e+00 2.463962078094482422e+00 1.253609210252761841e-01
1.722000000000000000e+03 7.664172363281250000e+01 -2.784864044189453125e+01 4.287601448595523834e-03 8.249513626098632812e+00 2.476140499114990234e+00 1.268301010131835938e-01
1.723000000000000000e+03 7.548592376708984375e+01 -3.462578201293945312e+01 2.522778138518333435e-02 7.890901565551757812e+00 2.374838829040527344e+00 1.010664999485015869e-01
1.724000000000000000e+03 7.664655303955078125e+01 -2.652118682861328125e+01 4.413585178554058075e-03 8.295468330383300781e+00 2.489964723587036133e+00 1.337618678808212280e-01
1.725000000000000000e+03 7.667203521728515625e+01 -2.380946731567382812e+01 -2.451494219712913036e-04 8.390211105346679688e+00 2.516989707946777344e+00 1.352077722549438477e-01
1.726000000000000000e+03 7.531307220458984375e+01 -2.384692192077636719e+01 -2.008492825552821159e-03 8.172388076782226562e+00 2.451113939285278320e+00 1.785175502300262451e-01
1.727000000000000000e+03 7.596722412109375000e+01 -3.317165374755859375e+01 2.066522091627120972e-02 7.996068000793457031e+00 2.405019998550415039e+00 1.151688396930694580e-01
1.728000000000000000e+03 7.632366943359375000e+01 -3.179452133178710938e+01 1.685274206101894379e-02 8.082312583923339844e+00 2.429749488830566406e+00 1.189208924770355225e-01
1.729000000000000000e+03 7.639978027343750000e+01 -3.897377395629882812e+01 1.435445388779044151e-03 7.962419509887695312e+00 2.389156579971313477e+00 4.130375012755393982e-02
1.730000000000000000e+03 7.821704101562500000e+01 2.199160766601562500e+01 -3.844029456377029419e-02 7.086570262908935547e+00 2.114439010620117188e+00 -5.229066610336303711e-01
1.731000000000000000e+03 7.705088806152343750e+01 2.042352294921875000e+01 -8.286339789628982544e-02 7.511669158935546875e+00 2.228641748428344727e+00 -7.135899066925048828e-01
1.732000000000000000e+03 7.579994964599609375e+01 2.290142250061035156e+01 -9.174052625894546509e-02 7.236495494842529297e+00 2.143426656723022461e+00 -1.037740230560302734e+00
1.733000000000000000e+03 7.702671813964843750e+01 2.177885437011718750e+01 -5.381622165441513062e-02 7.261324882507324219e+00 2.162252664566040039e+00 -7.695134878158569336e-01
1.734000000000000000e+03 7.827931976318359375e+01 1.240722942352294922e+01 -1.713873632252216339e-02 8.766421318054199219e+00 2.624784708023071289e+00 -2.203216254711151123e-01
1.735000000000000000e+03 7.480807495117187500e+01 1.345667934417724609e+01 -1.803939640522003174e-01 8.265781402587890625e+00 2.425616264343261719e+00 -5.509157776832580566e-01
1.736000000000000000e+03 7.827607727050781250e+01 1.377393341064453125e+01 -3.407456725835800171e-02 8.609382629394531250e+00 2.572592496871948242e+00 -2.605761289596557617e-01
1.737000000000000000e+03 7.710494232177734375e+01 1.501602745056152344e+01 -7.809392362833023071e-02 8.321876525878906250e+00 2.473134756088256836e+00 -4.470813274383544922e-01
1.738000000000000000e+03 7.812370300292968750e+01 2.611882209777832031e+01 1.731465198099613190e-02 6.023550033569335938e+00 1.812259316444396973e+00 -6.007119417190551758e-01
1.739000000000000000e+03 7.793403625488281250e+01 3.027207756042480469e+01 2.466197870671749115e-02 5.027834415435791016e+00 1.515748977661132812e+00 -5.862187743186950684e-01
1.740000000000000000e+03 7.671297454833984375e+01 2.858997154235839844e+01 4.573746398091316223e-02 5.908610820770263672e+00 1.786304473876953125e+00 -9.182773828506469727e-01
1.741000000000000000e+03 7.802062988281250000e+01 -2.100651168823242188e+01 -3.540778299793601036e-03 8.715789794921875000e+00 2.613674640655517578e+00 7.925632596015930176e-02
1.742000000000000000e+03 7.668926239013671875e+01 -2.107432556152343750e+01 -3.713333047926425934e-03 8.490109443664550781e+00 2.545918941497802734e+00 1.318296939134597778e-01
1.743000000000000000e+03 7.706141662597656250e+01 8.297457695007324219e+00 -4.274166375398635864e-02 8.859307289123535156e+00 2.644969701766967773e+00 -1.935872286558151245e-01
1.744000000000000000e+03 7.555252838134765625e+01 4.313940048217773438e+00 -6.724922358989715576e-02 8.694084167480468750e+00 2.588050365447998047e+00 -1.222154349088668823e-01
1.745000000000000000e+03 7.513207244873046875e+01 8.847664296627044678e-02 -5.563546717166900635e-02 8.645786285400390625e+00 2.577045202255249023e+00 -2.371661551296710968e-02
1.746000000000000000e+03 7.787779998779296875e+01 -7.077587127685546875e+00 -7.730312179774045944e-03 9.148972511291503906e+00 2.742372512817382812e+00 3.556909784674644470e-02
1.747000000000000000e+03 7.530584716796875000e+01 -1.567857837677001953e+01 -1.728457957506179810e-02 8.416943550109863281e+00 2.519897699356079102e+00 1.536362022161483765e-01
1.748000000000000000e+03 7.667215728759765625e+01 -1.834235572814941406e+01 -5.287361331284046173e-03 8.582414627075195312e+00 2.573138236999511719e+00 1.249669939279556274e-01
1.749000000000000000e+03 7.501210784912109375e+01 -7.245221138000488281e+00 -3.245767951011657715e-02 8.554662704467773438e+00 2.556661605834960938e+00 9.116097539663314819e-02
1.750000000000000000e+03 7.798514556884765625e+01 -1.408507442474365234e+01 -3.159424522891640663e-03 8.971465110778808594e+00 2.690491676330566406e+00 6.424222141504287720e-02
1.751000000000000000e+03 7.663126373291015625e+01 3.524038696289062500e+01 2.271125167608261108e-01 4.667189121246337891e+00 1.468290567398071289e+00 -3.946059048175811768e-01
1.752000000000000000e+03 7.773432159423828125e+01 3.595119476318359375e+01 1.572088748216629028e-01 4.210487842559814453e+00 1.310309052467346191e+00 -2.152921408414840698e-01
1.753000000000000000e+03 7.529265594482421875e+01 2.962036705017089844e+01 1.532562971115112305e-01 6.283396720886230469e+00 1.930995821952819824e+00 -1.123033523559570312e+00
1.754000000000000000e+03 7.819974517822265625e+01 6.935648441314697266e+00 -1.340695098042488098e-02 9.149751663208007812e+00 2.740903377532958984e+00 -1.090810000896453857e-01
1.755000000000000000e+03 7.700132751464843750e+01 6.949117660522460938e+00 -4.773175716400146484e-02 8.906326293945312500e+00 2.657578468322753906e+00 -1.609206050634384155e-01
1.756000000000000000e+03 7.790591430664062500e+01 -1.408360958099365234e+00 -1.063687633723020554e-02 9.229610443115234375e+00 2.765691995620727539e+00 -8.276322856545448303e-03
1.757000000000000000e+03 7.651026916503906250e+01 -1.395717382431030273e+00 -2.854862064123153687e-02 8.925780296325683594e+00 2.669169425964355469e+00 -2.075020456686615944e-03
1.758000000000000000e+03 7.649376678466796875e+01 -8.582577705383300781e+00 -1.777212694287300110e-02 8.828430175781250000e+00 2.643197298049926758e+00 7.538101822137832642e-02
1.759000000000000000e+03 7.665238189697265625e+01 -1.557720756530761719e+01 -8.252876810729503632e-03 8.669974327087402344e+00 2.598516464233398438e+00 1.142191663384437561e-01
1.760000000000000000e+03 7.559649658203125000e+01 3.423516464233398438e+01 3.288392722606658936e-01 5.565575599670410156e+00 1.768324375152587891e+00 -7.313778996467590332e-01
1.761000000000000000e+03 7.511878967285156250e+01 3.094776535034179688e+01 2.511009275913238525e-01 6.142195224761962891e+00 1.917988896369934082e+00 -1.074430108070373535e+00
1.762000000000000000e+03 7.644449615478515625e+01 3.136414527893066406e+01 1.518495082855224609e-01 5.494892120361328125e+00 1.694022536277770996e+00 -8.143265247344970703e-01
1.763000000000000000e+03 7.706879425048828125e+01 1.907118797302246094e+01 -6.627891957759857178e-02 7.749191761016845703e+00 2.304873704910278320e+00 -6.390862464904785156e-01
1.764000000000000000e+03 7.712210845947265625e+01 1.098239517211914062e+01 -5.003285408020019531e-02 8.706805229187011719e+00 2.597031831741333008e+00 -2.771033942699432373e-01
1.765000000000000000e+03 7.645500946044921875e+01 -7.157072067260742188e+00 -1.598240435123443604e-02 8.847467422485351562e+00 2.649445533752441406e+00 6.308526545763015747e-02
1.766000000000000000e+03 7.663857269287109375e+01 -1.418942165374755859e+01 -1.094457972794771194e-02 8.709218978881835938e+00 2.609482288360595703e+00 1.069158464670181274e-01
1.767000000000000000e+03 7.570072174072265625e+01 5.664863586425781250e+00 -7.772693783044815063e-02 8.698434829711914062e+00 2.586212396621704102e+00 -1.610880345106124878e-01
1.768000000000000000e+03 7.661199188232421875e+01 1.440346956253051758e+00 -3.340879082679748535e-02 8.944038391113281250e+00 2.673188686370849609e+00 -4.559690132737159729e-02
1.769000000000000000e+03 7.691863250732421875e+01 5.590950965881347656e+00 -3.732971847057342529e-02 8.934705734252929688e+00 2.669212818145751953e+00 -1.267303526401519775e-01
1.770000000000000000e+03 7.644307708740234375e+01 -5.726601600646972656e+00 -1.933728903532028198e-02 8.868866920471191406e+00 2.654858827590942383e+00 5.219123139977455139e-02
1.771000000000000000e+03 7.648491668701171875e+01 -2.840088605880737305e+00 -2.711243554949760437e-02 8.908686637878417969e+00 2.664472341537475586e+00 1.864800974726676941e-02
1.772000000000000000e+03 7.645906829833984375e+01 -4.286615371704101562e+00 -2.251874841749668121e-02 8.891009330749511719e+00 2.660547018051147461e+00 3.545144200325012207e-02
1.773000000000000000e+03 7.658348846435546875e+01 -1.140619182586669922e+01 -1.297723408788442612e-02 8.776347160339355469e+00 2.629011154174804688e+00 9.349606931209564209e-02
1.774000000000000000e+03 7.661608123779296875e+01 -1.280036067962646484e+01 -9.627199731767177582e-03 8.745917320251464844e+00 2.620887279510498047e+00 1.016043871641159058e-01
1.775000000000000000e+03 7.654132843017578125e+01 -1.000115203857421875e+01 -1.460506115108728409e-02 8.803376197814941406e+00 2.636631250381469727e+00 8.686200529336929321e-02
1.776000000000000000e+03 7.668219757080078125e+01 -1.971093177795410156e+01 -7.047996390610933304e-03 8.536887168884277344e+00 2.558951854705810547e+00 1.267022639513015747e-01
1.777000000000000000e+03 2.821521568298339844e+01 -3.060873031616210938e+01 2.837352752685546875e-01 5.110455751419067383e-01 2.384342402219772339e-01 -2.998319268226623535e-01
1.778000000000000000e+03 2.276982116699218750e+01 -1.919229316711425781e+01 1.460723429918289185e-01 3.850440382957458496e-01 1.593349128961563110e-01 -2.709187865257263184e-01
1.779000000000000000e+03 2.199877548217773438e+01 -1.501885223388671875e+01 1.827729940414428711e-01 4.019377231597900391e-01 1.754132211208343506e-01 -2.572578787803649902e-01
1.780000000000000000e+03 2.097099876403808594e+01 -1.564855575561523438e+01 1.665860265493392944e-01 3.013625144958496094e-01 1.403845697641372681e-01 -2.506940960884094238e-01
1.781000000000000000e+03 2.984645271301269531e+01 -3.267134094238281250e+01 3.453988730907440186e-01 5.532131195068359375e-01 2.695836126804351807e-01 -3.205419480800628662e-01
1.782000000000000000e+03 2.437033176422119141e+00 3.557552719116210938e+01 -1.084778559743426740e-04 -1.172305420041084290e-01 -3.520170599222183228e-02 -5.458014085888862610e-03
1.783000000000000000e+03 6.610645294189453125e+00 3.824789810180664062e+01 -3.205479122698307037e-03 -6.545386463403701782e-02 -2.059780247509479523e-02 -9.015526738949120045e-04
1.784000000000000000e+03 5.193685531616210938e+00 3.187948036193847656e+01 -4.156953189522027969e-03 -8.552163839340209961e-02 -2.690357714891433716e-02 -9.799856692552566528e-03
1.785000000000000000e+03 4.191967964172363281e+00 3.531237030029296875e+01 -5.577440242632292211e-05 -9.743130207061767578e-02 -2.924612350761890411e-02 -4.339108243584632874e-03
1.786000000000000000e+03 3.351721048355102539e+00 2.969335937500000000e+01 -9.037995478138327599e-04 -1.129188388586044312e-01 -3.414679318666458130e-02 -9.928920306265354156e-03
1.787000000000000000e+03 1.903784632682800293e+00 2.724744033813476562e+01 -1.801699865609407425e-03 -1.408678740262985229e-01 -4.280087351799011230e-02 -8.076551370322704315e-03
1.788000000000000000e+03 2.353252172470092773e+00 3.420636367797851562e+01 4.793066182173788548e-04 -1.191992163658142090e-01 -3.561597317457199097e-02 -4.387263674288988113e-03
1.789000000000000000e+03 3.725476980209350586e+00 3.241837692260742188e+01 -1.299167168326675892e-03 -1.036170944571495056e-01 -3.147488087415695190e-02 -6.877073552459478378e-03
1.790000000000000000e+03 4.760050296783447266e+00 3.065723991394042969e+01 -2.399067394435405731e-03 -9.252668917179107666e-02 -2.847772650420665741e-02 -9.649087674915790558e-03
1.791000000000000000e+03 3.472565412521362305e+00 3.104795646667480469e+01 -2.688151784241199493e-03 -1.076442375779151917e-01 -3.309971839189529419e-02 -8.854739367961883545e-03
1.792000000000000000e+03 4.744568824768066406e+00 -3.371532821655273438e+01 1.752104423940181732e-02 -7.770665884017944336e-01 -2.278636544942855835e-01 -3.756443038582801819e-02
1.793000000000000000e+03 3.595193624496459961e+00 -3.726415252685546875e+01 1.362490933388471603e-02 -8.643458485603332520e-01 -2.552162706851959229e-01 -1.459746435284614563e-02
1.794000000000000000e+03 4.151394367218017578e+00 -3.229034042358398438e+01 5.378540139645338058e-03 -8.093402981758117676e-01 -2.411885261535644531e-01 -4.231391847133636475e-02
1.795000000000000000e+03 2.121620655059814453e+00 -3.001338577270507812e+01 7.193513214588165283e-03 -9.194183349609375000e-01 -2.736674249172210693e-01 -2.669438347220420837e-02
1.796000000000000000e+03 3.274139881134033203e+00 -2.831576538085937500e+01 1.355333253741264343e-02 -8.173530697822570801e-01 -2.411399185657501221e-01 -5.156655982136726379e-02
1.797000000000000000e+03 3.222014427185058594e+00 -2.566307640075683594e+01 1.288576424121856689e-02 -7.764387726783752441e-01 -2.290658950805664062e-01 -6.553535908460617065e-02
1.798000000000000000e+03 1.733463764190673828e+00 2.163565254211425781e+01 -1.911380328238010406e-03 -1.683866381645202637e-01 -5.108940601348876953e-02 -1.150497607886791229e-02
1.799000000000000000e+03 2.924821853637695312e+00 2.276972770690917969e+01 -2.874352270737290382e-03 -1.375214904546737671e-01 -4.211875051259994507e-02 -1.581346243619918823e-02
1.800000000000000000e+03 2.591731071472167969e+00 -1.056825828552246094e+01 -3.815626492723822594e-03 -3.194893896579742432e-01 -9.699150174856185913e-02 -1.379109770059585571e-01
1.801000000000000000e+03 3.037275791168212891e+00 -1.733491325378417969e+01 1.794572360813617706e-02 -5.782504677772521973e-01 -1.680914163589477539e-01 -1.200917586684226990e-01
1.802000000000000000e+03 1.713678240776062012e+00 -1.474399375915527344e+01 5.557946278713643551e-04 -5.263944864273071289e-01 -1.577516049146652222e-01 -8.424127101898193359e-02
1.803000000000000000e+03 2.877895593643188477e+00 1.727507209777832031e+01 -4.061165673192590475e-04 -1.581719815731048584e-01 -4.757342860102653503e-02 -1.760252192616462708e-02
1.804000000000000000e+03 2.683897256851196289e+00 1.179888534545898438e+01 1.237946189939975739e-02 -1.765393912792205811e-01 -4.924798011779785156e-02 3.444009926170110703e-03
1.805000000000000000e+03 3.108998775482177734e+00 -1.872646903991699219e+01 1.064394880086183548e-02 -6.174691915512084961e-01 -1.820475757122039795e-01 -1.082230806350708008e-01
1.806000000000000000e+03 2.779091358184814453e+00 -1.323357582092285156e+01 4.650391638278961182e-03 -4.326918721199035645e-01 -1.284124404191970825e-01 -1.382014900445938110e-01
1.807000000000000000e+03 1.456493377685546875e+00 -7.957225799560546875e+00 -2.344411332160234451e-03 -1.934592127799987793e-01 -5.874108523130416870e-02 -7.538831979036331177e-02
1.808000000000000000e+03 4.983798980712890625e+00 -4.803630352020263672e+00 -9.240143001079559326e-02 -9.346556663513183594e-02 -5.576010048389434814e-02 -1.560242772102355957e-01
1.809000000000000000e+03 2.567618608474731445e+00 7.928351879119873047e+00 2.186962775886058807e-02 -1.603719890117645264e-01 -4.155071079730987549e-02 4.771752282977104187e-02
1.810000000000000000e+03 1.613551497459411621e+00 6.419719219207763672e+00 8.220292627811431885e-03 -1.472672075033187866e-01 -4.171407595276832581e-02 5.065213516354560852e-02
1.811000000000000000e+03 1.677772760391235352e+00 1.468643283843994141e+01 3.368488280102610588e-03 -2.070695459842681885e-01 -6.111031770706176758e-02 -9.703603573143482208e-03
1.812000000000000000e+03 2.861410140991210938e+00 1.588635063171386719e+01 4.242915194481611252e-03 -1.631873846054077148e-01 -4.768334329128265381e-02 -1.658498682081699371e-02
1.813000000000000000e+03 2.571517229080200195e+00 9.207972526550292969e+00 1.932801865041255951e-02 -1.711185872554779053e-01 -4.553717002272605896e-02 3.240791335701942444e-02
1.814000000000000000e+03 2.451584339141845703e+00 -8.006652832031250000e+00 -1.519171148538589478e-02 -2.047219723463058472e-01 -6.597410142421722412e-02 -1.207529455423355103e-01
1.815000000000000000e+03 1.912444710731506348e+00 -4.414314270019531250e+00 -1.751305721700191498e-02 -6.402485817670822144e-02 -2.446137368679046631e-02 -4.820595681667327881e-02
1.816000000000000000e+03 3.215276479721069336e+00 -2.152886390686035156e+01 9.604853577911853790e-03 -6.885193586349487305e-01 -2.036743462085723877e-01 -8.930220454931259155e-02
1.817000000000000000e+03 2.510873317718505859e+00 -9.269474029541015625e+00 -3.461242653429508209e-03 -2.618445754051208496e-01 -7.959174364805221558e-02 -1.321801245212554932e-01
1.818000000000000000e+03 2.959197759628295898e+00 -1.595404720306396484e+01 9.325321763753890991e-03 -5.327268838882446289e-01 -1.570204794406890869e-01 -1.263125985860824585e-01
1.819000000000000000e+03 2.871853113174438477e+00 -1.458805274963378906e+01 1.494360342621803284e-02 -4.859330654144287109e-01 -1.412968486547470093e-01 -1.352648884057998657e-01
1.820000000000000000e+03 1.925629019737243652e+00 -2.312047004699707031e+01 1.607816666364669800e-03 -8.041287660598754883e-01 -2.407562881708145142e-01 -4.873762279748916626e-02
1.821000000000000000e+03 5.688388824462890625e+00 -3.672978973388671875e+01 2.947182208299636841e-02 -7.374429106712341309e-01 -2.123913168907165527e-01 -2.784139290452003479e-02
1.822000000000000000e+03 1.720593929290771484e+00 2.024569320678710938e+01 8.980574784800410271e-04 -1.763012409210205078e-01 -5.262095481157302856e-02 -1.248303707689046860e-02
1.823000000000000000e+03 2.886796712875366211e+00 2.139070892333984375e+01 -2.341791696380823851e-04 -1.431443095207214355e-01 -4.301354661583900452e-02 -1.696977205574512482e-02
1.824000000000000000e+03 6.196039676666259766e+00 -3.287110137939453125e+01 2.154591307044029236e-02 -6.910524964332580566e-01 -2.008519768714904785e-01 -6.046128273010253906e-02
1.825000000000000000e+03 4.574978351593017578e+00 -2.412107849121093750e+01 2.391580119729042053e-02 -6.676231026649475098e-01 -1.931121945381164551e-01 -1.021944135427474976e-01
1.826000000000000000e+03 2.683094978332519531e+00 -1.189222240447998047e+01 7.777958642691373825e-03 -3.783980607986450195e-01 -1.111860349774360657e-01 -1.412030756473541260e-01
1.827000000000000000e+03 2.615825891494750977e+00 1.049202823638916016e+01 1.837556250393390656e-02 -1.762213408946990967e-01 -4.735372960567474365e-02 1.551891211420297623e-02
1.828000000000000000e+03 3.910103797912597656e+00 1.292208671569824219e+01 1.498658396303653717e-02 -1.362388432025909424e-01 -3.637567535042762756e-02 -5.657567642629146576e-03
1.829000000000000000e+03 2.763295888900756836e+00 1.313297176361083984e+01 1.020663604140281677e-02 -1.724833846092224121e-01 -4.868302494287490845e-02 -6.623819936066865921e-03
1.830000000000000000e+03 4.050769329071044922e+00 1.709088134765625000e+01 2.950676716864109039e-03 -1.240172684192657471e-01 -3.631997853517532349e-02 -2.091302163898944855e-02
1.831000000000000000e+03 1.572063636779785156e+01 -6.359776973724365234e+00 7.325882324948906898e-04 -3.706067800521850586e-01 -1.109622567892074585e-01 -4.116775393486022949e-01
1.832000000000000000e+03 3.963086700439453125e+01 -1.960733604431152344e+01 -5.758646875619888306e-02 1.057934880256652832e+00 3.001045286655426025e-01 -1.816643774509429932e-01
1.833000000000000000e+03 3.384323883056640625e+01 -1.179181957244873047e+01 6.050539086572825909e-04 7.699856162071228027e-02 2.328108623623847961e-02 1.745520159602165222e-02
1.834000000000000000e+03 1.799654006958007812e+01 -1.110732269287109375e+01 1.862618923187255859e-01 3.314280509948730469e-02 6.582140922546386719e-02 -2.255510836839675903e-01
1.835000000000000000e+03 4.461851882934570312e+01 -2.888840675354003906e+01 -1.855796016752719879e-02 3.160172939300537109e+00 9.424844980239868164e-01 -4.909743666648864746e-01
1.836000000000000000e+03 2.416520309448242188e+01 2.099651098251342773e+00 -1.361378312110900879e+00 -3.239991068840026855e-01 -5.056132078170776367e-01 -6.325322389602661133e-01
1.837000000000000000e+03 2.869507980346679688e+01 -4.343867778778076172e+00 2.589833438396453857e-01 -1.777688711881637573e-01 2.436434291303157806e-02 -4.445853456854820251e-02
1.838000000000000000e+03 3.095319938659667969e+01 -3.200708770751953125e+01 2.970145046710968018e-01 6.141256093978881836e-01 2.733420431613922119e-01 -3.797302544116973877e-01
1.839000000000000000e+03 3.049463844299316406e+01 -3.375914382934570312e+01 2.780465185642242432e-01 5.559847354888916016e-01 2.502093911170959473e-01 -3.253595530986785889e-01
1.840000000000000000e+03 2.937455368041992188e+01 -3.456493377685546875e+01 3.581022918224334717e-01 4.411634504795074463e-01 2.397797256708145142e-01 -2.605990171432495117e-01
1.841000000000000000e+03 1.772955703735351562e+01 -4.995228767395019531e+00 -1.085742264986038208e-01 -3.886412680149078369e-01 -1.491646468639373779e-01 -2.892983853816986084e-01
1.842000000000000000e+03 1.731077575683593750e+01 -6.019813537597656250e+00 4.635216668248176575e-02 -2.974301278591156006e-01 -7.532339543104171753e-02 -2.895463109016418457e-01
1.843000000000000000e+03 4.542419052124023438e+01 -2.991850662231445312e+01 7.298485934734344482e-02 3.530442714691162109e+00 1.081028223037719727e+00 -3.211392164230346680e-01
1.844000000000000000e+03 1.732637786865234375e+01 -8.827597618103027344e+00 1.705140769481658936e-01 -8.527864515781402588e-02 2.557062916457653046e-02 -2.267294377088546753e-01
1.845000000000000000e+03 1.694209861755371094e+01 -1.028994464874267578e+01 1.524222344160079956e-01 -7.169221341609954834e-02 2.421900629997253418e-02 -2.495133280754089355e-01
1.846000000000000000e+03 2.938541030883789062e+01 -5.288836002349853516e+00 2.098753750324249268e-01 -1.635414361953735352e-01 1.390017941594123840e-02 -2.401146851480007172e-02
1.847000000000000000e+03 4.906913375854492188e+01 -3.252489089965820312e+01 4.938810169696807861e-01 4.465423107147216797e+00 1.487791180610656738e+00 2.094659805297851562e-01
1.848000000000000000e+03 4.711368942260742188e+01 -3.695805740356445312e+01 1.155961513519287109e+00 4.707283496856689453e+00 1.758973598480224609e+00 -8.954290300607681274e-02
1.849000000000000000e+03 5.734251403808593750e+01 3.248488616943359375e+01 3.571284532546997070e+00 7.692644119262695312e+00 3.379178524017333984e+00 5.573103904724121094e+00
1.850000000000000000e+03 5.642724227905273438e+01 3.227686309814453125e+01 3.389120340347290039e+00 4.373353004455566406e+00 2.328742027282714844e+00 4.002359390258789062e+00
1.851000000000000000e+03 5.698957443237304688e+01 3.232451629638671875e+01 3.499112129211425781e+00 6.209963798522949219e+00 2.912722826004028320e+00 4.920903682708740234e+00
1.852000000000000000e+03 5.832588577270507812e+01 3.273614120483398438e+01 2.247011899948120117e+00 1.565588378906250000e+01 5.370868682861328125e+00 5.584473609924316406e+00
1.853000000000000000e+03 2.481972885131835938e+01 1.806200623512268066e+00 -1.127737402915954590e+00 -2.813171744346618652e-01 -4.227163791656494141e-01 -5.125038027763366699e-01
1.854000000000000000e+03 2.510422325134277344e+01 2.554679155349731445e+00 -1.257534742355346680e+00 -3.478084206581115723e-01 -4.816029369831085205e-01 -6.007949113845825195e-01
1.855000000000000000e+03 2.470883560180664062e+01 2.807708978652954102e+00 -1.382582426071166992e+00 -3.979662954807281494e-01 -5.341646075248718262e-01 -7.061132192611694336e-01
1.856000000000000000e+03 2.435381126403808594e+01 2.605860233306884766e+00 -1.423921585083007812e+00 -3.749737739562988281e-01 -5.396686196327209473e-01 -7.069365382194519043e-01
1.857000000000000000e+03 2.568368721008300781e+01 3.434370994567871094e+00 -1.336167812347412109e+00 -4.461980164051055908e-01 -5.347097516059875488e-01 -7.112910151481628418e-01
1.858000000000000000e+03 2.613648796081542969e+01 3.388037443161010742e+00 -1.245990991592407227e+00 -4.650398492813110352e-01 -5.133092403411865234e-01 -6.597763895988464355e-01
1.859000000000000000e+03 2.620953559875488281e+01 3.737773656845092773e+00 -1.300241827964782715e+00 -4.967125058174133301e-01 -5.390862822532653809e-01 -7.141577005386352539e-01
1.860000000000000000e+03 2.856483078002929688e+01 4.427906036376953125e+00 -9.554367661476135254e-01 -5.539749860763549805e-01 -4.528235197067260742e-01 -5.277706384658813477e-01
1.861000000000000000e+03 2.384511375427246094e+01 -2.612525820732116699e-01 -5.782569050788879395e-01 4.432225599884986877e-02 -1.601803898811340332e-01 -2.889238595962524414e-01
1.862000000000000000e+03 2.848609542846679688e+01 5.160268783569335938e+00 -1.068772435188293457e+00 -6.969699263572692871e-01 -5.297226905822753906e-01 -6.688847541809082031e-01
1.863000000000000000e+03 2.832543945312500000e+01 4.048792362213134766e+00 -9.370961785316467285e-01 -5.237507820129394531e-01 -4.382540881633758545e-01 -5.054219961166381836e-01
1.864000000000000000e+03 2.872200202941894531e+01 5.005735874176025391e+00 -1.000126719474792480e+00 -6.344357728958129883e-01 -4.903687238693237305e-01 -6.019656658172607422e-01
1.865000000000000000e+03 1.785074615478515625e+01 -1.656528234481811523e+00 -1.372834920883178711e+00 -5.390198230743408203e-01 -5.735564231872558594e-01 -7.238015532493591309e-01
1.866000000000000000e+03 2.985531616210937500e+01 5.184925556182861328e+00 -8.340395092964172363e-01 -4.242218136787414551e-01 -3.774783909320831299e-01 -5.237461924552917480e-01
1.867000000000000000e+03 2.907224082946777344e+01 5.086629867553710938e+00 -9.553140401840209961e-01 -5.646815299987792969e-01 -4.559986889362335205e-01 -5.620508790016174316e-01
1.868000000000000000e+03 3.137372398376464844e+01 2.310529136657714844e+01 6.762967258691787720e-02 8.979045599699020386e-02 4.722603783011436462e-02 8.374122530221939087e-02
1.869000000000000000e+03 1.905431938171386719e+01 1.019895553588867188e+01 1.431655138731002808e-01 1.941320598125457764e-01 1.011892780661582947e-01 1.722162216901779175e-01
1.870000000000000000e+03 3.271354675292968750e+01 2.366704750061035156e+01 6.576126813888549805e-02 9.058111906051635742e-02 4.690271615982055664e-02 7.965332269668579102e-02
1.871000000000000000e+03 3.104926300048828125e+01 2.221654510498046875e+01 7.102054357528686523e-02 9.405198693275451660e-02 4.952175915241241455e-02 8.590489625930786133e-02
1.872000000000000000e+03 1.830322074890136719e+01 9.264039039611816406e+00 1.636003255844116211e-01 2.174659520387649536e-01 1.143198832869529724e-01 1.778168976306915283e-01
1.873000000000000000e+03 1.880508422851562500e+01 9.883777618408203125e+00 1.486691832542419434e-01 2.037643939256668091e-01 1.057300716638565063e-01 1.731200069189071655e-01
1.874000000000000000e+03 3.972533035278320312e+01 1.926567077636718750e+01 -4.675683677196502686e-01 -3.313158452510833740e-01 -2.396652698516845703e-01 -4.522378444671630859e-01
1.875000000000000000e+03 4.114519500732421875e+01 2.119702148437500000e+01 -4.556477367877960205e-01 -3.005434870719909668e-01 -2.268573641777038574e-01 -3.928053975105285645e-01
1.876000000000000000e+03 3.307605361938476562e+01 1.235623359680175781e+01 -8.369300961494445801e-01 -7.720240950584411621e-01 -4.826862514019012451e-01 -8.060864806175231934e-01
1.877000000000000000e+03 3.528327560424804688e+01 1.384630775451660156e+01 -7.048488259315490723e-01 -6.025413274765014648e-01 -3.922170400619506836e-01 -6.458561420440673828e-01
1.878000000000000000e+03 1.956096267700195312e+01 1.089441967010498047e+01 1.385233700275421143e-01 1.806899309158325195e-01 9.576398879289627075e-02 1.633587032556533813e-01
1.879000000000000000e+03 2.482799530029296875e+01 1.611734199523925781e+01 1.094257682561874390e-01 1.277757138013839722e-01 7.116044312715530396e-02 1.219095140695571899e-01
1.880000000000000000e+03 3.944716262817382812e+01 1.898834991455078125e+01 -4.841205179691314697e-01 -3.598823249340057373e-01 -2.532008588314056396e-01 -4.684062898159027100e-01
1.881000000000000000e+03 2.607498359680175781e+01 1.712533760070800781e+01 1.090684682130813599e-01 1.238089725375175476e-01 6.986322999000549316e-02 1.137927696108818054e-01
1.882000000000000000e+03 4.170712661743164062e+01 2.176256179809570312e+01 -4.614219665527343750e-01 -2.715032398700714111e-01 -2.198775559663772583e-01 -3.613614439964294434e-01
1.883000000000000000e+03 3.307680892944335938e+01 2.455337333679199219e+01 6.594907492399215698e-02 9.176411479711532593e-02 4.731395840644836426e-02 7.950016856193542480e-02
1.884000000000000000e+03 3.492250061035156250e+01 1.454895877838134766e+01 -7.435343265533447266e-01 -7.500501871109008789e-01 -4.480753540992736816e-01 -7.451825737953186035e-01
1.885000000000000000e+03 4.652963638305664062e+01 2.530594635009765625e+01 -8.603088557720184326e-02 3.272686004638671875e-01 7.237131148576736450e-02 1.235579252243041992e-01
1.886000000000000000e+03 3.834894943237304688e+01 1.837587165832519531e+01 -5.523784160614013672e-01 -5.540556907653808594e-01 -3.319302499294281006e-01 -5.579563379287719727e-01
1.887000000000000000e+03 3.917416381835937500e+01 1.870746994018554688e+01 -5.028533339500427246e-01 -3.900899887084960938e-01 -2.678830027580261230e-01 -4.826132655143737793e-01
1.888000000000000000e+03 4.626026153564453125e+01 2.558506202697753906e+01 -1.210684254765510559e-01 1.838174164295196533e-01 1.882469654083251953e-02 3.093856945633888245e-02
1.889000000000000000e+03 2.101688957214355469e+01 1.271460151672363281e+01 1.255105435848236084e-01 1.656637638807296753e-01 8.735229820013046265e-02 1.441804021596908569e-01
1.890000000000000000e+03 3.157241630554199219e+01 1.097840881347656250e+01 -9.988750219345092773e-01 -8.128247261047363281e-01 -5.435099005699157715e-01 -8.258528113365173340e-01
1.891000000000000000e+03 3.269206237792968750e+01 1.151855850219726562e+01 -8.805126547813415527e-01 -7.230675816535949707e-01 -4.810740649700164795e-01 -7.541366219520568848e-01
1.892000000000000000e+03 2.393344879150390625e+01 1.517623996734619141e+01 1.148737072944641113e-01 1.385575383901596069e-01 7.602937519550323486e-02 1.276536732912063599e-01
1.893000000000000000e+03 4.683644866943359375e+01 2.611793518066406250e+01 -6.383726745843887329e-02 2.355213910341262817e-01 5.150523409247398376e-02 8.966522663831710815e-02
1.894000000000000000e+03 3.419539260864257812e+01 2.561041641235351562e+01 6.579402834177017212e-02 9.100458770990371704e-02 4.703958705067634583e-02 7.666616141796112061e-02
1.895000000000000000e+03 1.804697608947753906e+01 8.963996887207031250e+00 1.687551140785217285e-01 2.206097990274429321e-01 1.168094724416732788e-01 1.844143122434616089e-01
1.896000000000000000e+03 1.697045135498046875e+01 8.407501220703125000e+00 1.573914438486099243e-01 2.477842420339584351e-01 1.215527057647705078e-01 1.961106806993484497e-01
1.897000000000000000e+03 2.238693046569824219e+01 1.334611415863037109e+01 1.344592422246932983e-01 1.562734842300415039e-01 8.721981942653656006e-02 1.415823251008987427e-01
1.898000000000000000e+03 2.162121582031250000e+01 1.314168167114257812e+01 1.272284388542175293e-01 1.597386449575424194e-01 8.609012514352798462e-02 1.418372094631195068e-01
1.899000000000000000e+03 3.194678497314453125e+01 2.296299934387207031e+01 6.938993185758590698e-02 8.635432273149490356e-02 4.672327637672424316e-02 8.230081945657730103e-02
1.900000000000000000e+03 4.339505386352539062e+01 2.293303871154785156e+01 -3.628236651420593262e-01 -8.520642668008804321e-02 -1.344090253114700317e-01 -2.219543308019638062e-01
1.901000000000000000e+03 4.282602310180664062e+01 2.288992500305175781e+01 -4.201058745384216309e-01 -2.038955390453338623e-01 -1.872004270553588867e-01 -3.115528821945190430e-01
1.902000000000000000e+03 4.740571212768554688e+01 2.612300872802734375e+01 6.396478973329067230e-03 4.085287749767303467e-01 1.244775801897048950e-01 2.141767442226409912e-01
1.903000000000000000e+03 3.548194885253906250e+01 1.462492465972900391e+01 -7.011351585388183594e-01 -6.617382168769836426e-01 -4.088620245456695557e-01 -6.824701428413391113e-01
1.904000000000000000e+03 3.808589935302734375e+01 1.807830238342285156e+01 -5.740779042243957520e-01 -5.859016180038452148e-01 -3.479938507080078125e-01 -5.733790397644042969e-01
1.905000000000000000e+03 4.511724090576171875e+01 2.504809761047363281e+01 -2.530901134014129639e-01 -3.744794055819511414e-02 -8.716141432523727417e-02 -1.346167027950286865e-01
1.906000000000000000e+03 4.596353530883789062e+01 2.532411575317382812e+01 -1.540907472372055054e-01 1.525966823101043701e-01 -4.482220683712512255e-04 2.162446500733494759e-03
1.907000000000000000e+03 2.943990516662597656e+01 2.099611854553222656e+01 8.354649692773818970e-02 1.004720851778984070e-01 5.520557612180709839e-02 9.166128933429718018e-02
1.908000000000000000e+03 4.735864639282226562e+01 2.668648147583007812e+01 -1.176091562956571579e-02 2.621092498302459717e-01 7.510450482368469238e-02 1.304946541786193848e-01
1.909000000000000000e+03 4.789846038818359375e+01 2.778082466125488281e+01 4.614078905433416367e-03 1.574378907680511475e-01 4.861559346318244934e-02 9.238424152135848999e-02
1.910000000000000000e+03 3.415840148925781250e+01 1.363802051544189453e+01 -7.911008000373840332e-01 -7.784129381179809570e-01 -4.708541333675384521e-01 -7.576215267181396484e-01
1.911000000000000000e+03 3.522708129882812500e+01 1.433810043334960938e+01 -7.169100642204284668e-01 -6.703013777732849121e-01 -4.161634147167205811e-01 -6.923450231552124023e-01
1.912000000000000000e+03 4.367377471923828125e+01 2.320269775390625000e+01 -3.452546894550323486e-01 -6.663994491100311279e-02 -1.235683932900428772e-01 -2.011093497276306152e-01
1.913000000000000000e+03 3.807073974609375000e+01 2.958105468750000000e+01 7.510226964950561523e-02 7.831125706434249878e-02 4.602405801415443420e-02 7.162775099277496338e-02
1.914000000000000000e+03 3.756768035888671875e+01 3.018601417541503906e+01 7.467599213123321533e-02 8.457121253013610840e-02 4.777415841817855835e-02 7.199237495660781860e-02
1.915000000000000000e+03 2.015578269958496094e+01 1.164012718200683594e+01 1.334663927555084229e-01 1.741881072521209717e-01 9.229635447263717651e-02 1.521514803171157837e-01
1.916000000000000000e+03 2.956546401977539062e+01 2.064228248596191406e+01 8.478177338838577271e-02 9.913738071918487549e-02 5.517574399709701538e-02 9.223230928182601929e-02
1.917000000000000000e+03 4.284448242187500000e+01 2.238433647155761719e+01 -3.946355879306793213e-01 -1.190005466341972351e-01 -1.540908366441726685e-01 -2.554334998130798340e-01
1.918000000000000000e+03 4.761384582519531250e+01 2.697572708129882812e+01 1.251155976206064224e-02 2.738228738307952881e-01 8.590032905340194702e-02 1.522443741559982300e-01
1.919000000000000000e+03 2.861140060424804688e+01 2.011865615844726562e+01 8.426631987094879150e-02 1.047200784087181091e-01 5.669591948390007019e-02 9.603114426136016846e-02
1.920000000000000000e+03 3.573975372314453125e+01 1.491113853454589844e+01 -6.829724311828613281e-01 -6.518442630767822266e-01 -4.004449844360351562e-01 -6.720939278602600098e-01
1.921000000000000000e+03 3.596858596801757812e+01 1.570998573303222656e+01 -6.828029751777648926e-01 -7.112498879432678223e-01 -4.182158708572387695e-01 -6.956476569175720215e-01
1.922000000000000000e+03 2.779725837707519531e+01 1.916240882873535156e+01 9.299355745315551758e-02 1.112748980522155762e-01 6.128053739666938782e-02 1.025672405958175659e-01
1.923000000000000000e+03 2.861413192749023438e+01 1.942325973510742188e+01 9.434705227613449097e-02 1.040234565734863281e-01 5.951115116477012634e-02 9.964523464441299438e-02
1.924000000000000000e+03 1.725949478149414062e+01 8.664208412170410156e+00 1.600331813097000122e-01 2.388584613800048828e-01 1.196674928069114685e-01 1.884423345327377319e-01
1.925000000000000000e+03 2.265344619750976562e+01 1.362161445617675781e+01 1.337168067693710327e-01 1.546379774808883667e-01 8.650643378496170044e-02 1.393439471721649170e-01
1.926000000000000000e+03 2.190249252319335938e+01 1.338448619842529297e+01 1.275076419115066528e-01 1.576339453458786011e-01 8.554247766733169556e-02 1.394310146570205688e-01
1.927000000000000000e+03 2.755472183227539062e+01 1.888410377502441406e+01 9.626334160566329956e-02 1.122440993785858154e-01 6.255223602056503296e-02 1.038358956575393677e-01
1.928000000000000000e+03 2.554513168334960938e+01 1.726625061035156250e+01 1.031774654984474182e-01 1.245386451482772827e-01 6.831483542919158936e-02 1.121255457401275635e-01
1.929000000000000000e+03 2.854113388061523438e+01 1.973586273193359375e+01 9.311386942863464355e-02 1.050170883536338806e-01 5.943928658962249756e-02 1.000387668609619141e-01
1.930000000000000000e+03 4.395412063598632812e+01 2.347091102600097656e+01 -3.273535668849945068e-01 -4.711566120386123657e-02 -1.123407706618309021e-01 -1.786330640316009521e-01
1.931000000000000000e+03 4.902519226074218750e+01 2.885490608215332031e+01 1.100119575858116150e-01 1.992303431034088135e-01 9.277268499135971069e-02 1.714614778757095337e-01
1.932000000000000000e+03 4.817504882812500000e+01 2.805125617980957031e+01 2.923874184489250183e-02 1.695657521486282349e-01 5.964134633541107178e-02 1.112014129757881165e-01
1.933000000000000000e+03 4.988990783691406250e+01 2.966897964477539062e+01 1.997095495462417603e-01 1.999920010566711426e-01 1.199104636907577515e-01 2.228876799345016479e-01
1.934000000000000000e+03 5.038946533203125000e+01 2.967613983154296875e+01 3.432801365852355957e-01 3.480965495109558105e-01 2.074130028486251831e-01 3.911660909652709961e-01
1.935000000000000000e+03 3.970362472534179688e+01 3.102314186096191406e+01 6.727094948291778564e-02 7.526449859142303467e-02 4.276063293218612671e-02 6.996998935937881470e-02
1.936000000000000000e+03 4.881574249267578125e+01 2.911330223083496094e+01 2.639558166265487671e-02 7.161723822355270386e-02 2.940384484827518463e-02 5.634251981973648071e-02
1.937000000000000000e+03 5.009807586669921875e+01 2.939860534667968750e+01 2.995357215404510498e-01 3.547151684761047363e-01 1.962752640247344971e-01 3.668979406356811523e-01
1.938000000000000000e+03 3.599993896484375000e+01 1.519801807403564453e+01 -6.705579757690429688e-01 -6.419804692268371582e-01 -3.937615156173706055e-01 -6.581326723098754883e-01
1.939000000000000000e+03 4.307329559326171875e+01 3.414330673217773438e+01 1.039653420448303223e-01 6.133442744612693787e-02 4.958993196487426758e-02 7.087384164333343506e-02
1.940000000000000000e+03 3.448463058471679688e+01 1.343511486053466797e+01 -7.586373090744018555e-01 -6.959115862846374512e-01 -4.363646805286407471e-01 -7.013074159622192383e-01
1.941000000000000000e+03 3.626180267333984375e+01 1.548652267456054688e+01 -6.567649245262145996e-01 -6.303095817565917969e-01 -3.861223459243774414e-01 -6.453753709793090820e-01
1.942000000000000000e+03 3.652477264404296875e+01 1.577698612213134766e+01 -6.468966603279113770e-01 -6.188158988952636719e-01 -3.797137737274169922e-01 -6.305693387985229492e-01
1.943000000000000000e+03 1.982345390319824219e+01 1.129945659637451172e+01 1.359184235334396362e-01 1.775316148996353149e-01 9.403500705957412720e-02 1.556593328714370728e-01
1.944000000000000000e+03 3.788970184326171875e+01 2.919429779052734375e+01 6.668567657470703125e-02 8.151735365390777588e-02 4.446090757846832275e-02 7.613746821880340576e-02
1.945000000000000000e+03 4.108705520629882812e+01 3.196935844421386719e+01 8.592170476913452148e-02 6.606146693229675293e-02 4.559495300054550171e-02 6.490305066108703613e-02
1.946000000000000000e+03 3.678841018676757812e+01 1.606936264038085938e+01 -6.345533132553100586e-01 -6.060474514961242676e-01 -3.721802234649658203e-01 -6.170765161514282227e-01
1.947000000000000000e+03 5.068095397949218750e+01 2.995998382568359375e+01 3.840920925140380859e-01 3.381979465484619141e-01 2.166870236396789551e-01 4.115003645420074463e-01
1.948000000000000000e+03 4.787091827392578125e+01 2.725810813903808594e+01 3.725322335958480835e-02 2.779839932918548584e-01 9.457116574048995972e-02 1.726129055023193359e-01
1.949000000000000000e+03 4.839953231811523438e+01 2.780139160156250000e+01 9.043288230895996094e-02 2.991603314876556396e-01 1.168779656291007996e-01 2.140804380178451538e-01
1.950000000000000000e+03 1.835348892211914062e+01 -3.016667366027832031e+00 -2.309155911207199097e-01 -7.113747596740722656e-01 -2.826870977878570557e-01 -5.456618070602416992e-01
1.951000000000000000e+03 4.409389114379882812e+01 3.554214477539062500e+01 1.387079358100891113e-01 6.784524768590927124e-02 6.196595355868339539e-02 8.774498105049133301e-02
1.952000000000000000e+03 2.688737297058105469e+01 1.729286384582519531e+01 1.144252941012382507e-01 1.217050179839134216e-01 7.083909213542938232e-02 1.154450476169586182e-01
1.953000000000000000e+03 3.472826385498046875e+01 1.374778270721435547e+01 -7.473236322402954102e-01 -6.888266801834106445e-01 -4.308451116085052490e-01 -7.008323669433593750e-01
1.954000000000000000e+03 3.813563537597656250e+01 3.008356475830078125e+01 6.429152935743331909e-02 7.177893817424774170e-02 4.082114249467849731e-02 7.107230275869369507e-02
1.955000000000000000e+03 4.002828979492187500e+01 3.214844894409179688e+01 8.209045231342315674e-02 7.440739870071411133e-02 4.694935679435729980e-02 6.321562081575393677e-02
1.956000000000000000e+03 3.755894088745117188e+01 1.748044967651367188e+01 -6.094688177108764648e-01 -6.377419829368591309e-01 -3.741632401943206787e-01 -6.068545579910278320e-01
1.957000000000000000e+03 4.161121749877929688e+01 3.253239822387695312e+01 7.460796087980270386e-02 6.906606256961822510e-02 4.310220479965209961e-02 5.893871560692787170e-02
1.958000000000000000e+03 4.482859420776367188e+01 2.477760124206542969e+01 -2.807377874851226807e-01 -6.589729338884353638e-02 -1.039905250072479248e-01 -1.590825915336608887e-01
1.959000000000000000e+03 4.567039489746093750e+01 2.506370735168457031e+01 -1.878441572189331055e-01 1.196627244353294373e-01 -2.045443095266819000e-02 -2.659387141466140747e-02
1.960000000000000000e+03 4.423616409301757812e+01 2.373836517333984375e+01 -3.084641396999359131e-01 -2.498928271234035492e-02 -1.000360250473022461e-01 -1.546185165643692017e-01
1.961000000000000000e+03 4.120738983154296875e+01 2.064188003540039062e+01 -4.173463284969329834e-01 -2.163776755332946777e-01 -1.901172101497650146e-01 -3.499505221843719482e-01
1.962000000000000000e+03 3.782270050048828125e+01 1.777937507629394531e+01 -5.924434661865234375e-01 -6.138951182365417480e-01 -3.619015812873840332e-01 -5.904031991958618164e-01
1.963000000000000000e+03 2.994247436523437500e+01 2.130970764160156250e+01 8.119818568229675293e-02 9.853550791740417480e-02 5.392010882496833801e-02 8.890295028686523438e-02
1.964000000000000000e+03 5.096846008300781250e+01 3.025051307678222656e+01 4.222366213798522949e-01 3.122237622737884521e-01 2.203381061553955078e-01 4.269069731235504150e-01
1.965000000000000000e+03 4.931281661987304688e+01 2.912358093261718750e+01 1.404630094766616821e-01 2.041911929845809937e-01 1.033962592482566833e-01 1.903030425310134888e-01
1.966000000000000000e+03 2.637992858886718750e+01 1.737057685852050781e+01 1.083018034696578979e-01 1.224820539355278015e-01 6.923516094684600830e-02 1.124313548207283020e-01
1.967000000000000000e+03 4.257280349731445312e+01 2.210146331787109375e+01 -4.059623181819915771e-01 -1.355847865343093872e-01 -1.624641269445419312e-01 -2.685696482658386230e-01
1.968000000000000000e+03 4.058087539672851562e+01 3.206551361083984375e+01 8.295261114835739136e-02 7.199804484844207764e-02 4.648519679903984070e-02 7.120266556739807129e-02
1.969000000000000000e+03 4.873893737792968750e+01 2.858733177185058594e+01 8.242532610893249512e-02 1.908191740512847900e-01 8.197335153818130493e-02 1.510830968618392944e-01
1.970000000000000000e+03 3.393291854858398438e+01 2.533889007568359375e+01 6.471226364374160767e-02 9.060836583375930786e-02 4.659618809819221497e-02 7.612704485654830933e-02
1.971000000000000000e+03 4.189533233642578125e+01 3.282118988037109375e+01 8.620774000883102417e-02 4.284245520830154419e-02 3.871505707502365112e-02 6.554433703422546387e-02
1.972000000000000000e+03 3.239532852172851562e+01 1.125023078918457031e+01 -9.014018177986145020e-01 -7.246413826942443848e-01 -4.878129661083221436e-01 -7.559079527854919434e-01
1.973000000000000000e+03 3.705233001708984375e+01 1.636340713500976562e+01 -6.243905425071716309e-01 -5.930290222167968750e-01 -3.652258813381195068e-01 -6.012651920318603516e-01
1.974000000000000000e+03 3.718254089355468750e+01 2.970650482177734375e+01 6.929126381874084473e-02 9.144111722707748413e-02 4.821971431374549866e-02 7.657210528850555420e-02
1.975000000000000000e+03 4.125104141235351562e+01 3.286191558837890625e+01 8.992397040128707886e-02 5.696994438767433167e-02 4.406817257404327393e-02 7.609010487794876099e-02
1.976000000000000000e+03 2.291578865051269531e+01 1.390268611907958984e+01 1.322961598634719849e-01 1.526503711938858032e-01 8.548396080732345581e-02 1.365195810794830322e-01
1.977000000000000000e+03 2.132723808288574219e+01 1.291964626312255859e+01 1.262911409139633179e-01 1.630158126354217529e-01 8.679208904504776001e-02 1.431410014629364014e-01
1.978000000000000000e+03 2.667782020568847656e+01 1.761638641357421875e+01 1.076594665646553040e-01 1.215359047055244446e-01 6.875861436128616333e-02 1.114214882254600525e-01
1.979000000000000000e+03 5.124342727661132812e+01 3.054688453674316406e+01 4.510647952556610107e-01 2.827395498752593994e-01 2.201413065195083618e-01 4.354562461376190186e-01
1.980000000000000000e+03 2.655077362060546875e+01 1.854219245910644531e+01 9.344960749149322510e-02 1.188422814011573792e-01 6.368757039308547974e-02 1.041029691696166992e-01
1.981000000000000000e+03 4.079592895507812500e+01 3.303732681274414062e+01 6.000830605626106262e-02 5.340326577425003052e-02 3.402347117662429810e-02 4.656735807657241821e-02
1.982000000000000000e+03 2.703865432739257812e+01 1.839873313903808594e+01 9.863319993019104004e-02 1.170212253928184509e-01 6.469632685184478760e-02 1.062835603952407837e-01
1.983000000000000000e+03 4.262234115600585938e+01 3.440137100219726562e+01 7.138632237911224365e-02 4.110512137413024902e-02 3.374743089079856873e-02 5.264904350042343140e-02
1.984000000000000000e+03 3.731624221801757812e+01 1.665868377685546875e+01 -6.119149327278137207e-01 -5.776162147521972656e-01 -3.568593561649322510e-01 -5.862017273902893066e-01
1.985000000000000000e+03 3.758013534545898438e+01 1.695465278625488281e+01 -6.010563373565673828e-01 -5.596522688865661621e-01 -3.482125699520111084e-01 -5.691111087799072266e-01
1.986000000000000000e+03 4.213212203979492188e+01 3.400509643554687500e+01 7.321051508188247681e-02 3.363122045993804932e-02 3.205252066254615784e-02 4.171861708164215088e-02
1.987000000000000000e+03 4.193511581420898438e+01 3.345205307006835938e+01 8.378122746944427490e-02 4.137052968144416809e-02 3.754552453756332397e-02 5.593978241086006165e-02
1.988000000000000000e+03 3.225398254394531250e+01 2.372060775756835938e+01 6.642237305641174316e-02 9.127552062273025513e-02 4.730936884880065918e-02 8.029451221227645874e-02
1.989000000000000000e+03 3.784415817260742188e+01 1.725065422058105469e+01 -5.878778100013732910e-01 -5.374471545219421387e-01 -3.375974893569946289e-01 -5.536461472511291504e-01
1.990000000000000000e+03 3.400350189208984375e+01 1.275029659271240234e+01 -7.684614062309265137e-01 -6.922478079795837402e-01 -4.382127821445465088e-01 -7.075145840644836426e-01
1.991000000000000000e+03 3.726751327514648438e+01 2.832560539245605469e+01 6.951831281185150146e-02 8.677047491073608398e-02 4.688663408160209656e-02 7.515518367290496826e-02
1.992000000000000000e+03 3.044515037536621094e+01 2.179166793823242188e+01 7.676034420728683472e-02 9.756657481193542480e-02 5.229807645082473755e-02 8.642624318599700928e-02
1.993000000000000000e+03 4.311849594116210938e+01 2.266087150573730469e+01 -3.796023428440093994e-01 -1.023722738027572632e-01 -1.445923894643783569e-01 -2.399106472730636597e-01
1.994000000000000000e+03 4.176283645629882812e+01 2.121989440917968750e+01 -4.150110185146331787e-01 -1.857653111219406128e-01 -1.802328974008560181e-01 -3.120438456535339355e-01
1.995000000000000000e+03 3.375020217895507812e+01 1.236672973632812500e+01 -7.771232128143310547e-01 -6.787749528884887695e-01 -4.367694556713104248e-01 -7.132688164710998535e-01
1.996000000000000000e+03 4.451995849609375000e+01 2.400544357299804688e+01 -2.887763381004333496e-01 -8.753449656069278717e-04 -8.689550310373306274e-02 -1.297773718833923340e-01
1.997000000000000000e+03 4.480540847778320312e+01 2.427215003967285156e+01 -2.667497992515563965e-01 2.662440016865730286e-02 -7.203762233257293701e-02 -1.047527715563774109e-01
1.998000000000000000e+03 5.206759643554687500e+01 3.191984367370605469e+01 3.336193859577178955e-01 -9.761543571949005127e-02 7.080118358135223389e-02 2.026786655187606812e-01
1.999000000000000000e+03 5.379584503173828125e+01 3.221106719970703125e+01 1.208283782005310059e+00 7.995535135269165039e-01 6.023511886596679688e-01 9.612728953361511230e-01
2.000000000000000000e+03 5.149537658691406250e+01 3.084588241577148438e+01 4.711131453514099121e-01 2.262841612100601196e-01 2.092191874980926514e-01 4.297497868537902832e-01
2.001000000000000000e+03 2.357653617858886719e+01 1.550263309478759766e+01 1.064995527267456055e-01 1.410736888647079468e-01 7.427196949720382690e-02 1.239500865340232849e-01
2.002000000000000000e+03 2.338550949096679688e+01 1.509061145782470703e+01 1.121485307812690735e-01 1.449482738971710205e-01 7.712904363870620728e-02 1.261853128671646118e-01
2.003000000000000000e+03 2.292941093444824219e+01 1.446648597717285156e+01 1.208066195249557495e-01 1.501023769378662109e-01 8.127269893884658813e-02 1.297645568847656250e-01
2.004000000000000000e+03 3.665397262573242188e+01 2.780157279968261719e+01 6.997677683830261230e-02 8.917493373155593872e-02 4.774551093578338623e-02 7.510290294885635376e-02
2.005000000000000000e+03 3.278883743286132812e+01 2.498756027221679688e+01 6.167744845151901245e-02 8.976274728775024414e-02 4.543205723166465759e-02 7.572695612907409668e-02
2.006000000000000000e+03 3.271231460571289062e+01 2.437223625183105469e+01 6.291260570287704468e-02 8.978047221899032593e-02 4.580792039632797241e-02 7.750835269689559937e-02
2.007000000000000000e+03 3.424402236938476562e+01 1.310437583923339844e+01 -7.603915333747863770e-01 -6.997025012969970703e-01 -4.380282163619995117e-01 -7.060397863388061523e-01
2.008000000000000000e+03 2.068315315246582031e+01 1.251934051513671875e+01 1.245124861598014832e-01 1.690233051776885986e-01 8.806073665618896484e-02 1.442841291427612305e-01
2.009000000000000000e+03 2.031961250305175781e+01 1.233169269561767578e+01 1.239380538463592529e-01 1.715080887079238892e-01 8.863384276628494263e-02 1.451004594564437866e-01
2.010000000000000000e+03 3.388710784912109375e+01 2.590032386779785156e+01 6.175994500517845154e-02 9.077243506908416748e-02 4.575971141457557678e-02 7.477704435586929321e-02
2.011000000000000000e+03 3.468146896362304688e+01 2.622722816467285156e+01 6.200009584426879883e-02 9.154441207647323608e-02 4.606335237622261047e-02 7.559628039598464966e-02
2.012000000000000000e+03 3.413692092895507812e+01 2.615638923645019531e+01 6.273460388183593750e-02 9.098566323518753052e-02 4.611608013510704041e-02 7.510616630315780640e-02
2.013000000000000000e+03 3.184764671325683594e+01 1.124453639984130859e+01 -9.702243804931640625e-01 -8.093569874763488770e-01 -5.338743925094604492e-01 -8.253528475761413574e-01
2.014000000000000000e+03 5.172208404541015625e+01 3.113539695739746094e+01 4.820764660835266113e-01 1.904786527156829834e-01 2.017665356397628784e-01 4.111908674240112305e-01
2.015000000000000000e+03 5.195859909057617188e+01 3.139732551574707031e+01 5.096204876899719238e-01 1.501693874597549438e-01 1.979369521141052246e-01 4.230050146579742432e-01
2.016000000000000000e+03 3.686177062988281250e+01 2.916336822509765625e+01 7.560010999441146851e-02 8.575789630413055420e-02 4.840740188956260681e-02 7.507409900426864624e-02
2.017000000000000000e+03 3.683294677734375000e+01 2.874869728088378906e+01 6.253094971179962158e-02 8.649375289678573608e-02 4.470741003751754761e-02 7.049135863780975342e-02
2.018000000000000000e+03 5.222686386108398438e+01 3.162471580505371094e+01 5.532620549201965332e-01 1.283140331506729126e-01 2.044728249311447144e-01 4.498787820339202881e-01
2.019000000000000000e+03 1.523590755462646484e+01 6.199167251586914062e+00 1.885625272989273071e-01 3.849492371082305908e-01 1.720535308122634888e-01 2.505158185958862305e-01
2.020000000000000000e+03 3.150974655151367188e+01 1.040259361267089844e+01 -9.546164870262145996e-01 -7.488750219345092773e-01 -5.110474228858947754e-01 -7.574254870414733887e-01
2.021000000000000000e+03 3.302485275268554688e+01 1.177598857879638672e+01 -8.463449478149414062e-01 -7.004705667495727539e-01 -4.640446603298187256e-01 -7.513362169265747070e-01
2.022000000000000000e+03 5.449325942993164062e+01 3.858039093017578125e+01 -5.795227885246276855e-01 8.354482650756835938e-01 7.677765190601348877e-02 -4.598714411258697510e-01
2.023000000000000000e+03 1.847440147399902344e+01 1.015554523468017578e+01 1.368295252323150635e-01 2.066670954227447510e-01 1.030489876866340637e-01 1.680724322795867920e-01
2.024000000000000000e+03 1.824622535705566406e+01 9.828866004943847656e+00 1.431391686201095581e-01 2.148846685886383057e-01 1.074071452021598816e-01 1.692652404308319092e-01
2.025000000000000000e+03 3.945796966552734375e+01 3.073917388916015625e+01 7.695271074771881104e-02 6.127165630459785461e-02 4.146730899810791016e-02 7.551781088113784790e-02
2.026000000000000000e+03 5.492320251464843750e+01 3.353841400146484375e+01 1.245344042778015137e+00 6.090960502624511719e-01 5.563319921493530273e-01 3.693985939025878906e-01
2.027000000000000000e+03 5.308888244628906250e+01 3.210722732543945312e+01 7.986781597137451172e-01 3.821323513984680176e-01 3.542431592941284180e-01 6.467564702033996582e-01
2.028000000000000000e+03 1.374634361267089844e+01 5.325398921966552734e+00 1.061290502548217773e-01 7.067674994468688965e-01 2.438689619302749634e-01 1.316194385290145874e-01
2.029000000000000000e+03 1.589083480834960938e+01 7.296739101409912109e+00 1.578283607959747314e-01 3.215143680572509766e-01 1.438028216361999512e-01 2.141267508268356323e-01
2.030000000000000000e+03 1.527135467529296875e+01 6.833618640899658203e+00 1.555097401142120361e-01 3.683981597423553467e-01 1.571723669767379761e-01 2.150149792432785034e-01
2.031000000000000000e+03 1.284631919860839844e+01 3.174758911132812500e+00 6.197382211685180664e-01 9.673053026199340820e-01 4.761130511760711670e-01 -4.305809736251831055e-01
2.032000000000000000e+03 1.327866840362548828e+01 4.065652847290039062e+00 2.359302788972854614e-01 1.114699721336364746e+00 4.051890075206756592e-01 -1.537458300590515137e-01
2.033000000000000000e+03 1.228331851959228516e+01 3.093366146087646484e+00 6.858208179473876953e-01 3.760404288768768311e-01 3.185583651065826416e-01 -3.358489274978637695e-01
2.034000000000000000e+03 3.114747810363769531e+01 5.724493503570556641e+00 -6.204165220260620117e-01 -3.606643080711364746e-01 -2.943242490291595459e-01 -5.357295870780944824e-01
2.035000000000000000e+03 5.863798904418945312e+01 3.233127975463867188e+01 1.419361710548400879e+00 1.525418472290039062e+01 5.002063751220703125e+00 4.074671745300292969e+00
2.036000000000000000e+03 2.190054512023925781e+01 -3.649446368217468262e-01 -1.174050688743591309e+00 2.001061737537384033e-01 -2.921833693981170654e-01 -6.720744371414184570e-01
2.037000000000000000e+03 1.136240291595458984e+01 2.676114082336425781e+00 5.355564355850219727e-01 -2.458257973194122314e-01 8.691918849945068359e-02 7.254994660615921021e-02
2.038000000000000000e+03 1.355065345764160156e+01 4.368705749511718750e+00 1.521875113248825073e-01 1.079226493835449219e+00 3.694241940975189209e-01 7.011078298091888428e-02
2.039000000000000000e+03 5.357535171508789062e+01 3.256018447875976562e+01 9.229105114936828613e-01 4.991198480129241943e-01 4.266090989112854004e-01 6.144584417343139648e-01
2.040000000000000000e+03 5.332327651977539062e+01 3.227673721313476562e+01 8.512206673622131348e-01 4.470428824424743652e-01 3.894790709018707275e-01 6.792216300964355469e-01
2.041000000000000000e+03 1.699588775634765625e+01 -3.740747451782226562e+00 -3.769624829292297363e-01 -6.241409182548522949e-01 -3.003310263156890869e-01 -4.898524284362792969e-01
2.042000000000000000e+03 3.185874176025390625e+01 1.067054462432861328e+01 -9.337918758392333984e-01 -7.349017858505249023e-01 -5.006080865859985352e-01 -7.497832775115966797e-01
2.043000000000000000e+03 3.162009429931640625e+01 8.345665931701660156e+00 -6.257695555686950684e-01 -5.757687091827392578e-01 -3.604614734649658203e-01 -4.830240905284881592e-01
2.044000000000000000e+03 3.096897125244140625e+01 9.406139373779296875e+00 -9.469169974327087402e-01 -6.453796029090881348e-01 -4.776889979839324951e-01 -6.650837063789367676e-01
2.045000000000000000e+03 4.592366409301757812e+01 3.601700592041015625e+01 9.968445450067520142e-02 2.949107624590396881e-02 3.875266015529632568e-02 8.893636614084243774e-02
2.046000000000000000e+03 4.347262573242187500e+01 3.829357528686523438e+01 1.296526789665222168e-01 5.986237525939941406e-02 5.685451626777648926e-02 7.085784524679183960e-02
2.047000000000000000e+03 5.387971115112304688e+01 4.100099182128906250e+01 7.903875708580017090e-01 1.000130295753479004e+00 5.371553301811218262e-01 -2.059501782059669495e-02
2.048000000000000000e+03 5.559384918212890625e+01 3.880009841918945312e+01 3.516349494457244873e-01 2.688971042633056641e+00 9.121817946434020996e-01 -8.581642508506774902e-01
2.049000000000000000e+03 1.035446548461914062e+01 -4.449047088623046875e+00 -3.102570176124572754e-01 -1.203933730721473694e-01 -1.291951239109039307e-01 -3.630297183990478516e-01
2.050000000000000000e+03 5.679071044921875000e+01 3.683574295043945312e+01 1.530582547187805176e+00 3.886021852493286133e+00 1.624981284141540527e+00 -2.687986135482788086e+00
2.051000000000000000e+03 3.171531486511230469e+01 6.660170078277587891e+00 -5.221308469772338867e-01 -4.411094486713409424e-01 -2.889720797538757324e-01 -5.077375769615173340e-01
2.052000000000000000e+03 2.912775421142578125e+01 5.292252540588378906e+00 -9.887588024139404297e-01 -5.741919279098510742e-01 -4.688852131366729736e-01 -5.888065695762634277e-01
2.053000000000000000e+03 2.888679695129394531e+01 4.703590393066406250e+00 -9.452489018440246582e-01 -5.517327785491943359e-01 -4.490945041179656982e-01 -5.335261821746826172e-01
2.054000000000000000e+03 5.498581695556640625e+01 3.823242187500000000e+01 -6.029096245765686035e-02 1.317541241645812988e+00 3.771750926971435547e-01 -7.950078845024108887e-01
2.055000000000000000e+03 5.594257354736328125e+01 3.801923370361328125e+01 3.045877218246459961e-01 4.013341903686523438e+00 1.295378804206848145e+00 -1.139247536659240723e+00
2.056000000000000000e+03 5.201436233520507812e+01 4.173820877075195312e+01 7.916641235351562500e-01 1.911470293998718262e-01 2.948433458805084229e-01 6.183896213769912720e-02
2.057000000000000000e+03 5.267641067504882812e+01 4.023629379272460938e+01 4.605927467346191406e-01 -7.022296786308288574e-01 -7.249107956886291504e-02 3.488433361053466797e-01
2.058000000000000000e+03 4.975012588500976562e+01 4.000950241088867188e+01 1.450825631618499756e-01 1.996067464351654053e-01 1.034067943692207336e-01 2.767008244991302490e-01
2.059000000000000000e+03 1.109626770019531250e+01 -4.470455169677734375e+00 -3.423860967159271240e-01 -1.301809400320053101e-01 -1.417701095342636108e-01 -3.999198973178863525e-01
2.060000000000000000e+03 8.873226165771484375e+00 -4.489802837371826172e+00 -2.381694912910461426e-01 -9.677010774612426758e-02 -1.004818826913833618e-01 -2.913637757301330566e-01
2.061000000000000000e+03 9.617111206054687500e+00 -4.455212116241455078e+00 -2.818130552768707275e-01 -9.229262173175811768e-02 -1.122317016124725342e-01 -3.227326273918151855e-01
2.062000000000000000e+03 1.147717094421386719e+01 3.537308931350708008e+00 5.289779901504516602e-01 2.408829890191555023e-02 1.659198999404907227e-01 -1.499156653881072998e-01
2.063000000000000000e+03 1.201661872863769531e+01 4.033558845520019531e+00 4.240166544914245605e-01 3.660851418972015381e-01 2.370305359363555908e-01 -2.464221566915512085e-01
2.064000000000000000e+03 4.558052062988281250e+00 8.010239601135253906e+00 5.986388400197029114e-02 -1.324221789836883545e-01 -2.176748961210250854e-02 5.712234601378440857e-02
2.065000000000000000e+03 6.089134216308593750e+00 3.252797603607177734e+00 -4.751278832554817200e-02 -1.065585985779762268e-01 -4.622141644358634949e-02 1.856671124696731567e-01
2.066000000000000000e+03 9.060919761657714844e+00 3.115279436111450195e+00 9.212096035480499268e-02 -2.561979293823242188e-01 -4.922308772802352905e-02 2.569372653961181641e-01
2.067000000000000000e+03 7.578357219696044922e+00 3.903389215469360352e+00 6.675538420677185059e-02 -1.696391999721527100e-01 -3.086514212191104889e-02 1.915629059076309204e-01
2.068000000000000000e+03 6.864732742309570312e+00 3.920136213302612305e+00 3.099679574370384216e-02 -1.489752829074859619e-01 -3.539354354143142700e-02 1.902174353599548340e-01
2.069000000000000000e+03 6.908161163330078125e+00 4.616790294647216797e+00 8.254232257604598999e-02 -1.501514762639999390e-01 -2.028274349868297577e-02 1.549569219350814819e-01
2.070000000000000000e+03 4.330714702606201172e+00 5.364432811737060547e+00 2.777608856558799744e-02 -1.223932653665542603e-01 -2.838515304028987885e-02 1.137111037969589233e-01
2.071000000000000000e+03 4.708691120147705078e+00 3.437544107437133789e+00 -3.512010350823402405e-02 -8.485185354948043823e-02 -3.599158674478530884e-02 1.404812932014465332e-01
2.072000000000000000e+03 3.288750886917114258e+00 4.079839706420898438e+00 -1.085975579917430878e-02 -8.913286775350570679e-02 -2.999778650701045990e-02 1.040150970220565796e-01
2.073000000000000000e+03 3.647622108459472656e+00 6.935838699340820312e+00 3.916412219405174255e-02 -1.386089175939559937e-01 -2.983343973755836487e-02 7.703381776809692383e-02
2.074000000000000000e+03 2.478908777236938477e+00 4.588970661163330078e+00 -1.513976952992379665e-03 -9.745904803276062012e-02 -2.969190850853919983e-02 8.107358217239379883e-02
2.075000000000000000e+03 4.853215789794921875e+01 3.917488861083984375e+01 2.161654680967330933e-01 -1.032020081765949726e-03 6.454003602266311646e-02 2.026643007993698120e-01
2.076000000000000000e+03 5.786416053771972656e+00 -4.747754096984863281e+00 -1.118988618254661560e-01 -9.584909677505493164e-02 -6.232438981533050537e-02 -1.823658943176269531e-01
2.077000000000000000e+03 4.857684135437011719e+00 -3.842822313308715820e+00 -8.983055502176284790e-02 -6.636144965887069702e-02 -4.685760289430618286e-02 -1.224100664258003235e-01
2.078000000000000000e+03 3.385781049728393555e+00 -4.852557659149169922e+00 -4.900402203202247620e-02 -9.255743771791458130e-02 -4.246843606233596802e-02 -1.051747947931289673e-01
2.079000000000000000e+03 6.579944133758544922e+00 -4.681736469268798828e+00 -1.471992135047912598e-01 -8.779576420783996582e-02 -7.049848884344100952e-02 -2.071812152862548828e-01
2.080000000000000000e+03 8.019223213195800781e+00 -3.668572425842285156e+00 -2.231805175542831421e-01 -5.884483829140663147e-02 -8.460760861635208130e-02 -2.151125371456146240e-01
2.081000000000000000e+03 7.358677864074707031e+00 -4.612103462219238281e+00 -1.704214960336685181e-01 -9.282555431127548218e-02 -7.897411286830902100e-02 -2.342585772275924683e-01
2.082000000000000000e+03 3.288379907608032227e+00 -3.943013429641723633e+00 -4.474749416112899780e-02 -6.523071974515914917e-02 -3.299346193671226501e-02 -7.866561412811279297e-02
2.083000000000000000e+03 3.393939733505249023e+00 -5.818162918090820312e+00 -3.871808573603630066e-02 -1.282660812139511108e-01 -5.009525269269943237e-02 -1.269378960132598877e-01
2.084000000000000000e+03 2.620262861251831055e+00 -4.795703887939453125e+00 -2.608330361545085907e-02 -8.966845273971557617e-02 -3.472552821040153503e-02 -8.040717989206314087e-02
2.085000000000000000e+03 2.497946739196777344e+00 -5.692442417144775391e+00 -2.884865552186965942e-02 -1.150975152850151062e-01 -4.318385198712348938e-02 -9.289082139730453491e-02
2.086000000000000000e+03 1.823269844055175781e+01 -3.908447027206420898e+00 -1.129293739795684814e-01 -4.554613828659057617e-01 -1.705172210931777954e-01 -2.578518390655517578e-01
2.087000000000000000e+03 1.630545997619628906e+01 -3.709360599517822266e+00 -4.514933824539184570e-01 -5.549526810646057129e-01 -3.019338250160217285e-01 -5.525450706481933594e-01
2.088000000000000000e+03 4.437969589233398438e+01 3.493794631958007812e+01 9.214624762535095215e-02 4.272308945655822754e-02 4.046080261468887329e-02 4.820845648646354675e-02
2.089000000000000000e+03 4.990114212036132812e+01 3.853177261352539062e+01 -2.005741558969020844e-02 5.982277542352676392e-02 1.192960795015096664e-02 1.397368758916854858e-01
2.090000000000000000e+03 1.206574440002441406e+01 4.461646556854248047e+00 3.343372642993927002e-01 4.054289460182189941e-01 2.219298630952835083e-01 -2.235885262489318848e-01
2.091000000000000000e+03 9.900812149047851562e+00 3.721385955810546875e+00 2.922833859920501709e-01 -2.346949130296707153e-01 1.727654412388801575e-02 1.156383305788040161e-01
2.092000000000000000e+03 7.579076766967773438e+00 4.659893035888671875e+00 1.160763055086135864e-01 -1.674585789442062378e-01 -1.541468221694231033e-02 1.526922136545181274e-01
2.093000000000000000e+03 6.146426391601562500e+01 3.281018829345703125e+01 4.368525028228759766e+00 1.412365436553955078e+01 5.547653675079345703e+00 -1.674668550491333008e+00
2.094000000000000000e+03 6.063942718505859375e+01 3.270399475097656250e+01 3.525500774383544922e+00 1.620110321044921875e+01 5.917981147766113281e+00 -1.231815934181213379e+00
2.095000000000000000e+03 4.716690063476562500e+01 3.842293548583984375e+01 1.527729779481887817e-01 8.155849575996398926e-02 7.029944658279418945e-02 9.822109341621398926e-02
2.096000000000000000e+03 1.518238353729248047e+01 -5.459604263305664062e+00 -1.583502590656280518e-01 -4.185361266136169434e-01 -1.730659157037734985e-01 -4.844576418399810791e-01
2.097000000000000000e+03 4.625045394897460938e+01 3.785156250000000000e+01 1.839138865470886230e-01 3.688819706439971924e-02 6.624062359333038330e-02 7.163111865520477295e-02
2.098000000000000000e+03 4.723201751708984375e+01 3.713416671752929688e+01 8.862439543008804321e-02 2.249883301556110382e-02 3.333696722984313965e-02 6.250631064176559448e-02
2.099000000000000000e+03 1.184922504425048828e+01 -4.515069007873535156e+00 -3.671332895755767822e-01 -1.825403720140457153e-01 -1.649020910263061523e-01 -4.512314796447753906e-01
2.100000000000000000e+03 1.261889553070068359e+01 -4.573030948638916016e+00 -3.672914206981658936e-01 -2.208362668752670288e-01 -1.764383167028427124e-01 -4.886504113674163818e-01
2.101000000000000000e+03 5.143758392333984375e+01 4.042958450317382812e+01 2.777645289897918701e-01 -1.218518316745758057e-01 4.677380993962287903e-02 2.075821459293365479e-01
2.102000000000000000e+03 4.542365646362304688e+01 3.623824691772460938e+01 1.580714285373687744e-01 6.281611323356628418e-02 6.626626104116439819e-02 6.075764074921607971e-02
2.103000000000000000e+03 4.666873931884765625e+01 3.702389907836914062e+01 1.093491613864898682e-01 9.613531827926635742e-02 6.164534017443656921e-02 9.399113804101943970e-02
2.104000000000000000e+03 1.564002990722656250e+01 -4.445208549499511719e+00 -3.342037498950958252e-01 -4.750712811946868896e-01 -2.427825033664703369e-01 -5.402238368988037109e-01
2.105000000000000000e+03 1.490952587127685547e+01 -3.785161733627319336e+00 -5.192693471908569336e-01 -4.249580800533294678e-01 -2.832682132720947266e-01 -5.801028013229370117e-01
2.106000000000000000e+03 2.713231658935546875e+01 -2.400660514831542969e+00 2.016077637672424316e-01 -1.680956929922103882e-01 1.005362160503864288e-02 -3.909594565629959106e-02
2.107000000000000000e+03 2.715520095825195312e+01 -3.709974527359008789e+00 2.903894782066345215e-01 -1.442835927009582520e-01 4.383176565170288086e-02 -1.242268681526184082e-01
2.108000000000000000e+03 2.596644210815429688e+01 -2.250586032867431641e+00 1.544870138168334961e-01 -1.024325862526893616e-01 1.561632752418518066e-02 -1.005668640136718750e-01
2.109000000000000000e+03 1.937197494506835938e+01 -1.513143444061279297e+01 1.746625304222106934e-01 1.811192780733108521e-01 1.067345440387725830e-01 -2.330543994903564453e-01
2.110000000000000000e+03 2.046014976501464844e+01 -1.742280960083007812e+01 1.580255329608917236e-01 2.463974207639694214e-01 1.213268861174583435e-01 -2.443813383579254150e-01
2.111000000000000000e+03 2.159966087341308594e+01 -1.984228515625000000e+01 1.507361084222793579e-01 2.954945862293243408e-01 1.338692158460617065e-01 -2.593432366847991943e-01
2.112000000000000000e+03 3.625718307495117188e+01 -1.318170166015625000e+01 1.360323745757341385e-02 4.492977261543273926e-01 1.388702839612960815e-01 -4.759965091943740845e-02
2.113000000000000000e+03 3.474213027954101562e+01 -1.113582801818847656e+01 5.622943118214607239e-02 2.339674383401870728e-01 8.705905824899673462e-02 -2.459473535418510437e-02
2.114000000000000000e+03 5.824913787841796875e+01 3.853595733642578125e+01 -7.950039505958557129e-01 1.134251499176025391e+01 3.164253473281860352e+00 -2.549530982971191406e+00
2.115000000000000000e+03 3.611108398437500000e+01 -1.501200675964355469e+01 -3.202540054917335510e-02 3.500426709651947021e-01 9.540517628192901611e-02 -2.412922307848930359e-02
2.116000000000000000e+03 3.703120040893554688e+01 -1.420230197906494141e+01 -2.102146856486797333e-02 5.728085637092590332e-01 1.655361205339431763e-01 -6.732683628797531128e-02
2.117000000000000000e+03 3.402150726318359375e+01 -1.010143947601318359e+01 6.054390221834182739e-02 1.558831781148910522e-01 6.492812186479568481e-02 -1.353907026350498199e-02
2.118000000000000000e+03 2.788710975646972656e+01 -1.813488602638244629e+00 7.096540182828903198e-02 -2.140527218580245972e-01 -4.292619600892066956e-02 2.539844484999775887e-03
2.119000000000000000e+03 3.332329177856445312e+01 -9.041593551635742188e+00 1.135146394371986389e-01 7.757205516099929810e-02 5.732600763440132141e-02 -2.127886191010475159e-02
2.120000000000000000e+03 3.241208267211914062e+01 -9.605573654174804688e+00 4.379823803901672363e-02 -3.064013645052909851e-02 3.947430755943059921e-03 1.554069854319095612e-02
2.121000000000000000e+03 1.691543388366699219e+01 -4.676982402801513672e+00 -1.260905116796493530e-01 -4.905690848827362061e-01 -1.849978715181350708e-01 -3.892840445041656494e-01
2.122000000000000000e+03 2.221688842773437500e+01 -2.106458663940429688e+01 1.424568891525268555e-01 3.303361237049102783e-01 1.418379098176956177e-01 -2.629041671752929688e-01
2.123000000000000000e+03 4.471952819824218750e+01 -2.692298889160156250e+01 -1.025611832737922668e-01 2.925550699234008789e+00 8.468968272209167480e-01 -3.951782286167144775e-01
2.124000000000000000e+03 4.331169509887695312e+01 -2.539951133728027344e+01 -6.938708573579788208e-02 2.219117641448974609e+00 6.449191570281982422e-01 -4.000354707241058350e-01
2.125000000000000000e+03 4.194317245483398438e+01 -2.186104965209960938e+01 -8.201327919960021973e-02 1.718495011329650879e+00 4.909445345401763916e-01 -2.772374451160430908e-01
2.126000000000000000e+03 4.182218933105468750e+01 -2.484301567077636719e+01 -1.872442103922367096e-02 1.635822176933288574e+00 4.851293265819549561e-01 -3.934257924556732178e-01
2.127000000000000000e+03 2.174252700805664062e+01 -2.303537178039550781e+01 1.421753764152526855e-01 2.779494225978851318e-01 1.260374337434768677e-01 -2.541306614875793457e-01
2.128000000000000000e+03 2.457836532592773438e+01 -2.279620361328125000e+01 1.630080342292785645e-01 4.372509717941284180e-01 1.800777018070220947e-01 -2.827017605304718018e-01
2.129000000000000000e+03 4.244537734985351562e+01 -2.312776947021484375e+01 -8.642739057540893555e-02 1.890670061111450195e+00 5.412728190422058105e-01 -3.239112198352813721e-01
2.130000000000000000e+03 3.867039108276367188e+01 -1.618523979187011719e+01 -4.926781728863716125e-02 8.975661993026733398e-01 2.544895112514495850e-01 -1.173574700951576233e-01
2.131000000000000000e+03 4.104486083984375000e+01 -1.907662200927734375e+01 -7.538153231143951416e-02 1.462003111839294434e+00 4.159864783287048340e-01 -1.924417763948440552e-01
2.132000000000000000e+03 2.101045417785644531e+01 -1.862214088439941406e+01 1.478135734796524048e-01 2.851070165634155273e-01 1.298761814832687378e-01 -2.493919432163238525e-01
2.133000000000000000e+03 2.554061508178710938e+01 -2.534494209289550781e+01 1.797998547554016113e-01 4.756983518600463867e-01 1.966494619846343994e-01 -2.886602878570556641e-01
2.134000000000000000e+03 2.795444297790527344e+01 -2.545758962631225586e+00 1.353686153888702393e-01 -2.160895317792892456e-01 -2.421627193689346313e-02 -3.625624626874923706e-02
2.135000000000000000e+03 7.593899536132812500e+01 1.489033794403076172e+01 -1.229370236396789551e-01 8.245384216308593750e+00 2.436734199523925781e+00 -5.558843016624450684e-01
2.136000000000000000e+03 7.710071563720703125e+01 9.640610694885253906e+00 -5.612595751881599426e-02 8.792365074157714844e+00 2.620871543884277344e+00 -2.363319694995880127e-01
2.137000000000000000e+03 7.589498901367187500e+01 8.313380241394042969e+00 -9.033176302909851074e-02 8.653448104858398438e+00 2.568934917449951172e+00 -2.475167959928512573e-01
2.138000000000000000e+03 7.597558593750000000e+01 1.224588203430175781e+01 -1.049064025282859802e-01 8.458242416381835938e+00 2.506000757217407227e+00 -4.113383293151855469e-01
2.139000000000000000e+03 7.581454467773437500e+01 6.995241165161132812e+00 -7.632169127464294434e-02 8.684828758239746094e+00 2.582551956176757812e+00 -1.993532925844192505e-01
2.140000000000000000e+03 7.670848846435546875e+01 2.835633039474487305e+00 -3.468895331025123596e-02 8.951763153076171875e+00 2.675122261047363281e+00 -6.990111619234085083e-02
2.141000000000000000e+03 7.521566772460937500e+01 1.525272488594055176e+00 -5.907402560114860535e-02 8.660965919494628906e+00 2.580567598342895508e+00 -5.391220003366470337e-02
2.142000000000000000e+03 7.366279602050781250e+01 1.449287235736846924e-01 -8.830020576715469360e-02 8.345656394958496094e+00 2.477206707000732422e+00 -2.139442414045333862e-02
2.143000000000000000e+03 7.597358703613281250e+01 1.093619823455810547e+01 -1.062487363815307617e-01 8.539545059204101562e+00 2.529989004135131836e+00 -3.539922237396240234e-01
2.144000000000000000e+03 7.596098327636718750e+01 1.356256771087646484e+01 -1.260738819837570190e-01 8.358180999755859375e+00 2.469631910324096680e+00 -4.852420389652252197e-01
2.145000000000000000e+03 7.352524566650390625e+01 -7.357977390289306641e+00 -5.010591074824333191e-02 8.247299194335937500e+00 2.459157943725585938e+00 1.152434200048446655e-01
2.146000000000000000e+03 7.529007720947265625e+01 -1.429408454895019531e+01 -1.614871993660926819e-02 8.453496932983398438e+00 2.531204462051391602e+00 1.474967002868652344e-01
2.147000000000000000e+03 7.681725311279296875e+01 4.220270633697509766e+00 -4.291547462344169617e-02 8.948117256164550781e+00 2.671560525894165039e+00 -1.004841551184654236e-01
2.148000000000000000e+03 7.708180999755859375e+01 1.771989440917968750e+01 -8.519390225410461426e-02 7.959854602813720703e+00 2.362398147583007812e+00 -5.782285332679748535e-01
2.149000000000000000e+03 7.588986206054687500e+01 1.889114761352539062e+01 -1.483363956212997437e-01 7.804921150207519531e+00 2.296975374221801758e+00 -8.091316819190979004e-01
2.150000000000000000e+03 7.584445190429687500e+01 2.156262016296386719e+01 -1.309852749109268188e-01 7.435056686401367188e+00 2.191221475601196289e+00 -9.724019765853881836e-01
2.151000000000000000e+03 7.587165832519531250e+01 2.022525215148925781e+01 -1.261331588029861450e-01 7.631292819976806641e+00 2.251547813415527344e+00 -8.851152062416076660e-01
2.152000000000000000e+03 7.472007751464843750e+01 1.739701271057128906e+01 -2.245945036411285400e-01 7.987286090850830078e+00 2.328807592391967773e+00 -8.302613496780395508e-01
2.153000000000000000e+03 7.510543823242187500e+01 -2.837676286697387695e+00 -4.308053106069564819e-02 8.618118286132812500e+00 2.572511434555053711e+00 2.901065908372402191e-02
2.154000000000000000e+03 7.505587768554687500e+01 -4.304729938507080078e+00 -4.286152869462966919e-02 8.595218658447265625e+00 2.565707206726074219e+00 5.099976807832717896e-02
2.155000000000000000e+03 7.512203979492187500e+01 -1.372144222259521484e+00 -5.194750800728797913e-02 8.631912231445312500e+00 2.573989391326904297e+00 7.203835994005203247e-03
2.156000000000000000e+03 7.469798278808593750e+01 3.539286804199218750e+01 4.108688831329345703e-01 6.043524265289306641e+00 1.936318039894104004e+00 -6.330671310424804688e-01
2.157000000000000000e+03 7.483432769775390625e+01 3.226072311401367188e+01 3.344775140285491943e-01 6.213770389556884766e+00 1.964474320411682129e+00 -9.817066192626953125e-01
2.158000000000000000e+03 7.396807861328125000e+01 -1.577710533142089844e+01 -2.337725088000297546e-02 8.173216819763183594e+00 2.444951772689819336e+00 1.920624226331710815e-01
2.159000000000000000e+03 7.516635894775390625e+01 -1.012705326080322266e+01 -2.557182498276233673e-02 8.526005744934082031e+00 2.550130128860473633e+00 1.173175871372222900e-01
2.160000000000000000e+03 7.522283172607421875e+01 -1.152844810485839844e+01 -2.054153382778167725e-02 8.508525848388671875e+00 2.546395301818847656e+00 1.284350901842117310e-01
2.161000000000000000e+03 7.508979797363281250e+01 -8.698427200317382812e+00 -3.053059056401252747e-02 8.537333488464355469e+00 2.552040815353393555e+00 1.066882163286209106e-01
2.162000000000000000e+03 7.531257629394531250e+01 -1.706604385375976562e+01 -1.375942304730415344e-02 8.380202293395996094e+00 2.509932994842529297e+00 1.623241156339645386e-01
2.163000000000000000e+03 7.666248321533203125e+01 -1.696321296691894531e+01 -9.617154486477375031e-03 8.626860618591308594e+00 2.585173130035400391e+00 1.190493106842041016e-01
2.164000000000000000e+03 7.531647491455078125e+01 -1.844549560546875000e+01 -1.317042764276266098e-02 8.341376304626464844e+00 2.498461723327636719e+00 1.678705811500549316e-01
2.165000000000000000e+03 7.524951934814453125e+01 -2.787624549865722656e+01 1.024178601801395416e-02 8.056244850158691406e+00 2.419945955276489258e+00 1.734274625778198242e-01
2.166000000000000000e+03 7.401457214355468750e+01 -2.252446556091308594e+01 -8.297322317957878113e-03 7.996304988861083984e+00 2.396402359008789062e+00 2.183030098676681519e-01
2.167000000000000000e+03 7.699237823486328125e+01 2.313706588745117188e+01 -6.310471147298812866e-02 6.988027095794677734e+00 2.077476739883422852e+00 -8.353581428527832031e-01
2.168000000000000000e+03 7.385841369628906250e+01 -2.523041534423828125e+01 3.688884666189551353e-03 7.912832736968994141e+00 2.374956369400024414e+00 2.116234004497528076e-01
2.169000000000000000e+03 7.665602874755859375e+01 -2.517229843139648438e+01 -7.526937406510114670e-04 8.341232299804687500e+00 2.502143859863281250e+00 1.325560510158538818e-01
2.170000000000000000e+03 7.534575653076171875e+01 -2.248871421813964844e+01 -4.165434744209051132e-03 8.221632957458496094e+00 2.465240240097045898e+00 1.793701648712158203e-01
2.171000000000000000e+03 7.694329071044921875e+01 2.449726676940917969e+01 -2.130237221717834473e-02 6.714538574218750000e+00 2.007970809936523438e+00 -8.743819594383239746e-01
2.172000000000000000e+03 7.443736267089843750e+01 2.530207061767578125e+01 -7.073822617530822754e-02 7.184252262115478516e+00 2.134054183959960938e+00 -1.326929330825805664e+00
2.173000000000000000e+03 7.680328369140625000e+01 2.722480964660644531e+01 3.526594489812850952e-02 6.159461021423339844e+00 1.858418107032775879e+00 -9.194824099540710449e-01
2.174000000000000000e+03 7.554284667968750000e+01 2.693571090698242188e+01 2.220736257731914520e-02 6.619954109191894531e+00 1.992648363113403320e+00 -1.174289822578430176e+00
2.175000000000000000e+03 7.524281311035156250e+01 -3.035384368896484375e+01 1.416816283017396927e-02 7.985514163970947266e+00 2.399904727935791016e+00 1.570431590080261230e-01
2.176000000000000000e+03 7.382901763916015625e+01 -3.417825698852539062e+01 4.614361748099327087e-02 7.696205139160156250e+00 2.322704792022705078e+00 1.571526527404785156e-01
2.177000000000000000e+03 7.660138702392578125e+01 2.996272277832031250e+01 1.143855601549148560e-01 5.676560401916503906e+00 1.737283825874328613e+00 -8.777970671653747559e-01
2.178000000000000000e+03 7.542435455322265625e+01 2.828207206726074219e+01 9.536611288785934448e-02 6.429319381713867188e+00 1.957405686378479004e+00 -1.159818410873413086e+00
2.179000000000000000e+03 7.527182006835937500e+01 -2.913670921325683594e+01 1.334250532090663910e-02 8.016437530517578125e+00 2.408933877944946289e+00 1.624071300029754639e-01
2.180000000000000000e+03 7.378570556640625000e+01 -2.798071098327636719e+01 1.713089086115360260e-02 7.830572605133056641e+00 2.354310989379882812e+00 2.008019834756851196e-01
2.181000000000000000e+03 7.653222656250000000e+01 -3.046316337585449219e+01 9.437496773898601532e-03 8.149924278259277344e+00 2.447808504104614258e+00 1.230852901935577393e-01
2.182000000000000000e+03 7.437397003173828125e+01 3.350635910034179688e+01 4.155414402484893799e-01 6.303734779357910156e+00 2.015782833099365234e+00 -8.284500837326049805e-01
2.183000000000000000e+03 2.506464385986328125e+01 -2.404858016967773438e+01 1.525118649005889893e-01 4.557226300239562988e-01 1.824703514575958252e-01 -2.846071720123291016e-01
2.184000000000000000e+03 3.879689025878906250e+01 -1.827672004699707031e+01 -5.484267696738243103e-02 8.874943256378173828e-01 2.497954964637756348e-01 -1.308823525905609131e-01
2.185000000000000000e+03 2.614225578308105469e+01 -2.664228820800781250e+01 1.598981022834777832e-01 4.926961362361907959e-01 1.957782655954360962e-01 -2.923887670040130615e-01
2.186000000000000000e+03 4.154585361480712891e+00 -1.575639820098876953e+01 2.747581899166107178e-02 -4.892529845237731934e-01 -1.385331451892852783e-01 -1.700546294450759888e-01
2.187000000000000000e+03 4.019779682159423828e+00 2.116039848327636719e+01 -3.410316072404384613e-03 -1.171048954129219055e-01 -3.615456447005271912e-02 -2.023195661604404449e-02
2.188000000000000000e+03 2.873590946197509766e+00 2.002061080932617188e+01 -2.151606138795614243e-03 -1.484199166297912598e-01 -4.517145827412605286e-02 -1.765759661793708801e-02
2.189000000000000000e+03 4.066569328308105469e+00 2.251272201538085938e+01 -1.869845087639987469e-03 -1.139471232891082764e-01 -3.474508970975875854e-02 -1.873026229441165924e-02
2.190000000000000000e+03 4.263202190399169922e+00 -1.712662315368652344e+01 2.166558615863323212e-02 -5.232821702957153320e-01 -1.504849791526794434e-01 -1.563215106725692749e-01
2.191000000000000000e+03 4.534148693084716797e+00 -2.132729721069335938e+01 2.772339060902595520e-02 -6.149815320968627930e-01 -1.761774420738220215e-01 -1.246125996112823486e-01
2.192000000000000000e+03 3.985646963119506836e+00 1.429288387298583984e+01 1.268222369253635406e-02 -1.307947039604187012e-01 -3.543374314904212952e-02 -1.438164990395307541e-02
2.193000000000000000e+03 4.028475284576416016e+00 1.569409942626953125e+01 4.570273682475090027e-03 -1.268842071294784546e-01 -3.669418022036552429e-02 -1.848310604691505432e-02
2.194000000000000000e+03 5.230621814727783203e+00 1.692312622070312500e+01 2.418317133560776711e-03 -9.059048444032669067e-02 -2.645164914429187775e-02 -2.165715955197811127e-02
2.195000000000000000e+03 4.042881965637207031e+00 1.846309280395507812e+01 -1.284925267100334167e-03 -1.218609958887100220e-01 -3.694377467036247253e-02 -2.110052667558193207e-02
2.196000000000000000e+03 2.876757383346557617e+00 1.865258026123046875e+01 9.160217014141380787e-04 -1.533772647380828857e-01 -4.573837295174598694e-02 -1.836504414677619934e-02
2.197000000000000000e+03 4.019180774688720703e+00 1.981326103210449219e+01 -1.654055522521957755e-04 -1.200163587927818298e-01 -3.605452924966812134e-02 -2.114047855138778687e-02
2.198000000000000000e+03 4.480582237243652344e+00 -2.803238105773925781e+01 1.487773656845092773e-02 -7.366588711738586426e-01 -2.165343314409255981e-01 -7.027444988489151001e-02
2.199000000000000000e+03 3.236611366271972656e+00 -2.292477226257324219e+01 1.545478310436010361e-02 -7.206500172615051270e-01 -2.115585803985595703e-01 -8.285585045814514160e-02
2.200000000000000000e+03 4.575573921203613281e+00 -2.273253440856933594e+01 1.890211366117000580e-02 -6.410325169563293457e-01 -1.866391301155090332e-01 -1.092553064227104187e-01
2.201000000000000000e+03 4.310352802276611328e+00 2.523781394958496094e+01 -2.516930457204580307e-03 -1.050772964954376221e-01 -3.227826952934265137e-02 -1.626635901629924774e-02
2.202000000000000000e+03 4.506356716156005859e+00 2.663078880310058594e+01 -4.604062065482139587e-03 -9.938085824251174927e-02 -3.119547478854656219e-02 -1.511067245155572891e-02
2.203000000000000000e+03 4.716845512390136719e+00 2.945514488220214844e+01 -4.096408840268850327e-03 -9.255731850862503052e-02 -2.899611741304397583e-02 -1.201795414090156555e-02
2.204000000000000000e+03 5.484808444976806641e+00 -1.689504241943359375e+01 4.341841116547584534e-02 -4.777142107486724854e-01 -1.302887350320816040e-01 -1.930989027023315430e-01
2.205000000000000000e+03 4.365249156951904297e+00 -1.851333808898925781e+01 3.025591745972633362e-02 -5.579569935798645020e-01 -1.583103239536285400e-01 -1.481215357780456543e-01
2.206000000000000000e+03 5.129390239715576172e+00 1.409212303161621094e+01 1.569536887109279633e-02 -9.423471987247467041e-02 -2.356180548667907715e-02 -1.504659559577703476e-02
2.207000000000000000e+03 5.886074066162109375e+00 -2.538034057617187500e+01 3.220746666193008423e-02 -6.114884614944458008e-01 -1.737843006849288940e-01 -1.150697842240333557e-01
2.208000000000000000e+03 3.236063480377197266e+00 -2.430462265014648438e+01 7.727014366537332535e-03 -7.503120899200439453e-01 -2.227755188941955566e-01 -7.131851464509963989e-02
2.209000000000000000e+03 4.535429000854492188e+00 -2.548224067687988281e+01 1.546697225421667099e-02 -6.949230432510375977e-01 -2.038368135690689087e-01 -8.710523694753646851e-02
2.210000000000000000e+03 3.645171165466308594e+00 -1.047257900238037109e+01 1.732701901346445084e-03 -3.110908269882202148e-01 -9.280743449926376343e-02 -1.839543879032135010e-01
2.211000000000000000e+03 3.530696392059326172e+00 -9.222375869750976562e+00 -1.462210528552532196e-02 -2.588784992694854736e-01 -8.205018192529678345e-02 -1.750715821981430054e-01
2.212000000000000000e+03 3.905586004257202148e+00 -1.307388305664062500e+01 1.833973452448844910e-02 -4.071992933750152588e-01 -1.166578680276870728e-01 -1.844538748264312744e-01
2.213000000000000000e+03 3.088147878646850586e+00 2.555385398864746094e+01 -3.121404675766825676e-03 -1.259612590074539185e-01 -3.872479870915412903e-02 -1.336558163166046143e-02
2.214000000000000000e+03 5.301341056823730469e+00 2.357032585144042969e+01 -3.370695514604449272e-03 -8.782435953617095947e-02 -2.735851705074310303e-02 -1.847703196108341217e-02
2.215000000000000000e+03 4.163189411163330078e+00 2.386940574645996094e+01 -4.118291661143302917e-03 -1.098719388246536255e-01 -3.419706970453262329e-02 -1.764613576233386993e-02
2.216000000000000000e+03 3.451463937759399414e+00 -2.963656234741210938e+01 7.144524715840816498e-03 -8.243246674537658691e-01 -2.451540380716323853e-01 -4.684601351618766785e-02
2.217000000000000000e+03 4.670892238616943359e+00 -2.923096466064453125e+01 2.097715996205806732e-02 -7.415807843208312988e-01 -2.161810845136642456e-01 -6.668657809495925903e-02
2.218000000000000000e+03 3.784579515457153320e+00 1.162290954589843750e+01 2.606497518718242645e-02 -1.412330716848373413e-01 -3.455042839050292969e-02 2.794085070490837097e-03
2.219000000000000000e+03 4.743858337402343750e+00 2.807617378234863281e+01 -2.753302687779068947e-03 -9.374668449163436890e-02 -2.894999645650386810e-02 -1.318027265369892120e-02
2.220000000000000000e+03 6.687814235687255859e+00 3.649940490722656250e+01 -3.746440168470144272e-03 -6.533734500408172607e-02 -2.072513476014137268e-02 -2.852695062756538391e-03
2.221000000000000000e+03 3.773081779479980469e+00 -1.175972557067871094e+01 4.214340355247259140e-03 -3.586088716983795166e-01 -1.063183546066284180e-01 -1.849232614040374756e-01
2.222000000000000000e+03 4.254208564758300781e+00 -5.834259510040283203e+00 -6.236492842435836792e-02 -1.291666179895401001e-01 -5.745946243405342102e-02 -1.577074378728866577e-01
2.223000000000000000e+03 8.250414848327636719e+00 -3.200773620605468750e+01 4.531713575124740601e-02 -5.287152528762817383e-01 -1.450194269418716431e-01 -9.255479276180267334e-02
2.224000000000000000e+03 6.213889122009277344e+00 -2.971068954467773438e+01 3.052314184606075287e-02 -6.581909060478210449e-01 -1.883003264665603638e-01 -8.964971452951431274e-02
2.225000000000000000e+03 5.533325672149658203e+00 -3.169649124145507812e+01 2.366467192769050598e-02 -7.191281914710998535e-01 -2.086390554904937744e-01 -5.918024107813835144e-02
2.226000000000000000e+03 3.755363941192626953e+00 -3.095092964172363281e+01 1.287890598177909851e-02 -8.236886858940124512e-01 -2.432429343461990356e-01 -4.389111697673797607e-02
2.227000000000000000e+03 3.688814401626586914e+00 1.037934207916259766e+01 3.065225854516029358e-02 -1.461064815521240234e-01 -3.463626652956008911e-02 2.035311050713062286e-02
2.228000000000000000e+03 5.821988582611083984e+00 2.992074966430664062e+01 -5.324983503669500351e-03 -7.731934636831283569e-02 -2.479329891502857208e-02 -1.187259983271360397e-02
2.229000000000000000e+03 3.998343229293823242e+00 3.381908798217773438e+01 -1.503267558291554451e-03 -9.863708913326263428e-02 -3.004210628569126129e-02 -6.544474046677350998e-03
2.230000000000000000e+03 5.673374652862548828e+00 3.327460098266601562e+01 -2.807648153975605965e-03 -7.856924831867218018e-02 -2.441306784749031067e-02 -7.884304039180278778e-03
2.231000000000000000e+03 3.912249088287353516e+00 6.038642883300781250e+00 3.289715945720672607e-02 -1.284700334072113037e-01 -2.867186069488525391e-02 9.669151157140731812e-02
2.232000000000000000e+03 5.510692119598388672e+00 3.961678743362426758e+00 -4.014084581285715103e-03 -1.120002716779708862e-01 -3.480430692434310913e-02 1.610299646854400635e-01
2.233000000000000000e+03 2.438733339309692383e+00 -6.798055648803710938e+00 -1.591745205223560333e-02 -1.553174108266830444e-01 -5.137045681476593018e-02 -1.072226762771606445e-01
2.234000000000000000e+03 4.565307998657226562e+01 -2.780869674682617188e+01 -7.408321648836135864e-02 3.306642770767211914e+00 9.697678685188293457e-01 -2.719883322715759277e-01
2.235000000000000000e+03 2.640120887756347656e+01 -2.987160491943359375e+01 2.541961073875427246e-01 4.341552555561065674e-01 2.065054178237915039e-01 -2.783439159393310547e-01
2.236000000000000000e+03 2.854222679138183594e+01 -3.314206695556640625e+01 2.698720097541809082e-01 4.516975283622741699e-01 2.164708673954010010e-01 -2.537952065467834473e-01
2.237000000000000000e+03 1.795565223693847656e+01 -1.312167453765869141e+01 1.854371130466461182e-01 5.262544751167297363e-02 7.141876965761184692e-02 -2.259532213211059570e-01
2.238000000000000000e+03 1.887156677246093750e+01 -1.222453975677490234e+01 1.776410937309265137e-01 1.653954982757568359e-01 1.029109805822372437e-01 -2.151632755994796753e-01
2.239000000000000000e+03 3.264570236206054688e+01 -7.926226615905761719e+00 1.252157986164093018e-01 2.175477147102355957e-02 4.409117251634597778e-02 -1.662313379347324371e-02
2.240000000000000000e+03 6.300211715698242188e+01 4.140688705444335938e+01 -1.361189365386962891e+00 1.358215808868408203e+01 3.666290521621704102e+00 5.086804032325744629e-01
2.241000000000000000e+03 2.621064376831054688e+01 -1.257156610488891602e+00 -5.776038393378257751e-02 -1.723203212022781372e-01 -6.902421265840530396e-02 -5.967962369322776794e-02
2.242000000000000000e+03 2.322308921813964844e+01 1.364422082901000977e+00 -1.333230733871459961e+00 -1.731659621000289917e-01 -4.519189894199371338e-01 -6.644621491432189941e-01
2.243000000000000000e+03 4.659150314331054688e+01 -2.883401870727539062e+01 -3.530873730778694153e-02 3.784905672073364258e+00 1.124879121780395508e+00 -2.073528617620468140e-01
2.244000000000000000e+03 4.617576217651367188e+01 -3.106259346008300781e+01 1.511425524950027466e-01 4.094277858734130859e+00 1.273626208305358887e+00 -2.996104359626770020e-01
2.245000000000000000e+03 1.585279560089111328e+01 -9.811280250549316406e+00 1.719755381345748901e-01 -1.923939138650894165e-01 -6.125512067228555679e-03 -2.797759771347045898e-01
2.246000000000000000e+03 1.726630020141601562e+01 -7.307526111602783203e+00 8.505653589963912964e-02 -2.257331013679504395e-01 -4.220297187566757202e-02 -2.693598270416259766e-01
2.247000000000000000e+03 3.093356513977050781e+01 -3.493873214721679688e+01 4.031560719013214111e-01 4.982489347457885742e-01 2.704215049743652344e-01 -3.314129114151000977e-01
2.248000000000000000e+03 2.904749488830566406e+01 -3.173188400268554688e+01 2.697508931159973145e-01 5.234544873237609863e-01 2.379616200923919678e-01 -3.303341865539550781e-01
2.249000000000000000e+03 1.620589828491210938e+01 -8.667396545410156250e+00 1.273763328790664673e-01 -2.347024977207183838e-01 -3.219784796237945557e-02 -3.096803724765777588e-01
2.250000000000000000e+03 3.096047210693359375e+01 -7.338594436645507812e+00 1.257241517305374146e-01 -1.188912391662597656e-01 2.049873583018779755e-03 -1.429863460361957550e-02
2.251000000000000000e+03 3.197696495056152344e+01 -6.743213176727294922e+00 1.898242235183715820e-01 -4.754710569977760315e-02 4.268313199281692505e-02 -2.766514755785465240e-02
2.252000000000000000e+03 3.548715209960937500e+01 -1.216119194030761719e+01 1.699467748403549194e-02 3.354367017745971680e-01 1.057294085621833801e-01 -3.300632908940315247e-02
2.253000000000000000e+03 3.210407257080078125e+01 -4.123681259155273438e+01 6.082726716995239258e-01 3.619813621044158936e-01 2.910762131214141846e-01 -5.933854728937149048e-02
2.254000000000000000e+03 3.157470130920410156e+01 -3.877128219604492188e+01 5.004742145538330078e-01 3.841866552829742432e-01 2.653982639312744141e-01 -2.260048985481262207e-01
2.255000000000000000e+03 5.029227066040039062e+01 -3.344261169433593750e+01 6.030840277671813965e-01 4.586643695831298828e+00 1.556918382644653320e+00 2.616465389728546143e-01
2.256000000000000000e+03 4.886161804199218750e+01 -3.540653228759765625e+01 8.857186436653137207e-01 4.499156951904296875e+00 1.615462660789489746e+00 1.404626667499542236e-01
2.257000000000000000e+03 4.712943267822265625e+01 -4.154504013061523438e+01 5.762330889701843262e-01 4.522105693817138672e+00 1.529501676559448242e+00 -1.399831846356391907e-02
2.258000000000000000e+03 4.972078323364257812e+01 -3.969884872436523438e+01 7.142479419708251953e-01 4.710299015045166016e+00 1.627364039421081543e+00 -5.400823801755905151e-02
2.259000000000000000e+03 2.475862312316894531e+01 -2.742831802368164062e+01 1.971307694911956787e-01 3.951735198497772217e-01 1.776912808418273926e-01 -2.735466361045837402e-01
2.260000000000000000e+03 2.033854293823242188e+01 -1.449089622497558594e+01 1.763752251863479614e-01 2.829973101615905762e-01 1.378117650747299194e-01 -2.337871342897415161e-01
2.261000000000000000e+03 5.238800430297851562e+01 -3.383036804199218750e+01 5.597206950187683105e-01 4.769165515899658203e+00 1.598665833473205566e+00 2.830953001976013184e-01
2.262000000000000000e+03 4.775430297851562500e+01 -2.762214851379394531e+01 -1.006811335682868958e-01 3.898059368133544922e+00 1.139213442802429199e+00 -1.010322291404008865e-02
2.263000000000000000e+03 5.561035537719726562e+01 3.265587997436523438e+01 2.911728858947753906e+00 1.987075805664062500e+00 1.469641447067260742e+00 2.304552555084228516e+00
2.264000000000000000e+03 5.609973526000976562e+01 3.263531875610351562e+01 3.353005170822143555e+00 2.796895503997802734e+00 1.844970226287841797e+00 3.051591873168945312e+00
2.265000000000000000e+03 2.883172225952148438e+01 3.785440444946289062e+00 -8.435148000717163086e-01 -4.502605497837066650e-01 -3.881326019763946533e-01 -4.067971408367156982e-01
2.266000000000000000e+03 2.785425376892089844e+01 3.866839408874511719e+00 -9.969094991683959961e-01 -5.089482665061950684e-01 -4.517573416233062744e-01 -5.276278257369995117e-01
2.267000000000000000e+03 2.833533096313476562e+01 3.735494375228881836e+00 -9.082351922988891602e-01 -4.897150099277496338e-01 -4.193850755691528320e-01 -4.622141420841217041e-01
2.268000000000000000e+03 2.559481430053710938e+01 2.906329393386840820e+00 -1.260405540466308594e+00 -4.076080620288848877e-01 -5.004040598869323730e-01 -6.284671425819396973e-01
2.269000000000000000e+03 2.522271156311035156e+01 2.260587215423583984e+00 -1.205549120903015137e+00 -3.323863148689270020e-01 -4.613806307315826416e-01 -5.564625859260559082e-01
2.270000000000000000e+03 2.580234527587890625e+01 2.959582567214965820e+00 -1.212585449218750000e+00 -3.923957943916320801e-01 -4.814943671226501465e-01 -6.048902273178100586e-01
2.271000000000000000e+03 2.537383842468261719e+01 2.847524642944335938e+00 -1.277920365333557129e+00 -3.745880722999572754e-01 -4.957525432109832764e-01 -6.180125474929809570e-01
2.272000000000000000e+03 2.595605850219726562e+01 3.275950908660888672e+00 -1.253823757171630859e+00 -4.279969632625579834e-01 -5.045462250709533691e-01 -6.458963751792907715e-01
2.273000000000000000e+03 2.756102180480957031e+01 3.984487056732177734e+00 -1.075805783271789551e+00 -5.447308421134948730e-01 -4.861609935760498047e-01 -6.043880581855773926e-01
2.274000000000000000e+03 2.746313476562500000e+01 3.740748882293701172e+00 -1.050199985504150391e+00 -5.161923170089721680e-01 -4.699177145957946777e-01 -5.779335498809814453e-01
2.275000000000000000e+03 5.510675811767578125e+01 3.270946884155273438e+01 2.250807523727416992e+00 1.387713432312011719e+00 1.091556310653686523e+00 1.549151897430419922e+00
2.276000000000000000e+03 5.611753082275390625e+01 3.217021942138671875e+01 3.110107660293579102e+00 3.669824123382568359e+00 2.033979415893554688e+00 3.469139814376831055e+00
2.277000000000000000e+03 2.947360229492187500e+01 4.831148147583007812e+00 -8.746610879898071289e-01 -4.626020789146423340e-01 -4.011789262294769287e-01 -4.867817163467407227e-01
2.278000000000000000e+03 2.916543197631835938e+01 4.734082698822021484e+00 -9.274401068687438965e-01 -5.255018472671508789e-01 -4.358825683593750000e-01 -5.145874023437500000e-01
2.279000000000000000e+03 5.558127593994140625e+01 3.295707321166992188e+01 2.729387760162353516e+00 1.431882143020629883e+00 1.248380899429321289e+00 1.851134300231933594e+00
2.280000000000000000e+03 1.895710182189941406e+01 1.080423641204833984e+01 1.305175721645355225e-01 1.929090619087219238e-01 9.702799469232559204e-02 1.628692150115966797e-01
2.281000000000000000e+03 2.339189529418945312e+01 1.449124097824096680e+00 -1.338275313377380371e+00 -2.652012109756469727e-01 -4.810429513454437256e-01 -6.640282273292541504e-01
2.282000000000000000e+03 4.001160812377929688e+01 1.953998756408691406e+01 -4.523781239986419678e-01 -3.039021492004394531e-01 -2.268840819597244263e-01 -4.352033436298370361e-01
2.283000000000000000e+03 4.060766220092773438e+01 2.008610916137695312e+01 -4.282491207122802734e-01 -2.553844153881072998e-01 -2.050900608301162720e-01 -3.949040174484252930e-01
2.284000000000000000e+03 3.890487289428710938e+01 1.842242050170898438e+01 -5.217280387878417969e-01 -4.210550189018249512e-01 -2.828349173069000244e-01 -4.968615174293518066e-01
2.285000000000000000e+03 4.002455902099609375e+01 1.899358177185058594e+01 -4.540196955204010010e-01 -2.402752786874771118e-01 -2.082884907722473145e-01 -4.057626724243164062e-01
2.286000000000000000e+03 1.634227943420410156e+01 7.880004405975341797e+00 1.514718085527420044e-01 2.826788723468780518e-01 1.302452087402343750e-01 2.047135233879089355e-01
2.287000000000000000e+03 4.148962783813476562e+01 2.092749404907226562e+01 -4.145254790782928467e-01 -2.013213634490966797e-01 -1.847540438175201416e-01 -3.289905786514282227e-01
2.288000000000000000e+03 3.077330398559570312e+01 2.195881843566894531e+01 7.443731278181076050e-02 9.288834780454635620e-02 5.019769817590713501e-02 8.689855039119720459e-02
2.289000000000000000e+03 3.470262145996093750e+01 2.712167739868164062e+01 6.849467754364013672e-02 8.711723238229751587e-02 4.668357223272323608e-02 7.500470429658889771e-02
2.290000000000000000e+03 3.213153076171875000e+01 1.096354675292968750e+01 -9.218975901603698730e-01 -7.311252355575561523e-01 -4.959068596363067627e-01 -7.497078776359558105e-01
2.291000000000000000e+03 3.863813781738281250e+01 1.813343620300292969e+01 -5.412005186080932617e-01 -4.525214433670043945e-01 -2.981165945529937744e-01 -5.098412036895751953e-01
2.292000000000000000e+03 3.974277496337890625e+01 1.872247314453125000e+01 -4.718658328056335449e-01 -2.680664360523223877e-01 -2.219796776771545410e-01 -4.218300580978393555e-01
2.293000000000000000e+03 2.421046257019042969e+01 1.622574996948242188e+01 1.029525846242904663e-01 1.331280618906021118e-01 7.082419842481613159e-02 1.202843114733695984e-01
2.294000000000000000e+03 5.251339721679687500e+01 3.182415962219238281e+01 6.281719207763671875e-01 1.828580945730209351e-01 2.433090060949325562e-01 5.078201293945312500e-01
2.295000000000000000e+03 1.752654075622558594e+01 8.931800842285156250e+00 1.578516811132431030e-01 2.295945882797241211e-01 1.162338778376579285e-01 1.840877085924148560e-01
2.296000000000000000e+03 1.666353607177734375e+01 8.152305603027343750e+00 1.557956784963607788e-01 2.645234763622283936e-01 1.260957419872283936e-01 1.988332867622375488e-01
2.297000000000000000e+03 3.251964569091796875e+01 2.390244674682617188e+01 6.728019565343856812e-02 8.687771111726760864e-02 4.624737054109573364e-02 7.839186489582061768e-02
2.298000000000000000e+03 4.712520599365234375e+01 2.523245811462402344e+01 -1.987491361796855927e-02 5.378022193908691406e-01 1.553781926631927490e-01 2.649365067481994629e-01
2.299000000000000000e+03 4.203384017944335938e+01 2.151600456237792969e+01 -4.154709279537200928e-01 -1.669951677322387695e-01 -1.747398376464843750e-01 -2.953449189662933350e-01
2.300000000000000000e+03 4.684555053710937500e+01 2.555668449401855469e+01 -4.876850172877311707e-02 3.665512800216674805e-01 9.533483535051345825e-02 1.623934656381607056e-01
2.301000000000000000e+03 2.084233093261718750e+01 1.309565544128417969e+01 1.182470768690109253e-01 1.652203053236007690e-01 8.504021912813186646e-02 1.387442946434020996e-01
2.302000000000000000e+03 4.714567947387695312e+01 2.582449531555175781e+01 -2.104460634291172028e-02 3.888834714889526367e-01 1.103516593575477600e-01 1.936017721891403198e-01
2.303000000000000000e+03 1.918925857543945312e+01 1.117203140258789062e+01 1.296088844537734985e-01 1.868652403354644775e-01 9.494223445653915405e-02 1.569683700799942017e-01
2.304000000000000000e+03 3.837292861938476562e+01 1.784115219116210938e+01 -5.584041476249694824e-01 -4.829382300376892090e-01 -3.124027252197265625e-01 -5.239335298538208008e-01
2.305000000000000000e+03 3.946631240844726562e+01 1.844834709167480469e+01 -4.898761808872222900e-01 -2.967646420001983643e-01 -2.359922528266906738e-01 -4.370042085647583008e-01
2.306000000000000000e+03 4.622420883178710938e+01 2.505655670166015625e+01 -1.249100863933563232e-01 2.846933603286743164e-01 4.793497920036315918e-02 8.671639859676361084e-02
2.307000000000000000e+03 4.368539428710937500e+01 2.270653343200683594e+01 -3.263472914695739746e-01 2.244290895760059357e-02 -9.117131680250167847e-02 -1.503058075904846191e-01
2.308000000000000000e+03 3.604537200927734375e+01 2.793875503540039062e+01 6.548614054918289185e-02 8.376933634281158447e-02 4.477664455771446228e-02 7.185457646846771240e-02
2.309000000000000000e+03 1.777463531494140625e+01 9.212954521179199219e+00 1.555095762014389038e-01 2.259030640125274658e-01 1.144237890839576721e-01 1.768548637628555298e-01
2.310000000000000000e+03 1.702558708190917969e+01 8.931158065795898438e+00 1.452900618314743042e-01 2.423210740089416504e-01 1.162833422422409058e-01 1.818226426839828491e-01
2.311000000000000000e+03 4.775042724609375000e+01 2.585984039306640625e+01 5.839252844452857971e-02 5.936953425407409668e-01 1.956263631582260132e-01 3.372967243194580078e-01
2.312000000000000000e+03 2.385427284240722656e+01 1.590084743499755859e+01 1.038101613521575928e-01 1.372229754924774170e-01 7.230994105339050293e-02 1.217977181077003479e-01
2.313000000000000000e+03 3.578218460083007812e+01 1.440978717803955078e+01 -6.753476262092590332e-01 -5.823454260826110840e-01 -3.773079216480255127e-01 -6.308276057243347168e-01
2.314000000000000000e+03 3.497567749023437500e+01 1.404734802246093750e+01 -7.361044287681579590e-01 -6.797415614128112793e-01 -4.247538149356842041e-01 -6.965909004211425781e-01
2.315000000000000000e+03 2.216929054260253906e+01 1.364490222930908203e+01 1.269527971744537354e-01 1.554545015096664429e-01 8.472219109535217285e-02 1.370666027069091797e-01
2.316000000000000000e+03 2.142945671081542969e+01 1.345780658721923828e+01 1.203096285462379456e-01 1.600091308355331421e-01 8.409562706947326660e-02 1.368764936923980713e-01
2.317000000000000000e+03 2.521487045288085938e+01 1.705495834350585938e+01 1.025466471910476685e-01 1.253187060356140137e-01 6.835960596799850464e-02 1.137876957654953003e-01
2.318000000000000000e+03 4.314926910400390625e+01 2.215947532653808594e+01 -3.552486598491668701e-01 -1.525125093758106232e-02 -1.111499741673469543e-01 -1.863268017768859863e-01
2.319000000000000000e+03 3.810200500488281250e+01 3.066422843933105469e+01 7.669328898191452026e-02 8.185879141092300415e-02 4.756562411785125732e-02 6.986756622791290283e-02
2.320000000000000000e+03 4.030638504028320312e+01 1.981271743774414062e+01 -4.395159780979156494e-01 -2.787035703659057617e-01 -2.154658585786819458e-01 -4.154611825942993164e-01
2.321000000000000000e+03 4.764172744750976562e+01 2.643516159057617188e+01 3.531256318092346191e-02 4.174273014068603516e-01 1.358219534158706665e-01 2.354911565780639648e-01
2.322000000000000000e+03 4.813245391845703125e+01 2.753267288208007812e+01 6.345561891794204712e-02 2.881010770797729492e-01 1.054670065641403198e-01 1.919758617877960205e-01
2.323000000000000000e+03 2.892050552368164062e+01 2.068835639953613281e+01 8.229225873947143555e-02 1.018711775541305542e-01 5.524903163313865662e-02 9.206473827362060547e-02
2.324000000000000000e+03 2.855315971374511719e+01 2.052314949035644531e+01 8.412331342697143555e-02 1.055974960327148438e-01 5.691624432802200317e-02 9.556934982538223267e-02
2.325000000000000000e+03 4.952011489868164062e+01 2.885907363891601562e+01 2.215563803911209106e-01 3.471407890319824219e-01 1.706091612577438354e-01 3.153391778469085693e-01
2.326000000000000000e+03 3.603775405883789062e+01 1.469133663177490234e+01 -6.619316339492797852e-01 -5.719671845436096191e-01 -3.701696395874023438e-01 -6.190424561500549316e-01
2.327000000000000000e+03 1.574806880950927734e+01 7.633997917175292969e+00 1.412429362535476685e-01 3.177846670150756836e-01 1.377082765102386475e-01 1.965030282735824585e-01
2.328000000000000000e+03 1.559093284606933594e+01 7.081381797790527344e+00 1.600670218467712402e-01 3.412886261940002441e-01 1.504066884517669678e-01 2.114456444978713989e-01
2.329000000000000000e+03 3.433024597167968750e+01 2.647908020019531250e+01 6.480202078819274902e-02 9.060620516538619995e-02 4.662247002124786377e-02 7.571820914745330811e-02
2.330000000000000000e+03 3.292291641235351562e+01 1.123493385314941406e+01 -8.440188765525817871e-01 -6.599488258361816406e-01 -4.511903226375579834e-01 -7.039231657981872559e-01
2.331000000000000000e+03 2.821797752380371094e+01 1.977836227416992188e+01 8.657259494066238403e-02 1.081219762563705444e-01 5.840837210416793823e-02 9.864070266485214233e-02
2.332000000000000000e+03 4.395799255371093750e+01 2.297527503967285156e+01 -3.094804584980010986e-01 4.282703995704650879e-02 -7.999601960182189941e-02 -1.289605200290679932e-01
2.333000000000000000e+03 4.923412704467773438e+01 2.859431457519531250e+01 1.865528821945190430e-01 3.370243310928344727e-01 1.570731699466705322e-01 2.884178757667541504e-01
2.334000000000000000e+03 2.803845214843750000e+01 1.946190643310546875e+01 9.266497939825057983e-02 1.075275987386703491e-01 6.005777418613433838e-02 1.003064140677452087e-01
2.335000000000000000e+03 4.283910369873046875e+01 3.493210983276367188e+01 1.360864639282226562e-01 3.949176147580146790e-02 5.267346650362014771e-02 7.207035273313522339e-02
2.336000000000000000e+03 4.330879592895507812e+01 3.467761611938476562e+01 7.782227545976638794e-02 5.285415053367614746e-02 3.920292854309082031e-02 6.701526045799255371e-02
2.337000000000000000e+03 2.752368354797363281e+01 1.939724731445312500e+01 8.980089426040649414e-02 1.117915585637092590e-01 6.047773733735084534e-02 1.004490926861763000e-01
2.338000000000000000e+03 4.092852020263671875e+01 1.979859542846679688e+01 -4.072905480861663818e-01 -1.585005223751068115e-01 -1.697373241186141968e-01 -3.393623530864715576e-01
2.339000000000000000e+03 4.230316543579101562e+01 2.181132316589355469e+01 -4.130086600780487061e-01 -1.512808650732040405e-01 -1.692868620157241821e-01 -2.808059751987457275e-01
2.340000000000000000e+03 2.730144882202148438e+01 1.912870025634765625e+01 9.022205322980880737e-02 1.151891499757766724e-01 6.162336096167564392e-02 1.022312566637992859e-01
2.341000000000000000e+03 2.730545997619628906e+01 1.862601470947265625e+01 9.715089201927185059e-02 1.154815778136253357e-01 6.378974020481109619e-02 1.052793934941291809e-01
2.342000000000000000e+03 4.538046264648437500e+01 2.480185699462890625e+01 -2.166377007961273193e-01 8.794854581356048584e-02 -3.860674425959587097e-02 -5.373607203364372253e-02
2.343000000000000000e+03 4.593104934692382812e+01 2.480593299865722656e+01 -1.551952958106994629e-01 2.483479231595993042e-01 2.794578857719898224e-02 5.430095270276069641e-02
2.344000000000000000e+03 3.504250335693359375e+01 1.355459308624267578e+01 -7.187456488609313965e-01 -6.114737987518310547e-01 -3.990658521652221680e-01 -6.487488150596618652e-01
2.345000000000000000e+03 3.197406005859375000e+01 2.353322029113769531e+01 6.661719828844070435e-02 8.809623122215270996e-02 4.641402885317802429e-02 8.074400573968887329e-02
2.346000000000000000e+03 5.059769058227539062e+01 2.939730644226074219e+01 4.357276856899261475e-01 5.298406481742858887e-01 2.896704971790313721e-01 5.495008826255798340e-01
2.347000000000000000e+03 3.655605697631835938e+01 1.526168823242187500e+01 -6.351683139801025391e-01 -5.475754141807556152e-01 -3.548231124877929688e-01 -5.930626392364501953e-01
2.348000000000000000e+03 5.089493942260742188e+01 2.967992973327636719e+01 4.942684769630432129e-01 5.288154482841491699e-01 3.069251775741577148e-01 5.868661403656005859e-01
2.349000000000000000e+03 2.905726814270019531e+01 2.145831298828125000e+01 7.638721168041229248e-02 1.037714555859565735e-01 5.404759943485260010e-02 9.043112397193908691e-02
2.350000000000000000e+03 4.787696456909179688e+01 2.673619651794433594e+01 6.010203436017036438e-02 4.097794890403747559e-01 1.409644633531570435e-01 2.532689869403839111e-01
2.351000000000000000e+03 4.895101165771484375e+01 2.833090209960937500e+01 1.513387709856033325e-01 3.253422975540161133e-01 1.430043131113052368e-01 2.625791430473327637e-01
2.352000000000000000e+03 4.012113571166992188e+01 3.281423950195312500e+01 7.436399161815643311e-02 6.591776013374328613e-02 4.208452627062797546e-02 5.833846703171730042e-02
2.353000000000000000e+03 3.962345123291015625e+01 3.193939399719238281e+01 6.319594383239746094e-02 5.693863704800605774e-02 3.604037687182426453e-02 6.979409605264663696e-02
2.354000000000000000e+03 3.681717300415039062e+01 1.555094337463378906e+01 -6.222025156021118164e-01 -5.337510704994201660e-01 -3.467860817909240723e-01 -5.796012878417968750e-01
2.355000000000000000e+03 3.176767349243164062e+01 2.391435623168945312e+01 6.675218045711517334e-02 9.286202490329742432e-02 4.788426309823989868e-02 8.163621276617050171e-02
2.356000000000000000e+03 3.165371322631835938e+01 2.272385215759277344e+01 6.880047917366027832e-02 8.970612287521362305e-02 4.755197837948799133e-02 8.456135541200637817e-02
2.357000000000000000e+03 3.707902145385742188e+01 1.584242725372314453e+01 -6.122372746467590332e-01 -5.195086598396301270e-01 -3.395237922668457031e-01 -5.639986991882324219e-01
2.358000000000000000e+03 4.288650894165039062e+01 2.187643432617187500e+01 -3.658952713012695312e-01 -3.165017813444137573e-02 -1.192636340856552124e-01 -2.014698684215545654e-01
2.359000000000000000e+03 3.810839843750000000e+01 1.754641342163085938e+01 -5.747587084770202637e-01 -5.118383169174194336e-01 -3.259790837764739990e-01 -5.376002788543701172e-01
2.360000000000000000e+03 4.107217025756835938e+01 3.250077438354492188e+01 7.850387692451477051e-02 5.553239211440086365e-02 4.021088033914566040e-02 5.933867022395133972e-02
2.361000000000000000e+03 4.423283386230468750e+01 2.324235725402832031e+01 -2.917575240135192871e-01 6.572183966636657715e-02 -6.781070679426193237e-02 -1.053627431392669678e-01
2.362000000000000000e+03 1.991354751586914062e+01 1.215719032287597656e+01 1.215121671557426453e-01 1.755259633064270020e-01 8.911143988370895386e-02 1.455074995756149292e-01
2.363000000000000000e+03 3.734136962890625000e+01 1.613554763793945312e+01 -6.003848314285278320e-01 -5.032986402511596680e-01 -3.311050534248352051e-01 -5.495181679725646973e-01
2.364000000000000000e+03 2.242537498474121094e+01 1.391691684722900391e+01 1.257994472980499268e-01 1.537970900535583496e-01 8.387895673513412476e-02 1.342521458864212036e-01
2.365000000000000000e+03 3.044531822204589844e+01 2.224227142333984375e+01 6.840924173593521118e-02 9.695445001125335693e-02 4.960910975933074951e-02 8.589293807744979858e-02
2.366000000000000000e+03 2.948143577575683594e+01 2.142202568054199219e+01 7.440011948347091675e-02 1.001145094633102417e-01 5.235438793897628784e-02 8.894287794828414917e-02
2.367000000000000000e+03 4.155349349975585938e+01 3.320449066162109375e+01 7.629051804542541504e-02 7.691527158021926880e-02 4.596173763275146484e-02 6.922911107540130615e-02
2.368000000000000000e+03 4.033852767944335938e+01 3.325756072998046875e+01 8.242858201265335083e-02 6.772033125162124634e-02 4.504467546939849854e-02 8.248331397771835327e-02
2.369000000000000000e+03 3.136312675476074219e+01 9.024038314819335938e+00 -8.501100540161132812e-01 -5.988739132881164551e-01 -4.346952140331268311e-01 -5.564314126968383789e-01
2.370000000000000000e+03 2.675856971740722656e+01 1.818359375000000000e+01 1.002037227153778076e-01 1.197175756096839905e-01 6.597638875246047974e-02 1.074831560254096985e-01
2.371000000000000000e+03 2.696798515319824219e+01 1.785939025878906250e+01 1.062999144196510315e-01 1.188759580254554749e-01 6.755276024341583252e-02 1.101415604352951050e-01
2.372000000000000000e+03 5.828236770629882812e+01 3.211208724975585938e+01 1.583553910255432129e+00 1.328836727142333984e+01 4.461576461791992188e+00 4.820028305053710938e+00
2.373000000000000000e+03 5.805919647216796875e+01 3.245652008056640625e+01 2.430630683898925781e+00 1.270250892639160156e+01 4.539941787719726562e+00 5.779567718505859375e+00
2.374000000000000000e+03 1.801361656188964844e+01 9.511589050292968750e+00 1.488229930400848389e-01 2.192477136850357056e-01 1.104212105274200439e-01 1.738356351852416992e-01
2.375000000000000000e+03 1.727458763122558594e+01 9.179955482482910156e+00 1.455416232347488403e-01 2.356665283441543579e-01 1.143624410033226013e-01 1.755121797323226929e-01
2.376000000000000000e+03 2.317271232604980469e+01 1.475497436523437500e+01 1.168153956532478333e-01 1.477461904287338257e-01 7.936847209930419922e-02 1.287406086921691895e-01
2.377000000000000000e+03 4.980810165405273438e+01 2.912674522399902344e+01 2.613998949527740479e-01 3.519009351730346680e-01 1.839902549982070923e-01 3.413778245449066162e-01
2.378000000000000000e+03 4.126976394653320312e+01 3.367232894897460938e+01 8.960324525833129883e-02 2.695231884717941284e-02 3.496666997671127319e-02 5.560096353292465210e-02
2.379000000000000000e+03 5.119312286376953125e+01 2.997178268432617188e+01 5.503528714179992676e-01 5.244160294532775879e-01 3.224306702613830566e-01 6.229171156883239746e-01
2.380000000000000000e+03 2.617483711242675781e+01 1.771229362487792969e+01 1.022950485348701477e-01 1.226310804486274719e-01 6.747783720493316650e-02 1.092429533600807190e-01
2.381000000000000000e+03 2.462128257751464844e+01 1.726710510253906250e+01 9.491822868585586548e-02 1.278451234102249146e-01 6.682900339365005493e-02 1.113350614905357361e-01
2.382000000000000000e+03 4.509230422973632812e+01 2.453791236877441406e+01 -2.433735132217407227e-01 5.604057013988494873e-02 -5.619988217949867249e-02 -7.945846766233444214e-02
2.383000000000000000e+03 4.867250442504882812e+01 2.806692695617675781e+01 1.202610507607460022e-01 3.124497234821319580e-01 1.298132389783859253e-01 2.370177358388900757e-01
2.384000000000000000e+03 2.288769531250000000e+01 9.012240767478942871e-01 -1.272846937179565430e+00 -1.312780082225799561e-01 -4.212374985218048096e-01 -6.494202017784118652e-01
2.385000000000000000e+03 2.907679367065429688e+01 2.102880477905273438e+01 7.798694819211959839e-02 1.016851365566253662e-01 5.390162393450737000e-02 9.154812246561050415e-02
2.386000000000000000e+03 3.458619689941406250e+01 1.292076301574707031e+01 -7.329463958740234375e-01 -6.192690730094909668e-01 -4.056646227836608887e-01 -6.524691581726074219e-01
2.387000000000000000e+03 1.939310646057128906e+01 1.160255336761474609e+01 1.236739531159400940e-01 1.816626787185668945e-01 9.160099178552627563e-02 1.516982913017272949e-01
2.388000000000000000e+03 3.760403823852539062e+01 1.642956733703613281e+01 -5.905866026878356934e-01 -4.854013919830322266e-01 -3.227964043617248535e-01 -5.331940650939941406e-01
2.389000000000000000e+03 4.341561889648437500e+01 2.243530273437500000e+01 -3.418852090835571289e-01 2.826258540153503418e-03 -1.017176881432533264e-01 -1.699201762676239014e-01
2.390000000000000000e+03 3.667376327514648438e+01 2.838913917541503906e+01 7.194866240024566650e-02 8.513919264078140259e-02 4.712635651230812073e-02 7.284567505121231079e-02
2.391000000000000000e+03 4.210830688476562500e+01 3.448452377319335938e+01 1.044776365160942078e-01 8.013784140348434448e-02 5.538464337587356567e-02 8.479996770620346069e-02
2.392000000000000000e+03 4.158890151977539062e+01 3.437036514282226562e+01 9.122212976217269897e-02 2.244976162910461426e-02 3.410156816244125366e-02 4.113949462771415710e-02
2.393000000000000000e+03 5.148103332519531250e+01 3.027531242370605469e+01 5.998945236206054688e-01 4.959854781627655029e-01 3.287639915943145752e-01 6.462786793708801270e-01
2.394000000000000000e+03 2.267802810668945312e+01 1.419270229339599609e+01 1.233039349317550659e-01 1.522894650697708130e-01 8.267802000045776367e-02 1.322812288999557495e-01
2.395000000000000000e+03 1.871139335632324219e+01 1.047636890411376953e+01 1.345426440238952637e-01 2.009256929159164429e-01 1.006405055522918701e-01 1.650637835264205933e-01
2.396000000000000000e+03 3.892617034912109375e+01 1.788652610778808594e+01 -5.252203345298767090e-01 -3.559962511062622070e-01 -2.643649876117706299e-01 -4.631255865097045898e-01
2.397000000000000000e+03 3.786703109741210938e+01 1.672362709045410156e+01 -5.789752006530761719e-01 -4.643887877464294434e-01 -3.130092024803161621e-01 -5.184100866317749023e-01
2.398000000000000000e+03 4.451005554199218750e+01 2.350800132751464844e+01 -2.732476294040679932e-01 9.001802653074264526e-02 -5.496887862682342529e-02 -8.050569146871566772e-02
2.399000000000000000e+03 2.586734962463378906e+01 1.748217582702636719e+01 1.026198044419288635e-01 1.230221018195152283e-01 6.769257038831710815e-02 1.105042770504951477e-01
2.400000000000000000e+03 3.244657516479492188e+01 2.478913116455078125e+01 6.471411883831024170e-02 9.250894188880920410e-02 4.716691747307777405e-02 7.968787103891372681e-02
2.401000000000000000e+03 3.235113906860351562e+01 2.422439002990722656e+01 6.499984860420227051e-02 9.267887473106384277e-02 4.730361700057983398e-02 7.994393259286880493e-02
2.402000000000000000e+03 3.451674270629882812e+01 2.681312942504882812e+01 5.856819078326225281e-02 9.235053509473800659e-02 4.527561739087104797e-02 7.441149652004241943e-02
2.403000000000000000e+03 4.185324478149414062e+01 2.065424728393554688e+01 -3.815722167491912842e-01 -8.902648091316223145e-02 -1.411796063184738159e-01 -2.650704681873321533e-01
2.404000000000000000e+03 4.211388397216796875e+01 2.096716499328613281e+01 -3.780041337013244629e-01 -7.065744698047637939e-02 -1.345984786748886108e-01 -2.456160634756088257e-01
2.405000000000000000e+03 2.051832199096679688e+01 1.293265151977539062e+01 1.169738918542861938e-01 1.678332686424255371e-01 8.544214814901351929e-02 1.393999010324478149e-01
2.406000000000000000e+03 2.016864395141601562e+01 1.278394794464111328e+01 1.145518422126770020e-01 1.711279451847076416e-01 8.570393919944763184e-02 1.391630023717880249e-01
2.407000000000000000e+03 3.639150619506835938e+01 2.813059043884277344e+01 6.998731940984725952e-02 8.948338031768798828e-02 4.784120991826057434e-02 7.321526855230331421e-02
2.408000000000000000e+03 2.170051193237304688e+01 1.367929267883300781e+01 1.204049065709114075e-01 1.575062125921249390e-01 8.337333053350448608e-02 1.351193487644195557e-01
2.409000000000000000e+03 2.998986816406250000e+01 2.180743789672851562e+01 7.260845601558685303e-02 9.763058274984359741e-02 5.107171460986137390e-02 8.758506923913955688e-02
2.410000000000000000e+03 5.236476516723632812e+01 3.132045364379882812e+01 7.191088795661926270e-01 3.816981017589569092e-01 3.302420973777770996e-01 6.720849275588989258e-01
2.411000000000000000e+03 3.264511489868164062e+01 1.099923229217529297e+01 -8.635149598121643066e-01 -6.782726049423217773e-01 -4.625362455844879150e-01 -7.006247043609619141e-01
2.412000000000000000e+03 3.206345367431640625e+01 2.403407287597656250e+01 6.652235239744186401e-02 8.798051625490188599e-02 4.635085910558700562e-02 8.028770983219146729e-02
2.413000000000000000e+03 3.168011283874511719e+01 2.333690643310546875e+01 6.702478229999542236e-02 9.177784621715545654e-02 4.764078930020332336e-02 8.346523344516754150e-02
2.414000000000000000e+03 2.308535385131835938e+01 1.525405502319335938e+01 1.069541350007057190e-01 1.458243429660797119e-01 7.583354413509368896e-02 1.240733340382575989e-01
2.415000000000000000e+03 2.268721580505371094e+01 1.475263786315917969e+01 1.129027083516120911e-01 1.504203528165817261e-01 7.899691909551620483e-02 1.270332932472229004e-01
2.416000000000000000e+03 4.478985595703125000e+01 2.377228927612304688e+01 -2.530719935894012451e-01 1.177043989300727844e-01 -4.061027616262435913e-02 -5.474857613444328308e-02
2.417000000000000000e+03 4.507223129272460938e+01 2.403493309020996094e+01 -2.317144423723220825e-01 1.471745818853378296e-01 -2.536196075379848480e-02 -2.836662530899047852e-02
2.418000000000000000e+03 3.553029251098632812e+01 1.412934875488281250e+01 -6.925715804100036621e-01 -5.929565429687500000e-01 -3.856584429740905762e-01 -6.384511590003967285e-01
2.419000000000000000e+03 3.184083175659179688e+01 1.001671886444091797e+01 -8.902833461761474609e-01 -6.597871780395507812e-01 -4.650211632251739502e-01 -6.736974120140075684e-01
2.420000000000000000e+03 3.418220901489257812e+01 1.215275573730468750e+01 -7.425823807716369629e-01 -5.920084714889526367e-01 -4.003772437572479248e-01 -6.427572965621948242e-01
2.421000000000000000e+03 3.437628555297851562e+01 1.256198406219482422e+01 -7.354737520217895508e-01 -6.152778863906860352e-01 -4.052254855632781982e-01 -6.527094841003417969e-01
2.422000000000000000e+03 1.402424430847167969e+01 5.644418716430664062e+00 1.067827194929122925e-01 6.192344427108764648e-01 2.178051471710205078e-01 1.863710433244705200e-01
2.423000000000000000e+03 5.174286651611328125e+01 3.059600067138671875e+01 6.289663910865783691e-01 4.655945897102355957e-01 3.283683061599731445e-01 6.519700288772583008e-01
2.424000000000000000e+03 5.211303329467773438e+01 3.115210914611816406e+01 6.563410162925720215e-01 3.301609158515930176e-01 2.959505617618560791e-01 6.123369336128234863e-01
2.425000000000000000e+03 3.334429931640625000e+01 2.540673828125000000e+01 6.352376937866210938e-02 9.140971302986145020e-02 4.648004472255706787e-02 7.669295370578765869e-02
2.426000000000000000e+03 5.321134567260742188e+01 3.179557609558105469e+01 9.963908791542053223e-01 6.406722664833068848e-01 4.911189377307891846e-01 9.084502458572387695e-01
2.427000000000000000e+03 3.222567749023437500e+01 1.035342597961425781e+01 -8.669223189353942871e-01 -6.549593806266784668e-01 -4.565645158290863037e-01 -6.670256853103637695e-01
2.428000000000000000e+03 3.649848937988281250e+01 2.914739036560058594e+01 6.302981823682785034e-02 7.852504402399063110e-02 4.246645793318748474e-02 6.403842568397521973e-02
2.429000000000000000e+03 3.061570549011230469e+01 5.715604782104492188e+00 -7.251800894737243652e-01 -3.885240554809570312e-01 -3.341112434864044189e-01 -5.722154378890991211e-01
2.430000000000000000e+03 1.811889266967773438e+01 1.042098999023437500e+01 1.266247928142547607e-01 2.117221504449844360e-01 1.015040874481201172e-01 1.599540412425994873e-01
2.431000000000000000e+03 1.494774150848388672e+01 6.554041862487792969e+00 1.532363146543502808e-01 4.051315784454345703e-01 1.675103604793548584e-01 2.174398750066757202e-01
2.432000000000000000e+03 1.793000221252441406e+01 1.005820560455322266e+01 1.313085108995437622e-01 2.171366065740585327e-01 1.045335307717323303e-01 1.648207008838653564e-01
2.433000000000000000e+03 1.462494087219238281e+01 6.256455898284912109e+00 1.393841356039047241e-01 4.597819447517395020e-01 1.797498315572738647e-01 2.208068519830703735e-01
2.434000000000000000e+03 5.894426345825195312e+01 3.244567871093750000e+01 1.604841709136962891e+00 1.616559219360351562e+01 5.331130504608154297e+00 3.431929111480712891e+00
2.435000000000000000e+03 1.536700534820556641e+01 7.463575839996337891e+00 1.342053711414337158e-01 3.426241874694824219e-01 1.430488675832748413e-01 1.924190968275070190e-01
2.436000000000000000e+03 1.500892543792724609e+01 7.220266342163085938e+00 1.309940814971923828e-01 3.705195188522338867e-01 1.504540741443634033e-01 1.866673380136489868e-01
2.437000000000000000e+03 1.298060417175292969e+01 3.806340932846069336e+00 3.828281462192535400e-01 9.272744655609130859e-01 3.930307924747467041e-01 -2.620598971843719482e-01
2.438000000000000000e+03 1.297957611083984375e+01 4.381812572479248047e+00 2.457210570573806763e-01 8.200638890266418457e-01 3.197354674339294434e-01 -1.522123664617538452e-01
2.439000000000000000e+03 3.245722961425781250e+01 1.071050548553466797e+01 -8.562020063400268555e-01 -6.606263518333435059e-01 -4.550485014915466309e-01 -6.851892471313476562e-01
2.440000000000000000e+03 1.072188568115234375e+01 3.588879108428955078e+00 4.287967681884765625e-01 -1.694701015949249268e-01 7.779799401760101318e-02 -4.723582416772842407e-03
2.441000000000000000e+03 3.220309829711914062e+01 6.102641105651855469e+00 -5.167540907859802246e-01 -3.246463835239410400e-01 -2.524201273918151855e-01 -4.276739656925201416e-01
2.442000000000000000e+03 8.427996635437011719e+00 -6.297402858734130859e+00 -1.490998864173889160e-01 -1.586937755346298218e-01 -9.233810007572174072e-02 -3.278218209743499756e-01
2.443000000000000000e+03 3.181266021728515625e+01 7.157672882080078125e+00 -5.233877897262573242e-01 -4.872854948043823242e-01 -3.032019734382629395e-01 -4.922114610671997070e-01
2.444000000000000000e+03 3.167726898193359375e+01 6.172857284545898438e+00 -5.441598892211914062e-01 -3.798881173133850098e-01 -2.772143781185150146e-01 -4.924797415733337402e-01
2.445000000000000000e+03 1.259673404693603516e+01 3.641472339630126953e+00 4.631863832473754883e-01 7.185194492340087891e-01 3.545117676258087158e-01 -3.126439750194549561e-01
2.446000000000000000e+03 5.680092239379882812e+01 3.827735900878906250e+01 1.752857267856597900e-01 6.780460357666015625e+00 2.086723804473876953e+00 -2.713918685913085938e+00
2.447000000000000000e+03 2.719361686706542969e+01 -1.777559638023376465e+00 9.652339853346347809e-03 -2.077914476394653320e-01 -5.944173410534858704e-02 -2.004126086831092834e-02
2.448000000000000000e+03 4.481805801391601562e+01 3.640491485595703125e+01 6.253264099359512329e-02 4.576640203595161438e-02 3.248971328139305115e-02 5.053818970918655396e-02
2.449000000000000000e+03 4.247488784790039062e+01 3.531013488769531250e+01 7.004969567060470581e-02 8.903195708990097046e-02 4.772449657320976257e-02 4.265902191400527954e-02
2.450000000000000000e+03 2.657589149475097656e+01 -1.887837767601013184e+00 6.768817454576492310e-02 -1.373123079538345337e-01 -2.088723704218864441e-02 -5.261861905455589294e-02
2.451000000000000000e+03 2.551834487915039062e+01 -1.508704900741577148e+00 3.006497211754322052e-02 -3.489981964230537415e-02 -1.450454699806869030e-03 -7.736231386661529541e-02
2.452000000000000000e+03 2.909255599975585938e+01 -3.128087043762207031e+00 1.881456971168518066e-01 -2.159508168697357178e-01 -8.341539651155471802e-03 -3.185715992003679276e-03
2.453000000000000000e+03 1.144817924499511719e+01 4.110695362091064453e+00 4.258382618427276611e-01 1.331858187913894653e-01 1.677072197198867798e-01 -1.881169080734252930e-01
2.454000000000000000e+03 1.244944477081298828e+01 4.019772052764892578e+00 4.026092588901519775e-01 5.895087718963623047e-01 2.976354062557220459e-01 -2.793794870376586914e-01
2.455000000000000000e+03 3.913236618041992188e+01 3.100959777832031250e+01 6.270392984151840210e-02 7.280770689249038696e-02 4.065348953008651733e-02 6.391511112451553345e-02
2.456000000000000000e+03 1.187950706481933594e+01 -5.277311801910400391e+00 -2.706837654113769531e-01 -2.076752632856369019e-01 -1.435077041387557983e-01 -4.598087072372436523e-01
2.457000000000000000e+03 4.374477863311767578e+00 4.362143993377685547e+00 -3.696820931509137154e-04 -1.041929572820663452e-01 -3.136879205703735352e-02 1.300530731678009033e-01
2.458000000000000000e+03 6.327437210083007812e+01 3.217707443237304688e+01 2.832914352416992188e+00 1.176952552795410156e+01 4.380732059478759766e+00 -1.519845008850097656e+00
2.459000000000000000e+03 6.163995742797851562e+00 3.971838712692260742e+00 9.425369091331958771e-03 -1.219079867005348206e-01 -3.374478593468666077e-02 1.712104231119155884e-01
2.460000000000000000e+03 4.810419082641601562e+00 4.859189510345458984e+00 2.539807185530662537e-02 -1.161005347967147827e-01 -2.721073850989341736e-02 1.296248883008956909e-01
2.461000000000000000e+03 3.766543149948120117e+00 4.841856479644775391e+00 8.670889772474765778e-03 -1.044314578175544739e-01 -2.872817032039165497e-02 1.111979633569717407e-01
2.462000000000000000e+03 4.936736583709716797e+00 4.037096500396728516e+00 -1.076735369861125946e-02 -9.685423970222473145e-02 -3.228647634387016296e-02 1.430800110101699829e-01
2.463000000000000000e+03 2.677610158920288086e+00 6.613852977752685547e+00 1.944449916481971741e-02 -1.396419405937194824e-01 -3.605923429131507874e-02 7.132755219936370850e-02
2.464000000000000000e+03 8.121534347534179688e+00 -4.545373439788818359e+00 -2.117727696895599365e-01 -8.394927531480789185e-02 -8.871661126613616943e-02 -2.606762647628784180e-01
2.465000000000000000e+03 8.984654426574707031e+00 -5.322208404541015625e+00 -2.104335874319076538e-01 -1.236490532755851746e-01 -1.002247929573059082e-01 -3.269353806972503662e-01
2.466000000000000000e+03 8.318710327148437500e+00 3.874832153320312500e+00 1.157409772276878357e-01 -2.046764343976974487e-01 -2.668063715100288391e-02 1.950453817844390869e-01
2.467000000000000000e+03 5.969912528991699219e+00 6.804985523223876953e+00 8.673416823148727417e-02 -1.306248754262924194e-01 -1.316721271723508835e-02 8.573705703020095825e-02
2.468000000000000000e+03 8.321383476257324219e+00 4.632587432861328125e+00 1.705873310565948486e-01 -1.751898378133773804e-01 -1.380753470584750175e-03 1.237828657031059265e-01
2.469000000000000000e+03 3.865999221801757812e+01 3.115213012695312500e+01 7.970640808343887329e-02 7.897696644067764282e-02 4.760501161217689514e-02 7.031643390655517578e-02
2.470000000000000000e+03 3.705647659301757812e+01 3.016270446777343750e+01 6.140536069869995117e-02 7.314131408929824829e-02 4.036400094628334045e-02 6.137790158390998840e-02
2.471000000000000000e+03 2.385568618774414062e+01 1.340760111808776855e+00 -1.203602313995361328e+00 -2.157562375068664551e-01 -4.258075654506683350e-01 -5.348660349845886230e-01
2.472000000000000000e+03 3.397852659225463867e+00 -6.876090049743652344e+00 -3.524507582187652588e-02 -1.652292907238006592e-01 -6.014231219887733459e-02 -1.455090790987014771e-01
2.473000000000000000e+03 5.094989299774169922e+00 -5.795941829681396484e+00 -7.642196118831634521e-02 -1.325466930866241455e-01 -6.269060075283050537e-02 -1.880044043064117432e-01
2.474000000000000000e+03 5.917899608612060547e+00 -5.725822448730468750e+00 -1.055256947875022888e-01 -1.262196004390716553e-01 -6.952358782291412354e-02 -2.153490781784057617e-01
2.475000000000000000e+03 6.059889793395996094e+00 -6.732171535491943359e+00 -7.816447317600250244e-02 -1.698239147663116455e-01 -7.439651340246200562e-02 -2.452811449766159058e-01
2.476000000000000000e+03 5.920605087280273438e+01 3.205780410766601562e+01 9.596060514450073242e-01 1.652190017700195312e+01 5.244451999664306641e+00 2.573764562606811523e+00
2.477000000000000000e+03 5.978140258789062500e+01 3.190339279174804688e+01 1.290098428726196289e+00 1.578287220001220703e+01 5.121891021728515625e+00 7.118980884552001953e-01
2.478000000000000000e+03 5.656059646606445312e+01 3.939755630493164062e+01 -6.036558151245117188e-01 7.302441120147705078e+00 2.009635686874389648e+00 -1.620500206947326660e+00
2.479000000000000000e+03 7.499044895172119141e+00 -5.530398845672607422e+00 -1.562151759862899780e-01 -1.212434545159339905e-01 -8.323758840560913086e-02 -2.707102298736572266e-01
2.480000000000000000e+03 9.103672981262207031e+00 5.320431709289550781e+00 2.383976280689239502e-01 -1.213161051273345947e-01 3.512445837259292603e-02 2.662505954504013062e-02
2.481000000000000000e+03 1.759965896606445312e+01 -3.476500272750854492e+00 -4.078762829303741455e-01 -6.302565336227416992e-01 -3.114398419857025146e-01 -4.931729733943939209e-01
2.482000000000000000e+03 1.730787658691406250e+01 -2.923272848129272461e+00 -5.877940058708190918e-01 -6.526241898536682129e-01 -3.721254467964172363e-01 -5.524168610572814941e-01
2.483000000000000000e+03 4.916801452636718750e+01 4.103947448730468750e+01 4.048616290092468262e-01 -5.777908861637115479e-02 1.041247621178627014e-01 2.146448343992233276e-01
2.484000000000000000e+03 4.760274505615234375e+01 3.962564849853515625e+01 9.384013712406158447e-02 -6.393384933471679688e-02 8.971887640655040741e-03 5.181652307510375977e-02
2.485000000000000000e+03 3.183129119873046875e+01 8.847042083740234375e+00 -7.345462441444396973e-01 -5.691839456558227539e-01 -3.911190629005432129e-01 -5.054336190223693848e-01
2.486000000000000000e+03 3.175942802429199219e+01 9.306988716125488281e+00 -8.168796300888061523e-01 -5.924516320228576660e-01 -4.227993786334991455e-01 -5.844844579696655273e-01
2.487000000000000000e+03 3.196521377563476562e+01 7.662778377532958984e+00 -5.522499680519104004e-01 -4.979209601879119873e-01 -3.150512874126434326e-01 -4.807268083095550537e-01
2.488000000000000000e+03 6.020418548583984375e+01 3.199064636230468750e+01 1.729463815689086914e+00 1.595371532440185547e+01 5.304954051971435547e+00 -1.299062967300415039e-01
2.489000000000000000e+03 6.075906753540039062e+01 3.205105209350585938e+01 2.274455785751342773e+00 1.502137470245361328e+01 5.188749313354492188e+00 -8.682075738906860352e-01
2.490000000000000000e+03 1.074591827392578125e+01 4.287616252899169922e+00 3.757503032684326172e-01 -3.299357369542121887e-02 1.028270199894905090e-01 -8.048415929079055786e-02
2.491000000000000000e+03 9.935907363891601562e+00 4.457319736480712891e+00 3.152051866054534912e-01 -1.354123502969741821e-01 5.393784865736961365e-02 5.802853964269161224e-03
2.492000000000000000e+03 1.431147098541259766e+01 -5.572881221771240234e+00 -1.847463995218276978e-01 -3.815622925758361816e-01 -1.698925942182540894e-01 -5.138091444969177246e-01
2.493000000000000000e+03 4.189267730712890625e+01 3.761573791503906250e+01 1.293320953845977783e-01 8.134871721267700195e-03 4.124009236693382263e-02 3.290341049432754517e-02
2.494000000000000000e+03 4.301879119873046875e+01 3.556093597412109375e+01 7.974711060523986816e-02 2.169334515929222107e-02 3.043213859200477600e-02 3.313104063272476196e-02
2.495000000000000000e+03 2.469706916809082031e+01 -1.718649506568908691e+00 1.351644694805145264e-01 -2.695399150252342224e-02 3.246314451098442078e-02 -2.150341421365737915e-01
2.496000000000000000e+03 2.525088691711425781e+01 -7.979284524917602539e-01 -2.065583765506744385e-01 -1.231674328446388245e-01 -9.891773760318756104e-02 -1.301646828651428223e-01
2.497000000000000000e+03 1.619342613220214844e+01 -7.424227237701416016e+00 8.388790488243103027e-02 -2.701382040977478027e-01 -5.587509274482727051e-02 -3.277297317981719971e-01
2.498000000000000000e+03 1.421273136138916016e+01 -4.646426200866699219e+00 -3.423120975494384766e-01 -3.657425045967102051e-01 -2.124163806438446045e-01 -5.413678288459777832e-01
2.499000000000000000e+03 3.799504470825195312e+01 -1.337581348419189453e+01 7.244018837809562683e-03 8.082297444343566895e-01 2.446421235799789429e-01 -9.198352694511413574e-02
2.500000000000000000e+03 3.490316772460937500e+01 -9.501461982727050781e+00 1.070067882537841797e-01 2.908922731876373291e-01 1.193697154521942139e-01 -4.244104027748107910e-02
2.501000000000000000e+03 2.042589378356933594e+01 -2.049900627136230469e+01 1.408968120813369751e-01 2.269410490989685059e-01 1.103513613343238831e-01 -2.448654025793075562e-01
2.502000000000000000e+03 6.286922073364257812e+01 3.357083511352539062e+01 4.435174942016601562e+00 1.211373996734619141e+01 4.964674472808837891e+00 -7.826768755912780762e-01
2.503000000000000000e+03 6.255666732788085938e+01 3.520670700073242188e+01 5.159460067749023438e+00 1.261409187316894531e+01 5.332065582275390625e+00 1.232277393341064453e+00
2.504000000000000000e+03 1.623126029968261719e+01 -4.471222400665283203e+00 -2.643376290798187256e-01 -5.492026805877685547e-01 -2.440620958805084229e-01 -5.041428804397583008e-01
2.505000000000000000e+03 1.497235012054443359e+01 -4.579556941986083984e+00 -3.287827372550964355e-01 -4.532492458820343018e-01 -2.346096038818359375e-01 -5.587190389633178711e-01
2.506000000000000000e+03 4.474461364746093750e+01 3.590201568603515625e+01 1.711764186620712280e-01 3.613289073109626770e-02 6.219279393553733826e-02 8.906336873769760132e-02
2.507000000000000000e+03 1.993164443969726562e+01 -1.625611495971679688e+01 1.614100635051727295e-01 2.341948449611663818e-01 1.186814755201339722e-01 -2.342050820589065552e-01
2.508000000000000000e+03 1.982834625244140625e+01 -1.923341751098632812e+01 1.535361111164093018e-01 1.881651580333709717e-01 1.025103777647018433e-01 -2.407348901033401489e-01
2.509000000000000000e+03 2.106205177307128906e+01 -2.177251815795898438e+01 1.524229645729064941e-01 2.423533797264099121e-01 1.184329017996788025e-01 -2.514455616474151611e-01
2.510000000000000000e+03 4.386410522460937500e+01 -2.620552444458007812e+01 -6.795729696750640869e-02 2.538579940795898438e+00 7.411867976188659668e-01 -4.072223603725433350e-01
2.511000000000000000e+03 4.414807891845703125e+01 -2.395609092712402344e+01 -1.479747295379638672e-01 2.525586366653442383e+00 7.132835388183593750e-01 -3.046149909496307373e-01
2.512000000000000000e+03 2.256646537780761719e+01 -2.420737648010253906e+01 1.613600999116897583e-01 3.057608306407928467e-01 1.401362866163253784e-01 -2.586475610733032227e-01
2.513000000000000000e+03 4.146637725830078125e+01 -2.053135108947753906e+01 -9.680988639593124390e-02 1.568322658538818359e+00 4.414538145065307617e-01 -2.405412644147872925e-01
2.514000000000000000e+03 4.522000122070312500e+01 -1.954855346679687500e+01 -1.693638563156127930e-01 2.645933389663696289e+00 7.429708242416381836e-01 -1.697159111499786377e-01
2.515000000000000000e+03 3.312512207031250000e+01 -6.327950954437255859e+00 1.821666806936264038e-01 6.757830083370208740e-02 7.492349296808242798e-02 -1.399871148169040680e-02
2.516000000000000000e+03 4.360321044921875000e+01 -2.267271232604980469e+01 -1.268649101257324219e-01 2.279282808303833008e+00 6.457253694534301758e-01 -2.818974852561950684e-01
2.517000000000000000e+03 2.345652008056640625e+01 -2.336466979980468750e+01 1.447048634290695190e-01 3.820396065711975098e-01 1.580233424901962280e-01 -2.679784297943115234e-01
2.518000000000000000e+03 3.779765701293945312e+01 -1.521777629852294922e+01 -2.506013773381710052e-02 7.074247598648071289e-01 2.047093957662582397e-01 -7.995842397212982178e-02
2.519000000000000000e+03 3.867133712768554688e+01 -1.439685153961181641e+01 -1.785188727080821991e-02 9.378793835639953613e-01 2.760082483291625977e-01 -1.066802069544792175e-01
2.520000000000000000e+03 4.312568283081054688e+01 -2.141104507446289062e+01 -1.364904642105102539e-01 2.086565256118774414e+00 5.850224494934082031e-01 -2.534415423870086670e-01
2.521000000000000000e+03 7.398751068115234375e+01 2.927543067932128906e+01 2.147002369165420532e-01 6.806576251983642578e+00 2.106383085250854492e+00 -1.324949622154235840e+00
2.522000000000000000e+03 3.935481262207031250e+01 -1.520750236511230469e+01 -3.315924853086471558e-02 1.090722680091857910e+00 3.172690272331237793e-01 -1.379870921373367310e-01
2.523000000000000000e+03 7.524477386474609375e+01 -2.655973434448242188e+01 3.579402342438697815e-03 8.088232040405273438e+00 2.427543401718139648e+00 1.707031279802322388e-01
2.524000000000000000e+03 7.429640960693359375e+01 2.662979698181152344e+01 2.273120544850826263e-02 7.052052021026611328e+00 2.122435092926025391e+00 -1.361856341361999512e+00
2.525000000000000000e+03 7.462701416015625000e+01 2.266349792480468750e+01 -1.722801625728607178e-01 7.468469619750976562e+00 2.188856840133666992e+00 -1.197033762931823730e+00
2.526000000000000000e+03 7.471177673339843750e+01 1.871372985839843750e+01 -2.121084630489349365e-01 7.878204345703125000e+00 2.299828767776489258e+00 -9.188735485076904297e-01
2.527000000000000000e+03 7.307825469970703125e+01 2.630211067199707031e+01 -2.725460380315780640e-02 7.454876899719238281e+00 2.228286743164062500e+00 -1.493347048759460449e+00
2.528000000000000000e+03 7.564864349365234375e+01 2.558793258666992188e+01 -1.877022348344326019e-02 6.821944713592529297e+00 2.040952205657958984e+00 -1.147203564643859863e+00
2.529000000000000000e+03 7.532801055908203125e+01 -1.980314064025878906e+01 -6.918970961123704910e-03 8.301581382751464844e+00 2.488398790359497070e+00 1.739265620708465576e-01
2.530000000000000000e+03 7.399382781982421875e+01 -2.122408103942871094e+01 -1.220768410712480545e-02 8.038883209228515625e+00 2.408002614974975586e+00 2.178957611322402954e-01
2.531000000000000000e+03 7.370829010009765625e+01 -8.856750488281250000e+00 -4.442554712295532227e-02 8.263237953186035156e+00 2.465643644332885742e+00 1.298518031835556030e-01
2.532000000000000000e+03 7.526274108886718750e+01 -1.291358280181884766e+01 -2.046953514218330383e-02 8.483469009399414062e+00 2.538899898529052734e+00 1.370684951543807983e-01
2.533000000000000000e+03 7.394314575195312500e+01 -1.439869403839111328e+01 -2.813195064663887024e-02 8.201266288757324219e+00 2.451940298080444336e+00 1.797050237655639648e-01
2.534000000000000000e+03 7.376925659179687500e+01 -1.371247887611389160e+00 -7.658024877309799194e-02 8.362160682678222656e+00 2.485674142837524414e+00 9.916882961988449097e-03
2.535000000000000000e+03 7.477603149414062500e+01 1.476164245605468750e+01 -2.055395096540451050e-01 8.182243347167968750e+00 2.393011093139648438e+00 -6.431617736816406250e-01
2.536000000000000000e+03 7.474076843261718750e+01 1.607846641540527344e+01 -2.055135667324066162e-01 8.092906951904296875e+00 2.366217851638793945e+00 -7.295585274696350098e-01
2.537000000000000000e+03 7.590412902832031250e+01 1.755886268615722656e+01 -1.326412260532379150e-01 7.969983100891113281e+00 2.351202487945556641e+00 -7.181821465492248535e-01
2.538000000000000000e+03 7.465112304687500000e+01 7.077135086059570312e+00 -1.267900913953781128e-01 8.483602523803710938e+00 2.507043838500976562e+00 -2.343274354934692383e-01
2.539000000000000000e+03 7.482746887207031250e+01 1.217076969146728516e+01 -1.743558049201965332e-01 8.333347320556640625e+00 2.447697401046752930e+00 -4.789069294929504395e-01
2.540000000000000000e+03 7.500048065185546875e+01 -5.777260303497314453e+00 -3.440120816230773926e-02 8.573051452636718750e+00 2.561594963073730469e+00 7.172419130802154541e-02
2.541000000000000000e+03 7.594732666015625000e+01 9.626141548156738281e+00 -8.894885331392288208e-02 8.605997085571289062e+00 2.555114507675170898e+00 -2.941916286945343018e-01
2.542000000000000000e+03 7.474845123291015625e+01 8.356875419616699219e+00 -1.302218139171600342e-01 8.469247817993164062e+00 2.501707792282104492e+00 -2.831898629665374756e-01
2.543000000000000000e+03 7.450814056396484375e+01 5.786411762237548828e+00 -1.128343343734741211e-01 8.482581138610839844e+00 2.510923862457275391e+00 -1.843724846839904785e-01
2.544000000000000000e+03 7.537955474853515625e+01 2.933697700500488281e+00 -7.210513949394226074e-02 8.676379203796386719e+00 2.581282138824462891e+00 -9.011583775281906128e-02
2.545000000000000000e+03 7.377777099609375000e+01 -2.821843147277832031e+00 -6.584573537111282349e-02 8.358223915100097656e+00 2.487713575363159180e+00 4.120178893208503723e-02
2.546000000000000000e+03 7.369122314453125000e+01 -4.272209167480468750e+00 -6.180850043892860413e-02 8.322821617126464844e+00 2.478303909301757812e+00 6.732325255870819092e-02
2.547000000000000000e+03 7.381148529052734375e+01 -1.027558708190917969e+01 -3.676085174083709717e-02 8.262718200683593750e+00 2.467787265777587891e+00 1.443347334861755371e-01
2.548000000000000000e+03 7.386940765380859375e+01 -1.165981769561767578e+01 -3.580487146973609924e-02 8.248618125915527344e+00 2.463843822479248047e+00 1.581787616014480591e-01
2.549000000000000000e+03 7.396720123291015625e+01 -1.716621589660644531e+01 -2.323107607662677765e-02 8.134053230285644531e+00 2.433246612548828125e+00 1.991641223430633545e-01
2.550000000000000000e+03 7.394486236572265625e+01 -1.855539894104003906e+01 -1.577847264707088470e-02 8.095873832702636719e+00 2.424028635025024414e+00 2.071465551853179932e-01
2.551000000000000000e+03 7.483158111572265625e+01 1.090007591247558594e+01 -1.521680057048797607e-01 8.393280982971191406e+00 2.472333908081054688e+00 -4.045045375823974609e-01
2.552000000000000000e+03 7.394522857666015625e+01 -2.386147499084472656e+01 8.538017980754375458e-03 7.954787254333496094e+00 2.388997554779052734e+00 2.156830430030822754e-01
2.553000000000000000e+03 7.379512023925781250e+01 -2.661595535278320312e+01 1.147531345486640930e-02 7.863348960876464844e+00 2.362447261810302734e+00 2.165371030569076538e-01
2.554000000000000000e+03 7.527114868164062500e+01 -2.520793724060058594e+01 6.572391372174024582e-03 8.126073837280273438e+00 2.439793825149536133e+00 1.778239160776138306e-01
2.555000000000000000e+03 7.480720520019531250e+01 9.630736351013183594e+00 -1.486362963914871216e-01 8.437635421752929688e+00 2.486699819564819336e+00 -3.450604975223541260e-01
2.556000000000000000e+03 7.375473022460937500e+01 1.676816701889038086e+00 -1.034448668360710144e-01 8.364898681640625000e+00 2.478435993194580078e+00 -6.036382913589477539e-02
2.557000000000000000e+03 7.431438446044921875e+01 4.473520278930664062e+00 -1.105733588337898254e-01 8.463851928710937500e+00 2.505983591079711914e+00 -1.429330110549926758e-01
2.558000000000000000e+03 7.406401062011718750e+01 3.117199182510375977e+00 -1.032365858554840088e-01 8.424538612365722656e+00 2.496390581130981445e+00 -9.989792853593826294e-02
2.559000000000000000e+03 7.467853546142578125e+01 2.134844779968261719e+01 -1.853785514831542969e-01 7.614183902740478516e+00 2.228641510009765625e+00 -1.105621576309204102e+00
2.560000000000000000e+03 7.351693725585937500e+01 -5.792766571044921875e+00 -5.842294916510581970e-02 8.266605377197265625e+00 2.462454795837402344e+00 9.456814825534820557e-02
2.561000000000000000e+03 7.390804290771484375e+01 -1.303007411956787109e+01 -2.796152979135513306e-02 8.226489067077636719e+00 2.459558248519897461e+00 1.719369143247604370e-01
2.562000000000000000e+03 7.393955230712890625e+01 -1.991673469543457031e+01 -1.352431066334247589e-02 8.066749572753906250e+00 2.415967702865600586e+00 2.097035199403762817e-01
2.563000000000000000e+03 7.260609436035156250e+01 3.026112556457519531e+01 4.368870258331298828e-01 7.260455608367919922e+00 2.309202671051025391e+00 -1.396253943443298340e+00
2.564000000000000000e+03 7.387205505371093750e+01 -2.925202751159667969e+01 2.341953665018081665e-02 7.831334590911865234e+00 2.356426239013671875e+00 1.963661164045333862e-01
2.565000000000000000e+03 7.227271270751953125e+01 -3.197071838378906250e+01 5.060172080993652344e-02 7.551099300384521484e+00 2.280510425567626953e+00 1.980339139699935913e-01
2.566000000000000000e+03 6.556225299835205078e+00 3.111882591247558594e+01 -4.052425734698772430e-03 -6.689024716615676880e-02 -2.128280140459537506e-02 -1.124345138669013977e-02
2.567000000000000000e+03 7.360056304931640625e+01 3.175943756103515625e+01 4.621265530586242676e-01 6.747288227081298828e+00 2.162824392318725586e+00 -1.116076469421386719e+00
2.568000000000000000e+03 5.116993427276611328e+00 -3.043271636962890625e+01 1.461173500865697861e-02 -7.305266261100769043e-01 -2.147744745016098022e-01 -6.442149728536605835e-02
2.569000000000000000e+03 7.032454490661621094e+00 2.890518760681152344e+01 -5.127344280481338501e-03 -5.943909659981727600e-02 -1.936993189156055450e-02 -1.273009832948446274e-02
2.570000000000000000e+03 4.480515480041503906e+00 -2.679268836975097656e+01 2.028387039899826050e-02 -7.170134186744689941e-01 -2.090188711881637573e-01 -8.088534325361251831e-02
2.571000000000000000e+03 4.685537815093994141e+00 -1.034033775329589844e+01 -5.926927085965871811e-03 -2.986309826374053955e-01 -9.136737138032913208e-02 -2.224311828613281250e-01
2.572000000000000000e+03 5.498442649841308594e+00 2.488183403015136719e+01 -5.259310826659202576e-03 -8.418904244899749756e-02 -2.683450467884540558e-02 -1.777280494570732117e-02
2.573000000000000000e+03 5.949151992797851562e+00 -2.254240226745605469e+01 3.852781280875205994e-02 -5.651718378067016602e-01 -1.579931974411010742e-01 -1.402684450149536133e-01
2.574000000000000000e+03 7.457810974121093750e+01 -3.282339859008789062e+01 4.099571332335472107e-02 7.834793567657470703e+00 2.362736701965332031e+00 1.475618481636047363e-01
2.575000000000000000e+03 5.346666812896728516e+00 -1.553549766540527344e+01 3.221829980611801147e-02 -4.467580616474151611e-01 -1.243619248270988464e-01 -2.023408114910125732e-01
2.576000000000000000e+03 5.618912696838378906e+00 -1.827520370483398438e+01 3.586430475115776062e-02 -4.999230802059173584e-01 -1.392176300287246704e-01 -1.757433116436004639e-01
2.577000000000000000e+03 4.459420680999755859e+00 -1.991532135009765625e+01 2.177876979112625122e-02 -5.862312316894531250e-01 -1.693357378244400024e-01 -1.323631852865219116e-01
2.578000000000000000e+03 5.176846504211425781e+00 1.551126003265380859e+01 1.009566150605678558e-02 -9.195839613676071167e-02 -2.455881983041763306e-02 -1.938020251691341400e-02
2.579000000000000000e+03 5.216784954071044922e+00 1.830999374389648438e+01 1.064078649505972862e-03 -9.040153771638870239e-02 -2.680123783648014069e-02 -2.269831113517284393e-02
2.580000000000000000e+03 6.565900325775146484e+00 -2.810312843322753906e+01 3.748179227113723755e-02 -6.035717129707336426e-01 -1.698269844055175781e-01 -1.025450304150581360e-01
2.581000000000000000e+03 5.771103858947753906e+00 2.621903419494628906e+01 -4.427230451256036758e-03 -7.948411256074905396e-02 -2.517340332269668579e-02 -1.625274308025836945e-02
2.582000000000000000e+03 4.859367847442626953e+00 -1.159164714813232422e+01 1.465960685163736343e-02 -3.439361155033111572e-01 -9.878294914960861206e-02 -2.264808267354965210e-01
2.583000000000000000e+03 5.168593406677246094e+00 2.226980590820312500e+01 -5.038818344473838806e-03 -9.042385965585708618e-02 -2.863880433142185211e-02 -2.022879011929035187e-02
2.584000000000000000e+03 5.141671657562255859e+00 1.964962959289550781e+01 -2.489715814590454102e-03 -9.100637584924697876e-02 -2.804882824420928955e-02 -2.244258113205432892e-02
2.585000000000000000e+03 5.111255645751953125e+00 2.096269416809082031e+01 -2.298365812748670578e-03 -9.199867397546768188e-02 -2.828911133110523224e-02 -2.127904631197452545e-02
2.586000000000000000e+03 1.174321651458740234e+01 -3.218368911743164062e+01 8.277571201324462891e-02 -3.375628292560577393e-01 -7.643613964319229126e-02 -1.116237044334411621e-01
2.587000000000000000e+03 7.680028915405273438e+00 -3.374710083007812500e+01 3.836672753095626831e-02 -6.056195497512817383e-01 -1.701758503913879395e-01 -6.406939029693603516e-02
2.588000000000000000e+03 5.871526718139648438e+00 -2.110865402221679688e+01 3.365850448608398438e-02 -5.441294312477111816e-01 -1.531412750482559204e-01 -1.477941423654556274e-01
2.589000000000000000e+03 5.751510143280029297e+00 -1.968068695068359375e+01 4.432974755764007568e-02 -5.251537561416625977e-01 -1.442472040653228760e-01 -1.665939390659332275e-01
2.590000000000000000e+03 4.883464336395263672e+00 1.137994956970214844e+01 3.585692495107650757e-02 -1.093939244747161865e-01 -2.206110022962093353e-02 3.307391190901398659e-03
2.591000000000000000e+03 3.627084732055664062e+00 9.171963691711425781e+00 3.531511127948760986e-02 -1.474743932485580444e-01 -3.364778682589530945e-02 3.509023040533065796e-02
2.592000000000000000e+03 5.720852375030517578e+00 -2.879286575317382812e+01 1.940418779850006104e-02 -6.713844537734985352e-01 -1.955940723419189453e-01 -8.293317258358001709e-02
2.593000000000000000e+03 5.588416099548339844e+00 -2.785598373413085938e+01 3.064789250493049622e-02 -6.634187698364257812e-01 -1.898312568664550781e-01 -9.114468097686767578e-02
2.594000000000000000e+03 6.182266235351562500e+00 2.760631370544433594e+01 -6.282120011746883392e-03 -7.254029065370559692e-02 -2.364672347903251648e-02 -1.447699964046478271e-02
2.595000000000000000e+03 5.199555397033691406e+00 -1.419610595703125000e+01 3.439521789550781250e-02 -4.182630777359008789e-01 -1.151603609323501587e-01 -2.162141948938369751e-01
2.596000000000000000e+03 4.034157752990722656e+00 -1.440655517578125000e+01 1.625802181661128998e-02 -4.479151368141174316e-01 -1.294971406459808350e-01 -1.761763989925384521e-01
2.597000000000000000e+03 3.577321767807006836e+00 8.014686584472656250e+00 3.790352120995521545e-02 -1.441715657711029053e-01 -3.188041597604751587e-02 5.764871090650558472e-02
2.598000000000000000e+03 4.741331100463867188e+00 9.086161613464355469e+00 5.445637553930282593e-02 -1.250541359186172485e-01 -2.117932774126529694e-02 3.728116303682327271e-02
2.599000000000000000e+03 4.625123977661132812e+00 6.320923328399658203e+00 5.496341362595558167e-02 -1.332074105739593506e-01 -2.347319945693016052e-02 9.512592107057571411e-02
2.600000000000000000e+03 5.245924472808837891e+00 6.428021430969238281e+00 6.440650671720504761e-02 -1.313046663999557495e-01 -2.006944641470909119e-02 9.500826150178909302e-02
2.601000000000000000e+03 7.379666900634765625e+01 3.465027236938476562e+01 5.177098512649536133e-01 6.579365253448486328e+00 2.129122495651245117e+00 -7.127090692520141602e-01
2.602000000000000000e+03 4.316570758819580078e+00 -6.879828453063964844e+00 -4.467973485589027405e-02 -1.708177179098129272e-01 -6.464923918247222900e-02 -1.814840734004974365e-01
2.603000000000000000e+03 4.402914524078369141e+00 -7.982553482055664062e+00 -3.625201061367988586e-02 -2.104608118534088135e-01 -7.401384413242340088e-02 -1.993518024682998657e-01
2.604000000000000000e+03 5.333675384521484375e+00 -7.894892692565917969e+00 -4.181750491261482239e-02 -2.113682329654693604e-01 -7.595571875572204590e-02 -2.351976782083511353e-01
2.605000000000000000e+03 6.128754138946533203e+00 3.486325836181640625e+01 -3.643051488324999809e-03 -7.124552875757217407e-02 -2.246657386422157288e-02 -5.958072841167449951e-03
2.606000000000000000e+03 3.714913177490234375e+01 -1.240088272094726562e+01 2.103400044143199921e-02 6.468140482902526855e-01 2.003544121980667114e-01 -6.913369894027709961e-02
2.607000000000000000e+03 4.575430297851562500e+01 3.994519805908203125e+01 1.865968406200408936e-01 3.386947885155677795e-02 6.613989174365997314e-02 8.349151164293289185e-02
2.608000000000000000e+03 3.116224670410156250e+01 -5.658456325531005859e+00 1.913749873638153076e-01 -1.051487177610397339e-01 2.586788311600685120e-02 -1.464261114597320557e-02
2.609000000000000000e+03 3.190802383422851562e+01 -4.851168632507324219e+00 2.152072936296463013e-01 -5.305477231740951538e-02 4.864575713872909546e-02 -7.087396457791328430e-03
2.610000000000000000e+03 3.636642837524414062e+01 -1.143778800964355469e+01 5.388654023408889771e-02 5.070819854736328125e-01 1.682905703783035278e-01 -5.901370197534561157e-02
2.611000000000000000e+03 1.679087257385253906e+01 -1.683215332031250000e+01 1.621615588665008545e-01 4.517579916864633560e-03 5.000374466180801392e-02 -2.394110560417175293e-01
2.612000000000000000e+03 2.553307533264160156e+01 -3.081974601745605469e+01 2.074470669031143188e-01 4.015799164772033691e-01 1.827080994844436646e-01 -2.577813267707824707e-01
2.613000000000000000e+03 2.558316993713378906e+01 -2.871291542053222656e+01 1.752586364746093750e-01 4.356627762317657471e-01 1.832764148712158203e-01 -2.762216031551361084e-01
2.614000000000000000e+03 1.537004947662353516e+01 -1.265028476715087891e+01 1.649551838636398315e-01 -1.347791999578475952e-01 9.052794426679611206e-03 -2.709428668022155762e-01
2.615000000000000000e+03 1.708873558044433594e+01 -1.228195858001708984e+01 1.784805655479431152e-01 -2.193792723119258881e-02 4.696279019117355347e-02 -2.402457296848297119e-01
2.616000000000000000e+03 1.494331550598144531e+01 -9.306507110595703125e+00 1.079956814646720886e-01 -2.595243453979492188e-01 -4.545860365033149719e-02 -3.464956283569335938e-01
2.617000000000000000e+03 1.617016029357910156e+01 -1.152992343902587891e+01 1.909619569778442383e-01 -1.088849231600761414e-01 2.462311089038848877e-02 -2.635727226734161377e-01
2.618000000000000000e+03 2.859977340698242188e+01 -3.625830841064453125e+01 3.290133178234100342e-01 4.115187823772430420e-01 2.221596240997314453e-01 -2.279300242662429810e-01
2.619000000000000000e+03 5.984814071655273438e+01 3.920099258422851562e+01 -1.354775428771972656e+00 1.309409236907958984e+01 3.521795272827148438e+00 -1.904721856117248535e-01
2.620000000000000000e+03 5.810081100463867188e+01 3.967834472656250000e+01 -1.164086341857910156e+00 1.021742439270019531e+01 2.716001272201538086e+00 -2.351249933242797852e+00
2.621000000000000000e+03 3.422893142700195312e+01 -8.513147354125976562e+00 1.178597509860992432e-01 2.068298310041427612e-01 9.740687906742095947e-02 -2.594369836151599884e-02
2.622000000000000000e+03 7.184079742431640625e+01 4.104375839233398438e+01 3.217680156230926514e-01 7.622454643249511719e+00 2.383266925811767578e+00 -1.933109201490879059e-02
2.623000000000000000e+03 2.438209724426269531e+01 -2.976342773437500000e+01 2.218620479106903076e-01 3.319386541843414307e-01 1.661402136087417603e-01 -2.504056096076965332e-01
2.624000000000000000e+03 5.824774169921875000e+01 3.115488052368164062e+01 8.972677588462829590e-01 1.144073677062988281e+01 3.701401472091674805e+00 3.886037111282348633e+00
2.625000000000000000e+03 5.857249450683593750e+01 3.196414756774902344e+01 1.302447795867919922e+00 1.409157180786132812e+01 4.618205547332763672e+00 3.953172683715820312e+00
2.626000000000000000e+03 2.842554092407226562e+01 4.678329944610595703e+00 -1.011938810348510742e+00 -6.194888353347778320e-01 -4.894282817840576172e-01 -5.996157526969909668e-01
2.627000000000000000e+03 2.916134834289550781e+01 -1.495100140571594238e+00 9.960806928575038910e-03 -2.044028937816619873e-01 -5.833262577652931213e-02 1.677705161273479462e-02
2.628000000000000000e+03 2.864594268798828125e+01 4.104058742523193359e+00 -9.112782478332519531e-01 -5.252740383148193359e-01 -4.309656620025634766e-01 -4.870221018791198730e-01
2.629000000000000000e+03 2.864457130432128906e+01 3.574691772460937500e+00 -8.289837241172790527e-01 -4.578091502189636230e-01 -3.860378563404083252e-01 -4.051175117492675781e-01
2.630000000000000000e+03 2.717797470092773438e+01 3.491129875183105469e+00 -1.045756697654724121e+00 -4.782964885234832764e-01 -4.572159647941589355e-01 -5.541547536849975586e-01
2.631000000000000000e+03 2.651981925964355469e+01 3.110209226608276367e+00 -1.102581501007080078e+00 -4.431053996086120605e-01 -4.637060761451721191e-01 -5.600820183753967285e-01
2.632000000000000000e+03 2.675509262084960938e+01 2.897846221923828125e+00 -1.035673737525939941e+00 -4.055409431457519531e-01 -4.323644042015075684e-01 -4.956460595130920410e-01
2.633000000000000000e+03 2.543995666503906250e+01 2.003253698348999023e+00 -1.083946108818054199e+00 -2.738837003707885742e-01 -4.073489606380462646e-01 -4.424816668033599854e-01
2.634000000000000000e+03 2.523063278198242188e+01 1.819760441780090332e+00 -1.058306932449340820e+00 -2.852161526679992676e-01 -4.030569493770599365e-01 -4.595796167850494385e-01
2.635000000000000000e+03 2.496446609497070312e+01 2.065280675888061523e+00 -1.210303187370300293e+00 -2.755571901798248291e-01 -4.457581043243408203e-01 -5.230216383934020996e-01
2.636000000000000000e+03 2.603381347656250000e+01 2.732353925704956055e+00 -1.107668519020080566e+00 -3.766066133975982666e-01 -4.452825188636779785e-01 -5.299739241600036621e-01
2.637000000000000000e+03 2.890125083923339844e+01 4.454933166503906250e+00 -9.251133799552917480e-01 -5.332021117210388184e-01 -4.374946355819702148e-01 -5.049611330032348633e-01
2.638000000000000000e+03 2.351744079589843750e+01 1.294623017311096191e+00 -1.235335588455200195e+00 -1.987256258726119995e-01 -4.302183687686920166e-01 -5.829206705093383789e-01
2.639000000000000000e+03 1.883010101318359375e+01 1.138188171386718750e+01 1.189010366797447205e-01 1.908131986856460571e-01 9.291427582502365112e-02 1.522037237882614136e-01
2.640000000000000000e+03 1.862289047241210938e+01 1.105450248718261719e+01 1.224299967288970947e-01 1.968523561954498291e-01 9.578470885753631592e-02 1.550342142581939697e-01
2.641000000000000000e+03 4.061655426025390625e+01 1.952957153320312500e+01 -4.218611419200897217e-01 -1.858390420675277710e-01 -1.823100596666336060e-01 -3.650498688220977783e-01
2.642000000000000000e+03 5.263970565795898438e+01 3.148590469360351562e+01 8.016454577445983887e-01 4.769230186939239502e-01 3.835705518722534180e-01 7.592485547065734863e-01
2.643000000000000000e+03 4.031515502929687500e+01 1.926219558715820312e+01 -4.373431503772735596e-01 -2.131580859422683716e-01 -1.951503753662109375e-01 -3.864389061927795410e-01
2.644000000000000000e+03 1.585719776153564453e+01 8.677478790283203125e+00 1.183620020747184753e-01 2.854144871234893799e-01 1.211329400539398193e-01 1.696532368659973145e-01
2.645000000000000000e+03 1.850787925720214844e+01 1.155223369598388672e+01 1.116209924221038818e-01 1.938708126544952393e-01 9.164754301309585571e-02 1.462838500738143921e-01
2.646000000000000000e+03 3.919454193115234375e+01 1.816968154907226562e+01 -5.083648562431335449e-01 -3.263545334339141846e-01 -2.504158318042755127e-01 -4.499985873699188232e-01
2.647000000000000000e+03 1.641445732116699219e+01 8.484470367431640625e+00 1.401130855083465576e-01 2.676937282085418701e-01 1.223420426249504089e-01 1.880135834217071533e-01
2.648000000000000000e+03 1.396365356445312500e+01 6.313460350036621094e+00 9.775436669588088989e-02 5.159158706665039062e-01 1.841010600328445435e-01 1.447547823190689087e-01
2.649000000000000000e+03 1.431490135192871094e+01 5.953355312347412109e+00 1.269682198762893677e-01 5.290951132774353027e-01 1.968190073966979980e-01 2.089986056089401245e-01
2.650000000000000000e+03 3.253950119018554688e+01 2.543158721923828125e+01 6.311815232038497925e-02 9.368059039115905762e-02 4.703962057828903198e-02 7.817488908767700195e-02
2.651000000000000000e+03 2.369651031494140625e+01 1.706224060058593750e+01 8.965394645929336548e-02 1.347838342189788818e-01 6.733133643865585327e-02 1.118893474340438843e-01
2.652000000000000000e+03 2.393373107910156250e+01 1.664013862609863281e+01 9.607657045125961304e-02 1.339840739965438843e-01 6.901819258928298950e-02 1.159718707203865051e-01
2.653000000000000000e+03 3.474149322509765625e+01 2.747566795349121094e+01 5.859734117984771729e-02 8.583696186542510986e-02 4.333029314875602722e-02 7.259459048509597778e-02
2.654000000000000000e+03 4.697744750976562500e+01 2.473863220214843750e+01 -4.266719520092010498e-02 5.741336941719055176e-01 1.594399511814117432e-01 2.716293036937713623e-01
2.655000000000000000e+03 1.605394554138183594e+01 8.251763343811035156e+00 1.351650506258010864e-01 2.898295223712921143e-01 1.274983733892440796e-01 1.865832060575485229e-01
2.656000000000000000e+03 3.339897155761718750e+01 1.117875957489013672e+01 -7.799136638641357422e-01 -5.909544825553894043e-01 -4.112604558467864990e-01 -6.404600739479064941e-01
2.657000000000000000e+03 3.558563995361328125e+01 1.364787769317626953e+01 -6.790553331375122070e-01 -5.271542072296142578e-01 -3.618628680706024170e-01 -5.948116779327392578e-01
2.658000000000000000e+03 4.647408294677734375e+01 2.478574752807617188e+01 -9.778981655836105347e-02 4.145832359790802002e-01 9.503802657127380371e-02 1.653018444776535034e-01
2.659000000000000000e+03 1.749937629699707031e+01 9.449134826660156250e+00 1.417438983917236328e-01 2.282265424728393555e-01 1.109911352396011353e-01 1.726916879415512085e-01
2.660000000000000000e+03 1.653914451599121094e+01 9.022735595703125000e+00 1.307916045188903809e-01 2.556700110435485840e-01 1.159384846687316895e-01 1.744503527879714966e-01
2.661000000000000000e+03 2.429073143005371094e+01 1.693945121765136719e+01 9.583365172147750854e-02 1.312172561883926392e-01 6.811527162790298462e-02 1.141320392489433289e-01
2.662000000000000000e+03 3.388457870483398438e+01 2.635760116577148438e+01 6.427124887704849243e-02 8.944161981344223022e-02 4.611385986208915710e-02 7.594949007034301758e-02
2.663000000000000000e+03 2.114385414123535156e+01 1.326684474945068359e+01 1.196740344166755676e-01 1.622676104307174683e-01 8.458249270915985107e-02 1.383139193058013916e-01
2.664000000000000000e+03 3.365664672851562500e+01 2.619981002807617188e+01 6.456762552261352539e-02 9.203439950942993164e-02 4.698060825467109680e-02 7.475439459085464478e-02
2.665000000000000000e+03 3.295280456542968750e+01 2.555896186828613281e+01 5.837042257189750671e-02 8.968369662761688232e-02 4.441623389720916748e-02 7.485281676054000854e-02
2.666000000000000000e+03 3.069581413269042969e+01 2.258926200866699219e+01 6.831074506044387817e-02 9.435951709747314453e-02 4.880107566714286804e-02 8.507617563009262085e-02
2.667000000000000000e+03 2.358190345764160156e+01 1.466066956520080566e+00 -1.273252010345458984e+00 -2.163254022598266602e-01 -4.468732178211212158e-01 -6.275646686553955078e-01
2.668000000000000000e+03 2.373158836364746094e+01 1.120883107185363770e+00 -1.178407549858093262e+00 -1.569010019302368164e-01 -4.005925655364990234e-01 -5.357405543327331543e-01
2.669000000000000000e+03 3.216580581665039062e+01 2.519240188598632812e+01 5.945282429456710815e-02 9.056489914655685425e-02 4.500531777739524841e-02 7.620283961296081543e-02
2.670000000000000000e+03 4.749203491210937500e+01 2.549823570251464844e+01 2.103276178240776062e-02 5.875006318092346191e-01 1.825600117444992065e-01 3.190463781356811523e-01
2.671000000000000000e+03 4.811732482910156250e+01 2.701987838745117188e+01 8.681272715330123901e-02 4.128750562667846680e-01 1.499063372611999512e-01 2.699275016784667969e-01
2.672000000000000000e+03 4.371648025512695312e+01 2.221260452270507812e+01 -3.079098165035247803e-01 1.127248182892799377e-01 -5.855550244450569153e-02 -1.006924882531166077e-01
2.673000000000000000e+03 4.262733840942382812e+01 2.158348274230957031e+01 -3.723001778125762939e-01 -4.730188101530075073e-02 -1.258806139230728149e-01 -2.150462120771408081e-01
2.674000000000000000e+03 4.237050247192382812e+01 2.127966308593750000e+01 -3.760767579078674316e-01 -5.953596532344818115e-02 -1.306838095188140869e-01 -2.286521792411804199e-01
2.675000000000000000e+03 3.608020401000976562e+01 1.419286251068115234e+01 -6.524978876113891602e-01 -5.038700699806213379e-01 -3.469103872776031494e-01 -5.782866477966308594e-01
2.676000000000000000e+03 3.222768020629882812e+01 9.594006538391113281e+00 -8.029168844223022461e-01 -5.801799893379211426e-01 -4.149290621280670166e-01 -5.729704499244689941e-01
2.677000000000000000e+03 4.564302062988281250e+01 2.455220413208007812e+01 -1.828652918338775635e-01 2.128699719905853271e-01 9.001406840980052948e-03 2.525735087692737579e-02
2.678000000000000000e+03 4.619009780883789062e+01 2.454521942138671875e+01 -1.244775429368019104e-01 3.765752017498016357e-01 7.562929391860961914e-02 1.334284543991088867e-01
2.679000000000000000e+03 3.629603958129882812e+01 1.497510433197021484e+01 -6.464070081710815430e-01 -5.598802566528320312e-01 -3.618861734867095947e-01 -6.075072884559631348e-01
2.680000000000000000e+03 4.397923278808593750e+01 2.248185920715332031e+01 -2.931857705116271973e-01 1.337143927812576294e-01 -4.784141108393669128e-02 -8.065636456012725830e-02
2.681000000000000000e+03 3.480930709838867188e+01 1.324834060668945312e+01 -7.247898578643798828e-01 -6.186224818229675293e-01 -4.030236899852752686e-01 -6.523692011833190918e-01
2.682000000000000000e+03 3.535081100463867188e+01 1.336821174621582031e+01 -6.879548430442810059e-01 -5.363451242446899414e-01 -3.672899901866912842e-01 -6.010960936546325684e-01
2.683000000000000000e+03 5.001307678222656250e+01 2.885397529602050781e+01 3.370651006698608398e-01 5.141773819923400879e-01 2.553727626800537109e-01 4.766367971897125244e-01
2.684000000000000000e+03 1.938884925842285156e+01 1.262685585021972656e+01 1.064576059579849243e-01 1.774494349956512451e-01 8.517211675643920898e-02 1.368837803602218628e-01
2.685000000000000000e+03 4.862261199951171875e+01 2.755501174926757812e+01 1.437902152538299561e-01 4.365024268627166748e-01 1.740877926349639893e-01 3.153999447822570801e-01
2.686000000000000000e+03 4.836574935913085938e+01 2.729117012023925781e+01 1.137059405446052551e-01 4.222129881381988525e-01 1.607756763696670532e-01 2.909061014652252197e-01
2.687000000000000000e+03 2.795606422424316406e+01 1.997846412658691406e+01 8.511582762002944946e-02 1.078012660145759583e-01 5.787512660026550293e-02 9.723638743162155151e-02
2.688000000000000000e+03 3.633491897583007812e+01 1.446917724609375000e+01 -6.371057033538818359e-01 -4.905766844749450684e-01 -3.383047282695770264e-01 -5.685462951660156250e-01
2.689000000000000000e+03 4.320374298095703125e+01 2.165951347351074219e+01 -3.307816982269287109e-01 7.456473261117935181e-02 -7.686509191989898682e-02 -1.356388330459594727e-01
2.690000000000000000e+03 2.195143127441406250e+01 1.393118381500244141e+01 1.196738332509994507e-01 1.554845124483108521e-01 8.254750072956085205e-02 1.325424611568450928e-01
2.691000000000000000e+03 2.773175621032714844e+01 1.970405197143554688e+01 8.472426235675811768e-02 1.118257790803909302e-01 5.896501243114471436e-02 9.855831414461135864e-02
2.692000000000000000e+03 2.743488693237304688e+01 1.987274551391601562e+01 8.412700891494750977e-02 1.124951913952827454e-01 5.898666009306907654e-02 9.867183119058609009e-02
2.693000000000000000e+03 2.725852203369140625e+01 1.960979461669921875e+01 8.367249369621276855e-02 1.151902601122856140e-01 5.965882912278175354e-02 9.964783489704132080e-02
2.694000000000000000e+03 2.709189414978027344e+01 1.887899398803710938e+01 9.336923062801361084e-02 1.152521297335624695e-01 6.258641183376312256e-02 1.033934578299522400e-01
2.695000000000000000e+03 2.293201446533203125e+01 1.497759914398193359e+01 1.108981519937515259e-01 1.480276733636856079e-01 7.767774909734725952e-02 1.252030134201049805e-01
2.696000000000000000e+03 3.865983963012695312e+01 1.759949302673339844e+01 -5.416473746299743652e-01 -3.855826258659362793e-01 -2.781690061092376709e-01 -4.752366840839385986e-01
2.697000000000000000e+03 3.815189361572265625e+01 3.188101959228515625e+01 7.133228331804275513e-02 8.210116624832153320e-02 4.603003710508346558e-02 6.315199285745620728e-02
2.698000000000000000e+03 3.915895080566406250e+01 3.180055236816406250e+01 7.950575649738311768e-02 8.265350759029388428e-02 4.864777997136116028e-02 6.735046952962875366e-02
2.699000000000000000e+03 1.682194328308105469e+01 9.187587738037109375e+00 1.341308057308197021e-01 2.478732615709304810e-01 1.146012246608734131e-01 1.724057495594024658e-01
2.700000000000000000e+03 1.673609161376953125e+01 8.705317497253417969e+00 1.443648487329483032e-01 2.555600404739379883e-01 1.199774667620658875e-01 1.840562969446182251e-01
2.701000000000000000e+03 3.590484619140625000e+01 2.836985778808593750e+01 7.084983587265014648e-02 8.992234617471694946e-02 4.823165386915206909e-02 7.417062669992446899e-02
2.702000000000000000e+03 3.468610000610351562e+01 2.791348075866699219e+01 6.561157852411270142e-02 9.155938774347305298e-02 4.715128988027572632e-02 7.279046624898910522e-02
2.703000000000000000e+03 1.979331588745117188e+01 1.267267990112304688e+01 1.114859580993652344e-01 1.739899516105651855e-01 8.564276993274688721e-02 1.384833753108978271e-01
2.704000000000000000e+03 1.896241188049316406e+01 1.175970554351806641e+01 1.154368594288825989e-01 1.870493441820144653e-01 9.074585884809494019e-02 1.465407162904739380e-01
2.705000000000000000e+03 2.626121711730957031e+01 1.828816604614257812e+01 9.514872729778289795e-02 1.214667931199073792e-01 6.498465687036514282e-02 1.056166142225265503e-01
2.706000000000000000e+03 4.793624496459960938e+01 2.621511459350585938e+01 7.911060750484466553e-02 5.578707456588745117e-01 1.910943984985351562e-01 3.395621478557586670e-01
2.707000000000000000e+03 4.944127273559570312e+01 2.833163070678710938e+01 2.504636645317077637e-01 4.856679737567901611e-01 2.208394855260848999e-01 4.067611098289489746e-01
2.708000000000000000e+03 4.424505615234375000e+01 2.274897384643554688e+01 -2.772873938083648682e-01 1.571588069200515747e-01 -3.603857383131980896e-02 -5.787696316838264465e-02
2.709000000000000000e+03 3.659223175048828125e+01 1.474995708465576172e+01 -6.253452897071838379e-01 -4.771341681480407715e-01 -3.307438492774963379e-01 -5.554125905036926270e-01
2.710000000000000000e+03 5.030373001098632812e+01 2.912228965759277344e+01 3.871144056320190430e-01 5.223646163940429688e-01 2.728437185287475586e-01 5.123072266578674316e-01
2.711000000000000000e+03 5.110337066650390625e+01 2.938903045654296875e+01 5.738535523414611816e-01 7.415952682495117188e-01 3.946346640586853027e-01 7.575602531433105469e-01
2.712000000000000000e+03 3.362778854370117188e+01 1.165630817413330078e+01 -7.795885205268859863e-01 -6.085554957389831543e-01 -4.164431989192962646e-01 -6.653606295585632324e-01
2.713000000000000000e+03 3.685091400146484375e+01 1.503489494323730469e+01 -6.117095351219177246e-01 -4.624817967414855957e-01 -3.222573995590209961e-01 -5.428571105003356934e-01
2.714000000000000000e+03 3.711043548583984375e+01 1.532301998138427734e+01 -6.013306975364685059e-01 -4.475953578948974609e-01 -3.146778047084808350e-01 -5.278650522232055664e-01
2.715000000000000000e+03 3.737064361572265625e+01 1.561343097686767578e+01 -5.893571376800537109e-01 -4.311118125915527344e-01 -3.061406910419464111e-01 -5.139837861061096191e-01
2.716000000000000000e+03 4.073412322998046875e+01 3.260182571411132812e+01 9.000856429338455200e-02 7.991897314786911011e-02 5.097826197743415833e-02 7.426387071609497070e-02
2.717000000000000000e+03 4.073085784912109375e+01 3.353699874877929688e+01 8.754505217075347900e-02 8.577512204647064209e-02 5.199605226516723633e-02 6.451293081045150757e-02
2.718000000000000000e+03 3.582966995239257812e+01 1.392040920257568359e+01 -6.645640730857849121e-01 -5.156299471855163574e-01 -3.540582060813903809e-01 -5.885384082794189453e-01
2.719000000000000000e+03 3.313521575927734375e+01 1.094631290435791016e+01 -8.007451295852661133e-01 -5.981570482254028320e-01 -4.196706414222717285e-01 -6.399887204170227051e-01
2.720000000000000000e+03 3.323803710937500000e+01 1.146722221374511719e+01 -8.171223402023315430e-01 -6.441981792449951172e-01 -4.383961558341979980e-01 -6.921787858009338379e-01
2.721000000000000000e+03 3.813055419921875000e+01 1.701688575744628906e+01 -5.683308839797973633e-01 -4.406454265117645264e-01 -3.026928901672363281e-01 -5.026358366012573242e-01
2.722000000000000000e+03 4.124927902221679688e+01 2.007250213623046875e+01 -3.933149874210357666e-01 -1.306925714015960693e-01 -1.572022736072540283e-01 -3.120331764221191406e-01
2.723000000000000000e+03 4.535683822631835938e+01 2.429514503479003906e+01 -2.075327932834625244e-01 1.796469390392303467e-01 -8.365754038095474243e-03 -1.891222200356423855e-03
2.724000000000000000e+03 4.451356506347656250e+01 2.301415061950683594e+01 -2.599762678146362305e-01 1.811456084251403809e-01 -2.364919520914554596e-02 -3.391477838158607483e-02
2.725000000000000000e+03 2.647099304199218750e+01 1.795107841491699219e+01 1.011747792363166809e-01 1.204892843961715698e-01 6.649921834468841553e-02 1.079755872488021851e-01
2.726000000000000000e+03 3.839477539062500000e+01 1.730910491943359375e+01 -5.552313923835754395e-01 -4.139674901962280273e-01 -2.907596826553344727e-01 -4.891245365142822266e-01
2.727000000000000000e+03 3.402081298828125000e+01 2.662036705017089844e+01 5.829558521509170532e-02 8.874242752790451050e-02 4.411140084266662598e-02 7.100603729486465454e-02
2.728000000000000000e+03 3.359010314941406250e+01 2.567691421508789062e+01 6.458506733179092407e-02 9.156090021133422852e-02 4.684378951787948608e-02 7.703056931495666504e-02
2.729000000000000000e+03 3.441418075561523438e+01 2.736684608459472656e+01 5.948173627257347107e-02 9.334392845630645752e-02 4.584769904613494873e-02 7.268276065587997437e-02
2.730000000000000000e+03 5.141415786743164062e+01 2.967898941040039062e+01 6.477860808372497559e-01 7.601741552352905273e-01 4.223880767822265625e-01 8.133673071861267090e-01
2.731000000000000000e+03 2.684434318542480469e+01 1.871504020690917969e+01 9.360833466053009033e-02 1.181573718786239624e-01 6.352970749139785767e-02 1.039759144186973572e-01
2.732000000000000000e+03 2.376436614990234375e+01 -8.267948031425476074e-01 -3.905183970928192139e-01 1.588440835475921631e-01 -6.950229406356811523e-02 -1.126458048820495605e-01
2.733000000000000000e+03 4.972554779052734375e+01 2.859098815917968750e+01 2.937897443771362305e-01 5.000456571578979492e-01 2.381506115198135376e-01 4.409325420856475830e-01
2.734000000000000000e+03 4.295552062988281250e+01 2.136894798278808594e+01 -3.383155167102813721e-01 6.033063679933547974e-02 -8.339546620845794678e-02 -1.513377130031585693e-01
2.735000000000000000e+03 4.916148376464843750e+01 2.807373428344726562e+01 2.128509134054183960e-01 4.680183827877044678e-01 2.042607814073562622e-01 3.734078705310821533e-01
2.736000000000000000e+03 2.218971252441406250e+01 1.420807170867919922e+01 1.173027455806732178e-01 1.536892354488372803e-01 8.129759877920150757e-02 1.302485615015029907e-01
2.737000000000000000e+03 2.173217010498046875e+01 1.418771362304687500e+01 1.125167980790138245e-01 1.556839644908905029e-01 8.046022802591323853e-02 1.291987299919128418e-01
2.738000000000000000e+03 4.888813018798828125e+01 2.781526756286621094e+01 1.763269305229187012e-01 4.516128897666931152e-01 1.883819401264190674e-01 3.437642753124237061e-01
2.739000000000000000e+03 4.859720230102539062e+01 2.705533599853515625e+01 1.548230350017547607e-01 5.654821991920471191e-01 2.160915583372116089e-01 3.881138265132904053e-01
2.740000000000000000e+03 2.568116760253906250e+01 1.783034706115722656e+01 9.718617051839828491e-02 1.238350421190261841e-01 6.630636751651763916e-02 1.077273562550544739e-01
2.741000000000000000e+03 3.976854705810546875e+01 3.352560043334960938e+01 6.548127532005310059e-02 4.634904861450195312e-02 3.354909643530845642e-02 5.489195138216018677e-02
2.742000000000000000e+03 3.763147354125976562e+01 1.590525722503662109e+01 -5.797891020774841309e-01 -4.133847653865814209e-01 -2.979521453380584717e-01 -4.983274042606353760e-01
2.743000000000000000e+03 1.945719146728515625e+01 1.211145687103271484e+01 1.176369488239288330e-01 1.791782379150390625e-01 8.904455602169036865e-02 1.444779783487319946e-01
2.744000000000000000e+03 2.243245887756347656e+01 1.449371910095214844e+01 1.154376566410064697e-01 1.516313850879669189e-01 8.012071251869201660e-02 1.277433484792709351e-01
2.745000000000000000e+03 5.173607635498046875e+01 2.998650550842285156e+01 7.208664417266845703e-01 7.651905417442321777e-01 4.458170831203460693e-01 8.737019300460815430e-01
2.746000000000000000e+03 3.104706954956054688e+01 2.285273361206054688e+01 6.732383370399475098e-02 9.450583159923553467e-02 4.854889959096908569e-02 8.502941578626632690e-02
2.747000000000000000e+03 4.086283493041992188e+01 3.462689208984375000e+01 1.091025695204734802e-01 2.972264774143695831e-02 4.164756461977958679e-02 5.679678544402122498e-02
2.748000000000000000e+03 2.683873176574707031e+01 1.904562759399414062e+01 8.759128302335739136e-02 1.175982430577278137e-01 6.155685707926750183e-02 1.013080775737762451e-01
2.749000000000000000e+03 2.597522163391113281e+01 1.804675102233886719e+01 9.648920595645904541e-02 1.217966377735137939e-01 6.548575311899185181e-02 1.064188107848167419e-01
2.750000000000000000e+03 2.998003196716308594e+01 2.236639785766601562e+01 7.067013531923294067e-02 9.970442205667495728e-02 5.111236870288848877e-02 8.643639832735061646e-02
2.751000000000000000e+03 2.948913192749023438e+01 2.188968276977539062e+01 7.378295809030532837e-02 1.020405665040016174e-01 5.274705588817596436e-02 8.825275301933288574e-02
2.752000000000000000e+03 3.975567245483398438e+01 1.818508911132812500e+01 -4.745454192161560059e-01 -2.047274261713027954e-01 -2.037818580865859985e-01 -3.886685073375701904e-01
2.753000000000000000e+03 5.349882125854492188e+01 3.198101615905761719e+01 1.106417536735534668e+00 7.427921891212463379e-01 5.547628998756408691e-01 9.584004878997802734e-01
2.754000000000000000e+03 3.789287185668945312e+01 1.619751739501953125e+01 -5.687659978866577148e-01 -3.931633532047271729e-01 -2.885788083076477051e-01 -4.841342270374298096e-01
2.755000000000000000e+03 3.815486907958984375e+01 1.648910713195800781e+01 -5.591682791709899902e-01 -3.708058893680572510e-01 -2.789922356605529785e-01 -4.686259925365447998e-01
2.756000000000000000e+03 5.274670791625976562e+01 3.115393447875976562e+01 9.357647895812988281e-01 7.136389613151550293e-01 4.948211312294006348e-01 9.570106863975524902e-01
2.757000000000000000e+03 5.218358993530273438e+01 3.087537384033203125e+01 7.645519375801086426e-01 5.403219461441040039e-01 3.914621770381927490e-01 7.847934365272521973e-01
2.758000000000000000e+03 4.156613159179687500e+01 2.035524177551269531e+01 -3.855552077293395996e-01 -1.087518110871315002e-01 -1.482920944690704346e-01 -2.856491506099700928e-01
2.759000000000000000e+03 4.225090789794921875e+01 2.037559700012207031e+01 -3.472730815410614014e-01 4.358615353703498840e-02 -9.110607951879501343e-02 -1.894462853670120239e-01
2.760000000000000000e+03 2.098482513427734375e+01 1.362184906005859375e+01 1.122370138764381409e-01 1.619399040937423706e-01 8.225307613611221313e-02 1.331248581409454346e-01
2.761000000000000000e+03 4.345771789550781250e+01 2.193943977355957031e+01 -3.206228315830230713e-01 9.264673292636871338e-02 -6.839282810688018799e-02 -1.197869777679443359e-01
2.762000000000000000e+03 3.894635772705078125e+01 1.735356903076171875e+01 -5.227640271186828613e-01 -2.911870479583740234e-01 -2.441853284835815430e-01 -4.286271929740905762e-01
2.763000000000000000e+03 5.413798141479492188e+01 3.246087265014648438e+01 1.393070220947265625e+00 8.944839239120483398e-01 6.862662434577941895e-01 9.773226380348205566e-01
2.764000000000000000e+03 3.612301254272460938e+01 1.370726871490478516e+01 -6.408320665359497070e-01 -4.397463500499725342e-01 -3.241735398769378662e-01 -5.381506681442260742e-01
2.765000000000000000e+03 5.396464920043945312e+01 3.181381034851074219e+01 1.483775138854980469e+00 1.210748314857482910e+00 8.083570599555969238e-01 1.378064513206481934e+00
2.766000000000000000e+03 5.363978958129882812e+01 3.163588142395019531e+01 1.291928768157958984e+00 1.065551638603210449e+00 7.072440981864929199e-01 1.259399652481079102e+00
2.767000000000000000e+03 1.772172355651855469e+01 9.737399101257324219e+00 1.380582451820373535e-01 2.242225557565689087e-01 1.086842417716979980e-01 1.673622578382492065e-01
2.768000000000000000e+03 3.025015640258789062e+01 5.207844734191894531e+00 -7.926267981529235840e-01 -3.761903047561645508e-01 -3.506451249122619629e-01 -5.148591399192810059e-01
2.769000000000000000e+03 3.168019676208496094e+01 5.686066150665283203e+00 -5.631565451622009277e-01 -3.296662867069244385e-01 -2.678468525409698486e-01 -4.575304687023162842e-01
2.770000000000000000e+03 3.410277557373046875e+01 1.167964076995849609e+01 -7.337867617607116699e-01 -5.520574450492858887e-01 -3.857532739639282227e-01 -6.112701892852783203e-01
2.771000000000000000e+03 3.612239456176757812e+01 3.001042175292968750e+01 5.776076763868331909e-02 7.800652831792831421e-02 4.073018953204154968e-02 6.439539790153503418e-02
2.772000000000000000e+03 3.620979690551757812e+01 2.843394279479980469e+01 6.603128463029861450e-02 8.233424276113510132e-02 4.450966045260429382e-02 6.959762424230575562e-02
2.773000000000000000e+03 1.562220764160156250e+01 8.062938690185546875e+00 1.266869306564331055e-01 3.094579577445983887e-01 1.308434754610061646e-01 1.817582249641418457e-01
2.774000000000000000e+03 1.473296260833740234e+01 7.643362522125244141e+00 1.056419312953948975e-01 3.623926639556884766e-01 1.404103785753250122e-01 1.587985455989837646e-01
2.775000000000000000e+03 2.535647964477539062e+01 1.765485954284667969e+01 9.626998752355575562e-02 1.241467967629432678e-01 6.612503528594970703e-02 1.087025552988052368e-01
2.776000000000000000e+03 2.354350090026855469e+01 1.635546302795410156e+01 9.634733200073242188e-02 1.383798718452453613e-01 7.041816413402557373e-02 1.174725219607353210e-01
2.777000000000000000e+03 3.515920639038085938e+01 2.787993621826171875e+01 5.953834950923919678e-02 8.416912704706192017e-02 4.311224445700645447e-02 7.120857387781143188e-02
2.778000000000000000e+03 4.478517532348632812e+01 2.327725028991699219e+01 -2.415823936462402344e-01 2.086187005043029785e-01 -9.889104403555393219e-03 -8.425733074545860291e-03
2.779000000000000000e+03 4.506042861938476562e+01 2.353797721862792969e+01 -2.219596356153488159e-01 2.378242909908294678e-01 4.759399220347404480e-03 1.840670593082904816e-02
2.780000000000000000e+03 3.179366683959960938e+01 2.491765022277832031e+01 6.269999593496322632e-02 9.316767007112503052e-02 4.676029831171035767e-02 7.978326082229614258e-02
2.781000000000000000e+03 3.180512619018554688e+01 2.427933311462402344e+01 6.125105917453765869e-02 9.346384555101394653e-02 4.641447216272354126e-02 8.062068372964859009e-02
2.782000000000000000e+03 2.125800132751464844e+01 1.376650047302246094e+01 1.135223880410194397e-01 1.597259193658828735e-01 8.197449147701263428e-02 1.324222534894943237e-01
2.783000000000000000e+03 3.597233581542968750e+01 2.923219299316406250e+01 6.904350221157073975e-02 8.318289369344711304e-02 4.566792026162147522e-02 7.099299132823944092e-02
2.784000000000000000e+03 5.246606826782226562e+01 3.100616264343261719e+01 8.571925759315490723e-01 6.385930776596069336e-01 4.487356841564178467e-01 8.869176506996154785e-01
2.785000000000000000e+03 5.373981094360351562e+01 3.127234649658203125e+01 1.409437417984008789e+00 1.370142340660095215e+00 8.338739275932312012e-01 1.525594115257263184e+00
2.786000000000000000e+03 5.685705947875976562e+01 3.194059562683105469e+01 2.824303150177001953e+00 6.318567276000976562e+00 2.742861032485961914e+00 4.535433292388916016e+00
2.787000000000000000e+03 2.278607177734375000e+01 1.524517345428466797e+01 1.052711308002471924e-01 1.475558578968048096e-01 7.584809511899948120e-02 1.228757426142692566e-01
2.788000000000000000e+03 2.246371459960937500e+01 1.508692169189453125e+01 1.046488061547279358e-01 1.491838097572326660e-01 7.614978402853012085e-02 1.218895763158798218e-01
2.789000000000000000e+03 5.228377151489257812e+01 3.023266029357910156e+01 8.779560923576354980e-01 9.565358757972717285e-01 5.503475666046142578e-01 1.071069955825805664e+00
2.790000000000000000e+03 5.224269104003906250e+01 3.056754112243652344e+01 8.361144065856933594e-01 7.193736433982849121e-01 4.666464030742645264e-01 9.244506359100341797e-01
2.791000000000000000e+03 2.005135536193847656e+01 1.321210289001464844e+01 1.069410964846611023e-01 1.694812625646591187e-01 8.292670547962188721e-02 1.333090960979461670e-01
2.792000000000000000e+03 1.970569610595703125e+01 1.311682701110839844e+01 1.037068739533424377e-01 1.720429062843322754e-01 8.272493630647659302e-02 1.322276145219802856e-01
2.793000000000000000e+03 4.590604782104492188e+01 2.429975128173828125e+01 -1.493903845548629761e-01 3.412325680255889893e-01 5.755265429615974426e-02 1.038681194186210632e-01
2.794000000000000000e+03 3.418724441528320312e+01 2.709523200988769531e+01 6.481830030679702759e-02 8.560535311698913574e-02 4.512709751725196838e-02 7.395649701356887817e-02
2.795000000000000000e+03 3.475166320800781250e+01 1.242683887481689453e+01 -7.097567319869995117e-01 -5.318917036056518555e-01 -3.724945485591888428e-01 -5.986649394035339355e-01
2.796000000000000000e+03 5.333060073852539062e+01 3.146533584594726562e+01 1.151204824447631836e+00 9.261864423751831055e-01 6.232174038887023926e-01 1.154343128204345703e+00
2.797000000000000000e+03 5.303354644775390625e+01 3.130615615844726562e+01 1.037830352783203125e+00 8.258014321327209473e-01 5.590895414352416992e-01 1.061904549598693848e+00
2.798000000000000000e+03 3.238595581054687500e+01 8.695527076721191406e+00 -6.664587259292602539e-01 -5.064959526062011719e-01 -3.518863916397094727e-01 -4.806433916091918945e-01
2.799000000000000000e+03 3.549388122558593750e+01 2.884734535217285156e+01 7.078882306814193726e-02 8.767946809530258179e-02 4.754048585891723633e-02 7.240004092454910278e-02
2.800000000000000000e+03 1.835522651672363281e+01 1.075930213928222656e+01 1.223260462284088135e-01 2.038078606128692627e-01 9.784016758203506470e-02 1.581493616104125977e-01
2.801000000000000000e+03 3.368534469604492188e+01 1.128846359252929688e+01 -7.515858411788940430e-01 -5.557456016540527344e-01 -3.921994268894195557e-01 -6.168428063392639160e-01
2.802000000000000000e+03 3.553177261352539062e+01 2.835131263732910156e+01 5.886818096041679382e-02 8.415143936872482300e-02 4.290588572621345520e-02 6.823406368494033813e-02
2.803000000000000000e+03 1.621496772766113281e+01 8.849311828613281250e+00 1.257533282041549683e-01 2.710033655166625977e-01 1.190270036458969116e-01 1.727098077535629272e-01
2.804000000000000000e+03 1.365176773071289062e+01 5.999381542205810547e+00 9.670464694499969482e-02 5.680152177810668945e-01 1.994159668684005737e-01 1.018720418214797974e-01
2.805000000000000000e+03 1.773882293701171875e+01 1.058508968353271484e+01 1.167365014553070068e-01 2.141274362802505493e-01 9.925918281078338623e-02 1.544478386640548706e-01
2.806000000000000000e+03 2.287883186340332031e+01 3.445030748844146729e-01 -1.059867024421691895e+00 3.044390305876731873e-02 -3.088269233703613281e-01 -5.106739401817321777e-01
2.807000000000000000e+03 2.299844551086425781e+01 -4.362180531024932861e-01 -6.963199377059936523e-01 1.793166100978851318e-01 -1.551010012626647949e-01 -3.777118623256683350e-01
2.808000000000000000e+03 1.466175746917724609e+01 6.923823356628417969e+00 1.210592314600944519e-01 4.070282280445098877e-01 1.584262400865554810e-01 1.825411319732666016e-01
2.809000000000000000e+03 6.076984405517578125e+01 3.143970298767089844e+01 1.216431021690368652e+00 1.443050575256347656e+01 4.694081306457519531e+00 -4.839297533035278320e-01
2.810000000000000000e+03 1.285275173187255859e+01 4.973425388336181641e+00 1.748172342777252197e-01 6.581857204437255859e-01 2.499008923768997192e-01 -1.005957350134849548e-01
2.811000000000000000e+03 1.310102558135986328e+01 5.314809799194335938e+00 1.278066039085388184e-01 6.534007787704467773e-01 2.343622148036956787e-01 -3.657383099198341370e-02
2.812000000000000000e+03 2.779965782165527344e+01 -1.220085263252258301e+00 -7.205707579851150513e-02 -2.450563907623291016e-01 -9.513404220342636108e-02 -2.262473851442337036e-02
2.813000000000000000e+03 2.454356575012207031e+01 -9.238975048065185547e-01 -5.388721078634262085e-02 3.963231667876243591e-02 -4.276467487215995789e-03 -3.654575347900390625e-02
2.814000000000000000e+03 2.504893112182617188e+01 1.632043838500976562e+00 -1.081556797027587891e+00 -2.166603058576583862e-01 -3.894651532173156738e-01 -4.358565211296081543e-01
2.815000000000000000e+03 3.629045486450195312e+01 2.951049232482910156e+01 6.762064993381500244e-02 9.031724929809570312e-02 4.738137125968933105e-02 7.071669399738311768e-02
2.816000000000000000e+03 1.430928421020507812e+01 6.615129947662353516e+00 1.121134310960769653e-01 4.559707045555114746e-01 1.704252362251281738e-01 1.666769981384277344e-01
2.817000000000000000e+03 2.629593276977539062e+01 -2.902071550488471985e-02 -3.631733059883117676e-01 -1.624222099781036377e-01 -1.576786488294601440e-01 -7.516248524188995361e-02
2.818000000000000000e+03 3.078690719604492188e+01 2.323036003112792969e+01 6.519555300474166870e-02 9.301396459341049194e-02 4.746285453438758850e-02 8.396469056606292725e-02
2.819000000000000000e+03 3.937988662719726562e+01 3.133171081542968750e+01 7.350537180900573730e-02 5.774705111980438232e-02 3.937572613358497620e-02 6.605042517185211182e-02
2.820000000000000000e+03 3.945151901245117188e+01 3.242245864868164062e+01 8.186300843954086304e-02 8.293429762125015259e-02 4.943919181823730469e-02 6.691341102123260498e-02
2.821000000000000000e+03 2.314137458801269531e+01 1.040276408195495605e+00 -1.224202871322631836e+00 -1.295989453792572021e-01 -4.061405360698699951e-01 -6.255059242248535156e-01
2.822000000000000000e+03 3.143419075012207031e+01 2.375972175598144531e+01 6.498148292303085327e-02 8.969345688819885254e-02 4.640248045325279236e-02 8.113447576761245728e-02
2.823000000000000000e+03 3.223700714111328125e+01 6.567713737487792969e+00 -5.122588276863098145e-01 -3.680343031883239746e-01 -2.640879452228546143e-01 -4.404102563858032227e-01
2.824000000000000000e+03 5.302497863769531250e+00 4.462280750274658203e+00 1.887558773159980774e-02 -1.207047924399375916e-01 -3.054876066744327545e-02 1.490857452154159546e-01
2.825000000000000000e+03 5.295134544372558594e+00 7.046883106231689453e+00 7.636763155460357666e-02 -1.291584670543670654e-01 -1.583725400269031525e-02 7.762120664119720459e-02
2.826000000000000000e+03 5.756746673583984375e+01 3.811744308471679688e+01 -6.113592535257339478e-02 9.017482757568359375e+00 2.686903953552246094e+00 -3.010206937789916992e+00
2.827000000000000000e+03 6.298313617706298828e+00 4.706150054931640625e+00 5.476081371307373047e-02 -1.400625258684158325e-01 -2.559051103889942169e-02 1.539168953895568848e-01
2.828000000000000000e+03 6.282229900360107422e+00 5.860312461853027344e+00 1.002418771386146545e-01 -1.389142870903015137e-01 -1.160172373056411743e-02 1.078881397843360901e-01
2.829000000000000000e+03 4.892235755920410156e+00 5.718584060668945312e+00 4.644054546952247620e-02 -1.276804059743881226e-01 -2.437195740640163422e-02 1.142715215682983398e-01
2.830000000000000000e+03 6.246781921386718750e+01 3.080732154846191406e+01 1.265649437904357910e+00 1.248732376098632812e+01 4.125891685485839844e+00 -1.356620073318481445e+00
2.831000000000000000e+03 5.243462562561035156e+00 5.247213363647460938e+00 4.179790243506431580e-02 -1.274276077747344971e-01 -2.568891085684299469e-02 1.271939724683761597e-01
2.832000000000000000e+03 5.714412212371826172e+00 4.936321258544921875e+00 4.629056900739669800e-02 -1.276681572198867798e-01 -2.441327832639217377e-02 1.394841223955154419e-01
2.833000000000000000e+03 5.923378372192382812e+01 3.137906455993652344e+01 5.254847407341003418e-01 1.472086811065673828e+01 4.573905944824218750e+00 2.338136434555053711e+00
2.834000000000000000e+03 6.023861694335937500e+01 3.142671012878417969e+01 9.299730658531188965e-01 1.472358131408691406e+01 4.696066379547119141e+00 2.022815346717834473e-01
2.835000000000000000e+03 7.483429908752441406e+00 5.500576019287109375e+00 1.427696049213409424e-01 -1.452007293701171875e-01 -7.293351227417588234e-04 9.903852641582489014e-02
2.836000000000000000e+03 4.422426605224609375e+01 3.616981124877929688e+01 6.772768497467041016e-02 7.028987258672714233e-02 4.140526801347732544e-02 7.223840802907943726e-02
2.837000000000000000e+03 4.199778366088867188e+01 3.507850646972656250e+01 8.016280829906463623e-02 3.318443894386291504e-02 3.400417417287826538e-02 4.971547424793243408e-02
2.838000000000000000e+03 5.202443599700927734e+00 -6.826736450195312500e+00 -6.753813475370407104e-02 -1.671861112117767334e-01 -7.041727751493453979e-02 -2.129430174827575684e-01
2.839000000000000000e+03 2.674179077148437500e+01 -9.555703997611999512e-01 -1.222659349441528320e-01 -1.923796683549880981e-01 -9.439367800951004028e-02 -5.485414713621139526e-02
2.840000000000000000e+03 3.635254287719726562e+01 3.043245124816894531e+01 6.210564821958541870e-02 7.765190303325653076e-02 4.192726686596870422e-02 6.180190667510032654e-02
2.841000000000000000e+03 3.676015472412109375e+01 2.959770584106445312e+01 6.138128414750099182e-02 7.720080018043518066e-02 4.157462716102600098e-02 6.563994288444519043e-02
2.842000000000000000e+03 8.664694786071777344e+00 -7.179173469543457031e+00 -9.756899625062942505e-02 -2.063100934028625488e-01 -9.116372466087341309e-02 -3.494332134723663330e-01
2.843000000000000000e+03 6.721048355102539062e+00 -5.634458541870117188e+00 -1.217718347907066345e-01 -1.301103234291076660e-01 -7.556464523077011108e-02 -2.444955259561538696e-01
2.844000000000000000e+03 3.216203308105468750e+01 8.167613029479980469e+00 -5.984914898872375488e-01 -5.160682797431945801e-01 -3.343679308891296387e-01 -4.703016877174377441e-01
2.845000000000000000e+03 3.305156326293945312e+01 1.036137866973876953e+01 -7.753198742866516113e-01 -5.569032430648803711e-01 -3.996669352054595947e-01 -5.889569520950317383e-01
2.846000000000000000e+03 2.876310729980468750e+01 -2.381292581558227539e+00 1.197853237390518188e-01 -1.934587061405181885e-01 -2.210201509296894073e-02 1.455156598240137100e-02
2.847000000000000000e+03 6.885382175445556641e+00 -6.607849121093750000e+00 -1.061684340238571167e-01 -1.615181118249893188e-01 -8.030596375465393066e-02 -2.727583050727844238e-01
2.848000000000000000e+03 9.109165191650390625e+00 4.552733898162841797e+00 2.285077273845672607e-01 -1.764429956674575806e-01 1.561942044645547867e-02 9.410745650529861450e-02
2.849000000000000000e+03 8.328591346740722656e+00 6.306526184082031250e+00 1.836496293544769287e-01 -9.722124040126800537e-02 2.592851966619491577e-02 2.810319513082504272e-02
2.850000000000000000e+03 1.187049007415771484e+01 -6.019433498382568359e+00 -1.952289193868637085e-01 -2.529188394546508789e-01 -1.344443261623382568e-01 -4.674165546894073486e-01
2.851000000000000000e+03 9.701790809631347656e+00 -5.249140739440917969e+00 -2.273311018943786621e-01 -1.448058634996414185e-01 -1.116410940885543823e-01 -3.594769835472106934e-01
2.852000000000000000e+03 1.155743885040283203e+01 4.621930122375488281e+00 3.391626179218292236e-01 2.224926352500915527e-01 1.684965789318084717e-01 -1.755257844924926758e-01
2.853000000000000000e+03 1.051084232330322266e+01 5.308938503265380859e+00 2.866007983684539795e-01 2.494446747004985809e-02 9.346357733011245728e-02 -8.408059924840927124e-02
2.854000000000000000e+03 8.300921440124511719e+00 5.443281650543212891e+00 1.820867806673049927e-01 -1.375627666711807251e-01 1.335720624774694443e-02 7.587163150310516357e-02
2.855000000000000000e+03 2.982267379760742188e+01 -2.780838966369628906e+00 1.373296529054641724e-01 -1.920689046382904053e-01 -1.642177440226078033e-02 1.092785038053989410e-02
2.856000000000000000e+03 1.336334514617919922e+01 -6.326673984527587891e+00 -1.364909261465072632e-01 -3.329207003116607666e-01 -1.408234834671020508e-01 -4.915061593055725098e-01
2.857000000000000000e+03 1.263809680938720703e+01 -5.366026878356933594e+00 -2.652699649333953857e-01 -2.722300887107849121e-01 -1.612500101327896118e-01 -4.971770346164703369e-01
2.858000000000000000e+03 3.104086112976074219e+01 -4.143297672271728516e+00 1.872388422489166260e-01 -1.337435096502304077e-01 1.604859903454780579e-02 2.443824429064989090e-03
2.859000000000000000e+03 4.679738235473632812e+01 4.164878845214843750e+01 1.990619152784347534e-01 -1.005785986781120300e-01 2.954499237239360809e-02 2.421487495303153992e-02
2.860000000000000000e+03 4.514495849609375000e+01 3.840760421752929688e+01 9.265543520450592041e-02 1.375520136207342148e-02 3.192318975925445557e-02 3.656406700611114502e-02
2.861000000000000000e+03 1.343837261199951172e+01 -5.472092151641845703e+00 -2.222078144550323486e-01 -3.093474507331848145e-01 -1.594665795564651489e-01 -5.073137283325195312e-01
2.862000000000000000e+03 1.420370483398437500e+01 -6.519000053405761719e+00 -5.122638866305351257e-02 -3.489278256893157959e-01 -1.200462654232978821e-01 -4.598040580749511719e-01
2.863000000000000000e+03 4.483266448974609375e+01 3.721279144287109375e+01 1.708880066871643066e-01 4.944874346256256104e-02 6.610102951526641846e-02 7.186013460159301758e-02
2.864000000000000000e+03 4.320597457885742188e+01 3.984901428222656250e+01 1.391186416149139404e-01 -1.450140401721000671e-02 3.738517314195632935e-02 8.072619326412677765e-03
2.865000000000000000e+03 6.435810089111328125e+01 3.564780426025390625e+01 3.147005319595336914e+00 1.115029144287109375e+01 4.289188861846923828e+00 6.551123857498168945e-01
2.866000000000000000e+03 3.562047576904296875e+01 -1.047092437744140625e+01 6.437295675277709961e-02 3.946307897567749023e-01 1.377011239528656006e-01 -4.266048595309257507e-02
2.867000000000000000e+03 3.647424697875976562e+01 -9.787777900695800781e+00 9.606840461492538452e-02 5.509439110755920410e-01 1.941037029027938843e-01 -5.785177275538444519e-02
2.868000000000000000e+03 1.114332389831542969e+01 -5.223132610321044922e+00 -2.696422934532165527e-01 -1.871666163206100464e-01 -1.370426714420318604e-01 -4.310311973094940186e-01
2.869000000000000000e+03 3.965522766113281250e+01 -1.417347049713134766e+01 -3.448042646050453186e-02 1.182092189788818359e+00 3.442835509777069092e-01 -1.212975606322288513e-01
2.870000000000000000e+03 3.884486770629882812e+01 -1.243688869476318359e+01 8.564709685742855072e-03 1.014842748641967773e+00 3.070222437381744385e-01 -9.552054852247238159e-02
2.871000000000000000e+03 3.589622879028320312e+01 -7.494084835052490234e+00 1.317711621522903442e-01 4.655109047889709473e-01 1.791846156120300293e-01 -2.543007768690586090e-02
2.872000000000000000e+03 3.362589645385742188e+01 -7.460622310638427734e+00 1.618676036596298218e-01 1.245788931846618652e-01 8.593394607305526733e-02 -3.514717891812324524e-02
2.873000000000000000e+03 2.061486816406250000e+01 -2.387336540222167969e+01 1.501093506813049316e-01 1.980802565813064575e-01 1.044568791985511780e-01 -2.389780879020690918e-01
2.874000000000000000e+03 4.756425094604492188e+01 -2.533568954467773438e+01 -1.805669218301773071e-01 3.618677616119384766e+00 1.031433224678039551e+00 -6.880806386470794678e-02
2.875000000000000000e+03 4.532470703125000000e+01 -2.340629005432128906e+01 -1.677168011665344238e-01 2.848368883132934570e+00 8.041955828666687012e-01 -2.238429784774780273e-01
2.876000000000000000e+03 1.842696762084960938e+01 -1.571813011169433594e+01 1.683157235383987427e-01 1.150117740035057068e-01 8.499825000762939453e-02 -2.287326753139495850e-01
2.877000000000000000e+03 1.790216255187988281e+01 -1.475425434112548828e+01 1.832153797149658203e-01 6.641156226396560669e-02 7.488808035850524902e-02 -2.232071161270141602e-01
2.878000000000000000e+03 1.533038139343261719e+01 -7.637129783630371094e+00 6.703607738018035889e-02 -3.314428925514221191e-01 -7.932204008102416992e-02 -3.733011186122894287e-01
2.879000000000000000e+03 3.575798034667968750e+01 -8.891760826110839844e+00 1.058640927076339722e-01 4.316179752349853516e-01 1.612446159124374390e-01 -4.096191376447677612e-02
2.880000000000000000e+03 2.244482803344726562e+01 -2.685639953613281250e+01 1.739621460437774658e-01 2.800667881965637207e-01 1.362086832523345947e-01 -2.470738291740417480e-01
2.881000000000000000e+03 7.101280975341796875e+01 -2.515415573120117188e+01 1.252835616469383240e-02 7.463578701019287109e+00 2.242832183837890625e+00 2.819203734397888184e-01
2.882000000000000000e+03 7.057974243164062500e+01 -3.210678863525390625e+01 8.426101505756378174e-02 7.251148700714111328e+00 2.200623035430908203e+00 2.198593616485595703e-01
2.883000000000000000e+03 1.109159851074218750e+01 3.014034652709960938e+01 -1.006208546459674835e-02 -4.802267998456954956e-03 -4.459306132048368454e-03 -5.692441016435623169e-03
2.884000000000000000e+03 7.260707855224609375e+01 -3.328221511840820312e+01 5.518940836191177368e-02 7.577268123626708984e+00 2.289737224578857422e+00 1.922481656074523926e-01
2.885000000000000000e+03 4.272514343261718750e+01 -2.014011192321777344e+01 -1.219535768032073975e-01 1.945146679878234863e+00 5.469579100608825684e-01 -2.223086357116699219e-01
2.886000000000000000e+03 4.104304504394531250e+01 -1.752717971801757812e+01 -8.202297985553741455e-02 1.466746330261230469e+00 4.154170155525207520e-01 -1.737176626920700073e-01
2.887000000000000000e+03 4.032756042480468750e+01 -1.572558879852294922e+01 -5.664929002523422241e-02 1.320131540298461914e+00 3.790446519851684570e-01 -1.412747055292129517e-01
2.888000000000000000e+03 7.353607177734375000e+01 2.114337730407714844e+01 -2.821426391601562500e-01 7.778868675231933594e+00 2.249017953872680664e+00 -1.203135371208190918e+00
2.889000000000000000e+03 7.454853820800781250e+01 2.398078346252441406e+01 -1.138715073466300964e-01 7.325474739074707031e+00 2.163480997085571289e+00 -1.265283226966857910e+00
2.890000000000000000e+03 7.273802185058593750e+01 -2.253549194335937500e+01 3.285105107352137566e-03 7.798722743988037109e+00 2.340602397918701172e+00 2.448282539844512939e-01
2.891000000000000000e+03 7.325475311279296875e+01 2.499951934814453125e+01 -1.072151735424995422e-01 7.518190860748291016e+00 2.223292827606201172e+00 -1.445550918579101562e+00
2.892000000000000000e+03 7.210899353027343750e+01 2.467788314819335938e+01 -1.954173147678375244e-01 7.829131126403808594e+00 2.290114164352416992e+00 -1.519807219505310059e+00
2.893000000000000000e+03 7.413930511474609375e+01 2.796250724792480469e+01 1.103260740637779236e-01 6.937644004821777344e+00 2.114391088485717773e+00 -1.360598206520080566e+00
2.894000000000000000e+03 7.286434936523437500e+01 2.762668037414550781e+01 1.239916160702705383e-01 7.391115665435791016e+00 2.254532098770141602e+00 -1.510661363601684570e+00
2.895000000000000000e+03 7.266075897216796875e+01 -1.587367057800292969e+01 -3.654116019606590271e-02 7.932263851165771484e+00 2.368716716766357422e+00 2.212567031383514404e-01
2.896000000000000000e+03 7.265766143798828125e+01 -1.724703407287597656e+01 -2.519083768129348755e-02 7.905386924743652344e+00 2.364058732986450195e+00 2.319099903106689453e-01
2.897000000000000000e+03 7.361819458007812500e+01 1.462134933471679688e+01 -2.757438123226165771e-01 8.134940147399902344e+00 2.357758760452270508e+00 -6.859537959098815918e-01
2.898000000000000000e+03 8.723395347595214844e+00 3.145783233642578125e+01 -5.844814702868461609e-03 -3.816115483641624451e-02 -1.320179086178541183e-02 -8.134732954204082489e-03
2.899000000000000000e+03 7.237619781494140625e+01 -9.094011306762695312e+00 -5.568956211209297180e-02 8.015478134155273438e+00 2.387936353683471680e+00 1.579685807228088379e-01
2.900000000000000000e+03 7.247837829589843750e+01 -1.043965721130371094e+01 -5.446518212556838989e-02 8.005660057067871094e+00 2.385358333587646484e+00 1.702044159173965454e-01
2.901000000000000000e+03 7.368421936035156250e+01 1.209731674194335938e+01 -2.324347198009490967e-01 8.225072860717773438e+00 2.397791385650634766e+00 -5.146864056587219238e-01
2.902000000000000000e+03 7.366161346435546875e+01 1.334576606750488281e+01 -2.599907517433166504e-01 8.180430412292480469e+00 2.376132011413574219e+00 -6.002639532089233398e-01
2.903000000000000000e+03 7.249172973632812500e+01 -1.450511455535888672e+00 -1.003474071621894836e-01 8.127843856811523438e+00 2.408248901367187500e+00 2.527809701859951019e-02
2.904000000000000000e+03 7.251502227783203125e+01 -2.789404153823852539e+00 -9.257137030363082886e-02 8.113174438476562500e+00 2.406180858612060547e+00 5.124479159712791443e-02
2.905000000000000000e+03 7.111721038818359375e+01 2.822161912918090820e+00 -2.023759037256240845e-01 7.880723953247070312e+00 2.303504467010498047e+00 -8.338690549135208130e-02
2.906000000000000000e+03 7.241666412353515625e+01 7.338951587677001953e+00 -2.262096107006072998e-01 8.129902839660644531e+00 2.371108055114746094e+00 -2.707245051860809326e-01
2.907000000000000000e+03 7.334902191162109375e+01 5.960217475891113281e+00 -1.632084548473358154e-01 8.285078048706054688e+00 2.436560869216918945e+00 -2.065449208021163940e-01
2.908000000000000000e+03 7.362609100341796875e+01 8.423069000244140625e+00 -1.895526498556137085e-01 8.299674987792968750e+00 2.433036804199218750e+00 -3.139916658401489258e-01
2.909000000000000000e+03 7.279393005371093750e+01 3.447075843811035156e+00 -1.473554074764251709e-01 8.203751564025878906e+00 2.416918754577636719e+00 -1.153289675712585449e-01
2.910000000000000000e+03 7.470341491699218750e+01 2.003151130676269531e+01 -2.186344116926193237e-01 7.747982501983642578e+00 2.258804321289062500e+00 -1.021200418472290039e+00
2.911000000000000000e+03 7.355393981933593750e+01 1.985234260559082031e+01 -2.907480597496032715e-01 7.868227005004882812e+00 2.273243665695190430e+00 -1.097298145294189453e+00
2.912000000000000000e+03 7.354035949707031250e+01 1.854929924011230469e+01 -3.159895539283752441e-01 7.945632457733154297e+00 2.288892984390258789e+00 -1.000410199165344238e+00
2.913000000000000000e+03 6.406386852264404297e+00 2.325165557861328125e+01 -6.137915886938571930e-03 -6.564290076494216919e-02 -2.153424546122550964e-02 -1.899284683167934418e-02
2.914000000000000000e+03 7.231147766113281250e+01 -2.666712379455566406e+01 1.963605917990207672e-02 7.629612922668457031e+00 2.294774770736694336e+00 2.455945163965225220e-01
2.915000000000000000e+03 1.463784313201904297e+01 -7.644467353820800781e+00 2.781130932271480560e-02 -3.080694973468780518e-01 -8.407745510339736938e-02 -4.073628187179565430e-01
2.916000000000000000e+03 6.168591499328613281e+00 -1.264575290679931641e+01 3.497620299458503723e-02 -3.618368804454803467e-01 -9.805820882320404053e-02 -2.575224936008453369e-01
2.917000000000000000e+03 8.076264381408691406e+00 -1.770495414733886719e+01 6.767463684082031250e-02 -4.012482762336730957e-01 -1.000720933079719543e-01 -2.223246842622756958e-01
2.918000000000000000e+03 6.858017444610595703e+00 -1.800840950012207031e+01 6.027855724096298218e-02 -4.524506330490112305e-01 -1.176516264677047729e-01 -2.059840857982635498e-01
2.919000000000000000e+03 5.751959800720214844e+00 -2.671353721618652344e+01 2.321101725101470947e-02 -6.428134441375732422e-01 -1.858807355165481567e-01 -9.718265384435653687e-02
2.920000000000000000e+03 7.261918544769287109e+00 -2.537626266479492188e+01 3.947927057743072510e-02 -5.306526422500610352e-01 -1.473520100116729736e-01 -1.248283386230468750e-01
2.921000000000000000e+03 5.498847007751464844e+00 -9.005270957946777344e+00 -2.878907881677150726e-02 -2.483979612588882446e-01 -8.315611630678176880e-02 -2.484144121408462524e-01
2.922000000000000000e+03 4.529068470001220703e+00 -9.136777877807617188e+00 -1.476427726447582245e-02 -2.568982541561126709e-01 -8.149875700473785400e-02 -2.151559889316558838e-01
2.923000000000000000e+03 6.429000377655029297e+00 1.676427650451660156e+01 5.993628874421119690e-03 -5.537000298500061035e-02 -1.481291186064481735e-02 -2.106321975588798523e-02
2.924000000000000000e+03 6.411062717437744141e+00 1.823277473449707031e+01 -4.496492911130189896e-04 -5.768635869026184082e-02 -1.744080334901809692e-02 -2.175920084118843079e-02
2.925000000000000000e+03 6.277086257934570312e+00 1.532818412780761719e+01 1.157012581825256348e-02 -5.884737521409988403e-02 -1.418317481875419617e-02 -1.926895417273044586e-02
2.926000000000000000e+03 5.098516941070556641e+00 1.264627361297607422e+01 2.798998542129993439e-02 -9.945731610059738159e-02 -2.144019864499568939e-02 -7.287807296961545944e-03
2.927000000000000000e+03 6.134120941162109375e+00 2.081130981445312500e+01 -5.033702123910188675e-03 -6.810018420219421387e-02 -2.194016613066196442e-02 -2.119118161499500275e-02
2.928000000000000000e+03 9.923914909362792969e+00 -3.225696563720703125e+01 4.874413833022117615e-02 -4.421411156654357910e-01 -1.180190965533256531e-01 -8.789932727813720703e-02
2.929000000000000000e+03 7.340533733367919922e+00 2.691693305969238281e+01 -6.230796221643686295e-03 -5.341234803199768066e-02 -1.789294369518756866e-02 -1.360269822180271149e-02
2.930000000000000000e+03 6.223843574523925781e+00 2.203099632263183594e+01 -4.099396523088216782e-03 -6.843958795070648193e-02 -2.176169492304325104e-02 -1.949393935501575470e-02
2.931000000000000000e+03 3.991930389404296875e+01 -1.302267456054687500e+01 1.754792639985680580e-03 1.235449433326721191e+00 3.711612820625305176e-01 -1.092553213238716125e-01
2.932000000000000000e+03 6.397386074066162109e+00 9.554327011108398438e+00 7.991575449705123901e-02 -8.255249261856079102e-02 -7.910209824331104755e-04 1.495054550468921661e-02
2.933000000000000000e+03 6.211350440979003906e+00 1.394684600830078125e+01 2.139961160719394684e-02 -6.261292099952697754e-02 -1.236399170011281967e-02 -1.654569245874881744e-02
2.934000000000000000e+03 4.772369384765625000e+00 1.025797271728515625e+01 4.857239499688148499e-02 -1.200110092759132385e-01 -2.143158391118049622e-02 1.707915030419826508e-02
2.935000000000000000e+03 5.777042007446289062e+01 4.147207260131835938e+01 -1.037808179855346680e+00 8.729372978210449219e+00 2.307469367980957031e+00 -9.224613308906555176e-01
2.936000000000000000e+03 7.219250488281250000e+01 3.550566482543945312e+01 7.044252753257751465e-01 7.322554111480712891e+00 2.408093929290771484e+00 -5.576243400573730469e-01
2.937000000000000000e+03 6.985082244873046875e+01 3.432461547851562500e+01 1.297685265541076660e+00 8.182538032531738281e+00 2.844066858291625977e+00 -7.455037236213684082e-01
2.938000000000000000e+03 9.509888648986816406e+00 7.630661964416503906e+00 1.502215415239334106e-01 3.069416806101799011e-02 5.427471175789833069e-02 -3.026244789361953735e-02
2.939000000000000000e+03 5.812625885009765625e+00 8.698974609375000000e+00 7.741414755582809448e-02 -1.050371825695037842e-01 -8.286910131573677063e-03 3.397114202380180359e-02
2.940000000000000000e+03 7.204814147949218750e+01 3.238411712646484375e+01 7.159112095832824707e-01 7.274415969848632812e+00 2.397098064422607422e+00 -1.113670349121093750e+00
2.941000000000000000e+03 9.701621055603027344e+00 3.283623886108398438e+01 -8.066928945481777191e-03 -3.160314261913299561e-02 -1.190102100372314453e-02 -6.501787807792425156e-03
2.942000000000000000e+03 8.049740791320800781e+00 3.400802612304687500e+01 -5.372732412070035934e-03 -4.767719656229019165e-02 -1.591497845947742462e-02 -7.102814037352800369e-03
2.943000000000000000e+03 5.036242008209228516e+00 -1.288028430938720703e+01 1.867725700139999390e-02 -3.801394402980804443e-01 -1.084386557340621948e-01 -2.211478650569915771e-01
2.944000000000000000e+03 5.696339607238769531e+00 -1.016484832763671875e+01 -9.977766312658786774e-04 -2.915378808975219727e-01 -8.776069432497024536e-02 -2.595828473567962646e-01
2.945000000000000000e+03 4.349137115478515625e+01 -1.757729339599609375e+01 -1.290506273508071899e-01 2.126207590103149414e+00 5.991471409797668457e-01 -1.604653298854827881e-01
2.946000000000000000e+03 1.863039016723632812e+01 -1.984161186218261719e+01 1.407911479473114014e-01 1.205135211348533630e-01 7.839140295982360840e-02 -2.316351383924484253e-01
2.947000000000000000e+03 4.663525772094726562e+01 -2.660699653625488281e+01 -1.420028507709503174e-01 3.516521453857421875e+00 1.012355566024780273e+00 -1.822575628757476807e-01
2.948000000000000000e+03 1.872531509399414062e+01 -1.406615924835205078e+01 1.769336163997650146e-01 1.462349295616149902e-01 9.695056080818176270e-02 -2.235131859779357910e-01
2.949000000000000000e+03 1.776675987243652344e+01 -1.719869804382324219e+01 1.565865576267242432e-01 6.551507860422134399e-02 6.663049012422561646e-02 -2.272992730140686035e-01
2.950000000000000000e+03 3.798122406005859375e+01 -1.158367156982421875e+01 4.663127288222312927e-02 8.080323934555053711e-01 2.563990950584411621e-01 -7.890805602073669434e-02
2.951000000000000000e+03 3.722270202636718750e+01 -1.068894672393798828e+01 5.673507228493690491e-02 6.794087290763854980e-01 2.208431512117385864e-01 -6.642244011163711548e-02
2.952000000000000000e+03 6.459025573730468750e+01 3.381591796875000000e+01 3.225188732147216797e+00 1.064795875549316406e+01 4.161944389343261719e+00 -6.463420391082763672e-01
2.953000000000000000e+03 4.469516372680664062e+01 -2.221442031860351562e+01 -1.744869947433471680e-01 2.574884414672851562e+00 7.201192378997802734e-01 -2.365065664052963257e-01
2.954000000000000000e+03 4.427672958374023438e+01 -2.101511955261230469e+01 -1.580913513898849487e-01 2.429455518722534180e+00 6.814092993736267090e-01 -2.191401124000549316e-01
2.955000000000000000e+03 4.277903366088867188e+01 4.159230422973632812e+01 1.163351014256477356e-01 4.736772552132606506e-02 4.911084845662117004e-02 -7.241674466058611870e-04
2.956000000000000000e+03 2.319238853454589844e+01 -3.114670944213867188e+01 1.794229894876480103e-01 2.652596831321716309e-01 1.334047913551330566e-01 -2.083461135625839233e-01
2.957000000000000000e+03 1.704436302185058594e+01 -1.516801834106445312e+01 1.740092039108276367e-01 1.188413426280021667e-02 5.576800182461738586e-02 -2.350720167160034180e-01
2.958000000000000000e+03 1.625965690612792969e+01 -1.347582054138183594e+01 1.831884682178497314e-01 -6.707639992237091064e-02 3.483362123370170593e-02 -2.490010410547256470e-01
2.959000000000000000e+03 7.259834289550781250e+01 -1.450906372070312500e+01 -3.587111085653305054e-02 7.956030368804931641e+00 2.376047849655151367e+00 2.136181294918060303e-01
2.960000000000000000e+03 7.212569427490234375e+01 -7.733740329742431641e+00 -7.068400830030441284e-02 7.981496810913085938e+00 2.373243808746337891e+00 1.400939673185348511e-01
2.961000000000000000e+03 8.455422401428222656e+00 -2.871687698364257812e+01 5.149107426404953003e-02 -4.998775124549865723e-01 -1.345159262418746948e-01 -1.210667937994003296e-01
2.962000000000000000e+03 7.188753128051757812e+00 -2.900841140747070312e+01 2.939102239906787872e-02 -5.702296495437622070e-01 -1.622515916824340820e-01 -9.673477709293365479e-02
2.963000000000000000e+03 5.835051345825195312e+01 3.167031669616699219e+01 1.180529356002807617e+00 1.263419723510742188e+01 4.144418239593505859e+00 4.176478385925292969e+00
2.964000000000000000e+03 2.723529243469238281e+01 2.708839654922485352e+00 -9.096266627311706543e-01 -3.912118375301361084e-01 -3.902515470981597900e-01 -4.145090579986572266e-01
2.965000000000000000e+03 2.777927970886230469e+01 3.141626834869384766e+00 -8.870621919631958008e-01 -4.566245973110198975e-01 -4.031060338020324707e-01 -4.323768615722656250e-01
2.966000000000000000e+03 2.458334922790527344e+01 1.173673629760742188e+00 -1.066966891288757324e+00 -1.703253239393234253e-01 -3.711876869201660156e-01 -4.212050437927246094e-01
2.967000000000000000e+03 3.070121383666992188e+01 5.234001636505126953e+00 -6.908430457115173340e-01 -3.469526767730712891e-01 -3.113387227058410645e-01 -4.934550821781158447e-01
2.968000000000000000e+03 1.834241485595703125e+01 1.131021499633789062e+01 1.130067706108093262e-01 1.986508965492248535e-01 9.349729865789413452e-02 1.497023552656173706e-01
2.969000000000000000e+03 1.859074211120605469e+01 1.186191368103027344e+01 1.086860746145248413e-01 1.911191642284393311e-01 8.994157612323760986e-02 1.439045369625091553e-01
2.970000000000000000e+03 5.518938446044921875e+01 3.233828353881835938e+01 2.501885175704956055e+00 1.814349174499511719e+00 1.294870257377624512e+00 2.008535861968994141e+00
2.971000000000000000e+03 2.355549430847167969e+01 9.653172492980957031e-01 -1.129378914833068848e+00 -1.292421668767929077e-01 -3.775863349437713623e-01 -5.196799039840698242e-01
2.972000000000000000e+03 2.335760307312011719e+01 1.163577198982238770e+00 -1.241036415100097656e+00 -1.911953538656234741e-01 -4.296695291996002197e-01 -6.048455238342285156e-01
2.973000000000000000e+03 3.948239898681640625e+01 1.791247558593750000e+01 -4.916171729564666748e-01 -2.333959937095642090e-01 -2.175039499998092651e-01 -4.029524922370910645e-01
2.974000000000000000e+03 4.061130905151367188e+01 1.898017120361328125e+01 -4.215341806411743164e-01 -1.197490990161895752e-01 -1.623849868774414062e-01 -3.359572887420654297e-01
2.975000000000000000e+03 4.123632812500000000e+01 1.950146293640136719e+01 -3.893900513648986816e-01 -5.799434334039688110e-02 -1.342153251171112061e-01 -2.846651673316955566e-01
2.976000000000000000e+03 3.224958801269531250e+01 2.588142585754394531e+01 5.840665847063064575e-02 8.999949693679809570e-02 4.452184587717056274e-02 7.463794946670532227e-02
2.977000000000000000e+03 3.921314620971679688e+01 1.763513374328613281e+01 -5.083513259887695312e-01 -2.622932791709899902e-01 -2.311933785676956177e-01 -4.154070615768432617e-01
2.978000000000000000e+03 4.031800460815429688e+01 1.871806907653808594e+01 -4.388015568256378174e-01 -1.480700373649597168e-01 -1.760614663362503052e-01 -3.556801974773406982e-01
2.979000000000000000e+03 1.720887947082519531e+01 9.677667617797851562e+00 1.301993578672409058e-01 2.337589263916015625e-01 1.091874837875366211e-01 1.646978259086608887e-01
2.980000000000000000e+03 3.462276840209960938e+01 1.206053161621093750e+01 -7.040453553199768066e-01 -5.114704966545104980e-01 -3.646547496318817139e-01 -5.843324661254882812e-01
2.981000000000000000e+03 2.444028854370117188e+01 2.106672048568725586e+00 -1.263559818267822266e+00 -2.988950610160827637e-01 -4.687364697456359863e-01 -5.839551091194152832e-01
2.982000000000000000e+03 5.313185119628906250e+01 3.097280883789062500e+01 1.142769455909729004e+00 1.083976149559020996e+00 6.680237054824829102e-01 1.268972754478454590e+00
2.983000000000000000e+03 4.677376174926757812e+01 2.501928329467773438e+01 -6.679880619049072266e-02 4.626716971397399902e-01 1.187618672847747803e-01 2.042345702648162842e-01
2.984000000000000000e+03 4.248060989379882812e+01 2.073490524291992188e+01 -3.438969254493713379e-01 4.358449950814247131e-02 -9.009373188018798828e-02 -1.766418218612670898e-01
2.985000000000000000e+03 2.332010078430175781e+01 1.684479331970214844e+01 8.783503621816635132e-02 1.369997411966323853e-01 6.745043396949768066e-02 1.114568933844566345e-01
2.986000000000000000e+03 2.309756469726562500e+01 1.616841506958007812e+01 9.415660053491592407e-02 1.414075344800949097e-01 7.066924124956130981e-02 1.167359650135040283e-01
2.987000000000000000e+03 5.283850097656250000e+01 3.082297706604003906e+01 1.035381913185119629e+00 9.831806421279907227e-01 6.055687665939331055e-01 1.166772127151489258e+00
2.988000000000000000e+03 5.343074798583984375e+01 3.112565040588378906e+01 1.262243270874023438e+00 1.229858160018920898e+00 7.476304173469543457e-01 1.394268870353698730e+00
2.989000000000000000e+03 3.511062240600585938e+01 2.836199569702148438e+01 6.823761761188507080e-02 9.025522321462631226e-02 4.754785448312759399e-02 7.308753579854965210e-02
2.990000000000000000e+03 2.923858451843261719e+01 4.482679843902587891e+00 -8.578166365623474121e-01 -4.722436368465423584e-01 -3.990180790424346924e-01 -4.575525820255279541e-01
2.991000000000000000e+03 5.889772415161132812e+01 3.168145751953125000e+01 8.557106852531433105e-01 1.435426044464111328e+01 4.562991142272949219e+00 3.192182064056396484e+00
2.992000000000000000e+03 4.645493316650390625e+01 2.428054428100585938e+01 -9.236734360456466675e-02 5.147361159324645996e-01 1.267106235027313232e-01 2.162155807018280029e-01
2.993000000000000000e+03 1.993527030944824219e+01 1.360722637176513672e+01 9.959349036216735840e-02 1.682171672582626343e-01 8.034319430589675903e-02 1.276222020387649536e-01
2.994000000000000000e+03 4.814252853393554688e+01 2.651773834228515625e+01 1.024256050586700439e-01 5.440897345542907715e-01 1.939546018838882446e-01 3.475021719932556152e-01
2.995000000000000000e+03 2.403493118286132812e+01 1.730008506774902344e+01 9.014435112476348877e-02 1.316717565059661865e-01 6.654483079910278320e-02 1.103823035955429077e-01
2.996000000000000000e+03 4.402029418945312500e+01 2.199160003662109375e+01 -2.778601050376892090e-01 2.264262288808822632e-01 -1.543015986680984497e-02 -3.404746577143669128e-02
2.997000000000000000e+03 3.264571380615234375e+01 9.999967575073242188e+00 -7.865717411041259766e-01 -5.689775943756103516e-01 -4.066648185253143311e-01 -5.903468728065490723e-01
2.998000000000000000e+03 3.361430358886718750e+01 1.098361110687255859e+01 -7.493491768836975098e-01 -5.288066864013671875e-01 -3.834467530250549316e-01 -5.906871557235717773e-01
2.999000000000000000e+03 2.865390968322753906e+01 2.143325996398925781e+01 7.168058305978775024e-02 1.036999374628067017e-01 5.261415615677833557e-02 8.869769424200057983e-02
3.000000000000000000e+03 3.637494277954101562e+01 1.397081470489501953e+01 -6.265825629234313965e-01 -4.244623184204101562e-01 -3.153134584426879883e-01 -5.294135808944702148e-01
3.001000000000000000e+03 3.512899017333984375e+01 1.307502937316894531e+01 -6.985357999801635742e-01 -5.422133207321166992e-01 -3.722247183322906494e-01 -6.030595302581787109e-01
3.002000000000000000e+03 3.564805603027343750e+01 1.318542671203613281e+01 -6.628008484840393066e-01 -4.636856913566589355e-01 -3.379459679126739502e-01 -5.529713630676269531e-01
3.003000000000000000e+03 4.836295700073242188e+01 2.679306221008300781e+01 1.269827336072921753e-01 5.507130622863769531e-01 2.033087462186813354e-01 3.624173998832702637e-01
3.004000000000000000e+03 2.151049423217773438e+01 1.395322799682617188e+01 1.142062246799468994e-01 1.575852036476135254e-01 8.153742551803588867e-02 1.308121234178543091e-01
3.005000000000000000e+03 1.743962097167968750e+01 9.939215660095214844e+00 1.264939308166503906e-01 2.256227582693099976e-01 1.056350097060203552e-01 1.625121831893920898e-01
3.006000000000000000e+03 1.639763641357421875e+01 9.365019798278808594e+00 1.177440285682678223e-01 2.555226683616638184e-01 1.119800135493278503e-01 1.615237444639205933e-01
3.007000000000000000e+03 3.403975296020507812e+01 1.124627876281738281e+01 -7.273523211479187012e-01 -5.080941319465637207e-01 -3.706339299678802490e-01 -5.790585875511169434e-01
3.008000000000000000e+03 3.492623901367187500e+01 1.276298522949218750e+01 -7.026394009590148926e-01 -5.433997511863708496e-01 -3.738117516040802002e-01 -6.042169332504272461e-01
3.009000000000000000e+03 5.735839462280273438e+01 3.215786743164062500e+01 2.929551362991333008e+00 8.368942260742187500e+00 3.389548063278198242e+00 5.319164752960205078e+00
3.010000000000000000e+03 4.352187728881835938e+01 2.144923400878906250e+01 -3.010716736316680908e-01 1.850779354572296143e-01 -3.479812294244766235e-02 -7.278122752904891968e-02
3.011000000000000000e+03 3.949896240234375000e+01 1.737977027893066406e+01 -4.897452294826507568e-01 -1.700332909822463989e-01 -1.979335546493530273e-01 -3.686202168464660645e-01
3.012000000000000000e+03 4.090097427368164062e+01 1.869295692443847656e+01 -4.050679802894592285e-01 -2.368869632482528687e-02 -1.286270022392272949e-01 -2.829946577548980713e-01
3.013000000000000000e+03 4.813657379150390625e+01 2.574036407470703125e+01 9.650126844644546509e-02 7.483066320419311523e-01 2.534423768520355225e-01 4.403357803821563721e-01
3.014000000000000000e+03 5.455440139770507812e+01 3.214934539794921875e+01 1.848873138427734375e+00 1.479475855827331543e+00 9.985046982765197754e-01 1.602477431297302246e+00
3.015000000000000000e+03 5.050618743896484375e+01 2.883841323852539062e+01 4.535882174968719482e-01 7.080288529396057129e-01 3.484851121902465820e-01 6.570345759391784668e-01
3.016000000000000000e+03 3.364680862426757812e+01 2.647829818725585938e+01 5.839608609676361084e-02 9.090321511030197144e-02 4.478979110717773438e-02 7.295234501361846924e-02
3.017000000000000000e+03 2.839941978454589844e+01 2.092984580993652344e+01 7.533601671457290649e-02 1.050639674067497253e-01 5.411999672651290894e-02 9.085019677877426147e-02
3.018000000000000000e+03 2.815884971618652344e+01 2.044100379943847656e+01 8.001907914876937866e-02 1.063893958926200867e-01 5.592254176735877991e-02 9.431608021259307861e-02
3.019000000000000000e+03 3.396006774902343750e+01 2.689566421508789062e+01 6.141677498817443848e-02 9.305047988891601562e-02 4.634017869830131531e-02 7.351171970367431641e-02
3.020000000000000000e+03 2.767560386657714844e+01 2.071551132202148438e+01 7.468177378177642822e-02 1.088505461812019348e-01 5.505969747900962830e-02 9.226048737764358521e-02
3.021000000000000000e+03 4.427619552612304688e+01 2.225816917419433594e+01 -2.639940381050109863e-01 2.504723370075225830e-01 -4.056512378156185150e-03 -1.154257915914058685e-02
3.022000000000000000e+03 2.744488906860351562e+01 2.023046302795410156e+01 7.849629968404769897e-02 1.107222288846969604e-01 5.676556006073951721e-02 9.473142027854919434e-02
3.023000000000000000e+03 2.712035369873046875e+01 2.018945121765136719e+01 7.764017581939697266e-02 1.154782474040985107e-01 5.793552473187446594e-02 9.654742479324340820e-02
3.024000000000000000e+03 2.702748107910156250e+01 1.936001777648925781e+01 8.733281493186950684e-02 1.146236285567283630e-01 6.058693304657936096e-02 1.001485213637351990e-01
3.025000000000000000e+03 2.671227264404296875e+01 1.957269477844238281e+01 8.061609417200088501e-02 1.173719689249992371e-01 5.939641594886779785e-02 9.762834012508392334e-02
3.026000000000000000e+03 2.551715087890625000e+01 1.814887237548828125e+01 9.233349561691284180e-02 1.228463873267173767e-01 6.455396115779876709e-02 1.052934452891349792e-01
3.027000000000000000e+03 4.271423339843750000e+01 2.106271171569824219e+01 -3.424498438835144043e-01 4.771037027239799500e-02 -8.842184394598007202e-02 -1.649300754070281982e-01
3.028000000000000000e+03 3.663070297241210938e+01 1.424265193939208984e+01 -6.153523325920104980e-01 -4.089007973670959473e-01 -3.072759509086608887e-01 -5.173522830009460449e-01
3.029000000000000000e+03 3.040775871276855469e+01 2.301307106018066406e+01 6.613852083683013916e-02 9.901061654090881348e-02 4.954474046826362610e-02 8.543806523084640503e-02
3.030000000000000000e+03 3.187442970275878906e+01 2.560307121276855469e+01 6.126209720969200134e-02 9.307238459587097168e-02 4.630034416913986206e-02 7.711660861968994141e-02
3.031000000000000000e+03 3.210076904296875000e+01 2.456374931335449219e+01 6.269022077322006226e-02 9.015028178691864014e-02 4.585215076804161072e-02 7.754163444042205811e-02
3.032000000000000000e+03 4.562180709838867188e+01 2.404981803894042969e+01 -1.760447919368743896e-01 3.047627210617065430e-01 3.861538320779800415e-02 7.486923038959503174e-02
3.033000000000000000e+03 4.617018890380859375e+01 2.404412841796875000e+01 -1.214459687471389771e-01 4.734319746494293213e-01 1.055958047509193420e-01 1.825366765260696411e-01
3.034000000000000000e+03 3.543809890747070312e+01 1.291103935241699219e+01 -6.694994568824768066e-01 -4.692053794860839844e-01 -3.416114449501037598e-01 -5.571399927139282227e-01
3.035000000000000000e+03 2.524485969543457031e+01 1.803260803222656250e+01 9.206844866275787354e-02 1.251686066389083862e-01 6.517111510038375854e-02 1.061918735504150391e-01
3.036000000000000000e+03 2.901296806335449219e+01 2.191722869873046875e+01 6.792079657316207886e-02 1.023087576031684875e-01 5.106886476278305054e-02 8.705476671457290649e-02
3.037000000000000000e+03 1.545467567443847656e+01 8.529758453369140625e+00 1.103456616401672363e-01 3.024138212203979492e-01 1.238278448581695557e-01 1.616081893444061279e-01
3.038000000000000000e+03 1.514711666107177734e+01 7.911088466644287109e+00 1.136898249387741089e-01 3.366889655590057373e-01 1.351136416196823120e-01 1.665866076946258545e-01
3.039000000000000000e+03 3.688808441162109375e+01 1.452167606353759766e+01 -6.018056273460388184e-01 -3.926514685153961182e-01 -2.983371317386627197e-01 -5.059217810630798340e-01
3.040000000000000000e+03 2.638017463684082031e+01 1.982243919372558594e+01 7.767812907695770264e-02 1.170487552881240845e-01 5.841806530952453613e-02 9.689550846815109253e-02
3.041000000000000000e+03 3.714591598510742188e+01 1.480578231811523438e+01 -5.912786126136779785e-01 -3.768683373928070068e-01 -2.904440760612487793e-01 -4.917918145656585693e-01
3.042000000000000000e+03 2.193762588500976562e+01 1.447612190246582031e+01 1.102194041013717651e-01 1.538160890340805054e-01 7.921064645051956177e-02 1.264232546091079712e-01
3.043000000000000000e+03 2.056960487365722656e+01 1.391968727111816406e+01 1.026696264743804932e-01 1.625622659921646118e-01 7.956957072019577026e-02 1.270823031663894653e-01
3.044000000000000000e+03 5.080155944824218750e+01 2.910956192016601562e+01 5.139276385307312012e-01 7.245616316795349121e-01 3.715467751026153564e-01 7.049829959869384766e-01
3.045000000000000000e+03 5.130320739746093750e+01 2.908242797851562500e+01 6.369425654411315918e-01 9.687978625297546387e-01 4.817221462726593018e-01 9.207630753517150879e-01
3.046000000000000000e+03 3.740401458740234375e+01 1.509298610687255859e+01 -5.790315866470336914e-01 -3.602612316608428955e-01 -2.817878425121307373e-01 -4.787172675132751465e-01
3.047000000000000000e+03 3.868141174316406250e+01 1.706770324707031250e+01 -5.364342927932739258e-01 -3.192289173603057861e-01 -2.566989660263061523e-01 -4.408772587776184082e-01
3.048000000000000000e+03 1.932397651672363281e+01 1.309439277648925781e+01 9.956590086221694946e-02 1.749614030122756958e-01 8.235818892717361450e-02 1.301875859498977661e-01
3.049000000000000000e+03 4.328387069702148438e+01 2.116770172119140625e+01 -3.096045851707458496e-01 1.681858748197555542e-01 -4.242561757564544678e-02 -8.857176452875137329e-02
3.050000000000000000e+03 4.453492736816406250e+01 2.252316474914550781e+01 -2.481951117515563965e-01 2.740354835987091064e-01 7.752109784632921219e-03 1.136812195181846619e-02
3.051000000000000000e+03 3.766268157958984375e+01 1.538214778900146484e+01 -5.693057775497436523e-01 -3.427893817424774170e-01 -2.736285626888275146e-01 -4.638750553131103516e-01
3.052000000000000000e+03 5.161913299560546875e+01 2.935923576354980469e+01 7.103948593139648438e-01 1.002422928810119629e+00 5.138453245162963867e-01 9.904491901397705078e-01
3.053000000000000000e+03 5.021547317504882812e+01 2.857491302490234375e+01 4.019323587417602539e-01 6.868132948875427246e-01 3.266237080097198486e-01 6.101722121238708496e-01
3.054000000000000000e+03 3.552374267578125000e+01 2.939410400390625000e+01 5.408399179577827454e-02 8.465570211410522461e-02 4.162190854549407959e-02 6.332821398973464966e-02
3.055000000000000000e+03 3.416869354248046875e+01 2.842289924621582031e+01 6.092610582709312439e-02 9.339709579944610596e-02 4.629696160554885864e-02 7.036133110523223877e-02
3.056000000000000000e+03 2.498135185241699219e+01 1.750958633422851562e+01 9.588112682104110718e-02 1.266480237245559692e-01 6.675874441862106323e-02 1.099107861518859863e-01
3.057000000000000000e+03 4.882703018188476562e+01 2.682118606567382812e+01 1.910309344530105591e-01 7.072957754135131836e-01 2.694980204105377197e-01 4.900110363960266113e-01
3.058000000000000000e+03 4.910101699829101562e+01 2.756397628784179688e+01 2.251383513212203979e-01 5.971078276634216309e-01 2.466738522052764893e-01 4.475136101245880127e-01
3.059000000000000000e+03 2.630319595336914062e+01 1.888197708129882812e+01 8.742194622755050659e-02 1.201508119702339172e-01 6.227182969450950623e-02 1.018929705023765564e-01
3.060000000000000000e+03 3.841764831542968750e+01 1.677926254272460938e+01 -5.477062463760375977e-01 -3.459271490573883057e-01 -2.680900096893310547e-01 -4.550796747207641602e-01
3.061000000000000000e+03 4.936943054199218750e+01 2.781498146057128906e+01 2.620259523391723633e-01 6.209457516670227051e-01 2.648915052413940430e-01 4.842343926429748535e-01
3.062000000000000000e+03 1.761873245239257812e+01 1.023416805267333984e+01 1.241455599665641785e-01 2.207716405391693115e-01 1.034751608967781067e-01 1.583553999662399292e-01
3.063000000000000000e+03 1.899479484558105469e+01 1.217977237701416016e+01 1.080132350325584412e-01 1.840836852788925171e-01 8.762907236814498901e-02 1.415991634130477905e-01
3.064000000000000000e+03 4.868653106689453125e+01 2.611532402038574219e+01 1.663879454135894775e-01 8.762658238410949707e-01 3.127961158752441406e-01 5.400559306144714355e-01
3.065000000000000000e+03 5.195960617065429688e+01 2.963735389709472656e+01 8.078206777572631836e-01 1.056041598320007324e+00 5.591586828231811523e-01 1.086851716041564941e+00
3.066000000000000000e+03 4.533945083618164062e+01 2.379567527770996094e+01 -1.997452527284622192e-01 2.706542313098907471e-01 2.127269841730594635e-02 4.614649340510368347e-02
3.067000000000000000e+03 4.003406524658203125e+01 1.845301246643066406e+01 -4.565164148807525635e-01 -1.760576367378234863e-01 -1.897722184658050537e-01 -3.735538721084594727e-01
3.068000000000000000e+03 2.603443145751953125e+01 1.860588073730468750e+01 8.945440500974655151e-02 1.210034936666488647e-01 6.313736736774444580e-02 1.028148308396339417e-01
3.069000000000000000e+03 2.946094131469726562e+01 2.240698623657226562e+01 6.488756090402603149e-02 1.004883646965026855e-01 4.961277544498443604e-02 8.549320697784423828e-02
3.070000000000000000e+03 4.157681655883789062e+01 1.976576995849609375e+01 -3.737659752368927002e-01 -2.003095112740993500e-02 -1.181390732526779175e-01 -2.523312866687774658e-01
3.071000000000000000e+03 2.216713142395019531e+01 1.481105613708496094e+01 1.062061339616775513e-01 1.521801799535751343e-01 7.751590013504028320e-02 1.238251030445098877e-01
3.072000000000000000e+03 2.150807380676269531e+01 1.439089298248291016e+01 1.068435460329055786e-01 1.560133397579193115e-01 7.885706424713134766e-02 1.259858459234237671e-01
3.073000000000000000e+03 3.592681503295898438e+01 1.300274467468261719e+01 -6.350110173225402832e-01 -3.938282430171966553e-01 -3.086517751216888428e-01 -5.099122524261474609e-01
3.074000000000000000e+03 5.254446029663085938e+01 3.068316078186035156e+01 9.279640913009643555e-01 8.446520566940307617e-01 5.317848324775695801e-01 1.036864638328552246e+00
3.075000000000000000e+03 5.199437332153320312e+01 3.033193588256835938e+01 7.833063006401062012e-01 7.322818040847778320e-01 4.546764492988586426e-01 8.897207975387573242e-01
3.076000000000000000e+03 4.376835250854492188e+01 2.172270202636718750e+01 -2.904578149318695068e-01 2.049611210823059082e-01 -2.564900554716587067e-02 -5.339591205120086670e-02
3.077000000000000000e+03 3.792206192016601562e+01 1.567233180999755859e+01 -5.583772063255310059e-01 -3.231462836265563965e-01 -2.644570469856262207e-01 -4.503583014011383057e-01
3.078000000000000000e+03 2.576678848266601562e+01 1.836364173889160156e+01 9.105483442544937134e-02 1.232450008392333984e-01 6.428994983434677124e-02 1.047820895910263062e-01
3.079000000000000000e+03 1.806302261352539062e+01 1.111178493499755859e+01 1.129639968276023865e-01 2.052955031394958496e-01 9.547784924507141113e-02 1.496110856533050537e-01
3.080000000000000000e+03 3.339831161499023438e+01 1.067802810668945312e+01 -7.548484206199645996e-01 -5.367572307586669922e-01 -3.874816894531250000e-01 -5.860334634780883789e-01
3.081000000000000000e+03 3.333229064941406250e+01 2.607575988769531250e+01 5.885329097509384155e-02 8.879326283931732178e-02 4.429396614432334900e-02 7.342810928821563721e-02
3.082000000000000000e+03 3.148256683349609375e+01 2.532538604736328125e+01 5.643867701292037964e-02 9.237847477197647095e-02 4.464514553546905518e-02 7.582610845565795898e-02
3.083000000000000000e+03 3.387945175170898438e+01 2.738455200195312500e+01 5.628391727805137634e-02 9.314956516027450562e-02 4.483004659414291382e-02 7.117975503206253052e-02
3.084000000000000000e+03 3.351509857177734375e+01 2.766528892517089844e+01 6.221766397356987000e-02 8.700530230998992920e-02 4.476689174771308899e-02 7.213935256004333496e-02
3.085000000000000000e+03 3.818218994140625000e+01 1.596243667602539062e+01 -5.491384267807006836e-01 -3.018431663513183594e-01 -2.552945017814636230e-01 -4.352635741233825684e-01
3.086000000000000000e+03 3.844310760498046875e+01 1.625123023986816406e+01 -5.384937524795532227e-01 -2.782814800739288330e-01 -2.450325638055801392e-01 -4.219204783439636230e-01
3.087000000000000000e+03 4.194459152221679688e+01 2.004286575317382812e+01 -3.574439883232116699e-01 2.281641401350498199e-02 -1.003882735967636108e-01 -2.137096375226974487e-01
3.088000000000000000e+03 4.270168304443359375e+01 2.019267654418945312e+01 -3.206886053085327148e-01 1.706915497779846191e-01 -4.499911516904830933e-02 -1.181545481085777283e-01
3.089000000000000000e+03 1.964159011840820312e+01 1.349307346343994141e+01 9.798040241003036499e-02 1.707390397787094116e-01 8.061583340167999268e-02 1.279146820306777954e-01
3.090000000000000000e+03 3.111411666870117188e+01 2.348877334594726562e+01 6.427736580371856689e-02 9.529364109039306641e-02 4.787130281329154968e-02 8.328734338283538818e-02
3.091000000000000000e+03 4.479618835449218750e+01 2.278589630126953125e+01 -2.317262142896652222e-01 3.009034097194671631e-01 2.075316011905670166e-02 3.608120977878570557e-02
3.092000000000000000e+03 5.436112594604492188e+01 3.101597976684570312e+01 1.690486669540405273e+00 2.239737510681152344e+00 1.179067254066467285e+00 2.129947185516357422e+00
3.093000000000000000e+03 5.233305740356445312e+01 2.984206390380859375e+01 9.154046773910522461e-01 1.189769983291625977e+00 6.315523982048034668e-01 1.221277952194213867e+00
3.094000000000000000e+03 3.462514495849609375e+01 2.885970497131347656e+01 6.299561262130737305e-02 9.224250912666320801e-02 4.657143354415893555e-02 7.255158573389053345e-02
3.095000000000000000e+03 3.507390213012695312e+01 2.885908508300781250e+01 5.649119615554809570e-02 8.323582261800765991e-02 4.191810637712478638e-02 6.353081017732620239e-02
3.096000000000000000e+03 1.323504638671875000e+01 6.392833709716796875e+00 8.915037661790847778e-02 4.931866824626922607e-01 1.747011095285415649e-01 4.361862689256668091e-02
3.097000000000000000e+03 5.261569976806640625e+01 3.034184646606445312e+01 9.876918792724609375e-01 1.122235655784606934e+00 6.329782605171203613e-01 1.228188872337341309e+00
3.098000000000000000e+03 2.233404731750488281e+01 1.549915599822998047e+01 9.759441018104553223e-02 1.492471396923065186e-01 7.405246049165725708e-02 1.192467659711837769e-01
3.099000000000000000e+03 3.510926437377929688e+01 1.232197666168212891e+01 -6.763350367546081543e-01 -4.602918624877929688e-01 -3.409880697727203369e-01 -5.495577454566955566e-01
3.100000000000000000e+03 3.457717514038085938e+01 1.164948558807373047e+01 -6.940318942070007324e-01 -4.716916680335998535e-01 -3.497170805931091309e-01 -5.574591755867004395e-01
3.101000000000000000e+03 3.281668853759765625e+01 1.070780467987060547e+01 -8.258215188980102539e-01 -6.129108071327209473e-01 -4.316197037696838379e-01 -6.478101611137390137e-01
3.102000000000000000e+03 4.506103515625000000e+01 2.304610824584960938e+01 -2.135577052831649780e-01 3.285256028175354004e-01 3.449036553502082825e-02 6.207626312971115112e-02
3.103000000000000000e+03 4.533052825927734375e+01 2.330299377441406250e+01 -1.939114183187484741e-01 3.605845272541046143e-01 5.000193044543266296e-02 8.915962278842926025e-02
3.104000000000000000e+03 3.465365600585937500e+01 2.838654518127441406e+01 5.845106020569801331e-02 8.279777318239212036e-02 4.237464815378189087e-02 6.760155409574508667e-02
3.105000000000000000e+03 1.672258949279785156e+01 9.471954345703125000e+00 1.241082474589347839e-01 2.453622967004776001e-01 1.108411625027656555e-01 1.643199771642684937e-01
3.106000000000000000e+03 2.985906982421875000e+01 4.844641685485839844e+00 -8.319568037986755371e-01 -4.100593626499176025e-01 -3.726048469543457031e-01 -4.771108627319335938e-01
3.107000000000000000e+03 1.733356475830078125e+01 1.035268878936767578e+01 1.154490634799003601e-01 2.221784144639968872e-01 1.012882441282272339e-01 1.535588651895523071e-01
3.108000000000000000e+03 1.719927787780761719e+01 1.013251590728759766e+01 1.190177425742149353e-01 2.288274616003036499e-01 1.043535619974136353e-01 1.561373472213745117e-01
3.109000000000000000e+03 1.499815940856933594e+01 8.423535346984863281e+00 1.002674624323844910e-01 3.187935650348663330e-01 1.257183104753494263e-01 1.476890295743942261e-01
3.110000000000000000e+03 1.438049030303955078e+01 7.289525508880615234e+00 1.029996722936630249e-01 3.989194333553314209e-01 1.505757421255111694e-01 1.460616886615753174e-01
3.111000000000000000e+03 1.400979137420654297e+01 6.978030681610107422e+00 9.321830421686172485e-02 4.350110292434692383e-01 1.584687978029251099e-01 1.290619969367980957e-01
3.112000000000000000e+03 2.499304962158203125e+01 -1.853428333997726440e-01 -4.283927679061889648e-01 -3.797436505556106567e-02 -1.399101465940475464e-01 -8.475376665592193604e-02
3.113000000000000000e+03 1.359527587890625000e+01 6.715940475463867188e+00 8.894526958465576172e-02 4.648371040821075439e-01 1.661347150802612305e-01 8.239546418190002441e-02
3.114000000000000000e+03 1.437532711029052734e+01 7.993481636047363281e+00 9.220133721828460693e-02 3.533650934696197510e-01 1.336699277162551880e-01 1.267431378364562988e-01
3.115000000000000000e+03 3.270637512207031250e+01 6.043843746185302734e+00 -4.885928928852081299e-01 -2.569659352302551270e-01 -2.236676514148712158e-01 -3.709589838981628418e-01
3.116000000000000000e+03 3.027412033081054688e+01 2.344857978820800781e+01 6.049513071775436401e-02 9.610867500305175781e-02 4.698114097118377686e-02 8.226966112852096558e-02
3.117000000000000000e+03 2.993678665161132812e+01 2.292855644226074219e+01 6.213129684329032898e-02 9.814987331628799438e-02 4.808435216546058655e-02 8.441896736621856689e-02
3.118000000000000000e+03 3.232768249511718750e+01 7.033417224884033203e+00 -5.212668776512145996e-01 -3.974096775054931641e-01 -2.756029665470123291e-01 -4.469992518424987793e-01
3.119000000000000000e+03 1.263485431671142578e+01 4.644370555877685547e+00 2.423523068428039551e-01 6.297029852867126465e-01 2.616165876388549805e-01 -1.862305104732513428e-01
3.120000000000000000e+03 1.275038242340087891e+01 6.737634181976318359e+00 1.040749251842498779e-01 4.079347848892211914e-01 1.536029130220413208e-01 -6.998887285590171814e-03
3.121000000000000000e+03 3.028287887573242188e+01 4.800844669342041016e+00 -7.392516136169433594e-01 -3.556868135929107666e-01 -3.284815251827239990e-01 -4.463432729244232178e-01
3.122000000000000000e+03 3.119209480285644531e+01 5.227543354034423828e+00 -6.430276036262512207e-01 -3.121093809604644775e-01 -2.865411043167114258e-01 -4.484145343303680420e-01
3.123000000000000000e+03 3.220375823974609375e+01 5.634360790252685547e+00 -5.198408365249633789e-01 -2.695309817790985107e-01 -2.368115484714508057e-01 -3.972443640232086182e-01
3.124000000000000000e+03 1.222460651397705078e+01 4.862837791442871094e+00 2.552079260349273682e-01 4.546376168727874756e-01 2.129536569118499756e-01 -1.715521067380905151e-01
3.125000000000000000e+03 3.142655563354492188e+01 2.457391357421875000e+01 6.182112544775009155e-02 9.137622267007827759e-02 4.595920443534851074e-02 7.820285856723785400e-02
3.126000000000000000e+03 3.111044311523437500e+01 2.417948532104492188e+01 6.059520319104194641e-02 9.545383602380752563e-02 4.681470990180969238e-02 8.166056126356124878e-02
3.127000000000000000e+03 3.268319320678710938e+01 7.964459896087646484e+00 -5.712421536445617676e-01 -4.281976222991943359e-01 -2.998319268226623535e-01 -4.344339370727539062e-01
3.128000000000000000e+03 4.060552978515625000e+01 3.411090087890625000e+01 7.608771324157714844e-02 3.769274055957794189e-02 3.413413465023040771e-02 4.212384298443794250e-02
3.129000000000000000e+03 4.199532699584960938e+01 3.578922653198242188e+01 1.227823123335838318e-01 5.952247604727745056e-02 5.469143763184547424e-02 7.695151120424270630e-02
3.130000000000000000e+03 3.748512649536132812e+01 3.075929641723632812e+01 5.940276011824607849e-02 7.173275202512741089e-02 3.934065252542495728e-02 6.482853740453720093e-02
3.131000000000000000e+03 3.550499343872070312e+01 3.004631614685058594e+01 6.898936629295349121e-02 8.745141327381134033e-02 4.693223536014556885e-02 6.870769709348678589e-02
3.132000000000000000e+03 3.695153427124023438e+01 3.172307586669921875e+01 6.090766936540603638e-02 8.137237280607223511e-02 4.268401116132736206e-02 6.110376119613647461e-02
3.133000000000000000e+03 2.588870620727539062e+01 8.001176118850708008e-01 -7.070361971855163574e-01 -2.359700947999954224e-01 -2.829018831253051758e-01 -2.484832555055618286e-01
3.134000000000000000e+03 3.247930908203125000e+01 7.498673439025878906e+00 -5.357325077056884766e-01 -4.293657243251800537e-01 -2.895294725894927979e-01 -4.404165744781494141e-01
3.135000000000000000e+03 2.386246299743652344e+01 2.170892804861068726e-01 -8.701316118240356445e-01 -2.890659496188163757e-02 -2.697114646434783936e-01 -3.380745053291320801e-01
3.136000000000000000e+03 2.769159889221191406e+01 -7.374846339225769043e-01 -1.320686191320419312e-01 -2.258301377296447754e-01 -1.073696315288543701e-01 -2.191168628633022308e-02
3.137000000000000000e+03 2.719675445556640625e+01 -1.235532522201538086e+00 -1.949367485940456390e-02 -1.999968141317367554e-01 -6.584714353084564209e-02 -2.311091497540473938e-02
3.138000000000000000e+03 6.292066574096679688e+00 7.341498374938964844e+00 1.060581877827644348e-01 -1.147574931383132935e-01 -2.609790069982409477e-03 5.752592533826828003e-02
3.139000000000000000e+03 3.093499374389648438e+01 -2.942981958389282227e+00 1.352077573537826538e-01 -1.462880820035934448e-01 -3.324093529954552650e-03 1.731799356639385223e-02
3.140000000000000000e+03 3.035129165649414062e+01 -3.458669900894165039e+00 1.945418417453765869e-01 -1.662466973066329956e-01 8.488542400300502777e-03 5.668196827173233032e-03
3.141000000000000000e+03 2.537325286865234375e+01 7.802753150463104248e-02 -4.711664617061614990e-01 -1.460558772087097168e-01 -1.851667016744613647e-01 -1.555441766977310181e-01
3.142000000000000000e+03 3.656295776367187500e+01 3.118700408935546875e+01 6.426556408405303955e-02 7.592679560184478760e-02 4.205770790576934814e-02 6.299986690282821655e-02
3.143000000000000000e+03 3.660351562500000000e+01 3.004119491577148438e+01 6.489286571741104126e-02 9.296185523271560669e-02 4.735641553997993469e-02 7.276569306850433350e-02
3.144000000000000000e+03 6.740879535675048828e+00 5.286447048187255859e+00 9.956792742013931274e-02 -1.413473486900329590e-01 -1.253382582217454910e-02 1.245842054486274719e-01
3.145000000000000000e+03 6.615590095520019531e+00 6.603086471557617188e+00 1.150599494576454163e-01 -1.217608079314231873e-01 -2.010258380323648453e-03 7.420837879180908203e-02
3.146000000000000000e+03 4.172758102416992188e+01 3.387638854980468750e+01 8.393723517656326294e-02 8.716206252574920654e-02 5.132978782057762146e-02 8.087059110403060913e-02
3.147000000000000000e+03 4.140080642700195312e+01 3.495234680175781250e+01 9.033554792404174805e-02 7.982611656188964844e-02 5.104849860072135925e-02 7.773257791996002197e-02
3.148000000000000000e+03 3.975558471679687500e+01 3.296480178833007812e+01 9.290374815464019775e-02 7.266235351562500000e-02 4.966982826590538025e-02 7.544013857841491699e-02
3.149000000000000000e+03 3.917743682861328125e+01 3.336748504638671875e+01 7.206422090530395508e-02 8.063311874866485596e-02 4.580920189619064331e-02 5.998254567384719849e-02
3.150000000000000000e+03 6.228417396545410156e+00 -7.765990734100341797e+00 -6.254816800355911255e-02 -2.039090394973754883e-01 -7.993716746568679810e-02 -2.653229534626007080e-01
3.151000000000000000e+03 2.420930099487304688e+01 1.204050183296203613e+00 -1.054904460906982422e+00 -1.909702122211456299e-01 -3.737624287605285645e-01 -4.823658466339111328e-01
3.152000000000000000e+03 2.443387222290039062e+01 -2.933984100818634033e-01 -6.030828952789306641e-01 3.319678083062171936e-02 -1.709658354520797729e-01 -1.877617985010147095e-01
3.153000000000000000e+03 4.111501312255859375e+01 3.417814636230468750e+01 7.493516057729721069e-02 9.442490339279174805e-02 5.080801993608474731e-02 7.822214812040328979e-02
3.154000000000000000e+03 6.285372543334960938e+01 3.145009231567382812e+01 2.236841917037963867e+00 1.216611671447753906e+01 4.320887565612792969e+00 -1.572171807289123535e+00
3.155000000000000000e+03 6.132936859130859375e+01 3.137761497497558594e+01 1.535015344619750977e+00 1.373385810852050781e+01 4.580662250518798828e+00 -9.876294732093811035e-01
3.156000000000000000e+03 3.809862899780273438e+01 3.126010894775390625e+01 6.061577051877975464e-02 6.955958902835845947e-02 3.905260935425758362e-02 6.519127637147903442e-02
3.157000000000000000e+03 7.086586952209472656e+00 -7.601258754730224609e+00 -6.739169359207153320e-02 -2.068658471107482910e-01 -8.227726072072982788e-02 -2.971477806568145752e-01
3.158000000000000000e+03 7.676969051361083984e+00 -6.459278583526611328e+00 -1.164581328630447388e-01 -1.679873615503311157e-01 -8.533364534378051758e-02 -3.019934892654418945e-01
3.159000000000000000e+03 7.327771663665771484e+00 -8.619392395019531250e+00 -4.646030813455581665e-02 -2.370779514312744141e-01 -8.506147563457489014e-02 -3.096324801445007324e-01
3.160000000000000000e+03 9.132596969604492188e+00 -6.142836093902587891e+00 -1.579516530036926270e-01 -1.732259243726730347e-01 -9.935326874256134033e-02 -3.545826077461242676e-01
3.161000000000000000e+03 3.935898208618164062e+01 3.289303207397460938e+01 7.037337869405746460e-02 4.840592667460441589e-02 3.563379123806953430e-02 4.898136109113693237e-02
3.162000000000000000e+03 3.900423049926757812e+01 3.233747100830078125e+01 6.027052924036979675e-02 5.895707011222839355e-02 3.576827794313430786e-02 6.604052335023880005e-02
3.163000000000000000e+03 9.264541625976562500e+00 6.895862102508544922e+00 1.802117079496383667e-01 -1.126610208302736282e-02 5.068368464708328247e-02 -2.424194477498531342e-02
3.164000000000000000e+03 9.886787414550781250e+00 5.216423511505126953e+00 2.712687253952026367e-01 -5.414070188999176025e-02 6.513840705156326294e-02 -2.971031330525875092e-02
3.165000000000000000e+03 1.096398925781250000e+01 4.875387668609619141e+00 3.191156983375549316e-01 8.613212406635284424e-02 1.215743422508239746e-01 -1.240932270884513855e-01
3.166000000000000000e+03 1.455711078643798828e+01 -8.541720390319824219e+00 8.144911378622055054e-02 -3.093866705894470215e-01 -6.838126480579376221e-02 -3.827056586742401123e-01
3.167000000000000000e+03 6.954001426696777344e+00 -1.110397434234619141e+01 2.201686799526214600e-02 -3.147523701190948486e-01 -8.782064914703369141e-02 -2.930437028408050537e-01
3.168000000000000000e+03 4.115381240844726562e+01 3.573090362548828125e+01 9.895700961351394653e-02 1.958036981523036957e-02 3.556121513247489929e-02 3.791044652462005615e-02
3.169000000000000000e+03 1.154627132415771484e+01 5.801986694335937500e+00 2.106133401393890381e-01 2.693467736244201660e-01 1.439880430698394775e-01 -1.222821548581123352e-01
3.170000000000000000e+03 9.845027923583984375e+00 5.949615955352783203e+00 2.285539954900741577e-01 -3.991326317191123962e-03 6.736879795789718628e-02 -4.382628947496414185e-02
3.171000000000000000e+03 4.040612792968750000e+01 -1.190994071960449219e+01 -2.020441228523850441e-03 1.339881420135498047e+00 4.013583064079284668e-01 -8.754741400480270386e-02
3.172000000000000000e+03 7.239696979522705078e+00 2.176189994812011719e+01 -6.185992620885372162e-03 -4.650326818227767944e-02 -1.580677926540374756e-02 -1.942384429275989532e-02
3.173000000000000000e+03 9.212247848510742188e+00 2.494887542724609375e+01 -9.420813992619514465e-03 -1.521498337388038635e-02 -7.390738930553197861e-03 -1.213809195905923843e-02
3.174000000000000000e+03 3.003638267517089844e+01 -1.825785636901855469e+00 5.385539680719375610e-02 -1.879911571741104126e-01 -4.024072736501693726e-02 1.563172973692417145e-02
3.175000000000000000e+03 2.944375419616699219e+01 -2.121574878692626953e+00 9.436926245689392090e-02 -2.265587598085403442e-01 -3.965684771537780762e-02 1.438244245946407318e-02
3.176000000000000000e+03 1.259334468841552734e+01 -6.155633926391601562e+00 -1.616613566875457764e-01 -2.742404341697692871e-01 -1.307705491781234741e-01 -4.748079776763916016e-01
3.177000000000000000e+03 1.048929023742675781e+01 -5.943500995635986328e+00 -1.944744884967803955e-01 -1.968082338571548462e-01 -1.173848211765289307e-01 -4.117632806301116943e-01
3.178000000000000000e+03 1.117418861389160156e+01 -5.944232940673828125e+00 -2.019044607877731323e-01 -2.048499435186386108e-01 -1.220263168215751648e-01 -4.334117472171783447e-01
3.179000000000000000e+03 3.734455108642578125e+01 -7.640807151794433594e+00 1.143572479486465454e-01 7.037121653556823730e-01 2.454208284616470337e-01 -2.769181318581104279e-02
3.180000000000000000e+03 2.856208038330078125e+01 3.256051540374755859e+00 -8.210219144821166992e-01 -4.279921650886535645e-01 -3.747042417526245117e-01 -3.777737319469451904e-01
3.181000000000000000e+03 2.854994964599609375e+01 -1.700172901153564453e+00 3.089496120810508728e-02 -2.433973550796508789e-01 -6.375071406364440918e-02 -1.005920767784118652e-02
3.182000000000000000e+03 3.299609756469726562e+01 -5.223901748657226562e+00 1.782232671976089478e-01 4.455951228737831116e-02 6.683483719825744629e-02 -1.542691607028245926e-02
3.183000000000000000e+03 3.238843536376953125e+01 -3.983176708221435547e+00 1.656216382980346680e-01 -1.629860140383243561e-02 4.479691013693809509e-02 1.349783223122358322e-02
3.184000000000000000e+03 7.518620014190673828e+00 1.152073192596435547e+01 5.333226919174194336e-02 -2.196637727320194244e-02 9.409767575562000275e-03 -1.124015916138887405e-02
3.185000000000000000e+03 1.608418464660644531e+01 -1.570571613311767578e+01 1.709516495466232300e-01 -5.972265452146530151e-02 3.336869925260543823e-02 -2.423684000968933105e-01
3.186000000000000000e+03 7.321434497833251953e+00 1.509256362915039062e+01 1.537726726382970810e-02 -2.862054854631423950e-02 -3.972984850406646729e-03 -1.880054548382759094e-02
3.187000000000000000e+03 8.520657539367675781e+00 1.882799911499023438e+01 -1.212407718412578106e-03 -6.908354349434375763e-03 -2.436228562146425247e-03 -1.541573181748390198e-02
3.188000000000000000e+03 1.536320304870605469e+01 -1.459858417510986328e+01 1.669698208570480347e-01 -1.032007485628128052e-01 1.913072168827056885e-02 -2.553499042987823486e-01
3.189000000000000000e+03 5.479236125946044922e+00 7.801040649414062500e+00 7.937230914831161499e-02 -1.241417154669761658e-01 -1.343082170933485031e-02 5.909948050975799561e-02
3.190000000000000000e+03 1.991511535644531250e+01 -2.249590301513671875e+01 1.358117908239364624e-01 1.763043403625488281e-01 9.363484382629394531e-02 -2.378250658512115479e-01
3.191000000000000000e+03 2.334465217590332031e+01 -2.842486190795898438e+01 1.662697345018386841e-01 3.102499246597290039e-01 1.429558992385864258e-01 -2.416251599788665771e-01
3.192000000000000000e+03 7.242884826660156250e+01 2.095535469055175781e+01 -3.588623106479644775e-01 7.934831619262695312e+00 2.272790670394897461e+00 -1.244114279747009277e+00
3.193000000000000000e+03 6.357915878295898438e+01 3.455814361572265625e+01 4.214093208312988281e+00 1.141131877899169922e+01 4.687623500823974609e+00 1.086060404777526855e-01
3.194000000000000000e+03 1.797688865661621094e+01 -2.517476272583007812e+01 1.414518356323242188e-01 3.975896164774894714e-02 5.436323583126068115e-02 -2.132766693830490112e-01
3.195000000000000000e+03 2.150297546386718750e+01 -2.529473114013671875e+01 1.433487385511398315e-01 2.457925975322723389e-01 1.167424023151397705e-01 -2.425239980220794678e-01
3.196000000000000000e+03 4.103364562988281250e+01 -1.337976264953613281e+01 -3.333710879087448120e-02 1.504097700119018555e+00 4.412281811237335205e-01 -1.086501702666282654e-01
3.197000000000000000e+03 3.728615188598632812e+01 -9.080727577209472656e+00 9.169591963291168213e-02 7.023168206214904785e-01 2.382038086652755737e-01 -4.903363436460494995e-02
3.198000000000000000e+03 4.720450592041015625e+01 -2.323641967773437500e+01 -2.053685635328292847e-01 3.356178760528564453e+00 9.452430009841918945e-01 -9.508354961872100830e-02
3.199000000000000000e+03 4.623000335693359375e+01 -2.257308387756347656e+01 -1.919181793928146362e-01 3.088729858398437500e+00 8.690435290336608887e-01 -1.594284325838088989e-01
3.200000000000000000e+03 7.246291351318359375e+01 -2.008736991882324219e+01 -1.378257479518651962e-02 7.805307388305664062e+00 2.337457418441772461e+00 2.540834248065948486e-01
3.201000000000000000e+03 6.374817848205566406e+00 -1.395493698120117188e+01 3.843765705823898315e-02 -3.852235376834869385e-01 -1.040357649326324463e-01 -2.452705502510070801e-01
3.202000000000000000e+03 7.384588623046875000e+01 3.053995132446289062e+01 3.184868991374969482e-01 6.785398483276367188e+00 2.131165504455566406e+00 -1.236387848854064941e+00
3.203000000000000000e+03 7.227635955810546875e+01 -7.402229309082031250e-02 -1.198221519589424133e-01 8.089285850524902344e+00 2.390839099884033203e+00 -1.034170947968959808e-02
3.204000000000000000e+03 6.998290252685546875e+01 -3.636281013488769531e+00 -1.373966038227081299e-01 7.603346824645996094e+00 2.239784955978393555e+00 1.022475063800811768e-01
3.205000000000000000e+03 1.372575569152832031e+01 -8.464758872985839844e+00 5.369764566421508789e-02 -2.944521009922027588e-01 -7.222633808851242065e-02 -3.949027359485626221e-01
3.206000000000000000e+03 7.311339569091796875e+01 4.714633941650390625e+00 -1.517564952373504639e-01 8.252974510192871094e+00 2.430365324020385742e+00 -1.566690504550933838e-01
3.207000000000000000e+03 7.248168182373046875e+01 1.445848751068115234e+01 -3.606028556823730469e-01 8.083127975463867188e+00 2.316757440567016602e+00 -7.084990143775939941e-01
3.208000000000000000e+03 8.091720581054687500e+00 2.532374191284179688e+01 -6.332967896014451981e-03 -3.548191487789154053e-02 -1.254446525126695633e-02 -1.312284450978040695e-02
3.209000000000000000e+03 6.952453136444091797e+00 2.573798561096191406e+01 -6.663636304438114166e-03 -5.874456837773323059e-02 -1.962246187031269073e-02 -1.553125958889722824e-02
3.210000000000000000e+03 3.720066833496093750e+01 -5.924258708953857422e+00 1.315325498580932617e-01 6.679286360740661621e-01 2.398383468389511108e-01 -3.239148762077093124e-03
3.211000000000000000e+03 7.242769622802734375e+01 -2.521681404113769531e+01 9.700938127934932709e-03 7.682658672332763672e+00 2.307708024978637695e+00 2.598491907119750977e-01
3.212000000000000000e+03 1.449379253387451172e+01 -1.187436771392822266e+01 1.703864783048629761e-01 -2.037982493638992310e-01 -1.002353150397539139e-02 -2.963975667953491211e-01
3.213000000000000000e+03 4.142279052734375000e+01 -1.608443641662597656e+01 -6.557972729206085205e-02 1.580956220626831055e+00 4.546129405498504639e-01 -1.417856365442276001e-01
3.214000000000000000e+03 7.142033386230468750e+01 -1.598858737945556641e+01 -3.724634647369384766e-02 7.717222213745117188e+00 2.303992748260498047e+00 2.449614405632019043e-01
3.215000000000000000e+03 7.257672882080078125e+01 9.673684120178222656e+00 -2.673608660697937012e-01 8.145349502563476562e+00 2.363396406173706055e+00 -3.944275677204132080e-01
3.216000000000000000e+03 7.222523498535156250e+01 6.183879852294921875e+00 -2.084821462631225586e-01 8.103281974792480469e+00 2.368440151214599609e+00 -2.175067216157913208e-01
3.217000000000000000e+03 7.000311279296875000e+01 3.382778644561767578e+00 -2.433161884546279907e-01 7.703076839447021484e+00 2.237928152084350586e+00 -8.222805708646774292e-02
3.218000000000000000e+03 6.980232238769531250e+01 -1.190569496154785156e+01 -7.367484271526336670e-02 7.488448143005371094e+00 2.224431991577148438e+00 2.275442779064178467e-01
3.219000000000000000e+03 5.924523830413818359e+00 -1.138038349151611328e+01 1.159129198640584946e-02 -3.250415027141571045e-01 -9.403505921363830566e-02 -2.597195208072662354e-01
3.220000000000000000e+03 7.084935760498046875e+01 -5.006386280059814453e+00 -1.123638972640037537e-01 7.750446796417236328e+00 2.291424989700317383e+00 1.173039004206657410e-01
3.221000000000000000e+03 7.239157867431640625e+01 1.842354202270507812e+01 -3.989040255546569824e-01 8.014309883117675781e+00 2.284621953964233398e+00 -1.031580805778503418e+00
3.222000000000000000e+03 7.256335449218750000e+01 1.084054470062255859e+01 -2.816846072673797607e-01 8.135151863098144531e+00 2.356040239334106445e+00 -4.582549631595611572e-01
3.223000000000000000e+03 7.368274688720703125e+01 9.649937629699707031e+00 -1.995960474014282227e-01 8.286550521850585938e+00 2.426086187362670898e+00 -3.725832700729370117e-01
3.224000000000000000e+03 7.243740844726562500e+01 1.970256233215332031e+01 -3.949660658836364746e-01 7.973595619201660156e+00 2.273588895797729492e+00 -1.144910216331481934e+00
3.225000000000000000e+03 7.551548957824707031e+00 1.850612449645996094e+01 2.988674386870115995e-04 -3.021772578358650208e-02 -8.975657634437084198e-03 -1.914756186306476593e-02
3.226000000000000000e+03 7.115468597412109375e+01 -3.891788482666015625e+00 -1.076746955513954163e-01 7.830270290374755859e+00 2.316778659820556641e+00 8.584956079721450806e-02
3.227000000000000000e+03 7.210433197021484375e+01 -5.502006053924560547e+00 -8.195310831069946289e-02 8.003030776977539062e+00 2.376323223114013672e+00 1.062137559056282043e-01
3.228000000000000000e+03 5.955454349517822266e+00 -2.397170066833496094e+01 2.914647571742534637e-02 -5.868209600448608398e-01 -1.673023402690887451e-01 -1.220060512423515320e-01
3.229000000000000000e+03 7.189607143402099609e+00 1.969885826110839844e+01 -3.244487103074789047e-03 -4.211078584194183350e-02 -1.360658183693885803e-02 -2.035501599311828613e-02
3.230000000000000000e+03 7.254134368896484375e+01 -1.314793872833251953e+01 -4.392829537391662598e-02 7.973960876464843750e+00 2.379009723663330078e+00 1.985991001129150391e-01
3.231000000000000000e+03 7.124283599853515625e+01 -1.465713214874267578e+01 -5.133859440684318542e-02 7.703574180603027344e+00 2.295670747756958008e+00 2.358374893665313721e-01
3.232000000000000000e+03 3.810232925415039062e+01 -9.912116050720214844e+00 7.552520185708999634e-02 8.587763309478759766e-01 2.802904546260833740e-01 -6.923171877861022949e-02
3.233000000000000000e+03 1.429456138610839844e+01 -1.014320278167724609e+01 1.409340351819992065e-01 -2.560294866561889648e-01 -3.452863544225692749e-02 -3.345759212970733643e-01
3.234000000000000000e+03 1.522659015655517578e+01 -1.085518264770507812e+01 1.508734971284866333e-01 -1.832348555326461792e-01 -9.708407334983348846e-03 -2.986123263835906982e-01
3.235000000000000000e+03 3.657046508789062500e+01 -8.226793289184570312e+00 1.227975338697433472e-01 5.718390941619873047e-01 2.083909809589385986e-01 -4.701789468526840210e-02
3.236000000000000000e+03 1.392946815490722656e+01 -7.448228836059570312e+00 -1.119629386812448502e-02 -3.263335227966308594e-01 -1.012589484453201294e-01 -4.304152429103851318e-01
3.237000000000000000e+03 5.701924800872802734e+00 1.061919498443603516e+01 5.271008238196372986e-02 -8.938767015933990479e-02 -1.100327540189027786e-02 7.728362455964088440e-03
3.238000000000000000e+03 7.614818096160888672e+00 7.487777709960937500e+00 1.369672864675521851e-01 -7.849619537591934204e-02 1.754132658243179321e-02 2.275031059980392456e-02
3.239000000000000000e+03 7.221386909484863281e+00 -2.085750007629394531e+01 5.895907804369926453e-02 -4.788080453872680664e-01 -1.259546875953674316e-01 -1.774875223636627197e-01
3.240000000000000000e+03 7.116038513183593750e+01 -1.188814353942871094e+01 -6.382411718368530273e-02 7.730875015258789062e+00 2.300115346908569336e+00 2.091549783945083618e-01
3.241000000000000000e+03 8.476806640625000000e+00 7.185215473175048828e+00 1.586742848157882690e-01 -5.423979461193084717e-02 3.133034706115722656e-02 5.336321424692869186e-03
3.242000000000000000e+03 6.190343093872070312e+01 3.117381286621093750e+01 1.522367715835571289e+00 1.302626895904541016e+01 4.364591121673583984e+00 -1.144621372222900391e+00
3.243000000000000000e+03 6.351047897338867188e+01 3.094974136352539062e+01 1.649625420570373535e+00 1.157001686096191406e+01 3.965892791748046875e+00 -1.580330133438110352e+00
3.244000000000000000e+03 7.235191345214843750e+01 -2.967220878601074219e+01 4.280496016144752502e-02 7.564636230468750000e+00 2.282232284545898438e+00 2.196381390094757080e-01
3.245000000000000000e+03 6.863890838623046875e+01 -3.007232284545898438e+01 8.231376111507415771e-02 7.015280723571777344e+00 2.129278421401977539e+00 2.948069274425506592e-01
3.246000000000000000e+03 7.128309631347656250e+01 -1.861283874511718750e+01 -3.013189695775508881e-02 7.649758338928222656e+00 2.285887956619262695e+00 2.688442468643188477e-01
3.247000000000000000e+03 7.143572235107421875e+01 -6.637015342712402344e+00 -8.297332376241683960e-02 7.868864059448242188e+00 2.335767269134521484e+00 1.329729408025741577e-01
3.248000000000000000e+03 7.064151763916015625e+01 -2.827375793457031250e+01 4.017889499664306641e-02 7.344120979309082031e+00 2.215290069580078125e+00 2.750734090805053711e-01
3.249000000000000000e+03 7.190068054199218750e+01 2.593787574768066406e+01 -6.318426132202148438e-02 7.803712844848632812e+00 2.322158575057983398e+00 -1.573317885398864746e+00
3.250000000000000000e+03 7.234949493408203125e+01 2.149296760559082031e+00 -1.443299055099487305e-01 8.113979339599609375e+00 2.390894889831542969e+00 -6.827834248542785645e-02
3.251000000000000000e+03 7.067823791503906250e+01 4.665111601352691650e-01 -1.656888574361801147e-01 7.798515319824218750e+00 2.289847850799560547e+00 -9.181323461234569550e-03
3.252000000000000000e+03 4.443035125732421875e+01 -1.787177276611328125e+01 -1.427534818649291992e-01 2.408702135086059570e+00 6.797845959663391113e-01 -1.567783951759338379e-01
3.253000000000000000e+03 6.326300811767578125e+01 3.657149505615234375e+01 2.787972688674926758e+00 1.255818653106689453e+01 4.603847980499267578e+00 1.684895038604736328e+00
3.254000000000000000e+03 7.038978576660156250e+01 -5.984954357147216797e+00 -1.049838587641716003e-01 7.662754058837890625e+00 2.267331123352050781e+00 1.371690779924392700e-01
3.255000000000000000e+03 1.246682071685791016e+01 -2.330126190185546875e+01 1.027817800641059875e-01 -2.536999881267547607e-01 -4.527546465396881104e-02 -1.945396065711975098e-01
3.256000000000000000e+03 8.623274803161621094e+00 -2.542451286315917969e+01 5.475666001439094543e-02 -4.567553102970123291e-01 -1.205995976924896240e-01 -1.485199928283691406e-01
3.257000000000000000e+03 3.427003860473632812e+01 -6.117148399353027344e+00 1.693592667579650879e-01 2.117323875427246094e-01 1.143274977803230286e-01 -1.763533614575862885e-02
3.258000000000000000e+03 3.413452148437500000e+01 -5.176022052764892578e+00 1.759480386972427368e-01 1.967759579420089722e-01 1.118171960115432739e-01 -1.399768749251961708e-03
3.259000000000000000e+03 7.112801361083984375e+01 -1.326372241973876953e+01 -5.674712359905242920e-02 7.703865051269531250e+00 2.294135332107543945e+00 2.254931330680847168e-01
3.260000000000000000e+03 8.138890266418457031e+00 2.780109977722167969e+01 -7.271883543580770493e-03 -4.068420454859733582e-02 -1.438682619482278824e-02 -1.135067362338304520e-02
3.261000000000000000e+03 7.068412780761718750e+01 2.983876800537109375e+01 5.312247872352600098e-01 7.998676300048828125e+00 2.558970451354980469e+00 -1.564998030662536621e+00
3.262000000000000000e+03 7.343280029296875000e+01 -3.232801437377929688e+01 5.254809558391571045e-02 7.718146324157714844e+00 2.331208229064941406e+00 1.744086146354675293e-01
3.263000000000000000e+03 7.100335693359375000e+01 -2.001252555847167969e+01 -2.372272312641143799e-02 7.575400829315185547e+00 2.265503406524658203e+00 2.770081758499145508e-01
3.264000000000000000e+03 2.188019180297851562e+01 -2.967143630981445312e+01 1.850134730339050293e-01 2.143240869045257568e-01 1.198012679815292358e-01 -2.169983088970184326e-01
3.265000000000000000e+03 2.479053878784179688e+01 -3.235957717895507812e+01 2.358430922031402588e-01 3.092460036277770996e-01 1.635267287492752075e-01 -2.143414467573165894e-01
3.266000000000000000e+03 7.249851226806640625e+01 3.133185768127441406e+01 5.533007383346557617e-01 7.238000392913818359e+00 2.337390184402465820e+00 -1.256597399711608887e+00
3.267000000000000000e+03 6.930467987060546875e+01 -2.654270362854003906e+01 2.866395935416221619e-02 7.181702613830566406e+00 2.163110017776489258e+00 3.098037838935852051e-01
3.268000000000000000e+03 9.012885093688964844e+00 -3.676221466064453125e+01 4.475690796971321106e-02 -5.312930345535278320e-01 -1.459608525037765503e-01 -4.939479753375053406e-02
3.269000000000000000e+03 9.713515281677246094e+00 -3.437015914916992188e+01 5.794542282819747925e-02 -4.546238481998443604e-01 -1.190035268664360046e-01 -8.424898236989974976e-02
3.270000000000000000e+03 9.933389663696289062e+00 -3.036788749694824219e+01 6.471423059701919556e-02 -4.234653115272521973e-01 -1.076253205537796021e-01 -1.162149310111999512e-01
3.271000000000000000e+03 8.478742599487304688e+00 -3.035246849060058594e+01 4.069847241044044495e-02 -5.125552415847778320e-01 -1.415570378303527832e-01 -9.548984467983245850e-02
3.272000000000000000e+03 7.224821472167968750e+01 -2.815715789794921875e+01 3.098270110785961151e-02 7.586585521697998047e+00 2.285270452499389648e+00 2.431456893682479858e-01
3.273000000000000000e+03 4.241733932495117188e+01 -1.886919975280761719e+01 -1.111709177494049072e-01 1.870196819305419922e+00 5.277078151702880859e-01 -2.016347497701644897e-01
3.274000000000000000e+03 8.374710083007812500e+00 2.656091499328613281e+01 -8.097691461443901062e-03 -3.378136456012725830e-02 -1.256371662020683289e-02 -1.261194702237844467e-02
3.275000000000000000e+03 7.351692962646484375e+01 7.192741870880126953e+00 -1.705635339021682739e-01 8.301163673400878906e+00 2.439180135726928711e+00 -2.537725269794464111e-01
3.276000000000000000e+03 1.034451293945312500e+01 -2.416601753234863281e+01 7.328548282384872437e-02 -3.574368357658386230e-01 -8.524540811777114868e-02 -1.767904162406921387e-01
3.277000000000000000e+03 2.695326614379882812e+01 2.590830326080322266e+00 -9.452999234199523926e-01 -4.007512032985687256e-01 -4.038153290748596191e-01 -4.309564232826232910e-01
3.278000000000000000e+03 2.670128059387207031e+01 2.427795886993408203e+00 -9.520841240882873535e-01 -3.541617393493652344e-01 -3.918737769126892090e-01 -4.144945144653320312e-01
3.279000000000000000e+03 2.588072204589843750e+01 2.339892864227294922e+00 -1.077792167663574219e+00 -3.282427787780761719e-01 -4.218104779720306396e-01 -4.808586537837982178e-01
3.280000000000000000e+03 2.603866767883300781e+01 2.124981164932250977e+00 -1.001466035842895508e+00 -3.262996375560760498e-01 -3.983297049999237061e-01 -4.225663542747497559e-01
3.281000000000000000e+03 5.678363418579101562e+01 3.218579864501953125e+01 3.327566385269165039e+00 5.651933670043945312e+00 2.693850040435791016e+00 4.563967227935791016e+00
3.282000000000000000e+03 5.813608169555664062e+01 3.190854072570800781e+01 1.698723196983337402e+00 1.222442436218261719e+01 4.176944255828857422e+00 4.752666473388671875e+00
3.283000000000000000e+03 1.786958122253417969e+01 1.152942466735839844e+01 1.006551384925842285e-01 2.026961445808410645e-01 9.100538492202758789e-02 1.402064710855484009e-01
3.284000000000000000e+03 5.621944046020507812e+01 3.168221664428710938e+01 2.626875162124633789e+00 4.660535812377929688e+00 2.186223268508911133e+00 3.765198707580566406e+00
3.285000000000000000e+03 4.060702896118164062e+01 1.843805503845214844e+01 -4.227727055549621582e-01 -5.412248149514198303e-02 -1.430685520172119141e-01 -3.050207495689392090e-01
3.286000000000000000e+03 4.180147171020507812e+01 1.887702560424804688e+01 -3.551293313503265381e-01 1.457749009132385254e-01 -6.280633062124252319e-02 -1.759116649627685547e-01
3.287000000000000000e+03 1.491715049743652344e+01 9.320667266845703125e+00 8.476505428552627563e-02 2.851116955280303955e-01 1.109630241990089417e-01 1.225161701440811157e-01
3.288000000000000000e+03 1.934320831298828125e+01 1.349671745300292969e+01 9.275685250759124756e-02 1.725733727216720581e-01 7.959906756877899170e-02 1.254036873579025269e-01
3.289000000000000000e+03 1.825452232360839844e+01 1.200525188446044922e+01 1.002460047602653503e-01 1.941269338130950928e-01 8.831188082695007324e-02 1.372314840555191040e-01
3.290000000000000000e+03 3.422207641601562500e+01 2.797728919982910156e+01 5.814646929502487183e-02 8.394519239664077759e-02 4.262749850749969482e-02 7.055458426475524902e-02
3.291000000000000000e+03 3.976855087280273438e+01 1.765114212036132812e+01 -4.745543301105499268e-01 -1.411534249782562256e-01 -1.847123205661773682e-01 -3.545396327972412109e-01
3.292000000000000000e+03 5.322539138793945312e+01 3.063483619689941406e+01 1.208600997924804688e+00 1.381458520889282227e+00 7.770178318023681641e-01 1.481171369552612305e+00
3.293000000000000000e+03 5.409023284912109375e+01 3.100516510009765625e+01 1.566031813621520996e+00 1.960174441337585449e+00 1.057861924171447754e+00 1.925890564918518066e+00
3.294000000000000000e+03 3.395071029663085938e+01 1.086957359313964844e+01 -7.117180824279785156e-01 -4.757087230682373047e-01 -3.562280535697937012e-01 -5.514667034149169922e-01
3.295000000000000000e+03 3.923247528076171875e+01 1.710322189331054688e+01 -5.042294859886169434e-01 -1.983165144920349121e-01 -2.107637971639633179e-01 -3.811082243919372559e-01
3.296000000000000000e+03 4.032182312011718750e+01 1.817952728271484375e+01 -4.403454363346099854e-01 -8.322753757238388062e-02 -1.570718884468078613e-01 -3.232262730598449707e-01
3.297000000000000000e+03 3.158227920532226562e+01 2.600811576843261719e+01 5.369852855801582336e-02 9.246474504470825195e-02 4.384898394346237183e-02 7.394669950008392334e-02
3.298000000000000000e+03 3.615960693359375000e+01 1.324051189422607422e+01 -6.272119879722595215e-01 -3.808967173099517822e-01 -3.024326264858245850e-01 -5.005268454551696777e-01
3.299000000000000000e+03 3.500748443603515625e+01 1.201172351837158203e+01 -6.750791072845458984e-01 -4.406055808067321777e-01 -3.347054123878479004e-01 -5.369690656661987305e-01
3.300000000000000000e+03 4.672750091552734375e+01 2.451311683654785156e+01 -6.747210025787353516e-02 5.455511212348937988e-01 1.434237062931060791e-01 2.472690194845199585e-01
3.301000000000000000e+03 4.702426528930664062e+01 2.424313163757324219e+01 -4.036993533372879028e-02 7.170410752296447754e-01 2.030013501644134521e-01 3.411457240581512451e-01
3.302000000000000000e+03 1.696266174316406250e+01 9.946661949157714844e+00 1.179648563265800476e-01 2.340697348117828369e-01 1.056103780865669250e-01 1.575058102607727051e-01
3.303000000000000000e+03 1.606259536743164062e+01 9.235886573791503906e+00 1.118035614490509033e-01 2.667568922042846680e-01 1.135681346058845520e-01 1.590283215045928955e-01
3.304000000000000000e+03 3.356535339355468750e+01 2.687123298645019531e+01 6.107271090149879456e-02 8.861072361469268799e-02 4.490502923727035522e-02 7.204087823629379272e-02
3.305000000000000000e+03 3.411637878417968750e+01 2.764203071594238281e+01 6.422165781259536743e-02 8.564563840627670288e-02 4.496018961071968079e-02 7.092717289924621582e-02
3.306000000000000000e+03 2.313646507263183594e+01 1.728961372375488281e+01 8.199254423379898071e-02 1.367865949869155884e-01 6.563374400138854980e-02 1.072095334529876709e-01
3.307000000000000000e+03 2.037972831726074219e+01 1.334729576110839844e+01 1.090769842267036438e-01 1.666791588068008423e-01 8.272684365510940552e-02 1.333324015140533447e-01
3.308000000000000000e+03 1.534183788299560547e+01 8.980050086975097656e+00 9.812216460704803467e-02 2.908417582511901855e-01 1.166891828179359436e-01 1.459269523620605469e-01
3.309000000000000000e+03 2.495152664184570312e+01 1.210587263107299805e+00 -9.325665831565856934e-01 -1.761763691902160645e-01 -3.326228857040405273e-01 -3.541633188724517822e-01
3.310000000000000000e+03 2.291179847717285156e+01 1.667295646667480469e+01 8.720603585243225098e-02 1.404057443141937256e-01 6.828353554010391235e-02 1.117446497082710266e-01
3.311000000000000000e+03 2.189521789550781250e+01 1.581767272949218750e+01 8.928557485342025757e-02 1.488888412714004517e-01 7.145232707262039185e-02 1.141134798526763916e-01
3.312000000000000000e+03 2.264320373535156250e+01 1.606438827514648438e+01 9.244391322135925293e-02 1.453391909599304199e-01 7.133492827415466309e-02 1.158288121223449707e-01
3.313000000000000000e+03 2.024725341796875000e+01 1.375386524200439453e+01 1.011069416999816895e-01 1.653891354799270630e-01 7.994882762432098389e-02 1.277500838041305542e-01
3.314000000000000000e+03 4.823189163208007812e+01 2.605123329162597656e+01 1.088846102356910706e-01 6.805458068847656250e-01 2.368291169404983521e-01 4.215956032276153564e-01
3.315000000000000000e+03 3.419321060180664062e+01 2.936532020568847656e+01 5.918437615036964417e-02 9.034831076860427856e-02 4.485980421304702759e-02 6.998510658740997314e-02
3.316000000000000000e+03 4.120561218261718750e+01 1.894511222839355469e+01 -3.882471323013305664e-01 7.480753585696220398e-03 -1.142299100756645203e-01 -2.589538991451263428e-01
3.317000000000000000e+03 3.666681289672851562e+01 1.373877716064453125e+01 -6.043061614036560059e-01 -3.442176282405853271e-01 -2.845571339130401611e-01 -4.798725247383117676e-01
3.318000000000000000e+03 3.587906646728515625e+01 1.344835758209228516e+01 -6.508477926254272461e-01 -4.525640606880187988e-01 -3.310235440731048584e-01 -5.479723215103149414e-01
3.319000000000000000e+03 2.826697540283203125e+01 2.135031890869140625e+01 7.295934855937957764e-02 1.085097044706344604e-01 5.444071441888809204e-02 9.203073382377624512e-02
3.320000000000000000e+03 4.408090209960937500e+01 2.150493431091308594e+01 -2.644529044628143311e-01 3.218082785606384277e-01 1.720661297440528870e-02 1.030685380101203918e-02
3.321000000000000000e+03 2.899401664733886719e+01 4.164801120758056641e+00 -8.544709086418151855e-01 -4.763250350952148438e-01 -3.992387652397155762e-01 -4.432896971702575684e-01
3.322000000000000000e+03 2.806916618347167969e+01 3.208564043045043945e+00 -8.480076193809509277e-01 -4.330384433269500732e-01 -3.843138217926025391e-01 -4.019639194011688232e-01
3.323000000000000000e+03 4.841069793701171875e+01 2.631663894653320312e+01 1.313791275024414062e-01 6.890421509742736816e-01 2.461263686418533325e-01 4.291500151157379150e-01
3.324000000000000000e+03 4.306047439575195312e+01 2.087175178527832031e+01 -3.151194155216217041e-01 1.590314209461212158e-01 -4.682640358805656433e-02 -1.039722263813018799e-01
3.325000000000000000e+03 2.973795318603515625e+01 -1.249253988265991211e+00 -8.695978671312332153e-03 -2.215010076761245728e-01 -6.905909627676010132e-02 1.122683379799127579e-02
3.326000000000000000e+03 4.588561630249023438e+01 2.380260658264160156e+01 -1.482631415128707886e-01 4.333617389202117920e-01 8.552958071231842041e-02 1.500091403722763062e-01
3.327000000000000000e+03 4.672543334960937500e+01 2.401076698303222656e+01 -6.887611746788024902e-02 6.621632575988769531e-01 1.779861450195312500e-01 2.985248267650604248e-01
3.328000000000000000e+03 2.933331680297851562e+01 4.208372592926025391e+00 -8.300632238388061523e-01 -4.463466107845306396e-01 -3.829229474067687988e-01 -4.232100546360015869e-01
3.329000000000000000e+03 4.432701873779296875e+01 2.176945114135742188e+01 -2.520408928394317627e-01 3.467399179935455322e-01 2.840970642864704132e-02 3.332148119807243347e-02
3.330000000000000000e+03 5.070579147338867188e+01 2.854445838928222656e+01 5.077151656150817871e-01 9.045141339302062988e-01 4.236687719821929932e-01 7.976276278495788574e-01
3.331000000000000000e+03 3.573329162597656250e+01 1.275381755828857422e+01 -6.458944678306579590e-01 -4.011082649230957031e-01 -3.141008317470550537e-01 -5.109298229217529297e-01
3.332000000000000000e+03 2.112183380126953125e+01 1.406545448303222656e+01 1.086606308817863464e-01 1.589510440826416016e-01 8.028350025415420532e-02 1.282154768705368042e-01
3.333000000000000000e+03 2.789242553710937500e+01 2.123747444152832031e+01 7.032852619886398315e-02 1.072099432349205017e-01 5.326154083013534546e-02 8.951964229345321655e-02
3.334000000000000000e+03 2.803429603576660156e+01 2.082722854614257812e+01 7.703904062509536743e-02 1.095490157604217529e-01 5.597641691565513611e-02 9.408385306596755981e-02
3.335000000000000000e+03 4.860672760009765625e+01 2.657369995117187500e+01 1.566476672887802124e-01 7.076540589332580566e-01 2.592905163764953613e-01 4.583930075168609619e-01
3.336000000000000000e+03 2.195757675170898438e+01 1.545137691497802734e+01 9.434486925601959229e-02 1.503690928220748901e-01 7.341419160366058350e-02 1.170647367835044861e-01
3.337000000000000000e+03 1.895163917541503906e+01 1.262767505645751953e+01 1.023261621594429016e-01 1.811842918395996094e-01 8.505313843488693237e-02 1.344563215970993042e-01
3.338000000000000000e+03 1.819446754455566406e+01 1.162990760803222656e+01 1.038786619901657104e-01 1.979551613330841064e-01 9.055014699697494507e-02 1.421482264995574951e-01
3.339000000000000000e+03 3.692535400390625000e+01 1.401000022888183594e+01 -5.912342071533203125e-01 -3.251017928123474121e-01 -2.749007940292358398e-01 -4.690958857536315918e-01
3.340000000000000000e+03 2.718290328979492188e+01 2.097425079345703125e+01 6.958326697349548340e-02 1.109328120946884155e-01 5.415482446551322937e-02 9.050243347883224487e-02
3.341000000000000000e+03 2.779722213745117188e+01 2.031919097900390625e+01 8.053300529718399048e-02 1.116520389914512634e-01 5.765551328659057617e-02 9.659681469202041626e-02
3.342000000000000000e+03 2.703308296203613281e+01 2.051144790649414062e+01 7.401994615793228149e-02 1.119962558150291443e-01 5.580485984683036804e-02 9.267909824848175049e-02
3.343000000000000000e+03 2.529741096496582031e+01 1.838129425048828125e+01 8.602920919656753540e-02 1.249606609344482422e-01 6.329695880413055420e-02 1.036286279559135437e-01
3.344000000000000000e+03 5.292738342285156250e+01 3.048357009887695312e+01 1.095696926116943359e+00 1.237702608108520508e+00 7.000198960304260254e-01 1.348856806755065918e+00
3.345000000000000000e+03 4.286151504516601562e+01 2.055155563354492188e+01 -3.194279670715332031e-01 1.540273576974868774e-01 -4.962018132209777832e-02 -1.154981404542922974e-01
3.346000000000000000e+03 4.360892486572265625e+01 2.097236251831054688e+01 -2.854137122631072998e-01 2.808855175971984863e-01 -1.358457608148455620e-03 -2.854060567915439606e-02
3.347000000000000000e+03 3.896803665161132812e+01 1.682205963134765625e+01 -5.165816545486450195e-01 -2.261138558387756348e-01 -2.228086590766906738e-01 -3.946996331214904785e-01
3.348000000000000000e+03 4.884308624267578125e+01 2.731109237670898438e+01 1.885002851486206055e-01 5.782746672630310059e-01 2.300324887037277222e-01 4.178216457366943359e-01
3.349000000000000000e+03 1.771310615539550781e+01 1.098214626312255859e+01 1.096770167350769043e-01 2.107006162405014038e-01 9.611328691244125366e-02 1.478349268436431885e-01
3.350000000000000000e+03 3.718338394165039062e+01 1.429007816314697266e+01 -5.810533165931701660e-01 -3.076244592666625977e-01 -2.666033506393432617e-01 -4.554790556430816650e-01
3.351000000000000000e+03 4.457629776000976562e+01 2.203367805480957031e+01 -2.376890927553176880e-01 3.699941933155059814e-01 3.969153016805648804e-02 5.592130497097969055e-02
3.352000000000000000e+03 3.466091537475585938e+01 9.917880058288574219e+00 -6.082404255867004395e-01 -2.891731858253479004e-01 -2.692240774631500244e-01 -4.108918309211730957e-01
3.353000000000000000e+03 1.629715728759765625e+01 9.732102394104003906e+00 1.072901561856269836e-01 2.518996298313140869e-01 1.077569350600242615e-01 1.516215652227401733e-01
3.354000000000000000e+03 3.744062805175781250e+01 1.457439041137695312e+01 -5.688522458076477051e-01 -2.907910048961639404e-01 -2.578929960727691650e-01 -4.432344734668731689e-01
3.355000000000000000e+03 3.468387222290039062e+01 1.123890590667724609e+01 -6.720594763755798340e-01 -4.138630628585815430e-01 -3.257767558097839355e-01 -5.110291838645935059e-01
3.356000000000000000e+03 3.525628280639648438e+01 1.262266254425048828e+01 -6.778793334960937500e-01 -4.677050709724426270e-01 -3.436753153800964355e-01 -5.555751919746398926e-01
3.357000000000000000e+03 3.769726562500000000e+01 1.486070537567138672e+01 -5.591250658035278320e-01 -2.734453380107879639e-01 -2.497711181640625000e-01 -4.294195175170898438e-01
3.358000000000000000e+03 1.409567832946777344e+01 7.604923248291015625e+00 8.675228804349899292e-02 3.851075470447540283e-01 1.415579468011856079e-01 1.207409054040908813e-01
3.359000000000000000e+03 3.795440673828125000e+01 1.514829540252685547e+01 -5.482140779495239258e-01 -2.541624009609222412e-01 -2.407129406929016113e-01 -4.166642129421234131e-01
3.360000000000000000e+03 5.100065612792968750e+01 2.881014060974121094e+01 5.672069787979125977e-01 9.370345473289489746e-01 4.512724578380584717e-01 8.561738729476928711e-01
3.361000000000000000e+03 5.180507278442382812e+01 2.901601028442382812e+01 7.574060559272766113e-01 1.268006324768066406e+00 6.076236963272094727e-01 1.168422698974609375e+00
3.362000000000000000e+03 4.992869567871093750e+01 2.831787872314453125e+01 3.510450422763824463e-01 6.660159230232238770e-01 3.051182925701141357e-01 5.664111971855163574e-01
3.363000000000000000e+03 5.041572570800781250e+01 2.828674125671386719e+01 4.488804042339324951e-01 8.753520250320434570e-01 3.972697257995605469e-01 7.428268790245056152e-01
3.364000000000000000e+03 3.254053497314453125e+01 2.618629455566406250e+01 5.891813337802886963e-02 9.269884973764419556e-02 4.548509418964385986e-02 7.432982325553894043e-02
3.365000000000000000e+03 4.152537155151367188e+01 1.919380378723144531e+01 -3.715396821498870850e-01 4.346216842532157898e-02 -9.842325747013092041e-02 -2.301607429981231689e-01
3.366000000000000000e+03 2.164942169189453125e+01 1.468736362457275391e+01 1.035015806555747986e-01 1.544628441333770752e-01 7.738932222127914429e-02 1.233523339033126831e-01
3.367000000000000000e+03 2.124594688415527344e+01 1.446858310699462891e+01 1.016154289245605469e-01 1.570458263158798218e-01 7.759837806224822998e-02 1.235994622111320496e-01
3.368000000000000000e+03 3.341223526000976562e+01 2.665008163452148438e+01 5.893608182668685913e-02 8.945781737565994263e-02 4.451816901564598083e-02 7.358316332101821899e-02
3.369000000000000000e+03 2.894974136352539062e+01 2.241923904418945312e+01 6.712072342634201050e-02 1.048476248979568481e-01 5.159050598740577698e-02 8.705397695302963257e-02
3.370000000000000000e+03 4.560526657104492188e+01 2.355531311035156250e+01 -1.730950772762298584e-01 3.951412737369537354e-01 6.661386042833328247e-02 1.186269372701644897e-01
3.371000000000000000e+03 3.669077682495117188e+01 1.323229885101318359e+01 -5.930825471878051758e-01 -2.835326790809631348e-01 -2.629845738410949707e-01 -4.439700245857238770e-01
3.372000000000000000e+03 3.821245193481445312e+01 1.543650627136230469e+01 -5.389387607574462891e-01 -2.337045222520828247e-01 -2.317929863929748535e-01 -4.022080600261688232e-01
3.373000000000000000e+03 3.870497894287109375e+01 1.653783226013183594e+01 -5.285573601722717285e-01 -2.528639137744903564e-01 -2.344263792037963867e-01 -4.074009954929351807e-01
3.374000000000000000e+03 4.964611053466796875e+01 2.806550598144531250e+01 3.058490157127380371e-01 6.422318220138549805e-01 2.844242453575134277e-01 5.241819024085998535e-01
3.375000000000000000e+03 5.213208770751953125e+01 2.925343132019042969e+01 8.423528671264648438e-01 1.379437446594238281e+00 6.665371060371398926e-01 1.279882907867431641e+00
3.376000000000000000e+03 4.482789611816406250e+01 2.229691505432128906e+01 -2.226729393005371094e-01 3.963202238082885742e-01 5.209418386220932007e-02 8.008003234863281250e-02
3.377000000000000000e+03 2.602264595031738281e+01 1.915638542175292969e+01 8.243234455585479736e-02 1.200044378638267517e-01 6.073103472590446472e-02 9.942196309566497803e-02
3.378000000000000000e+03 3.107183647155761719e+01 2.504116058349609375e+01 6.003225594758987427e-02 9.626536816358566284e-02 4.688928648829460144e-02 8.081129193305969238e-02
3.379000000000000000e+03 4.339946365356445312e+01 2.070068931579589844e+01 -2.935325205326080322e-01 2.686243057250976562e-01 -7.472459226846694946e-03 -4.334773123264312744e-02
3.380000000000000000e+03 4.867768478393554688e+01 2.554240798950195312e+01 1.524619460105895996e-01 9.939560890197753906e-01 3.439254164695739746e-01 5.978208184242248535e-01
3.381000000000000000e+03 4.984839248657226562e+01 2.779333686828613281e+01 3.488966822624206543e-01 8.089177608489990234e-01 3.473443388938903809e-01 6.395166516304016113e-01
3.382000000000000000e+03 2.652624702453613281e+01 1.922112846374511719e+01 8.559913933277130127e-02 1.178280338644981384e-01 6.102815270423889160e-02 1.003381684422492981e-01
3.383000000000000000e+03 2.620689773559570312e+01 1.947648239135742188e+01 7.918811589479446411e-02 1.193295940756797791e-01 5.955531448125839233e-02 9.726148098707199097e-02
3.384000000000000000e+03 4.930973434448242188e+01 2.731260490417480469e+01 2.605306208133697510e-01 7.550086975097656250e-01 3.046617805957794189e-01 5.500049591064453125e-01
3.385000000000000000e+03 4.957379531860351562e+01 2.755275344848632812e+01 3.039105534553527832e-01 7.789216637611389160e-01 3.248496651649475098e-01 5.950439572334289551e-01
3.386000000000000000e+03 2.183377456665039062e+01 1.505508995056152344e+01 1.001686304807662964e-01 1.519974768161773682e-01 7.564982771873474121e-02 1.205777823925018311e-01
3.387000000000000000e+03 3.269974899291992188e+01 9.201043128967285156e+00 -7.054668664932250977e-01 -5.041562318801879883e-01 -3.628869056701660156e-01 -5.021997690200805664e-01
3.388000000000000000e+03 5.247303771972656250e+01 2.944915199279785156e+01 9.238918423652648926e-01 1.501317977905273438e+00 7.275629639625549316e-01 1.399145483970642090e+00
3.389000000000000000e+03 2.444460868835449219e+01 1.811704444885253906e+01 8.486576378345489502e-02 1.277655363082885742e-01 6.378939002752304077e-02 1.043802276253700256e-01
3.390000000000000000e+03 2.985657119750976562e+01 4.488700866699218750e+00 -7.812263369560241699e-01 -3.869875967502593994e-01 -3.504641950130462646e-01 -4.188654124736785889e-01
3.391000000000000000e+03 4.005286407470703125e+01 1.738584136962890625e+01 -4.565546214580535889e-01 -4.892452433705329895e-02 -1.516437530517578125e-01 -3.067731559276580811e-01
3.392000000000000000e+03 2.579398155212402344e+01 1.889112472534179688e+01 8.450361341238021851e-02 1.219553798437118530e-01 6.193769723176956177e-02 1.012094244360923767e-01
3.393000000000000000e+03 2.552236366271972656e+01 1.865926933288574219e+01 8.531532436609268188e-02 1.226662546396255493e-01 6.239447370171546936e-02 1.011334434151649475e-01
3.394000000000000000e+03 5.486835098266601562e+01 3.221750640869140625e+01 2.135843992233276367e+00 1.658298850059509277e+00 1.138242840766906738e+00 1.779771208763122559e+00
3.395000000000000000e+03 5.426819229125976562e+01 3.202494049072265625e+01 1.654063105583190918e+00 1.355594396591186523e+00 9.028972387313842773e-01 1.463391065597534180e+00
3.396000000000000000e+03 4.186732864379882812e+01 1.943843269348144531e+01 -3.554914593696594238e-01 8.117778599262237549e-02 -8.229410648345947266e-02 -1.973120719194412231e-01
3.397000000000000000e+03 4.269065856933593750e+01 1.980394554138183594e+01 -3.180427551269531250e-01 2.206872850656509399e-01 -2.920664101839065552e-02 -1.014662310481071472e-01
3.398000000000000000e+03 5.751445388793945312e+01 3.195902061462402344e+01 2.438933134078979492e+00 9.201538085937500000e+00 3.492141246795654297e+00 5.198891162872314453e+00
3.399000000000000000e+03 2.134192657470703125e+01 1.420051383972167969e+01 1.084841489791870117e-01 1.579957604408264160e-01 7.994396984577178955e-02 1.283037960529327393e-01
3.400000000000000000e+03 3.847140502929687500e+01 1.572416591644287109e+01 -5.287138223648071289e-01 -2.109955400228500366e-01 -2.219128012657165527e-01 -3.893819153308868408e-01
3.401000000000000000e+03 3.873126602172851562e+01 1.600990104675292969e+01 -5.195001959800720215e-01 -1.866194754838943481e-01 -2.118359059095382690e-01 -3.747818171977996826e-01
3.402000000000000000e+03 1.855774307250976562e+01 1.220249557495117188e+01 1.015847995877265930e-01 1.888768970966339111e-01 8.713851124048233032e-02 1.377069354057312012e-01
3.403000000000000000e+03 3.978384017944335938e+01 1.711987304687500000e+01 -4.717556536197662354e-01 -7.778217643499374390e-02 -1.648613512516021729e-01 -3.207645416259765625e-01
3.404000000000000000e+03 3.504729843139648438e+01 1.139204502105712891e+01 -6.449861526489257812e-01 -3.724667429924011230e-01 -3.052358627319335938e-01 -4.860884547233581543e-01
3.405000000000000000e+03 5.351763534545898438e+01 3.078497886657714844e+01 1.329531192779541016e+00 1.513381838798522949e+00 8.528739213943481445e-01 1.601072549819946289e+00
3.406000000000000000e+03 3.084018516540527344e+01 2.383171272277832031e+01 6.350775808095932007e-02 9.340146929025650024e-02 4.707276821136474609e-02 8.158527314662933350e-02
3.407000000000000000e+03 2.383604049682617188e+01 8.267204165458679199e-01 -1.012269258499145508e+00 -1.268197745084762573e-01 -3.417266905307769775e-01 -4.646040499210357666e-01
3.408000000000000000e+03 2.368147087097167969e+01 5.482065677642822266e-01 -9.407254457473754883e-01 -8.418612182140350342e-02 -3.074734508991241455e-01 -4.056885242462158203e-01
3.409000000000000000e+03 2.248680496215820312e+01 1.653034973144531250e+01 8.452422916889190674e-02 1.428864151239395142e-01 6.822319328784942627e-02 1.103939563035964966e-01
3.410000000000000000e+03 5.269957733154296875e+01 2.998122787475585938e+01 1.032593607902526855e+00 1.369045376777648926e+00 7.204917073249816895e-01 1.387522339820861816e+00
3.411000000000000000e+03 1.557942390441894531e+01 9.536611557006835938e+00 9.378061443567276001e-02 2.697421610355377197e-01 1.090568378567695618e-01 1.393329054117202759e-01
3.412000000000000000e+03 4.533805465698242188e+01 2.281497001647949219e+01 -1.892267018556594849e-01 4.523832798004150391e-01 7.894697040319442749e-02 1.305580288171768188e-01
3.413000000000000000e+03 4.559944534301757812e+01 2.306801986694335938e+01 -1.698248237371444702e-01 4.837027192115783691e-01 9.416337311267852783e-02 1.586596220731735229e-01
3.414000000000000000e+03 3.314541625976562500e+01 2.650189781188964844e+01 6.372443586587905884e-02 9.183509647846221924e-02 4.666785895824432373e-02 7.554835081100463867e-02
3.415000000000000000e+03 3.292683792114257812e+01 2.598832130432128906e+01 6.535054743289947510e-02 9.184785932302474976e-02 4.715952277183532715e-02 7.652354985475540161e-02
3.416000000000000000e+03 3.336727142333984375e+01 2.729185104370117188e+01 5.534227564930915833e-02 8.988875895738601685e-02 4.356931149959564209e-02 7.038844376802444458e-02
3.417000000000000000e+03 2.145665550231933594e+01 1.522668170928955078e+01 9.182131290435791016e-02 1.528523862361907959e-01 7.340210676193237305e-02 1.163555085659027100e-01
3.418000000000000000e+03 3.378408432006835938e+01 1.045816707611083984e+01 -7.161075472831726074e-01 -4.628328680992126465e-01 -3.536821305751800537e-01 -5.330266952514648438e-01
3.419000000000000000e+03 4.642998886108398438e+01 2.378562736511230469e+01 -9.986283630132675171e-02 6.088915467262268066e-01 1.527086198329925537e-01 2.591445446014404297e-01
3.420000000000000000e+03 2.224205207824707031e+01 1.594253349304199219e+01 8.953990042209625244e-02 1.466480195522308350e-01 7.085637748241424561e-02 1.138179898262023926e-01
3.421000000000000000e+03 1.494532680511474609e+01 8.917122840881347656e+00 8.742713183164596558e-02 2.991889715194702148e-01 1.159848272800445557e-01 1.305627077817916870e-01
3.422000000000000000e+03 1.452152347564697266e+01 8.462338447570800781e+00 8.488989621400833130e-02 3.268299102783203125e-01 1.235159486532211304e-01 1.254985034465789795e-01
3.423000000000000000e+03 3.497458648681640625e+01 1.169521713256835938e+01 -6.587383151054382324e-01 -4.127433001995086670e-01 -3.214444816112518311e-01 -5.143492221832275391e-01
3.424000000000000000e+03 3.535673904418945312e+01 1.196142101287841797e+01 -6.437056660652160645e-01 -3.809406459331512451e-01 -3.073939085006713867e-01 -4.956544339656829834e-01
3.425000000000000000e+03 2.488480377197265625e+01 1.800899887084960938e+01 8.806616067886352539e-02 1.261915415525436401e-01 6.427731364965438843e-02 1.056758090853691101e-01
3.426000000000000000e+03 2.941130256652832031e+01 2.295310211181640625e+01 6.519478559494018555e-02 1.025412082672119141e-01 5.032080039381980896e-02 8.523846417665481567e-02
3.427000000000000000e+03 3.323411941528320312e+01 8.891247749328613281e+00 -6.293494105339050293e-01 -4.128716289997100830e-01 -3.126662969589233398e-01 -4.421872794628143311e-01
3.428000000000000000e+03 1.754919052124023438e+01 1.136651229858398438e+01 9.915544092655181885e-02 2.090267539024353027e-01 9.245465695858001709e-02 1.389434784650802612e-01
3.429000000000000000e+03 5.781559371948242188e+01 3.248596572875976562e+01 2.965316057205200195e+00 1.085270977020263672e+01 4.145407676696777344e+00 6.126156330108642578e+00
3.430000000000000000e+03 3.503034210205078125e+01 2.938605499267578125e+01 6.672053039073944092e-02 9.009782969951629639e-02 4.704551026225090027e-02 7.365417480468750000e-02
3.431000000000000000e+03 1.664898872375488281e+01 9.811591148376464844e+00 1.137593761086463928e-01 2.426710873842239380e-01 1.069291383028030396e-01 1.555239707231521606e-01
3.432000000000000000e+03 1.737850761413574219e+01 1.063291358947753906e+01 1.104315295815467834e-01 2.202106118202209473e-01 9.919264167547225952e-02 1.492958366870880127e-01
3.433000000000000000e+03 1.705847930908203125e+01 1.037681579589843750e+01 1.094736382365226746e-01 2.285598367452621460e-01 1.014100387692451477e-01 1.494312286376953125e-01
3.434000000000000000e+03 1.269313430786132812e+01 5.620491981506347656e+00 1.393196880817413330e-01 5.253117680549621582e-01 1.993894279003143311e-01 -6.611982733011245728e-02
3.435000000000000000e+03 1.176109313964843750e+01 5.085833072662353516e+00 2.624668180942535400e-01 3.099974989891052246e-01 1.717392951250076294e-01 -1.658759415149688721e-01
3.436000000000000000e+03 3.170243644714355469e+01 5.196428298950195312e+00 -5.666978359222412109e-01 -2.688761055469512939e-01 -2.506721913814544678e-01 -4.094929099082946777e-01
3.437000000000000000e+03 3.057762718200683594e+01 2.357000732421875000e+01 6.186380237340927124e-02 9.891863912343978882e-02 4.823473095893859863e-02 8.421938866376876831e-02
3.438000000000000000e+03 2.954381179809570312e+01 4.536654472351074219e+00 -8.482208251953125000e-01 -4.434376060962677002e-01 -3.874975442886352539e-01 -4.591505825519561768e-01
3.439000000000000000e+03 3.293331527709960938e+01 8.433018684387207031e+00 -5.987878441810607910e-01 -4.305071830749511719e-01 -3.087885081768035889e-01 -4.383884668350219727e-01
3.440000000000000000e+03 3.604686737060546875e+01 3.088973617553710938e+01 6.976805627346038818e-02 8.451320230960845947e-02 4.628437757492065430e-02 6.690617650747299194e-02
3.441000000000000000e+03 3.488369369506835938e+01 2.995582962036132812e+01 5.599701404571533203e-02 7.847700268030166626e-02 4.034220427274703979e-02 5.809939280152320862e-02
3.442000000000000000e+03 3.521686935424804688e+01 1.064433193206787109e+01 -6.083201169967651367e-01 -2.768136560916900635e-01 -2.655401229858398438e-01 -4.169248342514038086e-01
3.443000000000000000e+03 3.319896697998046875e+01 6.032767295837402344e+00 -4.666264355182647705e-01 -2.047429680824279785e-01 -2.014108151197433472e-01 -3.293519020080566406e-01
3.444000000000000000e+03 3.271158599853515625e+01 6.483037471771240234e+00 -4.973224699497222900e-01 -2.985623776912689209e-01 -2.387654483318328857e-01 -3.929113447666168213e-01
3.445000000000000000e+03 5.874423980712890625e+01 3.095605278015136719e+01 4.709137678146362305e-01 1.271645259857177734e+01 3.956210136413574219e+00 3.072177171707153320e+00
3.446000000000000000e+03 5.915847396850585938e+01 3.095340728759765625e+01 2.764296531677246094e-01 1.346801090240478516e+01 4.123332500457763672e+00 2.458312034606933594e+00
3.447000000000000000e+03 1.128365039825439453e+01 5.350761890411376953e+00 2.598549127578735352e-01 2.011216282844543457e-01 1.382929682731628418e-01 -1.302013248205184937e-01
3.448000000000000000e+03 1.244385719299316406e+01 5.245678901672363281e+00 1.911210119724273682e-01 5.020305514335632324e-01 2.079454660415649414e-01 -1.349062323570251465e-01
3.449000000000000000e+03 3.279333496093750000e+01 6.904398441314697266e+00 -5.017377734184265137e-01 -3.352050185203552246e-01 -2.510828375816345215e-01 -3.992312252521514893e-01
3.450000000000000000e+03 2.986685180664062500e+01 2.347646141052246094e+01 6.355777382850646973e-02 9.961654245853424072e-02 4.895229637622833252e-02 8.351749181747436523e-02
3.451000000000000000e+03 2.646708869934082031e+01 -4.720067679882049561e-01 -2.552990019321441650e-01 -2.099704444408416748e-01 -1.395808309316635132e-01 -6.899625808000564575e-02
3.452000000000000000e+03 2.719665527343750000e+01 -7.917688488960266113e-01 -1.894886195659637451e-01 -2.347638756036758423e-01 -1.272757500410079956e-01 -3.530030325055122375e-02
3.453000000000000000e+03 2.590355873107910156e+01 -6.391752958297729492e-01 -2.122653722763061523e-01 -1.139008998870849609e-01 -9.784988313913345337e-02 -6.257272511720657349e-02
3.454000000000000000e+03 3.033885955810546875e+01 2.527771186828613281e+01 5.521542578935623169e-02 9.896469116210937500e-02 4.625403508543968201e-02 8.175302296876907349e-02
3.455000000000000000e+03 2.524490165710449219e+01 1.364085078239440918e+00 -9.392124414443969727e-01 -2.362152487039566040e-01 -3.526283204555511475e-01 -3.655831217765808105e-01
3.456000000000000000e+03 3.990557098388671875e+01 3.430116653442382812e+01 8.704752475023269653e-02 7.963301241397857666e-02 5.000416189432144165e-02 6.945386528968811035e-02
3.457000000000000000e+03 3.750271987915039062e+01 3.137516212463378906e+01 7.773391902446746826e-02 7.822563499212265015e-02 4.678786545991897583e-02 6.777587532997131348e-02
3.458000000000000000e+03 3.866183090209960938e+01 3.172149276733398438e+01 6.045503169298171997e-02 6.442698836326599121e-02 3.746460750699043274e-02 6.082636862993240356e-02
3.459000000000000000e+03 3.688246536254882812e+01 3.068209648132324219e+01 6.810909509658813477e-02 8.865638077259063721e-02 4.702964425086975098e-02 6.932893395423889160e-02
3.460000000000000000e+03 3.040951728820800781e+01 -2.402586460113525391e+00 1.141675412654876709e-01 -1.732374429702758789e-01 -1.772096939384937286e-02 2.185593731701374054e-02
3.461000000000000000e+03 3.191710281372070312e+01 2.629712486267089844e+01 5.776287615299224854e-02 9.333387017250061035e-02 4.532902315258979797e-02 7.361886650323867798e-02
3.462000000000000000e+03 3.295814132690429688e+01 7.316123008728027344e+00 -5.215117335319519043e-01 -3.406254947185516357e-01 -2.586411833763122559e-01 -3.963322341442108154e-01
3.463000000000000000e+03 3.317807388305664062e+01 7.733182907104492188e+00 -5.336375236511230469e-01 -3.507328927516937256e-01 -2.653111219406127930e-01 -3.947545588016510010e-01
3.464000000000000000e+03 6.163275527954101562e+01 3.064748954772949219e+01 8.137362599372863770e-01 1.296964931488037109e+01 4.135015964508056641e+00 -8.772339820861816406e-01
3.465000000000000000e+03 1.200268459320068359e+01 5.515562057495117188e+00 2.023448944091796875e-01 3.711848556995391846e-01 1.720589250326156616e-01 -1.245687752962112427e-01
3.466000000000000000e+03 3.834766387939453125e+01 3.292171478271484375e+01 5.797493830323219299e-02 6.333093345165252686e-02 3.639176115393638611e-02 6.467140465974807739e-02
3.467000000000000000e+03 3.628612136840820312e+01 3.212477111816406250e+01 7.479485124349594116e-02 7.758089154958724976e-02 4.571272060275077820e-02 6.090572476387023926e-02
3.468000000000000000e+03 3.901107025146484375e+01 3.469546890258789062e+01 7.011364400386810303e-02 5.013812705874443054e-02 3.607553243637084961e-02 5.166687071323394775e-02
3.469000000000000000e+03 3.132000732421875000e+01 -2.413252115249633789e+00 1.197123676538467407e-01 -1.091539487242698669e-01 3.167524235323071480e-03 1.649037003517150879e-02
3.470000000000000000e+03 3.165436553955078125e+01 -3.435610055923461914e+00 1.772967278957366943e-01 -7.371005415916442871e-02 3.107599914073944092e-02 6.862374953925609589e-03
3.471000000000000000e+03 7.907282352447509766e+00 -7.401915073394775391e+00 -9.446380287408828735e-02 -1.969665437936782837e-01 -8.742910623550415039e-02 -3.234026730060577393e-01
3.472000000000000000e+03 2.836819839477539062e+01 -1.090077400207519531e+00 -5.666528642177581787e-02 -2.195369601249694824e-01 -8.286067098379135132e-02 4.387010820209980011e-03
3.473000000000000000e+03 6.668877601623535156e+00 -9.939913749694824219e+00 -1.219300739467144012e-02 -2.777091264724731445e-01 -8.697064220905303955e-02 -2.880978286266326904e-01
3.474000000000000000e+03 9.342956542968750000e+00 -6.946341037750244141e+00 -1.274807304143905640e-01 -1.969031691551208496e-01 -9.731516987085342407e-02 -3.730469644069671631e-01
3.475000000000000000e+03 1.276440906524658203e+01 -1.044438266754150391e+01 1.111809387803077698e-01 -2.801464498043060303e-01 -5.068964883685112000e-02 -3.564285635948181152e-01
3.476000000000000000e+03 9.963370323181152344e+00 -6.740086555480957031e+00 -1.309311538934707642e-01 -2.129736393690109253e-01 -1.031714379787445068e-01 -3.949424326419830322e-01
3.477000000000000000e+03 9.133495330810546875e+00 6.110699176788330078e+00 2.085136324167251587e-01 -6.044985353946685791e-02 4.441913589835166931e-02 -4.203986842185258865e-03
3.478000000000000000e+03 1.117956066131591797e+01 -6.618820190429687500e+00 -1.443410664796829224e-01 -2.441256046295166016e-01 -1.165399998426437378e-01 -4.423330724239349365e-01
3.479000000000000000e+03 7.902252674102783203e+00 8.366840362548828125e+00 1.186395958065986633e-01 -4.419666156172752380e-02 2.233288064599037170e-02 4.328534938395023346e-03
3.480000000000000000e+03 3.088558959960937500e+01 -2.048300504684448242e+00 7.868047803640365601e-02 -1.517042666673660278e-01 -2.190713398158550262e-02 1.677308231592178345e-02
3.481000000000000000e+03 1.056784534454345703e+01 -6.623536109924316406e+00 -1.482573151588439941e-01 -2.123720943927764893e-01 -1.081888228654861450e-01 -4.127360582351684570e-01
3.482000000000000000e+03 8.192061424255371094e+00 -8.365139007568359375e+00 -4.448854178190231323e-02 -2.414236515760421753e-01 -8.577366173267364502e-02 -3.400160074234008789e-01
3.483000000000000000e+03 1.041997909545898438e+01 5.850146770477294922e+00 2.361596077680587769e-01 4.779752343893051147e-02 8.518713712692260742e-02 -7.129795104265213013e-02
3.484000000000000000e+03 7.130037689208984375e+01 -1.571459054946899414e+00 -1.255992501974105835e-01 7.881051063537597656e+00 2.326635599136352539e+00 4.009119421243667603e-02
3.485000000000000000e+03 6.969122314453125000e+01 -4.629325866699218750e+00 -1.349221020936965942e-01 7.541078090667724609e+00 2.221846818923950195e+00 1.225775852799415588e-01
3.486000000000000000e+03 4.036072540283203125e+01 3.511072921752929688e+01 7.045160979032516479e-02 7.330027967691421509e-02 4.312556609511375427e-02 4.341016709804534912e-02
3.487000000000000000e+03 7.158081054687500000e+01 1.104071378707885742e+00 -1.531992107629776001e-01 7.974996089935302734e+00 2.346539020538330078e+00 -3.413780033588409424e-02
3.488000000000000000e+03 7.159173583984375000e+01 3.893883705139160156e+00 -1.937320977449417114e-01 7.982746601104736328e+00 2.336704254150390625e+00 -1.254575997591018677e-01
3.489000000000000000e+03 3.315723800659179688e+01 -4.303631305694580078e+00 1.888573914766311646e-01 6.708922237157821655e-02 7.678398489952087402e-02 1.337585691362619400e-02
3.490000000000000000e+03 6.383972167968750000e+01 3.294170761108398438e+01 3.313145637512207031e+00 1.109139633178710938e+01 4.321362495422363281e+00 -1.133091330528259277e+00
3.491000000000000000e+03 4.057825469970703125e+01 3.669285583496093750e+01 7.951552420854568481e-02 7.306408882141113281e-02 4.577388614416122437e-02 3.723081573843955994e-02
3.492000000000000000e+03 7.696197509765625000e+00 -1.506147098541259766e+01 6.192643567919731140e-02 -3.779986202716827393e-01 -9.482165426015853882e-02 -2.542929649353027344e-01
3.493000000000000000e+03 1.362424087524414062e+01 -1.113262844085693359e+01 1.244378611445426941e-01 -2.460440695285797119e-01 -3.648186102509498596e-02 -3.335812687873840332e-01
3.494000000000000000e+03 1.065814781188964844e+01 -7.238551616668701172e+00 -1.046515256166458130e-01 -2.445208877325057983e-01 -1.047517210245132446e-01 -4.252168238162994385e-01
3.495000000000000000e+03 1.180067348480224609e+01 -6.727824687957763672e+00 -1.227606907486915588e-01 -2.546763122081756592e-01 -1.132311075925827026e-01 -4.460116028785705566e-01
3.496000000000000000e+03 3.710660171508789062e+01 -6.837954521179199219e+00 1.243039220571517944e-01 6.568872928619384766e-01 2.343573719263076782e-01 -2.221050672233104706e-02
3.497000000000000000e+03 6.303170394897460938e+01 3.032672500610351562e+01 1.052227616310119629e+00 1.180032062530517578e+01 3.855764389038085938e+00 -1.396984219551086426e+00
3.498000000000000000e+03 6.550105285644531250e+01 3.639036941528320312e+01 2.294779062271118164e+00 1.043695259094238281e+01 3.819519519805908203e+00 6.182439923286437988e-01
3.499000000000000000e+03 1.365016555786132812e+01 -1.463954734802246094e+01 1.491845250129699707e-01 -1.970529705286026001e-01 -1.436053309589624405e-02 -2.750015258789062500e-01
3.500000000000000000e+03 4.202318191528320312e+01 -1.371589374542236328e+01 -4.946809262037277222e-02 1.708428502082824707e+00 4.976881444454193115e-01 -1.182709783315658569e-01
3.501000000000000000e+03 4.176085662841796875e+01 -1.482563972473144531e+01 -6.304388493299484253e-02 1.652090668678283691e+00 4.767140150070190430e-01 -1.281298846006393433e-01
3.502000000000000000e+03 3.518313598632812500e+01 -5.062844753265380859e+00 1.520388126373291016e-01 3.364956080913543701e-01 1.465603262186050415e-01 -1.518494682386517525e-03
3.503000000000000000e+03 1.452619361877441406e+01 -1.368690204620361328e+01 1.705212891101837158e-01 -1.693672537803649902e-01 3.462090098764747381e-04 -2.743746936321258545e-01
3.504000000000000000e+03 6.431473731994628906e+00 -8.832081794738769531e+00 -2.840601466596126556e-02 -2.473420947790145874e-01 -8.272442966699600220e-02 -2.823107540607452393e-01
3.505000000000000000e+03 7.108596801757812500e+01 -9.352795600891113281e+00 -7.652359455823898315e-02 7.753495216369628906e+00 2.303091526031494141e+00 1.809918582439422607e-01
3.506000000000000000e+03 7.015708923339843750e+01 -2.622210502624511719e+00 -1.394239962100982666e-01 7.649209499359130859e+00 2.252935647964477539e+00 7.237401604652404785e-02
3.507000000000000000e+03 7.091057586669921875e+01 -8.229831695556640625e+00 -8.803375810384750366e-02 7.726152896881103516e+00 2.291435718536376953e+00 1.653346717357635498e-01
3.508000000000000000e+03 6.982197570800781250e+01 -1.066844081878662109e+01 -8.338861167430877686e-02 7.497183799743652344e+00 2.224138498306274414e+00 2.111071199178695679e-01
3.509000000000000000e+03 8.301649093627929688e+00 1.481136894226074219e+01 1.641644351184368134e-02 3.584198188036680222e-03 6.000192370265722275e-03 -1.472369674593210220e-02
3.510000000000000000e+03 7.225643634796142578e+00 1.384651279449462891e+01 2.401942573487758636e-02 -2.956735715270042419e-02 -1.664379495196044445e-03 -1.620524935424327850e-02
3.511000000000000000e+03 7.047017669677734375e+01 4.361092090606689453e+00 -2.497098594903945923e-01 7.792286396026611328e+00 2.262773036956787109e+00 -1.283759772777557373e-01
3.512000000000000000e+03 6.942043304443359375e+01 -2.256483840942382812e+01 -1.074339635670185089e-02 7.271532535552978516e+00 2.178236722946166992e+00 3.158667981624603271e-01
3.513000000000000000e+03 6.897579956054687500e+01 -2.819124794006347656e+01 5.586905777454376221e-02 7.107935905456542969e+00 2.149141550064086914e+00 3.130803704261779785e-01
3.514000000000000000e+03 1.123023414611816406e+01 -7.824485778808593750e+00 -4.360006004571914673e-02 -2.752194702625274658e-01 -9.564585983753204346e-02 -4.248510301113128662e-01
3.515000000000000000e+03 9.676517486572265625e+00 -7.728826522827148438e+00 -7.069569826126098633e-02 -2.391675859689712524e-01 -9.295898675918579102e-02 -3.816866874694824219e-01
3.516000000000000000e+03 7.028252410888671875e+01 -1.728558158874511719e+01 -4.437143355607986450e-02 7.498570442199707031e+00 2.236259698867797852e+00 2.766421437263488770e-01
3.517000000000000000e+03 7.008741760253906250e+01 -1.844216156005859375e+01 -4.483303800225257874e-02 7.438173770904541016e+00 2.218002319335937500e+00 2.841922640800476074e-01
3.518000000000000000e+03 7.077249145507812500e+01 2.553730392456054688e+01 -1.672759056091308594e-01 8.141895294189453125e+00 2.392385721206665039e+00 -1.616410851478576660e+00
3.519000000000000000e+03 7.226596069335937500e+01 2.343485641479492188e+01 -2.620740830898284912e-01 7.854490756988525391e+00 2.277724981307983398e+00 -1.435899972915649414e+00
3.520000000000000000e+03 7.160597324371337891e+00 8.769730567932128906e+00 1.021978557109832764e-01 -6.717896461486816406e-02 1.050566695630550385e-02 1.245798822492361069e-02
3.521000000000000000e+03 6.736934661865234375e+00 8.007059097290039062e+00 1.083149015903472900e-01 -9.471511095762252808e-02 4.079937934875488281e-03 3.560758382081985474e-02
3.522000000000000000e+03 8.149591445922851562e+00 1.739388465881347656e+01 3.683944465592503548e-03 -1.128362026065587997e-02 -2.279902575537562370e-03 -1.782014779746532440e-02
3.523000000000000000e+03 3.800636291503906250e+01 -8.348913192749023438e+00 1.010115295648574829e-01 8.169733285903930664e-01 2.753954529762268066e-01 -4.602854326367378235e-02
3.524000000000000000e+03 3.945524978637695312e+01 -1.148430252075195312e+01 3.353852778673171997e-02 1.149209499359130859e+00 3.548243939876556396e-01 -9.282139688730239868e-02
3.525000000000000000e+03 7.235372924804687500e+01 1.573891925811767578e+01 -3.869451582431793213e-01 8.065370559692382812e+00 2.303527593612670898e+00 -8.063345551490783691e-01
3.526000000000000000e+03 7.433481693267822266e+00 6.487793922424316406e+00 1.427091360092163086e-01 -1.157542243599891663e-01 8.086473681032657623e-03 6.193527206778526306e-02
3.527000000000000000e+03 7.237047576904296875e+01 2.219657325744628906e+01 -3.332282900810241699e-01 7.892236709594726562e+00 2.267702579498291016e+00 -1.349780201911926270e+00
3.528000000000000000e+03 7.136164855957031250e+01 1.959138679504394531e+01 -4.785149991512298584e-01 8.072456359863281250e+00 2.278182268142700195e+00 -1.145579099655151367e+00
3.529000000000000000e+03 7.253527069091796875e+01 8.505207061767578125e+00 -2.416237592697143555e-01 8.146567344665527344e+00 2.371483325958251953e+00 -3.237291872501373291e-01
3.530000000000000000e+03 7.136508941650390625e+01 7.518381595611572266e+00 -2.716881632804870605e-01 7.978149414062500000e+00 2.311938285827636719e+00 -2.754854857921600342e-01
3.531000000000000000e+03 3.794548797607421875e+01 -7.000401973724365234e+00 1.162169501185417175e-01 8.319866657257080078e-01 2.844610810279846191e-01 -2.373176813125610352e-02
3.532000000000000000e+03 7.765782833099365234e+00 2.409676551818847656e+01 -7.867992855608463287e-03 -3.966683149337768555e-02 -1.426044665277004242e-02 -1.589598320424556732e-02
3.533000000000000000e+03 8.831408500671386719e+00 2.368704223632812500e+01 -6.864766124635934830e-03 -1.867746375501155853e-02 -7.662668824195861816e-03 -1.342640724033117294e-02
3.534000000000000000e+03 1.803757858276367188e+01 -1.847459602355957031e+01 1.589959114789962769e-01 7.420369237661361694e-02 6.995987892150878906e-02 -2.320230305194854736e-01
3.535000000000000000e+03 7.252408599853515625e+01 1.323023605346679688e+01 -3.287209272384643555e-01 8.107227325439453125e+00 2.333551883697509766e+00 -6.152964234352111816e-01
3.536000000000000000e+03 7.138230895996093750e+01 1.195253276824951172e+01 -3.810494542121887207e-01 8.019052505493164062e+00 2.291400909423828125e+00 -5.297446846961975098e-01
3.537000000000000000e+03 7.129039764404296875e+01 1.838042449951171875e+01 -5.013020038604736328e-01 8.068655014038085938e+00 2.270205974578857422e+00 -1.042327046394348145e+00
3.538000000000000000e+03 1.383665561676025391e+01 3.005144691467285156e+01 -7.722029928117990494e-03 2.702697739005088806e-02 5.791484378278255463e-03 4.652877338230609894e-03
3.539000000000000000e+03 9.367993354797363281e+00 2.998622894287109375e+01 -6.587551441043615341e-03 -2.737388759851455688e-02 -1.018843147903680801e-02 -6.134161725640296936e-03
3.540000000000000000e+03 1.752336120605468750e+01 -1.616843414306640625e+01 1.692991405725479126e-01 3.824731707572937012e-02 6.226393580436706543e-02 -2.276346683502197266e-01
3.541000000000000000e+03 7.110541534423828125e+01 -4.713320434093475342e-01 -1.557440161705017090e-01 7.851325988769531250e+00 2.308674573898315430e+00 1.309039536863565445e-02
3.542000000000000000e+03 7.051422882080078125e+01 1.880559682846069336e+00 -1.983967274427413940e-01 7.772195816040039062e+00 2.272139549255371094e+00 -4.601668193936347961e-02
3.543000000000000000e+03 8.512803077697753906e+00 -9.333277702331542969e+00 -2.100995369255542755e-02 -2.634940147399902344e-01 -8.535119146108627319e-02 -3.426540195941925049e-01
3.544000000000000000e+03 9.011457443237304688e+00 1.670479583740234375e+01 6.117507349699735641e-03 1.456497795879840851e-02 6.204745732247829437e-03 -1.278987806290388107e-02
3.545000000000000000e+03 4.363356018066406250e+01 -1.861073684692382812e+01 -1.213192269206047058e-01 2.207763671875000000e+00 6.259333491325378418e-01 -1.767177134752273560e-01
3.546000000000000000e+03 6.532525062561035156e+00 -1.529590702056884766e+01 5.457241460680961609e-02 -4.140180647373199463e-01 -1.078336983919143677e-01 -2.355516105890274048e-01
3.547000000000000000e+03 3.988488006591796875e+01 -9.479853630065917969e+00 5.753164365887641907e-02 1.221666336059570312e+00 3.837593793869018555e-01 -5.527128651738166809e-02
3.548000000000000000e+03 7.871734142303466797e+00 -1.637771987915039062e+01 7.444135844707489014e-02 -3.960981965065002441e-01 -9.649704396724700928e-02 -2.427529096603393555e-01
3.549000000000000000e+03 8.860314369201660156e+00 -2.213071632385253906e+01 7.290084660053253174e-02 -4.176690876483917236e-01 -1.034304723143577576e-01 -1.819176375865936279e-01
3.550000000000000000e+03 8.304221153259277344e+00 -1.907789993286132812e+01 7.701294124126434326e-02 -4.122536182403564453e-01 -1.005722060799598694e-01 -2.110724002122879028e-01
3.551000000000000000e+03 7.939812660217285156e+00 1.052044773101806641e+01 7.193025946617126465e-02 -1.584457792341709137e-02 1.682570390403270721e-02 -9.397123008966445923e-03
3.552000000000000000e+03 7.173179149627685547e+00 1.012714481353759766e+01 7.498768717050552368e-02 -4.377292841672897339e-02 9.364427067339420319e-03 -2.981058554723858833e-03
3.553000000000000000e+03 7.038904571533203125e+01 -2.145638275146484375e+01 -1.742772758007049561e-02 7.440940380096435547e+00 2.227053880691528320e+00 2.959853112697601318e-01
3.554000000000000000e+03 1.574362087249755859e+01 -2.348179435729980469e+01 1.168114319443702698e-01 -6.577239185571670532e-02 1.531171333044767380e-02 -2.091539949178695679e-01
3.555000000000000000e+03 7.276031017303466797e+00 1.264111137390136719e+01 4.001539945602416992e-02 -2.857765741646289825e-02 3.431322053074836731e-03 -1.387855503708124161e-02
3.556000000000000000e+03 8.508414268493652344e+00 2.251959609985351562e+01 -8.036643266677856445e-03 -2.142397128045558929e-02 -8.838184177875518799e-03 -1.517198141664266586e-02
3.557000000000000000e+03 4.978566741943359375e+01 -2.479970169067382812e+01 -1.677870452404022217e-01 4.062906265258789062e+00 1.168535828590393066e+00 9.672600030899047852e-02
3.558000000000000000e+03 4.077364349365234375e+01 -1.084471416473388672e+01 2.208214998245239258e-02 1.423269629478454590e+00 4.336055517196655273e-01 -6.877790391445159912e-02
3.559000000000000000e+03 8.868443489074707031e+00 -2.379431724548339844e+01 5.929224565625190735e-02 -4.276025295257568359e-01 -1.104930788278579712e-01 -1.552423685789108276e-01
3.560000000000000000e+03 8.573059082031250000e+00 1.583483123779296875e+01 1.224517449736595154e-02 8.740179240703582764e-03 6.295606028288602829e-03 -1.543785352259874344e-02
3.561000000000000000e+03 3.409066772460937500e+01 -4.274910926818847656e+00 1.534301787614822388e-01 1.692612022161483765e-01 9.680741280317306519e-02 3.069002123083919287e-04
3.562000000000000000e+03 7.097705841064453125e+01 3.174104118347167969e+01 8.018482327461242676e-01 7.834813594818115234e+00 2.590998649597167969e+00 -1.301343202590942383e+00
3.563000000000000000e+03 8.203648567199707031e+00 2.140762519836425781e+01 -5.059924442321062088e-03 -2.301661111414432526e-02 -8.422960527241230011e-03 -1.693471521139144897e-02
3.564000000000000000e+03 7.054403305053710938e+00 2.069984817504882812e+01 -3.885468700900673866e-03 -4.922369122505187988e-02 -1.593274809420108795e-02 -1.928938739001750946e-02
3.565000000000000000e+03 7.128048706054687500e+01 2.856208610534667969e+01 3.045549690723419189e-01 7.820809364318847656e+00 2.437609434127807617e+00 -1.586153626441955566e+00
3.566000000000000000e+03 7.230833435058593750e+01 1.708742713928222656e+01 -4.140961766242980957e-01 8.040247917175292969e+00 2.287845611572265625e+00 -9.226007461547851562e-01
3.567000000000000000e+03 8.212355613708496094e+00 1.269531154632568359e+01 3.916661441326141357e-02 4.623739980161190033e-03 1.313710585236549377e-02 -1.423327066004276276e-02
3.568000000000000000e+03 7.100473785400390625e+01 2.433769989013671875e+01 -2.714545130729675293e-01 8.099850654602050781e+00 2.348518848419189453e+00 -1.536222696304321289e+00
3.569000000000000000e+03 7.117930603027343750e+01 2.315268516540527344e+01 -3.690416812896728516e-01 8.082756042480468750e+00 2.314114332199096680e+00 -1.456829190254211426e+00
3.570000000000000000e+03 7.158509063720703125e+01 -2.218635559082031250e+01 -9.737895801663398743e-03 7.615118503570556641e+00 2.281614303588867188e+00 2.763884365558624268e-01
3.571000000000000000e+03 2.084832000732421875e+01 -2.799106979370117188e+01 1.466889828443527222e-01 1.730792522430419922e-01 9.593047201633453369e-02 -2.159826755523681641e-01
3.572000000000000000e+03 7.059104919433593750e+01 -3.006780052185058594e+01 6.481375545263290405e-02 7.310101985931396484e+00 2.212474822998046875e+00 2.636802196502685547e-01
3.573000000000000000e+03 2.002121162414550781e+01 -2.624352836608886719e+01 1.563162803649902344e-01 1.451862305402755737e-01 9.045075625181198120e-02 -2.229211777448654175e-01
3.574000000000000000e+03 6.885174560546875000e+01 6.166197299957275391e+00 -3.554599881172180176e-01 7.566646099090576172e+00 2.163355827331542969e+00 -1.632076650857925415e-01
3.575000000000000000e+03 4.911100387573242188e+01 -2.246618080139160156e+01 -2.072411626577377319e-01 3.771606206893920898e+00 1.069309473037719727e+00 2.155619114637374878e-02
3.576000000000000000e+03 7.112285614013671875e+01 1.713820838928222656e+01 -5.025281310081481934e-01 8.063575744628906250e+00 2.268314123153686523e+00 -9.231223464012145996e-01
3.577000000000000000e+03 7.070877838134765625e+01 1.608510398864746094e+01 -5.296025872230529785e-01 8.044781684875488281e+00 2.254553556442260742e+00 -8.307800889015197754e-01
3.578000000000000000e+03 2.188082504272460938e+01 -3.280281066894531250e+01 1.906049698591232300e-01 1.857558488845825195e-01 1.129082441329956055e-01 -1.728490889072418213e-01
3.579000000000000000e+03 2.022888374328613281e+01 -3.113422775268554688e+01 1.417723596096038818e-01 1.033317968249320984e-01 7.353124767541885376e-02 -1.836351603269577026e-01
3.580000000000000000e+03 6.980964660644531250e+01 -9.507326126098632812e+00 -9.210429340600967407e-02 7.504097461700439453e+00 2.223598003387451172e+00 1.973856836557388306e-01
3.581000000000000000e+03 7.081246185302734375e+01 -2.666348648071289062e+01 3.056036494672298431e-02 7.405386924743652344e+00 2.230784177780151367e+00 2.879534661769866943e-01
3.582000000000000000e+03 6.961723327636718750e+01 -2.505191802978515625e+01 2.460453100502490997e-02 7.259195804595947266e+00 2.185140132904052734e+00 3.180944323539733887e-01
3.583000000000000000e+03 6.457264709472656250e+01 3.809534072875976562e+01 1.006244182586669922e+00 1.200922775268554688e+01 3.904641628265380859e+00 1.318218827247619629e+00
3.584000000000000000e+03 6.468855285644531250e+01 3.125846672058105469e+01 1.783472418785095215e+00 1.066232299804687500e+01 3.733738660812377930e+00 -1.594063162803649902e+00
3.585000000000000000e+03 7.142155456542968750e+01 1.079342555999755859e+01 -3.537050783634185791e-01 8.015343666076660156e+00 2.298491716384887695e+00 -4.615140557289123535e-01
3.586000000000000000e+03 7.149552917480468750e+01 9.680888175964355469e+00 -3.289850354194641113e-01 8.014441490173339844e+00 2.305636882781982422e+00 -3.881934285163879395e-01
3.587000000000000000e+03 9.891338348388671875e+00 -2.864263725280761719e+01 4.910337179899215698e-02 -4.147529900074005127e-01 -1.096948832273483276e-01 -1.185862272977828979e-01
3.588000000000000000e+03 6.965192317962646484e+00 -3.549563217163085938e+01 2.280472591519355774e-02 -6.667502522468566895e-01 -1.931836605072021484e-01 -4.664380848407745361e-02
3.589000000000000000e+03 2.375728034973144531e+01 -3.429000854492187500e+01 2.223141044378280640e-01 2.519817054271697998e-01 1.422887444496154785e-01 -1.672904193401336670e-01
3.590000000000000000e+03 8.560746192932128906e+00 -2.053731155395507812e+01 6.463049352169036865e-02 -4.109747707843780518e-01 -1.039032861590385437e-01 -1.915681362152099609e-01
3.591000000000000000e+03 7.366056919097900391e+00 -2.234833526611328125e+01 4.485432803630828857e-02 -4.907629489898681641e-01 -1.337725818157196045e-01 -1.563359647989273071e-01
3.592000000000000000e+03 2.709240531921386719e+01 2.222047567367553711e+00 -8.376750349998474121e-01 -3.453637063503265381e-01 -3.549116253852844238e-01 -3.400620222091674805e-01
3.593000000000000000e+03 2.787532997131347656e+01 2.791871070861816406e+00 -8.239988088607788086e-01 -3.917520642280578613e-01 -3.647252619266510010e-01 -3.643502593040466309e-01
3.594000000000000000e+03 2.655448532104492188e+01 2.703506469726562500e+00 -1.036290168762207031e+00 -4.001708924770355225e-01 -4.309383034706115723e-01 -4.880311787128448486e-01
3.595000000000000000e+03 2.545899391174316406e+01 1.580112576484680176e+00 -9.698315858840942383e-01 -2.382480055093765259e-01 -3.624238967895507812e-01 -3.725677728652954102e-01
3.596000000000000000e+03 5.661342239379882812e+01 3.199842834472656250e+01 3.010708570480346680e+00 5.318274021148681641e+00 2.498694658279418945e+00 4.261082649230957031e+00
3.597000000000000000e+03 2.792964172363281250e+01 2.158082485198974609e+00 -6.961410641670227051e-01 -3.495119214057922363e-01 -3.136958777904510498e-01 -2.730835378170013428e-01
3.598000000000000000e+03 3.059493064880371094e+01 -1.539640426635742188e+00 2.884880080819129944e-02 -1.669052392244338989e-01 -4.141692817211151123e-02 2.138916403055191040e-02
3.599000000000000000e+03 5.551688766479492188e+01 3.230958175659179688e+01 2.748134136199951172e+00 2.391026496887207031e+00 1.541748166084289551e+00 2.493623971939086914e+00
3.600000000000000000e+03 1.733389282226562500e+01 1.169324302673339844e+01 9.057081490755081177e-02 2.071481496095657349e-01 8.931569010019302368e-02 1.324445456266403198e-01
3.601000000000000000e+03 4.032704162597656250e+01 1.764577484130859375e+01 -4.408340752124786377e-01 -1.913995668292045593e-02 -1.379922032356262207e-01 -2.904628217220306396e-01
3.602000000000000000e+03 4.118585968017578125e+01 1.839997673034667969e+01 -3.894363641738891602e-01 7.417567074298858643e-02 -9.457821398973464966e-02 -2.307919561862945557e-01
3.603000000000000000e+03 3.457123184204101562e+01 1.060531902313232422e+01 -6.534162759780883789e-01 -3.679978549480438232e-01 -3.064242303371429443e-01 -4.719006419181823730e-01
3.604000000000000000e+03 4.089271545410156250e+01 1.815258026123046875e+01 -4.065325856208801270e-01 4.238005355000495911e-02 -1.092457622289657593e-01 -2.524781525135040283e-01
3.605000000000000000e+03 4.238489913940429688e+01 1.876382637023925781e+01 -3.265305161476135254e-01 3.024660348892211914e-01 -7.219335995614528656e-03 -8.939530700445175171e-02
3.606000000000000000e+03 4.224763488769531250e+01 1.967592430114746094e+01 -3.366522789001464844e-01 1.381077915430068970e-01 -5.956334248185157776e-02 -1.540278941392898560e-01
3.607000000000000000e+03 5.858419036865234375e+01 3.135694694519042969e+01 7.862328886985778809e-01 1.292494392395019531e+01 4.113353252410888672e+00 3.507996559143066406e+00
3.608000000000000000e+03 5.477079772949218750e+01 3.166655349731445312e+01 2.001800775527954102e+00 2.118506908416748047e+00 1.236092209815979004e+00 2.122207641601562500e+00
3.609000000000000000e+03 5.333145141601562500e+01 3.028495407104492188e+01 1.234381794929504395e+00 1.679562091827392578e+00 8.741831779479980469e-01 1.667420506477355957e+00
3.610000000000000000e+03 5.462479782104492188e+01 3.097447013854980469e+01 1.767347574234008789e+00 2.561426162719726562e+00 1.298632144927978516e+00 2.345428228378295898e+00
3.611000000000000000e+03 2.422480583190917969e+01 7.715259194374084473e-01 -1.013065218925476074e+00 -1.149543821811676025e-01 -3.384058773517608643e-01 -3.899247348308563232e-01
3.612000000000000000e+03 2.431166648864746094e+01 2.570339143276214600e-01 -7.075619697570800781e-01 -6.013906374573707581e-02 -2.303103059530258179e-01 -2.887395918369293213e-01
3.613000000000000000e+03 2.812801361083984375e+01 2.179493331909179688e+01 6.630981713533401489e-02 1.056323125958442688e-01 5.158263817429542542e-02 8.672893792390823364e-02
3.614000000000000000e+03 2.855699348449707031e+01 2.188518714904785156e+01 6.984741240739822388e-02 1.067977920174598694e-01 5.299356207251548767e-02 8.937364071607589722e-02
3.615000000000000000e+03 1.847714614868164062e+01 1.262191104888916016e+01 9.378968924283981323e-02 1.858074069023132324e-01 8.387912809848785400e-02 1.306656748056411743e-01
3.616000000000000000e+03 4.749450683593750000e+01 2.351972579956054688e+01 -2.286741323769092560e-02 1.038543581962585449e+00 3.047028481960296631e-01 4.910847842693328857e-01
3.617000000000000000e+03 4.383975601196289062e+01 2.123946952819824219e+01 -2.755500376224517822e-01 2.996158897876739502e-01 7.219759747385978699e-03 -9.068191051483154297e-03
3.618000000000000000e+03 4.760872268676757812e+01 2.482080841064453125e+01 1.601033657789230347e-02 7.525807619094848633e-01 2.305773347616195679e-01 3.983496129512786865e-01
3.619000000000000000e+03 4.148816299438476562e+01 1.864235305786132812e+01 -3.721712827682495117e-01 1.091393455862998962e-01 -7.890958338975906372e-02 -2.043037414550781250e-01
3.620000000000000000e+03 4.784391021728515625e+01 2.514571571350097656e+01 5.150989070534706116e-02 7.794128656387329102e-01 2.492768317461013794e-01 4.271037280559539795e-01
3.621000000000000000e+03 2.350700569152832031e+01 1.747846031188964844e+01 8.278121799230575562e-02 1.329436004161834717e-01 6.471744179725646973e-02 1.063127368688583374e-01
3.622000000000000000e+03 2.273307800292968750e+01 1.714196586608886719e+01 7.911381870508193970e-02 1.388871818780899048e-01 6.540030241012573242e-02 1.063815727829933167e-01
3.623000000000000000e+03 4.697465515136718750e+01 2.372590255737304688e+01 -5.876550078392028809e-02 7.998815178871154785e-01 2.223348170518875122e-01 3.708947300910949707e-01
3.624000000000000000e+03 2.344185066223144531e+01 1.853765296936035156e+01 7.177808880805969238e-02 1.313621699810028076e-01 6.094207614660263062e-02 9.899284690618515015e-02
3.625000000000000000e+03 1.977661705017089844e+01 1.397323036193847656e+01 9.226752072572708130e-02 1.667342483997344971e-01 7.770053297281265259e-02 1.223166137933731079e-01
3.626000000000000000e+03 3.640991592407226562e+01 1.348217868804931641e+01 -6.145969033241271973e-01 -3.631899356842041016e-01 -2.933360338211059570e-01 -4.920478761196136475e-01
3.627000000000000000e+03 4.848818969726562500e+01 2.585788345336914062e+01 1.320252418518066406e-01 8.643223643302917480e-01 2.989042699337005615e-01 5.211390852928161621e-01
3.628000000000000000e+03 2.009443855285644531e+01 1.412868976593017578e+01 9.404885023832321167e-02 1.639306843280792236e-01 7.739385962486267090e-02 1.219552457332611084e-01
3.629000000000000000e+03 2.087106323242187500e+01 1.399918365478515625e+01 1.055480241775512695e-01 1.604026705026626587e-01 7.978521287441253662e-02 1.276657134294509888e-01
3.630000000000000000e+03 3.579121398925781250e+01 1.212213611602783203e+01 -6.165154576301574707e-01 -3.219934999942779541e-01 -2.815526723861694336e-01 -4.598320126533508301e-01
3.631000000000000000e+03 3.601709365844726562e+01 1.260553741455078125e+01 -6.210914254188537598e-01 -3.392018079757690430e-01 -2.880879640579223633e-01 -4.710656702518463135e-01
3.632000000000000000e+03 4.439616775512695312e+01 2.128041839599609375e+01 -2.421092540025711060e-01 4.470162391662597656e-01 6.147209927439689636e-02 7.669141888618469238e-02
3.633000000000000000e+03 2.097754287719726562e+01 1.495793628692626953e+01 9.213680773973464966e-02 1.563073694705963135e-01 7.453325390815734863e-02 1.180425286293029785e-01
3.634000000000000000e+03 3.132858276367187500e+01 2.638773727416992188e+01 5.861386284232139587e-02 9.332142025232315063e-02 4.558058455586433411e-02 7.405548542737960815e-02
3.635000000000000000e+03 2.735462379455566406e+01 2.149854469299316406e+01 6.550823897123336792e-02 1.090464591979980469e-01 5.236640945076942444e-02 8.826907724142074585e-02
3.636000000000000000e+03 2.298793029785156250e+01 1.769236183166503906e+01 7.553242892026901245e-02 1.356368511915206909e-01 6.335078924894332886e-02 1.031383052468299866e-01
3.637000000000000000e+03 3.529435729980468750e+01 1.171864032745361328e+01 -6.366083621978759766e-01 -3.665092885494232178e-01 -3.009352982044219971e-01 -4.851308166980743408e-01
3.638000000000000000e+03 4.463741683959960938e+01 2.154383087158203125e+01 -2.289368361234664917e-01 4.698746800422668457e-01 7.228136062622070312e-02 9.946785122156143188e-02
3.639000000000000000e+03 5.004721832275390625e+01 2.751187133789062500e+01 3.789578080177307129e-01 9.881554245948791504e-01 4.101339578628540039e-01 7.512712478637695312e-01
3.640000000000000000e+03 1.594734382629394531e+01 9.640823364257812500e+00 1.008785367012023926e-01 2.600971758365631104e-01 1.082927137613296509e-01 1.458090096712112427e-01
3.641000000000000000e+03 3.030566215515136719e+01 -9.942424893379211426e-01 -3.023393452167510986e-02 -1.783310920000076294e-01 -6.256950646638870239e-02 1.021809410303831100e-02
3.642000000000000000e+03 3.951808547973632812e+01 1.684822654724121094e+01 -4.851278364658355713e-01 -1.060905456542968750e-01 -1.773655116558074951e-01 -3.349205553531646729e-01
3.643000000000000000e+03 3.380617141723632812e+01 2.794407272338867188e+01 5.900304019451141357e-02 9.393655508756637573e-02 4.588187858462333679e-02 7.171904295682907104e-02
3.644000000000000000e+03 4.313780975341796875e+01 2.011890220642089844e+01 -2.945185005664825439e-01 3.003047704696655273e-01 1.735875033773481846e-03 -4.688074812293052673e-02
3.645000000000000000e+03 4.392865371704101562e+01 2.076549339294433594e+01 -2.637903392314910889e-01 3.969862461090087891e-01 3.995876759290695190e-02 3.315324336290359497e-02
3.646000000000000000e+03 5.119609069824218750e+01 2.849732398986816406e+01 6.057174801826477051e-01 1.162559628486633301e+00 5.304831266403198242e-01 1.003009676933288574e+00
3.647000000000000000e+03 2.568209838867187500e+01 1.368877649307250977e+00 -8.880332112312316895e-01 -2.592169046401977539e-01 -3.441750109195709229e-01 -3.521045446395874023e-01
3.648000000000000000e+03 4.927433776855468750e+01 2.682864379882812500e+01 2.482860684394836426e-01 8.918356895446777344e-01 3.420365154743194580e-01 6.092949509620666504e-01
3.649000000000000000e+03 4.906042861938476562e+01 2.706815147399902344e+01 2.265866100788116455e-01 7.228909134864807129e-01 2.848432660102844238e-01 5.126931071281433105e-01
3.650000000000000000e+03 3.364552307128906250e+01 2.841402816772460938e+01 5.533988028764724731e-02 8.309102803468704224e-02 4.152927175164222717e-02 6.686417013406753540e-02
3.651000000000000000e+03 3.459920883178710938e+01 2.931657218933105469e+01 5.834899097681045532e-02 7.904632389545440674e-02 4.121859371662139893e-02 5.956572294235229492e-02
3.652000000000000000e+03 2.752773666381835938e+01 2.110831642150878906e+01 7.111430168151855469e-02 1.120869889855384827e-01 5.496038869023323059e-02 9.198416024446487427e-02
3.653000000000000000e+03 2.733878326416015625e+01 2.060935592651367188e+01 7.515267282724380493e-02 1.134793460369110107e-01 5.658960714936256409e-02 9.440971165895462036e-02
3.654000000000000000e+03 2.658993721008300781e+01 2.006271171569824219e+01 7.512823492288589478e-02 1.180701777338981628e-01 5.795952305197715759e-02 9.492359310388565063e-02
3.655000000000000000e+03 2.387701034545898438e+01 1.767720603942871094e+01 8.431936055421829224e-02 1.321080923080444336e-01 6.492823362350463867e-02 1.069500148296356201e-01
3.656000000000000000e+03 2.582041358947753906e+01 -7.801673561334609985e-02 -4.587351679801940918e-01 -1.623112410306930542e-01 -1.863139271736145020e-01 -1.364388912916183472e-01
3.657000000000000000e+03 4.488031005859375000e+01 2.180725669860839844e+01 -2.150997817516326904e-01 4.957175552845001221e-01 8.418533205986022949e-02 1.235014125704765320e-01
3.658000000000000000e+03 4.212635040283203125e+01 1.909934043884277344e+01 -3.383008539676666260e-01 1.907748281955718994e-01 -4.425780475139617920e-02 -1.402925103902816772e-01
3.659000000000000000e+03 4.323135375976562500e+01 2.041757202148437500e+01 -2.976654767990112305e-01 2.755588889122009277e-01 -6.631972733885049820e-03 -5.254077166318893433e-02
3.660000000000000000e+03 2.040531539916992188e+01 1.433674526214599609e+01 9.519366174936294556e-02 1.613567471504211426e-01 7.696512341499328613e-02 1.217489689588546753e-01
3.661000000000000000e+03 2.131032562255859375e+01 1.481584453582763672e+01 9.844412654638290405e-02 1.551994383335113525e-01 7.609307020902633667e-02 1.207182034850120544e-01
3.662000000000000000e+03 4.884170150756835938e+01 2.635877609252929688e+01 1.912674456834793091e-01 8.377882838249206543e-01 3.087167143821716309e-01 5.544456839561462402e-01
3.663000000000000000e+03 2.844325637817382812e+01 2.238142204284667969e+01 6.196776777505874634e-02 1.042906939983367920e-01 4.987753927707672119e-02 8.477917313575744629e-02
3.664000000000000000e+03 4.614414596557617188e+01 2.355480766296386719e+01 -1.279910951852798462e-01 5.622726678848266602e-01 1.302844732999801636e-01 2.209376990795135498e-01
3.665000000000000000e+03 4.667415237426757812e+01 2.352416229248046875e+01 -8.989042043685913086e-02 7.392226457595825195e-01 1.947996765375137329e-01 3.249421715736389160e-01
3.666000000000000000e+03 3.798956680297851562e+01 1.462579441070556641e+01 -5.381280779838562012e-01 -1.863961070775985718e-01 -2.173572480678558350e-01 -3.828297555446624756e-01
3.667000000000000000e+03 1.889898490905761719e+01 1.308819007873535156e+01 9.274153411388397217e-02 1.788206696510314941e-01 8.146865665912628174e-02 1.276390403509140015e-01
3.668000000000000000e+03 3.925434875488281250e+01 1.657203483581542969e+01 -4.978910982608795166e-01 -1.337455660104751587e-01 -1.894910037517547607e-01 -3.477615714073181152e-01
3.669000000000000000e+03 3.824506378173828125e+01 1.491131496429443359e+01 -5.287699699401855469e-01 -1.667451262474060059e-01 -2.086545377969741821e-01 -3.692727684974670410e-01
3.670000000000000000e+03 2.558177185058593750e+01 1.915883064270019531e+01 7.899416983127593994e-02 1.219007819890975952e-01 6.026848405599594116e-02 9.834595769643783569e-02
3.671000000000000000e+03 4.371867752075195312e+01 2.052339553833007812e+01 -2.732058167457580566e-01 3.805602788925170898e-01 3.220633789896965027e-02 1.543729472905397415e-02
3.672000000000000000e+03 5.012977981567382812e+01 2.803702735900878906e+01 3.974030017852783203e-01 8.419664502143859863e-01 3.718108236789703369e-01 6.887236833572387695e-01
3.673000000000000000e+03 4.512444305419921875e+01 2.206959533691406250e+01 -1.998247355222702026e-01 5.203354954719543457e-01 9.615323692560195923e-02 1.472148299217224121e-01
3.674000000000000000e+03 4.508137893676757812e+01 2.255751419067382812e+01 -2.061612457036972046e-01 4.221842288970947266e-01 6.480689346790313721e-02 1.045508757233619690e-01
3.675000000000000000e+03 5.149468612670898438e+01 2.875917625427246094e+01 6.740407943725585938e-01 1.211564064025878906e+00 5.656814575195312500e-01 1.076360225677490234e+00
3.676000000000000000e+03 5.229109573364257812e+01 2.889280128479003906e+01 8.380509614944458008e-01 1.655179381370544434e+00 7.479690909385681152e-01 1.421592712402343750e+00
3.677000000000000000e+03 1.402788352966308594e+01 8.218873023986816406e+00 7.661482691764831543e-02 3.435372710227966309e-01 1.260456293821334839e-01 9.923904389142990112e-02
3.678000000000000000e+03 1.451836299896240234e+01 8.957429885864257812e+00 8.172594010829925537e-02 3.008249104022979736e-01 1.147652566432952881e-01 1.142580658197402954e-01
3.679000000000000000e+03 3.850185012817382812e+01 1.519739151000976562e+01 -5.188667178153991699e-01 -1.443574577569961548e-01 -1.989672482013702393e-01 -3.572061657905578613e-01
3.680000000000000000e+03 1.922427368164062500e+01 1.400382900238037109e+01 8.519910275936126709e-02 1.696782112121582031e-01 7.646319270133972168e-02 1.186633482575416565e-01
3.681000000000000000e+03 5.302846145629882812e+01 3.013072776794433594e+01 1.133512616157531738e+00 1.541499137878417969e+00 8.025035262107849121e-01 1.539665699005126953e+00
3.682000000000000000e+03 5.459698486328125000e+01 3.062675476074218750e+01 1.674559235572814941e+00 2.801471948623657227e+00 1.342809438705444336e+00 2.436922788619995117e+00
3.683000000000000000e+03 4.929276275634765625e+01 2.632325363159179688e+01 2.367648035287857056e-01 1.044216513633728027e+00 3.842944204807281494e-01 6.776357889175415039e-01
3.684000000000000000e+03 5.032906723022460938e+01 2.774438667297363281e+01 4.302406311035156250e-01 1.032306551933288574e+00 4.387641549110412598e-01 8.118112087249755859e-01
3.685000000000000000e+03 5.261488342285156250e+01 2.907874679565429688e+01 9.215451478958129883e-01 1.799780011177062988e+00 8.163975477218627930e-01 1.552920103073120117e+00
3.686000000000000000e+03 2.684383010864257812e+01 1.987279129028320312e+01 8.068631589412689209e-02 1.154328957200050354e-01 5.883576348423957825e-02 9.791190922260284424e-02
3.687000000000000000e+03 4.969338989257812500e+01 2.680786514282226562e+01 3.048432171344757080e-01 1.067002177238464355e+00 4.115536212921142578e-01 7.419286370277404785e-01
3.688000000000000000e+03 4.977258300781250000e+01 2.728286361694335938e+01 3.335381448268890381e-01 9.406077265739440918e-01 3.822437524795532227e-01 6.975148916244506836e-01
3.689000000000000000e+03 3.899214935302734375e+01 1.629248428344726562e+01 -5.085868239402770996e-01 -1.608868092298507690e-01 -2.008420974016189575e-01 -3.619090020656585693e-01
3.690000000000000000e+03 2.071731948852539062e+01 1.462343788146972656e+01 9.543140232563018799e-02 1.580128967761993408e-01 7.603329420089721680e-02 1.199695393443107605e-01
3.691000000000000000e+03 2.096364402770996094e+01 1.432872390747070312e+01 1.009038239717483521e-01 1.594381928443908691e-01 7.810260355472564697e-02 1.246158480644226074e-01
3.692000000000000000e+03 3.545129394531250000e+01 1.222451400756835938e+01 -6.492038965225219727e-01 -3.899196684360504150e-01 -3.117370605468750000e-01 -5.048645734786987305e-01
3.693000000000000000e+03 2.501803398132324219e+01 1.890339279174804688e+01 7.804644852876663208e-02 1.239202618598937988e-01 6.059001386165618896e-02 9.828320890665054321e-02
3.694000000000000000e+03 2.460388565063476562e+01 1.859377288818359375e+01 7.859876751899719238e-02 1.262756735086441040e-01 6.146233156323432922e-02 1.002818346023559570e-01
3.695000000000000000e+03 3.345175552368164062e+01 1.004592704772949219e+01 -7.113291025161743164e-01 -4.710831940174102783e-01 -3.547236919403076172e-01 -5.228461623191833496e-01
3.696000000000000000e+03 3.356812286376953125e+01 9.330955505371093750e+00 -6.505195498466491699e-01 -4.008992016315460205e-01 -3.154256343841552734e-01 -4.537284970283508301e-01
3.697000000000000000e+03 4.088795089721679688e+01 1.761896133422851562e+01 -4.079223275184631348e-01 1.068398505449295044e-01 -9.032474458217620850e-02 -2.223136872053146362e-01
3.698000000000000000e+03 1.680501937866210938e+01 1.026283264160156250e+01 1.071142405271530151e-01 2.326750308275222778e-01 1.019367799162864685e-01 1.482285112142562866e-01
3.699000000000000000e+03 1.500559806823730469e+01 9.642775535583496094e+00 7.872349023818969727e-02 2.729389071464538574e-01 1.054987162351608276e-01 1.185825690627098083e-01
3.700000000000000000e+03 4.586739730834960938e+01 2.331504821777343750e+01 -1.487184762954711914e-01 5.203978419303894043e-01 1.115038096904754639e-01 1.874192953109741211e-01
3.701000000000000000e+03 2.575691604614257812e+01 1.937566947937011719e+01 7.787522673606872559e-02 1.209205836057662964e-01 5.963874235749244690e-02 9.727402776479721069e-02
3.702000000000000000e+03 4.354880142211914062e+01 2.030028915405273438e+01 -2.765267491340637207e-01 3.728342950344085693e-01 2.889226190745830536e-02 4.829656332731246948e-03
3.703000000000000000e+03 3.259511566162109375e+01 2.686414718627929688e+01 6.097830459475517273e-02 9.291350841522216797e-02 4.616754502058029175e-02 7.363571971654891968e-02
3.704000000000000000e+03 2.162776947021484375e+01 1.559893608093261719e+01 9.019001573324203491e-02 1.505347192287445068e-01 7.221741974353790283e-02 1.145384535193443298e-01
3.705000000000000000e+03 2.882140350341796875e+01 2.354676628112792969e+01 5.962833389639854431e-02 1.043605431914329529e-01 4.919666424393653870e-02 8.414621651172637939e-02
3.706000000000000000e+03 3.875981521606445312e+01 1.548249626159667969e+01 -5.099073648452758789e-01 -1.207006275653839111e-01 -1.891824007034301758e-01 -3.427676260471343994e-01
3.707000000000000000e+03 3.307960510253906250e+01 2.840719795227050781e+01 5.999612808227539062e-02 9.184491634368896484e-02 4.555231332778930664e-02 6.857401877641677856e-02
3.708000000000000000e+03 3.067334175109863281e+01 2.440556144714355469e+01 6.291823834180831909e-02 9.555124491453170776e-02 4.754084348678588867e-02 8.093567192554473877e-02
3.709000000000000000e+03 2.496902847290039062e+01 1.848716354370117188e+01 8.460643887519836426e-02 1.249309852719306946e-01 6.286122649908065796e-02 1.024689823389053345e-01
3.710000000000000000e+03 4.246380233764648438e+01 1.929489517211914062e+01 -3.236005306243896484e-01 2.485340833663940430e-01 -2.251993864774703979e-02 -1.045925170183181763e-01
3.711000000000000000e+03 4.313478851318359375e+01 1.980979347229003906e+01 -2.940516173839569092e-01 3.369188010692596436e-01 1.286016125231981277e-02 -3.258465230464935303e-02
3.712000000000000000e+03 4.006758880615234375e+01 1.685473632812500000e+01 -4.537236988544464111e-01 1.478637941181659698e-02 -1.316812038421630859e-01 -2.739953696727752686e-01
3.713000000000000000e+03 3.025936126708984375e+01 4.380595684051513672e+00 -7.364470362663269043e-01 -3.421835601329803467e-01 -3.235891759395599365e-01 -3.865474462509155273e-01
3.714000000000000000e+03 2.887939834594726562e+01 2.295943450927734375e+01 5.889049544930458069e-02 1.022307574748992920e-01 4.833637550473213196e-02 8.273950964212417603e-02
3.715000000000000000e+03 3.901880264282226562e+01 1.576486587524414062e+01 -4.997696876525878906e-01 -9.576739370822906494e-02 -1.786611229181289673e-01 -3.301693201065063477e-01
3.716000000000000000e+03 3.927876281738281250e+01 1.604309272766113281e+01 -4.902325570583343506e-01 -6.903266161680221558e-02 -1.677795648574829102e-01 -3.156441450119018555e-01
3.717000000000000000e+03 5.361471557617187500e+01 3.044577789306640625e+01 1.338284730911254883e+00 1.846193432807922363e+00 9.553434252738952637e-01 1.802530646324157715e+00
3.718000000000000000e+03 3.308617019653320312e+01 9.640148162841796875e+00 -7.185666561126708984e-01 -4.856500923633575439e-01 -3.612650036811828613e-01 -5.138939619064331055e-01
3.719000000000000000e+03 2.795704269409179688e+01 2.227814483642578125e+01 6.342376023530960083e-02 1.094496846199035645e-01 5.186203494668006897e-02 8.746860176324844360e-02
3.720000000000000000e+03 4.536973953247070312e+01 2.232900047302246094e+01 -1.841016709804534912e-01 5.487356185913085938e-01 1.093901842832565308e-01 1.722143888473510742e-01
3.721000000000000000e+03 1.906803894042968750e+01 1.366854095458984375e+01 8.854245394468307495e-02 1.735250651836395264e-01 7.862025499343872070e-02 1.214366257190704346e-01
3.722000000000000000e+03 5.281684494018554688e+01 2.960951232910156250e+01 1.023523569107055664e+00 1.669021010398864746e+00 8.077633976936340332e-01 1.548467397689819336e+00
3.723000000000000000e+03 5.315162658691406250e+01 2.975969314575195312e+01 1.123298287391662598e+00 1.860369801521301270e+00 8.951004743576049805e-01 1.700870752334594727e+00
3.724000000000000000e+03 2.109380340576171875e+01 1.532040500640869141e+01 8.843857795000076294e-02 1.535438895225524902e-01 7.259473949670791626e-02 1.143644079566001892e-01
3.725000000000000000e+03 1.358571338653564453e+01 7.791208744049072266e+00 7.707569003105163574e-02 3.625873625278472900e-01 1.318989247083663940e-01 6.989692896604537964e-02
3.726000000000000000e+03 3.533811569213867188e+01 1.150585651397705078e+01 -6.257706880569458008e-01 -3.363577425479888916e-01 -2.886385023593902588e-01 -4.635940194129943848e-01
3.727000000000000000e+03 3.554114532470703125e+01 1.164923095703125000e+01 -6.147239208221435547e-01 -3.128461539745330811e-01 -2.782710194587707520e-01 -4.540146589279174805e-01
3.728000000000000000e+03 3.641953277587890625e+01 1.300810718536376953e+01 -6.030746698379516602e-01 -3.088330626487731934e-01 -2.735723257064819336e-01 -4.596963226795196533e-01
3.729000000000000000e+03 3.557591247558593750e+01 1.249199199676513672e+01 -6.484663486480712891e-01 -3.980627357959747314e-01 -3.139587044715881348e-01 -5.105774998664855957e-01
3.730000000000000000e+03 2.207574462890625000e+01 1.637791252136230469e+01 8.411929011344909668e-02 1.455954313278198242e-01 6.891442090272903442e-02 1.104904636740684509e-01
3.731000000000000000e+03 2.170005035400390625e+01 1.618528938293457031e+01 8.283204585313796997e-02 1.472781896591186523e-01 6.903307139873504639e-02 1.095209866762161255e-01
3.732000000000000000e+03 3.251755523681640625e+01 2.740992736816406250e+01 5.133498087525367737e-02 8.970660716295242310e-02 4.231247678399085999e-02 6.769176572561264038e-02
3.733000000000000000e+03 3.281374359130859375e+01 2.639964866638183594e+01 5.503945425152778625e-02 9.081896394491195679e-02 4.375752434134483337e-02 7.263036072254180908e-02
3.734000000000000000e+03 4.561719512939453125e+01 2.258444213867187500e+01 -1.669923365116119385e-01 5.769780278205871582e-01 1.229957118630409241e-01 1.977050304412841797e-01
3.735000000000000000e+03 4.586814117431640625e+01 2.283429145812988281e+01 -1.502122581005096436e-01 6.101226210594177246e-01 1.379731148481369019e-01 2.249843627214431763e-01
3.736000000000000000e+03 3.319279861450195312e+01 6.764436244964599609e+00 -4.884686172008514404e-01 -2.623126208782196045e-01 -2.252343744039535522e-01 -3.578801155090332031e-01
3.737000000000000000e+03 3.422134017944335938e+01 1.020653247833251953e+01 -6.578354835510253906e-01 -3.872623443603515625e-01 -3.135293424129486084e-01 -4.749777019023895264e-01
3.738000000000000000e+03 2.427626609802246094e+01 1.763572502136230469e+01 8.741804957389831543e-02 1.295430958271026611e-01 6.508833914995193481e-02 1.078140810132026672e-01
3.739000000000000000e+03 1.654491996765136719e+01 1.016548347473144531e+01 1.034264713525772095e-01 2.389618605375289917e-01 1.027164980769157410e-01 1.455774456262588501e-01
3.740000000000000000e+03 1.225724792480468750e+01 5.918426036834716797e+00 1.577045172452926636e-01 4.100903868675231934e-01 1.703384667634963989e-01 -9.180615842342376709e-02
3.741000000000000000e+03 1.107896518707275391e+01 6.103625774383544922e+00 2.059986144304275513e-01 1.780646741390228271e-01 1.152189895510673523e-01 -9.769375622272491455e-02
3.742000000000000000e+03 3.077250862121582031e+01 2.553512001037597656e+01 5.181903392076492310e-02 9.422262012958526611e-02 4.381249472498893738e-02 7.278865575790405273e-02
3.743000000000000000e+03 3.052224731445312500e+01 2.407737541198730469e+01 5.784295499324798584e-02 9.935293346643447876e-02 4.715876653790473938e-02 8.440542221069335938e-02
3.744000000000000000e+03 2.686308288574218750e+01 -2.109531909227371216e-01 -2.895746827125549316e-01 -2.259611338376998901e-01 -1.546607464551925659e-01 -7.654019445180892944e-02
3.745000000000000000e+03 2.626218223571777344e+01 3.869638144969940186e-01 -5.539793968200683594e-01 -2.079841196537017822e-01 -2.285890579223632812e-01 -1.683743149042129517e-01
3.746000000000000000e+03 1.295764064788818359e+01 5.998573780059814453e+00 1.121773794293403625e-01 5.165116786956787109e-01 1.886067241430282593e-01 -1.688631251454353333e-02
3.747000000000000000e+03 1.085736274719238281e+01 5.656089782714843750e+00 2.525420486927032471e-01 1.315196752548217773e-01 1.152185201644897461e-01 -1.167480349540710449e-01
3.748000000000000000e+03 1.703729248046875000e+01 1.091107749938964844e+01 9.778928756713867188e-02 2.198173254728317261e-01 9.528198093175888062e-02 1.388693302869796753e-01
3.749000000000000000e+03 5.757565689086914062e+01 3.220909881591796875e+01 2.830930948257446289e+00 9.434749603271484375e+00 3.679704189300537109e+00 5.614336490631103516e+00
3.750000000000000000e+03 1.406743812561035156e+01 9.051386833190917969e+00 6.960809975862503052e-02 2.999246716499328613e-01 1.108598336577415466e-01 9.151434898376464844e-02
3.751000000000000000e+03 3.073827934265136719e+01 4.772761344909667969e+00 -6.979831457138061523e-01 -3.137058317661285400e-01 -3.035067021846771240e-01 -4.168168902397155762e-01
3.752000000000000000e+03 3.222030258178710938e+01 5.158078670501708984e+00 -5.197840929031372070e-01 -2.294700145721435547e-01 -2.247762233018875122e-01 -3.571185767650604248e-01
3.753000000000000000e+03 2.936845016479492188e+01 2.353883361816406250e+01 5.602192506194114685e-02 1.009450256824493408e-01 4.709008708596229553e-02 8.156377822160720825e-02
3.754000000000000000e+03 1.377183818817138672e+01 7.316223621368408203e+00 8.541830629110336304e-02 4.144678711891174316e-01 1.499658524990081787e-01 9.699263423681259155e-02
3.755000000000000000e+03 3.122224807739257812e+01 4.743255615234375000e+00 -6.119906306266784668e-01 -2.711072862148284912e-01 -2.649293839931488037e-01 -3.880292475223541260e-01
3.756000000000000000e+03 3.858686828613281250e+01 3.375490570068359375e+01 8.359494805335998535e-02 7.505453377962112427e-02 4.759484529495239258e-02 5.711226537823677063e-02
3.757000000000000000e+03 3.847650146484375000e+01 3.225310134887695312e+01 8.604996651411056519e-02 7.522345334291458130e-02 4.838202521204948425e-02 6.270278990268707275e-02
3.758000000000000000e+03 2.713665199279785156e+01 8.279009163379669189e-02 -3.605707883834838867e-01 -2.403763979673385620e-01 -1.802841573953628540e-01 -8.590081334114074707e-02
3.759000000000000000e+03 2.816086959838867188e+01 -5.362971425056457520e-01 -1.661607623100280762e-01 -2.636035978794097900e-01 -1.289293020963668823e-01 -3.748777136206626892e-02
3.760000000000000000e+03 3.119264221191406250e+01 2.576519203186035156e+01 5.949284508824348450e-02 9.442843496799468994e-02 4.617638513445854187e-02 7.741655409336090088e-02
3.761000000000000000e+03 3.062200546264648438e+01 2.485107994079589844e+01 5.613910034298896790e-02 9.336148202419281006e-02 4.485017433762550354e-02 7.626876980066299438e-02
3.762000000000000000e+03 2.476542472839355469e+01 3.196447193622589111e-01 -7.716159224510192871e-01 -9.801776707172393799e-02 -2.608900964260101318e-01 -2.820782661437988281e-01
3.763000000000000000e+03 2.823209953308105469e+01 2.826616525650024414e+00 -7.894902825355529785e-01 -4.087790250778198242e-01 -3.594807684421539307e-01 -3.446531295776367188e-01
3.764000000000000000e+03 3.435307312011718750e+01 7.591502189636230469e+00 -4.793429374694824219e-01 -1.641610264778137207e-01 -1.930511891841888428e-01 -3.033183515071868896e-01
3.765000000000000000e+03 3.389822769165039062e+01 9.761548995971679688e+00 -6.603813767433166504e-01 -3.907590508460998535e-01 -3.153421282768249512e-01 -4.627017378807067871e-01
3.766000000000000000e+03 3.454487609863281250e+01 3.061157989501953125e+01 5.713454261422157288e-02 9.232644736766815186e-02 4.483829811215400696e-02 6.641328334808349609e-02
3.767000000000000000e+03 3.011382675170898438e+01 2.483699226379394531e+01 5.947437137365341187e-02 9.764336049556732178e-02 4.713531956076622009e-02 8.031403273344039917e-02
3.768000000000000000e+03 2.993700599670410156e+01 2.400578117370605469e+01 5.524407327175140381e-02 1.004607528448104858e-01 4.671144858002662659e-02 8.094786107540130615e-02
3.769000000000000000e+03 3.414459609985351562e+01 2.890246009826660156e+01 5.765720084309577942e-02 8.107166737318038940e-02 4.161866009235382080e-02 6.406510621309280396e-02
3.770000000000000000e+03 1.785820388793945312e+01 1.222413158416748047e+01 9.057290852069854736e-02 1.953738480806350708e-01 8.578402549028396606e-02 1.307688951492309570e-01
3.771000000000000000e+03 3.751204299926757812e+01 3.204756546020507812e+01 5.282495915889739990e-02 7.236589491367340088e-02 3.755725547671318054e-02 6.338619440793991089e-02
3.772000000000000000e+03 3.748314666748046875e+01 3.294618606567382812e+01 7.985033839941024780e-02 7.824121415615081787e-02 4.742746800184249878e-02 5.839623883366584778e-02
3.773000000000000000e+03 2.891308784484863281e+01 -8.986136317253112793e-01 -7.861223816871643066e-02 -2.509250342845916748e-01 -9.886118024587631226e-02 -1.333228405565023422e-02
3.774000000000000000e+03 3.603681945800781250e+01 3.145591735839843750e+01 4.718396440148353577e-02 8.489336073398590088e-02 3.962319716811180115e-02 5.997710675001144409e-02
3.775000000000000000e+03 6.124755859375000000e+01 3.032737731933593750e+01 4.013784527778625488e-01 1.287156772613525391e+01 3.981884002685546875e+00 -3.556118905544281006e-01
3.776000000000000000e+03 6.026845932006835938e+01 3.090653610229492188e+01 4.684740304946899414e-01 1.403983879089355469e+01 4.352493762969970703e+00 4.303357303142547607e-01
3.777000000000000000e+03 3.344270706176757812e+01 8.163744926452636719e+00 -5.564978718757629395e-01 -3.357209861278533936e-01 -2.676656544208526611e-01 -3.916237056255340576e-01
3.778000000000000000e+03 1.226663303375244141e+01 6.997014999389648438e+00 1.082233637571334839e-01 3.401527404785156250e-01 1.345128268003463745e-01 -3.376554697751998901e-02
3.779000000000000000e+03 8.995805740356445312e+00 -8.072541236877441406e+00 -7.219530642032623291e-02 -2.302467375993728638e-01 -9.073261171579360962e-02 -3.644221425056457520e-01
3.780000000000000000e+03 3.339822006225585938e+01 7.092435836791992188e+00 -4.920096993446350098e-01 -2.739604413509368896e-01 -2.297910451889038086e-01 -3.574928045272827148e-01
3.781000000000000000e+03 9.963530540466308594e+00 6.629687309265136719e+00 1.921193450689315796e-01 3.716816008090972900e-02 6.878624856472015381e-02 -4.693350195884704590e-02
3.782000000000000000e+03 3.138579940795898438e+01 -1.871824145317077637e+00 4.861432313919067383e-02 -1.062749698758125305e-01 -1.729819551110267639e-02 2.391192875802516937e-02
3.783000000000000000e+03 6.897099304199218750e+01 3.900078535079956055e+00 -2.932264208793640137e-01 7.536670684814453125e+00 2.173033237457275391e+00 -8.750832080841064453e-02
3.784000000000000000e+03 7.008330535888671875e+01 -6.804125905036926270e-01 -1.717223972082138062e-01 7.652184486389160156e+00 2.244138717651367188e+00 2.872386388480663300e-02
3.785000000000000000e+03 1.019678115844726562e+01 7.248435974121093750e+00 1.640006005764007568e-01 8.362859487533569336e-02 7.428875565528869629e-02 -5.531045421957969666e-02
3.786000000000000000e+03 1.234318256378173828e+01 7.427898883819580078e+00 9.981904178857803345e-02 3.166000843048095703e-01 1.249257400631904602e-01 -1.721186190843582153e-02
3.787000000000000000e+03 1.218405342102050781e+01 -7.711772918701171875e+00 -3.097174502909183502e-02 -2.887185215950012207e-01 -9.590707719326019287e-02 -4.328984320163726807e-01
3.788000000000000000e+03 1.245733547210693359e+01 -6.940191268920898438e+00 -1.000547856092453003e-01 -2.962995767593383789e-01 -1.189063116908073425e-01 -4.647371768951416016e-01
3.789000000000000000e+03 3.306803512573242188e+01 -3.531064510345458984e+00 1.412857472896575928e-01 5.491766333580017090e-02 5.886102095246315002e-02 1.178399100899696350e-02
3.790000000000000000e+03 8.183954238891601562e+00 1.373988342285156250e+01 2.854872308671474457e-02 2.512705279514193535e-03 9.318428114056587219e-03 -1.560661289840936661e-02
3.791000000000000000e+03 9.446072578430175781e+00 1.541733074188232422e+01 1.319937128573656082e-02 3.434198349714279175e-02 1.426240708678960800e-02 -1.043727342039346695e-02
3.792000000000000000e+03 6.860245513916015625e+01 -4.302678585052490234e+00 -1.573466360569000244e-01 7.334550380706787109e+00 2.153161287307739258e+00 1.311006247997283936e-01
3.793000000000000000e+03 6.990472412109375000e+01 -6.785836219787597656e+00 -9.798855334520339966e-02 7.565726757049560547e+00 2.240321397781372070e+00 1.540769934654235840e-01
3.794000000000000000e+03 1.245925617218017578e+01 -8.973509788513183594e+00 4.488268494606018066e-02 -2.923689484596252441e-01 -7.424587756395339966e-02 -3.956888318061828613e-01
3.795000000000000000e+03 1.056524658203125000e+01 6.380772113800048828e+00 2.052211463451385498e-01 1.012193113565444946e-01 9.193213284015655518e-02 -8.218131214380264282e-02
3.796000000000000000e+03 1.453458786010742188e+01 9.402777671813964844e+00 7.409334182739257812e-02 2.842642068862915039e-01 1.075072661042213440e-01 1.075861081480979919e-01
3.797000000000000000e+03 6.074914169311523438e+01 3.087805557250976562e+01 7.104038596153259277e-01 1.375540351867675781e+01 4.339742183685302734e+00 -2.114334553480148315e-01
3.798000000000000000e+03 7.603228092193603516e+00 -9.661148071289062500e+00 -5.154301878064870834e-03 -2.762345373630523682e-01 -8.441665023565292358e-02 -3.186258971691131592e-01
3.799000000000000000e+03 7.759683132171630859e+00 9.216282844543457031e+00 1.000648364424705505e-01 -3.676844015717506409e-02 1.898891851305961609e-02 -2.172993728891015053e-03
3.800000000000000000e+03 3.546194076538085938e+01 3.908035278320312500e+01 7.677491009235382080e-02 7.171548157930374146e-02 4.454711452126502991e-02 2.736797556281089783e-02
3.801000000000000000e+03 6.847831726074218750e+01 -1.067245483398437500e+01 -1.008751913905143738e-01 7.253972530364990234e+00 2.145929098129272461e+00 2.232865989208221436e-01
3.802000000000000000e+03 6.971279144287109375e+01 -1.320239830017089844e+01 -7.705947756767272949e-02 7.448834896087646484e+00 2.211532592773437500e+00 2.447968721389770508e-01
3.803000000000000000e+03 1.023588848114013672e+01 -8.474742889404296875e+00 -4.201667010784149170e-02 -2.608408033847808838e-01 -9.085723757743835449e-02 -3.970768153667449951e-01
3.804000000000000000e+03 6.460207366943359375e+01 3.216641998291015625e+01 2.437767744064331055e+00 1.065922451019287109e+01 3.929097652435302734e+00 -1.326053977012634277e+00
3.805000000000000000e+03 6.396554565429687500e+01 3.162522506713867188e+01 2.344544410705566406e+00 1.115491676330566406e+01 4.049838542938232422e+00 -1.563262462615966797e+00
3.806000000000000000e+03 8.366175651550292969e+00 1.172999572753906250e+01 5.385615676641464233e-02 8.230870589613914490e-03 1.862610876560211182e-02 -1.434209663420915604e-02
3.807000000000000000e+03 1.511608409881591797e+01 -1.661515617370605469e+01 1.546632200479507446e-01 -1.040015369653701782e-01 1.519850641489028931e-02 -2.446804493665695190e-01
3.808000000000000000e+03 3.861285018920898438e+01 -7.584253311157226562e+00 9.602566808462142944e-02 9.477286338806152344e-01 3.131262958049774170e-01 -2.521872147917747498e-02
3.809000000000000000e+03 6.924507141113281250e+01 -1.726921272277832031e+01 -5.570038780570030212e-02 7.313286304473876953e+00 2.177275657653808594e+00 2.904708087444305420e-01
3.810000000000000000e+03 6.968446350097656250e+01 -1.960975265502929688e+01 -2.588956989347934723e-02 7.345410346984863281e+00 2.195856332778930664e+00 2.986235618591308594e-01
3.811000000000000000e+03 7.563341140747070312e+00 -1.370028018951416016e+01 6.035995855927467346e-02 -3.630018830299377441e-01 -9.079257398843765259e-02 -2.767089605331420898e-01
3.812000000000000000e+03 9.033626556396484375e+00 -1.269777584075927734e+01 6.101849302649497986e-02 -3.220970928668975830e-01 -7.832358032464981079e-02 -3.110445439815521240e-01
3.813000000000000000e+03 1.369934844970703125e+01 -1.286121749877929688e+01 1.451723724603652954e-01 -2.139196693897247314e-01 -2.062419243156909943e-02 -2.980693280696868896e-01
3.814000000000000000e+03 6.859120941162109375e+01 3.362463378906250000e+01 1.596312761306762695e+00 8.645978927612304688e+00 3.072687387466430664e+00 -8.822106122970581055e-01
3.815000000000000000e+03 7.311120510101318359e+00 -1.235135364532470703e+01 3.697316721081733704e-02 -3.364980220794677734e-01 -8.985745906829833984e-02 -2.853807806968688965e-01
3.816000000000000000e+03 1.028145217895507812e+01 2.442337608337402344e+01 -7.712586317211389542e-03 2.468155929818749428e-03 -1.573329209350049496e-03 -8.694589138031005859e-03
3.817000000000000000e+03 1.289059734344482422e+01 -1.208016967773437500e+01 1.411476731300354004e-01 -2.572754025459289551e-01 -3.483831509947776794e-02 -3.198136091232299805e-01
3.818000000000000000e+03 7.085121917724609375e+01 5.394249439239501953e+00 -2.503118813037872314e-01 7.872941493988037109e+00 2.286788940429687500e+00 -1.742631494998931885e-01
3.819000000000000000e+03 7.114703369140625000e+01 6.453257083892822266e+00 -2.670710086822509766e-01 7.937353134155273438e+00 2.301084518432617188e+00 -2.264676094055175781e-01
3.820000000000000000e+03 6.945578765869140625e+01 2.458147287368774414e+00 -2.433422058820724487e-01 7.599246501922607422e+00 2.206771373748779297e+00 -5.010861158370971680e-02
3.821000000000000000e+03 6.989781188964843750e+01 1.050029993057250977e+00 -1.937368661165237427e-01 7.654512882232666016e+00 2.238232851028442383e+00 -1.473309006541967392e-02
3.822000000000000000e+03 7.138364410400390625e+01 1.312336349487304688e+01 -4.146864712238311768e-01 8.025782585144042969e+00 2.283328771591186523e+00 -6.151510477066040039e-01
3.823000000000000000e+03 6.970478820800781250e+01 2.512328338623046875e+01 -2.660010755062103271e-01 8.420660018920898438e+00 2.446397542953491211e+00 -1.588772296905517578e+00
3.824000000000000000e+03 7.012541198730468750e+01 2.286434745788574219e+01 -4.623626768589019775e-01 8.280243873596191406e+00 2.345364332199096680e+00 -1.422456383705139160e+00
3.825000000000000000e+03 9.931214332580566406e+00 -2.553396606445312500e+01 5.480747669935226440e-02 -4.021284282207489014e-01 -1.041962876915931702e-01 -1.465819478034973145e-01
3.826000000000000000e+03 7.036352539062500000e+01 7.748715877532958984e+00 -3.339858949184417725e-01 7.840458393096923828e+00 2.251941680908203125e+00 -2.764263153076171875e-01
3.827000000000000000e+03 4.103277969360351562e+01 -9.757543563842773438e+00 1.894725114107131958e-02 1.467613697052001953e+00 4.459682703018188477e-01 -4.669472947716712952e-02
3.828000000000000000e+03 4.019507217407226562e+01 -8.384197235107421875e+00 4.854002967476844788e-02 1.271170139312744141e+00 3.959130644798278809e-01 -2.731518074870109558e-02
3.829000000000000000e+03 3.852954101562500000e+01 3.636853027343750000e+01 6.825215369462966919e-02 4.687625914812088013e-02 3.453852608799934387e-02 4.656003043055534363e-02
3.830000000000000000e+03 6.818478393554687500e+01 -2.480740356445312500e+01 1.461970340460538864e-02 7.040528297424316406e+00 2.116544485092163086e+00 3.290089368820190430e-01
3.831000000000000000e+03 6.865222930908203125e+01 -2.353872871398925781e+01 -1.623325864784419537e-03 7.104417800903320312e+00 2.130838394165039062e+00 3.310018181800842285e-01
3.832000000000000000e+03 7.027365875244140625e+01 -1.614794349670410156e+01 -4.984729737043380737e-02 7.522892475128173828e+00 2.241913557052612305e+00 2.682339549064636230e-01
3.833000000000000000e+03 3.721741867065429688e+01 -4.988424777984619141e+00 1.173137202858924866e-01 6.703405380249023438e-01 2.362962663173675537e-01 9.026322513818740845e-03
3.834000000000000000e+03 3.528787994384765625e+01 -5.945911884307861328e+00 1.612306088209152222e-01 3.589940965175628662e-01 1.560674011707305908e-01 -1.156955678015947342e-02
3.835000000000000000e+03 6.976818847656250000e+01 -8.453568458557128906e+00 -1.084230914711952209e-01 7.512984752655029297e+00 2.221368551254272461e+00 1.809572875499725342e-01
3.836000000000000000e+03 3.928561401367187500e+01 -8.109951019287109375e+00 8.275438845157623291e-02 1.106341838836669922e+00 3.567288517951965332e-01 -3.501269966363906860e-02
3.837000000000000000e+03 3.883252716064453125e+01 -9.029123306274414062e+00 6.709580868482589722e-02 1.009869337081909180e+00 3.230895400047302246e-01 -4.870811104774475098e-02
3.838000000000000000e+03 7.932289123535156250e+00 -1.072885990142822266e+01 1.224560569971799850e-02 -2.966443598270416260e-01 -8.531963080167770386e-02 -3.170810937881469727e-01
3.839000000000000000e+03 8.848983764648437500e+00 -1.029043960571289062e+01 2.353726327419281006e-02 -2.938202619552612305e-01 -8.108489960432052612e-02 -3.442991673946380615e-01
3.840000000000000000e+03 7.047008514404296875e+01 2.675151252746582031e+01 1.542563829571008682e-02 8.184153556823730469e+00 2.459873676300048828e+00 -1.654320359230041504e+00
3.841000000000000000e+03 6.938973236083984375e+01 2.626257514953613281e+01 -1.196882054209709167e-01 8.542037010192871094e+00 2.526704788208007812e+00 -1.666615962982177734e+00
3.842000000000000000e+03 7.149711608886718750e+01 8.596859931945800781e+00 -3.006980717182159424e-01 7.998881340026855469e+00 2.309454917907714844e+00 -3.294227123260498047e-01
3.843000000000000000e+03 3.398948669433593750e+01 -3.424918889999389648e+00 1.440934240818023682e-01 1.622593253850936890e-01 9.190582484006881714e-02 2.546294406056404114e-02
3.844000000000000000e+03 4.285847473144531250e+01 -1.500157737731933594e+01 -6.741965562105178833e-02 1.941505312919616699e+00 5.622256994247436523e-01 -1.167968735098838806e-01
3.845000000000000000e+03 4.373355102539062500e+01 -1.641670036315917969e+01 -1.091592386364936829e-01 2.181833982467651367e+00 6.218024492263793945e-01 -1.412885785102844238e-01
3.846000000000000000e+03 1.223482894897460938e+01 -1.909577751159667969e+01 1.207005158066749573e-01 -2.467798590660095215e-01 -3.782379999756813049e-02 -2.308004349470138550e-01
3.847000000000000000e+03 9.281470298767089844e+00 -1.735245704650878906e+01 9.510071575641632080e-02 -3.598646521568298340e-01 -7.942918688058853149e-02 -2.421427965164184570e-01
3.848000000000000000e+03 9.046652793884277344e+00 -1.608421707153320312e+01 8.325278013944625854e-02 -3.530646264553070068e-01 -8.094355463981628418e-02 -2.561149001121520996e-01
3.849000000000000000e+03 9.308839797973632812e+00 1.865165328979492188e+01 3.419945714995265007e-04 1.263021957129240036e-02 3.891664324328303337e-03 -1.193870510905981064e-02
3.850000000000000000e+03 1.595404815673828125e+01 -1.778021621704101562e+01 1.578655838966369629e-01 -5.397818237543106079e-02 3.116621822118759155e-02 -2.317997813224792480e-01
3.851000000000000000e+03 6.994918060302734375e+01 3.102689552307128906e+01 8.904678821563720703e-01 8.184409141540527344e+00 2.722463130950927734e+00 -1.416879296302795410e+00
3.852000000000000000e+03 6.915102386474609375e+01 -1.631478500366210938e+01 -5.484171956777572632e-02 7.310413837432861328e+00 2.176671743392944336e+00 2.841980457305908203e-01
3.853000000000000000e+03 9.858940124511718750e+00 8.272089004516601562e+00 1.273297369480133057e-01 7.083161920309066772e-02 5.944840982556343079e-02 -3.685122355818748474e-02
3.854000000000000000e+03 7.056188964843750000e+01 -7.325629711151123047e+00 -9.589465707540512085e-02 7.685121536254882812e+00 2.276767969131469727e+00 1.529108285903930664e-01
3.855000000000000000e+03 4.781717300415039062e+01 -2.186567687988281250e+01 -2.040125578641891479e-01 3.433778285980224609e+00 9.689297080039978027e-01 -6.461399048566818237e-02
3.856000000000000000e+03 4.484670257568359375e+01 -1.668057823181152344e+01 -1.394753456115722656e-01 2.484574079513549805e+00 7.035295963287353516e-01 -1.261742264032363892e-01
3.857000000000000000e+03 7.004732513427734375e+01 1.732267570495605469e+01 -6.133766770362854004e-01 8.084223747253417969e+00 2.241254091262817383e+00 -9.194105863571166992e-01
3.858000000000000000e+03 6.973364257812500000e+01 1.631711959838867188e+01 -6.068491339683532715e-01 8.040572166442871094e+00 2.230117082595825195e+00 -8.186740875244140625e-01
3.859000000000000000e+03 6.732144927978515625e+01 -2.786840057373046875e+01 5.806319043040275574e-02 6.854972362518310547e+00 2.073910713195800781e+00 3.340348899364471436e-01
3.860000000000000000e+03 7.023465728759765625e+01 1.067256546020507812e+01 -4.227314889430999756e-01 7.880713462829589844e+00 2.237394571304321289e+00 -4.250977039337158203e-01
3.861000000000000000e+03 7.045507049560546875e+01 9.598632812500000000e+00 -3.886317610740661621e-01 7.877522945404052734e+00 2.246667385101318359e+00 -3.732345402240753174e-01
3.862000000000000000e+03 9.284720420837402344e+00 -1.120676612854003906e+01 4.170254245400428772e-02 -2.999207675457000732e-01 -7.746546715497970581e-02 -3.371486663818359375e-01
3.863000000000000000e+03 8.375597953796386719e+00 -1.183547019958496094e+01 5.281915888190269470e-02 -3.228261172771453857e-01 -8.100208640098571777e-02 -3.137116432189941406e-01
3.864000000000000000e+03 8.717283248901367188e+00 1.989447975158691406e+01 -2.746512414887547493e-03 -7.233983837068080902e-03 -2.994148759171366692e-03 -1.516089215874671936e-02
3.865000000000000000e+03 9.199780464172363281e+00 1.454337787628173828e+01 2.109118178486824036e-02 3.225702047348022461e-02 1.600446179509162903e-02 -1.220356207340955734e-02
3.866000000000000000e+03 7.039815521240234375e+01 3.295227050781250000e+01 1.087743759155273438e+00 7.952070713043212891e+00 2.711944341659545898e+00 -1.029209256172180176e+00
3.867000000000000000e+03 6.954610443115234375e+01 2.914138221740722656e+01 4.959314167499542236e-01 8.417891502380371094e+00 2.674146890640258789e+00 -1.624074578285217285e+00
3.868000000000000000e+03 1.114428234100341797e+01 2.839690017700195312e+01 -8.442748337984085083e-03 -5.236050128587521613e-05 -2.548532560467720032e-03 -4.267545882612466812e-03
3.869000000000000000e+03 9.568387985229492188e+00 2.814498138427734375e+01 -9.269345551729202271e-03 -1.944726705551147461e-02 -8.614983409643173218e-03 -9.236716665327548981e-03
3.870000000000000000e+03 6.637924957275390625e+01 3.178318214416503906e+01 1.749252557754516602e+00 9.757994651794433594e+00 3.452173948287963867e+00 -1.358144283294677734e+00
3.871000000000000000e+03 4.841620254516601562e+01 -2.396548843383789062e+01 -1.907335817813873291e-01 3.700137138366699219e+00 1.052821040153503418e+00 -2.697076275944709778e-02
3.872000000000000000e+03 1.925952148437500000e+01 -2.116288566589355469e+01 1.509636491537094116e-01 1.382650434970855713e-01 8.676860481500625610e-02 -2.343478202819824219e-01
3.873000000000000000e+03 1.744600105285644531e+01 -2.050493812561035156e+01 1.483236700296401978e-01 3.841613233089447021e-02 5.602194368839263916e-02 -2.265858501195907593e-01
3.874000000000000000e+03 4.965708160400390625e+01 -2.089692115783691406e+01 -1.979694664478302002e-01 3.805936098098754883e+00 1.082389950752258301e+00 3.117139637470245361e-02
3.875000000000000000e+03 6.669427490234375000e+01 -2.970415687561035156e+01 1.014851257205009460e-01 6.749291419982910156e+00 2.055233001708984375e+00 3.284200131893157959e-01
3.876000000000000000e+03 7.129734039306640625e+01 2.197154617309570312e+01 -4.151286184787750244e-01 8.073316574096679688e+00 2.297456502914428711e+00 -1.355180025100708008e+00
3.877000000000000000e+03 4.257931518554687500e+01 -1.626948547363281250e+01 -1.064286381006240845e-01 1.868828773498535156e+00 5.287200808525085449e-01 -1.492789685726165771e-01
3.878000000000000000e+03 7.128535461425781250e+01 1.539483451843261719e+01 -4.705315232276916504e-01 8.039877891540527344e+00 2.270803928375244141e+00 -7.910651564598083496e-01
3.879000000000000000e+03 5.207715988159179688e+01 -2.386170578002929688e+01 -1.411897838115692139e-01 4.455392837524414062e+00 1.294260978698730469e+00 1.940582543611526489e-01
3.880000000000000000e+03 1.733637619018554688e+01 -2.952689933776855469e+01 1.284594386816024780e-01 -1.984920352697372437e-02 3.258306905627250671e-02 -1.675377786159515381e-01
3.881000000000000000e+03 1.859557914733886719e+01 -3.320000076293945312e+01 1.417586058378219604e-01 3.033107146620750427e-03 4.343751072883605957e-02 -1.367420852184295654e-01
3.882000000000000000e+03 6.826617431640625000e+01 -3.495260238647460938e+01 1.563565880060195923e-01 6.925810337066650391e+00 2.124650001525878906e+00 2.012393176555633545e-01
3.883000000000000000e+03 2.748250389099121094e+01 2.017030477523803711e+00 -7.417950034141540527e-01 -3.335594236850738525e-01 -3.226063251495361328e-01 -2.797787189483642578e-01
3.884000000000000000e+03 2.682287025451660156e+01 2.099167585372924805e+00 -8.703106045722961426e-01 -3.542310297489166260e-01 -3.673624992370605469e-01 -3.590700328350067139e-01
3.885000000000000000e+03 5.772483444213867188e+01 3.164909362792968750e+01 1.857382893562316895e+00 1.014871788024902344e+01 3.601830244064331055e+00 4.794787406921386719e+00
3.886000000000000000e+03 2.548208045959472656e+01 4.488078653812408447e-01 -6.463248729705810547e-01 -1.805702596902847290e-01 -2.480685412883758545e-01 -1.982307732105255127e-01
3.887000000000000000e+03 2.762615013122558594e+01 2.421499967575073242e+00 -8.002207875251770020e-01 -3.618775308132171631e-01 -3.486295044422149658e-01 -3.320725560188293457e-01
3.888000000000000000e+03 2.482943153381347656e+01 1.531140923500061035e+00 -1.124005675315856934e+00 -2.290046066045761108e-01 -4.059030711650848389e-01 -4.627407193183898926e-01
3.889000000000000000e+03 5.412197113037109375e+01 3.069504737854003906e+01 1.543289780616760254e+00 2.188668489456176758e+00 1.119587421417236328e+00 2.066384792327880859e+00
3.890000000000000000e+03 5.808915710449218750e+01 3.147427558898925781e+01 1.277098894119262695e+00 1.154466819763183594e+01 3.846529960632324219e+00 4.325278759002685547e+00
3.891000000000000000e+03 5.578223800659179688e+01 3.201486587524414062e+01 2.770482778549194336e+00 3.148769617080688477e+00 1.775775671005249023e+00 3.011598825454711914e+00
3.892000000000000000e+03 4.207462310791015625e+01 1.855562210083007812e+01 -3.410500884056091309e-01 2.548136115074157715e-01 -2.587094344198703766e-02 -1.198554933071136475e-01
3.893000000000000000e+03 4.146711349487304688e+01 1.810137367248535156e+01 -3.743337094783782959e-01 1.755642294883728027e-01 -5.963084101676940918e-02 -1.768281757831573486e-01
3.894000000000000000e+03 4.033558654785156250e+01 1.711513519287109375e+01 -4.395595490932464600e-01 4.431091994047164917e-02 -1.185745820403099060e-01 -2.582412064075469971e-01
3.895000000000000000e+03 1.741275405883789062e+01 1.240231800079345703e+01 8.138987421989440918e-02 1.967772096395492554e-01 8.345013111829757690e-02 1.212577596306800842e-01
3.896000000000000000e+03 2.865447044372558594e+01 -3.180733323097229004e-01 -1.781129240989685059e-01 -2.332495450973510742e-01 -1.234087422490119934e-01 -1.757343858480453491e-02
3.897000000000000000e+03 4.117404937744140625e+01 1.786260032653808594e+01 -3.917278051376342773e-01 1.402250081300735474e-01 -7.545083761215209961e-02 -2.018486261367797852e-01
3.898000000000000000e+03 9.152986526489257812e+00 1.184607505798339844e+01 4.933129996061325073e-02 4.327166825532913208e-02 2.778089046478271484e-02 -1.458742190152406693e-02
3.899000000000000000e+03 2.752628517150878906e+01 2.209625816345214844e+01 6.230924651026725769e-02 1.070266067981719971e-01 5.080075562000274658e-02 8.525427430868148804e-02
3.900000000000000000e+03 4.376790618896484375e+01 2.012008666992187500e+01 -2.633059322834014893e-01 4.610249996185302734e-01 5.931571498513221741e-02 4.713457822799682617e-02
3.901000000000000000e+03 2.586663055419921875e+01 3.941209316253662109e-01 -5.368731617927551270e-01 -1.916386932134628296e-01 -2.185535579919815063e-01 -1.625666469335556030e-01
3.902000000000000000e+03 4.176746368408203125e+01 1.833349418640136719e+01 -3.574860394001007080e-01 2.126443833112716675e-01 -4.345249757170677185e-02 -1.512494087219238281e-01
3.903000000000000000e+03 4.785000991821289062e+01 2.457641410827636719e+01 3.884106501936912537e-02 9.196001291275024414e-01 2.875323593616485596e-01 4.953564107418060303e-01
3.904000000000000000e+03 4.824279785156250000e+01 2.537040328979492188e+01 9.011810272932052612e-02 8.637062907218933105e-01 2.861473262310028076e-01 4.944665431976318359e-01
3.905000000000000000e+03 4.730598068237304688e+01 2.391755104064941406e+01 -2.180048450827598572e-02 8.797781467437744141e-01 2.573933005332946777e-01 4.228159189224243164e-01
3.906000000000000000e+03 4.741566848754882812e+01 2.317141914367675781e+01 -3.607352823019027710e-02 1.067687392234802246e+00 3.094841539859771729e-01 5.048009753227233887e-01
3.907000000000000000e+03 1.622315788269042969e+01 1.013534450531005859e+01 9.741733968257904053e-02 2.455154955387115479e-01 1.028798520565032959e-01 1.411081701517105103e-01
3.908000000000000000e+03 1.549577426910400391e+01 9.990686416625976562e+00 8.499319851398468018e-02 2.573649585247039795e-01 1.027074456214904785e-01 1.258876472711563110e-01
3.909000000000000000e+03 2.922959899902343750e+01 3.637902259826660156e+00 -7.797472476959228516e-01 -3.979573547840118408e-01 -3.533113896846771240e-01 -3.473318517208099365e-01
3.910000000000000000e+03 2.513909149169921875e+01 4.293439686298370361e-01 -6.748017072677612305e-01 -5.938370898365974426e-02 -2.202556282281875610e-01 -1.832781434059143066e-01
3.911000000000000000e+03 1.204629135131835938e+01 9.816353797912597656e+00 6.046210229396820068e-02 2.032195925712585449e-01 7.910450547933578491e-02 1.074279099702835083e-02
3.912000000000000000e+03 1.286687374114990234e+01 7.217400550842285156e+00 8.415411412715911865e-02 3.831402659416198730e-01 1.401883214712142944e-01 2.093662135303020477e-02
3.913000000000000000e+03 2.403380775451660156e+01 1.841787338256835938e+01 7.688011229038238525e-02 1.294816583395004272e-01 6.190853193402290344e-02 1.008485555648803711e-01
3.914000000000000000e+03 4.061616134643554688e+01 1.684003067016601562e+01 -4.229906201362609863e-01 1.382463425397872925e-01 -8.542328327894210815e-02 -2.110631167888641357e-01
3.915000000000000000e+03 4.174314880371093750e+01 1.779971504211425781e+01 -3.615426123142242432e-01 2.775941789150238037e-01 -2.518452517688274384e-02 -1.264202445745468140e-01
3.916000000000000000e+03 2.947373580932617188e+01 3.644392251968383789e+00 -7.495640516281127930e-01 -3.852401673793792725e-01 -3.404412567615509033e-01 -3.444704413414001465e-01
3.917000000000000000e+03 4.447763442993164062e+01 2.078319358825683594e+01 -2.342143803834915161e-01 5.520633459091186523e-01 9.535469114780426025e-02 1.188997924327850342e-01
3.918000000000000000e+03 3.695745468139648438e+01 1.349298191070556641e+01 -5.794397592544555664e-01 -2.599266171455383301e-01 -2.518099248409271240e-01 -4.323726594448089600e-01
3.919000000000000000e+03 2.259245491027832031e+01 1.760314369201660156e+01 7.509177178144454956e-02 1.375546753406524658e-01 6.379393488168716431e-02 1.028344258666038513e-01
3.920000000000000000e+03 4.471469497680664062e+01 2.104789161682128906e+01 -2.221517115831375122e-01 5.741214156150817871e-01 1.055909171700477600e-01 1.420357674360275269e-01
3.921000000000000000e+03 4.415821075439453125e+01 2.101953315734863281e+01 -2.537600100040435791e-01 4.208410680294036865e-01 5.012432113289833069e-02 5.249207839369773865e-02
3.922000000000000000e+03 2.773123359680175781e+01 2.165898323059082031e+01 6.681597977876663208e-02 1.111663579940795898e-01 5.339470133185386658e-02 8.969596773386001587e-02
3.923000000000000000e+03 4.845782470703125000e+01 2.499735832214355469e+01 1.021540239453315735e-01 1.048588156700134277e+00 3.452226519584655762e-01 5.911804437637329102e-01
3.924000000000000000e+03 2.738250732421875000e+01 -1.322911679744720459e-01 -3.136884570121765137e-01 -2.409684509038925171e-01 -1.663970649242401123e-01 -6.063614785671234131e-02
3.925000000000000000e+03 4.639340972900390625e+01 2.330842971801757812e+01 -1.061928942799568176e-01 6.879968047142028809e-01 1.745411753654479980e-01 2.863157987594604492e-01
3.926000000000000000e+03 4.717496871948242188e+01 2.343076324462890625e+01 -5.538908392190933228e-02 9.056283831596374512e-01 2.550717890262603760e-01 4.277439713478088379e-01
3.927000000000000000e+03 4.495182037353515625e+01 2.131366920471191406e+01 -2.091461718082427979e-01 5.993069410324096680e-01 1.170482337474822998e-01 1.661635786294937134e-01
3.928000000000000000e+03 2.043248367309570312e+01 1.500286006927490234e+01 8.487076312303543091e-02 1.579903811216354370e-01 7.285834103822708130e-02 1.140725463628768921e-01
3.929000000000000000e+03 1.845735549926757812e+01 1.308273220062255859e+01 8.783666789531707764e-02 1.816241145133972168e-01 8.083823323249816895e-02 1.237622424960136414e-01
3.930000000000000000e+03 2.229996871948242188e+01 1.700486373901367188e+01 7.845985144376754761e-02 1.414398699998855591e-01 6.596991419792175293e-02 1.063055172562599182e-01
3.931000000000000000e+03 5.090383529663085938e+01 2.823777580261230469e+01 5.402966737747192383e-01 1.119877576828002930e+00 4.980522692203521729e-01 9.332049489021301270e-01
3.932000000000000000e+03 4.959271240234375000e+01 2.616324043273925781e+01 2.734535038471221924e-01 1.213766455650329590e+00 4.461660087108612061e-01 7.923361063003540039e-01
3.933000000000000000e+03 2.687295341491699219e+01 2.082820129394531250e+01 7.002894580364227295e-02 1.155295222997665405e-01 5.566754192113876343e-02 9.244251251220703125e-02
3.934000000000000000e+03 3.721965789794921875e+01 1.377220535278320312e+01 -5.693966150283813477e-01 -2.402283698320388794e-01 -2.428874969482421875e-01 -4.190347492694854736e-01
3.935000000000000000e+03 4.951137161254882812e+01 2.706141281127929688e+01 2.943531274795532227e-01 9.100233912467956543e-01 3.613129556179046631e-01 6.552054286003112793e-01
3.936000000000000000e+03 3.980278778076171875e+01 1.658852958679199219e+01 -4.670673012733459473e-01 -1.388046611100435257e-02 -1.442843377590179443e-01 -2.879739403724670410e-01
3.937000000000000000e+03 4.400681686401367188e+01 2.029542922973632812e+01 -2.543446123600006104e-01 4.907147586345672607e-01 7.091104984283447266e-02 7.122013717889785767e-02
3.938000000000000000e+03 2.531674575805664062e+01 1.900101280212402344e+01 8.112581819295883179e-02 1.237900629639625549e-01 6.147476285696029663e-02 1.004940345883369446e-01
3.939000000000000000e+03 3.773447799682617188e+01 1.434107303619384766e+01 -5.488269329071044922e-01 -2.054980099201202393e-01 -2.262974828481674194e-01 -3.949240744113922119e-01
3.940000000000000000e+03 4.905708694458007812e+01 2.657966613769531250e+01 2.113127857446670532e-01 8.511027693748474121e-01 3.187246620655059814e-01 5.737669467926025391e-01
3.941000000000000000e+03 4.518851470947265625e+01 2.157837104797363281e+01 -1.951556652784347534e-01 6.233004331588745117e-01 1.284434199333190918e-01 1.892584711313247681e-01
3.942000000000000000e+03 3.491884613037109375e+01 1.090194034576416016e+01 -6.390600800514221191e-01 -3.437581658363342285e-01 -2.948454618453979492e-01 -4.623986184597015381e-01
3.943000000000000000e+03 3.569895553588867188e+01 1.186637973785400391e+01 -6.166299581527709961e-01 -3.124536871910095215e-01 -2.787250876426696777e-01 -4.529182314872741699e-01
3.944000000000000000e+03 2.464940643310546875e+01 7.749776244163513184e-01 -8.384834527969360352e-01 -1.208119317889213562e-01 -2.877885997295379639e-01 -3.155342936515808105e-01
3.945000000000000000e+03 2.505705451965332031e+01 8.281848430633544922e-01 -8.548414111137390137e-01 -1.746690571308135986e-01 -3.088531196117401123e-01 -3.223576247692108154e-01
3.946000000000000000e+03 3.853406906127929688e+01 1.467036056518554688e+01 -5.091738700866699219e-01 -7.868130505084991455e-02 -1.763565540313720703e-01 -3.252041637897491455e-01
3.947000000000000000e+03 2.016804695129394531e+01 1.468969345092773438e+01 8.749575167894363403e-02 1.602437794208526611e-01 7.432185858488082886e-02 1.158969178795814514e-01
3.948000000000000000e+03 1.586655616760253906e+01 1.007485485076904297e+01 9.175612777471542358e-02 2.518949806690216064e-01 1.030953302979469299e-01 1.356830000877380371e-01
3.949000000000000000e+03 1.475488376617431641e+01 1.077733230590820312e+01 6.357330083847045898e-02 2.364055663347244263e-01 8.999366313219070435e-02 9.289055317640304565e-02
3.950000000000000000e+03 3.306788253784179688e+01 2.785397529602050781e+01 5.055125430226325989e-02 8.998996764421463013e-02 4.216236621141433716e-02 6.724796444177627563e-02
3.951000000000000000e+03 3.199914932250976562e+01 2.757770156860351562e+01 5.606013908982276917e-02 9.138182550668716431e-02 4.423258826136589050e-02 7.140464335680007935e-02
3.952000000000000000e+03 5.061482620239257812e+01 2.798550987243652344e+01 4.851240217685699463e-01 1.071676850318908691e+00 4.670402705669403076e-01 8.702093958854675293e-01
3.953000000000000000e+03 5.139055252075195312e+01 2.817496681213378906e+01 6.209135055541992188e-01 1.404743552207946777e+00 6.076971292495727539e-01 1.140602231025695801e+00
3.954000000000000000e+03 4.947919464111328125e+01 2.661465835571289062e+01 2.685436308383941650e-01 1.030746221542358398e+00 3.897869586944580078e-01 6.997901201248168945e-01
3.955000000000000000e+03 3.878934478759765625e+01 1.495475101470947266e+01 -5.001099705696105957e-01 -5.578124523162841797e-02 -1.667673736810684204e-01 -3.112223446369171143e-01
3.956000000000000000e+03 4.348918151855468750e+01 2.006959152221679688e+01 -2.738927900791168213e-01 3.959579169750213623e-01 3.661953657865524292e-02 6.524922326207160950e-03
3.957000000000000000e+03 5.746258163452148438e+01 3.165570449829101562e+01 2.126959562301635742e+00 9.066577911376953125e+00 3.358061313629150391e+00 4.921974658966064453e+00
3.958000000000000000e+03 3.400326919555664062e+01 3.013906097412109375e+01 5.908140540122985840e-02 8.255361020565032959e-02 4.249050468206405640e-02 6.433144956827163696e-02
3.959000000000000000e+03 5.081459808349609375e+01 2.766809844970703125e+01 5.001305937767028809e-01 1.291275143623352051e+00 5.374217033386230469e-01 9.922664165496826172e-01
3.960000000000000000e+03 3.588909912109375000e+01 1.236784553527832031e+01 -6.236770153045654297e-01 -3.353458046913146973e-01 -2.877068519592285156e-01 -4.675344824790954590e-01
3.961000000000000000e+03 3.616989517211914062e+01 1.281882667541503906e+01 -6.124038696289062500e-01 -3.336318731307983398e-01 -2.838107347488403320e-01 -4.699116051197052002e-01
3.962000000000000000e+03 3.954000091552734375e+01 1.631763267517089844e+01 -4.787572920322418213e-01 -4.201811179518699646e-02 -1.562326252460479736e-01 -3.024099171161651611e-01
3.963000000000000000e+03 4.145042419433593750e+01 1.756937599182128906e+01 -3.770708441734313965e-01 2.393499910831451416e-01 -4.131626337766647339e-02 -1.503219008445739746e-01
3.964000000000000000e+03 5.197986221313476562e+01 2.867259216308593750e+01 7.615911960601806641e-01 1.552039980888366699e+00 6.940893530845642090e-01 1.319006800651550293e+00
3.965000000000000000e+03 5.274730300903320312e+01 2.872774505615234375e+01 8.861175179481506348e-01 2.075548648834228516e+00 8.884998559951782227e-01 1.668964743614196777e+00
3.966000000000000000e+03 3.904638290405273438e+01 1.523752117156982422e+01 -4.906117022037506104e-01 -3.121494129300117493e-02 -1.565479934215545654e-01 -2.993650138378143311e-01
3.967000000000000000e+03 4.542498779296875000e+01 2.184131813049316406e+01 -1.808811724185943604e-01 6.507228016853332520e-01 1.409524828195571899e-01 2.138919085264205933e-01
3.968000000000000000e+03 2.601204681396484375e+01 2.008432769775390625e+01 7.161553949117660522e-02 1.186941862106323242e-01 5.709291622042655945e-02 9.322928637266159058e-02
3.969000000000000000e+03 4.318970870971679688e+01 1.950617027282714844e+01 -2.955351173877716064e-01 3.872847557067871094e-01 2.752489224076271057e-02 -1.555739529430866241e-02
3.970000000000000000e+03 1.881517791748046875e+01 1.349184703826904297e+01 8.767848461866378784e-02 1.754450649023056030e-01 7.893706113100051880e-02 1.217344775795936584e-01
3.971000000000000000e+03 5.052610397338867188e+01 2.743430709838867188e+01 4.492357373237609863e-01 1.224355936050415039e+00 5.020775198936462402e-01 9.243043661117553711e-01
3.972000000000000000e+03 4.996110534667968750e+01 2.699538993835449219e+01 3.494676947593688965e-01 1.117864727973937988e+00 4.401997029781341553e-01 8.025081157684326172e-01
3.973000000000000000e+03 5.023972702026367188e+01 2.722192955017089844e+01 4.057016074657440186e-01 1.174081802368164062e+00 4.739350080490112305e-01 8.624092340469360352e-01
3.974000000000000000e+03 5.294664764404296875e+01 2.923392677307128906e+01 9.993271231651306152e-01 1.979228377342224121e+00 8.935666680335998535e-01 1.695606112480163574e+00
3.975000000000000000e+03 1.798583221435546875e+01 1.267878055572509766e+01 8.720695227384567261e-02 1.892644912004470825e-01 8.294143527746200562e-02 1.249857246875762939e-01
3.976000000000000000e+03 2.551798629760742188e+01 1.152882099151611328e+00 -8.684579133987426758e-01 -2.086772471666336060e-01 -3.231405615806579590e-01 -3.088125884532928467e-01
3.977000000000000000e+03 4.298968124389648438e+01 1.911231231689453125e+01 -2.985858321189880371e-01 3.957341313362121582e-01 2.914449013769626617e-02 -2.547233924269676208e-02
3.978000000000000000e+03 4.282056045532226562e+01 1.943580055236816406e+01 -3.105157315731048584e-01 3.074024319648742676e-01 -9.339869138784706593e-04 -6.500483304262161255e-02
3.979000000000000000e+03 2.074322128295898438e+01 1.525012779235839844e+01 8.522960543632507324e-02 1.548194289207458496e-01 7.201471179723739624e-02 1.128747537732124329e-01
3.980000000000000000e+03 4.454843902587890625e+01 2.026173400878906250e+01 -2.274596095085144043e-01 6.572570800781250000e-01 1.289392411708831787e-01 1.576303392648696899e-01
3.981000000000000000e+03 2.517364883422851562e+01 1.941571044921875000e+01 7.232008129358291626e-02 1.226523071527481079e-01 5.849171802401542664e-02 9.518114477396011353e-02
3.982000000000000000e+03 2.297098922729492188e+01 1.808192253112792969e+01 7.335665822029113770e-02 1.336930990219116211e-01 6.211492791771888733e-02 1.004236936569213867e-01
3.983000000000000000e+03 2.472843933105468750e+01 1.897380638122558594e+01 7.680024206638336182e-02 1.251056939363479614e-01 6.057178229093551636e-02 9.824402630329132080e-02
3.984000000000000000e+03 2.832461166381835938e+01 2.291908454895019531e+01 6.039183586835861206e-02 1.072800233960151672e-01 5.030155926942825317e-02 8.492564409971237183e-02
3.985000000000000000e+03 3.930483627319335938e+01 1.551625156402587891e+01 -4.818123281002044678e-01 -4.630442243069410324e-03 -1.459328383207321167e-01 -2.845753729343414307e-01
3.986000000000000000e+03 3.956425857543945312e+01 1.578951454162597656e+01 -4.712635576725006104e-01 2.180736139416694641e-02 -1.348368674516677856e-01 -2.713307738304138184e-01
3.987000000000000000e+03 3.548422622680664062e+01 1.131145477294921875e+01 -6.142246723175048828e-01 -2.952874302864074707e-01 -2.728536427021026611e-01 -4.394748210906982422e-01
3.988000000000000000e+03 4.612523651123046875e+01 2.307653808593750000e+01 -1.289051324129104614e-01 6.454442143440246582e-01 1.549617201089859009e-01 2.557547688484191895e-01
3.989000000000000000e+03 5.347300338745117188e+01 2.991172409057617188e+01 1.221907019615173340e+00 2.067513465881347656e+00 9.868261814117431641e-01 1.869670510292053223e+00
3.990000000000000000e+03 4.034984207153320312e+01 1.658467674255371094e+01 -4.366289973258972168e-01 1.077997982501983643e-01 -9.864875674247741699e-02 -2.267621457576751709e-01
3.991000000000000000e+03 2.823711585998535156e+01 2.349281692504882812e+01 5.430465564131736755e-02 1.026084944605827332e-01 4.707394540309906006e-02 7.917571067810058594e-02
3.992000000000000000e+03 1.879557037353515625e+01 1.382295036315917969e+01 8.138058334589004517e-02 1.731094270944595337e-01 7.634700089693069458e-02 1.165243312716484070e-01
3.993000000000000000e+03 1.971000671386718750e+01 1.464855194091796875e+01 8.294310420751571655e-02 1.624435633420944214e-01 7.361599802970886230e-02 1.133382916450500488e-01
3.994000000000000000e+03 2.185602378845214844e+01 1.684107589721679688e+01 7.591596245765686035e-02 1.436387747526168823e-01 6.586641818284988403e-02 1.046598777174949646e-01
3.995000000000000000e+03 3.438203048706054688e+01 9.481755256652832031e+00 -6.024758219718933105e-01 -3.033403158187866211e-01 -2.717448472976684570e-01 -4.045034050941467285e-01
3.996000000000000000e+03 3.297751235961914062e+01 2.737788581848144531e+01 6.289293617010116577e-02 9.056138247251510620e-02 4.603629559278488159e-02 7.351849973201751709e-02
3.997000000000000000e+03 5.328118133544921875e+01 2.937145805358886719e+01 1.086426854133605957e+00 2.196449756622314453e+00 9.848629832267761230e-01 1.857395768165588379e+00
3.998000000000000000e+03 5.422212219238281250e+01 3.046784973144531250e+01 1.526477813720703125e+00 2.494615793228149414e+00 1.206328153610229492e+00 2.209662199020385742e+00
3.999000000000000000e+03 4.589961624145507812e+01 2.235593795776367188e+01 -1.483194679021835327e-01 7.067300677299499512e-01 1.675231903791427612e-01 2.643014192581176758e-01
4.000000000000000000e+03 4.613932037353515625e+01 2.260450553894042969e+01 -1.306839734315872192e-01 7.364745140075683594e-01 1.817371547222137451e-01 2.902628183364868164e-01
4.001000000000000000e+03 2.067450332641601562e+01 1.565084457397460938e+01 8.028513938188552856e-02 1.541681587696075439e-01 7.033599168062210083e-02 1.095379590988159180e-01
4.002000000000000000e+03 1.705408287048339844e+01 1.065014076232910156e+01 1.033080518245697021e-01 2.256062179803848267e-01 9.867428243160247803e-02 1.455043405294418335e-01
4.003000000000000000e+03 1.621008491516113281e+01 1.058580684661865234e+01 9.032075107097625732e-02 2.350733876228332520e-01 9.761823713779449463e-02 1.320952922105789185e-01
4.004000000000000000e+03 4.690065383911132812e+01 2.325904655456542969e+01 -6.602921336889266968e-02 8.665418028831481934e-01 2.401537746191024780e-01 3.892417848110198975e-01
4.005000000000000000e+03 2.144435882568359375e+01 1.660919380187988281e+01 7.572603225708007812e-02 1.467516422271728516e-01 6.674329936504364014e-02 1.053721606731414795e-01
4.006000000000000000e+03 3.094052124023437500e+01 2.623007202148437500e+01 4.868801683187484741e-02 9.417836368083953857e-02 4.285991191864013672e-02 7.177762687206268311e-02
4.007000000000000000e+03 3.022999954223632812e+01 2.435414314270019531e+01 5.677646771073341370e-02 9.435087442398071289e-02 4.533820226788520813e-02 7.665100693702697754e-02
4.008000000000000000e+03 1.084865951538085938e+01 1.353193664550781250e+01 2.830423228442668915e-02 9.277371317148208618e-02 3.632338345050811768e-02 3.980689798481762409e-04
4.009000000000000000e+03 1.354396820068359375e+01 9.650835990905761719e+00 5.946875363588333130e-02 2.629647850990295410e-01 9.673006832599639893e-02 6.142130494117736816e-02
4.010000000000000000e+03 1.407539939880371094e+01 9.559569358825683594e+00 6.793378293514251709e-02 2.748107910156250000e-01 1.028233692049980164e-01 8.446691185235977173e-02
4.011000000000000000e+03 1.382907104492187500e+01 7.773690700531005859e+00 8.278706669807434082e-02 3.749545514583587646e-01 1.373224854469299316e-01 9.568826854228973389e-02
4.012000000000000000e+03 1.335683536529541016e+01 7.157188892364501953e+00 8.512967824935913086e-02 4.141962826251983643e-01 1.497977823019027710e-01 6.147513538599014282e-02
4.013000000000000000e+03 3.424150466918945312e+01 8.304882049560546875e+00 -5.277417302131652832e-01 -2.293994724750518799e-01 -2.271423488855361938e-01 -3.425481319427490234e-01
4.014000000000000000e+03 1.657665634155273438e+01 1.051473617553710938e+01 9.624497592449188232e-02 2.327890843152999878e-01 9.871021658182144165e-02 1.395502239465713501e-01
4.015000000000000000e+03 5.750915908813476562e+01 3.127968215942382812e+01 1.645811080932617188e+00 9.136475563049316406e+00 3.234685897827148438e+00 4.493507385253906250e+00
4.016000000000000000e+03 5.841088485717773438e+01 3.078999137878417969e+01 5.474572777748107910e-01 1.161140060424804688e+01 3.647657394409179688e+00 3.496012449264526367e+00
4.017000000000000000e+03 3.329319381713867188e+01 5.556295871734619141e+00 -4.438292682170867920e-01 -1.483476012945175171e-01 -1.776530593633651733e-01 -2.901601195335388184e-01
4.018000000000000000e+03 3.496276855468750000e+01 6.420757293701171875e+00 -3.985931277275085449e-01 7.388011552393436432e-03 -1.173615381121635437e-01 -2.070032656192779541e-01
4.019000000000000000e+03 1.763089561462402344e+01 1.187440109252929688e+01 9.354124218225479126e-02 2.014633715152740479e-01 8.850137889385223389e-02 1.327157020568847656e-01
4.020000000000000000e+03 3.224674224853515625e+01 4.668819427490234375e+00 -4.971608817577362061e-01 -1.839396506547927856e-01 -2.043301612138748169e-01 -3.101755380630493164e-01
4.021000000000000000e+03 1.250955963134765625e+01 6.315914154052734375e+00 1.191871538758277893e-01 4.249290823936462402e-01 1.632348746061325073e-01 -4.215727001428604126e-02
4.022000000000000000e+03 3.274502944946289062e+01 5.125791072845458984e+00 -4.689223766326904297e-01 -1.766646951436996460e-01 -1.936761140823364258e-01 -3.104867935180664062e-01
4.023000000000000000e+03 1.705195236206054688e+01 1.150610065460205078e+01 9.077389538288116455e-02 2.120352983474731445e-01 9.084276109933853149e-02 1.310085207223892212e-01
4.024000000000000000e+03 1.579630756378173828e+01 1.054742717742919922e+01 8.117841184139251709e-02 2.408503144979476929e-01 9.660861641168594360e-02 1.218907162547111511e-01
4.025000000000000000e+03 3.023864555358886719e+01 3.939059734344482422e+00 -6.765283346176147461e-01 -3.200268447399139404e-01 -2.989665567874908447e-01 -3.346240222454071045e-01
4.026000000000000000e+03 3.077567863464355469e+01 2.675849533081054688e+01 5.695181339979171753e-02 9.386119246482849121e-02 4.524390026926994324e-02 7.299184054136276245e-02
4.027000000000000000e+03 3.123024368286132812e+01 2.678489303588867188e+01 4.842786490917205811e-02 9.326527267694473267e-02 4.250794276595115662e-02 7.130479812622070312e-02
4.028000000000000000e+03 1.330607223510742188e+01 7.537654876708984375e+00 7.821886986494064331e-02 3.778170049190521240e-01 1.368107646703720093e-01 5.193936824798583984e-02
4.029000000000000000e+03 1.362603569030761719e+01 7.576643466949462891e+00 8.073157072067260742e-02 3.866392970085144043e-01 1.402112692594528198e-01 8.249942213296890259e-02
4.030000000000000000e+03 3.072453117370605469e+01 3.872476100921630859e+00 -6.323595046997070312e-01 -2.736386358737945557e-01 -2.717994451522827148e-01 -3.039056658744812012e-01
4.031000000000000000e+03 2.665717697143554688e+01 8.864150941371917725e-02 -3.904577493667602539e-01 -2.323057502508163452e-01 -1.868290454149246216e-01 -9.645678848028182983e-02
4.032000000000000000e+03 2.689176940917968750e+01 2.903856933116912842e-01 -4.164344966411590576e-01 -2.422178089618682861e-01 -1.975956857204437256e-01 -1.136883720755577087e-01
4.033000000000000000e+03 3.048678970336914062e+01 2.604505920410156250e+01 5.712974071502685547e-02 9.572324156761169434e-02 4.585589468479156494e-02 7.703141868114471436e-02
4.034000000000000000e+03 5.869931411743164062e+01 3.054939460754394531e+01 2.346883267164230347e-01 1.196727085113525391e+01 3.660587787628173828e+00 2.956730842590332031e+00
4.035000000000000000e+03 5.955725097656250000e+01 3.108917617797851562e+01 3.473198711872100830e-01 1.420830059051513672e+01 4.366686344146728516e+00 1.428182601928710938e+00
4.036000000000000000e+03 3.106431198120117188e+01 3.776311874389648438e-02 -1.478219926357269287e-01 -1.447893679141998291e-01 -8.778341114521026611e-02 -1.503293029963970184e-02
4.037000000000000000e+03 3.073912048339843750e+01 4.322052478790283203e+00 -6.470644474029541016e-01 -2.868719696998596191e-01 -2.801809310913085938e-01 -3.578248620033264160e-01
4.038000000000000000e+03 1.203944206237792969e+01 6.628275871276855469e+00 1.346140801906585693e-01 3.321118056774139404e-01 1.400177627801895142e-01 -6.306188553571701050e-02
4.039000000000000000e+03 3.375033187866210938e+01 8.601553916931152344e+00 -5.714117288589477539e-01 -3.259331285953521729e-01 -2.692034840583801270e-01 -3.949607014656066895e-01
4.040000000000000000e+03 3.461904907226562500e+01 8.739590644836425781e+00 -5.364613533020019531e-01 -2.071116268634796143e-01 -2.230719029903411865e-01 -3.390492498874664307e-01
4.041000000000000000e+03 3.181525611877441406e+01 2.704057312011718750e+01 5.270095169544219971e-02 9.257552772760391235e-02 4.358294233679771423e-02 7.068192213773727417e-02
4.042000000000000000e+03 2.766733741760253906e+01 1.276546835899353027e+00 -5.599767565727233887e-01 -3.173252046108245850e-01 -2.631905972957611084e-01 -1.913972795009613037e-01
4.043000000000000000e+03 1.725696945190429688e+01 1.124894428253173828e+01 9.761344641447067261e-02 2.128795087337493896e-01 9.314788877964019775e-02 1.375434249639511108e-01
4.044000000000000000e+03 2.946023750305175781e+01 2.555206871032714844e+01 5.451858788728713989e-02 9.879388660192489624e-02 4.599374160170555115e-02 7.778938114643096924e-02
4.045000000000000000e+03 2.939384651184082031e+01 2.420745468139648438e+01 5.974059924483299255e-02 9.980446845293045044e-02 4.786352068185806274e-02 8.188019692897796631e-02
4.046000000000000000e+03 3.530999374389648438e+01 3.080474472045898438e+01 5.029705911874771118e-02 8.124896138906478882e-02 3.946380689740180969e-02 5.866109952330589294e-02
4.047000000000000000e+03 3.333049011230468750e+01 3.058951377868652344e+01 5.004915967583656311e-02 8.555774390697479248e-02 4.068207368254661560e-02 5.865787714719772339e-02
4.048000000000000000e+03 2.998921585083007812e+01 2.578472137451171875e+01 4.828380048274993896e-02 9.561122953891754150e-02 4.316851124167442322e-02 7.079111039638519287e-02
4.049000000000000000e+03 3.391834259033203125e+01 7.879673004150390625e+00 -5.141688585281372070e-01 -2.515324056148529053e-01 -2.297103852033615112e-01 -3.490586578845977783e-01
4.050000000000000000e+03 3.086952972412109375e+01 -7.510250806808471680e-01 -5.801919475197792053e-02 -1.479918211698532104e-01 -6.180330365896224976e-02 5.285336170345544815e-03
4.051000000000000000e+03 3.117427253723144531e+01 -1.310003042221069336e+00 2.380305901169776917e-02 -1.253034919500350952e-01 -3.045012801885604858e-02 1.587173901498317719e-02
4.052000000000000000e+03 2.946187400817871094e+01 -6.786914467811584473e-01 -9.623192995786666870e-02 -2.111583650112152100e-01 -9.221708774566650391e-02 1.333918655291199684e-03
4.053000000000000000e+03 3.521823501586914062e+01 1.112941169738769531e+01 -6.304441690444946289e-01 -3.216277062892913818e-01 -2.856215536594390869e-01 -4.510765373706817627e-01
4.054000000000000000e+03 3.380099105834960938e+01 6.782535076141357422e+00 -4.660566151142120361e-01 -1.785461306571960449e-01 -1.933808326721191406e-01 -3.072515130043029785e-01
4.055000000000000000e+03 3.556384277343750000e+01 1.045823478698730469e+01 -5.714476704597473145e-01 -2.043826729059219360e-01 -2.327491044998168945e-01 -3.688710927963256836e-01
4.056000000000000000e+03 3.462413406372070312e+01 3.198896408081054688e+01 5.464537069201469421e-02 9.034580737352371216e-02 4.349735379219055176e-02 6.175641342997550964e-02
4.057000000000000000e+03 3.299144363403320312e+01 2.906186485290527344e+01 5.031709372997283936e-02 8.441133797168731689e-02 4.041852802038192749e-02 6.561284512281417847e-02
4.058000000000000000e+03 3.645648193359375000e+01 3.304211425781250000e+01 5.078290775418281555e-02 7.360166311264038086e-02 3.731536865234375000e-02 5.540853366255760193e-02
4.059000000000000000e+03 3.218376922607421875e+01 2.811157226562500000e+01 5.065337195992469788e-02 9.291762113571166992e-02 4.307129979133605957e-02 6.681512296199798584e-02
4.060000000000000000e+03 3.513330078125000000e+01 9.685890197753906250e+00 -5.607917904853820801e-01 -2.050175070762634277e-01 -2.297427952289581299e-01 -3.562687635421752930e-01
4.061000000000000000e+03 3.539956283569335938e+01 3.307345199584960938e+01 6.740337610244750977e-02 8.314234018325805664e-02 4.516371712088584900e-02 6.116671860218048096e-02
4.062000000000000000e+03 9.673590660095214844e+00 9.393986701965332031e+00 9.386814385652542114e-02 6.714808195829391479e-02 4.830486699938774109e-02 -2.602015994489192963e-02
4.063000000000000000e+03 1.332720279693603516e+01 8.013166427612304688e+00 7.650797814130783081e-02 3.361334502696990967e-01 1.237924322485923767e-01 5.469973757863044739e-02
4.064000000000000000e+03 3.201560974121093750e+01 -2.645110845565795898e+00 1.037351787090301514e-01 -4.899616166949272156e-02 1.642170362174510956e-02 2.399953640997409821e-02
4.065000000000000000e+03 6.155943298339843750e+01 2.981036758422851562e+01 1.260955184698104858e-01 1.244481563568115234e+01 3.771273374557495117e+00 -4.557880461215972900e-01
4.066000000000000000e+03 9.067455291748046875e+00 1.362562465667724609e+01 2.816570550203323364e-02 3.271687775850296021e-02 1.826477423310279846e-02 -1.138797495514154434e-02
4.067000000000000000e+03 3.205334854125976562e+01 -1.826904177665710449e+00 7.281225174665451050e-02 -4.791575297713279724e-02 7.468949537724256516e-03 2.336904779076576233e-02
4.068000000000000000e+03 3.140853309631347656e+01 -5.084722638130187988e-01 -6.430044025182723999e-02 -1.098471656441688538e-01 -5.224427953362464905e-02 1.114575751125812531e-02
4.069000000000000000e+03 6.360047149658203125e+01 2.977322578430175781e+01 6.844050288200378418e-01 1.129737377166748047e+01 3.594533681869506836e+00 -1.448744773864746094e+00
4.070000000000000000e+03 6.893118286132812500e+01 1.186232089996337891e+01 -5.433030724525451660e-01 7.789289951324462891e+00 2.173795938491821289e+00 -4.573358893394470215e-01
4.071000000000000000e+03 1.115537643432617188e+01 -7.231410980224609375e+00 -1.025639548897743225e-01 -2.454411983489990234e-01 -1.044015437364578247e-01 -4.212472736835479736e-01
4.072000000000000000e+03 1.104147911071777344e+01 -9.162312507629394531e+00 2.094992622733116150e-02 -2.844605147838592529e-01 -7.905317842960357666e-02 -3.893356919288635254e-01
4.073000000000000000e+03 1.289081954956054688e+01 -8.101818084716796875e+00 -4.609129391610622406e-03 -3.017912209033966064e-01 -9.192010015249252319e-02 -4.248839318752288818e-01
4.074000000000000000e+03 1.163415622711181641e+01 -7.369597434997558594e+00 -8.276537805795669556e-02 -2.739366888999938965e-01 -1.070106178522109985e-01 -4.416134953498840332e-01
4.075000000000000000e+03 9.435577392578125000e+00 -8.982756614685058594e+00 -1.086766552180051804e-02 -2.706281542778015137e-01 -8.444873988628387451e-02 -3.714556992053985596e-01
4.076000000000000000e+03 6.801290893554687500e+01 4.406947135925292969e+00 -3.336626291275024414e-01 7.386198520660400391e+00 2.115760803222656250e+00 -8.019062131643295288e-02
4.077000000000000000e+03 6.886774444580078125e+01 1.530837297439575195e+00 -2.332915663719177246e-01 7.475564479827880859e+00 2.172681808471679688e+00 -9.954030625522136688e-03
4.078000000000000000e+03 6.994484710693359375e+01 2.398702049255371094e+01 -3.935767412185668945e-01 8.345018386840820312e+00 2.385432481765747070e+00 -1.519349336624145508e+00
4.079000000000000000e+03 9.135610580444335938e+00 8.823594093322753906e+00 1.110981330275535583e-01 2.472700364887714386e-02 4.074754193425178528e-02 -1.953306421637535095e-02
4.080000000000000000e+03 1.079489707946777344e+01 6.896648883819580078e+00 1.659415513277053833e-01 1.440567672252655029e-01 9.299949556589126587e-02 -6.861479580402374268e-02
4.081000000000000000e+03 9.851020812988281250e+00 2.322326660156250000e+01 -8.613634854555130005e-03 4.485634271986782551e-04 -2.449521329253911972e-03 -1.048312894999980927e-02
4.082000000000000000e+03 6.845815277099609375e+01 -1.187467479705810547e+01 -9.640787541866302490e-02 7.227727413177490234e+00 2.139395952224731445e+00 2.429311275482177734e-01
4.083000000000000000e+03 3.509449005126953125e+01 -4.171148777008056641e+00 1.457740515470504761e-01 3.249511718750000000e-01 1.412175744771957397e-01 1.887060329318046570e-02
4.084000000000000000e+03 3.453428649902343750e+01 -1.755444407463073730e+00 5.253888294100761414e-02 2.342975437641143799e-01 8.605092763900756836e-02 3.094708733260631561e-02
4.085000000000000000e+03 7.037018585205078125e+01 1.519656085968017578e+01 -5.399366617202758789e-01 8.015215873718261719e+00 2.242583751678466797e+00 -7.422389388084411621e-01
4.086000000000000000e+03 7.019722747802734375e+01 -1.628819584846496582e+00 -1.531606167554855347e-01 7.669279575347900391e+00 2.254835844039916992e+00 4.529111087322235107e-02
4.087000000000000000e+03 6.919712829589843750e+01 -7.701116800308227539e-01 -1.865370869636535645e-01 7.509041786193847656e+00 2.196751356124877930e+00 4.205482825636863708e-02
4.088000000000000000e+03 6.841128540039062500e+01 -1.911242294311523438e+01 -4.856487363576889038e-02 7.142071723937988281e+00 2.128051996231079102e+00 3.179892599582672119e-01
4.089000000000000000e+03 3.820775985717773438e+01 -6.071417808532714844e+00 1.016203835606575012e-01 8.651397824287414551e-01 2.900280654430389404e-01 -3.820578567683696747e-03
4.090000000000000000e+03 6.907793426513671875e+01 -2.453307151794433594e+00 -1.720781773328781128e-01 7.448552131652832031e+00 2.182942152023315430e+00 8.412650227546691895e-02
4.091000000000000000e+03 8.667796134948730469e+00 1.085497856140136719e+01 6.578582525253295898e-02 2.249811962246894836e-02 2.648518234491348267e-02 -1.641483046114444733e-02
4.092000000000000000e+03 8.471329689025878906e+00 9.588710784912109375e+00 9.261567890644073486e-02 3.242359496653079987e-03 2.875741198658943176e-02 -1.438870746642351151e-02
4.093000000000000000e+03 6.417304229736328125e+01 3.043016052246093750e+01 1.257885098457336426e+00 1.093142890930175781e+01 3.656794309616088867e+00 -1.591711044311523438e+00
4.094000000000000000e+03 6.820584869384765625e+01 3.150732994079589844e+01 1.290751814842224121e+00 8.854595184326171875e+00 3.043604135513305664e+00 -1.393090605735778809e+00
4.095000000000000000e+03 3.763478088378906250e+01 3.401132583618164062e+01 5.345868691802024841e-02 6.622976064682006836e-02 3.590653464198112488e-02 5.628591030836105347e-02
4.096000000000000000e+03 3.651941299438476562e+01 3.417606353759765625e+01 7.714813947677612305e-02 7.677409052848815918e-02 4.617666825652122498e-02 5.343461781740188599e-02
4.097000000000000000e+03 8.724062919616699219e+00 8.066663742065429688e+00 1.352562010288238525e-01 -1.117226108908653259e-02 3.722517937421798706e-02 -1.555881649255752563e-02
4.098000000000000000e+03 3.936862564086914062e+01 -7.209530353546142578e+00 7.612486928701400757e-02 1.103310823440551758e+00 3.538307249546051025e-01 -1.126784179359674454e-02
4.099000000000000000e+03 7.007184600830078125e+01 2.796038818359375000e+01 2.118086218833923340e-01 8.314783096313476562e+00 2.557977676391601562e+00 -1.691300988197326660e+00
4.100000000000000000e+03 6.927727508544921875e+01 3.226884078979492188e+01 1.205746531486511230e+00 8.420767784118652344e+00 2.887954235076904297e+00 -1.263871669769287109e+00
4.101000000000000000e+03 1.050213813781738281e+01 -1.290434265136718750e+01 8.864104002714157104e-02 -3.018155395984649658e-01 -6.395234912633895874e-02 -3.156695961952209473e-01
4.102000000000000000e+03 3.620279312133789062e+01 -4.988617420196533203e+00 1.410469114780426025e-01 5.038931369781494141e-01 1.934820115566253662e-01 8.159525692462921143e-03
4.103000000000000000e+03 3.624784469604492188e+01 -5.885361194610595703e+00 1.375681906938552856e-01 5.168856382369995117e-01 1.963361352682113647e-01 -8.935420773923397064e-03
4.104000000000000000e+03 4.145871734619140625e+01 -1.230898666381835938e+01 -1.214907132089138031e-02 1.589747309684753418e+00 4.732794761657714844e-01 -8.966153860092163086e-02
4.105000000000000000e+03 6.542276000976562500e+01 3.494374084472656250e+01 2.926572561264038086e+00 1.013163280487060547e+01 3.917461633682250977e+00 1.226639002561569214e-02
4.106000000000000000e+03 6.931987762451171875e+01 -5.576805591583251953e+00 -1.321574449539184570e-01 7.463220596313476562e+00 2.199318885803222656e+00 1.436628699302673340e-01
4.107000000000000000e+03 6.971284484863281250e+01 -7.550805568695068359e+00 -1.089457571506500244e-01 7.509708404541015625e+00 2.220228910446166992e+00 1.678198426961898804e-01
4.108000000000000000e+03 1.023174667358398438e+01 1.509129047393798828e+01 1.698517426848411560e-02 5.842490866780281067e-02 2.262302488088607788e-02 -4.716449417173862457e-03
4.109000000000000000e+03 6.870505523681640625e+01 2.472014427185058594e+01 -4.085894823074340820e-01 8.666563034057617188e+00 2.477392196655273438e+00 -1.533642172813415527e+00
4.110000000000000000e+03 6.893126678466796875e+01 2.364238166809082031e+01 -5.036730170249938965e-01 8.542395591735839844e+00 2.411616563796997070e+00 -1.438995838165283203e+00
4.111000000000000000e+03 6.865178680419921875e+01 -8.435201644897460938e+00 -1.221047863364219666e-01 7.288345336914062500e+00 2.149872064590454102e+00 1.929117292165756226e-01
4.112000000000000000e+03 6.839801788330078125e+01 -1.305073547363281250e+01 -8.612425625324249268e-02 7.204101562500000000e+00 2.135393142700195312e+00 2.567749619483947754e-01
4.113000000000000000e+03 4.189058685302734375e+01 -1.122676753997802734e+01 -1.671946793794631958e-02 1.665348649024963379e+00 4.945887327194213867e-01 -6.362991034984588623e-02
4.114000000000000000e+03 6.943138885498046875e+01 4.818130970001220703e+00 -2.959299683570861816e-01 7.631252765655517578e+00 2.200596809387207031e+00 -1.241337358951568604e-01
4.115000000000000000e+03 4.123954010009765625e+01 -8.629703521728515625e+00 3.886696323752403259e-02 1.496244072914123535e+00 4.605333209037780762e-01 -2.709723636507987976e-02
4.116000000000000000e+03 4.137014007568359375e+01 -7.494033813476562500e+00 3.241574019193649292e-02 1.514512777328491211e+00 4.640785455703735352e-01 8.220088202506303787e-04
4.117000000000000000e+03 6.621356964111328125e+01 -2.587249755859375000e+01 2.274595573544502258e-02 6.718962669372558594e+00 2.022512435913085938e+00 3.533703684806823730e-01
4.118000000000000000e+03 6.777948760986328125e+01 -2.625835609436035156e+01 3.659504279494285583e-02 6.964539051055908203e+00 2.100340127944946289e+00 3.433478772640228271e-01
4.119000000000000000e+03 6.898637390136718750e+01 2.738858985900878906e+01 1.083804816007614136e-01 8.655149459838867188e+00 2.629059076309204102e+00 -1.674126863479614258e+00
4.120000000000000000e+03 1.127164936065673828e+01 -1.604265975952148438e+01 1.203260049223899841e-01 -2.837451398372650146e-01 -4.902574419975280762e-02 -2.654635310173034668e-01
4.121000000000000000e+03 1.677234458923339844e+01 -1.910449028015136719e+01 1.431974023580551147e-01 8.680806495249271393e-03 4.556345939636230469e-02 -2.303763329982757568e-01
4.122000000000000000e+03 6.853687286376953125e+01 -9.509845733642578125e+00 -1.107986047863960266e-01 7.270200729370117188e+00 2.147820711135864258e+00 2.052810341119766235e-01
4.123000000000000000e+03 1.317689228057861328e+01 -7.200449943542480469e+00 -3.489482775330543518e-02 -3.116773068904876709e-01 -1.039716377854347229e-01 -4.468540847301483154e-01
4.124000000000000000e+03 7.032471466064453125e+01 2.062789154052734375e+01 -5.528928637504577637e-01 8.190326690673828125e+00 2.291229963302612305e+00 -1.225681424140930176e+00
4.125000000000000000e+03 7.025270843505859375e+01 2.174792098999023438e+01 -5.268708467483520508e-01 8.229741096496582031e+00 2.310861110687255859e+00 -1.332706332206726074e+00
4.126000000000000000e+03 7.138363647460937500e+01 1.428000736236572266e+01 -4.317211210727691650e-01 8.039148330688476562e+00 2.282227993011474609e+00 -6.959037780761718750e-01
4.127000000000000000e+03 1.094241142272949219e+01 1.634611511230468750e+01 9.309663437306880951e-03 6.702875345945358276e-02 2.290152572095394135e-02 7.359985611401498318e-04
4.128000000000000000e+03 9.538497924804687500e+00 1.743565177917480469e+01 2.938906196504831314e-03 2.302391640841960907e-02 7.788847200572490692e-03 -1.065345294773578644e-02
4.129000000000000000e+03 9.559354782104492188e+00 -1.866746520996093750e+01 8.324540406465530396e-02 -3.548607230186462402e-01 -8.148459345102310181e-02 -2.241934686899185181e-01
4.130000000000000000e+03 8.843896865844726562e+00 -1.484280967712402344e+01 8.164298534393310547e-02 -3.525524735450744629e-01 -8.127284795045852661e-02 -2.745930850505828857e-01
4.131000000000000000e+03 1.168353176116943359e+01 -8.419616699218750000e+00 -2.192748524248600006e-02 -2.805181443691253662e-01 -9.073368459939956665e-02 -4.156373143196105957e-01
4.132000000000000000e+03 1.133770561218261719e+01 -1.061676502227783203e+01 7.861792296171188354e-02 -2.922192811965942383e-01 -6.408040225505828857e-02 -3.624663352966308594e-01
4.133000000000000000e+03 1.626327514648437500e+01 -2.127342414855957031e+01 1.276615709066390991e-01 -2.504814043641090393e-02 3.078403137624263763e-02 -2.220628559589385986e-01
4.134000000000000000e+03 9.105686187744140625e+00 1.269277954101562500e+01 4.043217748403549194e-02 3.815244510769844055e-02 2.357538789510726929e-02 -1.329423859715461731e-02
4.135000000000000000e+03 1.091798591613769531e+01 2.573997306823730469e+01 -9.579378180205821991e-03 5.618561990559101105e-03 -1.188244670629501343e-03 -5.453391931951045990e-03
4.136000000000000000e+03 9.803792953491210938e+00 1.620665168762207031e+01 1.033893320709466934e-02 3.910931572318077087e-02 1.483447477221488953e-02 -7.916090078651905060e-03
4.137000000000000000e+03 3.948706054687500000e+01 3.766730117797851562e+01 1.003369539976119995e-01 7.186096906661987305e-02 5.165937542915344238e-02 4.792485386133193970e-02
4.138000000000000000e+03 3.667409515380859375e+01 4.130649948120117188e+01 6.995736807584762573e-02 4.790747538208961487e-02 3.535945340991020203e-02 4.156128037720918655e-03
4.139000000000000000e+03 1.028771781921386719e+01 -2.160157966613769531e+01 7.718624174594879150e-02 -3.427078723907470703e-01 -7.965648919343948364e-02 -1.960821598768234253e-01
4.140000000000000000e+03 1.213373374938964844e+01 -2.204371833801269531e+01 9.413316845893859863e-02 -2.519225776195526123e-01 -4.733682051301002502e-02 -2.002220153808593750e-01
4.141000000000000000e+03 6.912375640869140625e+01 -2.077078056335449219e+01 -3.792509064078330994e-02 7.249491691589355469e+00 2.163470029830932617e+00 3.220251202583312988e-01
4.142000000000000000e+03 6.369107818603515625e+01 -2.481597709655761719e+01 2.311556600034236908e-02 6.348088741302490234e+00 1.911361217498779297e+00 3.652395904064178467e-01
4.143000000000000000e+03 5.109147262573242188e+01 -2.145200538635253906e+01 -1.946198195219039917e-01 4.144523620605468750e+00 1.184971094131469727e+00 1.129006594419479370e-01
4.144000000000000000e+03 4.831428146362304688e+01 -3.124566268920898438e+01 3.221143484115600586e-01 4.318176269531250000e+00 1.392087221145629883e+00 1.813914179801940918e-01
4.145000000000000000e+03 5.019819259643554688e+01 -2.740923500061035156e+01 -5.020280927419662476e-02 4.319334030151367188e+00 1.280739426612854004e+00 1.859962344169616699e-01
4.146000000000000000e+03 5.130661010742187500e+01 -2.575478172302246094e+01 -8.154249936342239380e-02 4.387235641479492188e+00 1.291707992553710938e+00 1.934601962566375732e-01
4.147000000000000000e+03 7.346086120605468750e+01 3.595733261108398438e+01 5.591624379158020020e-01 6.722676753997802734e+00 2.184551715850830078e+00 -5.321627855300903320e-01
4.148000000000000000e+03 6.653163909912109375e+01 3.406096649169921875e+01 2.279354810714721680e+00 9.737885475158691406e+00 3.605171918869018555e+00 -4.792795777320861816e-01
4.149000000000000000e+03 6.783654785156250000e+01 3.512466049194335938e+01 1.735699892044067383e+00 9.288512229919433594e+00 3.307263612747192383e+00 -4.059813618659973145e-01
4.150000000000000000e+03 6.843668365478515625e+01 3.012043714523315430e+00 -2.825637757778167725e-01 7.426678657531738281e+00 2.143234491348266602e+00 -4.600819945335388184e-02
4.151000000000000000e+03 6.783979034423828125e+01 2.135541200637817383e+00 -2.832267582416534424e-01 7.298939704895019531e+00 2.104713916778564453e+00 -8.737217634916305542e-03
4.152000000000000000e+03 9.138474464416503906e+00 2.098943138122558594e+01 -6.038037594407796860e-03 -3.429159289225935936e-03 -2.840158995240926743e-03 -1.284737884998321533e-02
4.153000000000000000e+03 1.022423839569091797e+01 -1.578050136566162109e+01 1.067084148526191711e-01 -3.204138278961181641e-01 -6.411162763833999634e-02 -2.711640298366546631e-01
4.154000000000000000e+03 1.194249534606933594e+01 -1.483796119689941406e+01 1.273417621850967407e-01 -2.582041621208190918e-01 -3.925871849060058594e-02 -2.844275236129760742e-01
4.155000000000000000e+03 6.936283111572265625e+01 -1.434596633911132812e+01 -6.810923665761947632e-02 7.377799510955810547e+00 2.192907094955444336e+00 2.532756626605987549e-01
4.156000000000000000e+03 2.885692977905273438e+01 3.189053773880004883e+00 -7.444027662277221680e-01 -3.975126147270202637e-01 -3.425746262073516846e-01 -3.194988071918487549e-01
4.157000000000000000e+03 2.825693702697753906e+01 2.421295881271362305e+00 -6.945753693580627441e-01 -3.652822375297546387e-01 -3.179572820663452148e-01 -2.851912081241607666e-01
4.158000000000000000e+03 4.234717559814453125e+01 1.823665237426757812e+01 -3.292320072650909424e-01 3.644414842128753662e-01 1.056283991783857346e-02 -6.896364688873291016e-02
4.159000000000000000e+03 4.088741683959960938e+01 1.708960914611816406e+01 -4.085373580455780029e-01 1.699723601341247559e-01 -7.156950235366821289e-02 -1.929370015859603882e-01
4.160000000000000000e+03 5.399516296386718750e+01 3.031912612915039062e+01 1.437721729278564453e+00 2.341418266296386719e+00 1.133741974830627441e+00 2.104321002960205078e+00
4.161000000000000000e+03 5.499140548706054688e+01 3.188102531433105469e+01 2.164205789566040039e+00 2.201383113861083984e+00 1.309676647186279297e+00 2.225584745407104492e+00
4.162000000000000000e+03 2.706267738342285156e+01 5.771158933639526367e-01 -4.521987736225128174e-01 -2.580262124538421631e-01 -2.130675017833709717e-01 -1.247124224901199341e-01
4.163000000000000000e+03 4.143817520141601562e+01 1.704448127746582031e+01 -3.793611824512481689e-01 3.010706007480621338e-01 -2.348716929554939270e-02 -1.248479783535003662e-01
4.164000000000000000e+03 4.479670333862304688e+01 2.053720283508300781e+01 -2.172510176897048950e-01 6.802434325218200684e-01 1.388977319002151489e-01 1.828017085790634155e-01
4.165000000000000000e+03 4.269159698486328125e+01 1.895185279846191406e+01 -3.122259974479675293e-01 3.476147055625915527e-01 1.061661168932914734e-02 -5.805546045303344727e-02
4.166000000000000000e+03 5.717301177978515625e+01 3.163967514038085938e+01 2.304430484771728516e+00 8.017083168029785156e+00 3.096454143524169922e+00 4.781982421875000000e+00
4.167000000000000000e+03 4.116291046142578125e+01 1.680640602111816406e+01 -3.940060436725616455e-01 2.658858299255371094e-01 -3.843606263399124146e-02 -1.462523192167282104e-01
4.168000000000000000e+03 4.089456939697265625e+01 1.656076240539550781e+01 -4.074892103672027588e-01 2.327283471822738647e-01 -5.242826044559478760e-02 -1.639525145292282104e-01
4.169000000000000000e+03 4.803210830688476562e+01 2.423213958740234375e+01 3.765213117003440857e-02 1.059570074081420898e+00 3.291666507720947266e-01 5.518077611923217773e-01
4.170000000000000000e+03 4.812383270263671875e+01 2.479207229614257812e+01 6.845659762620925903e-02 9.828644990921020508e-01 3.153963387012481689e-01 5.297430753707885742e-01
4.171000000000000000e+03 5.592681503295898438e+01 3.160429000854492188e+01 2.605814456939697266e+00 4.061977386474609375e+00 2.000337600708007812e+00 3.467854976654052734e+00
4.172000000000000000e+03 4.833868026733398438e+01 2.444748878479003906e+01 7.149107754230499268e-02 1.145360589027404785e+00 3.650555014610290527e-01 6.115944385528564453e-01
4.173000000000000000e+03 2.636512565612792969e+01 2.157796669006347656e+01 6.101614609360694885e-02 1.155422553420066833e-01 5.296751856803894043e-02 8.758256584405899048e-02
4.174000000000000000e+03 2.629938697814941406e+01 7.812801003456115723e-01 -5.856986641883850098e-01 -2.314447909593582153e-01 -2.451430410146713257e-01 -1.751642823219299316e-01
4.175000000000000000e+03 4.790705871582031250e+01 2.360872077941894531e+01 7.907567545771598816e-03 1.159818053245544434e+00 3.503176867961883545e-01 5.776187777519226074e-01
4.176000000000000000e+03 3.629335784912109375e+01 1.188528442382812500e+01 -5.764350295066833496e-01 -2.211317569017410278e-01 -2.392700463533401489e-01 -3.949200212955474854e-01
4.177000000000000000e+03 3.663758087158203125e+01 1.272646808624267578e+01 -5.791401267051696777e-01 -2.297590821981430054e-01 -2.426697611808776855e-01 -4.125432074069976807e-01
4.178000000000000000e+03 4.503534317016601562e+01 2.081012535095214844e+01 -2.045555710792541504e-01 7.056607007980346680e-01 1.503315418958663940e-01 2.069841921329498291e-01
4.179000000000000000e+03 4.424113082885742188e+01 2.052708244323730469e+01 -2.457156181335449219e-01 5.234056711196899414e-01 8.330701291561126709e-02 9.286531805992126465e-02
4.180000000000000000e+03 4.911495208740234375e+01 2.570811462402343750e+01 2.015600204467773438e-01 1.134167194366455078e+00 4.007181823253631592e-01 6.983391642570495605e-01
4.181000000000000000e+03 4.883817291259765625e+01 2.516947174072265625e+01 1.450829952955245972e-01 1.160949468612670898e+00 3.918097317218780518e-01 6.786952614784240723e-01
4.182000000000000000e+03 2.611834907531738281e+01 1.742101550102233887e+00 -8.849294781684875488e-01 -3.076186180114746094e-01 -3.577644228935241699e-01 -3.629738092422485352e-01
4.183000000000000000e+03 3.724884414672851562e+01 1.324073410034179688e+01 -5.545107722282409668e-01 -1.750152260065078735e-01 -2.188578099012374878e-01 -3.819378018379211426e-01
4.184000000000000000e+03 4.008650970458984375e+01 1.632377433776855469e+01 -4.492886364459991455e-01 7.863502204418182373e-02 -1.111960858106613159e-01 -2.422617226839065552e-01
4.185000000000000000e+03 4.143481445312500000e+01 1.652211189270019531e+01 -3.803980052471160889e-01 3.620449602603912354e-01 -5.505911540240049362e-03 -9.979470819234848022e-02
4.186000000000000000e+03 2.548104476928710938e+01 1.946165275573730469e+01 7.619057595729827881e-02 1.222337186336517334e-01 5.952728912234306335e-02 9.698236733675003052e-02
4.187000000000000000e+03 1.512205696105957031e+01 1.037738895416259766e+01 7.016695290803909302e-02 2.502028048038482666e-01 9.611092507839202881e-02 1.078781560063362122e-01
4.188000000000000000e+03 4.352816772460937500e+01 1.979897689819335938e+01 -2.778463959693908691e-01 4.411352574825286865e-01 4.898666217923164368e-02 2.116682939231395721e-02
4.189000000000000000e+03 4.392276763916015625e+01 1.982455444335937500e+01 -2.546227872371673584e-01 5.481811165809631348e-01 8.806749433279037476e-02 8.548016101121902466e-02
4.190000000000000000e+03 5.168113708496093750e+01 2.842921257019042969e+01 6.922987103462219238e-01 1.463487625122070312e+00 6.467359066009521484e-01 1.224528193473815918e+00
4.191000000000000000e+03 2.213445663452148438e+01 1.749894332885742188e+01 7.065532356500625610e-02 1.387484520673751831e-01 6.282113492488861084e-02 1.003651618957519531e-01
4.192000000000000000e+03 1.676644325256347656e+01 1.079450130462646484e+01 9.558959305286407471e-02 2.274044603109359741e-01 9.689821302890777588e-02 1.373756378889083862e-01
4.193000000000000000e+03 2.008946228027343750e+01 1.533411788940429688e+01 7.828999310731887817e-02 1.568801105022430420e-01 7.055103033781051636e-02 1.088933572173118591e-01
4.194000000000000000e+03 1.803572654724121094e+01 1.357842540740966797e+01 7.644087076187133789e-02 1.785072833299636841e-01 7.648444175720214844e-02 1.128343343734741211e-01
4.195000000000000000e+03 4.294528579711914062e+01 1.863835716247558594e+01 -3.003390729427337646e-01 4.561269581317901611e-01 4.673636704683303833e-02 -7.082704454660415649e-03
4.196000000000000000e+03 3.777289581298828125e+01 1.382274913787841797e+01 -5.375643968582153320e-01 -1.393554657697677612e-01 -2.030759453773498535e-01 -3.609066605567932129e-01
4.197000000000000000e+03 3.802776336669921875e+01 1.410524368286132812e+01 -5.276346206665039062e-01 -1.201814413070678711e-01 -1.943448185920715332e-01 -3.489952683448791504e-01
4.198000000000000000e+03 4.526977157592773438e+01 2.107979393005371094e+01 -1.925920248031616211e-01 7.302196025848388672e-01 1.612882763147354126e-01 2.297637611627578735e-01
4.199000000000000000e+03 2.160687828063964844e+01 1.736741828918457031e+01 6.867410987615585327e-02 1.417456865310668945e-01 6.312593817710876465e-02 9.948718547821044922e-02
4.200000000000000000e+03 3.828072738647460938e+01 1.438704013824462891e+01 -5.186082124710083008e-01 -1.011938825249671936e-01 -1.859406232833862305e-01 -3.364962935447692871e-01
4.201000000000000000e+03 4.954605484008789062e+01 2.577369689941406250e+01 2.417310327291488647e-01 1.296362876892089844e+00 4.614281654357910156e-01 8.098912835121154785e-01
4.202000000000000000e+03 4.663199234008789062e+01 2.306746101379394531e+01 -9.107018262147903442e-02 8.142775297164916992e-01 2.169622033834457397e-01 3.519456386566162109e-01
4.203000000000000000e+03 4.710882949829101562e+01 2.298972892761230469e+01 -5.609058961272239685e-02 1.004603385925292969e+00 2.845538556575775146e-01 4.533751308917999268e-01
4.204000000000000000e+03 5.460560989379882812e+01 2.992027664184570312e+01 1.418965816497802734e+00 3.336077451705932617e+00 1.426512956619262695e+00 2.576182842254638672e+00
4.205000000000000000e+03 3.671174240112304688e+01 1.240238857269287109e+01 -5.679041147232055664e-01 -1.881212443113327026e-01 -2.268076092004776001e-01 -3.868892788887023926e-01
4.206000000000000000e+03 2.136454010009765625e+01 1.592553710937500000e+01 8.328854292631149292e-02 1.506300866603851318e-01 7.017558813095092773e-02 1.107594147324562073e-01
4.207000000000000000e+03 3.857242584228515625e+01 1.414193344116210938e+01 -4.992080926895141602e-01 -1.349432114511728287e-02 -1.538107246160507202e-01 -2.929260432720184326e-01
4.208000000000000000e+03 3.982477569580078125e+01 1.605844879150390625e+01 -4.611767232418060303e-01 5.018178746104240417e-02 -1.232984736561775208e-01 -2.565885484218597412e-01
4.209000000000000000e+03 2.489618301391601562e+01 1.925988006591796875e+01 7.440650463104248047e-02 1.246244683861732483e-01 5.970929190516471863e-02 9.768874943256378174e-02
4.210000000000000000e+03 2.393228340148925781e+01 1.911119270324707031e+01 6.844531744718551636e-02 1.288045197725296021e-01 5.917495116591453552e-02 9.576250612735748291e-02
4.211000000000000000e+03 5.186799621582031250e+01 2.810511016845703125e+01 6.830144524574279785e-01 1.727300763130187988e+00 7.230945825576782227e-01 1.352987408638000488e+00
4.212000000000000000e+03 5.110290145874023438e+01 2.791884040832519531e+01 5.606490969657897949e-01 1.347568750381469727e+00 5.724653601646423340e-01 1.065730810165405273e+00
4.213000000000000000e+03 1.752733802795410156e+01 1.280770111083984375e+01 7.724494487047195435e-02 1.909940689802169800e-01 8.047170937061309814e-02 1.174864619970321655e-01
4.214000000000000000e+03 1.843934440612792969e+01 1.350602340698242188e+01 8.135784417390823364e-02 1.778972595930099487e-01 7.777652889490127563e-02 1.179998815059661865e-01
4.215000000000000000e+03 3.882157135009765625e+01 1.442490386962890625e+01 -4.902636408805847168e-01 7.914741523563861847e-03 -1.447046697139739990e-01 -2.800438106060028076e-01
4.216000000000000000e+03 4.550083160400390625e+01 2.134768486022949219e+01 -1.794820725917816162e-01 7.577126026153564453e-01 1.734691560268402100e-01 2.544789910316467285e-01
4.217000000000000000e+03 5.130798721313476562e+01 2.759262084960937500e+01 5.614470243453979492e-01 1.591340422630310059e+00 6.458362340927124023e-01 1.192001342773437500e+00
4.218000000000000000e+03 3.907392501831054688e+01 1.470923137664794922e+01 -4.816963374614715576e-01 3.253810107707977295e-02 -1.347474753856658936e-01 -2.694642543792724609e-01
4.219000000000000000e+03 4.971984481811523438e+01 2.651514625549316406e+01 3.005529940128326416e-01 1.152184844017028809e+00 4.358213543891906738e-01 7.834300994873046875e-01
4.220000000000000000e+03 5.101892471313476562e+01 2.733732032775878906e+01 5.054438710212707520e-01 1.526680588722229004e+00 6.096373796463012695e-01 1.113976716995239258e+00
4.221000000000000000e+03 2.966753196716308594e+01 4.272887706756591797e+00 -7.766232490539550781e-01 -3.953785598278045654e-01 -3.516005277633666992e-01 -3.988154530525207520e-01
4.222000000000000000e+03 2.938077926635742188e+01 3.416028976440429688e+00 -7.111279964447021484e-01 -3.887186050415039062e-01 -3.299539983272552490e-01 -3.255046606063842773e-01
4.223000000000000000e+03 1.051313209533691406e+01 7.807870388031005859e+00 1.325480639934539795e-01 1.221553832292556763e-01 7.641103118658065796e-02 -4.506326094269752502e-02
4.224000000000000000e+03 5.000266265869140625e+01 2.645912361145019531e+01 3.317504227161407471e-01 1.297537326812744141e+00 4.887863099575042725e-01 8.729813694953918457e-01
4.225000000000000000e+03 5.041065216064453125e+01 2.663158798217773438e+01 3.839482367038726807e-01 1.452566742897033691e+00 5.509545207023620605e-01 9.938635230064392090e-01
4.226000000000000000e+03 3.129250717163085938e+01 2.727687454223632812e+01 5.527190864086151123e-02 9.266809374094009399e-02 4.438199847936630249e-02 7.063395529985427856e-02
4.227000000000000000e+03 5.206427383422851562e+01 2.779702568054199219e+01 6.684356927871704102e-01 1.992090702056884766e+00 7.981579303741455078e-01 1.469127655029296875e+00
4.228000000000000000e+03 2.584597969055175781e+01 1.131450891494750977e+00 -7.697822451591491699e-01 -1.976596117019653320e-01 -2.902325391769409180e-01 -2.369940429925918579e-01
4.229000000000000000e+03 3.545861434936523438e+01 1.091771793365478516e+01 -6.019515991210937500e-01 -2.655189931392669678e-01 -2.602411806583404541e-01 -4.143860936164855957e-01
4.230000000000000000e+03 3.599874877929687500e+01 1.167041110992431641e+01 -5.867251157760620117e-01 -2.463789582252502441e-01 -2.499312311410903931e-01 -4.106450676918029785e-01
4.231000000000000000e+03 4.321417617797851562e+01 1.882946395874023438e+01 -2.876304090023040771e-01 4.960281550884246826e-01 6.251931935548782349e-02 2.211939357221126556e-02
4.232000000000000000e+03 3.932956695556640625e+01 1.498991584777832031e+01 -4.730892479419708252e-01 5.871558189392089844e-02 -1.243120953440666199e-01 -2.542650103569030762e-01
4.233000000000000000e+03 2.661991882324218750e+01 2.064506340026855469e+01 7.097308337688446045e-02 1.141723096370697021e-01 5.554362013936042786e-02 9.199749678373336792e-02
4.234000000000000000e+03 5.244140625000000000e+01 2.855536651611328125e+01 8.204339742660522461e-01 1.925116419792175293e+00 8.236651420593261719e-01 1.550749421119689941e+00
4.235000000000000000e+03 5.348071289062500000e+01 2.857206535339355469e+01 9.244335889816284180e-01 2.779341459274291992e+00 1.111132502555847168e+00 2.034276723861694336e+00
4.236000000000000000e+03 4.117195129394531250e+01 1.627797508239746094e+01 -3.934863805770874023e-01 3.288927972316741943e-01 -1.937807723879814148e-02 -1.188125312328338623e-01
4.237000000000000000e+03 2.647047233581542969e+01 2.244283485412597656e+01 5.510378256440162659e-02 1.126434057950973511e-01 5.032415688037872314e-02 8.371844142675399780e-02
4.238000000000000000e+03 2.759679222106933594e+01 2.342078018188476562e+01 5.382018908858299255e-02 1.090966388583183289e-01 4.887504875659942627e-02 8.183006197214126587e-02
4.239000000000000000e+03 4.595735549926757812e+01 2.187610244750976562e+01 -1.497506052255630493e-01 8.107751607894897461e-01 1.983073800802230835e-01 3.034915924072265625e-01
4.240000000000000000e+03 4.566165542602539062e+01 2.210087966918945312e+01 -1.648590564727783203e-01 6.769468784332275391e-01 1.536263525485992432e-01 2.384561449289321899e-01
4.241000000000000000e+03 4.512120437622070312e+01 2.029086685180664062e+01 -2.016742527484893799e-01 8.098745942115783691e-01 1.824600994586944580e-01 2.434302568435668945e-01
4.242000000000000000e+03 3.638736724853515625e+01 1.233360099792480469e+01 -5.879364013671875000e-01 -2.507819533348083496e-01 -2.516154944896697998e-01 -4.187723696231842041e-01
4.243000000000000000e+03 1.965971374511718750e+01 1.432554721832275391e+01 8.590830862522125244e-02 1.653410792350769043e-01 7.537481188774108887e-02 1.171501427888870239e-01
4.244000000000000000e+03 2.679689979553222656e+01 1.062280058860778809e+00 -5.933438539505004883e-01 -2.719381451606750488e-01 -2.595846056938171387e-01 -1.886127442121505737e-01
4.245000000000000000e+03 2.589764213562011719e+01 1.544124364852905273e+00 -8.933443427085876465e-01 -2.401324361562728882e-01 -3.400430381298065186e-01 -3.211047053337097168e-01
4.246000000000000000e+03 2.464252281188964844e+01 1.948897361755371094e+01 7.139904052019119263e-02 1.231650114059448242e-01 5.836921557784080505e-02 9.371551871299743652e-02
4.247000000000000000e+03 2.425912284851074219e+01 1.881554412841796875e+01 7.584437727928161621e-02 1.266871690750122070e-01 6.075946614146232605e-02 9.859582036733627319e-02
4.248000000000000000e+03 4.343770599365234375e+01 1.901642990112304688e+01 -2.771056592464447021e-01 5.259481668472290039e-01 7.465274631977081299e-02 4.568848013877868652e-02
4.249000000000000000e+03 5.667708587646484375e+01 3.099785804748535156e+01 1.901982903480529785e+00 6.486268997192382812e+00 2.516475439071655273e+00 4.074525833129882812e+00
4.250000000000000000e+03 5.437995529174804688e+01 3.140502166748046875e+01 1.741709709167480469e+00 1.926106095314025879e+00 1.100344777107238770e+00 1.934268236160278320e+00
4.251000000000000000e+03 5.339874649047851562e+01 2.897365379333496094e+01 1.008512854576110840e+00 2.522097349166870117e+00 1.059183001518249512e+00 1.968697667121887207e+00
4.252000000000000000e+03 4.063111495971679688e+01 1.630932617187500000e+01 -4.206231236457824707e-01 2.019737362861633301e-01 -6.559482216835021973e-02 -1.809668838977813721e-01
4.253000000000000000e+03 5.640387725830078125e+01 3.101026344299316406e+01 1.919535875320434570e+00 5.884719848632812500e+00 2.341276645660400391e+00 3.832107543945312500e+00
4.254000000000000000e+03 2.557448959350585938e+01 2.028429412841796875e+01 6.814611703157424927e-02 1.196540370583534241e-01 5.634004622697830200e-02 9.229175001382827759e-02
4.255000000000000000e+03 2.508927536010742188e+01 1.988227844238281250e+01 7.022839784622192383e-02 1.220940202474594116e-01 5.769672617316246033e-02 9.344195574522018433e-02
4.256000000000000000e+03 3.958802413940429688e+01 1.526416015625000000e+01 -4.629182517528533936e-01 8.419498801231384277e-02 -1.136169806122779846e-01 -2.416811287403106689e-01
4.257000000000000000e+03 3.984794235229492188e+01 1.553106498718261719e+01 -4.541906118392944336e-01 1.136693283915519714e-01 -1.021563857793807983e-01 -2.269003242254257202e-01
4.258000000000000000e+03 2.876835632324218750e+01 2.420287322998046875e+01 5.181651189923286438e-02 9.979492425918579102e-02 4.548342898488044739e-02 7.591097801923751831e-02
4.259000000000000000e+03 4.638090515136718750e+01 2.284346199035644531e+01 -1.156749501824378967e-01 7.705936431884765625e-01 1.964756101369857788e-01 3.182000517845153809e-01
4.260000000000000000e+03 5.361298751831054688e+01 2.950392341613769531e+01 1.169153571128845215e+00 2.432988643646240234e+00 1.080642700195312500e+00 2.017994880676269531e+00
4.261000000000000000e+03 5.459933090209960938e+01 3.027619743347167969e+01 1.532696485519409180e+00 3.051141500473022461e+00 1.375151395797729492e+00 2.504195928573608398e+00
4.262000000000000000e+03 5.375542831420898438e+01 3.011213493347167969e+01 1.319952607154846191e+00 2.208434581756591797e+00 1.058516144752502441e+00 1.990824222564697266e+00
4.263000000000000000e+03 3.370154190063476562e+01 2.957376289367675781e+01 5.421137809753417969e-02 8.346223086118698120e-02 4.130208492279052734e-02 6.196060404181480408e-02
4.264000000000000000e+03 5.813333892822265625e+01 3.018595504760742188e+01 3.950234353542327881e-01 1.039148044586181641e+01 3.235951423645019531e+00 3.354315042495727539e+00
4.265000000000000000e+03 4.711685180664062500e+01 2.270739746093750000e+01 -6.769574433565139771e-02 1.055885791778564453e+00 2.964570224285125732e-01 4.731940329074859619e-01
4.266000000000000000e+03 3.622224426269531250e+01 1.137411403656005859e+01 -5.640751123428344727e-01 -1.760368943214416504e-01 -2.220336049795150757e-01 -3.686634600162506104e-01
4.267000000000000000e+03 2.858714485168457031e+01 2.272738933563232422e+00 -6.563929915428161621e-01 -3.470670580863952637e-01 -3.010380268096923828e-01 -2.442491501569747925e-01
4.268000000000000000e+03 3.001402664184570312e+01 -4.369866847991943359e-01 -1.156212836503982544e-01 -2.117290794849395752e-01 -9.820510447025299072e-02 -8.188111707568168640e-03
4.269000000000000000e+03 3.696665191650390625e+01 1.294260883331298828e+01 -5.658912658691406250e-01 -1.975918412208557129e-01 -2.290449291467666626e-01 -3.940696418285369873e-01
4.270000000000000000e+03 2.902947044372558594e+01 3.553548574447631836e+00 -7.867966294288635254e-01 -4.245212674140930176e-01 -3.633953630924224854e-01 -3.787659406661987305e-01
4.271000000000000000e+03 2.860185241699218750e+01 2.872255325317382812e+00 -7.222833037376403809e-01 -3.880546987056732178e-01 -3.331013917922973633e-01 -3.152733445167541504e-01
4.272000000000000000e+03 4.618589401245117188e+01 2.213254356384277344e+01 -1.332737356424331665e-01 8.384223580360412598e-01 2.115445882081985474e-01 3.293941915035247803e-01
4.273000000000000000e+03 4.641576766967773438e+01 2.238245773315429688e+01 -1.149316355586051941e-01 8.689919710159301758e-01 2.262180894613265991e-01 3.565997779369354248e-01
4.274000000000000000e+03 3.475733566284179688e+01 7.337824344635009766e+00 -4.474569261074066162e-01 -9.183605015277862549e-02 -1.617878973484039307e-01 -2.656593322753906250e-01
4.275000000000000000e+03 3.369443893432617188e+01 4.833239078521728516e+00 -4.011846482753753662e-01 -6.070427969098091125e-02 -1.385666728019714355e-01 -2.192614972591400146e-01
4.276000000000000000e+03 3.452996444702148438e+01 6.490334987640380859e+00 -4.216495454311370850e-01 -6.181131303310394287e-02 -1.450382620096206665e-01 -2.427662014961242676e-01
4.277000000000000000e+03 1.382972145080566406e+01 8.042490959167480469e+00 7.653126865625381470e-02 3.561063408851623535e-01 1.297912746667861938e-01 9.003172814846038818e-02
4.278000000000000000e+03 1.357114219665527344e+01 8.020739555358886719e+00 7.746776938438415527e-02 3.492452204227447510e-01 1.280138939619064331e-01 7.273644953966140747e-02
4.279000000000000000e+03 2.817519378662109375e+01 2.407756996154785156e+01 5.191915854811668396e-02 1.071160659193992615e-01 4.771056771278381348e-02 8.083570748567581177e-02
4.280000000000000000e+03 2.367470550537109375e+01 1.811526107788085938e+01 7.738819718360900879e-02 1.306108385324478149e-01 6.239971145987510681e-02 1.018706187605857849e-01
4.281000000000000000e+03 1.179473304748535156e+01 6.226757526397705078e+00 1.639887541532516479e-01 3.071772158145904541e-01 1.413497924804687500e-01 -8.675455302000045776e-02
4.282000000000000000e+03 2.739292716979980469e+01 3.567196428775787354e-01 -3.927953541278839111e-01 -2.586461603641510010e-01 -1.954324543476104736e-01 -9.880355745553970337e-02
4.283000000000000000e+03 2.788986206054687500e+01 -1.647821068763732910e-01 -2.755501568317413330e-01 -2.382075190544128418e-01 -1.541273146867752075e-01 -4.740812256932258606e-02
4.284000000000000000e+03 1.696643257141113281e+01 1.120658969879150391e+01 9.273789823055267334e-02 2.162083685398101807e-01 9.268388152122497559e-02 1.341429948806762695e-01
4.285000000000000000e+03 1.617951202392578125e+01 1.108218860626220703e+01 8.153024315834045410e-02 2.258830219507217407e-01 9.222397953271865845e-02 1.226744800806045532e-01
4.286000000000000000e+03 3.172710418701171875e+01 4.706311225891113281e+00 -5.637717843055725098e-01 -2.338481396436691284e-01 -2.392859756946563721e-01 -3.458008170127868652e-01
4.287000000000000000e+03 3.503430557250976562e+01 7.686306476593017578e+00 -4.534408748149871826e-01 -6.868381798267364502e-02 -1.566374152898788452e-01 -2.557299435138702393e-01
4.288000000000000000e+03 3.025957489013671875e+01 2.664645957946777344e+01 4.459849372506141663e-02 9.496508538722991943e-02 4.186907410621643066e-02 6.871514022350311279e-02
4.289000000000000000e+03 1.577636241912841797e+01 1.102325057983398438e+01 7.498478144407272339e-02 2.323336601257324219e-01 9.219553321599960327e-02 1.145208626985549927e-01
4.290000000000000000e+03 1.898555755615234375e+01 1.450744247436523438e+01 7.560800015926361084e-02 1.674105674028396606e-01 7.290557026863098145e-02 1.103612631559371948e-01
4.291000000000000000e+03 1.115183639526367188e+01 9.798851966857910156e+00 7.003997266292572021e-02 1.557752788066864014e-01 6.774457544088363647e-02 -9.800828993320465088e-03
4.292000000000000000e+03 3.388904190063476562e+01 3.136830711364746094e+01 5.883533880114555359e-02 7.845923304557800293e-02 4.118837043642997742e-02 5.711473897099494934e-02
4.293000000000000000e+03 3.303424835205078125e+01 2.980221748352050781e+01 5.544896051287651062e-02 9.064873307943344116e-02 4.382930696010589600e-02 6.326755136251449585e-02
4.294000000000000000e+03 1.543293666839599609e+01 1.044207763671875000e+01 7.641298323869705200e-02 2.444608062505722046e-01 9.626213461160659790e-02 1.161737218499183655e-01
4.295000000000000000e+03 1.700183677673339844e+01 1.253773975372314453e+01 7.306601852178573608e-02 1.966710090637207031e-01 8.092110604047775269e-02 1.137482523918151855e-01
4.296000000000000000e+03 1.685108184814453125e+01 1.212422084808349609e+01 7.776686549186706543e-02 2.036150395870208740e-01 8.441457152366638184e-02 1.174206808209419250e-01
4.297000000000000000e+03 1.727473831176757812e+01 1.202479267120361328e+01 8.388578891754150391e-02 2.032112777233123779e-01 8.612912148237228394e-02 1.252702921628952026e-01
4.298000000000000000e+03 1.712053108215332031e+01 1.292506027221679688e+01 7.209670543670654297e-02 1.904071271419525146e-01 7.875114679336547852e-02 1.102022901177406311e-01
4.299000000000000000e+03 2.669199752807617188e+01 7.109115719795227051e-01 -5.838214755058288574e-01 -2.384865134954452515e-01 -2.466924041509628296e-01 -1.769944280385971069e-01
4.300000000000000000e+03 3.565917205810546875e+01 1.113475036621093750e+01 -5.988087058067321777e-01 -2.560246586799621582e-01 -2.564500272274017334e-01 -4.113979041576385498e-01
4.301000000000000000e+03 2.758514022827148438e+01 2.402844429016113281e+01 4.826506227254867554e-02 1.041881367564201355e-01 4.573595896363258362e-02 7.642623037099838257e-02
4.302000000000000000e+03 3.407825469970703125e+01 9.040514945983886719e+00 -5.904765725135803223e-01 -3.116640448570251465e-01 -2.706421911716461182e-01 -3.954488039016723633e-01
4.303000000000000000e+03 1.941088104248046875e+01 1.477023601531982422e+01 7.698990404605865479e-02 1.631020605564117432e-01 7.202758640050888062e-02 1.104989498853683472e-01
4.304000000000000000e+03 2.970508766174316406e+01 2.645998382568359375e+01 5.226270109415054321e-02 9.751451760530471802e-02 4.493316635489463806e-02 7.517233490943908691e-02
4.305000000000000000e+03 3.409344100952148438e+01 7.160267829895019531e+00 -4.656641483306884766e-01 -1.762508749961853027e-01 -1.925745010375976562e-01 -3.037625849246978760e-01
4.306000000000000000e+03 3.494317245483398438e+01 1.031307888031005859e+01 -6.087403893470764160e-01 -2.857071757316589355e-01 -2.683342695236206055e-01 -4.154978692531585693e-01
4.307000000000000000e+03 3.507086181640625000e+01 8.369242668151855469e+00 -4.914045929908752441e-01 -1.138750091195106506e-01 -1.815838813781738281e-01 -2.864025235176086426e-01
4.308000000000000000e+03 3.254543304443359375e+01 2.838607215881347656e+01 4.889686778187751770e-02 8.749856054782867432e-02 4.091862589120864868e-02 6.527355313301086426e-02
4.309000000000000000e+03 3.361074447631835938e+01 2.898514938354492188e+01 5.809301510453224182e-02 9.278383105993270874e-02 4.526305571198463440e-02 6.729394942522048950e-02
4.310000000000000000e+03 2.900206947326660156e+01 2.524473381042480469e+01 5.193850398063659668e-02 9.654835611581802368e-02 4.454605653882026672e-02 7.468939572572708130e-02
4.311000000000000000e+03 2.952364158630371094e+01 2.490336608886718750e+01 4.747187346220016479e-02 1.012666895985603333e-01 4.462156817317008972e-02 7.590314745903015137e-02
4.312000000000000000e+03 2.895342254638671875e+01 3.658379018306732178e-01 -2.821499109268188477e-01 -2.387234121561050415e-01 -1.562619954347610474e-01 -5.007412657141685486e-02
4.313000000000000000e+03 3.174153900146484375e+01 4.221747398376464844e+00 -5.281869769096374512e-01 -1.967510432004928589e-01 -2.174814045429229736e-01 -2.954317331314086914e-01
4.314000000000000000e+03 3.123144912719726562e+01 4.271574974060058594e+00 -6.019189953804016113e-01 -2.477659881114959717e-01 -2.549054920673370361e-01 -3.252252638339996338e-01
4.315000000000000000e+03 3.312965011596679688e+01 6.432526588439941406e+00 -4.775234460830688477e-01 -2.446540445089340210e-01 -2.166532576084136963e-01 -3.493923544883728027e-01
4.316000000000000000e+03 3.385941314697265625e+01 5.639957904815673828e+00 -4.198908209800720215e-01 -9.233205020427703857e-02 -1.536668688058853149e-01 -2.554331123828887939e-01
4.317000000000000000e+03 4.231140136718750000e+01 1.771279907226562500e+01 -3.352045714855194092e-01 4.245319962501525879e-01 2.679822593927383423e-02 -4.923915863037109375e-02
4.318000000000000000e+03 3.107616996765136719e+01 3.012391281127929688e+01 4.921740666031837463e-02 9.040523320436477661e-02 4.188679158687591553e-02 5.860270187258720398e-02
4.319000000000000000e+03 1.424155807495117188e+01 9.996859550476074219e+00 6.284697353839874268e-02 2.597114443778991699e-01 9.676752239465713501e-02 8.621666580438613892e-02
4.320000000000000000e+03 1.463618373870849609e+01 9.777202606201171875e+00 7.422149181365966797e-02 2.699694931507110596e-01 1.032572984695434570e-01 1.038281545042991638e-01
4.321000000000000000e+03 1.345654582977294922e+01 1.024013328552246094e+01 5.780902132391929626e-02 2.394027560949325562e-01 8.916353434324264526e-02 5.747704952955245972e-02
4.322000000000000000e+03 1.291737747192382812e+01 7.679540157318115234e+00 8.354558795690536499e-02 3.476542234420776367e-01 1.293599456548690796e-01 3.032124228775501251e-02
4.323000000000000000e+03 2.716598701477050781e+01 2.187430381774902344e+01 6.160360202193260193e-02 1.128238737583160400e-01 5.232824385166168213e-02 8.663988113403320312e-02
4.324000000000000000e+03 2.972337341308593750e+01 1.105486676096916199e-01 -2.062084674835205078e-01 -2.108177542686462402e-01 -1.251078695058822632e-01 -2.744561247527599335e-02
4.325000000000000000e+03 2.691159248352050781e+01 2.346080017089843750e+01 4.915142059326171875e-02 1.071790903806686401e-01 4.689915478229522705e-02 7.786488533020019531e-02
4.326000000000000000e+03 3.336225891113281250e+01 3.313563919067382812e+01 5.764001235365867615e-02 8.047183603048324585e-02 4.143355414271354675e-02 5.360744893550872803e-02
4.327000000000000000e+03 2.919314002990722656e+01 -1.294974386692047119e-01 -1.964250206947326660e-01 -2.526044249534606934e-01 -1.347088366746902466e-01 -3.346556797623634338e-02
4.328000000000000000e+03 5.914296340942382812e+01 3.046044158935546875e+01 2.144970931112766266e-02 1.264764022827148438e+01 3.800726890563964844e+00 2.252007722854614258e+00
4.329000000000000000e+03 6.024399185180664062e+01 3.045790481567382812e+01 1.263730376958847046e-01 1.318855094909667969e+01 3.994477272033691406e+00 6.345624327659606934e-01
4.330000000000000000e+03 3.016204071044921875e+01 3.027729749679565430e+00 -5.773867964744567871e-01 -2.826640903949737549e-01 -2.580152750015258789e-01 -2.328123301267623901e-01
4.331000000000000000e+03 3.290122985839843750e+01 -2.712616205215454102e+00 1.302360445261001587e-01 3.369867429137229919e-02 4.918041452765464783e-02 2.574238553643226624e-02
4.332000000000000000e+03 3.180610466003417969e+01 -1.104634881019592285e+00 -1.402926724404096603e-02 -6.498681008815765381e-02 -2.370482310652732849e-02 1.436138432472944260e-02
4.333000000000000000e+03 3.436606979370117188e+01 3.289452362060546875e+01 4.975385591387748718e-02 7.423201948404312134e-02 3.719576075673103333e-02 4.384102299809455872e-02
4.334000000000000000e+03 3.531109237670898438e+01 3.153492546081542969e+01 7.337398827075958252e-02 7.559089362621307373e-02 4.468946531414985657e-02 6.126417964696884155e-02
4.335000000000000000e+03 1.131508064270019531e+01 6.555241584777832031e+00 1.707825362682342529e-01 2.211458981037139893e-01 1.175785288214683533e-01 -8.856218308210372925e-02
4.336000000000000000e+03 3.613098907470703125e+01 -4.064591407775878906e+00 1.213098019361495972e-01 4.827363491058349609e-01 1.812138408422470093e-01 1.707492955029010773e-02
4.337000000000000000e+03 3.496693420410156250e+01 -3.300912380218505859e+00 1.147392466664314270e-01 2.888288497924804688e-01 1.210704296827316284e-01 2.110122330486774445e-02
4.338000000000000000e+03 1.367472743988037109e+01 8.639132499694824219e+00 7.007613778114318848e-02 3.141893446445465088e-01 1.152796447277069092e-01 7.231985032558441162e-02
4.339000000000000000e+03 9.731702804565429688e+00 -9.892486572265625000e+00 1.098374836146831512e-02 -2.787137925624847412e-01 -8.031901717185974121e-02 -3.617138862609863281e-01
4.340000000000000000e+03 1.376030158996582031e+01 1.091963481903076172e+01 5.211593210697174072e-02 2.223148047924041748e-01 8.232922106981277466e-02 6.207827106118202209e-02
4.341000000000000000e+03 6.205170822143554688e+01 3.025772666931152344e+01 6.908081769943237305e-01 1.246604347229003906e+01 3.947055578231811523e+00 -9.420171380043029785e-01
4.342000000000000000e+03 6.252739334106445312e+01 2.977666473388671875e+01 4.158397912979125977e-01 1.199149703979492188e+01 3.722201108932495117e+00 -1.058621406555175781e+00
4.343000000000000000e+03 3.795735931396484375e+01 3.514196777343750000e+01 8.521452546119689941e-02 7.819260656833648682e-02 4.902213811874389648e-02 4.722819104790687561e-02
4.344000000000000000e+03 6.058450698852539062e+01 2.977322959899902344e+01 -1.241287440061569214e-01 1.251465797424316406e+01 3.717158794403076172e+00 3.786993622779846191e-01
4.345000000000000000e+03 3.383926010131835938e+01 -2.625620603561401367e+00 9.544751793146133423e-02 1.437764018774032593e-01 7.176717370748519897e-02 2.736281044781208038e-02
4.346000000000000000e+03 6.787532806396484375e+01 -3.081115722656250000e+00 -1.895949542522430420e-01 7.204753398895263672e+00 2.104547500610351562e+00 1.171597391366958618e-01
4.347000000000000000e+03 9.836631774902343750e+00 1.350911426544189453e+01 3.019295260310173035e-02 5.924405530095100403e-02 2.683110162615776062e-02 -9.063570760190486908e-03
4.348000000000000000e+03 1.126223182678222656e+01 1.842065620422363281e+01 1.275029149837791920e-03 5.469501391053199768e-02 1.679101400077342987e-02 1.447162358090281487e-03
4.349000000000000000e+03 9.646039009094238281e+00 1.952716255187988281e+01 -2.269565127789974213e-03 1.536976266652345657e-02 3.930059261620044708e-03 -9.752563200891017914e-03
4.350000000000000000e+03 6.896548461914062500e+01 -6.496464252471923828e+00 -1.127705723047256470e-01 7.391692638397216797e+00 2.183676719665527344e+00 1.602131128311157227e-01
4.351000000000000000e+03 6.888849639892578125e+01 -3.370861530303955078e+00 -1.647154539823532104e-01 7.402170658111572266e+00 2.171236515045166016e+00 1.073305681347846985e-01
4.352000000000000000e+03 3.929016113281250000e+01 -6.181301593780517578e+00 9.403470158576965332e-02 1.075854063034057617e+00 3.509666323661804199e-01 7.989822886884212494e-03
4.353000000000000000e+03 3.476557922363281250e+01 -2.489319562911987305e+00 9.895322471857070923e-02 2.676468789577484131e-01 1.099800318479537964e-01 3.198828175663948059e-02
4.354000000000000000e+03 6.694927215576171875e+01 2.887023162841796875e+01 5.093921422958374023e-01 9.423396110534667969e+00 2.979836463928222656e+00 -1.720060944557189941e+00
4.355000000000000000e+03 1.278120040893554688e+01 -2.499759864807128906e+01 9.089390188455581665e-02 -2.384348660707473755e-01 -4.426229000091552734e-02 -1.759142428636550903e-01
4.356000000000000000e+03 9.799417495727539062e+00 1.157016181945800781e+01 5.187007039785385132e-02 7.225356996059417725e-02 3.723709285259246826e-02 -1.417286228388547897e-02
4.357000000000000000e+03 1.029820442199707031e+01 1.206127929687500000e+01 4.449297860264778137e-02 8.588267862796783447e-02 3.911269828677177429e-02 -6.771094165742397308e-03
4.358000000000000000e+03 6.926481628417968750e+01 1.843092727661132812e+01 -6.801919341087341309e-01 8.157442092895507812e+00 2.243175029754638672e+00 -9.789623022079467773e-01
4.359000000000000000e+03 4.300921249389648438e+01 -1.373886775970458984e+01 -7.038221508264541626e-02 1.954176545143127441e+00 5.651382803916931152e-01 -1.007412597537040710e-01
4.360000000000000000e+03 7.024736022949218750e+01 1.840167808532714844e+01 -5.847241282463073730e-01 8.118871688842773438e+00 2.260244131088256836e+00 -1.014598369598388672e+00
4.361000000000000000e+03 7.020987701416015625e+01 1.306415367126464844e+01 -4.891543090343475342e-01 7.943761348724365234e+00 2.236382007598876953e+00 -5.848076939582824707e-01
4.362000000000000000e+03 6.747496032714843750e+01 3.574028253555297852e+00 -3.313600420951843262e-01 7.270591259002685547e+00 2.081769466400146484e+00 -4.140871390700340271e-02
4.363000000000000000e+03 3.529133987426757812e+01 3.416820526123046875e+01 4.970969259738922119e-02 7.387880980968475342e-02 3.707655146718025208e-02 4.429189488291740417e-02
4.364000000000000000e+03 1.191561985015869141e+01 -9.804680824279785156e+00 4.946774244308471680e-02 -2.874695956707000732e-01 -7.140055298805236816e-02 -3.879002630710601807e-01
4.365000000000000000e+03 1.113983917236328125e+01 -1.391643810272216797e+01 1.212481707334518433e-01 -2.921253442764282227e-01 -5.126314982771873474e-02 -2.990652024745941162e-01
4.366000000000000000e+03 6.778084564208984375e+01 2.435205841064453125e+01 -5.291075706481933594e-01 8.841946601867675781e+00 2.493851661682128906e+00 -1.416680216789245605e+00
4.367000000000000000e+03 6.842037200927734375e+01 -6.131380200386047363e-01 -2.124534845352172852e-01 7.345761775970458984e+00 2.139992475509643555e+00 5.615741759538650513e-02
4.368000000000000000e+03 6.980015563964843750e+01 2.157683819532394409e-01 -1.979662626981735229e-01 7.615855216979980469e+00 2.225366592407226562e+00 1.457779482007026672e-02
4.369000000000000000e+03 1.121546745300292969e+01 2.375359725952148438e+01 -8.295245468616485596e-03 1.868704333901405334e-02 3.117539221420884132e-03 -3.129405202344059944e-03
4.370000000000000000e+03 9.512552261352539062e+00 2.208692932128906250e+01 -6.257937755435705185e-03 -1.123620662838220596e-03 -2.214467618614435196e-03 -1.154388859868049622e-02
4.371000000000000000e+03 1.284658145904541016e+01 -1.382327079772949219e+01 1.486622691154479980e-01 -2.403357028961181641e-01 -2.750203013420104980e-02 -2.907670140266418457e-01
4.372000000000000000e+03 1.210324287414550781e+01 -1.132750320434570312e+01 9.537594765424728394e-02 -2.751141488552093506e-01 -5.392146483063697815e-02 -3.472047746181488037e-01
4.373000000000000000e+03 1.027721214294433594e+01 8.825870513916015625e+00 1.018165946006774902e-01 1.038441359996795654e-01 6.169821694493293762e-02 -2.861006185412406921e-02
4.374000000000000000e+03 4.255663681030273438e+01 -5.668585777282714844e+00 1.938733458518981934e-02 1.750330686569213867e+00 5.309153795242309570e-01 5.786642804741859436e-02
4.375000000000000000e+03 7.018540954589843750e+01 1.188959598541259766e+01 -4.680856466293334961e-01 7.909996032714843750e+00 2.232573270797729492e+00 -5.099148154258728027e-01
4.376000000000000000e+03 6.743164825439453125e+01 3.276129913330078125e+01 1.741515517234802246e+00 9.169203758239746094e+00 3.273215532302856445e+00 -1.190666317939758301e+00
4.377000000000000000e+03 1.086043643951416016e+01 2.275091171264648438e+01 -6.151895970106124878e-03 1.980205625295639038e-02 4.095047712326049805e-03 -4.994793795049190521e-03
4.378000000000000000e+03 1.002123260498046875e+01 1.429071807861328125e+01 2.248623035848140717e-02 5.922672897577285767e-02 2.451388724148273468e-02 -5.971325561404228210e-03
4.379000000000000000e+03 1.117578601837158203e+01 1.562817668914794922e+01 1.391886733472347260e-02 7.846724241971969604e-02 2.771583385765552521e-02 4.827260039746761322e-03
4.380000000000000000e+03 6.550854492187500000e+01 3.288283920288085938e+01 2.565986633300781250e+00 1.005614185333251953e+01 3.786638498306274414e+00 -1.112474679946899414e+00
4.381000000000000000e+03 6.552878570556640625e+01 3.075145721435546875e+01 1.479623079299926758e+00 1.012365818023681641e+01 3.480984210968017578e+00 -1.605695605278015137e+00
4.382000000000000000e+03 6.890840148925781250e+01 3.030866050720214844e+01 8.093858957290649414e-01 8.620025634765625000e+00 2.828823566436767578e+00 -1.602149844169616699e+00
4.383000000000000000e+03 6.849225616455078125e+01 2.849614524841308594e+01 3.671379387378692627e-01 8.829995155334472656e+00 2.759140014648437500e+00 -1.728714585304260254e+00
4.384000000000000000e+03 9.863238334655761719e+00 -2.008468246459960938e+01 9.327983111143112183e-02 -3.586269617080688477e-01 -7.960414141416549683e-02 -2.113577276468276978e-01
4.385000000000000000e+03 1.487396049499511719e+01 -1.867555427551269531e+01 1.394948810338973999e-01 -1.065150722861289978e-01 9.893941693007946014e-03 -2.355678528547286987e-01
4.386000000000000000e+03 6.792111968994140625e+01 -2.020680427551269531e+01 -4.062376543879508972e-02 7.055186748504638672e+00 2.104368925094604492e+00 3.260800838470458984e-01
4.387000000000000000e+03 6.903182220458984375e+01 -1.815314865112304688e+01 -4.385152831673622131e-02 7.252887725830078125e+00 2.162710905075073242e+00 3.012164831161499023e-01
4.388000000000000000e+03 1.194774436950683594e+01 2.464464950561523438e+01 -7.125422358512878418e-03 2.598290331661701202e-02 5.657244008034467697e-03 -3.252619353588670492e-04
4.389000000000000000e+03 1.241837215423583984e+01 2.923194503784179688e+01 -7.774265017360448837e-03 1.383456587791442871e-02 1.818090328015387058e-03 1.078978020814247429e-04
4.390000000000000000e+03 8.670989990234375000e+00 -1.363918399810791016e+01 7.267291098833084106e-02 -3.397713303565979004e-01 -8.012952655553817749e-02 -2.876553237438201904e-01
4.391000000000000000e+03 6.932921600341796875e+01 2.047058486938476562e+01 -6.626846194267272949e-01 8.285093307495117188e+00 2.286722660064697266e+00 -1.169178843498229980e+00
4.392000000000000000e+03 4.594071960449218750e+01 -1.707978820800781250e+01 -1.449792981147766113e-01 2.758590221405029297e+00 7.840833067893981934e-01 -9.663002192974090576e-02
4.393000000000000000e+03 4.402051544189453125e+01 -1.513642120361328125e+01 -1.136989891529083252e-01 2.231091499328613281e+00 6.352177262306213379e-01 -1.202625483274459839e-01
4.394000000000000000e+03 4.251134109497070312e+01 -1.280906867980957031e+01 -4.802834242582321167e-02 1.844177722930908203e+00 5.388448238372802734e-01 -8.997324109077453613e-02
4.395000000000000000e+03 3.666693878173828125e+01 3.546329116821289062e+01 5.086519941687583923e-02 6.736832857131958008e-02 3.547005727887153625e-02 4.547433182597160339e-02
4.396000000000000000e+03 1.312370872497558594e+01 -1.841606903076171875e+01 1.281327009201049805e-01 -1.977255642414093018e-01 -2.087785862386226654e-02 -2.383619844913482666e-01
4.397000000000000000e+03 1.440054416656494141e+01 -1.555616188049316406e+01 1.598678827285766602e-01 -1.535461694002151489e-01 1.896510366350412369e-03 -2.558450698852539062e-01
4.398000000000000000e+03 1.406163120269775391e+01 -1.750394058227539062e+01 1.508614718914031982e-01 -1.601409018039703369e-01 -2.783828880637884140e-03 -2.417564690113067627e-01
4.399000000000000000e+03 6.917668914794921875e+01 -1.578401207923889160e+00 -1.779613494873046875e-01 7.483861446380615234e+00 2.191770076751708984e+00 6.186626106500625610e-02
4.400000000000000000e+03 6.750068664550781250e+01 -2.298272705078125000e+01 -1.198581606149673462e-02 6.955075740814208984e+00 2.082926988601684570e+00 3.427038490772247314e-01
4.401000000000000000e+03 6.876921844482421875e+01 1.650556564331054688e+01 -7.040462493896484375e-01 8.032939910888671875e+00 2.198668003082275391e+00 -7.789845466613769531e-01
4.402000000000000000e+03 6.919822692871093750e+01 1.425813102722167969e+01 -6.002097129821777344e-01 7.925930976867675781e+00 2.197716474533081055e+00 -6.303531527519226074e-01
4.403000000000000000e+03 6.847319793701171875e+01 5.262440681457519531e+00 -3.455353677272796631e-01 7.481482505798339844e+00 2.140784025192260742e+00 -1.241311281919479370e-01
4.404000000000000000e+03 7.055695343017578125e+01 8.692403793334960938e+00 -3.384592235088348389e-01 7.881639957427978516e+00 2.262954235076904297e+00 -3.225325345993041992e-01
4.405000000000000000e+03 6.876326751708984375e+01 -7.438772678375244141e+00 -1.206974983215332031e-01 7.337436676025390625e+00 2.165021896362304688e+00 1.796768754720687866e-01
4.406000000000000000e+03 6.525717926025390625e+01 -2.348301124572753906e+01 -4.880703054368495941e-03 6.608332157135009766e+00 1.981035351753234863e+00 3.662721216678619385e-01
4.407000000000000000e+03 6.425718688964843750e+01 -2.220552253723144531e+01 -3.123350255191326141e-02 6.435474872589111328e+00 1.921272397041320801e+00 3.537319004535675049e-01
4.408000000000000000e+03 6.699380493164062500e+01 3.881404495239257812e+01 6.035881638526916504e-01 1.063448429107666016e+01 3.371421575546264648e+00 7.333122491836547852e-01
4.409000000000000000e+03 4.884606552124023438e+01 -2.629351615905761719e+01 -1.173135787248611450e-01 3.984434366226196289e+00 1.160136222839355469e+00 3.625263646245002747e-02
4.410000000000000000e+03 4.870616149902343750e+01 -1.882803153991699219e+01 -1.985592991113662720e-01 3.502272605895996094e+00 9.911140203475952148e-01 -1.423272117972373962e-02
4.411000000000000000e+03 6.824794006347656250e+01 -5.248129844665527344e+00 -1.503870636224746704e-01 7.259347915649414062e+00 2.132688283920288086e+00 1.465698480606079102e-01
4.412000000000000000e+03 5.260795974731445312e+01 -2.197395324707031250e+01 -1.590467542409896851e-01 4.471425056457519531e+00 1.293713450431823730e+00 1.829731911420822144e-01
4.413000000000000000e+03 5.052738952636718750e+01 -2.314928436279296875e+01 -1.703283041715621948e-01 4.104931831359863281e+00 1.180381059646606445e+00 9.832507371902465820e-02
4.414000000000000000e+03 6.981462860107421875e+01 5.779349327087402344e+00 -3.079200088977813721e-01 7.711909294128417969e+00 2.221196651458740234e+00 -1.741574108600616455e-01
4.415000000000000000e+03 1.083764839172363281e+01 -1.816770553588867188e+01 1.117829903960227966e-01 -3.060530424118041992e-01 -5.828101933002471924e-02 -2.404446899890899658e-01
4.416000000000000000e+03 2.622456359863281250e+01 2.235522270202636719e+00 -9.715216755867004395e-01 -3.365315496921539307e-01 -3.924159705638885498e-01 -4.295625686645507812e-01
4.417000000000000000e+03 2.639466094970703125e+01 1.143311738967895508e+00 -7.467924356460571289e-01 -2.549601793289184570e-01 -3.005257844924926758e-01 -2.632910907268524170e-01
4.418000000000000000e+03 3.022647857666015625e+01 3.487317323684692383e+00 -6.504970788955688477e-01 -3.031708300113677979e-01 -2.861003875732421875e-01 -2.836050093173980713e-01
4.419000000000000000e+03 2.890571784973144531e+01 3.408427476882934570e+00 -7.893673777580261230e-01 -4.115686118602752686e-01 -3.602808117866516113e-01 -3.642413914203643799e-01
4.420000000000000000e+03 2.784644889831542969e+01 1.931928515434265137e+00 -6.837881803512573242e-01 -3.258984982967376709e-01 -3.029060065746307373e-01 -2.406307309865951538e-01
4.421000000000000000e+03 4.292545700073242188e+01 1.813016891479492188e+01 -3.032745122909545898e-01 5.224833488464355469e-01 6.576265394687652588e-02 1.311266236007213593e-02
4.422000000000000000e+03 2.735246086120605469e+01 2.338770389556884766e+00 -8.309576511383056641e-01 -3.829735219478607178e-01 -3.641793727874755859e-01 -3.537985384464263916e-01
4.423000000000000000e+03 5.502188873291015625e+01 3.157763099670410156e+01 2.183332204818725586e+00 2.571877241134643555e+00 1.426562786102294922e+00 2.482251405715942383e+00
4.424000000000000000e+03 5.528817749023437500e+01 3.202994155883789062e+01 2.414775133132934570e+00 2.514132022857666016e+00 1.478672146797180176e+00 2.478466987609863281e+00
4.425000000000000000e+03 2.838722419738769531e+01 7.154614925384521484e-01 -3.639654219150543213e-01 -2.746673822402954102e-01 -1.915898472070693970e-01 -9.094497561454772949e-02
4.426000000000000000e+03 4.767770004272460938e+01 2.406877708435058594e+01 7.701422553509473801e-03 9.541160464286804199e-01 2.885452508926391602e-01 4.859228730201721191e-01
4.427000000000000000e+03 5.434193801879882812e+01 3.023981285095214844e+01 1.484647870063781738e+00 2.803447961807250977e+00 1.286428689956665039e+00 2.337209224700927734e+00
4.428000000000000000e+03 5.417650604248046875e+01 2.972200012207031250e+01 1.302101373672485352e+00 2.962146759033203125e+00 1.279274463653564453e+00 2.328841686248779297e+00
4.429000000000000000e+03 4.827833557128906250e+01 2.385212898254394531e+01 4.239101335406303406e-02 1.251089334487915039e+00 3.880441188812255859e-01 6.371467709541320801e-01
4.430000000000000000e+03 4.865362167358398438e+01 2.465176963806152344e+01 1.096653118729591370e-01 1.218533039093017578e+00 3.984594941139221191e-01 6.771206855773925781e-01
4.431000000000000000e+03 4.772308731079101562e+01 2.286736488342285156e+01 -3.450140357017517090e-02 1.228396654129028320e+00 3.581686019897460938e-01 5.706700682640075684e-01
4.432000000000000000e+03 3.729067611694335938e+01 1.267427730560302734e+01 -5.393818616867065430e-01 -1.131378188729286194e-01 -1.957558989524841309e-01 -3.440509140491485596e-01
4.433000000000000000e+03 3.751428985595703125e+01 1.353540897369384766e+01 -5.451251268386840820e-01 -1.581472754478454590e-01 -2.109817117452621460e-01 -3.726352453231811523e-01
4.434000000000000000e+03 4.091319274902343750e+01 1.602789497375488281e+01 -4.052429795265197754e-01 2.967812716960906982e-01 -3.253851085901260376e-02 -1.350384354591369629e-01
4.435000000000000000e+03 4.923071670532226562e+01 2.530051612854003906e+01 1.866635084152221680e-01 1.296989560127258301e+00 4.450959265232086182e-01 7.645106911659240723e-01
4.436000000000000000e+03 4.899679565429687500e+01 2.481306266784667969e+01 1.400009542703628540e-01 1.318670272827148438e+00 4.376013576984405518e-01 7.432906627655029297e-01
4.437000000000000000e+03 4.265167999267578125e+01 1.844153213500976562e+01 -3.142146468162536621e-01 4.099551737308502197e-01 2.872216328978538513e-02 -3.804503753781318665e-02
4.438000000000000000e+03 4.487266540527343750e+01 2.000060653686523438e+01 -2.149173468351364136e-01 7.813833355903625488e-01 1.699398010969161987e-01 2.174120098352432251e-01
4.439000000000000000e+03 2.597614288330078125e+01 2.121451377868652344e+01 6.221267580986022949e-02 1.153420880436897278e-01 5.326642841100692749e-02 8.767914772033691406e-02
4.440000000000000000e+03 2.571642494201660156e+01 2.076407432556152344e+01 6.354647129774093628e-02 1.181523352861404419e-01 5.450964346528053284e-02 8.893503993749618530e-02
4.441000000000000000e+03 4.536007308959960938e+01 2.056908035278320312e+01 -1.920440346002578735e-01 8.384184837341308594e-01 1.939123272895812988e-01 2.669120430946350098e-01
4.442000000000000000e+03 4.427430725097656250e+01 1.998950767517089844e+01 -2.412731647491455078e-01 6.161773800849914551e-01 1.124712675809860229e-01 1.251867711544036865e-01
4.443000000000000000e+03 5.625525665283203125e+01 3.126393127441406250e+01 2.331905364990234375e+00 5.299080371856689453e+00 2.289295673370361328e+00 3.854446887969970703e+00
4.444000000000000000e+03 3.781094360351562500e+01 1.330564689636230469e+01 -5.237023234367370605e-01 -7.587943971157073975e-02 -1.798745244741439819e-01 -3.276968300342559814e-01
4.445000000000000000e+03 2.912521934509277344e+01 3.096739053726196289e+00 -7.150077819824218750e-01 -3.721954524517059326e-01 -3.261609673500061035e-01 -3.099043965339660645e-01
4.446000000000000000e+03 4.992510604858398438e+01 2.578830718994140625e+01 2.733207941055297852e-01 1.473780274391174316e+00 5.241303443908691406e-01 9.164803028106689453e-01
4.447000000000000000e+03 4.559246444702148438e+01 2.084431648254394531e+01 -1.795479059219360352e-01 8.681169748306274414e-01 2.065707296133041382e-01 2.932368516921997070e-01
4.448000000000000000e+03 4.685354995727539062e+01 2.284613227844238281e+01 -8.464743196964263916e-02 9.214795827865600586e-01 2.510496377944946289e-01 4.052403271198272705e-01
4.449000000000000000e+03 3.588630294799804688e+01 1.127221393585205078e+01 -5.852816700935363770e-01 -2.297086566686630249e-01 -2.444971054792404175e-01 -3.993326425552368164e-01
4.450000000000000000e+03 3.707715225219726562e+01 1.229894638061523438e+01 -5.432494282722473145e-01 -1.145498231053352356e-01 -1.973397731781005859e-01 -3.454969525337219238e-01
4.451000000000000000e+03 5.215010833740234375e+01 2.834451484680175781e+01 7.515962719917297363e-01 1.810648679733276367e+00 7.686734795570373535e-01 1.443184494972229004e+00
4.452000000000000000e+03 5.316057586669921875e+01 2.849762535095214844e+01 8.845648169517517090e-01 2.532461881637573242e+00 1.025107979774475098e+00 1.893424630165100098e+00
4.453000000000000000e+03 4.036969375610351562e+01 1.605299949645996094e+01 -4.327175021171569824e-01 1.717628836631774902e-01 -7.828638702630996704e-02 -1.963643580675125122e-01
4.454000000000000000e+03 4.094230651855468750e+01 1.548387145996093750e+01 -4.016810655593872070e-01 3.627834618091583252e-01 -1.166927814483642578e-02 -1.066966205835342407e-01
4.455000000000000000e+03 1.807237625122070312e+01 1.400539875030517578e+01 7.050361484289169312e-02 1.742812842130661011e-01 7.343547046184539795e-02 1.078217178583145142e-01
4.456000000000000000e+03 1.987727355957031250e+01 1.496454238891601562e+01 7.945169508457183838e-02 1.603620946407318115e-01 7.194413244724273682e-02 1.114660650491714478e-01
4.457000000000000000e+03 5.016043853759765625e+01 2.675300598144531250e+01 3.485539853572845459e-01 1.265616536140441895e+00 4.842511415481567383e-01 8.776468038558959961e-01
4.458000000000000000e+03 3.806947708129882812e+01 1.358747863769531250e+01 -5.155246853828430176e-01 -5.546380579471588135e-02 -1.712965518236160278e-01 -3.161960542201995850e-01
4.459000000000000000e+03 3.832329559326171875e+01 1.386337852478027344e+01 -5.085554718971252441e-01 -3.646615892648696899e-02 -1.635064780712127686e-01 -3.038499653339385986e-01
4.460000000000000000e+03 4.356187820434570312e+01 1.950891304016113281e+01 -2.749803364276885986e-01 4.850819110870361328e-01 6.303047388792037964e-02 3.941271826624870300e-02
4.461000000000000000e+03 2.204822921752929688e+01 1.801396942138671875e+01 6.675364077091217041e-02 1.372726261615753174e-01 6.120787933468818665e-02 9.729050844907760620e-02
4.462000000000000000e+03 2.150180625915527344e+01 1.795737266540527344e+01 6.069742888212203979e-02 1.383408755064010620e-01 5.971148982644081116e-02 9.326257556676864624e-02
4.463000000000000000e+03 4.581898117065429688e+01 2.111808013916015625e+01 -1.666549891233444214e-01 8.929505944252014160e-01 2.178886830806732178e-01 3.168501257896423340e-01
4.464000000000000000e+03 4.961660766601562500e+01 2.538138771057128906e+01 2.187540978193283081e-01 1.435083627700805664e+00 4.961513280868530273e-01 8.558461666107177734e-01
4.465000000000000000e+03 5.251218795776367188e+01 2.777039909362792969e+01 7.077946662902832031e-01 2.296243667602539062e+00 9.012115001678466797e-01 1.657981395721435547e+00
4.466000000000000000e+03 5.158906555175781250e+01 2.785030555725097656e+01 6.247134804725646973e-01 1.652443170547485352e+00 6.831470131874084473e-01 1.269751071929931641e+00
4.467000000000000000e+03 5.071685409545898438e+01 2.709086227416992188e+01 4.477122724056243896e-01 1.447797298431396484e+00 5.686528682708740234e-01 1.034465670585632324e+00
4.468000000000000000e+03 5.180204772949218750e+01 2.752782630920410156e+01 6.076834797859191895e-01 1.916511416435241699e+00 7.572584748268127441e-01 1.386770963668823242e+00
4.469000000000000000e+03 4.349363708496093750e+01 1.857413673400878906e+01 -2.797627747058868408e-01 6.055814027786254883e-01 9.774558246135711670e-02 6.872948259115219116e-02
4.470000000000000000e+03 2.305588531494140625e+01 1.902533531188964844e+01 6.487082690000534058e-02 1.291840821504592896e-01 5.821647122502326965e-02 9.361178427934646606e-02
4.471000000000000000e+03 3.910850906372070312e+01 1.417704582214355469e+01 -4.731928110122680664e-01 9.745545685291290283e-02 -1.127212122082710266e-01 -2.403102219104766846e-01
4.472000000000000000e+03 4.992728805541992188e+01 2.612420082092285156e+01 2.950033843517303467e-01 1.382004976272583008e+00 5.031025409698486328e-01 8.896659016609191895e-01
4.473000000000000000e+03 1.085254192352294922e+01 1.139125156402587891e+01 4.963959008455276489e-02 1.218986064195632935e-01 5.146145820617675781e-02 -5.750734824687242508e-03
4.474000000000000000e+03 4.010865020751953125e+01 1.579333400726318359e+01 -4.436837732791900635e-01 1.424668282270431519e-01 -9.036508202552795410e-02 -2.120030671358108521e-01
4.475000000000000000e+03 4.065384674072265625e+01 1.577418422698974609e+01 -4.171305894851684570e-01 2.667038738727569580e-01 -4.512801393866539001e-02 -1.513766795396804810e-01
4.476000000000000000e+03 5.554393768310546875e+01 3.114108657836914062e+01 2.178200006484985352e+00 3.723546981811523438e+00 1.770524024963378906e+00 3.135677576065063477e+00
4.477000000000000000e+03 5.526959609985351562e+01 3.149272727966308594e+01 2.207884550094604492e+00 2.991459369659423828e+00 1.559803128242492676e+00 2.698539495468139648e+00
4.478000000000000000e+03 5.123780059814453125e+01 2.700351715087890625e+01 4.944468140602111816e-01 1.775266885757446289e+00 6.809141039848327637e-01 1.231968760490417480e+00
4.479000000000000000e+03 4.813594055175781250e+01 2.311367607116699219e+01 -3.125254530459642410e-03 1.340959906578063965e+00 4.013504087924957275e-01 6.429364681243896484e-01
4.480000000000000000e+03 2.109341239929199219e+01 1.631370162963867188e+01 7.583660632371902466e-02 1.479783505201339722e-01 6.714448332786560059e-02 1.050217896699905396e-01
4.481000000000000000e+03 5.792028045654296875e+01 3.100164794921875000e+01 1.010705471038818359e+00 1.051124000549316406e+01 3.456583499908447266e+00 4.088058948516845703e+00
4.482000000000000000e+03 5.780587005615234375e+01 3.134583854675292969e+01 1.431117296218872070e+00 1.020496749877929688e+01 3.490825653076171875e+00 4.468705654144287109e+00
4.483000000000000000e+03 3.687106704711914062e+01 1.191858100891113281e+01 -5.462304949760437012e-01 -1.106221601366996765e-01 -1.970557868480682373e-01 -3.433010578155517578e-01
4.484000000000000000e+03 3.935421371459960938e+01 1.446347904205322266e+01 -4.650429487228393555e-01 1.217035055160522461e-01 -1.030018404126167297e-01 -2.243230342864990234e-01
4.485000000000000000e+03 4.396916580200195312e+01 1.946850204467773438e+01 -2.547833323478698730e-01 6.066854000091552734e-01 1.055706217885017395e-01 1.058413460850715637e-01
4.486000000000000000e+03 5.021355438232421875e+01 2.611987304687500000e+01 3.238102197647094727e-01 1.516358733177185059e+00 5.520507097244262695e-01 9.780777692794799805e-01
4.487000000000000000e+03 4.603949737548828125e+01 2.138985443115234375e+01 -1.536325216293334961e-01 9.211794137954711914e-01 2.302640676498413086e-01 3.412646055221557617e-01
4.488000000000000000e+03 4.572957611083984375e+01 2.161382484436035156e+01 -1.648756265640258789e-01 7.823777198791503906e-01 1.852506250143051147e-01 2.785469889640808105e-01
4.489000000000000000e+03 5.227808380126953125e+01 2.752323722839355469e+01 6.551569700241088867e-01 2.257159471511840820e+00 8.736949563026428223e-01 1.592050313949584961e+00
4.490000000000000000e+03 2.250133514404296875e+01 1.860186195373535156e+01 6.414545327425003052e-02 1.333671659231185913e-01 5.925378575921058655e-02 9.456363320350646973e-02
4.491000000000000000e+03 1.758463287353515625e+01 1.323581886291503906e+01 7.455689460039138794e-02 1.846017241477966309e-01 7.774758338928222656e-02 1.122055947780609131e-01
4.492000000000000000e+03 1.717216300964355469e+01 1.332437515258789062e+01 6.648553907871246338e-02 1.853264719247817993e-01 7.554360479116439819e-02 1.058111935853958130e-01
4.493000000000000000e+03 5.026331329345703125e+01 2.636915397644042969e+01 3.533243238925933838e-01 1.467760086059570312e+00 5.463253259658813477e-01 9.728505611419677734e-01
4.494000000000000000e+03 1.665536499023437500e+01 1.430432224273681641e+01 5.211739987134933472e-02 1.726154386997222900e-01 6.741984933614730835e-02 8.786617219448089600e-02
4.495000000000000000e+03 2.252469444274902344e+01 1.807675361633300781e+01 6.779137998819351196e-02 1.352134943008422852e-01 6.090146303176879883e-02 9.741445630788803101e-02
4.496000000000000000e+03 2.444773101806640625e+01 1.916944503784179688e+01 7.227190583944320679e-02 1.261736303567886353e-01 5.953366309404373169e-02 9.736300259828567505e-02
4.497000000000000000e+03 1.983030700683593750e+01 1.601669120788574219e+01 6.794326007366180420e-02 1.531573832035064697e-01 6.633019447326660156e-02 1.003473475575447083e-01
4.498000000000000000e+03 4.371632003784179688e+01 1.883425521850585938e+01 -2.714414596557617188e-01 6.306571960449218750e-01 1.077647283673286438e-01 9.080937504768371582e-02
4.499000000000000000e+03 4.387728118896484375e+01 1.912885284423828125e+01 -2.616703808307647705e-01 6.348890662193298340e-01 1.119656041264533997e-01 1.055754050612449646e-01
4.500000000000000000e+03 5.286212158203125000e+01 2.839758872985839844e+01 8.418875932693481445e-01 2.326113700866699219e+00 9.504004120826721191e-01 1.760562419891357422e+00
4.501000000000000000e+03 5.374774932861328125e+01 2.907453727722167969e+01 1.068587899208068848e+00 2.832070350646972656e+00 1.170197486877441406e+00 2.150028944015502930e+00
4.502000000000000000e+03 3.575798797607421875e+01 1.077202796936035156e+01 -5.737702846527099609e-01 -2.051476538181304932e-01 -2.336753755807876587e-01 -3.756002783775329590e-01
4.503000000000000000e+03 2.509625816345214844e+01 2.041850090026855469e+01 6.238279491662979126e-02 1.205059364438056946e-01 5.486661940813064575e-02 8.970395475625991821e-02
4.504000000000000000e+03 3.960678863525390625e+01 1.474106979370117188e+01 -4.547217488288879395e-01 1.433435529470443726e-01 -9.341346472501754761e-02 -2.129859030246734619e-01
4.505000000000000000e+03 3.986603164672851562e+01 1.500822734832763672e+01 -4.460312128067016602e-01 1.743956208229064941e-01 -8.149068057537078857e-02 -1.992244720458984375e-01
4.506000000000000000e+03 4.664237594604492188e+01 2.262340545654296875e+01 -9.664674103260040283e-02 8.969097137451171875e-01 2.400788962841033936e-01 3.825787305831909180e-01
4.507000000000000000e+03 4.863532257080078125e+01 2.359048843383789062e+01 4.723664745688438416e-02 1.446769952774047852e+00 4.482019841670989990e-01 7.296337485313415527e-01
4.508000000000000000e+03 2.081186866760253906e+01 1.600838470458984375e+01 7.578961551189422607e-02 1.515061259269714355e-01 6.818872690200805664e-02 1.062392368912696838e-01
4.509000000000000000e+03 2.437863731384277344e+01 1.971076393127441406e+01 6.520882993936538696e-02 1.249736845493316650e-01 5.705475807189941406e-02 9.220995008945465088e-02
4.510000000000000000e+03 2.416468620300292969e+01 1.942712974548339844e+01 6.741432100534439087e-02 1.253881901502609253e-01 5.784075334668159485e-02 9.292749315500259399e-02
4.511000000000000000e+03 5.396084213256835938e+01 2.988843536376953125e+01 1.300293922424316406e+00 2.541295051574707031e+00 1.152476668357849121e+00 2.139298915863037109e+00
4.512000000000000000e+03 4.625634384155273438e+01 2.165685653686523438e+01 -1.387328505516052246e-01 9.454597830772399902e-01 2.420180737972259521e-01 3.669990599155426025e-01
4.513000000000000000e+03 4.647348785400390625e+01 2.191766357421875000e+01 -1.215429529547691345e-01 9.730022549629211426e-01 2.554377913475036621e-01 3.924378454685211182e-01
4.514000000000000000e+03 2.046079254150390625e+01 1.624552917480468750e+01 7.123210281133651733e-02 1.501296013593673706e-01 6.640851497650146484e-02 1.019371300935745239e-01
4.515000000000000000e+03 2.027407646179199219e+01 1.578115749359130859e+01 7.412783801555633545e-02 1.538721919059753418e-01 6.840001046657562256e-02 1.056007221341133118e-01
4.516000000000000000e+03 2.111234474182128906e+01 1.708504104614257812e+01 6.713211536407470703e-02 1.435156166553497314e-01 6.319431960582733154e-02 9.813472628593444824e-02
4.517000000000000000e+03 2.073993492126464844e+01 1.667043495178222656e+01 6.793289631605148315e-02 1.476753354072570801e-01 6.468246877193450928e-02 1.001203805208206177e-01
4.518000000000000000e+03 1.659303474426269531e+01 1.119281101226806641e+01 8.696407824754714966e-02 2.220059335231781006e-01 9.269100427627563477e-02 1.285645812749862671e-01
4.519000000000000000e+03 1.535330200195312500e+01 1.112987709045410156e+01 6.760675460100173950e-02 2.295306473970413208e-01 8.914121985435485840e-02 1.049281582236289978e-01
4.520000000000000000e+03 1.357951736450195312e+01 9.094990730285644531e+00 6.798602640628814697e-02 2.894726395606994629e-01 1.072375997900962830e-01 6.718965619802474976e-02
4.521000000000000000e+03 3.492362976074218750e+01 9.213245391845703125e+00 -5.484425425529479980e-01 -1.947436630725860596e-01 -2.229558527469635010e-01 -3.411634564399719238e-01
4.522000000000000000e+03 3.625217819213867188e+01 1.103063678741455078e+01 -5.500445365905761719e-01 -1.417087018489837646e-01 -2.075259834527969360e-01 -3.457253873348236084e-01
4.523000000000000000e+03 4.322525405883789062e+01 1.834255027770996094e+01 -2.901635766029357910e-01 5.675606131553649902e-01 8.321911841630935669e-02 4.381262511014938354e-02
4.524000000000000000e+03 2.767509460449218750e+01 6.291828155517578125e-01 -4.218274950981140137e-01 -2.830630838871002197e-01 -2.114671617746353149e-01 -1.213374435901641846e-01
4.525000000000000000e+03 2.843597412109375000e+01 2.506857514381408691e-01 -3.139214217662811279e-01 -2.775445878505706787e-01 -1.774398088455200195e-01 -7.640545815229415894e-02
4.526000000000000000e+03 3.577393341064453125e+01 9.961941719055175781e+00 -5.368528962135314941e-01 -1.290142685174942017e-01 -1.997601389884948730e-01 -3.232534527778625488e-01
4.527000000000000000e+03 2.854927062988281250e+01 2.486328697204589844e+01 4.840423539280891418e-02 1.058056652545928955e-01 4.626296833157539368e-02 7.871149480342864990e-02
4.528000000000000000e+03 3.277466583251953125e+01 4.644104957580566406e+00 -4.548402428627014160e-01 -1.338616460561752319e-01 -1.766105741262435913e-01 -2.655308246612548828e-01
4.529000000000000000e+03 1.338112735748291016e+01 8.504573822021484375e+00 6.849592924118041992e-02 3.121832311153411865e-01 1.142037436366081238e-01 6.096170842647552490e-02
4.530000000000000000e+03 5.806691360473632812e+01 3.061922073364257812e+01 6.794521212577819824e-01 1.057081604003906250e+01 3.375080347061157227e+00 3.671646595001220703e+00
4.531000000000000000e+03 5.722223281860351562e+01 3.125145912170410156e+01 1.870190739631652832e+00 8.302497863769531250e+00 3.051806449890136719e+00 4.519061088562011719e+00
4.532000000000000000e+03 2.904236602783203125e+01 2.215916156768798828e+00 -5.744026899337768555e-01 -3.152883052825927734e-01 -2.669073045253753662e-01 -2.031869441270828247e-01
4.533000000000000000e+03 1.666134071350097656e+01 1.167643356323242188e+01 7.922489941120147705e-02 2.137406468391418457e-01 8.788966387510299683e-02 1.217486783862113953e-01
4.534000000000000000e+03 1.590790081024169922e+01 1.146282958984375000e+01 7.005703449249267578e-02 2.201256752014160156e-01 8.705481141805648804e-02 1.102499887347221375e-01
4.535000000000000000e+03 2.300867462158203125e+01 1.853299903869628906e+01 6.732735782861709595e-02 1.317873150110244751e-01 5.973440036177635193e-02 9.611753374338150024e-02
4.536000000000000000e+03 1.480390739440917969e+01 1.039383506774902344e+01 6.977641582489013672e-02 2.489530891180038452e-01 9.561885148286819458e-02 1.011200770735740662e-01
4.537000000000000000e+03 3.327971649169921875e+01 5.090318679809570312e+00 -4.356925785541534424e-01 -1.155513674020767212e-01 -1.653731763362884521e-01 -2.649140357971191406e-01
4.538000000000000000e+03 1.643148803710937500e+01 1.232772541046142578e+01 6.809851527214050293e-02 2.016266584396362305e-01 8.091755211353302002e-02 1.082119196653366089e-01
4.539000000000000000e+03 3.610297012329101562e+01 1.068169593811035156e+01 -5.451490283012390137e-01 -1.285742521286010742e-01 -2.021169811487197876e-01 -3.327649533748626709e-01
4.540000000000000000e+03 1.662249946594238281e+01 1.270571994781494141e+01 6.835257261991500854e-02 1.950032263994216919e-01 7.900673896074295044e-02 1.061329171061515808e-01
4.541000000000000000e+03 3.010194206237792969e+01 2.734515953063964844e+01 5.271022394299507141e-02 9.475695341825485229e-02 4.424015432596206665e-02 7.090449333190917969e-02
4.542000000000000000e+03 3.071774482727050781e+01 2.737636566162109375e+01 4.394824430346488953e-02 9.338712692260742188e-02 4.120061174035072327e-02 6.804843991994857788e-02
4.543000000000000000e+03 2.777273559570312500e+01 2.499447822570800781e+01 4.356875270605087280e-02 1.056852266192436218e-01 4.477619379758834839e-02 7.509672641754150391e-02
4.544000000000000000e+03 1.477429962158203125e+01 1.008431529998779297e+01 6.738244742155075073e-02 2.611050009727478027e-01 9.854623675346374512e-02 1.027287095785140991e-01
4.545000000000000000e+03 1.505603599548339844e+01 1.143739318847656250e+01 6.056218594312667847e-02 2.215298861265182495e-01 8.462762087583541870e-02 9.135576337575912476e-02
4.546000000000000000e+03 3.122307205200195312e+01 3.808572769165039062e+00 -5.540915727615356445e-01 -2.194682955741882324e-01 -2.320679575204849243e-01 -2.749577164649963379e-01
4.547000000000000000e+03 5.960532760620117188e+01 3.028689384460449219e+01 -7.337601482868194580e-02 1.293606567382812500e+01 3.858806848526000977e+00 1.562716484069824219e+00
4.548000000000000000e+03 2.679369926452636719e+01 2.174964904785156250e+01 5.921761319041252136e-02 1.116990223526954651e-01 5.127499252557754517e-02 8.657716214656829834e-02
4.549000000000000000e+03 2.686982345581054688e+01 2.215572547912597656e+01 5.847555771470069885e-02 1.111661493778228760e-01 5.089251324534416199e-02 8.436546474695205688e-02
4.550000000000000000e+03 2.837921905517578125e+01 1.608096241950988770e+00 -5.696484446525573730e-01 -3.117681145668029785e-01 -2.644249796867370605e-01 -1.767248660326004028e-01
4.551000000000000000e+03 2.697622680664062500e+01 2.410078430175781250e+01 4.759734496474266052e-02 1.082226261496543884e-01 4.674599319696426392e-02 7.751093059778213501e-02
4.552000000000000000e+03 2.806261634826660156e+01 2.461158561706542969e+01 4.870126768946647644e-02 1.007644459605216980e-01 4.483971372246742249e-02 7.509246468544006348e-02
4.553000000000000000e+03 3.456561660766601562e+01 6.930092811584472656e+00 -4.435035288333892822e-01 -8.721482753753662109e-02 -1.592155098915100098e-01 -2.631081938743591309e-01
4.554000000000000000e+03 3.347495651245117188e+01 6.524080753326416016e+00 -4.687941670417785645e-01 -2.110513746738433838e-01 -2.039536684751510620e-01 -3.282460272312164307e-01
4.555000000000000000e+03 3.506165695190429688e+01 6.793386936187744141e+00 -4.038563072681427002e-01 3.634374297689646482e-04 -1.210478544235229492e-01 -2.124985009431838989e-01
4.556000000000000000e+03 3.534930038452148438e+01 1.009878921508789062e+01 -5.715868473052978516e-01 -2.053362876176834106e-01 -2.330769449472427368e-01 -3.647781014442443848e-01
4.557000000000000000e+03 2.723313903808593750e+01 2.254525566101074219e+01 5.623597651720046997e-02 1.113037467002868652e-01 5.026191845536231995e-02 8.357966691255569458e-02
4.558000000000000000e+03 2.913203048706054688e+01 2.621510887145996094e+01 4.398734122514724731e-02 9.655047953128814697e-02 4.216134548187255859e-02 6.836574524641036987e-02
4.559000000000000000e+03 3.285846328735351562e+01 3.207423019409179688e+01 4.331548884510993958e-02 8.540442585945129395e-02 3.861597552895545959e-02 5.112393572926521301e-02
4.560000000000000000e+03 3.215026092529296875e+01 2.995043182373046875e+01 4.461191594600677490e-02 8.566680550575256348e-02 3.908361494541168213e-02 6.023918464779853821e-02
4.561000000000000000e+03 3.610438537597656250e+01 9.099768638610839844e+00 -4.750329256057739258e-01 1.825394574552774429e-03 -1.419622600078582764e-01 -2.488500326871871948e-01
4.562000000000000000e+03 6.007081222534179688e+01 3.003287315368652344e+01 -1.249410584568977356e-01 1.285345363616943359e+01 3.818553686141967773e+00 9.128156900405883789e-01
4.563000000000000000e+03 3.225028991699218750e+01 3.194709777832031250e+00 -4.185798466205596924e-01 -1.127764880657196045e-01 -1.594069004058837891e-01 -1.757989823818206787e-01
4.564000000000000000e+03 3.142188835144042969e+01 2.788751602172851562e+01 4.824469983577728271e-02 9.090331941843032837e-02 4.174440354108810425e-02 6.699682027101516724e-02
4.565000000000000000e+03 4.204262924194335938e+01 1.802249336242675781e+01 -3.447858691215515137e-01 3.191388547420501709e-01 -7.694107946008443832e-03 -9.724768251180648804e-02
4.566000000000000000e+03 4.198507308959960938e+01 1.697910690307617188e+01 -3.532386124134063721e-01 4.376354813575744629e-01 2.531905658543109894e-02 -5.541926994919776917e-02
4.567000000000000000e+03 3.372195434570312500e+01 -1.871894955635070801e+00 7.393421977758407593e-02 1.294458359479904175e-01 6.101401895284652710e-02 2.973540872335433960e-02
4.568000000000000000e+03 2.933320045471191406e+01 2.321431875228881836e+00 -5.928418040275573730e-01 -3.223586082458496094e-01 -2.745601236820220947e-01 -2.164376974105834961e-01
4.569000000000000000e+03 3.467137145996093750e+01 7.993316173553466797e+00 -4.883351624011993408e-01 -1.522360742092132568e-01 -1.921713650226593018e-01 -3.013843297958374023e-01
4.570000000000000000e+03 3.474415969848632812e+01 6.097007751464843750e+00 -3.946497142314910889e-01 -3.604836761951446533e-03 -1.194763705134391785e-01 -2.098218500614166260e-01
4.571000000000000000e+03 1.076575374603271484e+01 1.762267494201660156e+01 3.252948634326457977e-03 5.010217428207397461e-02 1.600653678178787231e-02 -2.067324239760637283e-03
4.572000000000000000e+03 1.026422500610351562e+01 1.691228294372558594e+01 5.565952509641647339e-03 4.478952661156654358e-02 1.510664448142051697e-02 -4.040512721985578537e-03
4.573000000000000000e+03 1.002918815612792969e+01 1.818111419677734375e+01 5.021393881179392338e-04 3.032921440899372101e-02 9.249405935406684875e-03 -6.819892674684524536e-03
4.574000000000000000e+03 3.286952209472656250e+01 -1.845522999763488770e+00 4.573345929384231567e-02 2.726808562874794006e-02 2.190046384930610657e-02 2.887392789125442505e-02
4.575000000000000000e+03 3.233696365356445312e+01 -7.317962050437927246e-01 -2.790817245841026306e-02 -3.202759474515914917e-02 -1.798073016107082367e-02 2.305682376027107239e-02
4.576000000000000000e+03 3.601937484741210938e+01 -3.111811161041259766e+00 1.045214682817459106e-01 4.658248424530029297e-01 1.711038947105407715e-01 3.532663360238075256e-02
4.577000000000000000e+03 3.223833847045898438e+01 3.404474639892578125e+01 4.118560999631881714e-02 8.295296132564544678e-02 3.724157065153121948e-02 4.199920222163200378e-02
4.578000000000000000e+03 3.065200042724609375e+01 2.513079881668090820e+00 -4.707305431365966797e-01 -2.193062007427215576e-01 -2.070110291242599487e-01 -1.668303459882736206e-01
4.579000000000000000e+03 3.055086708068847656e+01 -1.925578564405441284e-01 -1.256445348262786865e-01 -1.669614315032958984e-01 -8.778178691864013672e-02 -5.935890600085258484e-03
4.580000000000000000e+03 6.107854843139648438e+01 2.937229537963867188e+01 -2.002598643302917480e-01 1.214319801330566406e+01 3.582881450653076172e+00 7.101133465766906738e-02
4.581000000000000000e+03 6.073627090454101562e+01 3.030974769592285156e+01 1.522676646709442139e-01 1.310539817810058594e+01 3.977299690246582031e+00 1.290213465690612793e-01
4.582000000000000000e+03 3.718117141723632812e+01 -4.025442600250244141e+00 1.126133203506469727e-01 6.627271771430969238e-01 2.326021492481231689e-01 2.711474895477294922e-02
4.583000000000000000e+03 3.570143508911132812e+01 -2.231996059417724609e+00 7.191573828458786011e-02 4.067299365997314453e-01 1.435936987400054932e-01 3.735695406794548035e-02
4.584000000000000000e+03 4.034475708007812500e+01 -7.305951118469238281e+00 7.012543082237243652e-02 1.301511883735656738e+00 4.114911854267120361e-01 -4.414841532707214355e-03
4.585000000000000000e+03 4.039333724975585938e+01 -6.199840545654296875e+00 5.699038133025169373e-02 1.309695720672607422e+00 4.100058376789093018e-01 2.137548476457595825e-02
4.586000000000000000e+03 1.109202384948730469e+01 7.383263111114501953e+00 1.380728781223297119e-01 1.854331791400909424e-01 9.705181419849395752e-02 -6.187544390559196472e-02
4.587000000000000000e+03 3.226450347900390625e+01 2.902935981750488281e+01 5.573326721787452698e-02 9.161847829818725586e-02 4.420552402734756470e-02 6.505100429058074951e-02
4.588000000000000000e+03 3.168705558776855469e+01 2.859284973144531250e+01 5.108754336833953857e-02 8.925917744636535645e-02 4.210401698946952820e-02 6.571141630411148071e-02
4.589000000000000000e+03 1.039172649383544922e+01 1.313153743743896484e+01 3.247738629579544067e-02 8.284768462181091309e-02 3.459751978516578674e-02 -3.687979420647025108e-03
4.590000000000000000e+03 9.122838020324707031e+00 1.006766700744628906e+01 8.224863559007644653e-02 3.717785328626632690e-02 3.582794591784477234e-02 -1.844557560980319977e-02
4.591000000000000000e+03 1.158194255828857422e+01 6.982866287231445312e+00 1.360827237367630005e-01 2.470463216304779053e-01 1.149387136101722717e-01 -5.989690870046615601e-02
4.592000000000000000e+03 6.665462493896484375e+01 2.489973640441894531e+01 -5.702528953552246094e-01 9.153981208801269531e+00 2.575118541717529297e+00 -1.340653181076049805e+00
4.593000000000000000e+03 6.415919494628906250e+01 2.913906478881835938e+01 4.364430904388427734e-01 1.077152824401855469e+01 3.362391233444213867e+00 -1.456320047378540039e+00
4.594000000000000000e+03 6.301647949218750000e+01 2.922645568847656250e+01 2.447365224361419678e-01 1.140548229217529297e+01 3.495065689086914062e+00 -1.117916584014892578e+00
4.595000000000000000e+03 6.686513519287109375e+01 2.742190837860107422e+00 -3.210027813911437988e-01 7.139169216156005859e+00 2.045449972152709961e+00 1.985865877941250801e-03
4.596000000000000000e+03 9.315979003906250000e+00 1.114850711822509766e+01 6.145107001066207886e-02 4.879789426922798157e-02 3.307468816637992859e-02 -1.599238999187946320e-02
4.597000000000000000e+03 3.412140274047851562e+01 3.388064956665039062e+01 5.548266321420669556e-02 8.409418910741806030e-02 4.187305644154548645e-02 5.452041327953338623e-02
4.598000000000000000e+03 6.721680450439453125e+01 1.264407157897949219e+01 -6.689549684524536133e-01 7.645570278167724609e+00 2.092984676361083984e+00 -3.983891904354095459e-01
4.599000000000000000e+03 6.934307861328125000e+01 1.943655776977539062e+01 -6.654199957847595215e-01 8.214660644531250000e+00 2.264772176742553711e+00 -1.064861178398132324e+00
4.600000000000000000e+03 6.833484649658203125e+01 1.844395256042480469e+01 -7.571158409118652344e-01 8.184683799743652344e+00 2.228270292282104492e+00 -9.080737829208374023e-01
4.601000000000000000e+03 6.923281860351562500e+01 2.151844787597656250e+01 -6.235753297805786133e-01 8.363918304443359375e+00 2.322102785110473633e+00 -1.263196110725402832e+00
4.602000000000000000e+03 6.840031433105468750e+01 2.030232810974121094e+01 -7.434061765670776367e-01 8.338263511657714844e+00 2.278457164764404297e+00 -1.071302294731140137e+00
4.603000000000000000e+03 1.180420970916748047e+01 2.285960006713867188e+01 -6.283950526267290115e-03 3.379390016198158264e-02 8.252984844148159027e-03 3.742674307432025671e-04
4.604000000000000000e+03 1.207152462005615234e+01 -1.300499439239501953e+01 1.195927634835243225e-01 -2.624422609806060791e-01 -4.285485297441482544e-02 -3.116680681705474854e-01
4.605000000000000000e+03 1.003073883056640625e+01 -1.455154228210449219e+01 9.624303132295608521e-02 -3.159359991550445557e-01 -6.590789556503295898e-02 -2.859218120574951172e-01
4.606000000000000000e+03 1.267937850952148438e+01 2.355858039855957031e+01 -6.993780843913555145e-03 4.449429735541343689e-02 1.125015504658222198e-02 4.731484223157167435e-03
4.607000000000000000e+03 7.029145812988281250e+01 1.418719959259033203e+01 -5.279311537742614746e-01 7.976641178131103516e+00 2.234612941741943359e+00 -6.735435128211975098e-01
4.608000000000000000e+03 6.898211669921875000e+01 1.309780597686767578e+01 -5.871192812919616699e-01 7.846705913543701172e+00 2.177875995635986328e+00 -5.407367944717407227e-01
4.609000000000000000e+03 6.942329406738281250e+01 1.532296466827392578e+01 -6.128983497619628906e-01 7.982785224914550781e+00 2.210966110229492188e+00 -7.183971405029296875e-01
4.610000000000000000e+03 3.824481201171875000e+01 -5.046365261077880859e+00 1.084509417414665222e-01 8.671327233314514160e-01 2.926751077175140381e-01 1.848789490759372711e-02
4.611000000000000000e+03 4.309677886962890625e+01 -1.174129009246826172e+01 -4.160780832171440125e-02 1.958529472351074219e+00 5.750764608383178711e-01 -6.530561298131942749e-02
4.612000000000000000e+03 4.220065689086914062e+01 -1.006182575225830078e+01 7.058949209749698639e-03 1.719770550727844238e+00 5.180488228797912598e-01 -4.309823736548423767e-02
4.613000000000000000e+03 6.787594604492187500e+01 -6.249603748321533203e+00 -1.434890776872634888e-01 7.182505130767822266e+00 2.111704826354980469e+00 1.695296913385391235e-01
4.614000000000000000e+03 9.872212409973144531e+00 -1.203955650329589844e+01 7.981846481561660767e-02 -3.117792904376983643e-01 -6.958824396133422852e-02 -3.283378183841705322e-01
4.615000000000000000e+03 3.822472381591796875e+01 -4.048700332641601562e+00 8.272834122180938721e-02 8.468775749206542969e-01 2.788817584514617920e-01 3.828049823641777039e-02
4.616000000000000000e+03 6.713015747070312500e+01 4.923084259033203125e+00 -3.821822106838226318e-01 7.251795291900634766e+00 2.060883760452270508e+00 -7.362771034240722656e-02
4.617000000000000000e+03 7.012035369873046875e+01 6.765636444091796875e+00 -3.153914809226989746e-01 7.780094623565673828e+00 2.239410877227783203e+00 -2.202644199132919312e-01
4.618000000000000000e+03 1.007907676696777344e+01 2.052556419372558594e+01 -3.932144027203321457e-03 1.807286404073238373e-02 4.242215771228075027e-03 -8.307239972054958344e-03
4.619000000000000000e+03 6.704988098144531250e+01 -1.989233613014221191e+00 -2.242814153432846069e-01 7.064246177673339844e+00 2.051989316940307617e+00 1.035936698317527771e-01
4.620000000000000000e+03 1.048150634765625000e+01 1.902314949035644531e+01 7.807755173416808248e-05 3.460311517119407654e-02 1.040435768663883209e-02 -5.258933641016483307e-03
4.621000000000000000e+03 3.791815948486328125e+01 3.854092407226562500e+01 6.255305558443069458e-02 4.433513432741165161e-02 3.206645697355270386e-02 3.052557818591594696e-02
4.622000000000000000e+03 3.510887527465820312e+01 3.551080322265625000e+01 6.661690026521682739e-02 7.686481624841690063e-02 4.304451495409011841e-02 4.763089120388031006e-02
4.623000000000000000e+03 6.839456939697265625e+01 2.578817749023437500e+01 -2.537063956260681152e-01 8.801645278930664062e+00 2.564381599426269531e+00 -1.586156606674194336e+00
4.624000000000000000e+03 6.348961257934570312e+01 2.859400749206542969e+01 -6.924607325345277786e-03 1.098246383666992188e+01 3.292661666870117188e+00 -1.159462332725524902e+00
4.625000000000000000e+03 1.066544246673583984e+01 -1.137162113189697266e+01 6.654094904661178589e-02 -2.935443520545959473e-01 -6.810102611780166626e-02 -3.464926183223724365e-01
4.626000000000000000e+03 9.727237701416015625e+00 1.050830268859863281e+01 6.883750855922698975e-02 7.090709358453750610e-02 4.192338138818740845e-02 -1.908964291214942932e-02
4.627000000000000000e+03 1.219837474822998047e+01 8.845378875732421875e+00 7.185301929712295532e-02 2.427694350481033325e-01 9.438673406839370728e-02 7.080798503011465073e-03
4.628000000000000000e+03 6.484362792968750000e+01 2.983415412902832031e+01 8.672825098037719727e-01 1.054952812194824219e+01 3.425043344497680664e+00 -1.612313508987426758e+00
4.629000000000000000e+03 6.720500946044921875e+01 3.068786239624023438e+01 1.150923967361450195e+00 9.292936325073242188e+00 3.133157968521118164e+00 -1.619767189025878906e+00
4.630000000000000000e+03 6.799283599853515625e+01 2.683850479125976562e+01 -6.512127071619033813e-02 8.979376792907714844e+00 2.674276828765869141e+00 -1.670579314231872559e+00
4.631000000000000000e+03 9.622121810913085938e+00 -1.347333908081054688e+01 9.416604787111282349e-02 -3.246806561946868896e-01 -6.915438175201416016e-02 -3.040970563888549805e-01
4.632000000000000000e+03 1.056545543670654297e+01 -9.996553421020507812e+00 2.687445841729640961e-02 -2.870199382305145264e-01 -7.804364711046218872e-02 -3.774454295635223389e-01
4.633000000000000000e+03 1.273142528533935547e+01 -2.022400283813476562e+01 1.112028732895851135e-01 -2.201210707426071167e-01 -3.267546370625495911e-02 -2.183944135904312134e-01
4.634000000000000000e+03 1.444712543487548828e+01 -2.073996543884277344e+01 1.207863539457321167e-01 -1.318374723196029663e-01 -3.315335372462868690e-03 -2.221866697072982788e-01
4.635000000000000000e+03 6.819370269775390625e+01 6.575593948364257812e-01 -2.358445823192596436e-01 7.342231750488281250e+00 2.131916046142578125e+00 2.487693354487419128e-02
4.636000000000000000e+03 6.713784790039062500e+01 -1.093180537223815918e+00 -2.294378131628036499e-01 7.099454402923583984e+00 2.061004877090454102e+00 8.542148768901824951e-02
4.637000000000000000e+03 6.774655914306640625e+01 -7.277622222900390625e+00 -1.293070912361145020e-01 7.144006252288818359e+00 2.104409694671630859e+00 1.877242475748062134e-01
4.638000000000000000e+03 6.909575653076171875e+01 2.257191658020019531e+01 -5.851305723190307617e-01 8.443294525146484375e+00 2.357449054718017578e+00 -1.359666943550109863e+00
4.639000000000000000e+03 1.194941902160644531e+01 2.685018157958984375e+01 -8.544333279132843018e-03 1.439383532851934433e-02 1.754850614815950394e-03 -1.848242245614528656e-03
4.640000000000000000e+03 6.942201232910156250e+01 8.066968917846679688e+00 -3.890707492828369141e-01 7.701603412628173828e+00 2.193759679794311523e+00 -2.629787921905517578e-01
4.641000000000000000e+03 6.820275115966796875e+01 7.446394443511962891e+00 -4.239805042743682861e-01 7.505792617797851562e+00 2.124543666839599609e+00 -1.999991238117218018e-01
4.642000000000000000e+03 6.789984130859375000e+01 2.959139633178710938e+01 7.156406641006469727e-01 9.046055793762207031e+00 2.928508996963500977e+00 -1.639899492263793945e+00
4.643000000000000000e+03 4.543220520019531250e+01 -1.828803825378417969e+01 -1.692329198122024536e-01 2.659692049026489258e+00 7.471377253532409668e-01 -1.279273331165313721e-01
4.644000000000000000e+03 4.523318481445312500e+01 -1.539800739288330078e+01 -1.273616105318069458e-01 2.537670373916625977e+00 7.230926752090454102e-01 -9.166216105222702026e-02
4.645000000000000000e+03 4.236362838745117188e+01 -8.853988647460937500e+00 3.648308571428060532e-03 1.747817873954772949e+00 5.254398584365844727e-01 -1.731367409229278564e-02
4.646000000000000000e+03 1.910901069641113281e+01 -2.910887336730957031e+01 1.558205038309097290e-01 6.746899336576461792e-02 6.698685139417648315e-02 -1.903481483459472656e-01
4.647000000000000000e+03 1.692800140380859375e+01 -2.259240722656250000e+01 1.396548599004745483e-01 3.171894233673810959e-03 4.284802824258804321e-02 -2.166430503129959106e-01
4.648000000000000000e+03 1.233194541931152344e+01 -1.661372947692871094e+01 1.326131373643875122e-01 -2.415046840906143188e-01 -3.266746178269386292e-02 -2.602559328079223633e-01
4.649000000000000000e+03 6.671697235107421875e+01 -1.711385345458984375e+01 -8.017490804195404053e-02 6.875524997711181641e+00 2.038604974746704102e+00 3.103446960449218750e-01
4.650000000000000000e+03 6.738309478759765625e+01 -1.828289031982421875e+01 -5.889135226607322693e-02 6.985011100769042969e+00 2.077836036682128906e+00 3.105004727840423584e-01
4.651000000000000000e+03 7.008440399169921875e+01 -1.502897834777832031e+01 -5.843190476298332214e-02 7.499561309814453125e+00 2.232338666915893555e+00 2.638930976390838623e-01
4.652000000000000000e+03 6.615924072265625000e+01 -1.914319038391113281e+01 -6.837037205696105957e-02 6.777974605560302734e+00 2.012881278991699219e+00 3.347125649452209473e-01
4.653000000000000000e+03 6.723717498779296875e+01 -9.344244956970214844e+00 -1.254744380712509155e-01 7.020622253417968750e+00 2.068544387817382812e+00 2.178030163049697876e-01
4.654000000000000000e+03 6.714225769042968750e+01 -1.189859485626220703e+01 -1.082651019096374512e-01 6.986602306365966797e+00 2.063501119613647461e+00 2.501317262649536133e-01
4.655000000000000000e+03 6.908822631835937500e+01 -1.532228755950927734e+01 -7.507178932428359985e-02 7.305390357971191406e+00 2.169095516204833984e+00 2.679038345813751221e-01
4.656000000000000000e+03 1.212092018127441406e+01 -1.790491867065429688e+01 1.208157837390899658e-01 -2.464276403188705444e-01 -3.768355771899223328e-02 -2.417221218347549438e-01
4.657000000000000000e+03 6.757521057128906250e+01 -3.959664821624755859e+00 -1.779551804065704346e-01 7.145999431610107422e+00 2.090413093566894531e+00 1.300856918096542358e-01
4.658000000000000000e+03 1.559959506988525391e+01 -1.993990898132324219e+01 1.440915763378143311e-01 -7.483518123626708984e-02 2.077691815793514252e-02 -2.256779521703720093e-01
4.659000000000000000e+03 6.695646667480468750e+01 1.470680999755859375e+01 -7.692650556564331055e-01 7.776884078979492188e+00 2.102285623550415039e+00 -4.898064732551574707e-01
4.660000000000000000e+03 6.907910919189453125e+01 1.744848060607910156e+01 -6.851481795310974121e-01 8.105066299438476562e+00 2.225975275039672852e+00 -8.788281083106994629e-01
4.661000000000000000e+03 6.739270782470703125e+01 2.083634757995605469e+01 -8.321806788444519043e-01 8.485067367553710938e+00 2.295866012573242188e+00 -1.024857759475708008e+00
4.662000000000000000e+03 1.292502212524414062e+01 -2.689648437500000000e+01 9.516309201717376709e-02 -2.430722862482070923e-01 -4.437275603413581848e-02 -1.652659624814987183e-01
4.663000000000000000e+03 6.848992156982421875e+01 8.421749114990234375e+00 -4.467499256134033203e-01 7.578314781188964844e+00 2.139469385147094727e+00 -2.522358298301696777e-01
4.664000000000000000e+03 6.903343963623046875e+01 1.061945343017578125e+01 -4.917213320732116699e-01 7.741651058197021484e+00 2.174978971481323242e+00 -3.869021236896514893e-01
4.665000000000000000e+03 1.381666755676269531e+01 -1.950578308105468750e+01 1.361916065216064453e-01 -1.695463657379150391e-01 -1.000642590224742889e-02 -2.260259091854095459e-01
4.666000000000000000e+03 6.718781280517578125e+01 1.261952400207519531e+00 -2.734861671924591064e-01 7.159840583801269531e+00 2.065906286239624023e+00 3.056825511157512665e-02
4.667000000000000000e+03 5.300303268432617188e+01 -2.019190216064453125e+01 -1.891385316848754883e-01 4.470894336700439453e+00 1.284526705741882324e+00 1.851405203342437744e-01
4.668000000000000000e+03 6.719924163818359375e+01 -4.868481636047363281e+00 -1.733221709728240967e-01 7.074375629425048828e+00 2.070316076278686523e+00 1.518625020980834961e-01
4.669000000000000000e+03 4.346661758422851562e+01 -1.036688518524169922e+01 -3.362533077597618103e-02 2.031877994537353516e+00 5.994758009910583496e-01 -2.737218886613845825e-02
4.670000000000000000e+03 6.640763854980468750e+01 -2.220287513732910156e+01 -1.703253760933876038e-02 6.807288169860839844e+00 2.037076711654663086e+00 3.491874337196350098e-01
4.671000000000000000e+03 6.714262390136718750e+01 3.683013534545898438e+01 1.720015645027160645e+00 1.003804492950439453e+01 3.527418136596679688e+00 5.973557233810424805e-01
4.672000000000000000e+03 2.636036682128906250e+01 1.477683067321777344e+00 -7.873446345329284668e-01 -2.640844285488128662e-01 -3.154287040233612061e-01 -2.761065959930419922e-01
4.673000000000000000e+03 5.516318511962890625e+01 3.119260597229003906e+01 2.037590980529785156e+00 3.099549531936645508e+00 1.541142106056213379e+00 2.721565723419189453e+00
4.674000000000000000e+03 2.808080482482910156e+01 1.772415280342102051e+00 -6.121491193771362305e-01 -3.262486755847930908e-01 -2.815193235874176025e-01 -2.195846736431121826e-01
4.675000000000000000e+03 2.723316001892089844e+01 1.857355713844299316e+00 -7.557923197746276855e-01 -3.456572294235229492e-01 -3.304348587989807129e-01 -2.986624240875244141e-01
4.676000000000000000e+03 2.694301033020019531e+01 1.749215126037597656e+00 -7.449713945388793945e-01 -3.143002390861511230e-01 -3.177815079689025879e-01 -2.879779040813446045e-01
4.677000000000000000e+03 2.723462677001953125e+01 9.013848900794982910e-01 -5.613691806793212891e-01 -2.684762775897979736e-01 -2.489536404609680176e-01 -1.634824723005294800e-01
4.678000000000000000e+03 2.969335556030273438e+01 3.183700084686279297e+00 -6.617094874382019043e-01 -3.298457860946655273e-01 -2.974665760993957520e-01 -2.742218375205993652e-01
4.679000000000000000e+03 2.912355041503906250e+01 2.659016370773315430e+00 -6.402868032455444336e-01 -3.406239449977874756e-01 -2.942732274532318115e-01 -2.497206777334213257e-01
4.680000000000000000e+03 2.653535842895507812e+01 1.990677118301391602e+00 -8.711900711059570312e-01 -3.090369701385498047e-01 -3.540681004524230957e-01 -3.466062843799591064e-01
4.681000000000000000e+03 3.766261291503906250e+01 1.247027778625488281e+01 -5.138927698135375977e-01 -2.055047079920768738e-02 -1.603329777717590332e-01 -2.965364158153533936e-01
4.682000000000000000e+03 4.883203887939453125e+01 2.434870910644531250e+01 1.029509231448173523e-01 1.350509047508239746e+00 4.360380172729492188e-01 7.349839210510253906e-01
4.683000000000000000e+03 4.935563659667968750e+01 2.492563629150390625e+01 1.656888723373413086e-01 1.443574666976928711e+00 4.827790558338165283e-01 8.224007487297058105e-01
4.684000000000000000e+03 4.913834762573242188e+01 2.448950004577636719e+01 1.310627609491348267e-01 1.455961823463439941e+00 4.761073589324951172e-01 7.941969633102416992e-01
4.685000000000000000e+03 3.658299636840820312e+01 1.158690357208251953e+01 -5.537399649620056152e-01 -1.323475390672683716e-01 -2.058262526988983154e-01 -3.520883619785308838e-01
4.686000000000000000e+03 3.746763610839843750e+01 1.210842037200927734e+01 -5.164046883583068848e-01 -2.462044730782508850e-02 -1.623075306415557861e-01 -2.948304116725921631e-01
4.687000000000000000e+03 3.786763381958007812e+01 1.279518890380859375e+01 -5.089540481567382812e-01 -1.377549394965171814e-02 -1.568188667297363281e-01 -2.930477559566497803e-01
4.688000000000000000e+03 4.799274063110351562e+01 2.249276542663574219e+01 -3.368021175265312195e-02 1.416321277618408203e+00 4.147923290729522705e-01 6.466095447540283203e-01
4.689000000000000000e+03 4.569451522827148438e+01 2.032377624511718750e+01 -1.828466653823852539e-01 9.809437394142150879e-01 2.394291311502456665e-01 3.289247155189514160e-01
4.690000000000000000e+03 4.955433654785156250e+01 2.420253753662109375e+01 1.213006079196929932e-01 1.717388033866882324e+00 5.516065955162048340e-01 9.010671973228454590e-01
4.691000000000000000e+03 4.319792556762695312e+01 1.781637382507324219e+01 -2.987453043460845947e-01 6.337434649467468262e-01 1.004994511604309082e-01 6.021517887711524963e-02
4.692000000000000000e+03 5.454196548461914062e+01 2.926469039916992188e+01 1.163804769515991211e+00 3.647490024566650391e+00 1.443388462066650391e+00 2.561268806457519531e+00
4.693000000000000000e+03 5.407089614868164062e+01 2.924128532409667969e+01 1.134866476058959961e+00 3.055937528610229492e+00 1.257241249084472656e+00 2.291214227676391602e+00
4.694000000000000000e+03 4.982487487792968750e+01 2.463459396362304688e+01 1.642812490463256836e-01 1.720158696174621582e+00 5.653319954872131348e-01 9.498721361160278320e-01
4.695000000000000000e+03 4.460960769653320312e+01 1.968513107299804688e+01 -2.279910445213317871e-01 7.533481121063232422e-01 1.576071083545684814e-01 1.870961934328079224e-01
4.696000000000000000e+03 3.810487365722656250e+01 1.308144664764404297e+01 -5.006833076477050781e-01 5.569403991103172302e-03 -1.485341787338256836e-01 -2.878748774528503418e-01
4.697000000000000000e+03 2.732500648498535156e+01 1.264899730682373047e+00 -5.807530283927917480e-01 -2.926362752914428711e-01 -2.620168030261993408e-01 -1.915085464715957642e-01
4.698000000000000000e+03 5.258480072021484375e+01 2.824682617187500000e+01 7.899826765060424805e-01 2.164167642593383789e+00 8.862451314926147461e-01 1.646124482154846191e+00
4.699000000000000000e+03 5.321307754516601562e+01 2.813161277770996094e+01 8.121163845062255859e-01 2.726321697235107422e+00 1.061531424522399902e+00 1.932000279426574707e+00
4.700000000000000000e+03 5.900815582275390625e+01 2.998630905151367188e+01 -8.325681090354919434e-02 1.178456306457519531e+01 3.510391950607299805e+00 2.285475969314575195e+00
4.701000000000000000e+03 4.592400741577148438e+01 2.060601615905761719e+01 -1.703104376792907715e-01 1.007968187332153320e+00 2.512973248958587646e-01 3.526497781276702881e-01
4.702000000000000000e+03 1.679121589660644531e+01 1.336508083343505859e+01 6.270999461412429810e-02 1.846891343593597412e-01 7.421974092721939087e-02 1.002218797802925110e-01
4.703000000000000000e+03 1.676314163208007812e+01 1.303801822662353516e+01 6.502979993820190430e-02 1.908353120088577271e-01 7.675953954458236694e-02 1.045581996440887451e-01
4.704000000000000000e+03 3.836838912963867188e+01 1.334143257141113281e+01 -4.982278347015380859e-01 2.900901436805725098e-02 -1.407656520605087280e-01 -2.717196643352508545e-01
4.705000000000000000e+03 3.862744522094726562e+01 1.360755348205566406e+01 -4.877693355083465576e-01 5.265523120760917664e-02 -1.305342316627502441e-01 -2.587371170520782471e-01
4.706000000000000000e+03 1.915020179748535156e+01 1.529432392120361328e+01 6.727489084005355835e-02 1.598642617464065552e-01 6.814174354076385498e-02 1.026252508163452148e-01
4.707000000000000000e+03 1.764589881896972656e+01 1.412662792205810547e+01 6.540787965059280396e-02 1.737201213836669922e-01 7.173839956521987915e-02 1.017724722623825073e-01
4.708000000000000000e+03 3.173862266540527344e+01 3.745742082595825195e+00 -5.079222917556762695e-01 -1.804687231779098511e-01 -2.065173089504241943e-01 -2.436202317476272583e-01
4.709000000000000000e+03 4.691643524169921875e+01 2.243156623840332031e+01 -8.495202660560607910e-02 1.038049578666687012e+00 2.859292626380920410e-01 4.490431547164916992e-01
4.710000000000000000e+03 3.724594116210937500e+01 1.171111965179443359e+01 -5.147184133529663086e-01 -2.947934344410896301e-02 -1.632593274116516113e-01 -2.954167723655700684e-01
4.711000000000000000e+03 3.886958694458007812e+01 1.388840579986572266e+01 -4.796361625194549561e-01 7.178772985935211182e-02 -1.223545297980308533e-01 -2.488339692354202271e-01
4.712000000000000000e+03 4.039197921752929688e+01 1.551950359344482422e+01 -4.277456104755401611e-01 2.359242439270019531e-01 -5.754641443490982056e-02 -1.676243394613265991e-01
4.713000000000000000e+03 4.067561340332031250e+01 1.523035907745361328e+01 -4.114305675029754639e-01 3.310742974281311035e-01 -2.410688064992427826e-02 -1.232047453522682190e-01
4.714000000000000000e+03 5.294640731811523438e+01 2.809170913696289062e+01 7.887824773788452148e-01 2.544777154922485352e+00 1.000067830085754395e+00 1.825139999389648438e+00
4.715000000000000000e+03 5.152896881103515625e+01 2.726126861572265625e+01 5.543269515037536621e-01 1.842957258224487305e+00 7.191852331161499023e-01 1.313089251518249512e+00
4.716000000000000000e+03 5.093421173095703125e+01 2.674234962463378906e+01 4.346352517604827881e-01 1.688308954238891602e+00 6.368832588195800781e-01 1.141860842704772949e+00
4.717000000000000000e+03 5.232354354858398438e+01 2.804189109802246094e+01 7.269482016563415527e-01 2.065924644470214844e+00 8.378618955612182617e-01 1.561352014541625977e+00
4.718000000000000000e+03 4.971875381469726562e+01 2.500655555725097656e+01 1.994700729846954346e-01 1.579661726951599121e+00 5.337395071983337402e-01 9.091921448707580566e-01
4.719000000000000000e+03 4.440595626831054688e+01 1.932085227966308594e+01 -2.417783141136169434e-01 7.435467243194580078e-01 1.505305171012878418e-01 1.680963486433029175e-01
4.720000000000000000e+03 5.177931594848632812e+01 2.691831970214843750e+01 5.193277001380920410e-01 2.142468214035034180e+00 7.985387444496154785e-01 1.431826472282409668e+00
4.721000000000000000e+03 2.466872978210449219e+01 1.988235092163085938e+01 6.472925096750259399e-02 1.230966672301292419e-01 5.634777247905731201e-02 9.184402227401733398e-02
4.722000000000000000e+03 1.310415744781494141e+01 1.593090343475341797e+01 1.546103414148092270e-02 1.151390299201011658e-01 3.918001800775527954e-02 2.691864967346191406e-02
4.723000000000000000e+03 1.845810127258300781e+01 1.390276622772216797e+01 7.786868512630462646e-02 1.733697056770324707e-01 7.537151873111724854e-02 1.128705590963363647e-01
4.724000000000000000e+03 4.635763549804687500e+01 2.117220687866210938e+01 -1.446739584207534790e-01 1.061315536499023438e+00 2.749924957752227783e-01 4.041750431060791016e-01
4.725000000000000000e+03 5.768461227416992188e+01 3.053209686279296875e+01 8.799293041229248047e-01 9.446656227111816406e+00 3.097975730895996094e+00 3.853225469589233398e+00
4.726000000000000000e+03 3.962834167480468750e+01 1.422273349761962891e+01 -4.488700628280639648e-01 1.994830667972564697e-01 -7.481610029935836792e-02 -1.840361654758453369e-01
4.727000000000000000e+03 2.091040611267089844e+01 1.807832336425781250e+01 5.638216063380241394e-02 1.386884897947311401e-01 5.852119252085685730e-02 8.960805088281631470e-02
4.728000000000000000e+03 5.026260375976562500e+01 2.583778190612792969e+01 2.942416965961456299e-01 1.615393877029418945e+00 5.728906989097595215e-01 1.002857685089111328e+00
4.729000000000000000e+03 4.257213592529296875e+01 1.740282058715820312e+01 -3.255624771118164062e-01 5.269804596900939941e-01 6.042539700865745544e-02 -2.238359535112977028e-03
4.730000000000000000e+03 4.288004302978515625e+01 1.760822868347167969e+01 -3.128262460231781006e-01 5.782174468040466309e-01 7.961737364530563354e-02 2.710880525410175323e-02
4.731000000000000000e+03 5.146456527709960938e+01 2.667201042175292969e+01 4.644556045532226562e-01 2.027058124542236328e+00 7.474541068077087402e-01 1.332906961441040039e+00
4.732000000000000000e+03 5.566441345214843750e+01 3.148384094238281250e+01 2.441986560821533203e+00 3.602611541748046875e+00 1.813379406929016113e+00 3.157387256622314453e+00
4.733000000000000000e+03 6.029388046264648438e+01 2.934405136108398438e+01 -3.779103159904479980e-01 1.206864166259765625e+01 3.507219552993774414e+00 7.785487174987792969e-01
4.734000000000000000e+03 4.381810379028320312e+01 1.831353950500488281e+01 -2.685936093330383301e-01 7.322173118591308594e-01 1.390871107578277588e-01 1.254762709140777588e-01
4.735000000000000000e+03 5.058791732788085938e+01 2.594065475463867188e+01 3.302371501922607422e-01 1.753085613250732422e+00 6.249968409538269043e-01 1.094560980796813965e+00
4.736000000000000000e+03 5.088600540161132812e+01 2.614756965637207031e+01 3.737311661243438721e-01 1.860737800598144531e+00 6.703406572341918945e-01 1.173235416412353516e+00
4.737000000000000000e+03 4.012868118286132812e+01 1.526564407348632812e+01 -4.368095993995666504e-01 2.047663033008575439e-01 -6.961298733949661255e-02 -1.840196251869201660e-01
4.738000000000000000e+03 4.123999404907226562e+01 1.517994785308837891e+01 -3.872907161712646484e-01 4.681543111801147461e-01 2.425908297300338745e-02 -6.314292550086975098e-02
4.739000000000000000e+03 1.953041458129882812e+01 1.515729713439941406e+01 7.481303811073303223e-02 1.594060957431793213e-01 7.026574015617370605e-02 1.067353039979934692e-01
4.740000000000000000e+03 4.669450759887695312e+01 2.217444038391113281e+01 -1.048861965537071228e-01 1.002711057662963867e+00 2.693474590778350830e-01 4.193837046623229980e-01
4.741000000000000000e+03 4.861918640136718750e+01 2.318335914611816406e+01 1.929663866758346558e-02 1.518193125724792480e+00 4.612469077110290527e-01 7.408080101013183594e-01
4.742000000000000000e+03 1.761107063293457031e+01 1.367547988891601562e+01 6.835561990737915039e-02 1.792639791965484619e-01 7.428587973117828369e-02 1.070198118686676025e-01
4.743000000000000000e+03 2.883027648925781250e+01 1.233348727226257324e+00 -4.640451669692993164e-01 -3.027474284172058105e-01 -2.300377786159515381e-01 -1.350454837083816528e-01
4.744000000000000000e+03 2.941899681091308594e+01 6.210865378379821777e-01 -2.914825975894927979e-01 -2.579139173030853271e-01 -1.648189425468444824e-01 -6.712380051612854004e-02
4.745000000000000000e+03 1.393643569946289062e+01 1.040333366394042969e+01 5.812484398484230042e-02 2.433717697858810425e-01 9.044898301362991333e-02 7.032635807991027832e-02
4.746000000000000000e+03 1.451616668701171875e+01 1.027786064147949219e+01 6.651635468006134033e-02 2.497483640909194946e-01 9.487941116094589233e-02 9.131114929914474487e-02
4.747000000000000000e+03 4.404836654663085938e+01 1.863114547729492188e+01 -2.575359642505645752e-01 7.493371367454528809e-01 1.475403606891632080e-01 1.468342244625091553e-01
4.748000000000000000e+03 4.521770858764648438e+01 1.976183128356933594e+01 -2.064883410930633545e-01 9.157605767250061035e-01 2.127816826105117798e-01 2.737681567668914795e-01
4.749000000000000000e+03 4.120043182373046875e+01 1.574178409576416016e+01 -3.920191824436187744e-01 3.956314325332641602e-01 1.083674957044422626e-03 -9.073325991630554199e-02
4.750000000000000000e+03 1.360916709899902344e+01 1.141768836975097656e+01 4.597160965204238892e-02 2.069047540426254272e-01 7.586290687322616577e-02 5.347900837659835815e-02
4.751000000000000000e+03 1.517867565155029297e+01 1.074161338806152344e+01 7.136213779449462891e-02 2.378363013267517090e-01 9.275952726602554321e-02 1.046504378318786621e-01
4.752000000000000000e+03 4.013390731811523438e+01 1.474761962890625000e+01 -4.299691617488861084e-01 2.621523439884185791e-01 -5.034504085779190063e-02 -1.596533358097076416e-01
4.753000000000000000e+03 2.002661895751953125e+01 1.649948501586914062e+01 6.356716156005859375e-02 1.500413417816162109e-01 6.408254802227020264e-02 9.732581675052642822e-02
4.754000000000000000e+03 2.258615684509277344e+01 1.916814422607421875e+01 5.729472637176513672e-02 1.312125027179718018e-01 5.655216798186302185e-02 8.956104516983032227e-02
4.755000000000000000e+03 5.392068099975585938e+01 2.959389877319335938e+01 1.229547142982482910e+00 2.680317878723144531e+00 1.172959566116333008e+00 2.178236007690429688e+00
4.756000000000000000e+03 5.847568130493164062e+01 2.965870285034179688e+01 -1.391361001878976822e-02 1.056163406372070312e+01 3.164315938949584961e+00 2.754915237426757812e+00
4.757000000000000000e+03 2.601185989379882812e+01 2.206215095520019531e+01 5.427055433392524719e-02 1.131359636783599854e-01 5.022195726633071899e-02 8.263337612152099609e-02
4.758000000000000000e+03 4.696983337402343750e+01 2.197800445556640625e+01 -9.758161753416061401e-02 1.134510397911071777e+00 3.110786378383636475e-01 4.762569963932037354e-01
4.759000000000000000e+03 2.457696533203125000e+01 2.043960380554199219e+01 6.243981048464775085e-02 1.223129034042358398e-01 5.542581528425216675e-02 8.935145288705825806e-02
4.760000000000000000e+03 3.593671798706054688e+01 1.033577537536621094e+01 -5.508095026016235352e-01 -1.302176862955093384e-01 -2.043081521987915039e-01 -3.313321769237518311e-01
4.761000000000000000e+03 4.742694091796875000e+01 2.254431915283203125e+01 -6.412611156702041626e-02 1.187496662139892578e+00 3.370111584663391113e-01 5.290621519088745117e-01
4.762000000000000000e+03 3.552427673339843750e+01 9.085317611694335938e+00 -5.072590112686157227e-01 -1.000378653407096863e-01 -1.821890622377395630e-01 -2.907382249832153320e-01
4.763000000000000000e+03 3.666412353515625000e+01 1.091139411926269531e+01 -5.226836204528808594e-01 -5.084551125764846802e-02 -1.720587313175201416e-01 -3.047588169574737549e-01
4.764000000000000000e+03 5.383186721801757812e+01 2.863015747070312500e+01 9.382451176643371582e-01 3.123560428619384766e+00 1.218541622161865234e+00 2.194672346115112305e+00
4.765000000000000000e+03 4.196878433227539062e+01 1.596631240844726562e+01 -3.559924066066741943e-01 5.512282848358154297e-01 5.857075005769729614e-02 -1.450497284531593323e-02
4.766000000000000000e+03 1.019741630554199219e+01 9.894228935241699219e+00 7.842183113098144531e-02 9.614796936511993408e-02 5.237093940377235413e-02 -1.876591332256793976e-02
4.767000000000000000e+03 1.253893470764160156e+01 9.358883857727050781e+00 6.480344384908676147e-02 2.429642379283905029e-01 9.233030676841735840e-02 2.202292345464229584e-02
4.768000000000000000e+03 2.063596916198730469e+01 1.749847030639648438e+01 5.864971503615379333e-02 1.428166478872299194e-01 6.043991073966026306e-02 9.280236810445785522e-02
4.769000000000000000e+03 4.656037139892578125e+01 2.144529342651367188e+01 -1.311190426349639893e-01 1.083401918411254883e+00 2.856848537921905518e-01 4.272630810737609863e-01
4.770000000000000000e+03 2.029420471191406250e+01 1.699076652526855469e+01 6.196252629160881042e-02 1.458596885204315186e-01 6.234666332602500916e-02 9.440510720014572144e-02
4.771000000000000000e+03 1.419075965881347656e+01 1.108163166046142578e+01 5.325855314731597900e-02 2.265694737434387207e-01 8.394841104745864868e-02 7.283886522054672241e-02
4.772000000000000000e+03 3.066954994201660156e+01 2.963978528976440430e+00 -5.381136536598205566e-01 -2.411866933107376099e-01 -2.337900996208190918e-01 -2.112834900617599487e-01
4.773000000000000000e+03 2.620515060424804688e+01 2.357100296020507812e+01 4.700040817260742188e-02 1.110312938690185547e-01 4.740951210260391235e-02 7.803130149841308594e-02
4.774000000000000000e+03 4.261696624755859375e+01 1.792253875732421875e+01 -3.192237913608551025e-01 4.718113243579864502e-01 4.577625542879104614e-02 -1.808702014386653900e-02
4.775000000000000000e+03 1.545810794830322266e+01 1.157490253448486328e+01 6.668340414762496948e-02 2.158668190240859985e-01 8.476506918668746948e-02 1.006039455533027649e-01
4.776000000000000000e+03 3.024141883850097656e+01 3.811888396739959717e-01 -2.214295268058776855e-01 -2.090111970901489258e-01 -1.291322112083435059e-01 -4.050708562135696411e-02
4.777000000000000000e+03 3.070180892944335938e+01 3.417447090148925781e+00 -5.726193785667419434e-01 -2.507404386997222900e-01 -2.470079511404037476e-01 -2.525279819965362549e-01
4.778000000000000000e+03 3.619753265380859375e+01 9.890076637268066406e+00 -5.100926160812377930e-01 -5.004801601171493530e-02 -1.680421829223632812e-01 -2.811246812343597412e-01
4.779000000000000000e+03 3.227211380004882812e+01 4.173476219177246094e+00 -4.819300472736358643e-01 -1.551304161548614502e-01 -1.911181360483169556e-01 -2.559837996959686279e-01
4.780000000000000000e+03 2.653460693359375000e+01 2.490982627868652344e+01 4.215334355831146240e-02 1.056537255644798279e-01 4.434211924672126770e-02 7.256652414798736572e-02
4.781000000000000000e+03 2.466671180725097656e+01 2.338323783874511719e+01 3.745786845684051514e-02 1.118297874927520752e-01 4.478629678487777710e-02 7.160843163728713989e-02
4.782000000000000000e+03 5.756761550903320312e+01 3.089390373229980469e+01 1.217565417289733887e+00 9.253807067871093750e+00 3.141411542892456055e+00 4.129830360412597656e+00
4.783000000000000000e+03 1.300485038757324219e+01 8.259809494018554688e+00 7.060563564300537109e-02 3.227170705795288086e-01 1.179968118667602539e-01 3.357976302504539490e-02
4.784000000000000000e+03 2.944360923767089844e+01 2.864089965820312500e+00 -6.353730559349060059e-01 -3.414573669433593750e-01 -2.930491268634796143e-01 -2.627449333667755127e-01
4.785000000000000000e+03 2.343725585937500000e+01 1.892338180541992188e+01 6.574788689613342285e-02 1.302395761013031006e-01 5.879624187946319580e-02 9.448163211345672607e-02
4.786000000000000000e+03 2.358205604553222656e+01 1.931108856201171875e+01 6.722594052553176880e-02 1.268143206834793091e-01 5.821207538247108459e-02 9.385117888450622559e-02
4.787000000000000000e+03 1.616852569580078125e+01 1.190219783782958984e+01 7.126776874065399170e-02 2.103139311075210571e-01 8.447451144456863403e-02 1.085048690438270569e-01
4.788000000000000000e+03 1.922259140014648438e+01 1.573704242706298828e+01 6.505882740020751953e-02 1.559080332517623901e-01 6.629005819559097290e-02 9.853501617908477783e-02
4.789000000000000000e+03 1.852995491027832031e+01 1.428153228759765625e+01 7.270137965679168701e-02 1.703255325555801392e-01 7.290807366371154785e-02 1.087838709354400635e-01
4.790000000000000000e+03 3.658907699584960938e+01 9.862237930297851562e+00 -4.906922280788421631e-01 1.765286177396774292e-02 -1.419118046760559082e-01 -2.514383494853973389e-01
4.791000000000000000e+03 2.796702003479003906e+01 2.090245336294174194e-01 -3.061354160308837891e-01 -2.441851347684860229e-01 -1.650961637496948242e-01 -6.489434838294982910e-02
4.792000000000000000e+03 2.876990890502929688e+01 7.509419322013854980e-01 -3.502910435199737549e-01 -2.919087707996368408e-01 -1.926599442958831787e-01 -1.044455766677856445e-01
4.793000000000000000e+03 1.434038829803466797e+01 1.063440227508544922e+01 6.062412634491920471e-02 2.383283674716949463e-01 8.968575298786163330e-02 8.339939266443252563e-02
4.794000000000000000e+03 2.620506286621093750e+01 2.292409324645996094e+01 4.854790493845939636e-02 1.096380949020385742e-01 4.745579883456230164e-02 7.823892682790756226e-02
4.795000000000000000e+03 2.945273971557617188e+01 2.720223426818847656e+01 4.038202017545700073e-02 9.513417631387710571e-02 4.065486043691635132e-02 6.456203013658523560e-02
4.796000000000000000e+03 1.464314174652099609e+01 1.123698043823242188e+01 5.817357078194618225e-02 2.234451621770858765e-01 8.448562026023864746e-02 8.546930551528930664e-02
4.797000000000000000e+03 2.201792907714843750e+01 1.854274177551269531e+01 5.937738344073295593e-02 1.339208781719207764e-01 5.798947811126708984e-02 9.117031842470169067e-02
4.798000000000000000e+03 1.627198600769042969e+01 1.293633842468261719e+01 5.967907980084419250e-02 1.917733252048492432e-01 7.543572038412094116e-02 9.805291891098022461e-02
4.799000000000000000e+03 1.608610343933105469e+01 1.260667514801025391e+01 6.224085763096809387e-02 1.989348232746124268e-01 7.835270464420318604e-02 9.868587553501129150e-02
4.800000000000000000e+03 6.200874328613281250e+01 2.929803657531738281e+01 9.512824006378650665e-03 1.187006187438964844e+01 3.563872575759887695e+00 -6.180794239044189453e-01
4.801000000000000000e+03 6.191944122314453125e+01 2.837067985534667969e+01 -4.125240743160247803e-01 1.130257225036621094e+01 3.267014503479003906e+00 -3.294031918048858643e-01
4.802000000000000000e+03 3.658130264282226562e+01 9.513638496398925781e+00 -4.753585159778594971e-01 4.073489084839820862e-02 -1.303870975971221924e-01 -2.316287755966186523e-01
4.803000000000000000e+03 3.563071060180664062e+01 9.547034263610839844e+00 -5.273019671440124512e-01 -1.178537979722023010e-01 -1.935467272996902466e-01 -3.094705641269683838e-01
4.804000000000000000e+03 3.626313018798828125e+01 8.329300880432128906e+00 -4.410782456398010254e-01 6.901767104864120483e-02 -1.116181686520576477e-01 -2.030913978815078735e-01
4.805000000000000000e+03 4.352924346923828125e+01 1.803655052185058594e+01 -2.827344238758087158e-01 6.941007375717163086e-01 1.234098896384239197e-01 9.694746881723403931e-02
4.806000000000000000e+03 3.000548744201660156e+01 2.816273498535156250e+01 3.858215734362602234e-02 9.357994794845581055e-02 3.964862972497940063e-02 6.291828304529190063e-02
4.807000000000000000e+03 3.409956359863281250e+01 6.344545841217041016e+00 -4.359555840492248535e-01 -1.171402409672737122e-01 -1.659287512302398682e-01 -2.738884389400482178e-01
4.808000000000000000e+03 2.709862709045410156e+01 2.469640159606933594e+01 4.234332218766212463e-02 1.052488610148429871e-01 4.427765309810638428e-02 7.320650666952133179e-02
4.809000000000000000e+03 5.856802368164062500e+01 3.012026405334472656e+01 1.267860680818557739e-01 1.128502368927001953e+01 3.423542976379394531e+00 2.888366699218750000e+00
4.810000000000000000e+03 1.242193603515625000e+01 7.944353580474853516e+00 8.221528679132461548e-02 3.000474870204925537e-01 1.146788299083709717e-01 2.762156771495938301e-03
4.811000000000000000e+03 2.634828567504882812e+01 2.425944137573242188e+01 4.149314016103744507e-02 1.070289015769958496e-01 4.455661401152610779e-02 7.304091006517410278e-02
4.812000000000000000e+03 2.857267761230468750e+01 2.589035987854003906e+01 4.468197003006935120e-02 1.037802323698997498e-01 4.453866183757781982e-02 7.472659647464752197e-02
4.813000000000000000e+03 2.550806999206542969e+01 2.376689529418945312e+01 4.073177278041839600e-02 1.099528297781944275e-01 4.520538076758384705e-02 7.304456084966659546e-02
4.814000000000000000e+03 3.526922988891601562e+01 -1.497802853584289551e+00 3.983345627784729004e-02 3.333856463432312012e-01 1.119657307863235474e-01 4.387627542018890381e-02
4.815000000000000000e+03 3.367395782470703125e+01 -1.206614971160888672e+00 1.070600748062133789e-02 1.181964278221130371e-01 3.867072984576225281e-02 2.649435587227344513e-02
4.816000000000000000e+03 3.436537933349609375e+01 5.844477653503417969e+00 -3.990538716316223145e-01 -2.332266606390476227e-02 -1.267129629850387573e-01 -2.207700312137603760e-01
4.817000000000000000e+03 3.075417137145996094e+01 2.811054801940917969e+01 5.226749181747436523e-02 9.280036389827728271e-02 4.352035745978355408e-02 6.659703701734542847e-02
4.818000000000000000e+03 3.282866668701171875e+01 4.137349605560302734e+00 -4.261589348316192627e-01 -9.114673733711242676e-02 -1.551917046308517456e-01 -2.257385402917861938e-01
4.819000000000000000e+03 3.467534255981445312e+01 5.340801715850830078e+00 -3.664074540138244629e-01 3.970765694975852966e-02 -9.800993651151657104e-02 -1.826629340648651123e-01
4.820000000000000000e+03 4.172106552124023438e+01 1.727454948425292969e+01 -3.654684722423553467e-01 3.388091325759887695e-01 -7.997801527380943298e-03 -1.030336245894432068e-01
4.821000000000000000e+03 4.145114898681640625e+01 1.599533748626708984e+01 -3.802066147327423096e-01 4.257368743419647217e-01 1.365907862782478333e-02 -7.326189428567886353e-02
4.822000000000000000e+03 2.615269851684570312e+01 2.050357246398925781e+01 6.972921639680862427e-02 1.172807216644287109e-01 5.610297992825508118e-02 9.272353351116180420e-02
4.823000000000000000e+03 3.539532470703125000e+01 7.969227313995361328e+00 -4.516873061656951904e-01 -3.175560757517814636e-02 -1.450328826904296875e-01 -2.462985515594482422e-01
4.824000000000000000e+03 3.559217071533203125e+01 8.611798286437988281e+00 -4.838974773883819580e-01 -5.519550293684005737e-02 -1.617279052734375000e-01 -2.653456628322601318e-01
4.825000000000000000e+03 3.188013076782226562e+01 -2.213606089353561401e-01 -9.310585260391235352e-02 -7.301834225654602051e-02 -4.983725771307945251e-02 -1.684847753494977951e-03
4.826000000000000000e+03 3.131077957153320312e+01 7.603533864021301270e-01 -2.269811183214187622e-01 -1.380562186241149902e-01 -1.095112040638923645e-01 -4.202242940664291382e-02
4.827000000000000000e+03 2.970125961303710938e+01 2.467185974121093750e+00 -5.613594055175781250e-01 -2.835676670074462891e-01 -2.534781396389007568e-01 -1.975853294134140015e-01
4.828000000000000000e+03 3.296204757690429688e+01 -1.101025223731994629e+00 1.932132430374622345e-02 3.675735741853713989e-02 1.682360470294952393e-02 1.945964246988296509e-02
4.829000000000000000e+03 1.190208435058593750e+01 7.358034133911132812e+00 1.122562438249588013e-01 2.803825438022613525e-01 1.177916377782821655e-01 -4.153237491846084595e-02
4.830000000000000000e+03 3.227638244628906250e+01 3.682116508483886719e+00 -4.442681074142456055e-01 -1.204507425427436829e-01 -1.694156527519226074e-01 -2.148407697677612305e-01
4.831000000000000000e+03 5.986908340454101562e+01 2.961360549926757812e+01 -3.238868415355682373e-01 1.223965263366699219e+01 3.574729681015014648e+00 1.210218071937561035e+00
4.832000000000000000e+03 6.066173171997070312e+01 2.896009635925292969e+01 -4.574539959430694580e-01 1.176146316528320312e+01 3.391202688217163086e+00 4.833755493164062500e-01
4.833000000000000000e+03 1.097447490692138672e+01 1.995061111450195312e+01 -2.610279247164726257e-03 3.767905384302139282e-02 1.052063237875699997e-02 -2.081806305795907974e-03
4.834000000000000000e+03 3.120180511474609375e+01 3.349024057388305664e+00 -5.282785892486572266e-01 -2.097496092319488525e-01 -2.214084416627883911e-01 -2.275794893503189087e-01
4.835000000000000000e+03 3.713236236572265625e+01 -3.037316322326660156e+00 7.824803888797760010e-02 6.379215121269226074e-01 2.148508727550506592e-01 4.077865928411483765e-02
4.836000000000000000e+03 3.433921051025390625e+01 -1.119488120079040527e+00 1.968422345817089081e-02 2.057222723960876465e-01 6.762194633483886719e-02 3.574602678418159485e-02
4.837000000000000000e+03 1.085188674926757812e+01 1.251061630249023438e+01 3.721100464463233948e-02 1.047567576169967651e-01 4.259032756090164185e-02 -1.399012166075408459e-03
4.838000000000000000e+03 9.868333816528320312e+00 1.277490901947021484e+01 3.623158112168312073e-02 6.671687960624694824e-02 3.088453784584999084e-02 -9.873902425169944763e-03
4.839000000000000000e+03 1.088326549530029297e+01 8.321825981140136719e+00 1.101286858320236206e-01 1.562095880508422852e-01 7.990148663520812988e-02 -3.870744258165359497e-02
4.840000000000000000e+03 1.072186565399169922e+01 1.415265846252441406e+01 2.417843230068683624e-02 8.320142328739166260e-02 3.221395611763000488e-02 -4.575062775984406471e-04
4.841000000000000000e+03 1.147062587738037109e+01 7.838435649871826172e+00 1.081096678972244263e-01 2.190237194299697876e-01 9.814001619815826416e-02 -3.678953647613525391e-02
4.842000000000000000e+03 1.297479152679443359e+01 9.633071899414062500e+00 6.102082133293151855e-02 2.434333562850952148e-01 9.133625030517578125e-02 4.094811901450157166e-02
4.843000000000000000e+03 6.786766052246093750e+01 1.338631439208984375e+01 -6.637018322944641113e-01 7.778379440307617188e+00 2.134403228759765625e+00 -4.943366646766662598e-01
4.844000000000000000e+03 1.150591278076171875e+01 1.695991897583007812e+01 6.593691185116767883e-03 7.292389869689941406e-02 2.385527640581130981e-02 6.397189106792211533e-03
4.845000000000000000e+03 6.769175720214843750e+01 1.166820907592773438e+01 -6.046211123466491699e-01 7.636137008666992188e+00 2.109454631805419922e+00 -3.836082220077514648e-01
4.846000000000000000e+03 3.239408111572265625e+01 3.100856781005859375e+01 5.274990573525428772e-02 8.743525296449661255e-02 4.205554723739624023e-02 5.714485421776771545e-02
4.847000000000000000e+03 1.162918663024902344e+01 1.457273292541503906e+01 2.077371627092361450e-02 1.043555140495300293e-01 3.753876686096191406e-02 1.049917005002498627e-02
4.848000000000000000e+03 6.707883453369140625e+01 2.629713249206542969e+01 -2.663765251636505127e-01 9.230810165405273438e+00 2.689330101013183594e+00 -1.530046820640563965e+00
4.849000000000000000e+03 1.235638523101806641e+01 2.181365776062011719e+01 -4.612763877958059311e-03 4.860500246286392212e-02 1.319767162203788757e-02 5.099301692098379135e-03
4.850000000000000000e+03 6.558853149414062500e+01 6.082811355590820312e+00 -4.699614048004150391e-01 7.027760505676269531e+00 1.967339754104614258e+00 -4.926383122801780701e-02
4.851000000000000000e+03 1.028149890899658203e+01 1.095435905456542969e+01 5.921956151723861694e-02 9.545485675334930420e-02 4.640232399106025696e-02 -1.138033717870712280e-02
4.852000000000000000e+03 3.928405380249023438e+01 -5.093185424804687500e+00 7.460170984268188477e-02 1.060232996940612793e+00 3.404504060745239258e-01 2.851216308772563934e-02
4.853000000000000000e+03 3.923968124389648438e+01 -4.064753055572509766e+00 7.700620591640472412e-02 1.050008654594421387e+00 3.381044864654541016e-01 4.898489639163017273e-02
4.854000000000000000e+03 1.462390327453613281e+01 2.489635276794433594e+01 -4.281447269022464752e-03 5.891887098550796509e-02 1.639122702181339264e-02 1.477476954460144043e-02
4.855000000000000000e+03 6.595394897460937500e+01 -6.199823021888732910e-01 -2.605048120021820068e-01 6.893293857574462891e+00 1.989836692810058594e+00 9.986698627471923828e-02
4.856000000000000000e+03 6.538133239746093750e+01 -1.587036132812500000e+00 -2.539372146129608154e-01 6.772523403167724609e+00 1.955575823783874512e+00 1.246098279953002930e-01
4.857000000000000000e+03 1.070181179046630859e+01 1.035033512115478516e+01 6.487856805324554443e-02 1.232732608914375305e-01 5.644555017352104187e-02 -1.382025238126516342e-02
4.858000000000000000e+03 1.071952152252197266e+01 9.330661773681640625e+00 8.549336344003677368e-02 1.351545900106430054e-01 6.619438529014587402e-02 -2.432342059910297394e-02
4.859000000000000000e+03 6.693720245361328125e+01 2.402765464782714844e+01 -6.648561954498291016e-01 8.972023963928222656e+00 2.492150306701660156e+00 -1.298633337020874023e+00
4.860000000000000000e+03 6.748191070556640625e+01 2.533432579040527344e+01 -4.189627468585968018e-01 9.010210037231445312e+00 2.577373981475830078e+00 -1.499605178833007812e+00
4.861000000000000000e+03 1.134712791442871094e+01 -1.216232299804687500e+01 1.093131825327873230e-01 -2.908777892589569092e-01 -5.446938425302505493e-02 -3.309204876422882080e-01
4.862000000000000000e+03 4.426148986816406250e+01 -6.660070419311523438e+00 -2.970201708376407623e-02 2.139354467391967773e+00 6.328957080841064453e-01 6.336124241352081299e-02
4.863000000000000000e+03 6.393130874633789062e+01 2.786773681640625000e+01 -1.897256225347518921e-01 1.054778385162353516e+01 3.107417345046997070e+00 -1.178355097770690918e+00
4.864000000000000000e+03 6.630220031738281250e+01 2.985138893127441406e+01 8.969372510910034180e-01 9.778516769409179688e+00 3.202636003494262695e+00 -1.651125431060791016e+00
4.865000000000000000e+03 6.759942626953125000e+01 5.696705341339111328e+00 -3.849283456802368164e-01 7.355417251586914062e+00 2.091146707534790039e+00 -1.133528426289558411e-01
4.866000000000000000e+03 6.806439208984375000e+01 2.228686141967773438e+01 -7.008229494094848633e-01 8.579277038574218750e+00 2.363536119461059570e+00 -1.235228061676025391e+00
4.867000000000000000e+03 6.797445678710937500e+01 2.334137344360351562e+01 -6.355140805244445801e-01 8.708584785461425781e+00 2.421921253204345703e+00 -1.346714258193969727e+00
4.868000000000000000e+03 2.897691154479980469e+01 2.904978942871093750e+01 3.345618024468421936e-02 9.203854948282241821e-02 3.764842078089714050e-02 5.581969767808914185e-02
4.869000000000000000e+03 4.032503128051757812e+01 -5.078619956970214844e+00 6.516331434249877930e-02 1.279199004173278809e+00 4.033086895942687988e-01 4.464589431881904602e-02
4.870000000000000000e+03 6.755734252929687500e+01 -1.819613575935363770e-01 -2.414342463016510010e-01 7.194382667541503906e+00 2.085884571075439453e+00 6.079440936446189880e-02
4.871000000000000000e+03 6.750832366943359375e+01 2.786364746093750000e+01 1.827951371669769287e-01 9.191275596618652344e+00 2.812221288681030273e+00 -1.662829041481018066e+00
4.872000000000000000e+03 6.735900878906250000e+01 1.587508773803710938e+01 -7.899678349494934082e-01 7.929044723510742188e+00 2.141723155975341797e+00 -6.200981736183166504e-01
4.873000000000000000e+03 6.582104492187500000e+01 -1.076787662506103516e+01 -1.347609907388687134e-01 6.752473354339599609e+00 1.985313653945922852e+00 2.522466480731964111e-01
4.874000000000000000e+03 6.717266845703125000e+01 -1.305828571319580078e+01 -1.026032939553260803e-01 6.995177745819091797e+00 2.067772388458251953e+00 2.611677050590515137e-01
4.875000000000000000e+03 4.421964645385742188e+01 -1.370795249938964844e+01 -7.739961892366409302e-02 2.245013236999511719e+00 6.502840518951416016e-01 -8.265678584575653076e-02
4.876000000000000000e+03 6.759467315673828125e+01 -8.245234489440917969e+00 -1.358037441968917847e-01 7.101130008697509766e+00 2.089597940444946289e+00 2.039417028427124023e-01
4.877000000000000000e+03 4.356207275390625000e+01 -8.993604660034179688e+00 -1.050367858260869980e-02 2.030225276947021484e+00 6.059164404869079590e-01 3.537831362336874008e-04
4.878000000000000000e+03 3.346456909179687500e+01 3.506829071044921875e+01 5.136818438768386841e-02 7.354892790317535400e-02 3.747513517737388611e-02 3.827265277504920959e-02
4.879000000000000000e+03 1.282275676727294922e+01 -1.553414440155029297e+01 1.434833854436874390e-01 -2.279733419418334961e-01 -2.534698694944381714e-02 -2.662359774112701416e-01
4.880000000000000000e+03 4.444497299194335938e+01 -1.220233058929443359e+01 -8.220909535884857178e-02 2.248092651367187500e+00 6.497650742530822754e-01 -5.184468254446983337e-02
4.881000000000000000e+03 4.471830749511718750e+01 -1.079151248931884766e+01 -5.382044985890388489e-02 2.309781789779663086e+00 6.767883896827697754e-01 -2.318870835006237030e-02
4.882000000000000000e+03 4.560058212280273438e+01 -1.398058128356933594e+01 -1.212728768587112427e-01 2.596236467361450195e+00 7.424890398979187012e-01 -5.627170205116271973e-02
4.883000000000000000e+03 3.705450820922851562e+01 3.691385269165039062e+01 8.806059509515762329e-02 7.377979904413223267e-02 4.855211824178695679e-02 3.702286630868911743e-02
4.884000000000000000e+03 4.649658203125000000e+01 -1.856778717041015625e+01 -1.928268820047378540e-01 2.928601980209350586e+00 8.207324743270874023e-01 -1.164695248007774353e-01
4.885000000000000000e+03 6.672705078125000000e+01 -2.031019973754882812e+01 -4.320370033383369446e-02 6.867793560028076172e+00 2.047376871109008789e+00 3.342801928520202637e-01
4.886000000000000000e+03 6.281291198730468750e+01 -2.321875762939453125e+01 -1.803034730255603790e-02 6.211795330047607422e+00 1.858129382133483887e+00 3.717456459999084473e-01
4.887000000000000000e+03 6.616315460205078125e+01 -6.711565971374511719e+00 -1.675034910440444946e-01 6.850343704223632812e+00 2.004852056503295898e+00 1.917010694742202759e-01
4.888000000000000000e+03 6.676181030273437500e+01 -5.835634231567382812e+00 -1.662334054708480835e-01 6.971247673034667969e+00 2.041504383087158203e+00 1.723276525735855103e-01
4.889000000000000000e+03 1.935996818542480469e+01 -2.463412475585937500e+01 1.294499486684799194e-01 1.263836175203323364e-01 7.675006985664367676e-02 -2.263796329498291016e-01
4.890000000000000000e+03 1.875711822509765625e+01 -2.318675994873046875e+01 1.463205069303512573e-01 9.379003942012786865e-02 7.203316688537597656e-02 -2.236011177301406860e-01
4.891000000000000000e+03 6.736721801757812500e+01 -2.120126342773437500e+01 -3.584183752536773682e-02 6.960390567779541016e+00 2.077364683151245117e+00 3.335557281970977783e-01
4.892000000000000000e+03 1.326624965667724609e+01 2.250724029541015625e+01 -3.225068794563412666e-03 5.641014501452445984e-02 1.595552265644073486e-02 9.856173768639564514e-03
4.893000000000000000e+03 1.110997962951660156e+01 -1.955455017089843750e+01 9.856022149324417114e-02 -2.901878952980041504e-01 -5.748829990625381470e-02 -2.230814844369888306e-01
4.894000000000000000e+03 1.155273151397705078e+01 -2.086789703369140625e+01 1.096164286136627197e-01 -2.786830663681030273e-01 -5.071999505162239075e-02 -2.122113108634948730e-01
4.895000000000000000e+03 6.811279296875000000e+01 1.446839904785156250e+01 -6.782353520393371582e-01 7.864871978759765625e+00 2.155990839004516602e+00 -5.880970954895019531e-01
4.896000000000000000e+03 1.130803775787353516e+01 -2.855593872070312500e+01 7.846302539110183716e-02 -3.368839025497436523e-01 -7.752626389265060425e-02 -1.358334422111511230e-01
4.897000000000000000e+03 1.381415748596191406e+01 -2.282066726684570312e+01 1.007100865244865417e-01 -1.750469952821731567e-01 -2.230107225477695465e-02 -2.035592645406723022e-01
4.898000000000000000e+03 6.422644042968750000e+01 -1.559629058837890625e+01 -1.148127168416976929e-01 6.441858291625976562e+00 1.898113727569580078e+00 3.048411905765533447e-01
4.899000000000000000e+03 6.797263336181640625e+01 6.521703243255615234e+00 -4.024565815925598145e-01 7.434319019317626953e+00 2.109558820724487305e+00 -1.569725275039672852e-01
4.900000000000000000e+03 5.152809524536132812e+01 -1.979612159729003906e+01 -1.906338632106781006e-01 4.164511680603027344e+00 1.192163228988647461e+00 1.148070320487022400e-01
4.901000000000000000e+03 4.702481079101562500e+01 -1.765248489379882812e+01 -1.790599673986434937e-01 3.058946132659912109e+00 8.639658093452453613e-01 -7.556828856468200684e-02
4.902000000000000000e+03 5.551687622070312500e+01 -2.485573577880859375e+01 -6.112701445817947388e-02 5.037497043609619141e+00 1.492910981178283691e+00 3.241093158721923828e-01
4.903000000000000000e+03 3.962488555908203125e+01 4.043170547485351562e+01 1.172944158315658569e-01 7.539371401071548462e-02 5.780643969774246216e-02 2.885623462498188019e-02
4.904000000000000000e+03 3.252178192138671875e+01 3.672724533081054688e+01 4.632030427455902100e-02 7.997389882802963257e-02 3.788826242089271545e-02 3.565077111124992371e-02
4.905000000000000000e+03 5.539715957641601562e+01 3.063287925720214844e+01 1.845301032066345215e+00 3.991163253784179688e+00 1.750939249992370605e+00 3.089798688888549805e+00
4.906000000000000000e+03 2.766851425170898438e+01 1.746116280555725098e+00 -6.660444736480712891e-01 -3.410900533199310303e-01 -3.021403551101684570e-01 -2.529670596122741699e-01
4.907000000000000000e+03 5.628800964355468750e+01 3.064444732666015625e+01 1.735395550727844238e+00 5.764605522155761719e+00 2.250000238418579102e+00 3.692264318466186523e+00
4.908000000000000000e+03 5.578634262084960938e+01 3.050498771667480469e+01 1.730282783508300781e+00 4.816996097564697266e+00 1.964183688163757324e+00 3.365433692932128906e+00
4.909000000000000000e+03 5.667347717285156250e+01 3.053505516052246094e+01 1.524941205978393555e+00 6.800690650939941406e+00 2.497689485549926758e+00 3.904148340225219727e+00
4.910000000000000000e+03 5.517747497558593750e+01 3.029861450195312500e+01 1.617773652076721191e+00 3.879100561141967773e+00 1.649062275886535645e+00 2.918894529342651367e+00
4.911000000000000000e+03 3.837105560302734375e+01 1.285485267639160156e+01 -4.798532724380493164e-01 8.421609550714492798e-02 -1.186911538243293762e-01 -2.474565058946609497e-01
4.912000000000000000e+03 3.805116271972656250e+01 1.231240081787109375e+01 -4.919716417789459229e-01 6.423876434564590454e-02 -1.283198595046997070e-01 -2.511349320411682129e-01
4.913000000000000000e+03 3.696788024902343750e+01 1.128520202636718750e+01 -5.203467607498168945e-01 -3.929610922932624817e-02 -1.678928732872009277e-01 -2.968474924564361572e-01
4.914000000000000000e+03 4.910091018676757812e+01 2.318540763854980469e+01 3.658176213502883911e-02 1.739981889724731445e+00 5.329691171646118164e-01 8.455380201339721680e-01
4.915000000000000000e+03 4.899834060668945312e+01 2.411120414733886719e+01 9.615520387887954712e-02 1.469402194023132324e+00 4.696672260761260986e-01 7.804849147796630859e-01
4.916000000000000000e+03 4.770651626586914062e+01 2.226656913757324219e+01 -5.309444293379783630e-02 1.335889458656311035e+00 3.848385214805603027e-01 6.019468307495117188e-01
4.917000000000000000e+03 4.833272171020507812e+01 2.266458702087402344e+01 -2.081735432147979736e-02 1.527741432189941406e+00 4.520772099494934082e-01 7.032305598258972168e-01
4.918000000000000000e+03 4.923502349853515625e+01 2.420828247070312500e+01 1.109849214553833008e-01 1.545186996459960938e+00 4.968515634536743164e-01 8.235554695129394531e-01
4.919000000000000000e+03 3.848640823364257812e+01 1.222702789306640625e+01 -4.674690663814544678e-01 1.585789769887924194e-01 -9.266702830791473389e-02 -2.083138376474380493e-01
4.920000000000000000e+03 4.998649215698242188e+01 2.544174385070800781e+01 2.470916360616683960e-01 1.592132091522216797e+00 5.517671108245849609e-01 9.521707296371459961e-01
4.921000000000000000e+03 2.982837104797363281e+01 2.007302999496459961e+00 -4.821021556854248047e-01 -2.754051685333251953e-01 -2.272522002458572388e-01 -1.610882878303527832e-01
4.922000000000000000e+03 2.880866813659667969e+01 2.508315801620483398e+00 -6.721003055572509766e-01 -3.542648851871490479e-01 -3.079095482826232910e-01 -2.636488378047943115e-01
4.923000000000000000e+03 3.788951873779296875e+01 1.194839191436767578e+01 -4.897193312644958496e-01 6.832688301801681519e-02 -1.264177262783050537e-01 -2.494820654392242432e-01
4.924000000000000000e+03 4.821908950805664062e+01 2.213564491271972656e+01 -4.913228005170822144e-02 1.574396133422851562e+00 4.575791656970977783e-01 6.936929821968078613e-01
4.925000000000000000e+03 4.345232772827148438e+01 1.748687362670898438e+01 -2.941655218601226807e-01 7.377954125404357910e-01 1.330889612436294556e-01 1.021867841482162476e-01
4.926000000000000000e+03 2.518443298339843750e+01 2.104067420959472656e+01 5.926449224352836609e-02 1.187702640891075134e-01 5.341042578220367432e-02 8.665969222784042358e-02
4.927000000000000000e+03 5.116595077514648438e+01 2.641867446899414062e+01 4.151902198791503906e-01 1.944545269012451172e+00 7.079206705093383789e-01 1.249903440475463867e+00
4.928000000000000000e+03 5.045193481445312500e+01 2.621729278564453125e+01 3.512399792671203613e-01 1.610511660575866699e+00 5.885254740715026855e-01 1.036945223808288574e+00
4.929000000000000000e+03 4.580560684204101562e+01 1.978541946411132812e+01 -1.922991573810577393e-01 1.100108981132507324e+00 2.723429501056671143e-01 3.616023063659667969e-01
4.930000000000000000e+03 3.866513824462890625e+01 1.305913543701171875e+01 -4.749234318733215332e-01 1.173056066036224365e-01 -1.072853505611419678e-01 -2.290748506784439087e-01
4.931000000000000000e+03 5.249599456787109375e+01 2.730589294433593750e+01 6.159266233444213867e-01 2.477676391601562500e+00 9.280809164047241211e-01 1.665613532066345215e+00
4.932000000000000000e+03 5.273690414428710938e+01 2.752465820312500000e+01 6.643027067184448242e-01 2.598510265350341797e+00 9.788438677787780762e-01 1.758970022201538086e+00
4.933000000000000000e+03 4.614608001708984375e+01 2.089117622375488281e+01 -1.583021134138107300e-01 1.039322733879089355e+00 2.643061876296997070e-01 3.787429034709930420e-01
4.934000000000000000e+03 5.066963577270507812e+01 2.645902442932128906e+01 3.846519589424133301e-01 1.634034037590026855e+00 6.056057810783386230e-01 1.078298330307006836e+00
4.935000000000000000e+03 5.234062957763671875e+01 2.702889633178710938e+01 5.555954575538635254e-01 2.476183176040649414e+00 9.095336198806762695e-01 1.613156199455261230e+00
4.936000000000000000e+03 5.720275115966796875e+01 3.089448547363281250e+01 1.439409136772155762e+00 8.148587226867675781e+00 2.876398801803588867e+00 4.165131568908691406e+00
4.937000000000000000e+03 5.432227706909179688e+01 2.897700309753417969e+01 1.037243127822875977e+00 3.511431217193603516e+00 1.364602327346801758e+00 2.436090469360351562e+00
4.938000000000000000e+03 5.292205047607421875e+01 2.779204750061035156e+01 7.173526287078857422e-01 2.646032810211181641e+00 1.009015679359436035e+00 1.825076580047607422e+00
4.939000000000000000e+03 5.272547149658203125e+01 2.797745704650878906e+01 7.459826469421386719e-01 2.382244825363159180e+00 9.384682178497314453e-01 1.720938563346862793e+00
4.940000000000000000e+03 3.939594650268554688e+01 1.393721866607666016e+01 -4.568338990211486816e-01 1.896926760673522949e-01 -8.014237135648727417e-02 -1.944146901369094849e-01
4.941000000000000000e+03 1.288208580017089844e+01 1.020920944213867188e+01 5.373632535338401794e-02 2.270292639732360840e-01 8.422967791557312012e-02 3.711219877004623413e-02
4.942000000000000000e+03 1.862983512878417969e+01 1.464358711242675781e+01 7.157690823078155518e-02 1.660855114459991455e-01 7.129872590303421021e-02 1.056716665625572205e-01
4.943000000000000000e+03 5.033272171020507812e+01 2.551642608642578125e+01 2.776890993118286133e-01 1.731741547584533691e+00 6.028292179107666016e-01 1.042524576187133789e+00
4.944000000000000000e+03 4.947356414794921875e+01 2.456808853149414062e+01 1.537162959575653076e-01 1.583545565605163574e+00 5.211785435676574707e-01 8.706752657890319824e-01
4.945000000000000000e+03 4.992192077636718750e+01 2.424350166320800781e+01 1.407337337732315063e-01 1.871389746665954590e+00 6.036370396614074707e-01 9.896438717842102051e-01
4.946000000000000000e+03 4.040401840209960938e+01 1.498776817321777344e+01 -4.214502573013305664e-01 2.977049946784973145e-01 -3.712358325719833374e-02 -1.411883234977722168e-01
4.947000000000000000e+03 4.096056747436523438e+01 1.491515159606933594e+01 -3.961149752140045166e-01 4.265653789043426514e-01 9.135124273598194122e-03 -8.034671843051910400e-02
4.948000000000000000e+03 5.199269485473632812e+01 2.652641677856445312e+01 4.697561562061309814e-01 2.404616355895996094e+00 8.623117208480834961e-01 1.513462185859680176e+00
4.949000000000000000e+03 5.204947280883789062e+01 2.721540832519531250e+01 5.813645124435424805e-01 2.214913606643676758e+00 8.388833999633789062e-01 1.512083053588867188e+00
4.950000000000000000e+03 4.719298553466796875e+01 2.224646377563476562e+01 -8.232780545949935913e-02 1.165110111236572266e+00 3.248346745967864990e-01 5.004133582115173340e-01
4.951000000000000000e+03 1.717117881774902344e+01 1.375858116149902344e+01 6.361233443021774292e-02 1.788237988948822021e-01 7.273083925247192383e-02 1.003046557307243347e-01
4.952000000000000000e+03 1.951128959655761719e+01 1.674874687194824219e+01 5.767417699098587036e-02 1.481171548366546631e-01 6.173739954829216003e-02 9.127780050039291382e-02
4.953000000000000000e+03 3.768662643432617188e+01 1.154316902160644531e+01 -4.905178844928741455e-01 6.668026745319366455e-02 -1.271512955427169800e-01 -2.476456612348556519e-01
4.954000000000000000e+03 4.499822998046875000e+01 1.944940185546875000e+01 -2.161752730607986450e-01 9.053677916526794434e-01 2.067577540874481201e-01 2.563931643962860107e-01
4.955000000000000000e+03 5.065499496459960938e+01 2.560842323303222656e+01 3.045027852058410645e-01 1.879724144935607910e+00 6.552680730819702148e-01 1.136467099189758301e+00
4.956000000000000000e+03 5.166732788085937500e+01 2.633338356018066406e+01 4.320623576641082764e-01 2.251667261123657227e+00 8.051188588142395020e-01 1.412555932998657227e+00
4.957000000000000000e+03 1.200959777832031250e+01 1.778139877319335938e+01 5.144107155501842499e-03 7.565893232822418213e-02 2.424091100692749023e-02 9.403661824762821198e-03
4.958000000000000000e+03 5.111607742309570312e+01 2.585453033447265625e+01 3.460835814476013184e-01 2.080300807952880859e+00 7.279153466224670410e-01 1.250850439071655273e+00
4.959000000000000000e+03 5.137362670898437500e+01 2.611740875244140625e+01 3.948640227317810059e-01 2.147649288177490234e+00 7.627539634704589844e-01 1.329779267311096191e+00
4.960000000000000000e+03 5.597283935546875000e+01 3.082234954833984375e+01 1.920965075492858887e+00 4.988364219665527344e+00 2.072798967361450195e+00 3.542330503463745117e+00
4.961000000000000000e+03 2.455541229248046875e+01 2.114130401611328125e+01 5.236031860113143921e-02 1.195767521858215332e-01 5.158112198114395142e-02 8.345508575439453125e-02
4.962000000000000000e+03 2.404334640502929688e+01 1.982147026062011719e+01 6.440147757530212402e-02 1.254989951848983765e-01 5.697014182806015015e-02 9.227851033210754395e-02
4.963000000000000000e+03 1.646533012390136719e+01 1.325118827819824219e+01 5.969189479947090149e-02 1.878952234983444214e-01 7.427613437175750732e-02 9.656999260187149048e-02
4.964000000000000000e+03 5.775359725952148438e+01 3.019014549255371094e+01 6.438905596733093262e-01 9.521163940429687500e+00 3.049516439437866211e+00 3.581813335418701172e+00
4.965000000000000000e+03 5.708608627319335938e+01 3.047569656372070312e+01 1.228738427162170410e+00 7.924996852874755859e+00 2.746120691299438477e+00 3.905960321426391602e+00
4.966000000000000000e+03 1.871534919738769531e+01 1.582546615600585938e+01 5.735027417540550232e-02 1.563203334808349609e-01 6.410118192434310913e-02 9.346576035022735596e-02
4.967000000000000000e+03 3.987354660034179688e+01 1.449306392669677734e+01 -4.383129477500915527e-01 2.287792712450027466e-01 -6.286010146141052246e-02 -1.739718616008758545e-01
4.968000000000000000e+03 5.548714065551757812e+01 3.176471710205078125e+01 2.398721218109130859e+00 2.959101915359497070e+00 1.607347011566162109e+00 2.735046148300170898e+00
4.969000000000000000e+03 4.417226791381835938e+01 1.811180114746093750e+01 -2.641323506832122803e-01 8.535929322242736816e-01 1.768381744623184204e-01 1.719569116830825806e-01
4.970000000000000000e+03 4.440628433227539062e+01 1.839972877502441406e+01 -2.556959092617034912e-01 8.786706328392028809e-01 1.868924200534820557e-01 1.972558945417404175e-01
4.971000000000000000e+03 4.038020706176757812e+01 1.447915172576904297e+01 -4.137390851974487305e-01 3.493869304656982422e-01 -1.930564828217029572e-02 -1.199424937367439270e-01
4.972000000000000000e+03 4.545786666870117188e+01 2.004565811157226562e+01 -1.964308470487594604e-01 9.487617015838623047e-01 2.256992608308792114e-01 2.989040613174438477e-01
4.973000000000000000e+03 4.282396697998046875e+01 1.708708572387695312e+01 -3.186571300029754639e-01 6.272037625312805176e-01 9.256398677825927734e-02 4.012662544846534729e-02
4.974000000000000000e+03 2.692932510375976562e+01 1.407861113548278809e+00 -7.289637923240661621e-01 -2.787114679813385010e-01 -3.023025691509246826e-01 -2.382789552211761475e-01
4.975000000000000000e+03 4.012371444702148438e+01 1.424969768524169922e+01 -4.282546639442443848e-01 3.107794821262359619e-01 -3.524255380034446716e-02 -1.378266811370849609e-01
4.976000000000000000e+03 4.687656784057617188e+01 2.124417304992675781e+01 -1.243347823619842529e-01 1.221897006034851074e+00 3.292686641216278076e-01 4.869724214076995850e-01
4.977000000000000000e+03 4.723728179931640625e+01 2.178413009643554688e+01 -9.595058113336563110e-02 1.261353254318237305e+00 3.496208190917968750e-01 5.266820788383483887e-01
4.978000000000000000e+03 4.150073623657226562e+01 1.545266628265380859e+01 -3.789802193641662598e-01 4.985004067420959473e-01 3.585605323314666748e-02 -4.363019019365310669e-02
4.979000000000000000e+03 3.645782089233398438e+01 1.059145832061767578e+01 -5.378410816192626953e-01 -7.057418674230575562e-02 -1.825245767831802368e-01 -3.076014220714569092e-01
4.980000000000000000e+03 3.015633964538574219e+01 2.544902324676513672e+00 -5.394248962402343750e-01 -2.702564895153045654e-01 -2.429044097661972046e-01 -1.958588808774948120e-01
4.981000000000000000e+03 3.117098808288574219e+01 2.895920276641845703e+00 -4.698488712310791016e-01 -1.893109828233718872e-01 -1.977479606866836548e-01 -1.838758587837219238e-01
4.982000000000000000e+03 2.744859886169433594e+01 1.556103587150573730e+00 -6.758340597152709961e-01 -2.980025410652160645e-01 -2.921509742736816406e-01 -2.081701308488845825e-01
4.983000000000000000e+03 1.446198654174804688e+01 1.172032260894775391e+01 5.080176889896392822e-02 2.109315097332000732e-01 7.851998507976531982e-02 7.397715747356414795e-02
4.984000000000000000e+03 5.928253555297851562e+01 2.938459968566894531e+01 -3.316914439201354980e-01 1.142909526824951172e+01 3.329221010208129883e+00 1.852954983711242676e+00
4.985000000000000000e+03 1.332579612731933594e+01 1.079384326934814453e+01 5.008001998066902161e-02 2.187435030937194824e-01 8.064705878496170044e-02 4.828277230262756348e-02
4.986000000000000000e+03 2.281745719909667969e+01 1.971774673461914062e+01 5.652754753828048706e-02 1.268957704305648804e-01 5.502699315547943115e-02 8.746138960123062134e-02
4.987000000000000000e+03 3.632397079467773438e+01 1.025358963012695312e+01 -5.186505317687988281e-01 -6.701287627220153809e-02 -1.756990253925323486e-01 -2.988584339618682861e-01
4.988000000000000000e+03 3.747037887573242188e+01 1.109017086029052734e+01 -4.869680106639862061e-01 6.873361766338348389e-02 -1.254703104496002197e-01 -2.418404817581176758e-01
4.989000000000000000e+03 4.676110458374023438e+01 2.171270561218261719e+01 -1.159043982625007629e-01 1.106289505958557129e+00 2.971155345439910889e-01 4.512934088706970215e-01
4.990000000000000000e+03 4.648462295532226562e+01 2.067013549804687500e+01 -1.507637798786163330e-01 1.187436103820800781e+00 3.110017180442810059e-01 4.429807066917419434e-01
4.991000000000000000e+03 1.976451492309570312e+01 1.728072357177734375e+01 5.358501151204109192e-02 1.450400650501251221e-01 5.958752334117889404e-02 8.884581178426742554e-02
4.992000000000000000e+03 1.933708763122558594e+01 1.622610092163085938e+01 5.963483080267906189e-02 1.523295938968658447e-01 6.358932703733444214e-02 9.484337270259857178e-02
4.993000000000000000e+03 4.745373153686523438e+01 2.203286361694335938e+01 -7.408121973276138306e-02 1.294539451599121094e+00 3.661374449729919434e-01 5.597582459449768066e-01
4.994000000000000000e+03 3.153573799133300781e+01 2.610046565532684326e-01 -1.459828019142150879e-01 -1.057440266013145447e-01 -7.551804929971694946e-02 -1.029277872294187546e-02
4.995000000000000000e+03 3.270088577270507812e+01 -2.208047956228256226e-01 -6.856396794319152832e-02 1.419764943420886993e-02 -1.630989648401737213e-02 2.828823402523994446e-03
4.996000000000000000e+03 2.006852531433105469e+01 1.781057167053222656e+01 5.161891132593154907e-02 1.402879357337951660e-01 5.757205560803413391e-02 8.568730950355529785e-02
4.997000000000000000e+03 3.684893417358398438e+01 1.056462001800537109e+01 -5.013835430145263672e-01 3.254717215895652771e-03 -1.494386494159698486e-01 -2.663508057594299316e-01
4.998000000000000000e+03 3.607707595825195312e+01 6.829637050628662109e+00 -3.655045330524444580e-01 1.616536825895309448e-01 -6.115525215864181519e-02 -1.501118391752243042e-01
4.999000000000000000e+03 1.576438999176025391e+01 1.231350135803222656e+01 6.053351983428001404e-02 2.039203196763992310e-01 7.933615148067474365e-02 9.755872935056686401e-02
5.000000000000000000e+03 1.427938461303710938e+01 1.219960880279541016e+01 4.589522257447242737e-02 1.966200619935989380e-01 7.275458425283432007e-02 6.635526567697525024e-02
5.001000000000000000e+03 3.660617828369140625e+01 9.138164520263671875e+00 -4.528655111789703369e-01 7.653736323118209839e-02 -1.128984466195106506e-01 -2.099869400262832642e-01
5.002000000000000000e+03 3.582093048095703125e+01 8.182466506958007812e+00 -4.459252059459686279e-01 1.568379066884517670e-02 -1.290724277496337891e-01 -2.256868779659271240e-01
5.003000000000000000e+03 4.227373504638671875e+01 1.719429779052734375e+01 -3.406208753585815430e-01 4.803152084350585938e-01 4.190830513834953308e-02 -3.109395876526832581e-02
5.004000000000000000e+03 4.170318984985351562e+01 1.623957443237304688e+01 -3.686061799526214600e-01 4.575685262680053711e-01 2.668870240449905396e-02 -5.637699738144874573e-02
5.005000000000000000e+03 2.870973205566406250e+01 1.543694496154785156e+00 -4.858035445213317871e-01 -3.012685775756835938e-01 -2.361216396093368530e-01 -1.541896015405654907e-01
5.006000000000000000e+03 4.313248443603515625e+01 1.728726768493652344e+01 -3.050889670848846436e-01 6.820707321166992188e-01 1.130945309996604919e-01 6.983532011508941650e-02
5.007000000000000000e+03 1.301947402954101562e+01 8.639049530029296875e+00 7.105084508657455444e-02 2.905772328376770020e-01 1.084884256124496460e-01 4.057879000902175903e-02
5.008000000000000000e+03 1.303793048858642578e+01 9.100650787353515625e+00 6.472180783748626709e-02 2.740536928176879883e-01 1.016326472163200378e-01 4.181530326604843140e-02
5.009000000000000000e+03 3.612327575683593750e+01 9.499883651733398438e+00 -4.996494352817535400e-01 -2.837578207254409790e-02 -1.584075689315795898e-01 -2.682987749576568604e-01
5.010000000000000000e+03 4.170549774169921875e+01 1.675595474243164062e+01 -3.678852915763854980e-01 3.981539309024810791e-01 9.080593474209308624e-03 -8.001015335321426392e-02
5.011000000000000000e+03 4.173942565917968750e+01 1.571767902374267578e+01 -3.683208823204040527e-01 5.228232741355895996e-01 4.635071381926536560e-02 -2.856944687664508820e-02
5.012000000000000000e+03 2.323053359985351562e+01 1.949346542358398438e+01 5.843783542513847351e-02 1.291947215795516968e-01 5.628976598381996155e-02 8.977773040533065796e-02
5.013000000000000000e+03 1.403632068634033203e+01 1.155829620361328125e+01 4.910811409354209900e-02 2.091240584850311279e-01 7.746965438127517700e-02 6.522145122289657593e-02
5.014000000000000000e+03 2.440433883666992188e+01 2.189605712890625000e+01 4.953645914793014526e-02 1.182324364781379700e-01 5.033066868782043457e-02 8.022141456604003906e-02
5.015000000000000000e+03 3.671512222290039062e+01 1.018243026733398438e+01 -4.881750941276550293e-01 1.708828099071979523e-02 -1.413260400295257568e-01 -2.542392015457153320e-01
5.016000000000000000e+03 2.912696266174316406e+01 1.911347627639770508e+00 -5.490749478340148926e-01 -3.020684719085693359e-01 -2.553430199623107910e-01 -1.837110221385955811e-01
5.017000000000000000e+03 2.886105346679687500e+01 2.056133270263671875e+00 -5.749934315681457520e-01 -3.264611661434173584e-01 -2.704364061355590820e-01 -1.980393230915069580e-01
5.018000000000000000e+03 1.590484905242919922e+01 1.299457168579101562e+01 5.529130995273590088e-02 1.919690668582916260e-01 7.417811453342437744e-02 9.149100631475448608e-02
5.019000000000000000e+03 2.156893730163574219e+01 1.851456451416015625e+01 5.680300295352935791e-02 1.355352699756622314e-01 5.770147964358329773e-02 8.976669609546661377e-02
5.020000000000000000e+03 2.178263473510742188e+01 1.894925880432128906e+01 5.396455526351928711e-02 1.332777440547943115e-01 5.617269128561019897e-02 8.791445195674896240e-02
5.021000000000000000e+03 1.533757209777832031e+01 1.207791900634765625e+01 5.767257511615753174e-02 2.082581222057342529e-01 7.977920770645141602e-02 9.097741544246673584e-02
5.022000000000000000e+03 2.506218528747558594e+01 2.218165969848632812e+01 4.827348887920379639e-02 1.148131415247917175e-01 4.892598837614059448e-02 7.968629151582717896e-02
5.023000000000000000e+03 2.563698387145996094e+01 2.262635421752929688e+01 4.905997216701507568e-02 1.145682856440544128e-01 4.908847808837890625e-02 7.960805296897888184e-02
5.024000000000000000e+03 3.568011474609375000e+01 7.605350017547607422e+00 -4.215132594108581543e-01 3.932837396860122681e-02 -1.146554648876190186e-01 -2.073782235383987427e-01
5.025000000000000000e+03 2.879577827453613281e+01 2.696335220336914062e+01 4.519302397966384888e-02 9.999930113554000854e-02 4.355769976973533630e-02 7.180210947990417480e-02
5.026000000000000000e+03 3.091592979431152344e+01 2.901001930236816406e+01 4.122498258948326111e-02 9.084611386060714722e-02 3.962133079767227173e-02 6.277105957269668579e-02
5.027000000000000000e+03 2.821673583984375000e+01 1.269641280174255371e+00 -4.979636967182159424e-01 -3.119235038757324219e-01 -2.429661601781845093e-01 -1.648794263601303101e-01
5.028000000000000000e+03 2.759335708618164062e+01 2.577046966552734375e+01 3.686552494764328003e-02 1.042840778827667236e-01 4.234487935900688171e-02 6.854008138179779053e-02
5.029000000000000000e+03 2.591738319396972656e+01 2.519431686401367188e+01 3.522937744855880737e-02 1.053267121315002441e-01 4.216682538390159607e-02 6.757727265357971191e-02
5.030000000000000000e+03 3.531947708129882812e+01 6.207099914550781250e+00 -3.781784474849700928e-01 6.497088074684143066e-02 -9.396227449178695679e-02 -1.764206588268280029e-01
5.031000000000000000e+03 2.815786933898925781e+01 2.664026451110839844e+01 4.079065099358558655e-02 9.572350978851318359e-02 4.095424711704254150e-02 6.460940837860107422e-02
5.032000000000000000e+03 2.921821212768554688e+01 2.805634307861328125e+01 4.612619802355766296e-02 9.593997150659561157e-02 4.261985048651695251e-02 6.774739176034927368e-02
5.033000000000000000e+03 2.945713806152343750e+01 1.909161806106567383e+00 -4.928246736526489258e-01 -2.762185335159301758e-01 -2.307129651308059692e-01 -1.469870656728744507e-01
5.034000000000000000e+03 2.987970542907714844e+01 9.143756628036499023e-01 -3.168936371803283691e-01 -2.195244431495666504e-01 -1.609254181385040283e-01 -6.117685511708259583e-02
5.035000000000000000e+03 2.844556617736816406e+01 2.781602859497070312e+01 3.689322993159294128e-02 9.372107684612274170e-02 3.918429091572761536e-02 5.953886732459068298e-02
5.036000000000000000e+03 2.995457458496093750e+01 2.913148117065429688e+01 4.779239743947982788e-02 9.223178029060363770e-02 4.200725257396697998e-02 6.285119056701660156e-02
5.037000000000000000e+03 2.678909301757812500e+01 2.551088714599609375e+01 3.684356063604354858e-02 1.049159914255142212e-01 4.252786561846733093e-02 6.825526058673858643e-02
5.038000000000000000e+03 2.710444068908691406e+01 2.603674316406250000e+01 4.035940021276473999e-02 9.985579550266265869e-02 4.206455871462821960e-02 6.907305866479873657e-02
5.039000000000000000e+03 2.501186180114746094e+01 2.475966262817382812e+01 3.283722326159477234e-02 1.071824282407760620e-01 4.200589656829833984e-02 6.711314618587493896e-02
5.040000000000000000e+03 3.533783721923828125e+01 7.408913135528564453e+00 -4.282360672950744629e-01 -3.391096834093332291e-05 -1.284810006618499756e-01 -2.257628738880157471e-01
5.041000000000000000e+03 3.171687889099121094e+01 3.275965452194213867e+00 -4.599707722663879395e-01 -1.543077826499938965e-01 -1.842835694551467896e-01 -2.008036375045776367e-01
5.042000000000000000e+03 3.193050575256347656e+01 4.829950332641601562e-01 -1.663491129875183105e-01 -7.505854219198226929e-02 -7.242229580879211426e-02 -2.230675518512725830e-02
5.043000000000000000e+03 5.888104629516601562e+01 2.953739738464355469e+01 -2.111700922250747681e-01 1.113774585723876953e+01 3.277972936630249023e+00 2.332707881927490234e+00
5.044000000000000000e+03 5.943735122680664062e+01 2.982442855834960938e+01 -2.326587140560150146e-01 1.211059665679931641e+01 3.563381433486938477e+00 1.783312201499938965e+00
5.045000000000000000e+03 3.226917266845703125e+01 1.302004754543304443e-01 -1.117254197597503662e-01 -4.420391097664833069e-02 -4.677879810333251953e-02 4.344165790826082230e-04
5.046000000000000000e+03 3.346711730957031250e+01 3.564878702163696289e+00 -3.433584272861480713e-01 1.060657741618342698e-04 -1.029757037758827209e-01 -1.495956182479858398e-01
5.047000000000000000e+03 3.328176879882812500e+01 4.654073238372802734e+00 -4.163832366466522217e-01 -7.991252839565277100e-02 -1.488887369632720947e-01 -2.367229312658309937e-01
5.048000000000000000e+03 6.149338150024414062e+01 2.883212852478027344e+01 -3.697138428688049316e-01 1.170945835113525391e+01 3.401923418045043945e+00 -1.751832813024520874e-01
5.049000000000000000e+03 3.513599014282226562e+01 7.147622585296630859e+00 -4.244820177555084229e-01 -1.137235574424266815e-02 -1.307563185691833496e-01 -2.261479943990707397e-01
5.050000000000000000e+03 6.003394317626953125e+01 2.900544548034667969e+01 -5.047334432601928711e-01 1.163976192474365234e+01 3.340508460998535156e+00 1.058038949966430664e+00
5.051000000000000000e+03 1.814709854125976562e+01 1.441814327239990234e+01 6.835167855024337769e-02 1.694815456867218018e-01 7.134996354579925537e-02 1.037372648715972900e-01
5.052000000000000000e+03 3.641388320922851562e+01 -1.722318291664123535e+00 4.493716359138488770e-02 5.122398138046264648e-01 1.671530902385711670e-01 4.682148993015289307e-02
5.053000000000000000e+03 3.370186614990234375e+01 -6.651633381843566895e-01 -1.238373201340436935e-02 1.174122318625450134e-01 3.150855004787445068e-02 2.265542373061180115e-02
5.054000000000000000e+03 3.078077697753906250e+01 5.915006399154663086e-01 -2.164218425750732422e-01 -1.652071326971054077e-01 -1.144886985421180725e-01 -3.360059857368469238e-02
5.055000000000000000e+03 3.022747039794921875e+01 2.068760871887207031e+00 -4.484149813652038574e-01 -2.307444661855697632e-01 -2.037478387355804443e-01 -1.404417157173156738e-01
5.056000000000000000e+03 3.821203613281250000e+01 -3.089954614639282227e+00 7.606735825538635254e-02 8.455904722213745117e-01 2.764973342418670654e-01 5.389378592371940613e-02
5.057000000000000000e+03 3.725864028930664062e+01 -2.094493150711059570e+00 6.372483074665069580e-02 6.522764563560485840e-01 2.148003727197647095e-01 5.659884586930274963e-02
5.058000000000000000e+03 3.319654083251953125e+01 -5.032405853271484375e-01 -4.774038866162300110e-02 5.918292328715324402e-02 3.432759782299399376e-03 2.548510767519474030e-02
5.059000000000000000e+03 6.224549484252929688e+01 2.734374046325683594e+01 -6.800526380538940430e-01 1.075000953674316406e+01 3.020987033843994141e+00 -3.864732682704925537e-01
5.060000000000000000e+03 1.121018218994140625e+01 1.073977470397949219e+01 5.672079324722290039e-02 1.418112069368362427e-01 5.955959856510162354e-02 -2.815773012116551399e-03
5.061000000000000000e+03 2.034742736816406250e+01 1.835802459716796875e+01 4.838220030069351196e-02 1.373277604579925537e-01 5.571299046277999878e-02 8.389750868082046509e-02
5.062000000000000000e+03 3.158494949340820312e+01 3.270795059204101562e+01 4.782103002071380615e-02 8.616080135107040405e-02 4.019454866647720337e-02 4.999914392828941345e-02
5.063000000000000000e+03 1.196544837951660156e+01 1.541384029388427734e+01 1.490439195185899734e-02 9.979534894227981567e-02 3.440992161631584167e-02 1.359794754534959793e-02
5.064000000000000000e+03 1.094985389709472656e+01 1.486018466949462891e+01 1.789612509310245514e-02 8.086172491312026978e-02 2.962735667824745178e-02 2.542361617088317871e-03
5.065000000000000000e+03 1.717466354370117188e+01 1.424126434326171875e+01 5.735522881150245667e-02 1.729157269001007080e-01 6.908128410577774048e-02 9.496778994798660278e-02
5.066000000000000000e+03 6.710529327392578125e+01 2.313438796997070312e+01 -7.234259247779846191e-01 8.817435264587402344e+00 2.428202867507934570e+00 -1.218810915946960449e+00
5.067000000000000000e+03 6.709992980957031250e+01 2.219194984436035156e+01 -8.157998919486999512e-01 8.684173583984375000e+00 2.360512018203735352e+00 -1.120041728019714355e+00
5.068000000000000000e+03 6.822686767578125000e+01 2.126434898376464844e+01 -7.427076101303100586e-01 8.459753990173339844e+00 2.315114021301269531e+00 -1.160003304481506348e+00
5.069000000000000000e+03 6.840822601318359375e+01 1.936009025573730469e+01 -7.552073597908020020e-01 8.254872322082519531e+00 2.249899387359619141e+00 -1.000830531120300293e+00
5.070000000000000000e+03 6.540077972412109375e+01 -8.475715637207031250e+00 -1.744645088911056519e-01 6.643371582031250000e+00 1.940672039985656738e+00 2.261479794979095459e-01
5.071000000000000000e+03 6.168133926391601562e+01 2.787749671936035156e+01 -6.459994912147521973e-01 1.107025051116943359e+01 3.127275228500366211e+00 -1.020079851150512695e-01
5.072000000000000000e+03 6.652984619140625000e+01 3.546597659587860107e-01 -2.716426849365234375e-01 7.019131660461425781e+00 2.024246692657470703e+00 6.918343156576156616e-02
5.073000000000000000e+03 1.184540557861328125e+01 8.325468063354492188e+00 9.066110849380493164e-02 2.397061139345169067e-01 9.911016374826431274e-02 -2.005117014050483704e-02
5.074000000000000000e+03 6.546069335937500000e+01 1.005695581436157227e+00 -3.079929351806640625e-01 6.829094886779785156e+00 1.956330657005310059e+00 7.821331918239593506e-02
5.075000000000000000e+03 3.921363830566406250e+01 -3.099817037582397461e+00 4.727915301918983459e-02 1.022445440292358398e+00 3.209173679351806641e-01 6.566829979419708252e-02
5.076000000000000000e+03 1.156220626831054688e+01 2.094398498535156250e+01 -3.671817947179079056e-03 4.169515892863273621e-02 1.140700280666351318e-02 7.998626679182052612e-04
5.077000000000000000e+03 6.575279235839843750e+01 4.779109954833984375e+00 -4.182070493698120117e-01 7.004682540893554688e+00 1.975942730903625488e+00 -1.952905766665935516e-02
5.078000000000000000e+03 6.510799407958984375e+01 4.068502902984619141e+00 -4.069219827651977539e-01 6.857686042785644531e+00 1.935229182243347168e+00 2.337582223117351532e-02
5.079000000000000000e+03 6.503697967529296875e+01 2.583807754516601562e+01 -5.817760229110717773e-01 9.702845573425292969e+00 2.736320972442626953e+00 -1.160455107688903809e+00
5.080000000000000000e+03 6.548037719726562500e+01 2.906207847595214844e+01 5.576724410057067871e-01 1.011450767517089844e+01 3.201653957366943359e+00 -1.633888721466064453e+00
5.081000000000000000e+03 4.020762252807617188e+01 -4.035184860229492188e+00 4.643760249018669128e-02 1.228381991386413574e+00 3.824459016323089600e-01 6.294189393520355225e-02
5.082000000000000000e+03 6.634858703613281250e+01 2.298616600036621094e+01 -8.276152610778808594e-01 8.909057617187500000e+00 2.424432754516601562e+00 -1.096392154693603516e+00
5.083000000000000000e+03 6.482717895507812500e+01 -2.507042884826660156e+00 -2.536315619945526123e-01 6.620449066162109375e+00 1.910045266151428223e+00 1.535430103540420532e-01
5.084000000000000000e+03 6.571376800537109375e+01 -3.052104711532592773e+00 -2.283267825841903687e-01 6.794823646545410156e+00 1.969949126243591309e+00 1.476531922817230225e-01
5.085000000000000000e+03 6.632146453857421875e+01 5.474215030670166016e+00 -4.208580553531646729e-01 7.133181571960449219e+00 2.013697147369384766e+00 -5.844874680042266846e-02
5.086000000000000000e+03 6.657972717285156250e+01 4.157863140106201172e+00 -3.713751733303070068e-01 7.131259441375732422e+00 2.027965307235717773e+00 -2.887166664004325867e-02
5.087000000000000000e+03 6.786228179931640625e+01 1.680319213867187500e+01 -7.750614285469055176e-01 8.036848068237304688e+00 2.178535938262939453e+00 -7.269309759140014648e-01
5.088000000000000000e+03 1.199183940887451172e+01 1.132902622222900391e+01 4.599711298942565918e-02 1.671170592308044434e-01 6.393425166606903076e-02 1.322646904736757278e-02
5.089000000000000000e+03 1.125227737426757812e+01 1.395342636108398438e+01 2.508503012359142303e-02 1.013830006122589111e-01 3.794040903449058533e-02 6.394258234649896622e-03
5.090000000000000000e+03 6.682360839843750000e+01 1.358514881134033203e+01 -7.434142231941223145e-01 7.671893596649169922e+00 2.078543901443481445e+00 -4.212039709091186523e-01
5.091000000000000000e+03 6.721281433105468750e+01 6.813907623291015625e+00 -4.310606718063354492e-01 7.336359500885009766e+00 2.071589708328247070e+00 -1.391100138425827026e-01
5.092000000000000000e+03 6.791171264648437500e+01 1.059230422973632812e+01 -5.491040349006652832e-01 7.606622219085693359e+00 2.117255449295043945e+00 -3.370447158813476562e-01
5.093000000000000000e+03 6.822162628173828125e+01 1.757358360290527344e+01 -7.565944790840148926e-01 8.117438316345214844e+00 2.208253383636474609e+00 -8.373404145240783691e-01
5.094000000000000000e+03 6.549440765380859375e+01 1.751795768737792969e+01 -9.567815065383911133e-01 7.996869564056396484e+00 2.112026453018188477e+00 -4.953334331512451172e-01
5.095000000000000000e+03 6.619414520263671875e+01 -4.405454635620117188e+00 -1.953330338001251221e-01 6.873016834259033203e+00 2.003305196762084961e+00 1.563258171081542969e-01
5.096000000000000000e+03 6.573385620117187500e+01 -5.279331684112548828e+00 -1.928048431873321533e-01 6.765346050262451172e+00 1.971762299537658691e+00 1.777627319097518921e-01
5.097000000000000000e+03 6.538496398925781250e+01 -9.751464843750000000e+00 -1.447460204362869263e-01 6.683748722076416016e+00 1.961700797080993652e+00 2.343235015869140625e-01
5.098000000000000000e+03 1.359924697875976562e+01 2.426606750488281250e+01 -5.402074195444583893e-03 4.931965842843055725e-02 1.317527517676353455e-02 8.250802755355834961e-03
5.099000000000000000e+03 6.718307495117187500e+01 9.520444869995117188e+00 -5.505546927452087402e-01 7.443666934967041016e+00 2.067933559417724609e+00 -2.456503659486770630e-01
5.100000000000000000e+03 6.552447509765625000e+01 -2.117321968078613281e+01 -4.623745381832122803e-02 6.658009052276611328e+00 1.983531475067138672e+00 3.518575429916381836e-01
5.101000000000000000e+03 6.681372070312500000e+01 6.150721073150634766e+00 -4.319197535514831543e-01 7.244152545928955078e+00 2.043669700622558594e+00 -1.028778925538063049e-01
5.102000000000000000e+03 4.251736450195312500e+01 -6.583071231842041016e+00 5.086203105747699738e-03 1.764720678329467773e+00 5.309420824050903320e-01 3.683095052838325500e-02
5.103000000000000000e+03 4.111974334716796875e+01 -3.969938993453979492e+00 3.353335335850715637e-02 1.418345689773559570e+00 4.355637133121490479e-01 7.430739700794219971e-02
5.104000000000000000e+03 3.504615402221679688e+01 3.714751434326171875e+01 5.086058378219604492e-02 6.808629631996154785e-02 3.568406403064727783e-02 2.930344827473163605e-02
5.105000000000000000e+03 1.343274497985839844e+01 -1.639441490173339844e+01 1.393839120864868164e-01 -1.915265470743179321e-01 -1.564279012382030487e-02 -2.568554878234863281e-01
5.106000000000000000e+03 1.443389034271240234e+01 -2.444685173034667969e+01 1.193215772509574890e-01 -1.547890901565551758e-01 -1.064025610685348511e-02 -1.914561688899993896e-01
5.107000000000000000e+03 9.890201568603515625e+00 -2.702944946289062500e+01 6.559263914823532104e-02 -4.073417484760284424e-01 -1.025247350335121155e-01 -1.442176252603530884e-01
5.108000000000000000e+03 4.630996704101562500e+01 -1.958131408691406250e+01 -1.902863085269927979e-01 2.919256687164306641e+00 8.186910748481750488e-01 -1.187497228384017944e-01
5.109000000000000000e+03 4.346392059326171875e+01 -7.761114120483398438e+00 -1.599758863449096680e-02 1.982754707336425781e+00 5.900271534919738770e-01 2.941501885652542114e-02
5.110000000000000000e+03 4.242843627929687500e+01 -7.680204868316650391e+00 1.986996643245220184e-02 1.755007266998291016e+00 5.324631929397583008e-01 6.105927750468254089e-03
5.111000000000000000e+03 1.668770408630371094e+01 -2.477526092529296875e+01 1.337211281061172485e-01 -2.769892290234565735e-02 3.180666267871856689e-02 -2.000516504049301147e-01
5.112000000000000000e+03 1.586612796783447266e+01 -2.876240730285644531e+01 1.127928197383880615e-01 -1.033775880932807922e-01 2.824567491188645363e-03 -1.654131561517715454e-01
5.113000000000000000e+03 1.328805923461914062e+01 -2.144724845886230469e+01 1.224509775638580322e-01 -2.068169116973876953e-01 -2.530977874994277954e-02 -2.108578979969024658e-01
5.114000000000000000e+03 1.056699752807617188e+01 2.161315917968750000e+01 -6.519275717437267303e-03 2.052083611488342285e-02 4.200467839837074280e-03 -5.926243495196104050e-03
5.115000000000000000e+03 1.178610610961914062e+01 1.927624511718750000e+01 5.747130489908158779e-04 5.792427062988281250e-02 1.754969544708728790e-02 4.730840679258108139e-03
5.116000000000000000e+03 1.415516662597656250e+01 2.313421249389648438e+01 -3.042218275368213654e-03 6.479580700397491455e-02 1.852607540786266327e-02 1.534963306039571762e-02
5.117000000000000000e+03 6.605432891845703125e+01 2.816073799133300781e+01 1.890019029378890991e-01 9.788793563842773438e+00 2.993338584899902344e+00 -1.599820256233215332e+00
5.118000000000000000e+03 6.628466796875000000e+01 -1.432827186584472656e+01 -1.028418913483619690e-01 6.798277854919433594e+00 2.008630752563476562e+00 2.825971245765686035e-01
5.119000000000000000e+03 6.690615844726562500e+01 -1.509650897979736328e+01 -8.766944706439971924e-02 6.922806262969970703e+00 2.050540924072265625e+00 2.888823151588439941e-01
5.120000000000000000e+03 5.485290527343750000e+01 -1.688370895385742188e+01 -1.733714193105697632e-01 4.713684082031250000e+00 1.362093806266784668e+00 2.036312371492385864e-01
5.121000000000000000e+03 6.595430755615234375e+01 9.963631629943847656e+00 -6.200384497642517090e-01 7.291089057922363281e+00 2.001315116882324219e+00 -1.916942000389099121e-01
5.122000000000000000e+03 6.476234436035156250e+01 -4.768723964691162109e+00 -2.073045670986175537e-01 6.579678535461425781e+00 1.911712288856506348e+00 1.817724108695983887e-01
5.123000000000000000e+03 6.426892852783203125e+01 -5.662785053253173828e+00 -2.052435576915740967e-01 6.486463546752929688e+00 1.884365916252136230e+00 1.981275826692581177e-01
5.124000000000000000e+03 6.522178649902343750e+01 -6.131390571594238281e+00 -1.837078332901000977e-01 6.655489921569824219e+00 1.941534638404846191e+00 1.926418840885162354e-01
5.125000000000000000e+03 5.188685989379882812e+01 -1.823666572570800781e+01 -1.994165480136871338e-01 4.159324169158935547e+00 1.187972187995910645e+00 1.243005320429801941e-01
5.126000000000000000e+03 4.965687942504882812e+01 -1.573741054534912109e+01 -1.799890249967575073e-01 3.602135896682739258e+00 1.026644110679626465e+00 4.144829511642456055e-02
5.127000000000000000e+03 5.342318344116210938e+01 -1.692301750183105469e+01 -1.984439641237258911e-01 4.442729473114013672e+00 1.273285627365112305e+00 1.716938912868499756e-01
5.128000000000000000e+03 6.475836944580078125e+01 -1.096434593200683594e+01 -1.404006183147430420e-01 6.550062179565429688e+00 1.922898530960083008e+00 2.496589571237564087e-01
5.129000000000000000e+03 5.305855560302734375e+01 -2.686719894409179688e+01 -1.301437267102301121e-03 4.739261150360107422e+00 1.421387910842895508e+00 3.018945157527923584e-01
5.130000000000000000e+03 5.418626403808593750e+01 -2.239268302917480469e+01 -1.506415307521820068e-01 4.766733646392822266e+00 1.384827613830566406e+00 2.563117742538452148e-01
5.131000000000000000e+03 2.790884208679199219e+01 1.505263805389404297e+00 -5.961656570434570312e-01 -2.915528714656829834e-01 -2.663155496120452881e-01 -1.782674789428710938e-01
5.132000000000000000e+03 3.815372848510742188e+01 1.142219161987304688e+01 -4.594137668609619141e-01 1.710514724254608154e-01 -8.650868386030197144e-02 -1.961735934019088745e-01
5.133000000000000000e+03 2.847043037414550781e+01 1.949142694473266602e+00 -6.036630272865295410e-01 -3.304329812526702881e-01 -2.802288234233856201e-01 -2.204715013504028320e-01
5.134000000000000000e+03 4.921856307983398438e+01 2.234842109680175781e+01 -2.224460989236831665e-02 1.950301766395568848e+00 5.784171819686889648e-01 8.765899538993835449e-01
5.135000000000000000e+03 5.462459182739257812e+01 2.956687927246093750e+01 1.274658322334289551e+00 3.578047037124633789e+00 1.455811619758605957e+00 2.597832918167114258e+00
5.136000000000000000e+03 4.977222061157226562e+01 2.363823890686035156e+01 8.577510714530944824e-02 1.946369171142578125e+00 6.096432805061340332e-01 9.741547703742980957e-01
5.137000000000000000e+03 4.907180404663085938e+01 2.375988578796386719e+01 7.275152206420898438e-02 1.592284202575683594e+00 4.995107054710388184e-01 8.154030442237854004e-01
5.138000000000000000e+03 4.626919937133789062e+01 2.036565589904785156e+01 -1.652752906084060669e-01 1.167127609252929688e+00 3.005557060241699219e-01 4.161093533039093018e-01
5.139000000000000000e+03 5.008451843261718750e+01 2.508061981201171875e+01 2.284049093723297119e-01 1.737326264381408691e+00 5.897193551063537598e-01 9.974721670150756836e-01
5.140000000000000000e+03 3.851155853271484375e+01 1.258087825775146484e+01 -4.715219736099243164e-01 1.385090798139572144e-01 -9.990386664867401123e-02 -2.212701141834259033e-01
5.141000000000000000e+03 3.895410919189453125e+01 1.332551193237304688e+01 -4.717355370521545410e-01 1.411858052015304565e-01 -9.916491806507110596e-02 -2.139778882265090942e-01
5.142000000000000000e+03 4.555261611938476562e+01 1.952745628356933594e+01 -2.032145857810974121e-01 1.063733577728271484e+00 2.581557035446166992e-01 3.273120820522308350e-01
5.143000000000000000e+03 4.643430709838867188e+01 1.978330802917480469e+01 -1.775343418121337891e-01 1.312267303466796875e+00 3.404198884963989258e-01 4.570688903331756592e-01
5.144000000000000000e+03 5.323371887207031250e+01 2.735979080200195312e+01 6.207658052444458008e-01 3.067341327667236328e+00 1.106432199478149414e+00 1.931602358818054199e+00
5.145000000000000000e+03 5.495180892944335938e+01 2.958341217041015625e+01 1.293809056282043457e+00 3.989083290100097656e+00 1.584867715835571289e+00 2.790919303894042969e+00
5.146000000000000000e+03 5.019328308105468750e+01 2.471122550964355469e+01 1.848541349172592163e-01 1.886621952056884766e+00 6.214428544044494629e-01 1.040490746498107910e+00
5.147000000000000000e+03 1.625618362426757812e+01 1.367487907409667969e+01 5.327392369508743286e-02 1.816216111183166504e-01 7.046866416931152344e-02 8.944670110940933228e-02
5.148000000000000000e+03 4.016884994506835938e+01 1.318817234039306641e+01 -4.098700582981109619e-01 4.184492230415344238e-01 2.573746722191572189e-03 -8.864705264568328857e-02
5.149000000000000000e+03 4.337442779541015625e+01 1.695781707763671875e+01 -3.009829223155975342e-01 7.851081490516662598e-01 1.452375650405883789e-01 1.109382286667823792e-01
5.150000000000000000e+03 3.934048080444335938e+01 1.300971031188964844e+01 -4.445675313472747803e-01 2.664305567741394043e-01 -5.344109982252120972e-02 -1.581138074398040771e-01
5.151000000000000000e+03 3.918285369873046875e+01 1.363349437713623047e+01 -4.605460464954376221e-01 1.704491078853607178e-01 -8.702907711267471313e-02 -2.092397361993789673e-01
5.152000000000000000e+03 4.848534774780273438e+01 2.228727531433105469e+01 -2.860951051115989685e-02 1.648325562477111816e+00 4.859148263931274414e-01 7.432502508163452148e-01
5.153000000000000000e+03 5.292673110961914062e+01 2.721835708618164062e+01 6.006996035575866699e-01 2.864602088928222656e+00 1.039590477943420410e+00 1.831662535667419434e+00
5.154000000000000000e+03 5.320775985717773438e+01 2.774956130981445312e+01 7.095233798027038574e-01 2.894127368927001953e+00 1.081095218658447266e+00 1.931002736091613770e+00
5.155000000000000000e+03 4.379009628295898438e+01 1.768394851684570312e+01 -2.810735702514648438e-01 8.054836392402648926e-01 1.573230326175689697e-01 1.399473994970321655e-01
5.156000000000000000e+03 4.466122817993164062e+01 1.870763778686523438e+01 -2.421350330114364624e-01 9.096403121948242188e-01 2.002515792846679688e-01 2.280994206666946411e-01
5.157000000000000000e+03 3.877286148071289062e+01 1.057742691040039062e+01 -4.050093293190002441e-01 3.691227436065673828e-01 -1.076597627252340317e-02 -1.030979976058006287e-01
5.158000000000000000e+03 3.953683471679687500e+01 1.341724109649658203e+01 -4.359896183013916016e-01 2.744120061397552490e-01 -4.847327619791030884e-02 -1.579683572053909302e-01
5.159000000000000000e+03 5.235400390625000000e+01 2.663965988159179688e+01 4.933333694934844971e-01 2.606596231460571289e+00 9.299788475036621094e-01 1.625609040260314941e+00
5.160000000000000000e+03 5.263690185546875000e+01 2.705829620361328125e+01 5.609147548675537109e-01 2.708930253982543945e+00 9.809535145759582520e-01 1.725878715515136719e+00
5.161000000000000000e+03 4.524480056762695312e+01 1.896279525756835938e+01 -2.274082750082015991e-01 1.043543219566345215e+00 2.448404878377914429e-01 2.955626249313354492e-01
5.162000000000000000e+03 4.533242034912109375e+01 1.927183151245117188e+01 -2.125112414360046387e-01 1.021947503089904785e+00 2.428308725357055664e-01 3.008942306041717529e-01
5.163000000000000000e+03 1.917972755432128906e+01 1.757604408264160156e+01 4.682361707091331482e-02 1.415498852729797363e-01 5.651205405592918396e-02 8.096828311681747437e-02
5.164000000000000000e+03 1.967249488830566406e+01 1.556574440002441406e+01 6.984224170446395874e-02 1.564893871545791626e-01 6.789948791265487671e-02 1.035527065396308899e-01
5.165000000000000000e+03 1.741154670715332031e+01 1.524991226196289062e+01 5.063340812921524048e-02 1.625032275915145874e-01 6.394099444150924683e-02 8.724258095026016235e-02
5.166000000000000000e+03 4.306634902954101562e+01 1.676280784606933594e+01 -3.117861151695251465e-01 7.287433743476867676e-01 1.250871866941452026e-01 8.001964539289474487e-02
5.167000000000000000e+03 4.369033050537109375e+01 1.714739799499511719e+01 -2.868277430534362793e-01 8.481839895248413086e-01 1.684068739414215088e-01 1.457773745059967041e-01
5.168000000000000000e+03 5.074549484252929688e+01 2.529594421386718750e+01 2.642576992511749268e-01 2.014159440994262695e+00 6.835251450538635254e-01 1.163540482521057129e+00
5.169000000000000000e+03 4.414474105834960938e+01 1.779640388488769531e+01 -2.662152945995330811e-01 8.822524547576904297e-01 1.848111450672149658e-01 1.815515756607055664e-01
5.170000000000000000e+03 5.213150405883789062e+01 2.610812950134277344e+01 4.018162786960601807e-01 2.639778375625610352e+00 9.124783873558044434e-01 1.558323383331298828e+00
5.171000000000000000e+03 5.743883514404296875e+01 3.030018424987792969e+01 9.231182932853698730e-01 8.778754234313964844e+00 2.910561800003051758e+00 3.829516887664794922e+00
5.172000000000000000e+03 3.028042793273925781e+01 1.635221958160400391e+00 -3.965122401714324951e-01 -2.262696623802185059e-01 -1.868345737457275391e-01 -1.097225174307823181e-01
5.173000000000000000e+03 4.066783905029296875e+01 1.468419075012207031e+01 -4.047825038433074951e-01 3.886444568634033203e-01 -4.841417074203491211e-03 -9.890735149383544922e-02
5.174000000000000000e+03 4.182577896118164062e+01 1.516186618804931641e+01 -3.615946471691131592e-01 6.014552116394042969e-01 7.195816934108734131e-02 2.816997468471527100e-03
5.175000000000000000e+03 5.136186218261718750e+01 2.563647460937500000e+01 3.297742605209350586e-01 2.291761875152587891e+00 7.864608764648437500e-01 1.339610815048217773e+00
5.176000000000000000e+03 5.154953765869140625e+01 2.584606742858886719e+01 3.610250055789947510e-01 2.330847740173339844e+00 8.075618743896484375e-01 1.388113260269165039e+00
5.177000000000000000e+03 4.795251464843750000e+01 2.193928718566894531e+01 -6.341159343719482422e-02 1.505164384841918945e+00 4.325258135795593262e-01 6.594257950782775879e-01
5.178000000000000000e+03 4.445899581909179688e+01 1.789202690124511719e+01 -2.485558837652206421e-01 9.790078997611999512e-01 2.191355973482131958e-01 2.248145788908004761e-01
5.179000000000000000e+03 1.982505798339843750e+01 1.865436553955078125e+01 4.316512122750282288e-02 1.345147937536239624e-01 5.330397561192512512e-02 7.784304767847061157e-02
5.180000000000000000e+03 4.276914978027343750e+01 1.656868743896484375e+01 -3.237301111221313477e-01 6.730706691741943359e-01 1.048021614551544189e-01 5.284481495618820190e-02
5.181000000000000000e+03 4.205759048461914062e+01 1.545262336730957031e+01 -3.572661280632019043e-01 6.224385499954223633e-01 7.955171912908554077e-02 1.430662255734205246e-02
5.182000000000000000e+03 3.797538375854492188e+01 1.100305080413818359e+01 -4.584489762783050537e-01 1.817480176687240601e-01 -8.301028609275817871e-02 -1.877040117979049683e-01
5.183000000000000000e+03 1.248758506774902344e+01 1.167630672454833984e+01 4.271897673606872559e-02 1.698039323091506958e-01 6.375687569379806519e-02 2.720579504966735840e-02
5.184000000000000000e+03 4.125021743774414062e+01 1.455749130249023438e+01 -3.810701966285705566e-01 5.383313298225402832e-01 4.717833921313285828e-02 -3.260310366749763489e-02
5.185000000000000000e+03 2.392495918273925781e+01 2.104039955139160156e+01 5.264332145452499390e-02 1.218364909291267395e-01 5.234394222497940063e-02 8.365242183208465576e-02
5.186000000000000000e+03 2.402700805664062500e+01 2.038448905944824219e+01 5.631363391876220703e-02 1.229869350790977478e-01 5.379017069935798645e-02 8.615237474441528320e-02
5.187000000000000000e+03 1.534365653991699219e+01 1.739070129394531250e+01 1.889923773705959320e-02 1.259863376617431641e-01 4.346567392349243164e-02 4.633904248476028442e-02
5.188000000000000000e+03 4.090552520751953125e+01 1.432237720489501953e+01 -3.925756514072418213e-01 4.856808781623840332e-01 2.793156541883945465e-02 -5.829644575715065002e-02
5.189000000000000000e+03 2.994612121582031250e+01 1.575388908386230469e+00 -4.083049595355987549e-01 -2.258662581443786621e-01 -1.902513653039932251e-01 -1.111813932657241821e-01
5.190000000000000000e+03 5.685716629028320312e+01 2.967487907409667969e+01 8.076753020286560059e-01 7.351405620574951172e+00 2.447724342346191406e+00 3.455327510833740234e+00
5.191000000000000000e+03 4.918694686889648438e+01 2.277300834655761719e+01 6.766567472368478775e-03 1.840655565261840820e+00 5.542266368865966797e-01 8.642558455467224121e-01
5.192000000000000000e+03 1.577719879150390625e+01 1.350851726531982422e+01 4.885964840650558472e-02 1.830591857433319092e-01 6.957565248012542725e-02 8.301463723182678223e-02
5.193000000000000000e+03 3.735390472412109375e+01 1.057973003387451172e+01 -4.775013327598571777e-01 9.714977443218231201e-02 -1.141054630279541016e-01 -2.256365418434143066e-01
5.194000000000000000e+03 1.182990646362304688e+01 1.254229450225830078e+01 3.632076457142829895e-02 1.385117769241333008e-01 5.244976282119750977e-02 1.309615001082420349e-02
5.195000000000000000e+03 1.953203773498535156e+01 1.811741256713867188e+01 4.424143955111503601e-02 1.384022384881973267e-01 5.479310080409049988e-02 8.030405640602111816e-02
5.196000000000000000e+03 2.208045196533203125e+01 1.941050148010253906e+01 5.368783324956893921e-02 1.294097900390625000e-01 5.492928624153137207e-02 8.598788082599639893e-02
5.197000000000000000e+03 1.488426208496093750e+01 1.190533638000488281e+01 5.393902957439422607e-02 2.097460329532623291e-01 7.910551875829696655e-02 8.329953253269195557e-02
5.198000000000000000e+03 1.292831325531005859e+01 1.227865600585937500e+01 3.947638347744941711e-02 1.723546683788299561e-01 6.354931741952896118e-02 3.490449860692024231e-02
5.199000000000000000e+03 3.695224761962890625e+01 9.953935623168945312e+00 -4.736738801002502441e-01 7.751478254795074463e-02 -1.188477352261543274e-01 -2.236508578062057495e-01
5.200000000000000000e+03 3.670397567749023438e+01 8.738580703735351562e+00 -4.288308918476104736e-01 1.294452846050262451e-01 -8.981568366289138794e-02 -1.865699142217636108e-01
5.201000000000000000e+03 3.700333404541015625e+01 9.575233459472656250e+00 -4.525410234928131104e-01 1.156186014413833618e-01 -1.010767295956611633e-01 -2.018669396638870239e-01
5.202000000000000000e+03 2.358484077453613281e+01 1.974962997436523438e+01 5.898839607834815979e-02 1.258893013000488281e-01 5.546330660581588745e-02 8.838524669408798218e-02
5.203000000000000000e+03 3.702329254150390625e+01 9.213557243347167969e+00 -4.442704916000366211e-01 1.399471014738082886e-01 -9.129701554775238037e-02 -1.887553334236145020e-01
5.204000000000000000e+03 3.616031265258789062e+01 8.701940536499023438e+00 -4.566222131252288818e-01 3.086579591035842896e-02 -1.277269273996353149e-01 -2.233320921659469604e-01
5.205000000000000000e+03 6.027169036865234375e+01 2.869642639160156250e+01 -5.749462842941284180e-01 1.142989921569824219e+01 3.256485939025878906e+00 8.586176633834838867e-01
5.206000000000000000e+03 4.252650451660156250e+01 1.688649940490722656e+01 -3.306745290756225586e-01 5.791003704071044922e-01 7.452774792909622192e-02 1.382061559706926346e-02
5.207000000000000000e+03 4.424406433105468750e+01 1.700639343261718750e+01 -2.713341116905212402e-01 1.016783237457275391e+00 2.236347496509552002e-01 2.161082625389099121e-01
5.208000000000000000e+03 6.095116424560546875e+01 2.844640922546386719e+01 -5.702952742576599121e-01 1.138042831420898438e+01 3.243040084838867188e+00 3.082540929317474365e-01
5.209000000000000000e+03 4.224072265625000000e+01 1.668199920654296875e+01 -3.449414074420928955e-01 5.347100496292114258e-01 5.693059042096138000e-02 -1.317216642200946808e-02
5.210000000000000000e+03 4.223507308959960938e+01 1.572049331665039062e+01 -3.480497896671295166e-01 6.430981159210205078e-01 8.851449936628341675e-02 2.233048900961875916e-02
5.211000000000000000e+03 2.874751091003417969e+01 1.820150852203369141e+00 -5.940032005310058594e-01 -3.075128495693206787e-01 -2.704548239707946777e-01 -1.925397217273712158e-01
5.212000000000000000e+03 2.958188247680664062e+01 1.418749809265136719e+00 -4.220190644264221191e-01 -2.772528827190399170e-01 -2.097815871238708496e-01 -1.260512322187423706e-01
5.213000000000000000e+03 1.550523376464843750e+01 1.281135654449462891e+01 5.234302207827568054e-02 1.931455582380294800e-01 7.364657521247863770e-02 8.496182411909103394e-02
5.214000000000000000e+03 1.346256732940673828e+01 1.190272235870361328e+01 4.369475319981575012e-02 1.902853250503540039e-01 7.019402831792831421e-02 4.868982732295989990e-02
5.215000000000000000e+03 6.111263275146484375e+01 2.783583831787109375e+01 -7.243897914886474609e-01 1.102294158935546875e+01 3.089565515518188477e+00 2.521066367626190186e-01
5.216000000000000000e+03 4.196585083007812500e+01 1.646838951110839844e+01 -3.555403649806976318e-01 4.943133890628814697e-01 4.163190349936485291e-02 -3.526787832379341125e-02
5.217000000000000000e+03 2.348000144958496094e+01 2.028810691833496094e+01 5.603085458278656006e-02 1.252603232860565186e-01 5.438735336065292358e-02 8.717206120491027832e-02
5.218000000000000000e+03 1.509420585632324219e+01 1.260080623626708984e+01 5.045033618807792664e-02 1.950117647647857666e-01 7.363863289356231689e-02 8.031008392572402954e-02
5.219000000000000000e+03 3.549070358276367188e+01 5.707622528076171875e+00 -3.396311402320861816e-01 1.347523629665374756e-01 -6.146363168954849243e-02 -1.403417140245437622e-01
5.220000000000000000e+03 1.317781925201416016e+01 1.129705429077148438e+01 4.672576859593391418e-02 1.969644427299499512e-01 7.310706377029418945e-02 4.426131397485733032e-02
5.221000000000000000e+03 5.351626968383789062e+01 2.817204093933105469e+01 8.167034387588500977e-01 3.004968404769897461e+00 1.146501541137695312e+00 2.059103012084960938e+00
5.222000000000000000e+03 4.749018859863281250e+01 2.160556602478027344e+01 -9.365889430046081543e-02 1.380074262619018555e+00 3.859246373176574707e-01 5.782160162925720215e-01
5.223000000000000000e+03 4.604676818847656250e+01 2.006470870971679688e+01 -1.803064197301864624e-01 1.131332755088806152e+00 2.853079140186309814e-01 3.870561420917510986e-01
5.224000000000000000e+03 1.529715156555175781e+01 1.333122158050537109e+01 4.538676142692565918e-02 1.826503872871398926e-01 6.841114163398742676e-02 7.693903148174285889e-02
5.225000000000000000e+03 2.569724082946777344e+01 2.448770523071289062e+01 3.980535268783569336e-02 1.082629635930061340e-01 4.442049562931060791e-02 7.195506989955902100e-02
5.226000000000000000e+03 3.608279800415039062e+01 7.797700405120849609e+00 -4.124976396560668945e-01 9.088538587093353271e-02 -9.648367017507553101e-02 -1.902700960636138916e-01
5.227000000000000000e+03 3.550510025024414062e+01 7.113686084747314453e+00 -4.022566080093383789e-01 4.960647970438003540e-02 -1.057950407266616821e-01 -1.964926868677139282e-01
5.228000000000000000e+03 3.338256072998046875e+01 2.991338729858398438e+00 -3.184348046779632568e-01 1.141402218490839005e-02 -9.210623055696487427e-02 -1.160729378461837769e-01
5.229000000000000000e+03 3.065650558471679688e+01 2.062229156494140625e+00 -4.331891238689422607e-01 -2.175452113151550293e-01 -1.952203065156936646e-01 -1.330953091382980347e-01
5.230000000000000000e+03 3.284655761718750000e+01 3.620377779006958008e+00 -4.025918543338775635e-01 -7.666702568531036377e-02 -1.437776684761047363e-01 -1.853540390729904175e-01
5.231000000000000000e+03 2.620649909973144531e+01 2.587482452392578125e+01 3.623891994357109070e-02 1.028808802366256714e-01 4.173593968152999878e-02 6.746966391801834106e-02
5.232000000000000000e+03 6.615445709228515625e+01 2.370764160156250000e+01 -7.736266255378723145e-01 9.041233062744140625e+00 2.480282068252563477e+00 -1.135111808776855469e+00
5.233000000000000000e+03 6.223588562011718750e+01 2.789212989807128906e+01 -5.307170748710632324e-01 1.101221656799316406e+01 3.144449710845947266e+00 -4.498493671417236328e-01
5.234000000000000000e+03 3.413760757446289062e+01 5.114855289459228516e+00 -3.804695904254913330e-01 -1.021545939147472382e-02 -1.172055155038833618e-01 -2.051488608121871948e-01
5.235000000000000000e+03 3.590732955932617188e+01 7.233661651611328125e+00 -3.966092169284820557e-01 1.035771518945693970e-01 -8.790962398052215576e-02 -1.793341934680938721e-01
5.236000000000000000e+03 2.755970191955566406e+01 2.636844635009765625e+01 4.043164104223251343e-02 1.036558970808982849e-01 4.322626069188117981e-02 7.032045722007751465e-02
5.237000000000000000e+03 3.257559204101562500e+01 5.375898480415344238e-01 -1.450449675321578979e-01 -5.597558803856372833e-03 -4.519275948405265808e-02 -1.801330223679542542e-02
5.238000000000000000e+03 3.218033981323242188e+01 7.792794704437255859e-01 -1.846861690282821655e-01 -6.143519282341003418e-02 -7.383640855550765991e-02 -2.840158715844154358e-02
5.239000000000000000e+03 3.167694282531738281e+01 2.813728094100952148e+00 -4.316258728504180908e-01 -1.507974565029144287e-01 -1.747269928455352783e-01 -1.645258367061614990e-01
5.240000000000000000e+03 3.219472122192382812e+01 2.713852643966674805e+00 -3.691457808017730713e-01 -9.300461411476135254e-02 -1.386451125144958496e-01 -1.384612172842025757e-01
5.241000000000000000e+03 3.462103652954101562e+01 -3.311862349510192871e-01 -3.378140926361083984e-02 2.321963459253311157e-01 5.952448025345802307e-02 3.286184370517730713e-02
5.242000000000000000e+03 3.397185134887695312e+01 4.331662178039550781e+00 -3.566885590553283691e-01 1.902616024017333984e-02 -1.012987196445465088e-01 -1.685118824243545532e-01
5.243000000000000000e+03 2.109476280212402344e+01 1.867870330810546875e+01 5.148585513234138489e-02 1.348256617784500122e-01 5.589345842599868774e-02 8.612032234668731689e-02
5.244000000000000000e+03 2.803806304931640625e+01 2.877828598022460938e+01 3.664253279566764832e-02 9.782236814498901367e-02 4.033946990966796875e-02 6.277963519096374512e-02
5.245000000000000000e+03 1.873807716369628906e+01 1.499275970458984375e+01 6.756299734115600586e-02 1.642718017101287842e-01 6.955043971538543701e-02 1.029904857277870178e-01
5.246000000000000000e+03 1.907586097717285156e+01 1.488877105712890625e+01 7.368309050798416138e-02 1.630039513111114502e-01 7.100611180067062378e-02 1.065136343240737915e-01
5.247000000000000000e+03 2.523814010620117188e+01 2.552537918090820312e+01 3.266325220465660095e-02 1.052410379052162170e-01 4.137128591537475586e-02 6.531909108161926270e-02
5.248000000000000000e+03 3.021107482910156250e+01 1.237079739570617676e+00 -3.262981772422790527e-01 -2.199078649282455444e-01 -1.638618111610412598e-01 -8.438812196254730225e-02
5.249000000000000000e+03 3.273072052001953125e+01 2.593453645706176758e+00 -3.313016891479492188e-01 -4.443852603435516357e-02 -1.127220615744590759e-01 -1.123298555612564087e-01
5.250000000000000000e+03 2.159022712707519531e+01 1.972557640075683594e+01 4.567543417215347290e-02 1.290846019983291626e-01 5.242801085114479065e-02 8.079351484775543213e-02
5.251000000000000000e+03 2.711473846435546875e+01 2.703513717651367188e+01 3.658391535282135010e-02 9.614195674657821655e-02 3.981776162981987000e-02 6.241459026932716370e-02
5.252000000000000000e+03 1.890499687194824219e+01 1.698490715026855469e+01 4.824171215295791626e-02 1.465401947498321533e-01 5.843457207083702087e-02 8.434251695871353149e-02
5.253000000000000000e+03 1.826415252685546875e+01 1.480906009674072266e+01 6.378862261772155762e-02 1.664595007896423340e-01 6.907443702220916748e-02 1.003550142049789429e-01
5.254000000000000000e+03 1.611474609375000000e+01 1.425283908843994141e+01 4.615743830800056458e-02 1.726940274238586426e-01 6.565544009208679199e-02 8.030158281326293945e-02
5.255000000000000000e+03 1.772379875183105469e+01 1.457755184173583984e+01 6.039711833000183105e-02 1.691800802946090698e-01 6.887315958738327026e-02 9.751567244529724121e-02
5.256000000000000000e+03 5.807440185546875000e+01 2.974095153808593750e+01 2.049170434474945068e-01 9.986416816711425781e+00 3.057400226593017578e+00 3.100227355957031250e+00
5.257000000000000000e+03 3.547726821899414062e+01 -5.326458811759948730e-01 -1.153722032904624939e-02 3.469395041465759277e-01 1.006206870079040527e-01 3.997752442955970764e-02
5.258000000000000000e+03 3.493735504150390625e+01 -8.716513514518737793e-01 3.688012948259711266e-03 2.744914293289184570e-01 8.345383405685424805e-02 3.440238535404205322e-02
5.259000000000000000e+03 3.066179084777832031e+01 1.124593496322631836e+00 -3.134366869926452637e-01 -1.894796788692474365e-01 -1.508749127388000488e-01 -7.179105281829833984e-02
5.260000000000000000e+03 1.265322875976562500e+01 8.429311752319335938e+00 7.705938816070556641e-02 2.854911386966705322e-01 1.087651550769805908e-01 2.226946689188480377e-02
5.261000000000000000e+03 1.671612548828125000e+01 1.377862739562988281e+01 5.708852782845497131e-02 1.797249019145965576e-01 7.104402780532836914e-02 9.423635154962539673e-02
5.262000000000000000e+03 3.249016952514648438e+01 1.632911801338195801e+00 -2.602505087852478027e-01 -4.358965903520584106e-02 -9.115205705165863037e-02 -6.181121245026588440e-02
5.263000000000000000e+03 1.127340221405029297e+01 8.815788269042968750e+00 8.686891198158264160e-02 1.799067258834838867e-01 8.003269135951995850e-02 -2.103660814464092255e-02
5.264000000000000000e+03 6.754054260253906250e+01 1.930293464660644531e+01 -8.334118723869323730e-01 8.292483329772949219e+00 2.237721443176269531e+00 -9.036639928817749023e-01
5.265000000000000000e+03 1.169030380249023438e+01 1.355113887786865234e+01 2.733382396399974823e-02 1.182260960340499878e-01 4.366797581315040588e-02 1.170388329774141312e-02
5.266000000000000000e+03 1.174816226959228516e+01 1.073599147796630859e+01 5.111818388104438782e-02 1.661474853754043579e-01 6.517970561981201172e-02 8.205343037843704224e-03
5.267000000000000000e+03 1.166304779052734375e+01 9.307606697082519531e+00 7.373905181884765625e-02 1.985978335142135620e-01 8.170106261968612671e-02 -9.600372053682804108e-03
5.268000000000000000e+03 6.676478576660156250e+01 2.127734565734863281e+01 -8.634127974510192871e-01 8.574210166931152344e+00 2.313239336013793945e+00 -9.863349199295043945e-01
5.269000000000000000e+03 6.629618072509765625e+01 2.041759109497070312e+01 -9.435481429100036621e-01 8.461299896240234375e+00 2.255325555801391602e+00 -8.291900157928466797e-01
5.270000000000000000e+03 6.434976196289062500e+01 2.613666915893554688e+01 -6.363892555236816406e-01 9.928154945373535156e+00 2.787529706954956055e+00 -1.030467033386230469e+00
5.271000000000000000e+03 6.321777725219726562e+01 2.747117233276367188e+01 -4.869765043258666992e-01 1.061887836456298828e+01 3.039570331573486328e+00 -8.128315210342407227e-01
5.272000000000000000e+03 1.273691558837890625e+01 1.720283317565917969e+01 7.859159260988235474e-03 9.370973706245422363e-02 3.047066926956176758e-02 1.859007030725479126e-02
5.273000000000000000e+03 1.307766342163085938e+01 2.087808609008789062e+01 -8.558479603379964828e-04 6.593582034111022949e-02 1.952399127185344696e-02 1.157128624618053436e-02
5.274000000000000000e+03 1.229347705841064453e+01 1.635563278198242188e+01 1.196269784122705460e-02 9.515757858753204346e-02 3.213608264923095703e-02 1.515340432524681091e-02
5.275000000000000000e+03 6.447229766845703125e+01 1.773457527160644531e+00 -3.472332060337066650e-01 6.666242122650146484e+00 1.895702600479125977e+00 8.847437053918838501e-02
5.276000000000000000e+03 6.292425918579101562e+01 -2.051453351974487305e+00 -2.735134065151214600e-01 6.271493434906005859e+00 1.799394130706787109e+00 1.752940267324447632e-01
5.277000000000000000e+03 1.141602802276611328e+01 1.189970874786376953e+01 4.171597957611083984e-02 1.333333998918533325e-01 5.251481384038925171e-02 6.869968958199024200e-03
5.278000000000000000e+03 2.522577476501464844e+01 2.314774513244628906e+01 4.444130882620811462e-02 1.116393208503723145e-01 4.682418704032897949e-02 7.628001272678375244e-02
5.279000000000000000e+03 6.612591552734375000e+01 6.694259166717529297e+00 -4.696517586708068848e-01 7.146800041198730469e+00 2.003144502639770508e+00 -8.906055241823196411e-02
5.280000000000000000e+03 1.252306175231933594e+01 1.859615325927734375e+01 3.062136704102158546e-03 7.683579623699188232e-02 2.396938018500804901e-02 1.281481515616178513e-02
5.281000000000000000e+03 1.130183124542236328e+01 1.301090431213378906e+01 3.197601810097694397e-02 1.131848245859146118e-01 4.354825243353843689e-02 5.886658094823360443e-03
5.282000000000000000e+03 1.210103225708007812e+01 1.410308074951171875e+01 2.540001831948757172e-02 1.185844466090202332e-01 4.319533705711364746e-02 1.886109635233879089e-02
5.283000000000000000e+03 1.238268375396728516e+01 2.012100791931152344e+01 -9.491330711171030998e-04 6.204719841480255127e-02 1.832941919565200806e-02 8.554559201002120972e-03
5.284000000000000000e+03 6.630374145507812500e+01 2.230342483520507812e+01 -8.808722496032714844e-01 8.773895263671875000e+00 2.367906808853149414e+00 -9.948096871376037598e-01
5.285000000000000000e+03 6.469165039062500000e+01 2.838447570800781250e+01 1.186500787734985352e-01 1.041744327545166016e+01 3.160828113555908203e+00 -1.423624277114868164e+00
5.286000000000000000e+03 4.017420578002929688e+01 -3.079302787780761719e+00 4.108038544654846191e-02 1.212131142616271973e+00 3.759634792804718018e-01 8.194187283515930176e-02
5.287000000000000000e+03 6.525138854980468750e+01 2.591370344161987305e+00 -3.557898402214050293e-01 6.836128234863281250e+00 1.944101572036743164e+00 5.125744268298149109e-02
5.288000000000000000e+03 6.625573730468750000e+01 2.575592422485351562e+01 -4.589764773845672607e-01 9.363741874694824219e+00 2.671429395675659180e+00 -1.387093186378479004e+00
5.289000000000000000e+03 3.602812576293945312e+01 -1.572574377059936523e-01 -2.769944071769714355e-02 4.230709373950958252e-01 1.186114475131034851e-01 4.041690379381179810e-02
5.290000000000000000e+03 3.586689758300781250e+01 -1.120546698570251465e+00 2.407710440456867218e-02 4.031349420547485352e-01 1.281636059284210205e-01 4.537689685821533203e-02
5.291000000000000000e+03 6.658758544921875000e+01 2.723170089721679688e+01 -5.078055337071418762e-02 9.480931282043457031e+00 2.829045295715332031e+00 -1.605599522590637207e+00
5.292000000000000000e+03 2.818662452697753906e+01 3.349277496337890625e+01 3.290506452322006226e-02 8.597834408283233643e-02 3.566502034664154053e-02 4.277282208204269409e-02
5.293000000000000000e+03 2.991003227233886719e+01 3.028747177124023438e+01 3.334673121571540833e-02 8.933379501104354858e-02 3.680415824055671692e-02 5.430142953991889954e-02
5.294000000000000000e+03 6.595274353027343750e+01 3.383264541625976562e+00 -3.675635159015655518e-01 6.994030952453613281e+00 1.987940192222595215e+00 1.007512025535106659e-02
5.295000000000000000e+03 2.773680114746093750e+01 2.746675491333007812e+01 3.676309436559677124e-02 1.017171740531921387e-01 4.154407978057861328e-02 6.666540354490280151e-02
5.296000000000000000e+03 2.659988784790039062e+01 2.650284767150878906e+01 3.351460397243499756e-02 1.031538248062133789e-01 4.100052639842033386e-02 6.414531171321868896e-02
5.297000000000000000e+03 6.641349029541015625e+01 9.120829582214355469e+00 -5.562888979911804199e-01 7.315604209899902344e+00 2.027794599533081055e+00 -1.931129992008209229e-01
5.298000000000000000e+03 6.696198272705078125e+01 8.329709053039550781e+00 -5.015770196914672852e-01 7.365993022918701172e+00 2.059324979782104492e+00 -1.879047006368637085e-01
5.299000000000000000e+03 6.432387542724609375e+01 -3.386962652206420898e+00 -2.397802919149398804e-01 6.507164955139160156e+00 1.880215406417846680e+00 1.676352322101593018e-01
5.300000000000000000e+03 6.524159240722656250e+01 -3.902274370193481445e+00 -2.166444957256317139e-01 6.683233261108398438e+00 1.939976572990417480e+00 1.694459319114685059e-01
5.301000000000000000e+03 4.748853302001953125e+01 -1.287638473510742188e+01 -1.361217945814132690e-01 3.008658409118652344e+00 8.617609739303588867e-01 5.699036642909049988e-03
5.302000000000000000e+03 4.446026611328125000e+01 -7.615081310272216797e+00 -2.926358580589294434e-02 2.184992313385009766e+00 6.467186808586120605e-01 5.566170439124107361e-02
5.303000000000000000e+03 1.605198860168457031e+01 2.405209350585937500e+01 9.909544605761766434e-04 7.765928655862808228e-02 2.359507232904434204e-02 2.516883797943592072e-02
5.304000000000000000e+03 6.430096435546875000e+01 2.702729034423828125e+01 -4.236695766448974609e-01 1.018261909484863281e+01 2.927684783935546875e+00 -1.114977836608886719e+00
5.305000000000000000e+03 3.123655319213867188e+01 3.138219642639160156e+01 3.770183399319648743e-02 8.548305928707122803e-02 3.695546835660934448e-02 5.331021174788475037e-02
5.306000000000000000e+03 4.646496963500976562e+01 -1.584296131134033203e+01 -1.584717333316802979e-01 2.842840433120727539e+00 8.053106069564819336e-01 -6.360319256782531738e-02
5.307000000000000000e+03 6.475540161132812500e+01 -6.980884552001953125e+00 -1.805498003959655762e-01 6.561926364898681641e+00 1.914412975311279297e+00 2.043616175651550293e-01
5.308000000000000000e+03 5.220324325561523438e+01 -1.683932495117187500e+01 -2.003092616796493530e-01 4.181523323059082031e+00 1.194364190101623535e+00 1.203001216053962708e-01
5.309000000000000000e+03 4.536454010009765625e+01 -9.837957382202148438e+00 -6.302312761545181274e-02 2.447514295578002930e+00 7.153473496437072754e-01 1.904529519379138947e-02
5.310000000000000000e+03 4.344631195068359375e+01 -6.727050304412841797e+00 -3.811364760622382164e-03 1.945419430732727051e+00 5.824824571609497070e-01 5.419899523258209229e-02
5.311000000000000000e+03 3.006821632385253906e+01 3.329126358032226562e+01 2.941220998764038086e-02 8.244206756353378296e-02 3.355628252029418945e-02 4.269006103277206421e-02
5.312000000000000000e+03 4.381818389892578125e+01 -5.965097904205322266e+00 -1.589665748178958893e-02 2.019423484802246094e+00 6.010580658912658691e-01 7.983554154634475708e-02
5.313000000000000000e+03 4.909864807128906250e+01 -1.724225234985351562e+01 -1.981387287378311157e-01 3.521332025527954102e+00 9.969579577445983887e-01 1.883785799145698547e-02
5.314000000000000000e+03 4.696725463867187500e+01 -1.443766689300537109e+01 -1.417931020259857178e-01 2.926730155944824219e+00 8.354811072349548340e-01 -3.601694107055664062e-02
5.315000000000000000e+03 1.320491695404052734e+01 1.797791862487792969e+01 7.840320467948913574e-03 9.322562813758850098e-02 3.031978383660316467e-02 2.045096457004547119e-02
5.316000000000000000e+03 6.612028503417968750e+01 -9.018836975097656250e+00 -1.416050344705581665e-01 6.818070411682128906e+00 2.002939462661743164e+00 2.334841489791870117e-01
5.317000000000000000e+03 6.412383270263671875e+01 -1.278199481964111328e+01 -1.382341384887695312e-01 6.420188426971435547e+00 1.884586334228515625e+00 2.867051959037780762e-01
5.318000000000000000e+03 6.533784484863281250e+01 1.650364112854003906e+01 -9.323403835296630859e-01 7.825263023376464844e+00 2.067876815795898438e+00 -4.208521544933319092e-01
5.319000000000000000e+03 6.584717559814453125e+01 1.508836078643798828e+01 -8.481431603431701660e-01 7.709100723266601562e+00 2.058287143707275391e+00 -4.094063043594360352e-01
5.320000000000000000e+03 6.368682861328125000e+01 -1.447862243652343750e+01 -1.318276226520538330e-01 6.343444824218750000e+00 1.863485097885131836e+00 2.948526442050933838e-01
5.321000000000000000e+03 6.481111907958984375e+01 -1.675531387329101562e+01 -9.994495660066604614e-02 6.549053668975830078e+00 1.934732556343078613e+00 3.184599280357360840e-01
5.322000000000000000e+03 6.795735168457031250e+01 -1.535687637329101562e+01 -7.671459019184112549e-02 7.102269649505615234e+00 2.107666492462158203e+00 2.846724092960357666e-01
5.323000000000000000e+03 6.614984130859375000e+01 1.222258758544921875e+01 -6.913594603538513184e-01 7.478848457336425781e+00 2.036246538162231445e+00 -3.061667382717132568e-01
5.324000000000000000e+03 3.068698310852050781e+01 3.523945236206054688e+01 4.408721253275871277e-02 8.164876699447631836e-02 3.772079572081565857e-02 3.682732582092285156e-02
5.325000000000000000e+03 1.142411804199218750e+01 -3.025616836547851562e+01 5.369229614734649658e-02 -3.390453159809112549e-01 -8.560590445995330811e-02 -1.174676045775413513e-01
5.326000000000000000e+03 6.511098480224609375e+01 1.415797138214111328e+01 -8.370844721794128418e-01 7.532246112823486328e+00 2.008548498153686523e+00 -2.941893041133880615e-01
5.327000000000000000e+03 6.572018432617187500e+01 1.323776435852050781e+01 -7.717470526695251465e-01 7.526635646820068359e+00 2.026466608047485352e+00 -3.175653219223022461e-01
5.328000000000000000e+03 5.050054168701171875e+01 -1.778198623657226562e+01 -2.024916857481002808e-01 3.868698596954345703e+00 1.099862098693847656e+00 6.192609667778015137e-02
5.329000000000000000e+03 4.773421478271484375e+01 -1.653699111938476562e+01 -1.760311126708984375e-01 3.181637048721313477e+00 9.016817808151245117e-01 -3.290367871522903442e-02
5.330000000000000000e+03 5.166262435913085938e+01 -2.883379364013671875e+01 1.235086917877197266e-01 4.611870288848876953e+00 1.420613646507263184e+00 2.749184370040893555e-01
5.331000000000000000e+03 6.331294631958007812e+01 -5.166542530059814453e+00 -2.187259346246719360e-01 6.299852848052978516e+00 1.824338078498840332e+00 1.999914497137069702e-01
5.332000000000000000e+03 5.628186035156250000e+01 -1.884764289855957031e+01 -1.418130546808242798e-01 5.030945777893066406e+00 1.466739773750305176e+00 2.620358467102050781e-01
5.333000000000000000e+03 6.332409286499023438e+01 -2.778417015075683594e+01 9.849638491868972778e-02 6.267827987670898438e+00 1.909897327423095703e+00 3.645777106285095215e-01
5.334000000000000000e+03 6.487110900878906250e+01 -2.893110275268554688e+01 9.321939945220947266e-02 6.514945030212402344e+00 1.982449293136596680e+00 3.390727639198303223e-01
5.335000000000000000e+03 6.342163085937500000e+01 -2.088178634643554688e+01 -6.792818009853363037e-02 6.291922092437744141e+00 1.867198228836059570e+00 3.523480296134948730e-01
5.336000000000000000e+03 6.608749389648437500e+01 -8.097806930541992188e+00 -1.549501568078994751e-01 6.826560974121093750e+00 2.001483201980590820e+00 2.093125879764556885e-01
5.337000000000000000e+03 6.440525054931640625e+01 -1.015949249267578125e+01 -1.626854687929153442e-01 6.469628334045410156e+00 1.892082810401916504e+00 2.485276907682418823e-01
5.338000000000000000e+03 5.952564239501953125e+01 2.879149436950683594e+01 -5.243040919303894043e-01 1.102973651885986328e+01 3.151629686355590820e+00 1.531719446182250977e+00
5.339000000000000000e+03 4.646126937866210938e+01 1.904277610778808594e+01 -1.918332725763320923e-01 1.423177838325500488e+00 3.694033622741699219e-01 4.737043082714080811e-01
5.340000000000000000e+03 5.003338241577148438e+01 2.336239242553710938e+01 6.073928996920585632e-02 2.117379665374755859e+00 6.534356474876403809e-01 1.025136113166809082e+00
5.341000000000000000e+03 4.948870086669921875e+01 2.334318733215332031e+01 5.022436380386352539e-02 1.869464278221130371e+00 5.759065747261047363e-01 9.098766446113586426e-01
5.342000000000000000e+03 4.767257690429687500e+01 2.179654312133789062e+01 -7.754172384738922119e-02 1.416924953460693359e+00 4.018149673938751221e-01 6.091379523277282715e-01
5.343000000000000000e+03 4.506115341186523438e+01 1.834977149963378906e+01 -2.366793900728225708e-01 1.066986322402954102e+00 2.490920871496200562e-01 2.864181399345397949e-01
5.344000000000000000e+03 4.584619903564453125e+01 1.924836921691894531e+01 -1.997202932834625244e-01 1.207990288734436035e+00 3.024809956550598145e-01 3.841763138771057129e-01
5.345000000000000000e+03 5.354310607910156250e+01 2.742914009094238281e+01 6.251245737075805664e-01 3.334427595138549805e+00 1.187865614891052246e+00 2.061277389526367188e+00
5.346000000000000000e+03 5.027883529663085938e+01 2.435140991210937500e+01 1.518674492835998535e-01 2.012550115585327148e+00 6.493252515792846680e-01 1.070425271987915039e+00
5.347000000000000000e+03 4.851291656494140625e+01 2.194540596008300781e+01 -5.351478606462478638e-02 1.723334670066833496e+00 5.009459853172302246e-01 7.541851401329040527e-01
5.348000000000000000e+03 5.491134643554687500e+01 2.994051551818847656e+01 1.438840866088867188e+00 3.728096723556518555e+00 1.550081253051757812e+00 2.764920473098754883e+00
5.349000000000000000e+03 5.666770553588867188e+01 3.005144500732421875e+01 1.150641202926635742e+00 6.869670391082763672e+00 2.406093358993530273e+00 3.626683712005615234e+00
5.350000000000000000e+03 5.008500289916992188e+01 2.387364768981933594e+01 1.098284497857093811e-01 2.042968034744262695e+00 6.458389163017272949e-01 1.036755442619323730e+00
5.351000000000000000e+03 5.058506011962890625e+01 2.478629112243652344e+01 2.079743444919586182e-01 2.101981401443481445e+00 6.929867267608642578e-01 1.140919208526611328e+00
5.352000000000000000e+03 4.736380767822265625e+01 2.134066009521484375e+01 -1.062384024262428284e-01 1.376790881156921387e+00 3.811657428741455078e-01 5.612418055534362793e-01
5.353000000000000000e+03 5.044276809692382812e+01 2.404356193542480469e+01 1.391440480947494507e-01 2.191438913345336914e+00 6.991748809814453125e-01 1.126667380332946777e+00
5.354000000000000000e+03 3.967516708374023438e+01 1.372452831268310547e+01 -4.428047835826873779e-01 2.563697993755340576e-01 -5.593049153685569763e-02 -1.579656451940536499e-01
5.355000000000000000e+03 5.828478240966796875e+01 2.883963394165039062e+01 -2.133856713771820068e-01 9.691287994384765625e+00 2.843370676040649414e+00 2.564714908599853516e+00
5.356000000000000000e+03 5.419922256469726562e+01 2.860066223144531250e+01 9.346541166305541992e-01 3.515343666076660156e+00 1.334999322891235352e+00 2.355761289596557617e+00
5.357000000000000000e+03 5.939997482299804688e+01 2.835708999633789062e+01 -6.150001883506774902e-01 1.055199432373046875e+01 2.981098175048828125e+00 1.613037586212158203e+00
5.358000000000000000e+03 4.555980300903320312e+01 1.906027221679687500e+01 -2.178977131843566895e-01 1.150795578956604004e+00 2.798693478107452393e-01 3.449443280696868896e-01
5.359000000000000000e+03 4.186375808715820312e+01 1.456667518615722656e+01 -3.603759706020355225e-01 6.816650629043579102e-01 9.638672322034835815e-02 2.798911556601524353e-02
5.360000000000000000e+03 4.057366943359375000e+01 1.420312976837158203e+01 -4.079667329788208008e-01 4.179336130619049072e-01 2.990067703649401665e-03 -9.033012390136718750e-02
5.361000000000000000e+03 5.536172866821289062e+01 3.113626670837402344e+01 2.078659772872924805e+00 3.408263921737670898e+00 1.646077156066894531e+00 2.906316757202148438e+00
5.362000000000000000e+03 5.699851989746093750e+01 3.003370285034179688e+01 9.685181379318237305e-01 7.706015110015869141e+00 2.602360010147094727e+00 3.671994924545288086e+00
5.363000000000000000e+03 5.799176788330078125e+01 2.931956291198730469e+01 7.224205881357192993e-02 9.518391609191894531e+00 2.877190113067626953e+00 2.958387136459350586e+00
5.364000000000000000e+03 5.182190322875976562e+01 2.598139762878417969e+01 3.885775506496429443e-01 2.457206726074218750e+00 8.537353277206420898e-01 1.469915747642517090e+00
5.365000000000000000e+03 5.272130966186523438e+01 2.671016883850097656e+01 5.097916722297668457e-01 2.884199619293212891e+00 1.018197417259216309e+00 1.756925940513610840e+00
5.366000000000000000e+03 4.430772018432617188e+01 1.747475624084472656e+01 -2.753215432167053223e-01 9.587401747703552246e-01 2.050255835056304932e-01 2.060668766498565674e-01
5.367000000000000000e+03 4.400706481933593750e+01 1.732288360595703125e+01 -2.778784632682800293e-01 9.113089442253112793e-01 1.900291442871093750e-01 1.774717271327972412e-01
5.368000000000000000e+03 4.244278335571289062e+01 1.522136497497558594e+01 -3.358393609523773193e-01 7.491324543952941895e-01 1.239879205822944641e-01 6.846287846565246582e-02
5.369000000000000000e+03 4.154971694946289062e+01 1.487016010284423828e+01 -3.668269217014312744e-01 5.767855048179626465e-01 6.298758089542388916e-02 -1.173809729516506195e-02
5.370000000000000000e+03 4.360656738281250000e+01 1.662752342224121094e+01 -2.967538535594940186e-01 8.908555507659912109e-01 1.782304942607879639e-01 1.518056541681289673e-01
5.371000000000000000e+03 4.244011306762695312e+01 1.590818691253662109e+01 -3.357239365577697754e-01 6.756944656372070312e-01 1.019911691546440125e-01 4.417153447866439819e-02
5.372000000000000000e+03 5.246455383300781250e+01 2.621630668640136719e+01 4.104982018470764160e-01 2.834760665893554688e+00 9.735776782035827637e-01 1.657423615455627441e+00
5.373000000000000000e+03 4.474946594238281250e+01 1.808671188354492188e+01 -2.455206215381622314e-01 1.015148401260375977e+00 2.308883517980575562e-01 2.568874955177307129e-01
5.374000000000000000e+03 4.703704452514648438e+01 2.076416778564453125e+01 -1.299386769533157349e-01 1.353923559188842773e+00 3.671954572200775146e-01 5.289413332939147949e-01
5.375000000000000000e+03 5.064051437377929688e+01 2.435823440551757812e+01 1.584773510694503784e-01 2.210275650024414062e+00 7.106259465217590332e-01 1.158091545104980469e+00
5.376000000000000000e+03 4.948826980590820312e+01 2.386340713500976562e+01 9.052488952875137329e-02 1.764266729354858398e+00 5.564374923706054688e-01 8.988319635391235352e-01
5.377000000000000000e+03 1.479285621643066406e+01 1.587533187866210938e+01 2.543016150593757629e-02 1.386414319276809692e-01 4.922147840261459351e-02 4.848793521523475647e-02
5.378000000000000000e+03 4.540724945068359375e+01 1.858505439758300781e+01 -2.278970181941986084e-01 1.144966363906860352e+00 2.751208245754241943e-01 3.268084824085235596e-01
5.379000000000000000e+03 3.885539245605468750e+01 1.169536304473876953e+01 -4.348394572734832764e-01 2.941482067108154297e-01 -4.220737889409065247e-02 -1.446112692356109619e-01
5.380000000000000000e+03 5.223308563232421875e+01 2.570960998535156250e+01 3.290357589721679688e-01 2.826017856597900391e+00 9.465160369873046875e-01 1.577915191650390625e+00
5.381000000000000000e+03 1.442111301422119141e+01 2.063387870788574219e+01 3.395356936380267143e-03 8.488215506076812744e-02 2.648325450718402863e-02 2.269084565341472626e-02
5.382000000000000000e+03 5.307144165039062500e+01 2.682891273498535156e+01 5.141328573226928711e-01 3.137520313262939453e+00 1.095495939254760742e+00 1.876737475395202637e+00
5.383000000000000000e+03 2.372969818115234375e+01 2.173009681701660156e+01 4.358496889472007751e-02 1.185149401426315308e-01 4.862997308373451233e-02 7.716576009988784790e-02
5.384000000000000000e+03 4.217858886718750000e+01 1.485819339752197266e+01 -3.485058844089508057e-01 7.224552035331726074e-01 1.121848002076148987e-01 5.477439612150192261e-02
5.385000000000000000e+03 4.447595214843750000e+01 1.669321632385253906e+01 -2.776698172092437744e-01 1.114269495010375977e+00 2.509799301624298096e-01 2.464192211627960205e-01
5.386000000000000000e+03 4.616970825195312500e+01 1.947049713134765625e+01 -1.894440948963165283e-01 1.271374821662902832e+00 3.245792388916015625e-01 4.253806769847869873e-01
5.387000000000000000e+03 3.988627243041992188e+01 1.346788883209228516e+01 -4.280607402324676514e-01 3.367854058742523193e-01 -2.738260105252265930e-02 -1.264285594224929810e-01
5.388000000000000000e+03 5.768811035156250000e+01 2.980606079101562500e+01 4.595967829227447510e-01 9.216149330139160156e+00 2.902724027633666992e+00 3.415627717971801758e+00
5.389000000000000000e+03 5.732874298095703125e+01 2.990477371215820312e+01 7.554279565811157227e-01 8.378797531127929688e+00 2.740267515182495117e+00 3.612923383712768555e+00
5.390000000000000000e+03 4.668858718872070312e+01 2.096384048461914062e+01 -1.379909664392471313e-01 1.206214189529418945e+00 3.204669952392578125e-01 4.661616683006286621e-01
5.391000000000000000e+03 4.662663650512695312e+01 2.013974952697753906e+01 -1.616296917200088501e-01 1.322568655014038086e+00 3.482816815376281738e-01 4.816975593566894531e-01
5.392000000000000000e+03 3.738514328002929688e+01 1.007102012634277344e+01 -4.563038051128387451e-01 1.490970402956008911e-01 -9.216202795505523682e-02 -1.997985243797302246e-01
5.393000000000000000e+03 3.833391952514648438e+01 1.014926719665527344e+01 -4.151658713817596436e-01 3.098292350769042969e-01 -3.160099685192108154e-02 -1.219647005200386047e-01
5.394000000000000000e+03 1.387555694580078125e+01 1.203750705718994141e+01 4.368184506893157959e-02 1.957366168498992920e-01 7.182554155588150024e-02 5.688358843326568604e-02
5.395000000000000000e+03 1.372985076904296875e+01 2.004305648803710938e+01 2.376987133175134659e-03 8.208125829696655273e-02 2.533747255802154541e-02 1.970659568905830383e-02
5.396000000000000000e+03 2.233356285095214844e+01 1.994168663024902344e+01 4.901530221104621887e-02 1.276054531335830688e-01 5.298622697591781616e-02 8.278285712003707886e-02
5.397000000000000000e+03 5.384171295166015625e+01 2.819643974304199219e+01 8.171333074569702148e-01 3.335232973098754883e+00 1.245709896087646484e+00 2.194823026657104492e+00
5.398000000000000000e+03 5.837887954711914062e+01 2.923175811767578125e+01 -1.215201616287231445e-01 1.011225318908691406e+01 2.997219800949096680e+00 2.639863014221191406e+00
5.399000000000000000e+03 3.787950897216796875e+01 1.010059165954589844e+01 -4.358343183994293213e-01 2.313454896211624146e-01 -6.134665012359619141e-02 -1.558635532855987549e-01
5.400000000000000000e+03 3.743345260620117188e+01 9.616106033325195312e+00 -4.367097616195678711e-01 1.960236728191375732e-01 -7.220582664012908936e-02 -1.728232651948928833e-01
5.401000000000000000e+03 1.261050224304199219e+01 1.290331268310546875e+01 3.399662673473358154e-02 1.498541682958602905e-01 5.515523999929428101e-02 2.602009847760200500e-02
5.402000000000000000e+03 4.959457397460937500e+01 2.232633972167968750e+01 -2.772487513720989227e-02 2.099313974380493164e+00 6.214767098426818848e-01 9.401322603225708008e-01
5.403000000000000000e+03 4.221527481079101562e+01 1.618603897094726562e+01 -3.474408388137817383e-01 5.886449813842773438e-01 7.236124575138092041e-02 4.310273099690675735e-03
5.404000000000000000e+03 3.658572387695312500e+01 6.990548133850097656e+00 -3.610717356204986572e-01 2.201901823282241821e-01 -4.226446524262428284e-02 -1.289926767349243164e-01
5.405000000000000000e+03 1.870295524597167969e+01 1.795329093933105469e+01 3.968757390975952148e-02 1.394178718328475952e-01 5.373163148760795593e-02 7.588485628366470337e-02
5.406000000000000000e+03 1.857884216308593750e+01 1.875201797485351562e+01 3.153833374381065369e-02 1.323308199644088745e-01 4.916074872016906738e-02 6.808711588382720947e-02
5.407000000000000000e+03 3.788341140747070312e+01 1.056099033355712891e+01 -4.489260911941528320e-01 1.978378146886825562e-01 -7.532647997140884399e-02 -1.766507625579833984e-01
5.408000000000000000e+03 1.843647193908691406e+01 1.518402099609375000e+01 6.277232617139816284e-02 1.616929769515991211e-01 6.733959168195724487e-02 9.726005047559738159e-02
5.409000000000000000e+03 1.874619483947753906e+01 1.535967636108398438e+01 6.391526758670806885e-02 1.598383933305740356e-01 6.712609529495239258e-02 9.898845851421356201e-02
5.410000000000000000e+03 3.739210891723632812e+01 9.207251548767089844e+00 -4.229817092418670654e-01 2.229370772838592529e-01 -6.001338362693786621e-02 -1.561894118785858154e-01
5.411000000000000000e+03 2.289730072021484375e+01 2.071439361572265625e+01 4.809169843792915344e-02 1.245319247245788574e-01 5.178708583116531372e-02 8.162938058376312256e-02
5.412000000000000000e+03 2.257485008239746094e+01 2.040653419494628906e+01 4.871087893843650818e-02 1.244607269763946533e-01 5.195148289203643799e-02 8.190674334764480591e-02
5.413000000000000000e+03 3.648328399658203125e+01 8.010998725891113281e+00 -4.065154492855072021e-01 1.410424560308456421e-01 -7.964190095663070679e-02 -1.657215654850006104e-01
5.414000000000000000e+03 1.484843444824218750e+01 1.312155437469482422e+01 4.313101992011070251e-02 1.833918243646621704e-01 6.795684993267059326e-02 6.969485431909561157e-02
5.415000000000000000e+03 4.248516845703125000e+01 1.637928199768066406e+01 -3.343253433704376221e-01 6.291027665138244629e-01 8.843322843313217163e-02 3.036644309759140015e-02
5.416000000000000000e+03 1.468191337585449219e+01 1.239675331115722656e+01 4.793841764330863953e-02 1.974625885486602783e-01 7.362030446529388428e-02 7.282909750938415527e-02
5.417000000000000000e+03 1.329104423522949219e+01 1.321272659301757812e+01 3.461389243602752686e-02 1.589513272047042847e-01 5.806956812739372253e-02 4.066395014524459839e-02
5.418000000000000000e+03 4.255460739135742188e+01 1.558563899993896484e+01 -3.360053002834320068e-01 7.398782968521118164e-01 1.211618930101394653e-01 6.855202466249465942e-02
5.419000000000000000e+03 3.233647537231445312e+01 1.184592008590698242e+00 -2.112186551094055176e-01 -3.839014098048210144e-02 -7.488264143466949463e-02 -4.273521527647972107e-02
5.420000000000000000e+03 2.854534530639648438e+01 1.031119823455810547e+00 -4.630951583385467529e-01 -2.701924741268157959e-01 -2.199862897396087646e-01 -1.115142628550529480e-01
5.421000000000000000e+03 3.716180801391601562e+01 8.879713058471679688e+00 -4.167497754096984863e-01 2.008119970560073853e-01 -6.478133052587509155e-02 -1.590888202190399170e-01
5.422000000000000000e+03 2.059236145019531250e+01 1.892146110534667969e+01 4.682276025414466858e-02 1.333866566419601440e-01 5.406282469630241394e-02 8.099865168333053589e-02
5.423000000000000000e+03 5.352549743652343750e+01 2.778689765930175781e+01 7.127161026000976562e-01 3.189087867736816406e+00 1.170541167259216309e+00 2.060449838638305664e+00
5.424000000000000000e+03 1.374783897399902344e+01 1.302551746368408203e+01 3.471142426133155823e-02 1.731845587491989136e-01 6.236879527568817139e-02 4.871807992458343506e-02
5.425000000000000000e+03 4.849140930175781250e+01 2.155836868286132812e+01 -7.359666377305984497e-02 1.779083847999572754e+00 5.116461515426635742e-01 7.522050738334655762e-01
5.426000000000000000e+03 6.052240371704101562e+01 2.763578414916992188e+01 -7.925478816032409668e-01 1.068305587768554688e+01 2.967152357101440430e+00 7.223922610282897949e-01
5.427000000000000000e+03 6.455133819580078125e+01 2.510806083679199219e+01 -8.219077587127685547e-01 9.589869499206542969e+00 2.630388498306274414e+00 -9.068375825881958008e-01
5.428000000000000000e+03 1.507583808898925781e+01 1.387562751770019531e+01 3.953823447227478027e-02 1.713762283325195312e-01 6.327433884143829346e-02 6.734253466129302979e-02
5.429000000000000000e+03 5.990203475952148438e+01 2.865555572509765625e+01 -5.986632108688354492e-01 1.120839881896972656e+01 3.182920694351196289e+00 1.203689575195312500e+00
5.430000000000000000e+03 1.558217334747314453e+01 1.409192752838134766e+01 4.295686632394790649e-02 1.718282699584960938e-01 6.443554162979125977e-02 7.447879761457443237e-02
5.431000000000000000e+03 1.443364524841308594e+01 1.289975357055664062e+01 4.216295108199119568e-02 1.842635869979858398e-01 6.792796403169631958e-02 6.418324261903762817e-02
5.432000000000000000e+03 1.301316356658935547e+01 1.178945350646972656e+01 4.090790823101997375e-02 1.841419190168380737e-01 6.751494854688644409e-02 3.840197250247001648e-02
5.433000000000000000e+03 3.177791404724121094e+01 8.717762231826782227e-01 -2.060542255640029907e-01 -8.906672149896621704e-02 -8.853628486394882202e-02 -3.660862892866134644e-02
5.434000000000000000e+03 1.723748207092285156e+01 1.475541782379150391e+01 5.485641956329345703e-02 1.669888347387313843e-01 6.655357778072357178e-02 9.039338678121566772e-02
5.435000000000000000e+03 1.665077209472656250e+01 1.493614578247070312e+01 4.521400481462478638e-02 1.641114354133605957e-01 6.279762834310531616e-02 8.059632778167724609e-02
5.436000000000000000e+03 3.590369796752929688e+01 5.428901672363281250e+00 -3.170915544033050537e-01 2.158690840005874634e-01 -3.036674298346042633e-02 -1.102420687675476074e-01
5.437000000000000000e+03 1.288804626464843750e+01 1.073865985870361328e+01 5.181028693914413452e-02 2.076158970594406128e-01 7.782785594463348389e-02 3.715522214770317078e-02
5.438000000000000000e+03 1.153839302062988281e+01 1.022367000579833984e+01 6.141667440533638000e-02 1.697511672973632812e-01 6.935035437345504761e-02 -3.030707128345966339e-03
5.439000000000000000e+03 3.346572113037109375e+01 4.890328273177146912e-03 -7.164684683084487915e-02 8.895523846149444580e-02 5.192518699914216995e-03 5.864121951162815094e-03
5.440000000000000000e+03 2.083959579467773438e+01 1.947730827331542969e+01 4.286878556013107300e-02 1.303362846374511719e-01 5.196152254939079285e-02 7.869070023298263550e-02
5.441000000000000000e+03 2.481180000305175781e+01 2.403580474853515625e+01 3.832252696156501770e-02 1.100795269012451172e-01 4.452061653137207031e-02 7.110346108675003052e-02
5.442000000000000000e+03 3.982386398315429688e+01 1.272534275054931641e+01 -4.163028299808502197e-01 3.897611498832702637e-01 -7.962499745190143585e-03 -1.022715568542480469e-01
5.443000000000000000e+03 1.786593437194824219e+01 1.500797176361083984e+01 5.938027054071426392e-02 1.641353666782379150e-01 6.705468893051147461e-02 9.465176612138748169e-02
5.444000000000000000e+03 1.750419235229492188e+01 1.654889106750488281e+01 4.129717126488685608e-02 1.473308801651000977e-01 5.658841505646705627e-02 7.569767534732818604e-02
5.445000000000000000e+03 3.342585372924804688e+01 4.144370079040527344e+00 -3.876216709613800049e-01 -4.197217524051666260e-02 -1.288781464099884033e-01 -1.908939480781555176e-01
5.446000000000000000e+03 3.485387420654296875e+01 3.617154121398925781e+00 -2.802785038948059082e-01 1.662182658910751343e-01 -3.421807661652565002e-02 -8.742597699165344238e-02
5.447000000000000000e+03 3.515865707397460938e+01 5.502115249633789062e+00 -3.464197218418121338e-01 9.194719791412353516e-02 -7.634175568819046021e-02 -1.562453508377075195e-01
5.448000000000000000e+03 1.241434288024902344e+01 1.230411338806152344e+01 3.588635474443435669e-02 1.588841378688812256e-01 5.843114480376243591e-02 2.518186159431934357e-02
5.449000000000000000e+03 3.113630676269531250e+01 2.451484203338623047e+00 -4.372912049293518066e-01 -1.881641745567321777e-01 -1.876366138458251953e-01 -1.526329070329666138e-01
5.450000000000000000e+03 3.066463661193847656e+01 1.606857657432556152e+00 -3.535137176513671875e-01 -2.005145251750946045e-01 -1.662084758281707764e-01 -9.864937514066696167e-02
5.451000000000000000e+03 2.753979301452636719e+01 2.990924453735351562e+01 2.950699068605899811e-02 8.906839787960052490e-02 3.557261452078819275e-02 4.906364157795906067e-02
5.452000000000000000e+03 2.720425987243652344e+01 2.833031082153320312e+01 3.353399410843849182e-02 9.212321043014526367e-02 3.769715875387191772e-02 5.591480433940887451e-02
5.453000000000000000e+03 2.449678802490234375e+01 2.584353065490722656e+01 2.687648311257362366e-02 1.021633967757225037e-01 3.871196508407592773e-02 6.076058745384216309e-02
5.454000000000000000e+03 2.431174087524414062e+01 2.501552772521972656e+01 3.094613924622535706e-02 1.063666120171546936e-01 4.119382426142692566e-02 6.341888010501861572e-02
5.455000000000000000e+03 2.475173377990722656e+01 2.280022048950195312e+01 4.484226554632186890e-02 1.146239340305328369e-01 4.783986136317253113e-02 7.643759250640869141e-02
5.456000000000000000e+03 2.594643592834472656e+01 2.705806922912597656e+01 3.181929513812065125e-02 9.871243685483932495e-02 3.915952146053314209e-02 6.133816763758659363e-02
5.457000000000000000e+03 2.553265571594238281e+01 2.630011367797851562e+01 2.986047789454460144e-02 1.020423471927642822e-01 3.957084566354751587e-02 6.149766594171524048e-02
5.458000000000000000e+03 3.377825927734375000e+01 4.699611663818359375e-01 -1.073114648461341858e-01 1.162117943167686462e-01 2.670098794624209404e-03 9.845164604485034943e-03
5.459000000000000000e+03 3.416925811767578125e+01 -6.051038503646850586e-01 -2.204550057649612427e-02 1.723487824201583862e-01 4.509098827838897705e-02 2.459789253771305084e-02
5.460000000000000000e+03 3.408948898315429688e+01 3.406816720962524414e+00 -3.062734603881835938e-01 7.052929699420928955e-02 -7.072325050830841064e-02 -1.141628995537757874e-01
5.461000000000000000e+03 3.835150909423828125e+01 1.182743263244628906e+01 -4.650683104991912842e-01 1.666088551282882690e-01 -8.953783661127090454e-02 -2.005062401294708252e-01
5.462000000000000000e+03 3.840686798095703125e+01 1.094014644622802734e+01 -4.399783313274383545e-01 2.613797485828399658e-01 -5.357958003878593445e-02 -1.537213772535324097e-01
5.463000000000000000e+03 1.275972747802734375e+01 1.117471218109130859e+01 4.651845619082450867e-02 1.934168487787246704e-01 7.198059558868408203e-02 3.206295520067214966e-02
5.464000000000000000e+03 3.678481292724609375e+01 -1.102839946746826172e+00 2.531162463128566742e-02 5.745479464530944824e-01 1.799578666687011719e-01 5.301192030310630798e-02
5.465000000000000000e+03 3.113846588134765625e+01 1.207282781600952148e+00 -2.712779343128204346e-01 -1.451424956321716309e-01 -1.249261349439620972e-01 -5.678520351648330688e-02
5.466000000000000000e+03 3.185383796691894531e+01 1.323503255844116211e+00 -2.623890340328216553e-01 -1.009323447942733765e-01 -1.089964136481285095e-01 -5.977521091699600220e-02
5.467000000000000000e+03 3.280763626098632812e+01 3.102584600448608398e+00 -3.559040129184722900e-01 -4.938777908682823181e-02 -1.215875372290611267e-01 -1.458790749311447144e-01
5.468000000000000000e+03 3.211212539672851562e+01 2.244883537292480469e+00 -3.419249057769775391e-01 -9.460796415805816650e-02 -1.309598535299301147e-01 -1.080291271209716797e-01
5.469000000000000000e+03 1.814743232727050781e+01 1.646114158630371094e+01 4.632388055324554443e-02 1.506717056035995483e-01 5.909867584705352783e-02 8.229152113199234009e-02
5.470000000000000000e+03 1.822030067443847656e+01 1.711691474914550781e+01 4.332539439201354980e-02 1.440234929323196411e-01 5.620466545224189758e-02 7.760363817214965820e-02
5.471000000000000000e+03 6.038336563110351562e+01 2.821012115478515625e+01 -7.061067819595336914e-01 1.105813980102539062e+01 3.105609893798828125e+00 8.046944141387939453e-01
5.472000000000000000e+03 1.284200382232666016e+01 1.503893184661865234e+01 2.126754261553287506e-02 1.224728152155876160e-01 4.312210902571678162e-02 2.644035778939723969e-02
5.473000000000000000e+03 6.360055923461914062e+01 4.144023895263671875e+00 -4.389243125915527344e-01 6.564847946166992188e+00 1.837777137756347656e+00 7.614781707525253296e-02
5.474000000000000000e+03 1.230296611785888672e+01 1.038410758972167969e+01 5.470004305243492126e-02 2.012835144996643066e-01 7.679506391286849976e-02 1.973940990865230560e-02
5.475000000000000000e+03 1.332711029052734375e+01 1.239024257659912109e+01 3.871817141771316528e-02 1.785298436880111694e-01 6.517440825700759888e-02 4.358306154608726501e-02
5.476000000000000000e+03 6.463156127929687500e+01 1.747789573669433594e+01 -1.001972317695617676e+00 7.911299228668212891e+00 2.072798013687133789e+00 -3.719493746757507324e-01
5.477000000000000000e+03 6.361812591552734375e+01 2.606783676147460938e+01 -7.465357184410095215e-01 1.005442237854003906e+01 2.792366027832031250e+00 -7.728528380393981934e-01
5.478000000000000000e+03 3.825447463989257812e+01 -2.177567005157470703e+00 3.819156065583229065e-02 8.329781889915466309e-01 2.613509297370910645e-01 6.431094557046890259e-02
5.479000000000000000e+03 3.747640991210937500e+01 -1.261757850646972656e+00 1.458419393748044968e-02 6.765542626380920410e-01 2.073415368795394897e-01 6.808473169803619385e-02
5.480000000000000000e+03 1.346074008941650391e+01 1.672094154357910156e+01 1.377918384969234467e-02 1.102209687232971191e-01 3.720004484057426453e-02 2.728176116943359375e-02
5.481000000000000000e+03 1.309227657318115234e+01 1.936255836486816406e+01 3.066609380766749382e-03 7.868795841932296753e-02 2.452637068927288055e-02 1.530474424362182617e-02
5.482000000000000000e+03 2.616140937805175781e+01 3.303982162475585938e+01 2.141217328608036041e-02 8.026666939258575439e-02 3.050365112721920013e-02 3.341839835047721863e-02
5.483000000000000000e+03 1.245529270172119141e+01 1.369556522369384766e+01 2.783580124378204346e-02 1.378410011529922485e-01 4.970304295420646667e-02 2.319526858627796173e-02
5.484000000000000000e+03 1.267874050140380859e+01 1.424818038940429688e+01 2.357145957648754120e-02 1.305727660655975342e-01 4.624326527118682861e-02 2.655052766203880310e-02
5.485000000000000000e+03 2.650264739990234375e+01 2.775023269653320312e+01 2.919740229845046997e-02 1.012661904096603394e-01 3.913907706737518311e-02 5.967489629983901978e-02
5.486000000000000000e+03 6.351548004150390625e+01 2.677269744873046875e+01 -6.162029504776000977e-01 1.027650260925292969e+01 2.898090124130249023e+00 -8.382952213287353516e-01
5.487000000000000000e+03 4.515835952758789062e+01 -6.270912170410156250e+00 -5.059252306818962097e-02 2.334882974624633789e+00 6.852871179580688477e-01 9.105940163135528564e-02
5.488000000000000000e+03 4.326166915893554688e+01 -5.364178657531738281e+00 -8.541564457118511200e-03 1.894154548645019531e+00 5.656839013099670410e-01 7.668804377317428589e-02
5.489000000000000000e+03 6.170270156860351562e+01 2.730777359008789062e+01 -7.792683839797973633e-01 1.076434707641601562e+01 2.995523452758789062e+00 -2.362006530165672302e-02
5.490000000000000000e+03 6.493961334228515625e+01 2.465189552307128906e+01 -8.150302171707153320e-01 9.441226005554199219e+00 2.587858676910400391e+00 -9.699464440345764160e-01
5.491000000000000000e+03 6.185491561889648438e+01 -2.292075395584106445e+00 -2.802650034427642822e-01 6.060605049133300781e+00 1.734102010726928711e+00 1.985310018062591553e-01
5.492000000000000000e+03 3.515699005126953125e+01 4.399750232696533203e+00 -3.060755431652069092e-01 1.639245301485061646e-01 -4.264530166983604431e-02 -1.090504676103591919e-01
5.493000000000000000e+03 3.921227264404296875e+01 -2.182767629623413086e+00 3.888353705406188965e-02 1.011298775672912598e+00 3.150546848773956299e-01 8.269820362329483032e-02
5.494000000000000000e+03 6.538644409179687500e+01 2.333123970031738281e+01 -9.075534343719482422e-01 9.060892105102539062e+00 2.446001529693603516e+00 -9.324344396591186523e-01
5.495000000000000000e+03 1.904262161254882812e+01 1.844066429138183594e+01 3.891414776444435120e-02 1.354511827230453491e-01 5.230959877371788025e-02 7.383505254983901978e-02
5.496000000000000000e+03 1.384945964813232422e+01 2.153119087219238281e+01 -1.418258296325802803e-03 7.160169631242752075e-02 2.105502970516681671e-02 1.658088527619838715e-02
5.497000000000000000e+03 6.469325256347656250e+01 4.733675718307495117e-02 -3.003466427326202393e-01 6.646511077880859375e+00 1.903849363327026367e+00 1.154092997312545776e-01
5.498000000000000000e+03 6.462719726562500000e+01 2.400100135803222656e+01 -9.389042258262634277e-01 9.307240486145019531e+00 2.510500907897949219e+00 -8.095110058784484863e-01
5.499000000000000000e+03 6.571665191650390625e+01 2.658516693115234375e+01 -3.522887527942657471e-01 9.691636085510253906e+00 2.801804065704345703e+00 -1.372242569923400879e+00
5.500000000000000000e+03 6.433745574951171875e+01 4.791656494140625000e+00 -4.508475363254547119e-01 6.738187313079833984e+00 1.886201977729797363e+00 3.695888444781303406e-02
5.501000000000000000e+03 6.656310272216796875e+01 1.842416572570800781e+01 -9.074053764343261719e-01 8.188981056213378906e+00 2.184472799301147461e+00 -7.122631072998046875e-01
5.502000000000000000e+03 6.744392395019531250e+01 1.841575431823730469e+01 -8.429764509201049805e-01 8.186902999877929688e+00 2.203177928924560547e+00 -8.192223906517028809e-01
5.503000000000000000e+03 4.639197158813476562e+01 -9.161597251892089844e+00 -8.060774207115173340e-02 2.636921167373657227e+00 7.668940424919128418e-01 4.860721901059150696e-02
5.504000000000000000e+03 4.473614120483398438e+01 -8.767946243286132812e+00 -4.619298130273818970e-02 2.297855854034423828e+00 6.754988431930541992e-01 2.813016436994075775e-02
5.505000000000000000e+03 6.521940612792968750e+01 2.191967201232910156e+01 -9.951402544975280762e-01 8.783802986145019531e+00 2.336598634719848633e+00 -7.658267617225646973e-01
5.506000000000000000e+03 6.597141265869140625e+01 2.155189323425292969e+01 -9.423111677169799805e-01 8.675020217895507812e+00 2.319812774658203125e+00 -8.918747305870056152e-01
5.507000000000000000e+03 6.499969482421875000e+01 5.441262722015380859e+00 -4.571791887283325195e-01 6.891758918762207031e+00 1.930373907089233398e+00 -3.723743837326765060e-03
5.508000000000000000e+03 6.665509796142578125e+01 7.237445831298828125e+00 -4.802832305431365967e-01 7.254285812377929688e+00 2.032200813293457031e+00 -1.310749351978302002e-01
5.509000000000000000e+03 6.517938232421875000e+01 2.748237609863281250e+01 -1.436403691768646240e-01 1.001664352416992188e+01 2.961900949478149414e+00 -1.416208028793334961e+00
5.510000000000000000e+03 6.285378265380859375e+01 -3.699390888214111328e+00 -2.492411881685256958e-01 6.226587772369384766e+00 1.793203949928283691e+00 1.887781172990798950e-01
5.511000000000000000e+03 6.381364059448242188e+01 -4.255661487579345703e+00 -2.286733239889144897e-01 6.412270545959472656e+00 1.855079174041748047e+00 1.860429644584655762e-01
5.512000000000000000e+03 2.842045021057128906e+01 3.167964744567871094e+01 2.642285265028476715e-02 8.662294596433639526e-02 3.391373902559280396e-02 4.396599158644676208e-02
5.513000000000000000e+03 6.504862976074218750e+01 9.474063873291015625e+00 -6.200348138809204102e-01 7.120148181915283203e+00 1.950033903121948242e+00 -1.223609745502471924e-01
5.514000000000000000e+03 6.552148437500000000e+01 1.085038661956787109e+01 -6.719667911529541016e-01 7.287322521209716797e+00 1.984606623649597168e+00 -1.959657818078994751e-01
5.515000000000000000e+03 4.831768798828125000e+01 -1.507551002502441406e+01 -1.689849644899368286e-01 3.273507595062255859e+00 9.313567876815795898e-01 8.961158804595470428e-03
5.516000000000000000e+03 5.025239181518554688e+01 -1.432317924499511719e+01 -1.793866902589797974e-01 3.688822507858276367e+00 1.052830696105957031e+00 7.256465405225753784e-02
5.517000000000000000e+03 6.359630966186523438e+01 2.626753568649291992e+00 -3.866169154644012451e-01 6.509014606475830078e+00 1.836719274520874023e+00 9.998299926519393921e-02
5.518000000000000000e+03 6.359185791015625000e+01 9.192141890525817871e-01 -3.367603421211242676e-01 6.460334777832031250e+00 1.837072253227233887e+00 1.278474032878875732e-01
5.519000000000000000e+03 6.616337585449218750e+01 7.889091014862060547e+00 -5.171074867248535156e-01 7.201413631439208984e+00 2.005291700363159180e+00 -1.269410550594329834e-01
5.520000000000000000e+03 6.741373443603515625e+01 1.747890663146972656e+01 -8.242256641387939453e-01 8.087718009948730469e+00 2.179047822952270508e+00 -7.365231513977050781e-01
5.521000000000000000e+03 1.508128929138183594e+01 2.365978240966796875e+01 -1.955776475369930267e-03 7.005931437015533447e-02 2.043106220662593842e-02 1.849013753235340118e-02
5.522000000000000000e+03 1.465284824371337891e+01 2.209740447998046875e+01 2.860036620404571295e-04 7.597859948873519897e-02 2.287938073277473450e-02 1.978924497961997986e-02
5.523000000000000000e+03 1.547812366485595703e+01 2.256539535522460938e+01 1.828559907153248787e-03 8.241053670644760132e-02 2.527172863483428955e-02 2.586329728364944458e-02
5.524000000000000000e+03 1.325736141204833984e+01 2.768244361877441406e+01 -8.095612749457359314e-03 3.139837831258773804e-02 6.990830413997173309e-03 4.814949352294206619e-03
5.525000000000000000e+03 6.471612548828125000e+01 -1.196418762207031250e+01 -1.321123689413070679e-01 6.548657894134521484e+00 1.924963593482971191e+00 2.644745409488677979e-01
5.526000000000000000e+03 6.595475769042968750e+01 -1.326178455352783203e+01 -1.151803433895111084e-01 6.752321243286132812e+00 1.991142272949218750e+00 2.715613245964050293e-01
5.527000000000000000e+03 2.870810127258300781e+01 3.022948074340820312e+01 3.905255347490310669e-02 9.256465733051300049e-02 3.948516398668289185e-02 5.754113197326660156e-02
5.528000000000000000e+03 6.393770217895507812e+01 -9.270108222961425781e+00 -1.625310927629470825e-01 6.388304233551025391e+00 1.867731928825378418e+00 2.372518777847290039e-01
5.529000000000000000e+03 4.210580825805664062e+01 -2.133256912231445312e+00 -2.022610045969486237e-02 1.591239213943481445e+00 4.713039398193359375e-01 1.295846849679946899e-01
5.530000000000000000e+03 6.465975189208984375e+01 1.267260837554931641e+01 -7.827326059341430664e-01 7.302826881408691406e+00 1.956028342247009277e+00 -1.858634054660797119e-01
5.531000000000000000e+03 6.602451324462890625e+01 -1.598874378204345703e+01 -9.223346412181854248e-02 6.770379066467285156e+00 2.003443717956542969e+00 3.038166761398315430e-01
5.532000000000000000e+03 6.478218078613281250e+01 -1.378625583648681641e+01 -1.265637427568435669e-01 6.535985946655273438e+00 1.922826647758483887e+00 2.861469984054565430e-01
5.533000000000000000e+03 6.237308120727539062e+01 -4.657721042633056641e+00 -2.372753769159317017e-01 6.112756729125976562e+00 1.762644529342651367e+00 2.060200273990631104e-01
5.534000000000000000e+03 5.096956253051757812e+01 -1.633113861083984375e+01 -1.985108703374862671e-01 3.913888454437255859e+00 1.114613294601440430e+00 9.057078510522842407e-02
5.535000000000000000e+03 1.505956745147705078e+01 -2.208455657958984375e+01 1.301134526729583740e-01 -1.098418086767196655e-01 6.081495434045791626e-03 -2.134602218866348267e-01
5.536000000000000000e+03 1.559198570251464844e+01 -2.603826522827148438e+01 1.083204895257949829e-01 -9.087600558996200562e-02 5.233345553278923035e-03 -1.924686282873153687e-01
5.537000000000000000e+03 4.572842025756835938e+01 -8.242075920104980469e+00 -6.171217188239097595e-02 2.514929056167602539e+00 7.359650731086730957e-01 6.042502820491790771e-02
5.538000000000000000e+03 5.374625015258789062e+01 -2.449681282043457031e+01 -7.257059961557388306e-02 4.771317005157470703e+00 1.409623980522155762e+00 2.702220976352691650e-01
5.539000000000000000e+03 5.582389450073242188e+01 -2.266423797607421875e+01 -9.541483223438262939e-02 5.042571544647216797e+00 1.484146952629089355e+00 2.986773848533630371e-01
5.540000000000000000e+03 6.200220108032226562e+01 -2.182361602783203125e+01 -6.021755188703536987e-02 6.052995681762695312e+00 1.797833442687988281e+00 3.570563197135925293e-01
5.541000000000000000e+03 6.201562118530273438e+01 -2.633885765075683594e+01 4.771293327212333679e-02 6.073309898376464844e+00 1.836306810379028320e+00 3.831983208656311035e-01
5.542000000000000000e+03 6.478392028808593750e+01 -1.998270797729492188e+01 -6.303086876869201660e-02 6.526066780090332031e+00 1.938910722732543945e+00 3.355736136436462402e-01
5.543000000000000000e+03 5.527534103393554688e+01 2.965890312194824219e+01 1.284714818000793457e+00 4.489978313446044922e+00 1.732407927513122559e+00 2.980565071105957031e+00
5.544000000000000000e+03 5.549340057373046875e+01 3.034548377990722656e+01 1.659433603286743164e+00 4.413937568664550781e+00 1.822011351585388184e+00 3.169541835784912109e+00
5.545000000000000000e+03 4.691196441650390625e+01 1.918545341491699219e+01 -1.838280260562896729e-01 1.554684042930603027e+00 4.112567901611328125e-01 5.350124835968017578e-01
5.546000000000000000e+03 4.965895080566406250e+01 2.197969436645507812e+01 -4.762732237577438354e-02 2.211421251296997070e+00 6.491381525993347168e-01 9.551336765289306641e-01
5.547000000000000000e+03 4.964986801147460938e+01 2.269934082031250000e+01 8.369710296392440796e-03 2.059797763824462891e+00 6.204502582550048828e-01 9.507393240928649902e-01
5.548000000000000000e+03 4.808991622924804688e+01 2.155659484863281250e+01 -7.904706895351409912e-02 1.623549103736877441e+00 4.633506238460540771e-01 6.896901726722717285e-01
5.549000000000000000e+03 4.771018981933593750e+01 2.121261024475097656e+01 -9.847622364759445190e-02 1.535092592239379883e+00 4.309849143028259277e-01 6.331658959388732910e-01
5.550000000000000000e+03 4.927681732177734375e+01 2.194095611572265625e+01 -5.266427248716354370e-02 2.053849220275878906e+00 6.003555059432983398e-01 8.834660649299621582e-01
5.551000000000000000e+03 4.505143356323242188e+01 1.764233016967773438e+01 -2.452866733074188232e-01 1.173576354980468750e+00 2.784869074821472168e-01 3.093676269054412842e-01
5.552000000000000000e+03 4.606470108032226562e+01 1.889435768127441406e+01 -2.043127119541168213e-01 1.317252039909362793e+00 3.338817656040191650e-01 4.195223152637481689e-01
5.553000000000000000e+03 5.028917312622070312e+01 2.355146598815917969e+01 8.239027857780456543e-02 2.210492372512817383e+00 6.878647804260253906e-01 1.084927916526794434e+00
5.554000000000000000e+03 5.359437561035156250e+01 2.710939788818359375e+01 5.606839656829833984e-01 3.489905834197998047e+00 1.215176939964294434e+00 2.081188440322875977e+00
5.555000000000000000e+03 4.012696456909179688e+01 1.201743125915527344e+01 -3.938187062740325928e-01 5.269403457641601562e-01 3.993649780750274658e-02 -4.366019740700721741e-02
5.556000000000000000e+03 4.200347137451171875e+01 1.419057273864746094e+01 -3.545556068420410156e-01 7.561503052711486816e-01 1.204783990979194641e-01 5.599144101142883301e-02
5.557000000000000000e+03 5.516544342041015625e+01 2.887428855895996094e+01 9.246934652328491211e-01 4.658107757568359375e+00 1.674840331077575684e+00 2.785076618194580078e+00
5.558000000000000000e+03 5.064690780639648438e+01 2.368731498718261719e+01 9.151961654424667358e-02 2.348918199539184570e+00 7.321313023567199707e-01 1.150677561759948730e+00
5.559000000000000000e+03 5.097095108032226562e+01 2.496646118164062500e+01 2.390370666980743408e-01 2.236759185791015625e+00 7.427388429641723633e-01 1.246156692504882812e+00
5.560000000000000000e+03 4.159108734130859375e+01 1.426411056518554688e+01 -3.710663616657257080e-01 6.371866464614868164e-01 7.983607798814773560e-02 7.702595088630914688e-03
5.561000000000000000e+03 5.883380126953125000e+01 2.813097953796386719e+01 -5.455507040023803711e-01 9.877464294433593750e+00 2.799574136734008789e+00 1.982817769050598145e+00
5.562000000000000000e+03 5.191256713867187500e+01 2.561689186096191406e+01 3.214298486709594727e-01 2.633624792098999023e+00 8.865163326263427734e-01 1.487095713615417480e+00
5.563000000000000000e+03 5.122643280029296875e+01 2.530374526977539062e+01 2.851489782333374023e-01 2.300882101058959961e+00 7.758092880249023438e-01 1.307340741157531738e+00
5.564000000000000000e+03 4.760550308227539062e+01 2.086787414550781250e+01 -1.171249747276306152e-01 1.551220893859863281e+00 4.302287697792053223e-01 6.185929775238037109e-01
5.565000000000000000e+03 4.888924407958984375e+01 2.193071746826171875e+01 -5.343159660696983337e-02 1.889199852943420410e+00 5.507304668426513672e-01 8.177746534347534180e-01
5.566000000000000000e+03 5.849123001098632812e+01 2.832776641845703125e+01 -4.061234295368194580e-01 9.631318092346191406e+00 2.767558336257934570e+00 2.266477346420288086e+00
5.567000000000000000e+03 5.453201675415039062e+01 2.813986206054687500e+01 7.528890371322631836e-01 4.098427772521972656e+00 1.455394983291625977e+00 2.464933156967163086e+00
5.568000000000000000e+03 5.161597442626953125e+01 2.555889320373535156e+01 3.274720013141632080e-01 2.452051162719726562e+00 8.338569402694702148e-01 1.414438605308532715e+00
5.569000000000000000e+03 5.281700515747070312e+01 2.631344795227050781e+01 4.192001521587371826e-01 3.069049358367919922e+00 1.046474814414978027e+00 1.769901633262634277e+00
5.570000000000000000e+03 4.602788543701171875e+01 1.853726959228515625e+01 -2.123613208532333374e-01 1.339037775993347168e+00 3.380029201507568359e-01 4.205411374568939209e-01
5.571000000000000000e+03 5.105893707275390625e+01 2.378017807006835938e+01 9.274889528751373291e-02 2.546608924865722656e+00 7.918073534965515137e-01 1.242290139198303223e+00
5.572000000000000000e+03 4.392240524291992188e+01 1.681753730773925781e+01 -2.860742807388305664e-01 9.504534006118774414e-01 1.993137449026107788e-01 1.836576461791992188e-01
5.573000000000000000e+03 5.256566619873046875e+01 2.580969047546386719e+01 3.365383744239807129e-01 3.034514427185058594e+00 1.011315822601318359e+00 1.674152493476867676e+00
5.574000000000000000e+03 5.606188201904296875e+01 3.023588752746582031e+01 1.502687931060791016e+00 5.548185825347900391e+00 2.115262031555175781e+00 3.493694067001342773e+00
5.575000000000000000e+03 5.618343734741210938e+01 2.923106002807617188e+01 8.578768968582153320e-01 6.149068832397460938e+00 2.102083683013916016e+00 3.226904153823852539e+00
5.576000000000000000e+03 5.123394775390625000e+01 2.461268234252929688e+01 1.906716823577880859e-01 2.460932970046997070e+00 7.954813838005065918e-01 1.296875476837158203e+00
5.577000000000000000e+03 4.329877471923828125e+01 1.643165206909179688e+01 -3.090948760509490967e-01 8.306308984756469727e-01 1.564608067274093628e-01 1.175543144345283508e-01
5.578000000000000000e+03 4.414341354370117188e+01 1.649571228027343750e+01 -2.837697267532348633e-01 1.044427633285522461e+00 2.281973809003829956e-01 2.143813669681549072e-01
5.579000000000000000e+03 4.574497604370117188e+01 1.823593711853027344e+01 -2.176793217658996582e-01 1.309136986732482910e+00 3.274373114109039307e-01 3.935156762599945068e-01
5.580000000000000000e+03 4.543292999267578125e+01 1.791776657104492188e+01 -2.325522899627685547e-01 1.260005235671997070e+00 3.082358837127685547e-01 3.531535863876342773e-01
5.581000000000000000e+03 5.162556457519531250e+01 2.476841163635253906e+01 2.037373185157775879e-01 2.653182506561279297e+00 8.570759296417236328e-01 1.396341085433959961e+00
5.582000000000000000e+03 5.195899581909179688e+01 2.523726081848144531e+01 2.651903033256530762e-01 2.773655891418457031e+00 9.116538166999816895e-01 1.492803931236267090e+00
5.583000000000000000e+03 4.740434646606445312e+01 2.055496025085449219e+01 -1.330110579729080200e-01 1.529445409774780273e+00 4.189302921295166016e-01 5.917128920555114746e-01
5.584000000000000000e+03 5.876198577880859375e+01 2.910823631286621094e+01 -2.900068759918212891e-01 1.052612876892089844e+01 3.070836544036865234e+00 2.306071996688842773e+00
5.585000000000000000e+03 4.573761749267578125e+01 1.876984214782714844e+01 -2.151356041431427002e-01 1.221223115921020508e+00 3.018262684345245361e-01 3.771607577800750732e-01
5.586000000000000000e+03 5.417303466796875000e+01 2.779079627990722656e+01 6.844339966773986816e-01 3.826096296310424805e+00 1.353159070014953613e+00 2.291715383529663086e+00
5.587000000000000000e+03 4.455681991577148438e+01 1.722601318359375000e+01 -2.620993256568908691e-01 1.074825048446655273e+00 2.438177168369293213e-01 2.517675757408142090e-01
5.588000000000000000e+03 4.271335983276367188e+01 1.605365753173828125e+01 -3.291226625442504883e-01 7.135838270187377930e-01 1.153383553028106689e-01 6.495409458875656128e-02
5.589000000000000000e+03 4.015312957763671875e+01 1.375581073760986328e+01 -4.227594733238220215e-01 3.685123324394226074e-01 -1.627414301037788391e-02 -1.144665926694869995e-01
5.590000000000000000e+03 1.827328491210937500e+01 1.828554916381835938e+01 3.393109142780303955e-02 1.338903307914733887e-01 5.034642666578292847e-02 6.811127066612243652e-02
5.591000000000000000e+03 4.809470367431640625e+01 2.115437507629394531e+01 -9.798381477594375610e-02 1.692580223083496094e+00 4.783789217472076416e-01 6.956641077995300293e-01
5.592000000000000000e+03 3.941621017456054688e+01 1.156850719451904297e+01 -4.114026129245758057e-01 4.151509404182434082e-01 1.124496804550290108e-03 -9.229150414466857910e-02
5.593000000000000000e+03 4.060432815551757812e+01 1.390169906616210938e+01 -4.038194417953491211e-01 4.489950239658355713e-01 1.355268247425556183e-02 -7.471808046102523804e-02
5.594000000000000000e+03 1.371049118041992188e+01 1.252200794219970703e+01 4.014874622225761414e-02 1.805670410394668579e-01 6.621474027633666992e-02 5.076249688863754272e-02
5.595000000000000000e+03 4.467392349243164062e+01 1.635429191589355469e+01 -2.733659744262695312e-01 1.204976439476013184e+00 2.794831395149230957e-01 2.792099714279174805e-01
5.596000000000000000e+03 3.756544113159179688e+01 8.587582588195800781e+00 -3.884668350219726562e-01 2.928124964237213135e-01 -2.869630232453346252e-02 -1.182996556162834167e-01
5.597000000000000000e+03 3.793061065673828125e+01 9.603766441345214844e+00 -4.102125465869903564e-01 2.863034904003143311e-01 -3.717271611094474792e-02 -1.280932277441024780e-01
5.598000000000000000e+03 2.259584808349609375e+01 2.119072914123535156e+01 4.283226281404495239e-02 1.204397305846214294e-01 4.898159578442573547e-02 7.624673098325729370e-02
5.599000000000000000e+03 5.460977554321289062e+01 2.883670997619628906e+01 9.756289124488830566e-01 3.910395860671997070e+00 1.465807437896728516e+00 2.540716409683227539e+00
5.600000000000000000e+03 5.384671401977539062e+01 2.714459419250488281e+01 5.454423427581787109e-01 3.646360874176025391e+00 1.257540941238403320e+00 2.120163679122924805e+00
5.601000000000000000e+03 2.186791610717773438e+01 2.024549865722656250e+01 4.503273591399192810e-02 1.257272809743881226e-01 5.122800543904304504e-02 7.932310551404953003e-02
5.602000000000000000e+03 4.721824264526367188e+01 2.105367851257324219e+01 -1.191759258508682251e-01 1.367765903472900391e+00 3.745769858360290527e-01 5.466817021369934082e-01
5.603000000000000000e+03 4.683039855957031250e+01 2.046390914916992188e+01 -1.455457508563995361e-01 1.337302088737487793e+00 3.575268983840942383e-01 5.068531036376953125e-01
5.604000000000000000e+03 1.599116802215576172e+01 1.492589950561523438e+01 4.045486822724342346e-02 1.614155620336532593e-01 6.056113168597221375e-02 7.276294380426406860e-02
5.605000000000000000e+03 6.118282699584960938e+01 2.722372245788574219e+01 -8.405919671058654785e-01 1.057097911834716797e+01 2.919116258621215820e+00 2.764300704002380371e-01
5.606000000000000000e+03 1.932953643798828125e+01 1.895665550231933594e+01 3.603144735097885132e-02 1.323377639055252075e-01 5.051076412200927734e-02 7.259512692689895630e-02
5.607000000000000000e+03 1.563892078399658203e+01 2.024082565307617188e+01 8.968164213001728058e-03 1.007581204175949097e-01 3.291788324713706970e-02 3.399312496185302734e-02
5.608000000000000000e+03 3.842369461059570312e+01 9.707650184631347656e+00 -3.990508317947387695e-01 3.683386445045471191e-01 -9.213659912347793579e-03 -9.653239697217941284e-02
5.609000000000000000e+03 3.834621810913085938e+01 1.055930900573730469e+01 -4.274566471576690674e-01 2.768249511718750000e-01 -4.518951475620269775e-02 -1.421509534120559692e-01
5.610000000000000000e+03 1.407545185089111328e+01 1.266149997711181641e+01 4.139666631817817688e-02 1.846471428871154785e-01 6.781314313411712646e-02 5.800336971879005432e-02
5.611000000000000000e+03 4.300133514404296875e+01 1.623436927795410156e+01 -3.181401789188385010e-01 7.717177271842956543e-01 1.360732614994049072e-01 8.843792229890823364e-02
5.612000000000000000e+03 5.384455871582031250e+01 2.780625724792480469e+01 7.031496167182922363e-01 3.479640007019042969e+00 1.254836916923522949e+00 2.178028106689453125e+00
5.613000000000000000e+03 2.008726882934570312e+01 1.920378112792968750e+01 3.975525498390197754e-02 1.316145211458206177e-01 5.141093209385871887e-02 7.598333805799484253e-02
5.614000000000000000e+03 1.772145271301269531e+01 1.939104652404785156e+01 2.293220348656177521e-02 1.241560876369476318e-01 4.412648826837539673e-02 5.710912123322486877e-02
5.615000000000000000e+03 3.685359573364257812e+01 7.669808864593505859e+00 -3.827182948589324951e-01 2.293278574943542480e-01 -4.601712897419929504e-02 -1.317359656095504761e-01
5.616000000000000000e+03 3.785303497314453125e+01 9.081414222717285156e+00 -3.967288732528686523e-01 3.079522550106048584e-01 -2.663298696279525757e-02 -1.135844886302947998e-01
5.617000000000000000e+03 2.312036705017089844e+01 2.151154899597167969e+01 4.418979957699775696e-02 1.212481707334518433e-01 4.963139072060585022e-02 7.820104062557220459e-02
5.618000000000000000e+03 3.162010192871093750e+01 2.361519813537597656e+00 -3.774219751358032227e-01 -1.333299726247787476e-01 -1.532255858182907104e-01 -1.282449215650558472e-01
5.619000000000000000e+03 4.686204147338867188e+01 1.960652923583984375e+01 -1.731565296649932861e-01 1.474537372589111328e+00 3.904142379760742188e-01 5.199655294418334961e-01
5.620000000000000000e+03 4.892021560668945312e+01 2.152775764465332031e+01 -7.730531692504882812e-02 1.972433447837829590e+00 5.685384273529052734e-01 8.250070214271545410e-01
5.621000000000000000e+03 4.291327285766601562e+01 1.566809654235839844e+01 -3.251103460788726807e-01 8.098909854888916016e-01 1.454342007637023926e-01 9.833449125289916992e-02
5.622000000000000000e+03 3.556744766235351562e+01 6.749047279357910156e+00 -3.833310008049011230e-01 8.003151416778564453e-02 -9.098985046148300171e-02 -1.818380504846572876e-01
5.623000000000000000e+03 5.900520324707031250e+01 2.853794479370117188e+01 -4.950503110885620117e-01 1.033762454986572266e+01 2.952772140502929688e+00 1.955227255821228027e+00
5.624000000000000000e+03 2.110326385498046875e+01 2.002312660217285156e+01 4.169309139251708984e-02 1.267630457878112793e-01 5.053684115409851074e-02 7.648269832134246826e-02
5.625000000000000000e+03 2.132423019409179688e+01 1.921395492553710938e+01 4.972087964415550232e-02 1.308773756027221680e-01 5.417947471141815186e-02 8.291745930910110474e-02
5.626000000000000000e+03 3.280907440185546875e+01 9.827293157577514648e-01 -1.812150180339813232e-01 1.290921682084444910e-05 -5.436063557863235474e-02 -2.581636421382427216e-02
5.627000000000000000e+03 3.328985977172851562e+01 7.442446351051330566e-01 -1.352666318416595459e-01 6.184278801083564758e-02 -2.202715165913105011e-02 -1.530204340815544128e-02
5.628000000000000000e+03 3.672566986083984375e+01 8.329421997070312500e+00 -4.146613478660583496e-01 1.556473374366760254e-01 -7.770419865846633911e-02 -1.662103086709976196e-01
5.629000000000000000e+03 3.635467529296875000e+01 7.413685321807861328e+00 -3.872518837451934814e-01 1.654566228389739990e-01 -6.653857976198196411e-02 -1.532233655452728271e-01
5.630000000000000000e+03 2.336545944213867188e+01 2.089392662048339844e+01 4.803109541535377502e-02 1.217129677534103394e-01 5.092321708798408508e-02 8.025056868791580200e-02
5.631000000000000000e+03 1.458411884307861328e+01 1.365249919891357422e+01 3.637881949543952942e-02 1.693904697895050049e-01 6.173078715801239014e-02 6.044946610927581787e-02
5.632000000000000000e+03 1.375706195831298828e+01 1.406254291534423828e+01 2.985864877700805664e-02 1.520931571722030640e-01 5.458554252982139587e-02 4.419165104627609253e-02
5.633000000000000000e+03 3.860111999511718750e+01 1.128275203704833984e+01 -4.361315965652465820e-01 2.804517447948455811e-01 -4.670395702123641968e-02 -1.475807428359985352e-01
5.634000000000000000e+03 3.871514129638671875e+01 1.021747875213623047e+01 -4.010006487369537354e-01 3.924771845340728760e-01 -2.557036699727177620e-03 -9.244883805513381958e-02
5.635000000000000000e+03 3.301197052001953125e+01 2.672169208526611328e-01 -1.097398921847343445e-01 3.250123187899589539e-02 -2.317159809172153473e-02 6.917117163538932800e-03
5.636000000000000000e+03 3.384114074707031250e+01 2.281119346618652344e+00 -2.427347600460052490e-01 8.383241295814514160e-02 -4.767070338129997253e-02 -6.159844249486923218e-02
5.637000000000000000e+03 5.760094451904296875e+01 2.938754653930664062e+01 2.948369383811950684e-01 8.847785949707031250e+00 2.742786884307861328e+00 3.211718320846557617e+00
5.638000000000000000e+03 5.914334487915039062e+01 2.895564270019531250e+01 -4.390693306922912598e-01 1.086039161682128906e+01 3.126396656036376953e+00 1.934336304664611816e+00
5.639000000000000000e+03 2.034123611450195312e+01 1.976065635681152344e+01 3.857919573783874512e-02 1.279238164424896240e-01 4.995090141892433167e-02 7.349678874015808105e-02
5.640000000000000000e+03 3.633901977539062500e+01 -7.262377142906188965e-01 6.287080235779285431e-03 4.888921678066253662e-01 1.485537737607955933e-01 4.342148452997207642e-02
5.641000000000000000e+03 3.423807907104492188e+01 1.207637190818786621e-01 -6.815261393785476685e-02 1.710251122713088989e-01 3.086175210773944855e-02 1.392718870192766190e-02
5.642000000000000000e+03 3.106248664855957031e+01 1.597940683364868164e+00 -3.526615798473358154e-01 -1.719064563512802124e-01 -1.573704183101654053e-01 -9.580313414335250854e-02
5.643000000000000000e+03 3.109985351562500000e+01 2.014956235885620117e+00 -3.762885034084320068e-01 -1.718146353960037231e-01 -1.644309461116790771e-01 -1.153947934508323669e-01
5.644000000000000000e+03 1.246579742431640625e+01 1.089811801910400391e+01 4.834312945604324341e-02 1.940826475620269775e-01 7.272773236036300659e-02 2.709733135998249054e-02
5.645000000000000000e+03 3.445019531250000000e+01 4.632346630096435547e+00 -3.447779715061187744e-01 5.539705976843833923e-02 -8.681427687406539917e-02 -1.579958200454711914e-01
5.646000000000000000e+03 3.550544738769531250e+01 5.081965923309326172e+00 -3.193771839141845703e-01 1.719095557928085327e-01 -4.424028843641281128e-02 -1.188590601086616516e-01
5.647000000000000000e+03 2.139264106750488281e+01 2.057418441772460938e+01 3.875246644020080566e-02 1.244676932692527771e-01 4.896605014801025391e-02 7.446449995040893555e-02
5.648000000000000000e+03 1.770790863037109375e+01 1.569353294372558594e+01 4.963644593954086304e-02 1.567975431680679321e-01 6.193019822239875793e-02 8.490211516618728638e-02
5.649000000000000000e+03 1.728362846374511719e+01 1.604331779479980469e+01 4.200424998998641968e-02 1.534111946821212769e-01 5.862463265657424927e-02 7.870269566774368286e-02
5.650000000000000000e+03 1.877788162231445312e+01 1.638206100463867188e+01 5.425826087594032288e-02 1.511988192796707153e-01 6.163712590932846069e-02 8.874550461769104004e-02
5.651000000000000000e+03 1.818692970275878906e+01 1.775323677062988281e+01 3.648780658841133118e-02 1.391078829765319824e-01 5.267870798707008362e-02 7.229649275541305542e-02
5.652000000000000000e+03 3.200231933593750000e+01 1.785930633544921875e+00 -2.930566668510437012e-01 -8.489024639129638672e-02 -1.133840754628181458e-01 -8.069463819265365601e-02
5.653000000000000000e+03 3.315574645996093750e+01 1.934052705764770508e+00 -2.522330582141876221e-01 1.677553355693817139e-02 -7.063725590705871582e-02 -6.139420345425605774e-02
5.654000000000000000e+03 3.154512596130371094e+01 1.918451547622680664e+00 -3.454695343971252441e-01 -1.363657414913177490e-01 -1.445505768060684204e-01 -1.021134182810783386e-01
5.655000000000000000e+03 2.319651603698730469e+01 2.328554725646972656e+01 3.158535435795783997e-02 1.119088381528854370e-01 4.304825887084007263e-02 6.640701740980148315e-02
5.656000000000000000e+03 2.511086273193359375e+01 2.767062187194824219e+01 2.380813844501972198e-02 9.822866320610046387e-02 3.661103919148445129e-02 5.413034185767173767e-02
5.657000000000000000e+03 3.328113174438476562e+01 2.448982477188110352e+00 -2.766354680061340332e-01 2.270841225981712341e-02 -7.617811858654022217e-02 -8.799447864294052124e-02
5.658000000000000000e+03 1.755250549316406250e+01 1.776898384094238281e+01 3.340560942888259888e-02 1.378536969423294067e-01 5.137779563665390015e-02 6.807289272546768188e-02
5.659000000000000000e+03 1.632480430603027344e+01 1.608456802368164062e+01 3.374282270669937134e-02 1.493153125047683716e-01 5.491743981838226318e-02 6.728281080722808838e-02
5.660000000000000000e+03 2.473269271850585938e+01 2.673408889770507812e+01 2.661560662090778351e-02 1.012099906802177429e-01 3.834767639636993408e-02 5.870464071631431580e-02
5.661000000000000000e+03 1.385914897918701172e+01 1.743853950500488281e+01 1.048169471323490143e-02 1.088862419128417969e-01 3.581038117408752441e-02 2.943241782486438751e-02
5.662000000000000000e+03 1.214021110534667969e+01 1.317078971862792969e+01 2.933575771749019623e-02 1.352671384811401367e-01 4.938086867332458496e-02 2.119097299873828888e-02
5.663000000000000000e+03 1.496155357360839844e+01 1.979448509216308594e+01 7.271338719874620438e-03 9.901282191276550293e-02 3.188524767756462097e-02 3.146715089678764343e-02
5.664000000000000000e+03 6.289909362792968750e+01 4.953877449035644531e+00 -4.818629920482635498e-01 6.466744422912597656e+00 1.795464396476745605e+00 9.483412653207778931e-02
5.665000000000000000e+03 6.438842773437500000e+01 3.348218202590942383e+00 -4.004528224468231201e-01 6.696247100830078125e+00 1.888738274574279785e+00 6.303854286670684814e-02
5.666000000000000000e+03 1.321106624603271484e+01 1.381495285034179688e+01 2.791718766093254089e-02 1.472643464803695679e-01 5.255446210503578186e-02 3.517712652683258057e-02
5.667000000000000000e+03 6.557722473144531250e+01 2.070731735229492188e+01 -9.927028417587280273e-01 8.535593986511230469e+00 2.262867450714111328e+00 -7.376215457916259766e-01
5.668000000000000000e+03 2.364028358459472656e+01 2.524005126953125000e+01 2.537822723388671875e-02 1.044164672493934631e-01 3.893840685486793518e-02 6.054287031292915344e-02
5.669000000000000000e+03 1.385017490386962891e+01 1.560929870605468750e+01 2.147907763719558716e-02 1.312207728624343872e-01 4.580995813012123108e-02 3.734029084444046021e-02
5.670000000000000000e+03 1.813216972351074219e+01 1.905859756469726562e+01 2.860890701413154602e-02 1.269480586051940918e-01 4.666709154844284058e-02 6.162569671869277954e-02
5.671000000000000000e+03 6.432576751708984375e+01 6.122538089752197266e+00 -5.020149946212768555e-01 6.788913249969482422e+00 1.886069536209106445e+00 1.371058449149131775e-02
5.672000000000000000e+03 6.267277526855468750e+01 2.709112358093261719e+01 -6.649959683418273926e-01 1.057735919952392578e+01 2.973709106445312500e+00 -5.411429405212402344e-01
5.673000000000000000e+03 6.174871826171875000e+01 2.675957298278808594e+01 -8.783118128776550293e-01 1.039786911010742188e+01 2.855867147445678711e+00 -1.503189746290445328e-02
5.674000000000000000e+03 3.515912246704101562e+01 3.000108480453491211e+00 -2.320868223905563354e-01 2.298663854598999023e-01 -6.661339430138468742e-04 -5.162944272160530090e-02
5.675000000000000000e+03 3.509162521362304688e+01 1.581591367721557617e-02 -4.397444799542427063e-02 2.881212234497070312e-01 7.324403524398803711e-02 2.588377706706523895e-02
5.676000000000000000e+03 6.132652282714843750e+01 2.557110404968261719e+01 -1.041935920715332031e+00 9.690041542053222656e+00 2.594431638717651367e+00 2.937875092029571533e-01
5.677000000000000000e+03 6.288986206054687500e+01 2.651979255676269531e+01 -7.773213982582092285e-01 1.031849098205566406e+01 2.862350702285766602e+00 -5.464929938316345215e-01
5.678000000000000000e+03 6.187364959716796875e+01 -3.333994388580322266e+00 -2.608127593994140625e-01 6.055349349975585938e+00 1.738361001014709473e+00 2.061595916748046875e-01
5.679000000000000000e+03 6.595143890380859375e+01 1.952618408203125000e+01 -9.704030752182006836e-01 8.340006828308105469e+00 2.210880994796752930e+00 -7.027040719985961914e-01
5.680000000000000000e+03 6.564731597900390625e+01 1.855768775939941406e+01 -9.798949956893920898e-01 8.159644126892089844e+00 2.153924942016601562e+00 -5.858706831932067871e-01
5.681000000000000000e+03 6.523794555664062500e+01 2.409756851196289062e+01 -8.480625152587890625e-01 9.257342338562011719e+00 2.522783756256103516e+00 -9.813372492790222168e-01
5.682000000000000000e+03 6.554690551757812500e+01 2.519871139526367188e+01 -6.552378535270690918e-01 9.463779449462890625e+00 2.642562389373779297e+00 -1.188286900520324707e+00
5.683000000000000000e+03 6.459830474853515625e+01 2.315557670593261719e+01 -9.964468479156494141e-01 9.073718070983886719e+00 2.423181295394897461e+00 -7.224158048629760742e-01
5.684000000000000000e+03 1.585902881622314453e+01 2.158950996398925781e+01 5.107888951897621155e-03 9.180600196123123169e-02 2.907416597008705139e-02 2.998405694961547852e-02
5.685000000000000000e+03 6.443627166748046875e+01 2.223126220703125000e+01 -1.059934496879577637e+00 8.850511550903320312e+00 2.337172985076904297e+00 -6.181488037109375000e-01
5.686000000000000000e+03 6.570648193359375000e+01 2.264062309265136719e+01 -9.309945702552795410e-01 8.907979965209960938e+00 2.393095493316650391e+00 -9.223698377609252930e-01
5.687000000000000000e+03 2.560482978820800781e+01 3.053784751892089844e+01 2.416729740798473358e-02 8.634320646524429321e-02 3.315315023064613342e-02 4.424954950809478760e-02
5.688000000000000000e+03 2.377528190612792969e+01 2.709678840637207031e+01 1.931146904826164246e-02 9.667222946882247925e-02 3.479510918259620667e-02 5.266067758202552795e-02
5.689000000000000000e+03 6.373399734497070312e+01 6.779980182647705078e+00 -5.299480557441711426e-01 6.700513839721679688e+00 1.851169705390930176e+00 2.394292131066322327e-02
5.690000000000000000e+03 6.285013961791992188e+01 -9.191901683807373047e-01 -3.028383553028106689e-01 6.274083137512207031e+00 1.791373372077941895e+00 1.647273898124694824e-01
5.691000000000000000e+03 6.388864898681640625e+01 -2.057837247848510742e+00 -2.643723189830780029e-01 6.460322380065917969e+00 1.858785033226013184e+00 1.603965759277343750e-01
5.692000000000000000e+03 6.508392333984375000e+01 1.176278591156005859e+01 -7.331674695014953613e-01 7.303915023803710938e+00 1.971224188804626465e+00 -1.946925669908523560e-01
5.693000000000000000e+03 6.493098449707031250e+01 1.560161972045898438e+01 -9.110873341560363770e-01 7.671478271484375000e+00 2.028117179870605469e+00 -3.258506357669830322e-01
5.694000000000000000e+03 6.399690628051757812e+01 1.127280712127685547e+01 -7.354670166969299316e-01 7.058935642242431641e+00 1.897040605545043945e+00 -8.226742595434188843e-02
5.695000000000000000e+03 6.456568145751953125e+01 1.673466873168945312e+01 -9.728192687034606934e-01 7.790331840515136719e+00 2.045253753662109375e+00 -3.263693153858184814e-01
5.696000000000000000e+03 6.418885040283203125e+01 1.351628971099853516e+01 -8.391180634498596191e-01 7.309696674346923828e+00 1.941173672676086426e+00 -1.628302633762359619e-01
5.697000000000000000e+03 2.406857109069824219e+01 2.423260688781738281e+01 2.993318066000938416e-02 1.099343970417976379e-01 4.196027293801307678e-02 6.655595451593399048e-02
5.698000000000000000e+03 4.890768051147460938e+01 -1.361644268035888672e+01 -1.551788151264190674e-01 3.372694492340087891e+00 9.652546644210815430e-01 3.844883665442466736e-02
5.699000000000000000e+03 6.519165802001953125e+01 1.981657409667968750e+01 -1.030231475830078125e+00 8.353857040405273438e+00 2.197087764739990234e+00 -5.975957512855529785e-01
5.700000000000000000e+03 6.732489776611328125e+01 7.545650005340576172e+00 -4.626735746860504150e-01 7.381425380706787109e+00 2.075625658035278320e+00 -1.752004176378250122e-01
5.701000000000000000e+03 2.692162895202636719e+01 3.130399131774902344e+01 2.615250460803508759e-02 9.241124242544174194e-02 3.556912392377853394e-02 4.919719696044921875e-02
5.702000000000000000e+03 2.261164855957031250e+01 2.878484153747558594e+01 1.081197243183851242e-02 8.745030313730239868e-02 2.947868220508098602e-02 4.119843989610671997e-02
5.703000000000000000e+03 2.651289939880371094e+01 2.933420944213867188e+01 2.611419558525085449e-02 9.778866171836853027e-02 3.717085719108581543e-02 5.455804988741874695e-02
5.704000000000000000e+03 6.321102142333984375e+01 -7.686684131622314453e+00 -1.925523281097412109e-01 6.266578674316406250e+00 1.822207927703857422e+00 2.359098494052886963e-01
5.705000000000000000e+03 6.257440185546875000e+01 -1.509170913696289062e+01 -1.369006186723709106e-01 6.120602130889892578e+00 1.795110464096069336e+00 2.872157990932464600e-01
5.706000000000000000e+03 6.378665924072265625e+01 -6.645721912384033203e+00 -1.886541843414306641e-01 6.379525661468505859e+00 1.857261419296264648e+00 2.155516892671585083e-01
5.707000000000000000e+03 2.990037727355957031e+01 3.166323089599609375e+01 4.300005361437797546e-02 8.840346336364746094e-02 3.942105546593666077e-02 5.141575261950492859e-02
5.708000000000000000e+03 1.372717189788818359e+01 1.867923164367675781e+01 6.369865033775568008e-03 9.433313459157943726e-02 3.021090105175971985e-02 2.381543256342411041e-02
5.709000000000000000e+03 1.532361888885498047e+01 1.620926666259765625e+01 2.590578608214855194e-02 1.399031877517700195e-01 4.974269121885299683e-02 5.407173931598663330e-02
5.710000000000000000e+03 1.552902317047119141e+01 2.986157035827636719e+01 -7.805447094142436981e-03 4.322586953639984131e-02 1.062612608075141907e-02 1.012169383466243744e-02
5.711000000000000000e+03 2.103002548217773438e+01 2.548954582214355469e+01 1.431829761713743210e-02 9.670015424489974976e-02 3.330553323030471802e-02 4.730187356472015381e-02
5.712000000000000000e+03 4.112158203125000000e+01 -3.055962800979614258e+00 1.308504678308963776e-02 1.398456454277038574e+00 4.234624505043029785e-01 9.522408246994018555e-02
5.713000000000000000e+03 1.575206184387207031e+01 2.538533401489257812e+01 -3.807504428550601006e-03 6.644061952829360962e-02 1.878993399441242218e-02 1.837837696075439453e-02
5.714000000000000000e+03 4.718659210205078125e+01 -1.029998016357421875e+01 -1.106975674629211426e-01 2.869384765625000000e+00 8.276061415672302246e-01 4.196109995245933533e-02
5.715000000000000000e+03 4.638485717773437500e+01 -7.474054813385009766e+00 -6.931915879249572754e-02 2.624496221542358398e+00 7.665531039237976074e-01 8.976344764232635498e-02
5.716000000000000000e+03 4.544751358032226562e+01 -7.292525291442871094e+00 -5.584757775068283081e-02 2.424279689788818359e+00 7.105296254158020020e-01 6.798271834850311279e-02
5.717000000000000000e+03 6.279143905639648438e+01 -6.105564594268798828e+00 -2.166729569435119629e-01 6.183547496795654297e+00 1.790062427520751953e+00 2.162678688764572144e-01
5.718000000000000000e+03 5.505904388427734375e+01 -1.514979267120361328e+01 -1.986410170793533325e-01 4.711061477661132812e+00 1.353726148605346680e+00 2.025381773710250854e-01
5.719000000000000000e+03 5.281777954101562500e+01 -1.573839187622070312e+01 -1.924532502889633179e-01 4.293570518493652344e+00 1.230335116386413574e+00 1.490081250667572021e-01
5.720000000000000000e+03 6.302305603027343750e+01 -1.622546958923339844e+01 -1.296545863151550293e-01 6.232048511505126953e+00 1.830718159675598145e+00 3.115878701210021973e-01
5.721000000000000000e+03 6.350111770629882812e+01 -1.746015357971191406e+01 -1.014443188905715942e-01 6.315110683441162109e+00 1.864099979400634766e+00 3.274763226509094238e-01
5.722000000000000000e+03 6.273609924316406250e+01 1.933439493179321289e+00 -3.817085921764373779e-01 6.309916496276855469e+00 1.778462290763854980e+00 1.400213688611984253e-01
5.723000000000000000e+03 5.645068359375000000e+01 -1.707629013061523438e+01 -1.778621673583984375e-01 5.031029224395751953e+00 1.455950140953063965e+00 2.446120977401733398e-01
5.724000000000000000e+03 5.932096099853515625e+01 -1.912866210937500000e+01 -1.239853054285049438e-01 5.568980216979980469e+00 1.633498549461364746e+00 3.128540515899658203e-01
5.725000000000000000e+03 6.119572830200195312e+01 -2.328382301330566406e+01 -3.038555011153221130e-02 5.952490806579589844e+00 1.776631593704223633e+00 3.639130890369415283e-01
5.726000000000000000e+03 6.409918212890625000e+01 -1.872980880737304688e+01 -8.308855444192886353e-02 6.414630413055419922e+00 1.899462580680847168e+00 3.351360559463500977e-01
5.727000000000000000e+03 4.826904296875000000e+01 -1.139455509185791016e+01 -1.282424479722976685e-01 3.142912626266479492e+00 9.044010639190673828e-01 4.770284518599510193e-02
5.728000000000000000e+03 3.226875305175781250e+01 4.135576248168945312e+01 4.717006534337997437e-02 7.871355861425399780e-02 3.776508569717407227e-02 6.000186782330274582e-03
5.729000000000000000e+03 1.838802719116210938e+01 -2.693634033203125000e+01 1.212357282638549805e-01 4.854202270507812500e-02 5.093332380056381226e-02 -1.978765726089477539e-01
5.730000000000000000e+03 1.686563682556152344e+01 -2.758361816406250000e+01 1.382340937852859497e-01 -2.825265936553478241e-02 3.299443051218986511e-02 -1.912826597690582275e-01
5.731000000000000000e+03 1.263503932952880859e+01 -2.851574134826660156e+01 7.482500374317169189e-02 -2.720480561256408691e-01 -5.916691944003105164e-02 -1.388892233371734619e-01
5.732000000000000000e+03 6.373917770385742188e+01 -1.183453559875488281e+01 -1.614020317792892456e-01 6.325401306152343750e+00 1.849199771881103516e+00 2.703586816787719727e-01
5.733000000000000000e+03 5.155863189697265625e+01 -1.499955940246582031e+01 -1.786386072635650635e-01 3.997986793518066406e+00 1.145804524421691895e+00 1.061014756560325623e-01
5.734000000000000000e+03 5.608074188232421875e+01 2.718746376037597656e+01 9.883175790309906006e-02 6.219800472259521484e+00 1.895589590072631836e+00 2.544179439544677734e+00
5.735000000000000000e+03 5.415063858032226562e+01 2.742652702331542969e+01 5.765324831008911133e-01 3.913320541381835938e+00 1.346955895423889160e+00 2.245424032211303711e+00
5.736000000000000000e+03 5.985533523559570312e+01 2.819095802307128906e+01 -6.926625370979309082e-01 1.076566123962402344e+01 3.021899461746215820e+00 1.206292271614074707e+00
5.737000000000000000e+03 5.022659683227539062e+01 2.286292266845703125e+01 1.503365579992532730e-02 2.334734201431274414e+00 7.049303650856018066e-01 1.069502472877502441e+00
5.738000000000000000e+03 4.612126159667968750e+01 1.793718910217285156e+01 -2.273821085691452026e-01 1.458849787712097168e+00 3.694403171539306641e-01 4.368797540664672852e-01
5.739000000000000000e+03 5.035488510131835938e+01 2.321418952941894531e+01 4.307915642857551575e-02 2.308810472488403320e+00 7.055668830871582031e-01 1.093850016593933105e+00
5.740000000000000000e+03 5.384486007690429688e+01 2.745476913452148438e+01 6.241917014122009277e-01 3.597298383712768555e+00 1.266447067260742188e+00 2.161216020584106445e+00
5.741000000000000000e+03 5.360863876342773438e+01 2.680315399169921875e+01 4.662601053714752197e-01 3.595039844512939453e+00 1.218389987945556641e+00 2.034307479858398438e+00
5.742000000000000000e+03 3.957579040527343750e+01 1.215475559234619141e+01 -4.166601300239562988e-01 3.899103701114654541e-01 -8.024929091334342957e-03 -1.018375828862190247e-01
5.743000000000000000e+03 4.284211349487304688e+01 1.429297733306884766e+01 -3.320722281932830811e-01 9.343695044517517090e-01 1.806891858577728271e-01 1.342714279890060425e-01
5.744000000000000000e+03 5.557112121582031250e+01 2.974916076660156250e+01 1.276728510856628418e+00 4.904007434844970703e+00 1.854220747947692871e+00 3.108749151229858398e+00
5.745000000000000000e+03 4.934634017944335938e+01 2.153213119506835938e+01 -7.867418974637985229e-02 2.145121812820434570e+00 6.199342608451843262e-01 8.908381462097167969e-01
5.746000000000000000e+03 5.075175094604492188e+01 2.324329757690429688e+01 4.369409382343292236e-02 2.504662036895751953e+00 7.645068168640136719e-01 1.169503808021545410e+00
5.747000000000000000e+03 5.102567291259765625e+01 2.425527572631835938e+01 1.590876728296279907e-01 2.418942451477050781e+00 7.734090685844421387e-01 1.247072577476501465e+00
5.748000000000000000e+03 4.643083572387695312e+01 1.827006530761718750e+01 -2.150994092226028442e-01 1.511201739311218262e+00 3.888306915760040283e-01 4.763813912868499756e-01
5.749000000000000000e+03 5.505100250244140625e+01 2.922557640075683594e+01 1.093117713928222656e+00 4.319354057312011719e+00 1.623741507530212402e+00 2.794216632843017578e+00
5.750000000000000000e+03 5.522977066040039062e+01 2.850402450561523438e+01 7.798522114753723145e-01 4.874450206756591797e+00 1.696290731430053711e+00 2.756014347076416016e+00
5.751000000000000000e+03 4.851055145263671875e+01 2.113119125366210938e+01 -1.039069220423698425e-01 1.862187385559082031e+00 5.274841785430908203e-01 7.552118897438049316e-01
5.752000000000000000e+03 5.418076705932617188e+01 2.818165397644042969e+01 7.889081239700317383e-01 3.680984735488891602e+00 1.340967893600463867e+00 2.325169086456298828e+00
5.753000000000000000e+03 6.077474594116210938e+01 2.653629875183105469e+01 -9.467639923095703125e-01 1.008712768554687500e+01 2.742109060287475586e+00 5.245239138603210449e-01
5.754000000000000000e+03 5.231054687500000000e+01 2.531942176818847656e+01 2.635619938373565674e-01 2.986808061599731445e+00 9.751110076904296875e-01 1.586929202079772949e+00
5.755000000000000000e+03 5.318124389648437500e+01 2.641296386718750000e+01 4.283082485198974609e-01 3.349011898040771484e+00 1.133195996284484863e+00 1.888553977012634277e+00
5.756000000000000000e+03 5.655088806152343750e+01 2.941823387145996094e+01 8.031890988349914551e-01 6.867363452911376953e+00 2.301165819168090820e+00 3.337002277374267578e+00
5.757000000000000000e+03 5.487474441528320312e+01 2.880871582031250000e+01 9.510435461997985840e-01 4.309340953826904297e+00 1.578115344047546387e+00 2.692061185836791992e+00
5.758000000000000000e+03 5.158147048950195312e+01 2.519101524353027344e+01 2.696332633495330811e-01 2.533678054809570312e+00 8.409934043884277344e-01 1.398219943046569824e+00
5.759000000000000000e+03 5.553157424926757812e+01 3.003807067871093750e+01 1.476450800895690918e+00 4.698379993438720703e+00 1.852449178695678711e+00 3.175212860107421875e+00
5.760000000000000000e+03 5.290897369384765625e+01 2.590892601013183594e+01 3.357844352722167969e-01 3.267992258071899414e+00 1.081133008003234863e+00 1.779253840446472168e+00
5.761000000000000000e+03 4.804985427856445312e+01 2.075578498840332031e+01 -1.216329783201217651e-01 1.738808035850524902e+00 4.851525127887725830e-01 6.883799433708190918e-01
5.762000000000000000e+03 4.697979354858398438e+01 1.996562767028808594e+01 -1.651716679334640503e-01 1.455311179161071777e+00 3.870418667793273926e-01 5.307145118713378906e-01
5.763000000000000000e+03 4.284855270385742188e+01 1.494255352020263672e+01 -3.307773768901824951e-01 8.700965046882629395e-01 1.617957353591918945e-01 1.108884662389755249e-01
5.764000000000000000e+03 5.139353942871093750e+01 2.424560165405273438e+01 1.426046490669250488e-01 2.684488773345947266e+00 8.481280207633972168e-01 1.337021589279174805e+00
5.765000000000000000e+03 5.265567398071289062e+01 2.541385841369628906e+01 2.598682940006256104e-01 3.207189798355102539e+00 1.040117383003234863e+00 1.677102923393249512e+00
5.766000000000000000e+03 4.502852249145507812e+01 1.650991249084472656e+01 -2.655784189701080322e-01 1.305793166160583496e+00 3.120644092559814453e-01 3.248479664325714111e-01
5.767000000000000000e+03 5.211962509155273438e+01 2.443643760681152344e+01 1.347033977508544922e-01 3.051163196563720703e+00 9.557600021362304688e-01 1.498201251029968262e+00
5.768000000000000000e+03 5.202118301391601562e+01 2.484377288818359375e+01 2.026642262935638428e-01 2.906596422195434570e+00 9.327782392501831055e-01 1.497233271598815918e+00
5.769000000000000000e+03 4.981214523315429688e+01 2.306252098083496094e+01 3.842660784721374512e-02 2.056841850280761719e+00 6.285805106163024902e-01 9.791110754013061523e-01
5.770000000000000000e+03 4.581163406372070312e+01 1.714821815490722656e+01 -2.438752204179763794e-01 1.450956940650939941e+00 3.621245026588439941e-01 4.051438271999359131e-01
5.771000000000000000e+03 4.382744216918945312e+01 1.630290985107421875e+01 -2.942590117454528809e-01 9.829546809196472168e-01 2.066086977720260620e-01 1.871586740016937256e-01
5.772000000000000000e+03 4.725419998168945312e+01 1.958341026306152344e+01 -1.676457077264785767e-01 1.628452420234680176e+00 4.382420182228088379e-01 5.818234086036682129e-01
5.773000000000000000e+03 4.585698318481445312e+01 1.761495399475097656e+01 -2.393750995397567749e-01 1.411854147911071777e+00 3.517436981201171875e-01 4.029638767242431641e-01
5.774000000000000000e+03 4.097655868530273438e+01 1.388007545471191406e+01 -3.891052901744842529e-01 5.406759977340698242e-01 4.547121003270149231e-02 -3.635356947779655457e-02
5.775000000000000000e+03 4.255079650878906250e+01 1.459551811218261719e+01 -3.403750360012054443e-01 8.296826481819152832e-01 1.467922776937484741e-01 9.222025424242019653e-02
5.776000000000000000e+03 4.671781921386718750e+01 1.861202812194824219e+01 -2.059252262115478516e-01 1.557063937187194824e+00 4.053415954113006592e-01 5.068581700325012207e-01
5.777000000000000000e+03 3.813396835327148438e+01 8.345137596130371094e+00 -3.636092543601989746e-01 4.074618518352508545e-01 1.315578073263168335e-02 -6.885040551424026489e-02
5.778000000000000000e+03 3.925800323486328125e+01 1.001415252685546875e+01 -3.782416880130767822e-01 4.970678091049194336e-01 3.564783558249473572e-02 -5.036082118749618530e-02
5.779000000000000000e+03 3.998859786987304688e+01 1.148533439636230469e+01 -3.876157402992248535e-01 5.404458642005920410e-01 4.584904015064239502e-02 -3.874573856592178345e-02
5.780000000000000000e+03 4.352097320556640625e+01 1.610465621948242188e+01 -3.048874139785766602e-01 9.344524741172790527e-01 1.888695210218429565e-01 1.574961692094802856e-01
5.781000000000000000e+03 4.528282165527343750e+01 1.711639213562011719e+01 -2.554359436035156250e-01 1.302180528640747070e+00 3.140233755111694336e-01 3.414028882980346680e-01
5.782000000000000000e+03 5.594407272338867188e+01 2.866289710998535156e+01 6.746375560760498047e-01 5.857566833496093750e+00 1.959661364555358887e+00 3.001493692398071289e+00
5.783000000000000000e+03 1.366302299499511719e+01 1.484762096405029297e+01 2.346373163163661957e-02 1.395437866449356079e-01 4.890225827693939209e-02 3.793184459209442139e-02
5.784000000000000000e+03 4.805614852905273438e+01 2.034494400024414062e+01 -1.388247311115264893e-01 1.794597387313842773e+00 4.967317879199981689e-01 6.878402829170227051e-01
5.785000000000000000e+03 4.940183639526367188e+01 2.110509681701660156e+01 -1.065874397754669189e-01 2.237939357757568359e+00 6.394056081771850586e-01 8.986096382141113281e-01
5.786000000000000000e+03 3.617744064331054688e+01 5.874703407287597656e+00 -3.237398564815521240e-01 2.298501878976821899e-01 -2.816690318286418915e-02 -1.089259535074234009e-01
5.787000000000000000e+03 3.725411605834960938e+01 8.088855743408203125e+00 -3.847277760505676270e-01 2.721729576587677002e-01 -3.376644477248191833e-02 -1.225158572196960449e-01
5.788000000000000000e+03 4.322810745239257812e+01 1.588744163513183594e+01 -3.156032264232635498e-01 8.771833181381225586e-01 1.684740334749221802e-01 1.227749884128570557e-01
5.789000000000000000e+03 2.218518829345703125e+01 2.075174140930175781e+01 4.255245625972747803e-02 1.240568310022354126e-01 4.998278617858886719e-02 7.721252739429473877e-02
5.790000000000000000e+03 4.349736404418945312e+01 1.556183528900146484e+01 -3.073361217975616455e-01 9.848832488059997559e-01 2.032641321420669556e-01 1.679163277149200439e-01
5.791000000000000000e+03 3.879292678833007812e+01 9.922194480895996094e+00 -3.913766145706176758e-01 4.292513728141784668e-01 1.136242784559726715e-02 -7.761725038290023804e-02
5.792000000000000000e+03 4.051824951171875000e+01 1.142444801330566406e+01 -3.680716454982757568e-01 6.600592136383056641e-01 8.759626746177673340e-02 8.600908331573009491e-03
5.793000000000000000e+03 4.320724487304687500e+01 1.526233863830566406e+01 -3.196093142032623291e-01 9.333983063697814941e-01 1.841366887092590332e-01 1.396714895963668823e-01
5.794000000000000000e+03 3.262405014038085938e+01 2.103196382522583008e+00 -2.864558100700378418e-01 -3.342174738645553589e-02 -9.596326202154159546e-02 -8.558642864227294922e-02
5.795000000000000000e+03 3.840377044677734375e+01 8.878431320190429688e+00 -3.702085912227630615e-01 4.201583862304687500e-01 1.498494483530521393e-02 -7.279326766729354858e-02
5.796000000000000000e+03 3.872742843627929688e+01 9.338389396667480469e+00 -3.772958219051361084e-01 4.454519748687744141e-01 2.044684439897537231e-02 -6.339830160140991211e-02
5.797000000000000000e+03 1.481740188598632812e+01 1.442166900634765625e+01 3.361482545733451843e-02 1.599655151367187500e-01 5.807410553097724915e-02 5.931334942579269409e-02
5.798000000000000000e+03 3.950472640991210938e+01 1.028516387939453125e+01 -3.748190999031066895e-01 5.354470610618591309e-01 4.818839207291603088e-02 -3.774319589138031006e-02
5.799000000000000000e+03 3.932278060913085938e+01 1.100096035003662109e+01 -3.995480537414550781e-01 4.466123282909393311e-01 1.411928236484527588e-02 -7.889427244663238525e-02
5.800000000000000000e+03 3.786746597290039062e+01 7.798083782196044922e+00 -3.455761969089508057e-01 4.013099968433380127e-01 1.672014221549034119e-02 -6.766381114721298218e-02
5.801000000000000000e+03 3.566911697387695312e+01 6.368532657623291016e+00 -3.689284920692443848e-01 1.167521178722381592e-01 -7.565290480852127075e-02 -1.631077378988265991e-01
5.802000000000000000e+03 3.498374557495117188e+01 4.849895000457763672e+00 -3.204657733440399170e-01 1.188630685210227966e-01 -6.048081442713737488e-02 -1.353681236505508423e-01
5.803000000000000000e+03 3.676894378662109375e+01 5.594115257263183594e+00 -2.953092753887176514e-01 3.410814702510833740e-01 1.373165287077426910e-02 -6.808080524206161499e-02
5.804000000000000000e+03 5.488942337036132812e+01 2.848106956481933594e+01 8.252369761466979980e-01 4.434383392333984375e+00 1.577886223793029785e+00 2.637218236923217773e+00
5.805000000000000000e+03 5.792161560058593750e+01 2.891671562194824219e+01 -3.539956733584403992e-02 9.171903610229492188e+00 2.740951299667358398e+00 2.811926603317260742e+00
5.806000000000000000e+03 1.410233020782470703e+01 1.341525459289550781e+01 3.452019393444061279e-02 1.697433441877365112e-01 6.127906218171119690e-02 5.192445218563079834e-02
5.807000000000000000e+03 5.526165390014648438e+01 2.810609817504882812e+01 6.229197382926940918e-01 5.025310039520263672e+00 1.694468975067138672e+00 2.686484813690185547e+00
5.808000000000000000e+03 1.908971405029296875e+01 1.977714729309082031e+01 2.914885058999061584e-02 1.255181878805160522e-01 4.640011116862297058e-02 6.530070304870605469e-02
5.809000000000000000e+03 1.958677101135253906e+01 1.949754142761230469e+01 3.532461076974868774e-02 1.283320933580398560e-01 4.909700900316238403e-02 7.008545100688934326e-02
5.810000000000000000e+03 3.881570053100585938e+01 1.098270130157470703e+01 -4.210236370563507080e-01 3.400017917156219482e-01 -2.430655434727668762e-02 -1.185638979077339172e-01
5.811000000000000000e+03 3.919684982299804688e+01 1.052520084381103516e+01 -3.888344466686248779e-01 4.691504240036010742e-01 2.409479767084121704e-02 -6.637425720691680908e-02
5.812000000000000000e+03 1.686420059204101562e+01 1.555850028991699219e+01 4.390799254179000854e-02 1.574482917785644531e-01 6.040688604116439819e-02 7.765971869230270386e-02
5.813000000000000000e+03 1.511690521240234375e+01 1.533586978912353516e+01 3.045753762125968933e-02 1.519799083471298218e-01 5.473123118281364441e-02 5.839333683252334595e-02
5.814000000000000000e+03 3.621875381469726562e+01 6.370715618133544922e+00 -3.479909598827362061e-01 2.104966789484024048e-01 -4.124828800559043884e-02 -1.247709468007087708e-01
5.815000000000000000e+03 4.716247940063476562e+01 2.027502632141113281e+01 -1.510020345449447632e-01 1.478198409080505371e+00 3.981589376926422119e-01 5.547941923141479492e-01
5.816000000000000000e+03 2.413613128662109375e+01 2.263878059387207031e+01 3.921204432845115662e-02 1.149822250008583069e-01 4.625827819108963013e-02 7.378697395324707031e-02
5.817000000000000000e+03 5.818964004516601562e+01 2.849563598632812500e+01 -2.680333852767944336e-01 9.363264083862304688e+00 2.728569030761718750e+00 2.493995189666748047e+00
5.818000000000000000e+03 3.143196296691894531e+01 1.484729170799255371e+00 -2.923199236392974854e-01 -1.281280219554901123e-01 -1.261343806982040405e-01 -6.926357746124267578e-02
5.819000000000000000e+03 3.465251541137695312e+01 3.175534009933471680e+00 -2.515013813972473145e-01 1.560604423284530640e-01 -2.863227762281894684e-02 -7.630684226751327515e-02
5.820000000000000000e+03 2.088879585266113281e+01 2.089650726318359375e+01 3.456159308552742004e-02 1.217392012476921082e-01 4.689024016261100769e-02 6.982474029064178467e-02
5.821000000000000000e+03 5.966165542602539062e+01 2.768671798706054688e+01 -7.568980455398559570e-01 1.028765010833740234e+01 2.859225511550903320e+00 1.298344254493713379e+00
5.822000000000000000e+03 4.061080169677734375e+01 1.298409843444824219e+01 -3.938444852828979492e-01 5.406233072280883789e-01 4.403363913297653198e-02 -3.736548498272895813e-02
5.823000000000000000e+03 4.244664764404296875e+01 1.419561004638671875e+01 -3.468489050865173340e-01 8.485059738159179688e-01 1.504971235990524292e-01 9.756821393966674805e-02
5.824000000000000000e+03 1.765878486633300781e+01 2.071048927307128906e+01 1.478453259915113449e-02 1.126543283462524414e-01 3.823165968060493469e-02 4.769693315029144287e-02
5.825000000000000000e+03 1.513668727874755859e+01 2.114452743530273438e+01 3.598714247345924377e-03 8.934956043958663940e-02 2.788448147475719452e-02 2.792960964143276215e-02
5.826000000000000000e+03 1.780041694641113281e+01 1.861890602111816406e+01 2.767443098127841949e-02 1.302198320627212524e-01 4.736827686429023743e-02 6.335563212633132935e-02
5.827000000000000000e+03 1.735666084289550781e+01 1.828943061828613281e+01 2.647040225565433502e-02 1.311157643795013428e-01 4.727584868669509888e-02 5.940086022019386292e-02
5.828000000000000000e+03 1.431861495971679688e+01 1.928327941894531250e+01 7.031763903796672821e-03 9.576361626386642456e-02 3.083861432969570160e-02 2.645053341984748840e-02
5.829000000000000000e+03 5.897880554199218750e+01 2.749527549743652344e+01 -6.779462099075317383e-01 9.596294403076171875e+00 2.675504446029663086e+00 1.747535109519958496e+00
5.830000000000000000e+03 6.126174163818359375e+01 2.666824913024902344e+01 -9.209609627723693848e-01 1.029225158691406250e+01 2.811387062072753906e+00 2.755162119865417480e-01
5.831000000000000000e+03 3.299922180175781250e+01 1.447156906127929688e+00 -2.077903300523757935e-01 1.985022611916065216e-02 -5.638203024864196777e-02 -4.320495575666427612e-02
5.832000000000000000e+03 3.352904510498046875e+01 1.226491570472717285e+00 -1.789261400699615479e-01 7.166396081447601318e-02 -3.217865526676177979e-02 -2.263855934143066406e-02
5.833000000000000000e+03 3.435435104370117188e+01 3.893860340118408203e+00 -3.155083060264587402e-01 7.792906463146209717e-02 -7.127377390861511230e-02 -1.281470060348510742e-01
5.834000000000000000e+03 3.395540618896484375e+01 2.840123653411865234e+00 -2.690102159976959229e-01 8.228124678134918213e-02 -5.601869523525238037e-02 -8.833029866218566895e-02
5.835000000000000000e+03 3.662202072143554688e+01 7.034616470336914062e-01 -7.163979858160018921e-02 4.986561536788940430e-01 1.281049102544784546e-01 4.273258894681930542e-02
5.836000000000000000e+03 3.831681442260742188e+01 -1.292234182357788086e+00 2.344257570803165436e-02 8.289111852645874023e-01 2.557061314582824707e-01 7.931029051542282104e-02
5.837000000000000000e+03 1.677503204345703125e+01 1.724580955505371094e+01 3.083354420959949493e-02 1.384798437356948853e-01 5.079401656985282898e-02 6.298066675662994385e-02
5.838000000000000000e+03 6.402797698974609375e+01 2.479549407958984375e+01 -9.153370857238769531e-01 9.529787063598632812e+00 2.584334850311279297e+00 -7.404891252517700195e-01
5.839000000000000000e+03 2.300253677368164062e+01 2.523574066162109375e+01 2.381768636405467987e-02 1.060898080468177795e-01 3.897224739193916321e-02 5.898518487811088562e-02
5.840000000000000000e+03 2.368657493591308594e+01 2.607712936401367188e+01 2.478396333754062653e-02 1.027730405330657959e-01 3.826710209250450134e-02 5.718283355236053467e-02
5.841000000000000000e+03 2.269559288024902344e+01 2.725140762329101562e+01 1.792827248573303223e-02 9.657845646142959595e-02 3.435201942920684814e-02 4.933477565646171570e-02
5.842000000000000000e+03 1.573844051361083984e+01 1.561533355712890625e+01 3.291962668299674988e-02 1.523001194000244141e-01 5.556592345237731934e-02 6.325019150972366333e-02
5.843000000000000000e+03 1.418548393249511719e+01 1.630628013610839844e+01 1.800831407308578491e-02 1.270578950643539429e-01 4.351986199617385864e-02 3.885717689990997314e-02
5.844000000000000000e+03 2.345925712585449219e+01 2.245996665954589844e+01 4.081523418426513672e-02 1.167978942394256592e-01 4.728393629193305969e-02 7.415151596069335938e-02
5.845000000000000000e+03 2.339205360412597656e+01 2.458771896362304688e+01 2.830659970641136169e-02 1.067733541131019592e-01 4.052398726344108582e-02 6.161182746291160583e-02
5.846000000000000000e+03 1.751794242858886719e+01 1.716502380371093750e+01 3.673251345753669739e-02 1.424935907125473022e-01 5.376783013343811035e-02 7.091581076383590698e-02
5.847000000000000000e+03 3.464225006103515625e+01 5.397493243217468262e-01 -9.069721400737762451e-02 2.241597473621368408e-01 4.003876075148582458e-02 1.550407987087965012e-02
5.848000000000000000e+03 6.279533767700195312e+01 3.505887746810913086e+00 -4.305208325386047363e-01 6.377619743347167969e+00 1.784129619598388672e+00 1.203151345252990723e-01
5.849000000000000000e+03 1.430172157287597656e+01 1.807774543762207031e+01 1.158609520643949509e-02 1.075152233242988586e-01 3.573039546608924866e-02 3.150759264826774597e-02
5.850000000000000000e+03 4.698428344726562500e+01 -6.457446575164794922e+00 -8.796358853578567505e-02 2.749434471130371094e+00 7.984412312507629395e-01 1.146244406700134277e-01
5.851000000000000000e+03 4.603649902343750000e+01 -5.614124298095703125e+00 -6.836055964231491089e-02 2.511595964431762695e+00 7.329705953598022461e-01 1.149312332272529602e-01
5.852000000000000000e+03 2.216489982604980469e+01 2.172630882263183594e+01 3.578981012105941772e-02 1.198977679014205933e-01 4.670627415180206299e-02 7.150838524103164673e-02
5.853000000000000000e+03 6.299584960937500000e+01 2.589496231079101562e+01 -8.620287179946899414e-01 1.000770759582519531e+01 2.743703603744506836e+00 -5.092027783393859863e-01
5.854000000000000000e+03 6.132783126831054688e+01 2.612596321105957031e+01 -9.842307567596435547e-01 9.999836921691894531e+00 2.704681873321533203e+00 2.491064071655273438e-01
5.855000000000000000e+03 6.445558929443359375e+01 2.017017173767089844e+01 -1.068085312843322754e+00 8.369899749755859375e+00 2.190544128417968750e+00 -4.714086949825286865e-01
5.856000000000000000e+03 2.461412048339843750e+01 2.949511528015136719e+01 1.755589619278907776e-02 9.361774474382400513e-02 3.335209190845489502e-02 4.560478404164314270e-02
5.857000000000000000e+03 6.483770751953125000e+01 2.103050231933593750e+01 -1.058266520500183105e+00 8.583403587341308594e+00 2.257541179656982422e+00 -6.091496944427490234e-01
5.858000000000000000e+03 4.194028091430664062e+01 -4.778388977050781250e+00 3.116488270461559296e-02 1.627819180488586426e+00 4.976952075958251953e-01 8.038828521966934204e-02
5.859000000000000000e+03 4.453537368774414062e+01 -5.382329463958740234e+00 -3.559523075819015503e-02 2.180225849151611328e+00 6.433891654014587402e-01 1.047319248318672180e-01
5.860000000000000000e+03 6.248477172851562500e+01 2.496328353881835938e-01 -3.351530134677886963e-01 6.229883193969726562e+00 1.768419146537780762e+00 1.628357172012329102e-01
5.861000000000000000e+03 4.726528167724609375e+01 -8.271566390991210938e+00 -9.714689850807189941e-02 2.848396301269531250e+00 8.253747820854187012e-01 8.085502684116363525e-02
5.862000000000000000e+03 4.901138305664062500e+01 -8.067592620849609375e+00 -1.288542896509170532e-01 3.244493484497070312e+00 9.346917867660522461e-01 1.263106614351272583e-01
5.863000000000000000e+03 6.184449768066406250e+01 -5.558002471923828125e+00 -2.278876304626464844e-01 6.005196571350097656e+00 1.733192682266235352e+00 2.160608768463134766e-01
5.864000000000000000e+03 6.249428176879882812e+01 -8.515718460083007812e+00 -1.804400533437728882e-01 6.131660938262939453e+00 1.785366177558898926e+00 2.328860312700271606e-01
5.865000000000000000e+03 6.491452789306640625e+01 6.736607074737548828e+00 -5.112484693527221680e-01 6.943427085876464844e+00 1.929653525352478027e+00 -3.155941888689994812e-02
5.866000000000000000e+03 6.478472900390625000e+01 8.064813613891601562e+00 -5.650182366371154785e-01 6.980275154113769531e+00 1.924576997756958008e+00 -5.918367207050323486e-02
5.867000000000000000e+03 6.410180664062500000e+01 2.133508110046386719e+01 -1.090809702873229980e+00 8.602781295776367188e+00 2.253591537475585938e+00 -4.627103507518768311e-01
5.868000000000000000e+03 4.524796295166015625e+01 -4.742697238922119141e+00 -5.895237997174263000e-02 2.314669132232666016e+00 6.767150163650512695e-01 1.261935085058212280e-01
5.869000000000000000e+03 4.209095382690429688e+01 -3.077127933502197266e+00 2.677053678780794144e-03 1.607578396797180176e+00 4.830766320228576660e-01 1.141375005245208740e-01
5.870000000000000000e+03 6.416578674316406250e+01 1.605415534973144531e+01 -9.723260402679443359e-01 7.640180587768554688e+00 2.000356435775756836e+00 -2.402638643980026245e-01
5.871000000000000000e+03 6.433275604248046875e+01 1.484650421142578125e+01 -9.083706140518188477e-01 7.502971172332763672e+00 1.978380084037780762e+00 -2.238594144582748413e-01
5.872000000000000000e+03 6.453588867187500000e+01 1.035979843139648438e+01 -6.823480725288391113e-01 7.087828159332275391e+00 1.921643972396850586e+00 -1.071405932307243347e-01
5.873000000000000000e+03 6.414819335937500000e+01 8.910877227783203125e+00 -6.228147149085998535e-01 6.920181751251220703e+00 1.889210104942321777e+00 -4.532648622989654541e-02
5.874000000000000000e+03 6.478656005859375000e+01 1.890607261657714844e+01 -1.030844807624816895e+00 8.157230377197265625e+00 2.137915849685668945e+00 -4.631503820419311523e-01
5.875000000000000000e+03 5.865063858032226562e+01 -2.050105571746826172e+00 -2.881477773189544678e-01 5.387380599975585938e+00 1.529769778251647949e+00 2.435664385557174683e-01
5.876000000000000000e+03 6.145951461791992188e+01 -4.183745861053466797e+00 -2.458813935518264771e-01 5.942680358886718750e+00 1.709039688110351562e+00 2.134868502616882324e-01
5.877000000000000000e+03 6.365208435058593750e+01 5.533580303192138672e+00 -4.850734472274780273e-01 6.633303165435791016e+00 1.844468951225280762e+00 4.845979437232017517e-02
5.878000000000000000e+03 6.559503173828125000e+01 8.643191337585449219e+00 -5.680056214332580566e-01 7.156183719635009766e+00 1.976453423500061035e+00 -1.259923577308654785e-01
5.879000000000000000e+03 6.163173675537109375e+01 -1.210073828697204590e+00 -3.098578453063964844e-01 6.010919094085693359e+00 1.710318326950073242e+00 1.939639002084732056e-01
5.880000000000000000e+03 6.342049789428710938e+01 -2.855402946472167969e+00 -2.591753900051116943e-01 6.343906879425048828e+00 1.825419425964355469e+00 1.774782240390777588e-01
5.881000000000000000e+03 2.816584587097167969e+01 3.581719207763671875e+01 2.273304015398025513e-02 7.695126533508300781e-02 2.990529127418994904e-02 2.563406340777873993e-02
5.882000000000000000e+03 2.519480514526367188e+01 3.518666458129882812e+01 1.508172973990440369e-02 8.151309937238693237e-02 2.897844836115837097e-02 2.828476205468177795e-02
5.883000000000000000e+03 1.584113597869873047e+01 1.818235015869140625e+01 1.896852068603038788e-02 1.228771284222602844e-01 4.255369305610656738e-02 4.802575334906578064e-02
5.884000000000000000e+03 1.543776798248291016e+01 1.899032402038574219e+01 1.271064206957817078e-02 1.097141578793525696e-01 3.672743961215019226e-02 3.761162608861923218e-02
5.885000000000000000e+03 6.223243713378906250e+01 2.684797477722167969e+01 -8.114497065544128418e-01 1.045299339294433594e+01 2.892462968826293945e+00 -2.508624196052551270e-01
5.886000000000000000e+03 6.412836456298828125e+01 2.539245223999023438e+01 -8.030564785003662109e-01 9.725884437561035156e+00 2.676848411560058594e+00 -8.307812809944152832e-01
5.887000000000000000e+03 4.015988159179687500e+01 -2.163580417633056641e+00 1.213151495903730392e-02 1.189534664154052734e+00 3.604998588562011719e-01 9.520808607339859009e-02
5.888000000000000000e+03 6.279712677001953125e+01 -1.058452987670898438e+01 -1.687207221984863281e-01 6.173643589019775391e+00 1.801476836204528809e+00 2.575743496417999268e-01
5.889000000000000000e+03 5.221635818481445312e+01 -1.372687721252441406e+01 -1.924356669187545776e-01 4.087490558624267578e+00 1.168516397476196289e+00 1.347157955169677734e-01
5.890000000000000000e+03 4.959656906127929688e+01 -1.223463821411132812e+01 -1.612774580717086792e-01 3.478863954544067383e+00 9.952759146690368652e-01 7.252805680036544800e-02
5.891000000000000000e+03 6.549011230468750000e+01 7.344943046569824219e+00 -5.209465622901916504e-01 7.068494319915771484e+00 1.964264392852783203e+00 -8.273830264806747437e-02
5.892000000000000000e+03 1.633002662658691406e+01 2.292260551452636719e+01 2.737183589488267899e-03 8.649148792028427124e-02 2.676860243082046509e-02 2.872581221163272858e-02
5.893000000000000000e+03 6.197550964355468750e+01 -9.287567138671875000e+00 -1.908961534500122070e-01 6.010024547576904297e+00 1.745738506317138672e+00 2.485959529876708984e-01
5.894000000000000000e+03 6.412163543701171875e+01 -8.319002151489257812e+00 -1.842662543058395386e-01 6.417440891265869141e+00 1.869952321052551270e+00 2.253383845090866089e-01
5.895000000000000000e+03 6.361627197265625000e+01 1.424385738372802734e+01 -8.868278861045837402e-01 7.311131954193115234e+00 1.927291154861450195e+00 -1.185116097331047058e-01
5.896000000000000000e+03 2.282669830322265625e+01 2.611241912841796875e+01 1.854080148041248322e-02 9.946077316999435425e-02 3.540047258138656616e-02 5.206488072872161865e-02
5.897000000000000000e+03 5.036242294311523438e+01 -1.094259071350097656e+01 -1.592832505702972412e-01 3.612957239151000977e+00 1.036102175712585449e+00 1.067403927445411682e-01
5.898000000000000000e+03 4.920605850219726562e+01 -1.011545085906982422e+01 -1.419653296470642090e-01 3.333741426467895508e+00 9.575328230857849121e-01 9.920616447925567627e-02
5.899000000000000000e+03 6.384791564941406250e+01 -1.082023048400878906e+01 -1.492767333984375000e-01 6.362279415130615234e+00 1.863900780677795410e+00 2.536456584930419922e-01
5.900000000000000000e+03 6.194541549682617188e+01 2.891242742538452148e+00 -4.144847989082336426e-01 6.182901382446289062e+00 1.730525016784667969e+00 1.595327854156494141e-01
5.901000000000000000e+03 6.178749465942382812e+01 1.322475433349609375e+00 -3.681432902812957764e-01 6.111027717590332031e+00 1.722865223884582520e+00 1.748378127813339233e-01
5.902000000000000000e+03 4.202446746826171875e+01 -3.974237442016601562e+00 4.470891784876585007e-03 1.615046739578247070e+00 4.858552813529968262e-01 9.828691184520721436e-02
5.903000000000000000e+03 4.111882781982421875e+01 -2.142745494842529297e+00 4.579148720949888229e-03 1.385090827941894531e+00 4.169009625911712646e-01 1.140273436903953552e-01
5.904000000000000000e+03 5.784483718872070312e+01 -1.900397491455078125e+01 -1.467196792364120483e-01 5.340986251831054688e+00 1.558279991149902344e+00 2.843450009822845459e-01
5.905000000000000000e+03 6.203033065795898438e+01 -1.807341384887695312e+01 -1.047197133302688599e-01 6.055842399597167969e+00 1.785336852073669434e+00 3.229235112667083740e-01
5.906000000000000000e+03 1.537900638580322266e+01 2.698178291320800781e+01 -4.927605390548706055e-03 5.489859357476234436e-02 1.499129645526409149e-02 1.443914696574211121e-02
5.907000000000000000e+03 1.594505405426025391e+01 3.202976989746093750e+01 -4.501156508922576904e-03 3.888164460659027100e-02 1.031414605677127838e-02 9.637298993766307831e-03
5.908000000000000000e+03 6.056983184814453125e+01 -9.765629768371582031e+00 -2.021297067403793335e-01 5.739474296569824219e+00 1.661203384399414062e+00 2.477607131004333496e-01
5.909000000000000000e+03 5.772214508056640625e+01 -2.084953498840332031e+01 -1.071969866752624512e-01 5.314621448516845703e+00 1.562227368354797363e+00 3.064684271812438965e-01
5.910000000000000000e+03 5.754817581176757812e+01 -2.279048347473144531e+01 -8.913881331682205200e-02 5.311851978302001953e+00 1.566813945770263672e+00 3.301708102226257324e-01
5.911000000000000000e+03 5.939925765991210938e+01 -2.284618568420410156e+01 -5.161034315824508667e-02 5.632372379302978516e+00 1.674228549003601074e+00 3.491921722888946533e-01
5.912000000000000000e+03 1.450935935974121094e+01 -2.753162574768066406e+01 1.084853708744049072e-01 -1.760508567094802856e-01 -2.026964537799358368e-02 -1.657258570194244385e-01
5.913000000000000000e+03 1.278864002227783203e+01 -2.993075561523437500e+01 8.197697252035140991e-02 -2.740382254123687744e-01 -5.761837959289550781e-02 -1.315036863088607788e-01
5.914000000000000000e+03 1.352369880676269531e+01 -3.159757995605468750e+01 7.442816346883773804e-02 -2.410306334495544434e-01 -4.998074099421501160e-02 -1.219903156161308289e-01
5.915000000000000000e+03 5.260791015625000000e+01 -3.104772567749023438e+01 3.108563125133514404e-01 4.771659374237060547e+00 1.524754643440246582e+00 3.370495736598968506e-01
5.916000000000000000e+03 2.758144187927246094e+01 4.121316146850585938e+01 2.412722818553447723e-02 7.299516350030899048e-02 2.913671731948852539e-02 5.102965049445629120e-03
5.917000000000000000e+03 4.710282897949218750e+01 1.875427818298339844e+01 -1.987213641405105591e-01 1.676594018936157227e+00 4.433617889881134033e-01 5.601466894149780273e-01
5.918000000000000000e+03 4.710049057006835938e+01 1.836950111389160156e+01 -2.118286788463592529e-01 1.725512623786926270e+00 4.541051983833312988e-01 5.616321563720703125e-01
5.919000000000000000e+03 5.086956787109375000e+01 2.284223556518554688e+01 -5.577975534833967686e-04 2.613605260848999023e+00 7.839142680168151855e-01 1.174482464790344238e+00
5.920000000000000000e+03 5.076412200927734375e+01 2.232693290710449219e+01 -5.006506294012069702e-02 2.697533607482910156e+00 7.942405343055725098e-01 1.147547483444213867e+00
5.921000000000000000e+03 4.992006301879882812e+01 2.217835235595703125e+01 -3.941716626286506653e-02 2.288989305496215820e+00 6.748716235160827637e-01 1.003175497055053711e+00
5.922000000000000000e+03 4.978343582153320312e+01 2.157870674133300781e+01 -8.405238389968872070e-02 2.337131500244140625e+00 6.759237051010131836e-01 9.673525094985961914e-01
5.923000000000000000e+03 5.116679763793945312e+01 2.331810951232910156e+01 3.826254233717918396e-02 2.728344440460205078e+00 8.299821019172668457e-01 1.252219676971435547e+00
5.924000000000000000e+03 5.360954666137695312e+01 2.607555580139160156e+01 2.954263985157012939e-01 3.802583932876586914e+00 1.229403018951416016e+00 1.949685215950012207e+00
5.925000000000000000e+03 5.580739212036132812e+01 2.993433761596679688e+01 1.355184316635131836e+00 5.208908081054687500e+00 1.969227671623229980e+00 3.269634962081909180e+00
5.926000000000000000e+03 5.147718811035156250e+01 2.382348632812500000e+01 8.662039786577224731e-02 2.806759595870971680e+00 8.680140376091003418e-01 1.339906811714172363e+00
5.927000000000000000e+03 4.943516921997070312e+01 2.067148590087890625e+01 -1.378979980945587158e-01 2.318324327468872070e+00 6.541278958320617676e-01 8.966400623321533203e-01
5.928000000000000000e+03 4.252953338623046875e+01 1.370287513732910156e+01 -3.377355635166168213e-01 9.238958358764648438e-01 1.758480668067932129e-01 1.187261119484901428e-01
5.929000000000000000e+03 4.034206771850585938e+01 1.252451038360595703e+01 -3.896172940731048584e-01 5.308094620704650879e-01 4.235765710473060608e-02 -4.410542920231819153e-02
5.930000000000000000e+03 5.455147933959960938e+01 2.851335144042968750e+01 8.814871907234191895e-01 3.995054244995117188e+00 1.462962508201599121e+00 2.517657041549682617e+00
5.931000000000000000e+03 5.408940505981445312e+01 2.710231590270996094e+01 4.862146675586700439e-01 3.980228900909423828e+00 1.339933037757873535e+00 2.189326524734497070e+00
5.932000000000000000e+03 5.489281845092773438e+01 2.810825347900390625e+01 6.926115751266479492e-01 4.560327053070068359e+00 1.575881600379943848e+00 2.584665536880493164e+00
5.933000000000000000e+03 5.720239639282226562e+01 2.947147941589355469e+01 5.467666983604431152e-01 8.032264709472656250e+00 2.573709249496459961e+00 3.371940374374389648e+00
5.934000000000000000e+03 5.548907089233398438e+01 2.895966911315917969e+01 9.076939225196838379e-01 5.071910381317138672e+00 1.793881297111511230e+00 2.930294752120971680e+00
5.935000000000000000e+03 5.325563812255859375e+01 2.600129318237304688e+01 3.179534375667572021e-01 3.533310890197753906e+00 1.155379295349121094e+00 1.872741699218750000e+00
5.936000000000000000e+03 4.045086669921875000e+01 1.355975723266601562e+01 -4.012391567230224609e-01 4.495037496089935303e-01 1.447937358170747757e-02 -7.267346233129501343e-02
5.937000000000000000e+03 5.175266647338867188e+01 2.434031295776367188e+01 1.355102807283401489e-01 2.850970268249511719e+00 8.959441184997558594e-01 1.412211298942565918e+00
5.938000000000000000e+03 4.689061737060546875e+01 1.799227142333984375e+01 -2.223292440176010132e-01 1.708280682563781738e+00 4.457854330539703369e-01 5.348648428916931152e-01
5.939000000000000000e+03 4.851186370849609375e+01 2.072262382507324219e+01 -1.218377351760864258e-01 1.929621934890747070e+00 5.423352718353271484e-01 7.573524117469787598e-01
5.940000000000000000e+03 4.894903564453125000e+01 2.111158561706542969e+01 -1.043574735522270203e-01 2.044819831848144531e+00 5.821386575698852539e-01 8.264607191085815430e-01
5.941000000000000000e+03 5.601387786865234375e+01 2.962185859680175781e+01 1.144133806228637695e+00 5.708513736724853516e+00 2.055794239044189453e+00 3.301754713058471680e+00
5.942000000000000000e+03 5.238692474365234375e+01 2.493111991882324219e+01 1.987530887126922607e-01 3.128005743026733398e+00 9.980276226997375488e-01 1.581530570983886719e+00
5.943000000000000000e+03 5.300091552734375000e+01 2.551178169250488281e+01 2.473024576902389526e-01 3.451387405395507812e+00 1.109606981277465820e+00 1.766631484031677246e+00
5.944000000000000000e+03 4.318868637084960938e+01 1.456084632873535156e+01 -3.199873566627502441e-01 1.002950072288513184e+00 2.048888057470321655e-01 1.550287902355194092e-01
5.945000000000000000e+03 5.187265396118164062e+01 2.390579795837402344e+01 8.165086805820465088e-02 3.018628120422363281e+00 9.300837516784667969e-01 1.417783498764038086e+00
5.946000000000000000e+03 5.274150085449218750e+01 2.502561187744140625e+01 1.841286569833755493e-01 3.362394571304321289e+00 1.063956975936889648e+00 1.666203260421752930e+00
5.947000000000000000e+03 3.895654296875000000e+01 8.654721260070800781e+00 -3.456158339977264404e-01 5.466797351837158203e-01 6.031915917992591858e-02 -2.322145923972129822e-02
5.948000000000000000e+03 4.081181335449218750e+01 1.236509704589843750e+01 -3.762440979480743408e-01 6.467596292495727539e-01 8.115466684103012085e-02 2.869144780561327934e-03
5.949000000000000000e+03 4.631132507324218750e+01 1.756608009338378906e+01 -2.328973114490509033e-01 1.572440981864929199e+00 4.018630981445312500e-01 4.687011241912841797e-01
5.950000000000000000e+03 5.390010070800781250e+01 2.628131866455078125e+01 3.210964202880859375e-01 4.008191108703613281e+00 1.298786163330078125e+00 2.056111574172973633e+00
5.951000000000000000e+03 4.455165100097656250e+01 1.582693099975585938e+01 -2.846808731555938721e-01 1.235362291336059570e+00 2.852044105529785156e-01 2.785735130310058594e-01
5.952000000000000000e+03 5.005690002441406250e+01 2.251967048645019531e+01 -1.006007846444845200e-02 2.312393903732299805e+00 6.907001137733459473e-01 1.033079981803894043e+00
5.953000000000000000e+03 5.041622161865234375e+01 2.233188629150390625e+01 -3.135143965482711792e-02 2.498397350311279297e+00 7.401137948036193848e-01 1.089340567588806152e+00
5.954000000000000000e+03 4.483797836303710938e+01 1.692059326171875000e+01 -2.639153897762298584e-01 1.189315795898437500e+00 2.776201367378234863e-01 2.895088493824005127e-01
5.955000000000000000e+03 4.677618408203125000e+01 1.755785560607910156e+01 -2.344928383827209473e-01 1.722126126289367676e+00 4.462899863719940186e-01 5.217710733413696289e-01
5.956000000000000000e+03 4.434973144531250000e+01 1.616554260253906250e+01 -2.879876792430877686e-01 1.139731645584106445e+00 2.555231750011444092e-01 2.433391064405441284e-01
5.957000000000000000e+03 4.632969284057617188e+01 1.710462188720703125e+01 -2.406861037015914917e-01 1.641397595405578613e+00 4.202134311199188232e-01 4.748755097389221191e-01
5.958000000000000000e+03 4.403519439697265625e+01 1.597514057159423828e+01 -2.937576770782470703e-01 1.069810390472412109e+00 2.328158169984817505e-01 2.120167911052703857e-01
5.959000000000000000e+03 4.133073425292968750e+01 1.328518772125244141e+01 -3.726725280284881592e-01 6.797654628753662109e-01 9.212788194417953491e-02 1.857815310359001160e-02
5.960000000000000000e+03 4.347782516479492188e+01 1.415214157104492188e+01 -3.185507059097290039e-01 1.118644356727600098e+00 2.400280982255935669e-01 1.912693381309509277e-01
5.961000000000000000e+03 4.356539916992187500e+01 1.484025955200195312e+01 -3.134198784828186035e-01 1.080684661865234375e+00 2.301794439554214478e-01 1.885900199413299561e-01
5.962000000000000000e+03 1.435573482513427734e+01 1.475112152099609375e+01 2.976207435131072998e-02 1.506478190422058105e-01 5.412296578288078308e-02 5.015652626752853394e-02
5.963000000000000000e+03 1.533935928344726562e+01 1.471250057220458984e+01 3.566918522119522095e-02 1.605472117662429810e-01 5.886492133140563965e-02 6.398642063140869141e-02
5.964000000000000000e+03 4.150061035156250000e+01 1.176512145996093750e+01 -3.431119620800018311e-01 8.583844900131225586e-01 1.545817553997039795e-01 8.218596130609512329e-02
5.965000000000000000e+03 4.373245239257812500e+01 1.580125999450683594e+01 -2.972016930580139160e-01 1.012124896049499512e+00 2.144769728183746338e-01 1.889614313840866089e-01
5.966000000000000000e+03 4.743936157226562500e+01 2.009536933898925781e+01 -1.557090729475021362e-01 1.582020282745361328e+00 4.278933405876159668e-01 5.937454700469970703e-01
5.967000000000000000e+03 4.144720840454101562e+01 1.380802059173583984e+01 -3.692357540130615234e-01 6.492441296577453613e-01 8.400251716375350952e-02 1.037195418030023575e-02
5.968000000000000000e+03 3.904594039916992188e+01 9.692235946655273438e+00 -3.747425973415374756e-01 4.837426543235778809e-01 3.270002081990242004e-02 -5.321433022618293762e-02
5.969000000000000000e+03 3.941883850097656250e+01 9.531990051269531250e+00 -3.621946275234222412e-01 5.701456069946289062e-01 6.238529458642005920e-02 -1.832337863743305206e-02
5.970000000000000000e+03 4.047948074340820312e+01 1.092872524261474609e+01 -3.566892743110656738e-01 6.946254968643188477e-01 1.013808697462081909e-01 2.104512415826320648e-02
5.971000000000000000e+03 5.451802444458007812e+01 2.774814414978027344e+01 6.270074248313903809e-01 4.222208023071289062e+00 1.454764723777770996e+00 2.408012628555297852e+00
5.972000000000000000e+03 3.988697052001953125e+01 9.441583633422851562e+00 -3.431389629840850830e-01 6.773154735565185547e-01 1.002529487013816833e-01 1.690282113850116730e-02
5.973000000000000000e+03 3.920277786254882812e+01 9.115055084228515625e+00 -3.525973260402679443e-01 5.599682927131652832e-01 6.221129000186920166e-02 -2.210869826376438141e-02
5.974000000000000000e+03 5.864035034179687500e+01 2.870506668090820312e+01 -3.661565780639648438e-01 1.008262920379638672e+01 2.914941787719726562e+00 2.273792743682861328e+00
5.975000000000000000e+03 3.680226135253906250e+01 6.514283657073974609e+00 -3.266975283622741699e-01 2.986911237239837646e-01 -8.401921950280666351e-03 -9.101250022649765015e-02
5.976000000000000000e+03 3.711646270751953125e+01 7.228217124938964844e+00 -3.523352146148681641e-01 3.005163669586181641e-01 -1.554565876722335815e-02 -9.899207949638366699e-02
5.977000000000000000e+03 5.633123397827148438e+01 2.986657333374023438e+01 1.185771822929382324e+00 6.284973621368408203e+00 2.241223573684692383e+00 3.510420083999633789e+00
5.978000000000000000e+03 3.410155487060546875e+01 9.545428752899169922e-01 -1.257310360670089722e-01 1.483372002840042114e-01 6.781847681850194931e-03 -7.638144306838512421e-03
5.979000000000000000e+03 3.451071929931640625e+01 2.669386863708496094e+00 -2.388278543949127197e-01 1.518225222826004028e-01 -2.610159851610660553e-02 -5.788028240203857422e-02
5.980000000000000000e+03 5.570009231567382812e+01 2.944264793395996094e+01 1.106587767601013184e+00 5.214155197143554688e+00 1.896222829818725586e+00 3.108792066574096680e+00
5.981000000000000000e+03 2.060339164733886719e+01 2.032195281982421875e+01 3.549763932824134827e-02 1.250318735837936401e-01 4.815885797142982483e-02 7.179575413465499878e-02
5.982000000000000000e+03 2.173305320739746094e+01 2.114091491699218750e+01 3.775925189256668091e-02 1.212582439184188843e-01 4.770524799823760986e-02 7.289460301399230957e-02
5.983000000000000000e+03 3.740415954589843750e+01 5.277298450469970703e+00 -2.579641640186309814e-01 4.697886407375335693e-01 6.354734301567077637e-02 -2.136580087244510651e-02
5.984000000000000000e+03 3.955312728881835938e+01 9.920353889465332031e+00 -3.581270873546600342e-01 5.731789469718933105e-01 6.451555341482162476e-02 -1.779511757194995880e-02
5.985000000000000000e+03 5.437429046630859375e+01 2.695963668823242188e+01 4.219180941581726074e-01 4.277483463287353516e+00 1.409820437431335449e+00 2.260015010833740234e+00
5.986000000000000000e+03 5.922158050537109375e+01 2.791764450073242188e+01 -6.552958488464355469e-01 1.009227752685546875e+01 2.831094503402709961e+00 1.669662714004516602e+00
5.987000000000000000e+03 4.771231460571289062e+01 1.996511840820312500e+01 -1.559038460254669189e-01 1.739469647407531738e+00 4.750697612762451172e-01 6.465378999710083008e-01
5.988000000000000000e+03 6.003489303588867188e+01 2.735698318481445312e+01 -8.362722396850585938e-01 1.031672286987304688e+01 2.844135284423828125e+00 1.032139420509338379e+00
5.989000000000000000e+03 6.324539184570312500e+01 2.419052886962890625e+01 -1.050122141838073730e+00 9.375995635986328125e+00 2.497761964797973633e+00 -4.264780879020690918e-01
5.990000000000000000e+03 5.558143234252929688e+01 2.856470870971679688e+01 7.301492094993591309e-01 5.347290992736816406e+00 1.823232054710388184e+00 2.871988058090209961e+00
5.991000000000000000e+03 3.991308212280273438e+01 1.094041728973388672e+01 -3.758777976036071777e-01 5.692560076713562012e-01 5.801346898078918457e-02 -2.580248378217220306e-02
5.992000000000000000e+03 1.930264282226562500e+01 2.034269142150878906e+01 2.824935130774974823e-02 1.216692924499511719e-01 4.497559368610382080e-02 6.268196552991867065e-02
5.993000000000000000e+03 3.769345092773437500e+01 7.218692779541015625e+00 -3.347341120243072510e-01 4.054121971130371094e-01 2.120342664420604706e-02 -5.982774123549461365e-02
5.994000000000000000e+03 2.396710777282714844e+01 2.342635154724121094e+01 3.798353299498558044e-02 1.123451739549636841e-01 4.509861394762992859e-02 7.049209624528884888e-02
5.995000000000000000e+03 1.694799232482910156e+01 1.792221260070800781e+01 2.478002570569515228e-02 1.335562318563461304e-01 4.750087484717369080e-02 5.976997688412666321e-02
5.996000000000000000e+03 5.713076019287109375e+01 2.898105049133300781e+01 3.684383630752563477e-01 7.861098289489746094e+00 2.468860864639282227e+00 3.158502101898193359e+00
5.997000000000000000e+03 5.789605712890625000e+01 2.854670333862304688e+01 -1.369841843843460083e-01 8.950655937194824219e+00 2.644101619720458984e+00 2.680536270141601562e+00
5.998000000000000000e+03 3.567082595825195312e+01 4.299357414245605469e+00 -2.827307283878326416e-01 2.308816462755203247e-01 -1.555472053587436676e-02 -8.298856019973754883e-02
5.999000000000000000e+03 1.983093833923339844e+01 2.005472373962402344e+01 3.226185590028762817e-02 1.254771649837493896e-01 4.732170701026916504e-02 6.866607815027236938e-02
6.000000000000000000e+03 1.952240180969238281e+01 2.092734718322753906e+01 2.548589743673801422e-02 1.188459992408752441e-01 4.329956695437431335e-02 6.137576326727867126e-02
6.001000000000000000e+03 5.936556243896484375e+01 2.722668838500976562e+01 -7.890682220458984375e-01 9.690578460693359375e+00 2.670453071594238281e+00 1.448900938034057617e+00
6.002000000000000000e+03 1.839798545837402344e+01 1.951175498962402344e+01 2.641867846250534058e-02 1.257776916027069092e-01 4.565890878438949585e-02 6.201314926147460938e-02
6.003000000000000000e+03 1.644140052795410156e+01 1.849395942687988281e+01 2.088123187422752380e-02 1.240628436207771301e-01 4.348322376608848572e-02 5.035408586263656616e-02
6.004000000000000000e+03 4.382792282104492188e+01 -4.631988525390625000e+00 -2.772562019526958466e-02 2.009135961532592773e+00 5.944230556488037109e-01 1.085692122578620911e-01
6.005000000000000000e+03 4.398868942260742188e+01 -2.286715030670166016e+00 -5.368231981992721558e-02 1.983383893966674805e+00 5.789104700088500977e-01 1.633265465497970581e-01
6.006000000000000000e+03 1.483451652526855469e+01 1.859100532531738281e+01 1.161558832973241806e-02 1.087240651249885559e-01 3.610189631581306458e-02 3.533670678734779358e-02
6.007000000000000000e+03 3.560248565673828125e+01 3.996873199939727783e-01 -6.225920468568801880e-02 3.572591841220855713e-01 8.849999308586120605e-02 3.281550481915473938e-02
6.008000000000000000e+03 3.668229675292968750e+01 6.746866554021835327e-02 -2.888185530900955200e-02 5.298389792442321777e-01 1.502871364355087280e-01 4.935035854578018188e-02
6.009000000000000000e+03 1.688744544982910156e+01 1.651080131530761719e+01 3.482083603739738464e-02 1.458053290843963623e-01 5.418785288929939270e-02 6.833303719758987427e-02
6.010000000000000000e+03 3.472000885009765625e+01 4.238692760467529297e+00 -3.139700889587402344e-01 1.073162332177162170e-01 -6.199615821242332458e-02 -1.248104274272918701e-01
6.011000000000000000e+03 3.441167449951171875e+01 2.114964485168457031e+00 -1.970707327127456665e-01 1.606249958276748657e-01 -1.093372143805027008e-02 -3.876163810491561890e-02
6.012000000000000000e+03 1.452577972412109375e+01 1.699032592773437500e+01 1.753864809870719910e-02 1.214874312281608582e-01 4.170782491564750671e-02 3.921594098210334778e-02
6.013000000000000000e+03 1.696498680114746094e+01 1.882594299316406250e+01 2.271632663905620575e-02 1.237326860427856445e-01 4.393470287322998047e-02 5.508437752723693848e-02
6.014000000000000000e+03 3.371104431152343750e+01 1.737368464469909668e+00 -2.007039040327072144e-01 8.734177798032760620e-02 -3.400863707065582275e-02 -4.097695648670196533e-02
6.015000000000000000e+03 3.684945297241210938e+01 -5.412352681159973145e-01 -1.231543347239494324e-02 5.711709260940551758e-01 1.676566451787948608e-01 6.129926815629005432e-02
6.016000000000000000e+03 3.830628585815429688e+01 -4.192260801792144775e-01 -2.181446738541126251e-02 8.123966455459594727e-01 2.371746450662612915e-01 8.267617225646972656e-02
6.017000000000000000e+03 2.008053398132324219e+01 2.062247085571289062e+01 3.144341707229614258e-02 1.220270097255706787e-01 4.604112729430198669e-02 6.634084135293960571e-02
6.018000000000000000e+03 4.014011383056640625e+01 -1.265763163566589355e+00 5.597038543783128262e-04 1.171014904975891113e+00 3.514723777770996094e-01 1.106059625744819641e-01
6.019000000000000000e+03 6.332928085327148438e+01 1.306568908691406250e+01 -8.403705358505249023e-01 7.120406150817871094e+00 1.884010672569274902e+00 -5.471037328243255615e-02
6.020000000000000000e+03 6.363108444213867188e+01 9.826838493347167969e+00 -6.748353838920593262e-01 6.885105133056640625e+00 1.863080978393554688e+00 -2.587096020579338074e-02
6.021000000000000000e+03 2.276225852966308594e+01 2.218651580810546875e+01 3.630381077527999878e-02 1.160951554775238037e-01 4.571969062089920044e-02 7.055032998323440552e-02
6.022000000000000000e+03 2.244697952270507812e+01 2.297555160522460938e+01 3.158541023731231689e-02 1.150231957435607910e-01 4.398258030414581299e-02 6.728793680667877197e-02
6.023000000000000000e+03 2.402816390991210938e+01 2.828845596313476562e+01 2.054146677255630493e-02 9.503957629203796387e-02 3.467431291937828064e-02 5.026827380061149597e-02
6.024000000000000000e+03 2.160863304138183594e+01 2.705297851562500000e+01 1.313764974474906921e-02 9.246525913476943970e-02 3.168087452650070190e-02 4.392617940902709961e-02
6.025000000000000000e+03 1.606676292419433594e+01 1.934414482116699219e+01 1.408222224563360214e-02 1.130366921424865723e-01 3.813567385077476501e-02 4.330815747380256653e-02
6.026000000000000000e+03 6.144260025024414062e+01 5.260567188262939453e+00 -5.058768391609191895e-01 6.174585342407226562e+00 1.700612545013427734e+00 1.628230810165405273e-01
6.027000000000000000e+03 4.519337463378906250e+01 -3.327258110046386719e+00 -6.475327163934707642e-02 2.290459394454956055e+00 6.677118539810180664e-01 1.576542109251022339e-01
6.028000000000000000e+03 6.360769653320312500e+01 1.220487499237060547e+01 -7.941926121711730957e-01 7.081349372863769531e+00 1.886147022247314453e+00 -6.655734777450561523e-02
6.029000000000000000e+03 6.181771850585937500e+01 2.619820213317871094e+01 -9.426845312118530273e-01 1.010450172424316406e+01 2.748545169830322266e+00 1.676500216126441956e-02
6.030000000000000000e+03 6.360517120361328125e+01 2.542881774902343750e+01 -8.600143790245056152e-01 9.822914123535156250e+00 2.688869714736938477e+00 -7.205912470817565918e-01
6.031000000000000000e+03 6.364140319824218750e+01 2.241017150878906250e+01 -1.105557560920715332e+00 8.861304283142089844e+00 2.326724052429199219e+00 -4.084332287311553955e-01
6.032000000000000000e+03 1.688338088989257812e+01 2.114941215515136719e+01 1.060125418007373810e-02 1.033920943737030029e-01 3.419800475239753723e-02 3.980728238821029663e-02
6.033000000000000000e+03 1.660289573669433594e+01 2.195412635803222656e+01 7.896356284618377686e-03 9.645702689886093140e-02 3.130601346492767334e-02 3.624969348311424255e-02
6.034000000000000000e+03 3.921485519409179688e+01 -1.279207825660705566e+00 2.838928194250911474e-04 9.930192232131958008e-01 2.979909181594848633e-01 9.068241715431213379e-02
6.035000000000000000e+03 6.402207183837890625e+01 1.707968902587890625e+01 -1.024759292602539062e+00 7.770159244537353516e+00 2.023619890213012695e+00 -2.415243983268737793e-01
6.036000000000000000e+03 6.362624359130859375e+01 1.542570495605468750e+01 -9.511629939079284668e-01 7.469290256500244141e+00 1.955438137054443359e+00 -1.445476114749908447e-01
6.037000000000000000e+03 6.257472610473632812e+01 1.209406757354736328e+01 -8.023129105567932129e-01 6.882490634918212891e+00 1.824053287506103516e+00 3.027240931987762451e-02
6.038000000000000000e+03 6.305764007568359375e+01 6.287873744964599609e+00 -5.282011032104492188e-01 6.573492527008056641e+00 1.813587427139282227e+00 6.526181101799011230e-02
6.039000000000000000e+03 4.309466934204101562e+01 -3.176272869110107422e+00 -2.489869110286235809e-02 1.832247495651245117e+00 5.422046184539794922e-01 1.274611204862594604e-01
6.040000000000000000e+03 6.234166336059570312e+01 2.631937599182128906e+01 -8.810923099517822266e-01 1.021556091308593750e+01 2.800340652465820312e+00 -2.532541453838348389e-01
6.041000000000000000e+03 6.422158050537109375e+01 7.376214981079101562e+00 -5.647570490837097168e-01 6.842781543731689453e+00 1.883407354354858398e+00 -6.973209790885448456e-03
6.042000000000000000e+03 5.090391921997070312e+01 -1.299158954620361328e+01 -1.703835576772689819e-01 3.792910337448120117e+00 1.086758017539978027e+00 1.008450612425804138e-01
6.043000000000000000e+03 5.002709579467773438e+01 -8.921739578247070312e+00 -1.438828408718109131e-01 3.503437995910644531e+00 1.007866501808166504e+00 1.304103285074234009e-01
6.044000000000000000e+03 4.311953353881835938e+01 -2.132559299468994141e+00 -3.294527530670166016e-02 1.816939830780029297e+00 5.351983904838562012e-01 1.546543538570404053e-01
6.045000000000000000e+03 6.054035186767578125e+01 -1.508692383766174316e+00 -3.025328814983367920e-01 5.780274391174316406e+00 1.643322467803955078e+00 2.151844203472137451e-01
6.046000000000000000e+03 5.414480972290039062e+01 -1.306547546386718750e+01 -1.910028159618377686e-01 4.493606090545654297e+00 1.290780901908874512e+00 1.853149682283401489e-01
6.047000000000000000e+03 5.285004043579101562e+01 -1.240807533264160156e+01 -1.790448576211929321e-01 4.195457458496093750e+00 1.204923748970031738e+00 1.480336189270019531e-01
6.048000000000000000e+03 6.159881591796875000e+01 -7.900637149810791016e+00 -1.973223239183425903e-01 5.951102256774902344e+00 1.726133942604064941e+00 2.373117357492446899e-01
6.049000000000000000e+03 6.194051361083984375e+01 7.654160022735595703e+00 -6.027778387069702148e-01 6.406209468841552734e+00 1.741029500961303711e+00 1.172090247273445129e-01
6.050000000000000000e+03 6.421191406250000000e+01 1.815460586547851562e+01 -1.041543722152709961e+00 7.971161842346191406e+00 2.078885316848754883e+00 -3.321162164211273193e-01
6.051000000000000000e+03 6.300175857543945312e+01 1.700333976745605469e+01 -1.046391963958740234e+00 7.597076892852783203e+00 1.965205550193786621e+00 -8.164494484663009644e-02
6.052000000000000000e+03 6.021932601928710938e+01 -5.668444633483886719e-01 -3.321266174316406250e-01 5.731777667999267578e+00 1.619895339012145996e+00 2.164486348628997803e-01
6.053000000000000000e+03 1.773686027526855469e+01 2.015977668762207031e+01 2.051925286650657654e-02 1.179736480116844177e-01 4.154786840081214905e-02 5.411554872989654541e-02
6.054000000000000000e+03 6.211218643188476562e+01 -1.408839416503906250e+01 -1.404176801443099976e-01 6.055007457733154297e+00 1.774376869201660156e+00 2.981262505054473877e-01
6.055000000000000000e+03 6.271976852416992188e+01 -1.174064922332763672e+01 -1.636025458574295044e-01 6.154364109039306641e+00 1.797228455543518066e+00 2.676477432250976562e-01
6.056000000000000000e+03 6.076136016845703125e+01 -2.492236375808715820e+00 -2.870852947235107422e-01 5.794672966003417969e+00 1.652276396751403809e+00 2.128269672393798828e-01
6.057000000000000000e+03 6.106574630737304688e+01 2.305941820144653320e+00 -4.060035347938537598e-01 5.983742237091064453e+00 1.673321604728698730e+00 1.873355507850646973e-01
6.058000000000000000e+03 4.817749023437500000e+01 -9.198110580444335938e+00 -1.175352036952972412e-01 3.094628572463989258e+00 8.931280374526977539e-01 8.150612562894821167e-02
6.059000000000000000e+03 6.317103195190429688e+01 8.451544761657714844e+00 -6.233915090560913086e-01 6.703455924987792969e+00 1.824019312858581543e+00 3.588139265775680542e-02
6.060000000000000000e+03 2.090620803833007812e+01 2.244024848937988281e+01 2.451657876372337341e-02 1.129086241126060486e-01 4.122756049036979675e-02 6.048517674207687378e-02
6.061000000000000000e+03 1.693177223205566406e+01 2.560562324523925781e+01 1.012127613648772240e-03 7.486458867788314819e-02 2.276301570236682892e-02 2.527160383760929108e-02
6.062000000000000000e+03 2.162955665588378906e+01 2.459378051757812500e+01 2.019415237009525299e-02 1.059127673506736755e-01 3.783207759261131287e-02 5.579630285501480103e-02
6.063000000000000000e+03 5.909801864624023438e+01 -2.473521232604980469e+01 -7.805053610354661942e-03 5.589915752410888672e+00 1.674633145332336426e+00 3.626010417938232422e-01
6.064000000000000000e+03 6.293530273437500000e+01 -9.415282249450683594e+00 -1.733758300542831421e-01 6.203809738159179688e+00 1.809130191802978516e+00 2.465583086013793945e-01
6.065000000000000000e+03 6.304014587402343750e+01 1.067848777770996094e+01 -7.335718870162963867e-01 6.847371578216552734e+00 1.834139943122863770e+00 1.108566112816333771e-02
6.066000000000000000e+03 6.244644927978515625e+01 -1.264657115936279297e+01 -1.533110439777374268e-01 6.125870227813720703e+00 1.791767835617065430e+00 2.744137048721313477e-01
6.067000000000000000e+03 6.095223617553710938e+01 -1.454333305358886719e+01 -1.491288691759109497e-01 5.850089550018310547e+00 1.710288166999816895e+00 2.902337908744812012e-01
6.068000000000000000e+03 1.719603157043457031e+01 2.315080261230468750e+01 7.528848480433225632e-03 9.202669560909271240e-02 2.986666373908519745e-02 3.542837128043174744e-02
6.069000000000000000e+03 1.704486846923828125e+01 2.427760124206542969e+01 1.172971096821129322e-03 8.310046046972274780e-02 2.528202906250953674e-02 2.907147258520126343e-02
6.070000000000000000e+03 6.171637344360351562e+01 -1.670007514953613281e+01 -1.438924223184585571e-01 5.967520713806152344e+00 1.747088551521301270e+00 2.991822957992553711e-01
6.071000000000000000e+03 6.116059494018554688e+01 -2.039283752441406250e+01 -8.916179835796356201e-02 5.933532238006591797e+00 1.753311157226562500e+00 3.494218885898590088e-01
6.072000000000000000e+03 6.129074859619140625e+01 -1.831765621900558472e-01 -3.313383758068084717e-01 5.960176467895507812e+00 1.688651442527770996e+00 1.952537298202514648e-01
6.073000000000000000e+03 5.816589736938476562e+01 -1.552069473266601562e+01 -1.764102876186370850e-01 5.328310012817382812e+00 1.545569896697998047e+00 2.678504884243011475e-01
6.074000000000000000e+03 5.659647369384765625e+01 -1.542485141754150391e+01 -1.737242192029953003e-01 5.026798248291015625e+00 1.455922245979309082e+00 2.379364967346191406e-01
6.075000000000000000e+03 1.361167049407958984e+01 3.222741317749023438e+01 -9.485056623816490173e-03 1.735212095081806183e-02 2.360119717195630074e-03 -3.621376235969364643e-04
6.076000000000000000e+03 4.780612945556640625e+01 -2.893030643463134766e+00 -1.262129545211791992e-01 2.880098342895507812e+00 8.261656165122985840e-01 2.027648091316223145e-01
6.077000000000000000e+03 2.442499923706054688e+01 3.197799682617187500e+01 1.244938373565673828e-02 8.701614290475845337e-02 2.983965910971164703e-02 3.634444996714591980e-02
6.078000000000000000e+03 6.221543121337890625e+01 -7.026836872100830078e+00 -2.067582905292510986e-01 6.065515041351318359e+00 1.757627129554748535e+00 2.267855256795883179e-01
6.079000000000000000e+03 5.946756362915039062e+01 -2.087802124023437500e+01 -9.608144313097000122e-02 5.632882595062255859e+00 1.661040425300598145e+00 3.268059194087982178e-01
6.080000000000000000e+03 5.537648010253906250e+01 2.932121467590332031e+01 1.093040347099304199e+00 4.770985126495361328e+00 1.759207606315612793e+00 2.949053764343261719e+00
6.081000000000000000e+03 5.754086303710937500e+01 2.894694137573242188e+01 1.584121584892272949e-01 8.548888206481933594e+00 2.612190008163452148e+00 3.024508953094482422e+00
6.082000000000000000e+03 5.056939697265625000e+01 2.263979911804199219e+01 5.448112497106194496e-04 2.524078369140625000e+00 7.573869228363037109e-01 1.132288813591003418e+00
6.083000000000000000e+03 5.135415267944335938e+01 2.218044281005859375e+01 -8.960120379924774170e-02 3.017035245895385742e+00 8.782301545143127441e-01 1.226227998733520508e+00
6.084000000000000000e+03 5.415455627441406250e+01 2.661162567138671875e+01 3.702922165393829346e-01 4.156946659088134766e+00 1.358171582221984863e+00 2.156509399414062500e+00
6.085000000000000000e+03 5.391661071777343750e+01 2.686894416809082031e+01 4.431027173995971680e-01 3.852770090103149414e+00 1.288761854171752930e+00 2.107978820800781250e+00
6.086000000000000000e+03 5.110194778442382812e+01 2.253426933288574219e+01 -4.084137827157974243e-02 2.835866689682006836e+00 8.385075926780700684e-01 1.209151506423950195e+00
6.087000000000000000e+03 5.124293518066406250e+01 2.287518882751464844e+01 -1.792469620704650879e-02 2.848797798156738281e+00 8.492619395256042480e-01 1.242143750190734863e+00
6.088000000000000000e+03 4.986664199829101562e+01 2.112038612365722656e+01 -1.149935349822044373e-01 2.448454618453979492e+00 7.000383138656616211e-01 9.653301239013671875e-01
6.089000000000000000e+03 5.368070602416992188e+01 2.571193695068359375e+01 2.235486954450607300e-01 3.916645765304565430e+00 1.242058277130126953e+00 1.928734183311462402e+00
6.090000000000000000e+03 5.451050567626953125e+01 2.635658454895019531e+01 2.454418838024139404e-01 4.578227519989013672e+00 1.447100877761840820e+00 2.193791389465332031e+00
6.091000000000000000e+03 5.447882080078125000e+01 2.735098266601562500e+01 5.133364200592041016e-01 4.307404518127441406e+00 1.446222305297851562e+00 2.335928201675415039e+00
6.092000000000000000e+03 5.158478546142578125e+01 2.336926651000976562e+01 2.602080442011356354e-02 2.941443204879760742e+00 8.902392387390136719e-01 1.336473226547241211e+00
6.093000000000000000e+03 5.583111190795898438e+01 2.907541275024414062e+01 8.877193331718444824e-01 5.560292243957519531e+00 1.934403538703918457e+00 3.074843406677246094e+00
6.094000000000000000e+03 4.896763992309570312e+01 2.028204536437988281e+01 -1.465768814086914062e-01 2.174873828887939453e+00 6.084890961647033691e-01 8.223354816436767578e-01
6.095000000000000000e+03 5.033190155029296875e+01 2.117024230957031250e+01 -1.246244236826896667e-01 2.639190912246704102e+00 7.543699145317077637e-01 1.041949033737182617e+00
6.096000000000000000e+03 5.247798538208007812e+01 2.453936576843261719e+01 1.276288628578186035e-01 3.272690057754516602e+00 1.020095705986022949e+00 1.573883771896362305e+00
6.097000000000000000e+03 5.334178543090820312e+01 2.561071205139160156e+01 2.370517253875732422e-01 3.678244590759277344e+00 1.174588918685913086e+00 1.852200269699096680e+00
6.098000000000000000e+03 4.755084991455078125e+01 1.969707298278808594e+01 -1.609396338462829590e-01 1.716060042381286621e+00 4.665361344814300537e-01 6.307515501976013184e-01
6.099000000000000000e+03 5.047624969482421875e+01 2.065773391723632812e+01 -1.685089170932769775e-01 2.790412425994873047e+00 7.865710258483886719e-01 1.038381814956665039e+00
6.100000000000000000e+03 4.943725967407226562e+01 2.024099159240722656e+01 -1.598188728094100952e-01 2.378473281860351562e+00 6.655963659286499023e-01 8.821253776550292969e-01
6.101000000000000000e+03 5.309457397460937500e+01 2.512065696716308594e+01 1.682365238666534424e-01 3.602577447891235352e+00 1.131244182586669922e+00 1.745656251907348633e+00
6.102000000000000000e+03 5.224549102783203125e+01 2.401693344116210938e+01 6.661755591630935669e-02 3.221214771270751953e+00 9.863497018814086914e-01 1.496135830879211426e+00
6.103000000000000000e+03 4.307516479492187500e+01 1.384352493286132812e+01 -3.315786123275756836e-01 1.035437941551208496e+00 2.111577987670898438e-01 1.643939167261123657e-01
6.104000000000000000e+03 4.062497711181640625e+01 1.190507125854492188e+01 -3.748878240585327148e-01 6.445153355598449707e-01 8.088826388120651245e-02 -1.769987633451819420e-03
6.105000000000000000e+03 5.259429931640625000e+01 2.414696693420410156e+01 6.048536673188209534e-02 3.421609640121459961e+00 1.044628500938415527e+00 1.569211721420288086e+00
6.106000000000000000e+03 5.282833480834960938e+01 2.464273643493652344e+01 1.173872053623199463e-01 3.500350952148437500e+00 1.085321426391601562e+00 1.648986101150512695e+00
6.107000000000000000e+03 4.543243026733398438e+01 1.660240936279296875e+01 -2.573705315589904785e-01 1.416762232780456543e+00 3.478175103664398193e-01 3.686360418796539307e-01
6.108000000000000000e+03 4.440249633789062500e+01 1.527738857269287109e+01 -2.909266650676727295e-01 1.261085629463195801e+00 2.910476922988891602e-01 2.720570564270019531e-01
6.109000000000000000e+03 4.513562011718750000e+01 1.612011909484863281e+01 -2.720528542995452881e-01 1.388887524604797363e+00 3.350504040718078613e-01 3.410591483116149902e-01
6.110000000000000000e+03 4.589381790161132812e+01 1.662567901611328125e+01 -2.573295533657073975e-01 1.543849229812622070e+00 3.859558999538421631e-01 4.207783043384552002e-01
6.111000000000000000e+03 5.027165985107421875e+01 2.198903083801269531e+01 -5.944678559899330139e-02 2.487665891647338867e+00 7.284656763076782227e-01 1.059409022331237793e+00
6.112000000000000000e+03 5.566896057128906250e+01 2.767736625671386719e+01 3.837089538574218750e-01 5.626574039459228516e+00 1.803084969520568848e+00 2.665118217468261719e+00
6.113000000000000000e+03 4.484091186523437500e+01 1.602165794372558594e+01 -2.789990305900573730e-01 1.295312762260437012e+00 3.048941195011138916e-01 3.058404326438903809e-01
6.114000000000000000e+03 4.421815109252929688e+01 1.563203525543212891e+01 -2.945122122764587402e-01 1.173568964004516602e+00 2.637170255184173584e-01 2.402250021696090698e-01
6.115000000000000000e+03 4.398890304565429688e+01 1.506849575042724609e+01 -3.063470125198364258e-01 1.159090280532836914e+00 2.558229863643646240e-01 2.276490330696105957e-01
6.116000000000000000e+03 4.680019760131835938e+01 1.709389305114746094e+01 -2.451091110706329346e-01 1.787800192832946777e+00 4.628073275089263916e-01 5.182355046272277832e-01
6.117000000000000000e+03 4.384829711914062500e+01 1.547372531890869141e+01 -3.044904470443725586e-01 1.078856348991394043e+00 2.323097586631774902e-01 2.040142416954040527e-01
6.118000000000000000e+03 4.479022598266601562e+01 1.549099826812744141e+01 -2.823128700256347656e-01 1.355655431747436523e+00 3.220027685165405273e-01 3.142382502555847168e-01
6.119000000000000000e+03 5.488181304931640625e+01 2.770242309570312500e+01 5.561761260032653809e-01 4.659073352813720703e+00 1.564574837684631348e+00 2.513977289199829102e+00
6.120000000000000000e+03 4.027368164062500000e+01 8.861450195312500000e+00 -3.139393031597137451e-01 7.952322363853454590e-01 1.443878859281539917e-01 6.015548110008239746e-02
6.121000000000000000e+03 3.950982666015625000e+01 8.496623992919921875e+00 -3.221815526485443115e-01 6.659025549888610840e-01 1.031163036823272705e-01 1.625804416835308075e-02
6.122000000000000000e+03 3.971937942504882812e+01 8.974949836730957031e+00 -3.367060720920562744e-01 6.756690740585327148e-01 1.016888990998268127e-01 1.956853084266185760e-02
6.123000000000000000e+03 3.599514007568359375e+01 8.893748521804809570e-01 -8.423858880996704102e-02 4.139321148395538330e-01 9.890805929899215698e-02 2.701821550726890564e-02
6.124000000000000000e+03 4.049457550048828125e+01 1.042122936248779297e+01 -3.496085107326507568e-01 7.370399236679077148e-01 1.162294223904609680e-01 3.383687138557434082e-02
6.125000000000000000e+03 3.872220993041992188e+01 8.150820732116699219e+00 -3.325547873973846436e-01 5.312699079513549805e-01 5.961453542113304138e-02 -2.502970397472381592e-02
6.126000000000000000e+03 3.994218444824218750e+01 1.040907955169677734e+01 -3.612597286701202393e-01 6.106639504432678223e-01 7.482127100229263306e-02 -9.701745584607124329e-03
6.127000000000000000e+03 3.643921661376953125e+01 5.056347370147705078e+00 -2.828819155693054199e-01 3.122130632400512695e-01 8.799338713288307190e-03 -6.911428272724151611e-02
6.128000000000000000e+03 3.736700820922851562e+01 6.791392803192138672e+00 -3.197276592254638672e-01 3.899659216403961182e-01 2.107148244976997375e-02 -6.563615053892135620e-02
6.129000000000000000e+03 5.670830917358398438e+01 2.894282341003417969e+01 5.049849152565002441e-01 7.145205497741699219e+00 2.295057058334350586e+00 3.142919778823852539e+00
6.130000000000000000e+03 3.712238311767578125e+01 4.683996677398681641e+00 -2.468941658735275269e-01 4.474342167377471924e-01 6.016200780868530273e-02 -1.853566803038120270e-02
6.131000000000000000e+03 3.712482833862304688e+01 6.063992023468017578e+00 -3.068614900112152100e-01 3.685181736946105957e-01 1.849700510501861572e-02 -6.429345160722732544e-02
6.132000000000000000e+03 4.993154525756835938e+01 2.065510177612304688e+01 -1.496851146221160889e-01 2.527259349822998047e+00 7.132722735404968262e-01 9.602908492088317871e-01
6.133000000000000000e+03 4.851399612426757812e+01 2.031924438476562500e+01 -1.438845396041870117e-01 1.990705251693725586e+00 5.540462136268615723e-01 7.571824193000793457e-01
6.134000000000000000e+03 1.523618316650390625e+01 1.797296714782714844e+01 1.611329987645149231e-02 1.188631951808929443e-01 4.049294814467430115e-02 4.114184528589248657e-02
6.135000000000000000e+03 1.727099800109863281e+01 1.953943824768066406e+01 2.195709571242332458e-02 1.190226748585700989e-01 4.229393228888511658e-02 5.328343063592910767e-02
6.136000000000000000e+03 1.797206687927246094e+01 1.977102470397949219e+01 2.421491406857967377e-02 1.206233650445938110e-01 4.345148429274559021e-02 5.588364601135253906e-02
6.137000000000000000e+03 1.819846916198730469e+01 2.073241615295410156e+01 2.070400305092334747e-02 1.152108013629913330e-01 4.077444225549697876e-02 5.321458354592323303e-02
6.138000000000000000e+03 1.600641441345214844e+01 1.733671760559082031e+01 2.274133078753948212e-02 1.339917629957199097e-01 4.701992869377136230e-02 5.388551577925682068e-02
6.139000000000000000e+03 4.107563018798828125e+01 1.182088947296142578e+01 -3.562661409378051758e-01 7.437699437141418457e-01 1.162511408329010010e-01 4.231088608503341675e-02
6.140000000000000000e+03 4.808428573608398438e+01 1.993140411376953125e+01 -1.597777605056762695e-01 1.877699732780456543e+00 5.153766274452209473e-01 6.901955008506774902e-01
6.141000000000000000e+03 4.196247482299804688e+01 1.372176265716552734e+01 -3.551686406135559082e-01 7.844686508178710938e-01 1.287900060415267944e-01 6.154406443238258362e-02
6.142000000000000000e+03 4.721751785278320312e+01 1.710471343994140625e+01 -2.489358782768249512e-01 1.923536896705627441e+00 5.023803114891052246e-01 5.705742835998535156e-01
6.143000000000000000e+03 4.776502227783203125e+01 1.752851104736328125e+01 -2.419033497571945190e-01 2.057983875274658203e+00 5.448241233825683594e-01 6.313313841819763184e-01
6.144000000000000000e+03 3.560634231567382812e+01 2.839658260345458984e+00 -1.921106725931167603e-01 2.976919710636138916e-01 3.167439624667167664e-02 -3.237393125891685486e-02
6.145000000000000000e+03 5.860663986206054688e+01 2.773594284057617188e+01 -5.543267726898193359e-01 9.381847381591796875e+00 2.648256063461303711e+00 2.029117584228515625e+00
6.146000000000000000e+03 5.908740234375000000e+01 2.682034492492675781e+01 -7.937477827072143555e-01 9.306982040405273438e+00 2.553970336914062500e+00 1.562229275703430176e+00
6.147000000000000000e+03 2.034846878051757812e+01 2.120607185363769531e+01 2.869749441742897034e-02 1.190620511770248413e-01 4.432786256074905396e-02 6.499398499727249146e-02
6.148000000000000000e+03 2.120979118347167969e+01 2.149841690063476562e+01 3.197847679257392883e-02 1.193193271756172180e-01 4.538933932781219482e-02 6.826627999544143677e-02
6.149000000000000000e+03 3.510856246948242188e+01 8.883379697799682617e-01 -1.072757169604301453e-01 2.714067101478576660e-01 4.923929646611213684e-02 1.093426439911127090e-02
6.150000000000000000e+03 6.353615188598632812e+01 1.651913452148437500e+01 -1.005055546760559082e+00 7.611234188079833984e+00 1.981853604316711426e+00 -1.539207696914672852e-01
6.151000000000000000e+03 3.751134872436523438e+01 -5.182456374168395996e-01 -3.041044808924198151e-03 6.728889942169189453e-01 2.009543925523757935e-01 7.101909071207046509e-02
6.152000000000000000e+03 3.598308181762695312e+01 4.665037631988525391e+00 -2.789635062217712402e-01 2.707713544368743896e-01 -2.457640133798122406e-03 -7.550921291112899780e-02
6.153000000000000000e+03 1.977654075622558594e+01 2.150629234313964844e+01 2.467187121510505676e-02 1.155930012464523315e-01 4.207946360111236572e-02 5.921204388141632080e-02
6.154000000000000000e+03 6.337015533447265625e+01 2.159312629699707031e+01 -1.138917326927185059e+00 8.614223480224609375e+00 2.242591857910156250e+00 -3.007999360561370850e-01
6.155000000000000000e+03 6.404340362548828125e+01 1.936811065673828125e+01 -1.092075586318969727e+00 8.174030303955078125e+00 2.124586343765258789e+00 -3.442481160163879395e-01
6.156000000000000000e+03 6.088253784179687500e+01 2.606328773498535156e+01 -1.007865548133850098e+00 9.869283676147460938e+00 2.658425569534301758e+00 4.968242347240447998e-01
6.157000000000000000e+03 6.199099349975585938e+01 2.204440689086914062e+01 -1.183390259742736816e+00 8.525295257568359375e+00 2.202571392059326172e+00 7.554274052381515503e-02
6.158000000000000000e+03 1.451525306701660156e+01 1.533949661254882812e+01 2.552553080022335052e-02 1.441329717636108398e-01 5.089755356311798096e-02 4.863831400871276855e-02
6.159000000000000000e+03 1.519437503814697266e+01 1.678718185424804688e+01 2.055382356047630310e-02 1.315985769033432007e-01 4.564571753144264221e-02 4.683782905340194702e-02
6.160000000000000000e+03 1.580601882934570312e+01 1.661100196838378906e+01 2.822062745690345764e-02 1.393727660179138184e-01 5.027801916003227234e-02 5.697141587734222412e-02
6.161000000000000000e+03 6.027672576904296875e+01 2.633343887329101562e+01 -9.737325906753540039e-01 9.774442672729492188e+00 2.640212774276733398e+00 8.226329088211059570e-01
6.162000000000000000e+03 6.206681823730468750e+01 4.385317802429199219e+00 -4.695666730403900146e-01 6.261626720428466797e+00 1.737618088722229004e+00 1.441794484853744507e-01
6.163000000000000000e+03 6.182054138183593750e+01 6.500201225280761719e+00 -5.503396391868591309e-01 6.312343120574951172e+00 1.728601098060607910e+00 1.366838067770004272e-01
6.164000000000000000e+03 3.547670364379882812e+01 1.254521012306213379e+00 -1.151709333062171936e-01 3.187103867530822754e-01 6.106183305382728577e-02 1.020353939384222031e-02
6.165000000000000000e+03 6.256802749633789062e+01 1.283756637573242188e+01 -8.373219966888427734e-01 6.968775749206542969e+00 1.839436054229736328e+00 2.231653220951557159e-02
6.166000000000000000e+03 4.297060775756835938e+01 -4.142837524414062500e+00 6.447456544265151024e-04 1.813606619834899902e+00 5.442754030227661133e-01 1.072913482785224915e-01
6.167000000000000000e+03 4.103544998168945312e+01 -3.717605769634246826e-01 -3.215868771076202393e-02 1.335070729255676270e+00 3.908736109733581543e-01 1.375135034322738647e-01
6.168000000000000000e+03 6.242671203613281250e+01 2.571569824218750000e+01 -9.611539840698242188e-01 9.963139533996582031e+00 2.700595617294311523e+00 -2.298555225133895874e-01
6.169000000000000000e+03 3.919763565063476562e+01 -3.605952858924865723e-01 -1.521337591111660004e-02 9.699327349662780762e-01 2.864158153533935547e-01 9.958556294441223145e-02
6.170000000000000000e+03 6.229316329956054688e+01 1.006084918975830078e+01 -7.061079740524291992e-01 6.644180297851562500e+00 1.781421661376953125e+00 7.890163362026214600e-02
6.171000000000000000e+03 4.108821487426757812e+01 -1.243274450302124023e+00 -2.176508307456970215e-02 1.362708210945129395e+00 4.022829532623291016e-01 1.249646991491317749e-01
6.172000000000000000e+03 1.627394866943359375e+01 2.072119140625000000e+01 9.654985740780830383e-03 1.035449653863906860e-01 3.395998477935791016e-02 3.876889124512672424e-02
6.173000000000000000e+03 1.727591514587402344e+01 2.006332397460937500e+01 1.674368232488632202e-02 1.167157143354415894e-01 4.003781825304031372e-02 4.895302653312683105e-02
6.174000000000000000e+03 2.058173370361328125e+01 2.656922340393066406e+01 1.014860626310110092e-02 9.308075904846191406e-02 3.096880950033664703e-02 4.289001598954200745e-02
6.175000000000000000e+03 6.291231918334960938e+01 2.258805465698242188e+01 -1.147347569465637207e+00 8.835844039916992188e+00 2.306549072265625000e+00 -2.177740335464477539e-01
6.176000000000000000e+03 6.382664108276367188e+01 2.324867439270019531e+01 -1.065280079841613770e+00 9.091142654418945312e+00 2.407758712768554688e+00 -5.243658423423767090e-01
6.177000000000000000e+03 6.396747207641601562e+01 2.408751296997070312e+01 -9.727087616920471191e-01 9.324841499328613281e+00 2.505640029907226562e+00 -6.454115509986877441e-01
6.178000000000000000e+03 6.374113082885742188e+01 2.051331710815429688e+01 -1.121816873550415039e+00 8.386084556579589844e+00 2.179280281066894531e+00 -3.360162973403930664e-01
6.179000000000000000e+03 3.739542388916015625e+01 1.457951217889785767e-01 -3.665775060653686523e-02 6.508540511131286621e-01 1.842588931322097778e-01 6.976076960563659668e-02
6.180000000000000000e+03 6.290081024169921875e+01 1.377185440063476562e+01 -8.839217424392700195e-01 7.125184059143066406e+00 1.872378706932067871e+00 -1.763683371245861053e-02
6.181000000000000000e+03 5.954296112060546875e+01 -1.795724511146545410e+00 -3.042108416557312012e-01 5.555721282958984375e+00 1.575453162193298340e+00 2.364794313907623291e-01
6.182000000000000000e+03 4.460271072387695312e+01 -2.723972082138061523e+00 -5.682397261261940002e-02 2.173580884933471680e+00 6.350271105766296387e-01 1.668379008769989014e-01
6.183000000000000000e+03 4.802348709106445312e+01 -7.230267047882080078e+00 -1.060326918959617615e-01 3.016103267669677734e+00 8.730211257934570312e-01 1.139145866036415100e-01
6.184000000000000000e+03 6.338397979736328125e+01 7.526344776153564453e+00 -5.752503871917724609e-01 6.692498683929443359e+00 1.835174441337585449e+00 3.181611001491546631e-02
6.185000000000000000e+03 6.230136489868164062e+01 5.755706310272216797e+00 -5.141579508781433105e-01 6.380040645599365234e+00 1.759764790534973145e+00 1.191879734396934509e-01
6.186000000000000000e+03 1.670152854919433594e+01 1.951642608642578125e+01 1.570116542279720306e-02 1.159361153841018677e-01 3.949118405580520630e-02 4.643311724066734314e-02
6.187000000000000000e+03 2.211991119384765625e+01 2.379409408569335938e+01 2.478971332311630249e-02 1.082262024283409119e-01 3.990477323532104492e-02 5.941903218626976013e-02
6.188000000000000000e+03 2.175196838378906250e+01 2.283362197875976562e+01 2.734128385782241821e-02 1.127204895019531250e-01 4.201853275299072266e-02 6.302665919065475464e-02
6.189000000000000000e+03 6.335246658325195312e+01 1.976136589050292969e+01 -1.117223739624023438e+00 8.172765731811523438e+00 2.116662502288818359e+00 -2.167808264493942261e-01
6.190000000000000000e+03 5.993385314941406250e+01 -3.773871660232543945e+00 -2.692444622516632080e-01 5.623763561248779297e+00 1.606355667114257812e+00 2.272333800792694092e-01
6.191000000000000000e+03 6.094744491577148438e+01 -5.011772632598876953e+00 -2.426798194646835327e-01 5.843160629272460938e+00 1.680144309997558594e+00 2.265019714832305908e-01
6.192000000000000000e+03 5.997245788574218750e+01 -4.888862133026123047e+00 -2.411156594753265381e-01 5.626164913177490234e+00 1.615514755249023438e+00 2.320636510848999023e-01
6.193000000000000000e+03 6.280529403686523438e+01 9.346282005310058594e+00 -6.761636137962341309e-01 6.701132297515869141e+00 1.807490587234497070e+00 5.046306177973747253e-02
6.194000000000000000e+03 5.405875778198242188e+01 -9.777541160583496094e+00 -1.873356252908706665e-01 4.401643753051757812e+00 1.264292359352111816e+00 1.908912062644958496e-01
6.195000000000000000e+03 5.749798583984375000e+01 -1.128745841979980469e+01 -2.000787854194641113e-01 5.150557518005371094e+00 1.485143542289733887e+00 2.396149784326553345e-01
6.196000000000000000e+03 1.753666877746582031e+01 2.137438774108886719e+01 1.436394453048706055e-02 1.060977280139923096e-01 3.613850101828575134e-02 4.498667642474174500e-02
6.197000000000000000e+03 1.822106552124023438e+01 2.143424606323242188e+01 1.474909763783216476e-02 1.101703047752380371e-01 3.747582063078880310e-02 4.897078499197959900e-02
6.198000000000000000e+03 6.356297302246093750e+01 1.757213973999023438e+01 -1.045764923095703125e+00 7.769473075866699219e+00 2.017112493515014648e+00 -1.844301074743270874e-01
6.199000000000000000e+03 6.239875411987304688e+01 1.542719650268554688e+01 -9.718742370605468750e-01 7.244080066680908203e+00 1.881661772727966309e+00 2.642403356730937958e-02
6.200000000000000000e+03 6.183338928222656250e+01 -1.196441745758056641e+01 -1.680769920349121094e-01 5.990091800689697266e+00 1.746604442596435547e+00 2.719004452228546143e-01
6.201000000000000000e+03 6.104177474975585938e+01 -1.129394531250000000e+01 -1.841545999050140381e-01 5.839516162872314453e+00 1.696608424186706543e+00 2.620052695274353027e-01
6.202000000000000000e+03 2.130560874938964844e+01 3.187201309204101562e+01 3.660288406535983086e-03 7.305388152599334717e-02 2.301425114274024963e-02 2.709524519741535187e-02
6.203000000000000000e+03 1.737136268615722656e+01 2.218842506408691406e+01 8.396678604185581207e-03 9.957790374755859375e-02 3.239237517118453979e-02 3.916936367750167847e-02
6.204000000000000000e+03 2.194943809509277344e+01 2.590293693542480469e+01 1.743475161492824554e-02 1.008384898304939270e-01 3.548197448253631592e-02 5.187389999628067017e-02
6.205000000000000000e+03 1.811346054077148438e+01 2.554194831848144531e+01 1.813877141103148460e-03 8.181794732809066772e-02 2.508954703807830811e-02 3.166914358735084534e-02
6.206000000000000000e+03 6.016458129882812500e+01 1.742332458496093750e+00 -3.884768784046173096e-01 5.778910636901855469e+00 1.617130160331726074e+00 2.168871313333511353e-01
6.207000000000000000e+03 6.311746597290039062e+01 -1.343407630920410156e+01 -1.361158341169357300e-01 6.227450370788574219e+00 1.827400445938110352e+00 2.769510149955749512e-01
6.208000000000000000e+03 6.143165206909179688e+01 -1.560016250610351562e+01 -1.407972872257232666e-01 5.917892456054687500e+00 1.733128547668457031e+00 3.099926710128784180e-01
6.209000000000000000e+03 5.965025329589843750e+01 -1.764201927185058594e+01 -1.487230956554412842e-01 5.630622863769531250e+00 1.644569873809814453e+00 3.007919788360595703e-01
6.210000000000000000e+03 4.927465057373046875e+01 -4.881656646728515625e+00 -1.411870867013931274e-01 3.263527154922485352e+00 9.367020130157470703e-01 1.858477592468261719e-01
6.211000000000000000e+03 2.112350845336914062e+01 2.853723526000976562e+01 7.945035584270954132e-03 8.632765710353851318e-02 2.828180603682994843e-02 3.773616999387741089e-02
6.212000000000000000e+03 5.545214462280273438e+01 -1.358466911315917969e+01 -1.816683411598205566e-01 4.757493495941162109e+00 1.372747540473937988e+00 2.056059241294860840e-01
6.213000000000000000e+03 6.044453811645507812e+01 -1.638545227050781250e+01 -1.340020149946212769e-01 5.745350837707519531e+00 1.683404684066772461e+00 2.987406253814697266e-01
6.214000000000000000e+03 4.398606872558593750e+01 -3.133339166641235352e+00 -3.546407446265220642e-02 2.004942417144775391e+00 5.908434987068176270e-01 1.489814519882202148e-01
6.215000000000000000e+03 5.801649856567382812e+01 -1.401913833618164062e+01 -1.695747673511505127e-01 5.276576519012451172e+00 1.532100558280944824e+00 2.598921656608581543e-01
6.216000000000000000e+03 5.808783721923828125e+01 -1.722498130798339844e+01 -1.464332044124603271e-01 5.348303794860839844e+00 1.560561180114746094e+00 2.832761406898498535e-01
6.217000000000000000e+03 1.647089767456054688e+01 3.459314346313476562e+01 -8.416498079895973206e-03 3.627345710992813110e-02 8.357088081538677216e-03 7.469195872545242310e-03
6.218000000000000000e+03 5.605420303344726562e+01 2.820456695556640625e+01 4.483129978179931641e-01 6.116603374481201172e+00 1.969474792480468750e+00 2.864031791687011719e+00
6.219000000000000000e+03 5.755012512207031250e+01 2.848126792907714844e+01 -2.141811326146125793e-02 8.395380973815917969e+00 2.512188911437988281e+00 2.807058334350585938e+00
6.220000000000000000e+03 5.020981597900390625e+01 2.161468887329101562e+01 -9.030571579933166504e-02 2.510166883468627930e+00 7.259583473205566406e-01 1.033598899841308594e+00
6.221000000000000000e+03 5.093688964843750000e+01 2.194405555725097656e+01 -8.761261403560638428e-02 2.819974184036254883e+00 8.197085261344909668e-01 1.151193022727966309e+00
6.222000000000000000e+03 5.167729568481445312e+01 2.288254737854003906e+01 -3.758293017745018005e-02 3.081970930099487305e+00 9.133163690567016602e-01 1.322294354438781738e+00
6.223000000000000000e+03 5.564585494995117188e+01 2.813700866699218750e+01 5.435744524002075195e-01 5.529669761657714844e+00 1.821973204612731934e+00 2.776628494262695312e+00
6.224000000000000000e+03 5.377592086791992188e+01 2.536949539184570312e+01 1.332148611545562744e-01 4.077449798583984375e+00 1.263199448585510254e+00 1.897838830947875977e+00
6.225000000000000000e+03 4.774125289916992188e+01 1.941089057922363281e+01 -1.743996143341064453e-01 1.824006199836730957e+00 4.948819577693939209e-01 6.457353830337524414e-01
6.226000000000000000e+03 5.200685119628906250e+01 2.345601844787597656e+01 9.061801247298717499e-03 3.188698768615722656e+00 9.593281149864196777e-01 1.411953330039978027e+00
6.227000000000000000e+03 5.631381225585937500e+01 2.880117797851562500e+01 6.061645746231079102e-01 6.405378341674804688e+00 2.103462934494018555e+00 3.080647706985473633e+00
6.228000000000000000e+03 5.345305633544921875e+01 2.521508216857910156e+01 1.463244557380676270e-01 3.867818832397460938e+00 1.204242944717407227e+00 1.835383057594299316e+00
6.229000000000000000e+03 5.292376327514648438e+01 2.427288055419921875e+01 4.957295581698417664e-02 3.629734754562377930e+00 1.103792309761047363e+00 1.628704309463500977e+00
6.230000000000000000e+03 5.317714309692382812e+01 2.473349761962890625e+01 9.764653444290161133e-02 3.738130331039428711e+00 1.150732994079589844e+00 1.726665854454040527e+00
6.231000000000000000e+03 4.721017456054687500e+01 1.745400047302246094e+01 -2.385293394327163696e-01 1.880127668380737305e+00 4.924795031547546387e-01 5.705493688583374023e-01
6.232000000000000000e+03 5.240986251831054688e+01 2.358800697326660156e+01 -5.254596471786499023e-04 3.408390045166015625e+00 1.022359371185302734e+00 1.493996024131774902e+00
6.233000000000000000e+03 5.276092147827148438e+01 2.376334762573242188e+01 -1.250858046114444733e-02 3.593837022781372070e+00 1.074398517608642578e+00 1.560088515281677246e+00
6.234000000000000000e+03 4.249499130249023438e+01 1.322559833526611328e+01 -3.284740149974822998e-01 9.711135029792785645e-01 1.927918493747711182e-01 1.313520222902297974e-01
6.235000000000000000e+03 4.447884368896484375e+01 1.375180149078369141e+01 -2.999145388603210449e-01 1.421096920967102051e+00 3.363547325134277344e-01 2.939105629920959473e-01
6.236000000000000000e+03 4.386006546020507812e+01 1.437759017944335938e+01 -3.037401139736175537e-01 1.223046779632568359e+00 2.757920026779174805e-01 2.338417917490005493e-01
6.237000000000000000e+03 3.431615447998046875e+01 1.519029974937438965e+00 -1.711977422237396240e-01 1.579980999231338501e-01 -3.959889989346265793e-03 -1.727026514708995819e-02
6.238000000000000000e+03 3.499333953857421875e+01 2.003949880599975586e+00 -1.828598380088806152e-01 2.315314859151840210e-01 1.460149139165878296e-02 -1.911539211869239807e-02
6.239000000000000000e+03 4.550918579101562500e+01 1.611985397338867188e+01 -2.682996392250061035e-01 1.486087799072265625e+00 3.653364181518554688e-01 3.834119439125061035e-01
6.240000000000000000e+03 4.639011383056640625e+01 1.661596488952636719e+01 -2.588658332824707031e-01 1.705222368240356445e+00 4.339069724082946777e-01 4.741235673427581787e-01
6.241000000000000000e+03 4.427256011962890625e+01 1.462046527862548828e+01 -2.982574701309204102e-01 1.285382509231567383e+00 2.961375117301940918e-01 2.710545659065246582e-01
6.242000000000000000e+03 5.827816772460937500e+01 2.798299980163574219e+01 -4.263408780097961426e-01 9.159556388854980469e+00 2.619964599609375000e+00 2.277663707733154297e+00
6.243000000000000000e+03 5.484044647216796875e+01 2.726548957824707031e+01 4.348905980587005615e-01 4.726806163787841797e+00 1.548509120941162109e+00 2.427590608596801758e+00
6.244000000000000000e+03 4.753431320190429688e+01 1.886531257629394531e+01 -1.992737203836441040e-01 1.806056380271911621e+00 4.820348024368286133e-01 6.156445145606994629e-01
6.245000000000000000e+03 4.735674667358398438e+01 1.779065895080566406e+01 -2.317278385162353516e-01 1.888503909111022949e+00 4.970328211784362793e-01 5.872596502304077148e-01
6.246000000000000000e+03 4.461212158203125000e+01 1.494073867797851562e+01 -2.923450469970703125e-01 1.343824386596679688e+00 3.154438138008117676e-01 2.964125573635101318e-01
6.247000000000000000e+03 4.507780456542968750e+01 1.576294040679931641e+01 -2.779582440853118896e-01 1.404877185821533203e+00 3.380756676197052002e-01 3.392414450645446777e-01
6.248000000000000000e+03 4.596107482910156250e+01 1.610913658142089844e+01 -2.666024267673492432e-01 1.623496174812316895e+00 4.070681333541870117e-01 4.238302409648895264e-01
6.249000000000000000e+03 4.100126647949218750e+01 1.139520072937011719e+01 -3.496909439563751221e-01 7.720603346824645996e-01 1.267108172178268433e-01 5.011281743645668030e-02
6.250000000000000000e+03 4.496582794189453125e+01 1.512656974792480469e+01 -2.841683626174926758e-01 1.429283499717712402e+00 3.435345292091369629e-01 3.332228064537048340e-01
6.251000000000000000e+03 4.547837829589843750e+01 1.563622474670410156e+01 -2.777090370655059814e-01 1.527530908584594727e+00 3.749465644359588623e-01 3.791350424289703369e-01
6.252000000000000000e+03 5.526362228393554688e+01 2.767633056640625000e+01 4.772416949272155762e-01 5.123119354248046875e+00 1.680108308792114258e+00 2.598688602447509766e+00
6.253000000000000000e+03 5.420284271240234375e+01 2.599917411804199219e+01 2.115569114685058594e-01 4.335631847381591797e+00 1.364156723022460938e+00 2.070292472839355469e+00
6.254000000000000000e+03 5.832645034790039062e+01 2.734121322631835938e+01 -5.446445345878601074e-01 8.879716873168945312e+00 2.500521659851074219e+00 2.078217744827270508e+00
6.255000000000000000e+03 4.193620681762695312e+01 1.272301101684570312e+01 -3.477671146392822266e-01 8.673644661903381348e-01 1.558792144060134888e-01 9.094085544347763062e-02
6.256000000000000000e+03 4.109312820434570312e+01 1.280749607086181641e+01 -3.702367842197418213e-01 6.725904941558837891e-01 9.070611745119094849e-02 1.207836251705884933e-02
6.257000000000000000e+03 4.688553237915039062e+01 1.662531089782714844e+01 -2.607736289501190186e-01 1.867508888244628906e+00 4.820205867290496826e-01 5.272457599639892578e-01
6.258000000000000000e+03 4.189688491821289062e+01 1.322226905822753906e+01 -3.496636450290679932e-01 8.058975338935852051e-01 1.368701756000518799e-01 7.115951925516128540e-02
6.259000000000000000e+03 4.006328964233398438e+01 8.361598014831542969e+00 -3.095359504222869873e-01 7.918038368225097656e-01 1.446803659200668335e-01 6.005717068910598755e-02
6.260000000000000000e+03 4.174539947509765625e+01 1.007635688781738281e+01 -3.129007220268249512e-01 1.035922169685363770e+00 2.169064432382583618e-01 1.354914009571075439e-01
6.261000000000000000e+03 3.997372817993164062e+01 9.912875175476074219e+00 -3.523526489734649658e-01 6.615592837333679199e-01 9.276199340820312500e-02 7.631937507539987564e-03
6.262000000000000000e+03 2.063057327270507812e+01 2.181437110900878906e+01 2.787901833653450012e-02 1.157036721706390381e-01 4.307480528950691223e-02 6.300414353609085083e-02
6.263000000000000000e+03 2.156915092468261719e+01 2.214228057861328125e+01 3.180322796106338501e-02 1.159188300371170044e-01 4.431661963462829590e-02 6.672263145446777344e-02
6.264000000000000000e+03 4.105075836181640625e+01 1.045247268676757812e+01 -3.330937623977661133e-01 8.513666987419128418e-01 1.554818749427795410e-01 7.731372117996215820e-02
6.265000000000000000e+03 4.043784713745117188e+01 9.377986907958984375e+00 -3.274545073509216309e-01 7.915570139884948730e-01 1.392307430505752563e-01 5.440197139978408813e-02
6.266000000000000000e+03 4.755841445922851562e+01 1.815658569335937500e+01 -2.223403006792068481e-01 1.906460046768188477e+00 5.052359104156494141e-01 6.110772490501403809e-01
6.267000000000000000e+03 4.100053787231445312e+01 1.094091415405273438e+01 -3.470873236656188965e-01 8.043246269226074219e-01 1.371711790561676025e-01 6.024466082453727722e-02
6.268000000000000000e+03 4.050704574584960938e+01 9.900885581970214844e+00 -3.360566496849060059e-01 7.707859873771667480e-01 1.304188072681427002e-01 4.543962329626083374e-02
6.269000000000000000e+03 5.474230194091796875e+01 2.678916358947753906e+01 3.115293979644775391e-01 4.716469764709472656e+00 1.508399844169616699e+00 2.309549331665039062e+00
6.270000000000000000e+03 3.851799392700195312e+01 7.614816188812255859e+00 -3.215394914150238037e-01 5.264708399772644043e-01 6.147939711809158325e-02 -1.980311423540115356e-02
6.271000000000000000e+03 3.764290618896484375e+01 6.331973075866699219e+00 -2.979691922664642334e-01 4.448105692863464355e-01 4.405240714550018311e-02 -4.168236628174781799e-02
6.272000000000000000e+03 2.100886726379394531e+01 2.409368896484375000e+01 1.957798562943935394e-02 1.046281382441520691e-01 3.726183623075485229e-02 5.410089343786239624e-02
6.273000000000000000e+03 2.003132820129394531e+01 2.210953712463378906e+01 2.174653112888336182e-02 1.121693477034568787e-01 4.017476364970207214e-02 5.747226625680923462e-02
6.274000000000000000e+03 6.174920654296875000e+01 2.359747505187988281e+01 -1.152084946632385254e+00 9.011584281921386719e+00 2.357849597930908203e+00 1.347839534282684326e-01
6.275000000000000000e+03 3.549551773071289062e+01 2.476866960525512695e+00 -1.903055310249328613e-01 2.889283895492553711e-01 2.958686091005802155e-02 -2.197655849158763885e-02
6.276000000000000000e+03 3.607813262939453125e+01 3.668315649032592773e+00 -2.254641503095626831e-01 3.293600678443908691e-01 3.116877190768718719e-02 -3.405319154262542725e-02
6.277000000000000000e+03 3.667192459106445312e+01 3.420534133911132812e+00 -2.053277939558029175e-01 4.379541277885437012e-01 6.978790462017059326e-02 -3.335842164233326912e-03
6.278000000000000000e+03 4.851475524902343750e+01 1.991410064697265625e+01 -1.586420238018035889e-01 2.047971963882446289e+00 5.667989850044250488e-01 7.568624019622802734e-01
6.279000000000000000e+03 6.266110992431640625e+01 2.182579040527343750e+01 -1.159566879272460938e+00 8.583652496337890625e+00 2.227225780487060547e+00 -1.098217144608497620e-01
6.280000000000000000e+03 3.930323791503906250e+01 8.002490043640136719e+00 -3.145793676376342773e-01 6.601958274841308594e-01 1.036849319934844971e-01 1.767119392752647400e-02
6.281000000000000000e+03 3.576638793945312500e+01 1.678822755813598633e+00 -1.262281686067581177e-01 3.601074814796447754e-01 7.016379386186599731e-02 8.731646463274955750e-03
6.282000000000000000e+03 3.728002166748046875e+01 7.490726113319396973e-01 -5.957840383052825928e-02 6.207626461982727051e-01 1.683552712202072144e-01 6.326720118522644043e-02
6.283000000000000000e+03 1.875391769409179688e+01 2.059272003173828125e+01 2.224337123334407806e-02 1.184129640460014343e-01 4.219689965248107910e-02 5.792028084397315979e-02
6.284000000000000000e+03 1.815398597717285156e+01 2.017931747436523438e+01 2.095383964478969574e-02 1.194301843643188477e-01 4.211520776152610779e-02 5.604894086718559265e-02
6.285000000000000000e+03 4.084367370605468750e+01 1.341915988922119141e+01 -3.864301443099975586e-01 5.497020483016967773e-01 4.898157715797424316e-02 -3.508223220705986023e-02
6.286000000000000000e+03 1.890327262878417969e+01 2.125299072265625000e+01 2.124969288706779480e-02 1.140935048460960388e-01 4.060295969247817993e-02 5.453833937644958496e-02
6.287000000000000000e+03 1.918335914611816406e+01 2.182777976989746094e+01 1.908403076231479645e-02 1.115688830614089966e-01 3.919587284326553345e-02 5.435436964035034180e-02
6.288000000000000000e+03 6.100473403930664062e+01 6.104841232299804688e+00 -5.346758961677551270e-01 6.121479511260986328e+00 1.676041126251220703e+00 1.760650426149368286e-01
6.289000000000000000e+03 5.945686340332031250e+01 2.647001266479492188e+01 -8.890953063964843750e-01 9.399656295776367188e+00 2.553168296813964844e+00 1.294715285301208496e+00
6.290000000000000000e+03 3.535159683227539062e+01 3.422076940536499023e+00 -2.371799200773239136e-01 2.350579351186752319e-01 -6.365958251990377903e-04 -6.098376587033271790e-02
6.291000000000000000e+03 3.503155136108398438e+01 2.538475513458251953e+00 -1.975634992122650146e-01 2.282949686050415039e-01 9.219445288181304932e-03 -3.631075471639633179e-02
6.292000000000000000e+03 6.202245712280273438e+01 1.789539146423339844e+01 -1.085587978363037109e+00 7.561041355133056641e+00 1.942636013031005859e+00 7.567696273326873779e-02
6.293000000000000000e+03 6.235089492797851562e+01 1.436915874481201172e+01 -9.150095582008361816e-01 7.095224857330322266e+00 1.854064583778381348e+00 3.791208192706108093e-02
6.294000000000000000e+03 6.253179931640625000e+01 2.427993202209472656e+01 -1.089361667633056641e+00 9.375649452209472656e+00 2.485886335372924805e+00 -1.777194589376449585e-01
6.295000000000000000e+03 2.280973434448242188e+01 2.413194847106933594e+01 2.789941988885402679e-02 1.102136895060539246e-01 4.143393412232398987e-02 6.374439597129821777e-02
6.296000000000000000e+03 6.310176849365234375e+01 2.337865447998046875e+01 -1.103881955146789551e+00 9.100873947143554688e+00 2.399097681045532227e+00 -3.101667761802673340e-01
6.297000000000000000e+03 6.344907760620117188e+01 2.487031173706054688e+01 -9.570116400718688965e-01 9.580282211303710938e+00 2.586981058120727539e+00 -5.485026240348815918e-01
6.298000000000000000e+03 3.763078689575195312e+01 5.815985202789306641e+00 -2.784719169139862061e-01 4.762704968452453613e-01 5.933957546949386597e-02 -2.288677543401718140e-02
6.299000000000000000e+03 3.913474655151367188e+01 7.491885185241699219e+00 -2.983838915824890137e-01 6.557350158691406250e-01 1.072053387761116028e-01 1.775028556585311890e-02
6.300000000000000000e+03 6.300044250488281250e+01 1.486674118041992188e+01 -9.416225552558898926e-01 7.286876678466796875e+00 1.903576135635375977e+00 -5.000774562358856201e-02
6.301000000000000000e+03 6.229101943969726562e+01 1.339525032043457031e+01 -8.664607405662536621e-01 6.970360755920410156e+00 1.831169962882995605e+00 4.541376233100891113e-02
6.302000000000000000e+03 6.255374526977539062e+01 7.057096481323242188e+00 -5.665081143379211426e-01 6.505335330963134766e+00 1.781648278236389160e+00 9.237630665302276611e-02
6.303000000000000000e+03 6.140006637573242188e+01 7.106636047363281250e+00 -5.754200220108032227e-01 6.266932487487792969e+00 1.707453727722167969e+00 1.497176587581634521e-01
6.304000000000000000e+03 6.299592971801757812e+01 1.595705509185791016e+01 -9.983559250831604004e-01 7.437958717346191406e+00 1.931880831718444824e+00 -6.535118818283081055e-02
6.305000000000000000e+03 6.356702804565429688e+01 1.866310882568359375e+01 -1.078045129776000977e+00 7.984657287597656250e+00 2.071983575820922852e+00 -2.301779091358184814e-01
6.306000000000000000e+03 6.250684356689453125e+01 1.746641540527343750e+01 -1.063858509063720703e+00 7.580510616302490234e+00 1.954995632171630859e+00 -4.169381223618984222e-03
6.307000000000000000e+03 4.247260284423828125e+01 7.651920318603515625e+00 -2.596886456012725830e-01 1.344267845153808594e+00 3.253737390041351318e-01 2.072805613279342651e-01
6.308000000000000000e+03 4.011824417114257812e+01 -3.860535621643066406e-01 -3.173481673002243042e-02 1.152997612953186035e+00 3.363788425922393799e-01 1.169180423021316528e-01
6.309000000000000000e+03 3.809172439575195312e+01 2.970751225948333740e-01 -3.303140774369239807e-02 7.708755731582641602e-01 2.213532477617263794e-01 8.554183691740036011e-02
6.310000000000000000e+03 3.771025085449218750e+01 1.508247256278991699e+00 -9.391161054372787476e-02 6.663247346878051758e-01 1.717239469289779663e-01 7.046268880367279053e-02
6.311000000000000000e+03 5.883371353149414062e+01 -1.023146659135818481e-01 -3.403265178203582764e-01 5.450535774230957031e+00 1.533062696456909180e+00 2.456269562244415283e-01
6.312000000000000000e+03 5.686469268798828125e+01 -1.979583263397216797e+00 -2.847588062286376953e-01 4.973717212677001953e+00 1.406687498092651367e+00 2.570731043815612793e-01
6.313000000000000000e+03 6.012622070312500000e+01 7.701913833618164062e+00 -6.019843220710754395e-01 5.998821258544921875e+00 1.619051098823547363e+00 2.277277559041976929e-01
6.314000000000000000e+03 6.119020843505859375e+01 3.830015420913696289e+00 -4.547121226787567139e-01 6.053465843200683594e+00 1.679626107215881348e+00 1.779782176017761230e-01
6.315000000000000000e+03 4.877430725097656250e+01 -6.104085922241210938e+00 -1.331813037395477295e-01 3.164703369140625000e+00 9.094566106796264648e-01 1.561354249715805054e-01
6.316000000000000000e+03 4.731457519531250000e+01 -3.794392108917236328e+00 -1.088410690426826477e-01 2.781380653381347656e+00 8.017618656158447266e-01 1.816806644201278687e-01
6.317000000000000000e+03 5.587419128417968750e+01 -1.215332412719726562e+01 -1.948000043630599976e-01 4.830132007598876953e+00 1.390599608421325684e+00 2.180092632770538330e-01
6.318000000000000000e+03 5.158683013916015625e+01 -1.169801616668701172e+01 -1.799003034830093384e-01 3.904026508331298828e+00 1.117237925529479980e+00 1.313740164041519165e-01
6.319000000000000000e+03 6.225102996826171875e+01 8.342174530029296875e+00 -6.270398497581481934e-01 6.507194042205810547e+00 1.764046192169189453e+00 9.624153375625610352e-02
6.320000000000000000e+03 6.077711105346679688e+01 6.849663734436035156e+00 -5.682791471481323242e-01 6.092669963836669922e+00 1.657317280769348145e+00 1.896474063396453857e-01
6.321000000000000000e+03 4.981481170654296875e+01 -6.931971549987792969e+00 -1.399140954017639160e-01 3.414151668548583984e+00 9.822713136672973633e-01 1.586138308048248291e-01
6.322000000000000000e+03 3.834345626831054688e+01 6.373328685760498047e+00 -2.879739701747894287e-01 5.675492286682128906e-01 8.387258648872375488e-02 2.423796104267239571e-03
6.323000000000000000e+03 5.975603103637695312e+01 -2.738763093948364258e+00 -2.756302654743194580e-01 5.599406719207763672e+00 1.597132921218872070e+00 2.313525378704071045e-01
6.324000000000000000e+03 4.409945678710937500e+01 -8.634670376777648926e-01 -7.365908473730087280e-02 1.989322423934936523e+00 5.746989846229553223e-01 1.897577047348022461e-01
6.325000000000000000e+03 5.346168518066406250e+01 -1.107616424560546875e+01 -1.905535161495208740e-01 4.302515029907226562e+00 1.233588457107543945e+00 1.750594824552536011e-01
6.326000000000000000e+03 5.226757049560546875e+01 -1.042383575439453125e+01 -1.739502549171447754e-01 4.025398731231689453e+00 1.155434489250183105e+00 1.473547369241714478e-01
6.327000000000000000e+03 6.125593566894531250e+01 -6.430206775665283203e+00 -2.275301963090896606e-01 5.876871585845947266e+00 1.694802403450012207e+00 2.330692112445831299e-01
6.328000000000000000e+03 6.309578704833984375e+01 2.525970840454101562e+01 -9.539296030998229980e-01 9.761967658996582031e+00 2.642411231994628906e+00 -4.594711065292358398e-01
6.329000000000000000e+03 1.803568458557128906e+01 2.432660293579101562e+01 7.485036738216876984e-03 8.953992277383804321e-02 2.910748682916164398e-02 3.577378019690513611e-02
6.330000000000000000e+03 2.115599632263183594e+01 2.304309844970703125e+01 2.417180314660072327e-02 1.113791614770889282e-01 4.066529124975204468e-02 6.026944518089294434e-02
6.331000000000000000e+03 6.078231048583984375e+01 8.011267781257629395e-01 -3.563004732131958008e-01 5.884956359863281250e+00 1.658596754074096680e+00 2.003083676099777222e-01
6.332000000000000000e+03 4.575518417358398438e+01 -2.573064327239990234e+00 -7.947927713394165039e-02 2.396344900131225586e+00 6.950596570968627930e-01 1.769680231809616089e-01
6.333000000000000000e+03 4.591566848754882812e+01 -3.999458789825439453e+00 -7.449131458997726440e-02 2.450668096542358398e+00 7.128530740737915039e-01 1.473735123872756958e-01
6.334000000000000000e+03 6.208280563354492188e+01 9.000296592712402344e+00 -6.568105220794677734e-01 6.521668434143066406e+00 1.759457349777221680e+00 9.501851350069046021e-02
6.335000000000000000e+03 4.821887588500976562e+01 -4.389538764953613281e+00 -1.251712739467620850e-01 2.993710994720458984e+00 8.605619072914123535e-01 1.798715740442276001e-01
6.336000000000000000e+03 6.304213714599609375e+01 2.082148551940917969e+01 -1.144756793975830078e+00 8.372561454772949219e+00 2.168341398239135742e+00 -1.799155324697494507e-01
6.337000000000000000e+03 6.293453598022460938e+01 1.908078384399414062e+01 -1.118580102920532227e+00 7.966912269592285156e+00 2.054499626159667969e+00 -1.161426678299903870e-01
6.338000000000000000e+03 4.195910644531250000e+01 -3.148249387741088867e-01 -5.402470007538795471e-02 1.526384711265563965e+00 4.417079985141754150e-01 1.570722907781600952e-01
6.339000000000000000e+03 6.163254928588867188e+01 -1.028318595886230469e+01 -1.773077100515365601e-01 5.947503566741943359e+00 1.731058835983276367e+00 2.550493776798248291e-01
6.340000000000000000e+03 6.104385757446289062e+01 -8.804774284362792969e+00 -1.900407075881958008e-01 5.836298942565917969e+00 1.693877577781677246e+00 2.387744784355163574e-01
6.341000000000000000e+03 5.927320861816406250e+01 1.201868295669555664e+00 -3.705172538757324219e-01 5.564510822296142578e+00 1.558198094367980957e+00 2.399686872959136963e-01
6.342000000000000000e+03 1.725012969970703125e+01 2.916671943664550781e+01 -1.534550567157566547e-03 5.885668843984603882e-02 1.719664037227630615e-02 1.829705201089382172e-02
6.343000000000000000e+03 2.001103973388671875e+01 2.760258483886718750e+01 6.105162203311920166e-03 8.190867304801940918e-02 2.640414983034133911e-02 3.480768203735351562e-02
6.344000000000000000e+03 6.085791397094726562e+01 -1.349114513397216797e+01 -1.584241986274719238e-01 5.798335075378417969e+00 1.691973209381103516e+00 2.815369665622711182e-01
6.345000000000000000e+03 6.171416091918945312e+01 -1.325045490264892578e+01 -1.575035601854324341e-01 5.999428272247314453e+00 1.752577424049377441e+00 2.865301668643951416e-01
6.346000000000000000e+03 6.113589477539062500e+01 1.004426383972167969e+01 -7.074706554412841797e-01 6.410367012023925781e+00 1.710868954658508301e+00 1.621617823839187622e-01
6.347000000000000000e+03 2.289678192138671875e+01 3.376876068115234375e+01 1.208390947431325912e-02 7.337967306375503540e-02 2.563907392323017120e-02 2.732346765697002411e-02
6.348000000000000000e+03 1.995270919799804688e+01 3.005062103271484375e+01 3.426941344514489174e-03 7.276811450719833374e-02 2.285851724445819855e-02 2.766198106110095978e-02
6.349000000000000000e+03 5.358167648315429688e+01 -1.453619670867919922e+01 -1.867581605911254883e-01 4.405662536621093750e+00 1.265671253204345703e+00 1.654988825321197510e-01
6.350000000000000000e+03 5.675252151489257812e+01 -1.391554927825927734e+01 -1.936153918504714966e-01 5.028662681579589844e+00 1.450514197349548340e+00 2.291956692934036255e-01
6.351000000000000000e+03 1.927851104736328125e+01 2.530112075805664062e+01 8.743953891098499298e-03 9.109234809875488281e-02 2.995089069008827209e-02 3.964738920331001282e-02
6.352000000000000000e+03 1.952579498291015625e+01 2.649656105041503906e+01 5.818008445203304291e-03 8.516627550125122070e-02 2.729528583586215973e-02 3.643287345767021179e-02
6.353000000000000000e+03 6.063202285766601562e+01 -1.876408958435058594e+01 -1.166590154170989990e-01 5.812946796417236328e+00 1.708886384963989258e+00 3.252483904361724854e-01
6.354000000000000000e+03 5.701188278198242188e+01 -1.254331874847412109e+01 -1.833023726940155029e-01 5.053275585174560547e+00 1.460991978645324707e+00 2.296213358640670776e-01
6.355000000000000000e+03 2.075476074218750000e+01 3.595597839355468750e+01 -7.653612992726266384e-04 5.947422236204147339e-02 1.761265844106674194e-02 1.408013608306646347e-02
6.356000000000000000e+03 1.885459136962890625e+01 2.846049499511718750e+01 1.174978751805610955e-04 7.350166141986846924e-02 2.208574861288070679e-02 2.775072865188121796e-02
6.357000000000000000e+03 1.143003845214843750e+01 3.214173507690429688e+01 -7.354887668043375015e-03 -3.993472084403038025e-03 -3.404507879167795181e-03 -4.040540370624512434e-04
6.358000000000000000e+03 5.115664672851562500e+01 2.151928329467773438e+01 -1.404214054346084595e-01 2.999283313751220703e+00 8.576585650444030762e-01 1.159846186637878418e+00
6.359000000000000000e+03 5.398833084106445312e+01 2.565049362182617188e+01 1.688216328620910645e-01 4.201086044311523438e+00 1.310972332954406738e+00 1.989895820617675781e+00
6.360000000000000000e+03 5.057044982910156250e+01 2.172886085510253906e+01 -9.352903068065643311e-02 2.684192419052124023e+00 7.771990299224853516e-01 1.099643111228942871e+00
6.361000000000000000e+03 4.148655700683593750e+01 1.101515102386474609e+01 -3.332349658012390137e-01 9.035089612007141113e-01 1.710821986198425293e-01 9.424465894699096680e-02
6.362000000000000000e+03 4.347440719604492188e+01 1.334874725341796875e+01 -3.107117712497711182e-01 1.195902705192565918e+00 2.655572891235351562e-01 2.183027416467666626e-01
6.363000000000000000e+03 5.098641204833984375e+01 2.081052589416503906e+01 -1.846552044153213501e-01 3.006533384323120117e+00 8.465634584426879883e-01 1.105030655860900879e+00
6.364000000000000000e+03 5.155399322509765625e+01 2.174388122558593750e+01 -1.421043425798416138e-01 3.189592599868774414e+00 9.142464399337768555e-01 1.231152534484863281e+00
6.365000000000000000e+03 5.180529785156250000e+01 2.238553237915039062e+01 -9.725284576416015625e-02 3.228717803955078125e+00 9.394394755363464355e-01 1.305641174316406250e+00
6.366000000000000000e+03 4.823658370971679688e+01 1.820039749145507812e+01 -2.316973656415939331e-01 2.169781923294067383e+00 5.814253687858581543e-01 6.978999972343444824e-01
6.367000000000000000e+03 5.048962402343750000e+01 2.012197685241699219e+01 -2.023251801729202271e-01 2.852779388427734375e+00 7.951362729072570801e-01 1.017587184906005859e+00
6.368000000000000000e+03 5.676348876953125000e+01 2.847915649414062500e+01 3.015883862972259521e-01 7.221573829650878906e+00 2.256948709487915039e+00 2.978212356567382812e+00
6.369000000000000000e+03 5.353007125854492188e+01 2.480448341369628906e+01 6.731013953685760498e-02 4.005210876464843750e+00 1.221756219863891602e+00 1.801915407180786133e+00
6.370000000000000000e+03 5.215129852294921875e+01 2.299298095703125000e+01 -5.751639232039451599e-02 3.351775407791137695e+00 9.882776737213134766e-01 1.401255726814270020e+00
6.371000000000000000e+03 5.304237747192382812e+01 2.394131851196289062e+01 -1.452913694083690643e-02 3.773076772689819336e+00 1.127564311027526855e+00 1.619324445724487305e+00
6.372000000000000000e+03 5.357087707519531250e+01 2.440763282775878906e+01 -4.285783972591161728e-03 4.097117424011230469e+00 1.227849483489990234e+00 1.754342079162597656e+00
6.373000000000000000e+03 5.262570571899414062e+01 2.314977836608886719e+01 -7.821363955736160278e-02 3.631091356277465820e+00 1.065863251686096191e+00 1.492274880409240723e+00
6.374000000000000000e+03 4.388353729248046875e+01 1.385758113861083984e+01 -3.054133951663970947e-01 1.265058875083923340e+00 2.878936231136322021e-01 2.451727390289306641e-01
6.375000000000000000e+03 4.295415115356445312e+01 1.298248100280761719e+01 -3.271097242832183838e-01 1.099492549896240234e+00 2.317148298025131226e-01 1.756951063871383667e-01
6.376000000000000000e+03 4.247198867797851562e+01 1.280402946472167969e+01 -3.426602184772491455e-01 9.983594417572021484e-01 1.967097669839859009e-01 1.317757815122604370e-01
6.377000000000000000e+03 5.667901611328125000e+01 2.809017562866210938e+01 1.811671108007431030e-01 7.006298542022705078e+00 2.156239748001098633e+00 2.822712898254394531e+00
6.378000000000000000e+03 5.324882125854492188e+01 2.436021423339843750e+01 2.625122107565402985e-02 3.877821922302246094e+00 1.171221971511840820e+00 1.701211214065551758e+00
6.379000000000000000e+03 5.302052688598632812e+01 2.340857315063476562e+01 -8.092861622571945190e-02 3.834124088287353516e+00 1.125958681106567383e+00 1.567530393600463867e+00
6.380000000000000000e+03 5.325541305541992188e+01 2.371691894531250000e+01 -7.263135164976119995e-02 3.949234247207641602e+00 1.162980794906616211e+00 1.621262907981872559e+00
6.381000000000000000e+03 4.736775588989257812e+01 1.669252014160156250e+01 -2.618140876293182373e-01 2.016342639923095703e+00 5.263586044311523438e-01 5.770118236541748047e-01
6.382000000000000000e+03 4.519891357421875000e+01 1.419850158691406250e+01 -2.982089817523956299e-01 1.589417219161987305e+00 3.873624503612518311e-01 3.568653762340545654e-01
6.383000000000000000e+03 4.535457992553710938e+01 1.465854072570800781e+01 -2.942253649234771729e-01 1.579326748847961426e+00 3.855304419994354248e-01 3.617615401744842529e-01
6.384000000000000000e+03 5.480464172363281250e+01 2.601800346374511719e+01 1.185742840170860291e-01 4.899868488311767578e+00 1.505532741546630859e+00 2.176021814346313477e+00
6.385000000000000000e+03 5.497508621215820312e+01 2.562657356262207031e+01 -1.543550635688006878e-03 5.144844055175781250e+00 1.542990088462829590e+00 2.115667343139648438e+00
6.386000000000000000e+03 5.076126861572265625e+01 2.130493927001953125e+01 -1.314438730478286743e-01 2.821620702743530273e+00 8.070530891418457031e-01 1.103872299194335938e+00
6.387000000000000000e+03 4.896665573120117188e+01 2.069512176513671875e+01 -1.268875747919082642e-01 2.116042852401733398e+00 5.967466235160827637e-01 8.253533244132995605e-01
6.388000000000000000e+03 4.646456527709960938e+01 1.610051918029785156e+01 -2.707585096359252930e-01 1.784023165702819824e+00 4.539793729782104492e-01 4.797487854957580566e-01
6.389000000000000000e+03 4.597774887084960938e+01 1.559146213531494141e+01 -2.786056101322174072e-01 1.681795239448547363e+00 4.209568798542022705e-01 4.295011460781097412e-01
6.390000000000000000e+03 4.542409896850585938e+01 1.514127826690673828e+01 -2.850714623928070068e-01 1.559994101524353027e+00 3.824767768383026123e-01 3.712976574897766113e-01
6.391000000000000000e+03 5.520551681518554688e+01 2.618860435485839844e+01 7.474213093519210815e-02 5.268451690673828125e+00 1.602958202362060547e+00 2.256017684936523438e+00
6.392000000000000000e+03 5.523381805419921875e+01 2.721182060241699219e+01 3.410033881664276123e-01 5.163601398468017578e+00 1.651381492614746094e+00 2.490628719329833984e+00
6.393000000000000000e+03 5.714888381958007812e+01 2.845973014831542969e+01 1.306575089693069458e-01 7.768094539642333984e+00 2.369625568389892578e+00 2.887404918670654297e+00
6.394000000000000000e+03 4.829061889648437500e+01 1.924180412292480469e+01 -1.846945732831954956e-01 2.059515714645385742e+00 5.624462962150573730e-01 7.225634455680847168e-01
6.395000000000000000e+03 4.699435806274414062e+01 1.611960029602050781e+01 -2.741179466247558594e-01 1.952143549919128418e+00 5.034076571464538574e-01 5.330435037612915039e-01
6.396000000000000000e+03 5.801258468627929688e+01 2.824369430541992188e+01 -2.704604864120483398e-01 8.953474998474121094e+00 2.604904413223266602e+00 2.502811193466186523e+00
6.397000000000000000e+03 4.936418914794921875e+01 1.938374328613281250e+01 -2.003187537193298340e-01 2.464460372924804688e+00 6.792424917221069336e-01 8.567798137664794922e-01
6.398000000000000000e+03 4.792481994628906250e+01 1.906250190734863281e+01 -1.889583915472030640e-01 1.950539946556091309e+00 5.284745097160339355e-01 6.712880730628967285e-01
6.399000000000000000e+03 4.783709716796875000e+01 1.848927879333496094e+01 -2.133096605539321899e-01 1.966349363327026367e+00 5.259118676185607910e-01 6.489884853363037109e-01
6.400000000000000000e+03 4.257635116577148438e+01 1.237868213653564453e+01 -3.305800855159759521e-01 1.042711377143859863e+00 2.136393934488296509e-01 1.484495848417282104e-01
6.401000000000000000e+03 4.108029556274414062e+01 9.309156417846679688e+00 -3.094417154788970947e-01 9.462947249412536621e-01 1.910559087991714478e-01 1.022114381194114685e-01
6.402000000000000000e+03 4.113257217407226562e+01 9.905448913574218750e+00 -3.245576024055480957e-01 9.170606136322021484e-01 1.777509152889251709e-01 9.646594524383544922e-02
6.403000000000000000e+03 4.086402893066406250e+01 8.722119331359863281e+00 -2.987430691719055176e-01 9.373871684074401855e-01 1.915932148694992065e-01 9.866882860660552979e-02
6.404000000000000000e+03 4.850248718261718750e+01 1.890495109558105469e+01 -2.046828269958496094e-01 2.174102783203125000e+00 5.908260345458984375e-01 7.405520677566528320e-01
6.405000000000000000e+03 4.811559677124023438e+01 1.955060195922851562e+01 -1.718694865703582764e-01 1.935297966003417969e+00 5.290285348892211914e-01 6.966276168823242188e-01
6.406000000000000000e+03 4.895056533813476562e+01 1.986443138122558594e+01 -1.668036282062530518e-01 2.223816633224487305e+00 6.171039342880249023e-01 8.134368062019348145e-01
6.407000000000000000e+03 3.493870544433593750e+01 1.424036622047424316e+00 -1.323866099119186401e-01 2.462737709283828735e-01 3.416614979505538940e-02 -6.859168643131852150e-04
6.408000000000000000e+03 4.146657180786132812e+01 1.253890514373779297e+01 -3.533854484558105469e-01 7.765930891036987305e-01 1.269623041152954102e-01 5.414600297808647156e-02
6.409000000000000000e+03 4.815870666503906250e+01 1.720543670654296875e+01 -2.597103416919708252e-01 2.252360343933105469e+00 5.977949500083923340e-01 6.699076294898986816e-01
6.410000000000000000e+03 4.815206146240234375e+01 1.874621582031250000e+01 -2.120862901210784912e-01 2.043979167938232422e+00 5.495678782463073730e-01 6.877024769783020020e-01
6.411000000000000000e+03 3.621786117553710938e+01 4.187447071075439453e+00 -2.552531063556671143e-01 3.299083709716796875e-01 2.239657565951347351e-02 -4.602912068367004395e-02
6.412000000000000000e+03 3.986128616333007812e+01 7.880328655242919922e+00 -2.942211329936981201e-01 7.816287875175476074e-01 1.462222933769226074e-01 5.359206348657608032e-02
6.413000000000000000e+03 4.037991333007812500e+01 7.748295783996582031e+00 -2.843059301376342773e-01 8.985081315040588379e-01 1.842606514692306519e-01 9.166811406612396240e-02
6.414000000000000000e+03 3.972100448608398438e+01 7.401475906372070312e+00 -2.861905992031097412e-01 7.847035527229309082e-01 1.495538949966430664e-01 5.749849230051040649e-02
6.415000000000000000e+03 3.623633193969726562e+01 1.434816598892211914e+00 -1.109974533319473267e-01 4.329681694507598877e-01 9.659121185541152954e-02 2.653829567134380341e-02
6.416000000000000000e+03 6.170141220092773438e+01 1.234508991241455078e+01 -8.233441710472106934e-01 6.709555625915527344e+00 1.765863418579101562e+00 1.305682510137557983e-01
6.417000000000000000e+03 3.809590911865234375e+01 5.062173366546630859e+00 -2.402136325836181641e-01 6.028190255165100098e-01 1.087816283106803894e-01 1.827238127589225769e-02
6.418000000000000000e+03 5.449433135986328125e+01 2.572382736206054688e+01 1.106202900409698486e-01 4.628137588500976562e+00 1.421627402305603027e+00 2.072063684463500977e+00
6.419000000000000000e+03 6.084801483154296875e+01 2.561774826049804688e+01 -1.051382780075073242e+00 9.612171173095703125e+00 2.568236589431762695e+00 5.043045878410339355e-01
6.420000000000000000e+03 4.159313201904296875e+01 1.215213012695312500e+01 -3.465321958065032959e-01 8.482124805450439453e-01 1.505040824413299561e-01 8.232640475034713745e-02
6.421000000000000000e+03 4.206380844116210938e+01 1.076191043853759766e+01 -3.183509111404418945e-01 1.068913221359252930e+00 2.251686900854110718e-01 1.429935246706008911e-01
6.422000000000000000e+03 6.177232742309570312e+01 1.493088436126708984e+01 -9.510559439659118652e-01 7.046076297760009766e+00 1.828505992889404297e+00 1.077447906136512756e-01
6.423000000000000000e+03 6.186488342285156250e+01 2.560608673095703125e+01 -1.014775633811950684e+00 9.822536468505859375e+00 2.642328262329101562e+00 1.510267984122037888e-02
6.424000000000000000e+03 6.304047775268554688e+01 1.803968048095703125e+01 -1.077174425125122070e+00 7.779781341552734375e+00 2.010782003402709961e+00 -1.129316538572311401e-01
6.425000000000000000e+03 6.184312057495117188e+01 1.595843791961669922e+01 -1.005754709243774414e+00 7.206047058105468750e+00 1.860087633132934570e+00 1.028868854045867920e-01
6.426000000000000000e+03 3.835645294189453125e+01 7.030075550079345703e+00 -3.018950819969177246e-01 5.300797820091247559e-01 6.845542043447494507e-02 -1.199750136584043503e-02
6.427000000000000000e+03 4.012051773071289062e+01 4.607567191123962402e-01 -4.565136507153511047e-02 1.134030342102050781e+00 3.265136778354644775e-01 1.238161623477935791e-01
6.428000000000000000e+03 6.046561050415039062e+01 4.811414718627929688e+00 -4.879664182662963867e-01 5.928558826446533203e+00 1.632177710533142090e+00 2.094976752996444702e-01
6.429000000000000000e+03 2.056332588195800781e+01 2.346044540405273438e+01 1.957441680133342743e-02 1.062810048460960388e-01 3.775662556290626526e-02 5.419836938381195068e-02
6.430000000000000000e+03 3.851282882690429688e+01 7.769057750701904297e-01 -5.456998944282531738e-02 8.293129801750183105e-01 2.324229031801223755e-01 8.569191396236419678e-02
6.431000000000000000e+03 3.926233673095703125e+01 5.262843966484069824e-01 -5.375571176409721375e-02 9.657436609268188477e-01 2.735963761806488037e-01 1.060048192739486694e-01
6.432000000000000000e+03 1.815142440795898438e+01 2.228842735290527344e+01 1.412416342645883560e-02 1.036305055022239685e-01 3.532640263438224792e-02 4.503480345010757446e-02
6.433000000000000000e+03 1.884577941894531250e+01 2.239443016052246094e+01 1.446014270186424255e-02 1.060667708516120911e-01 3.615807369351387024e-02 4.845605418086051941e-02
6.434000000000000000e+03 5.979261398315429688e+01 2.599957275390625000e+01 -9.596974253654479980e-01 9.346562385559082031e+00 2.516059637069702148e+00 1.087005496025085449e+00
6.435000000000000000e+03 6.050445938110351562e+01 2.586542510986328125e+01 -1.014439344406127930e+00 9.608350753784179688e+00 2.578173398971557617e+00 6.812594532966613770e-01
6.436000000000000000e+03 4.308082199096679688e+01 -1.125071048736572266e+00 -5.764789879322052002e-02 1.780585169792175293e+00 5.168811678886413574e-01 1.694541573524475098e-01
6.437000000000000000e+03 6.167499923706054688e+01 1.975987625122070312e+01 -1.148018479347229004e+00 7.859361171722412109e+00 2.013402938842773438e+00 1.505152881145477295e-01
6.438000000000000000e+03 6.235804748535156250e+01 2.109999275207519531e+01 -1.171603202819824219e+00 8.333460807800292969e+00 2.148557424545288086e+00 -1.750424690544605255e-02
6.439000000000000000e+03 6.062834167480468750e+01 2.508433914184570312e+01 -1.076219677925109863e+00 9.259610176086425781e+00 2.455017089843750000e+00 6.138046383857727051e-01
6.440000000000000000e+03 5.979581832885742188e+01 3.336192071437835693e-01 -3.440757393836975098e-01 5.660602569580078125e+00 1.594957947731018066e+00 2.286932915449142456e-01
6.441000000000000000e+03 6.062966156005859375e+01 -7.312276363372802734e+00 -2.055952996015548706e-01 5.752596855163574219e+00 1.664100527763366699e+00 2.274966686964035034e-01
6.442000000000000000e+03 3.718429183959960938e+01 1.286804080009460449e+00 -9.768231958150863647e-02 5.771669149398803711e-01 1.438453793525695801e-01 4.990701004862785339e-02
6.443000000000000000e+03 6.120258331298828125e+01 8.048508644104003906e+00 -6.272508502006530762e-01 6.260298728942871094e+00 1.689914345741271973e+00 1.697441041469573975e-01
6.444000000000000000e+03 6.223050689697265625e+01 1.129863071441650391e+01 -7.687633037567138672e-01 6.745023250579833984e+00 1.792877912521362305e+00 7.378809899091720581e-02
6.445000000000000000e+03 6.100464630126953125e+01 9.059726715087890625e+00 -6.643180847167968750e-01 6.266725540161132812e+00 1.680722236633300781e+00 1.850354075431823730e-01
6.446000000000000000e+03 1.714924049377441406e+01 2.055858612060546875e+01 1.439629029482603073e-02 1.100966632366180420e-01 3.734788671135902405e-02 4.645130410790443420e-02
6.447000000000000000e+03 6.134250259399414062e+01 1.169739913940429688e+01 -7.967784404754638672e-01 6.573821544647216797e+00 1.733113050460815430e+00 1.592225581407546997e-01
6.448000000000000000e+03 1.958963584899902344e+01 2.306821823120117188e+01 1.628981716930866241e-02 1.047770231962203979e-01 3.632005304098129272e-02 5.055330693721771240e-02
6.449000000000000000e+03 2.026939201354980469e+01 2.277111625671386719e+01 2.083735540509223938e-02 1.095320656895637512e-01 3.911082819104194641e-02 5.612481385469436646e-02
6.450000000000000000e+03 5.947716140747070312e+01 2.627508401870727539e+00 -4.168327748775482178e-01 5.647387981414794922e+00 1.569166541099548340e+00 2.371170371770858765e-01
6.451000000000000000e+03 5.878213500976562500e+01 -2.916508436203002930e+00 -2.786834239959716797e-01 5.400164604187011719e+00 1.536444306373596191e+00 2.419975548982620239e-01
6.452000000000000000e+03 5.888723754882812500e+01 -3.880744934082031250e+00 -2.609651982784271240e-01 5.402537345886230469e+00 1.542471647262573242e+00 2.408120930194854736e-01
6.453000000000000000e+03 6.248883819580078125e+01 1.846034812927246094e+01 -1.095685839653015137e+00 7.762339591979980469e+00 1.999996066093444824e+00 -1.524819061160087585e-02
6.454000000000000000e+03 6.152278518676757812e+01 1.739027786254882812e+01 -1.062506079673767090e+00 7.358929634094238281e+00 1.888927102088928223e+00 1.636281758546829224e-01
6.455000000000000000e+03 5.954156494140625000e+01 4.201477527618408203e+00 -4.688022434711456299e-01 5.711740970611572266e+00 1.572881579399108887e+00 2.374051213264465332e-01
6.456000000000000000e+03 6.032449722290039062e+01 3.249283552169799805e+00 -4.335649311542510986e-01 5.858381748199462891e+00 1.627444982528686523e+00 2.114073336124420166e-01
6.457000000000000000e+03 4.650476837158203125e+01 -3.163282155990600586e+00 -9.541006386280059814e-02 2.578264713287353516e+00 7.448564171791076660e-01 1.805217266082763672e-01
6.458000000000000000e+03 6.085882949829101562e+01 7.470883369445800781e+00 -5.939781665802001953e-01 6.149230480194091797e+00 1.666575670242309570e+00 1.834339499473571777e-01
6.459000000000000000e+03 5.852567672729492188e+01 -6.093981742858886719e+00 -2.223564386367797852e-01 5.323450565338134766e+00 1.530328273773193359e+00 2.380587160587310791e-01
6.460000000000000000e+03 5.467560958862304688e+01 -1.166013622283935547e+01 -1.845823973417282104e-01 4.566522598266601562e+00 1.314581990242004395e+00 1.931820660829544067e-01
6.461000000000000000e+03 4.380437088012695312e+01 2.715927734971046448e-02 -8.533591032028198242e-02 1.911535620689392090e+00 5.478599071502685547e-01 1.994503140449523926e-01
6.462000000000000000e+03 1.830694580078125000e+01 2.692688179016113281e+01 2.293296158313751221e-03 7.740136235952377319e-02 2.390839718282222748e-02 2.872019819915294647e-02
6.463000000000000000e+03 6.192197036743164062e+01 1.883137512207031250e+01 -1.119421362876892090e+00 7.718739986419677734e+00 1.979795575141906738e+00 9.329944849014282227e-02
6.464000000000000000e+03 6.230718231201171875e+01 1.944247245788574219e+01 -1.130763530731201172e+00 7.927103996276855469e+00 2.038902282714843750e+00 1.560005731880664825e-02
6.465000000000000000e+03 5.844602203369140625e+01 7.020562291145324707e-01 -3.499511778354644775e-01 5.379772186279296875e+00 1.508946299552917480e+00 2.528541386127471924e-01
6.466000000000000000e+03 5.785263824462890625e+01 -5.266194939613342285e-01 -3.209480047225952148e-01 5.200574398040771484e+00 1.463887929916381836e+00 2.650089561939239502e-01
6.467000000000000000e+03 4.894819641113281250e+01 -2.575944423675537109e+00 -1.546695083379745483e-01 3.145115375518798828e+00 8.971337676048278809e-01 2.334789931774139404e-01
6.468000000000000000e+03 5.111735153198242188e+01 -9.711799621582031250e+00 -1.676610261201858521e-01 3.761587381362915039e+00 1.078177928924560547e+00 1.404276490211486816e-01
6.469000000000000000e+03 5.074405288696289062e+01 -6.085386276245117188e+00 -1.604054123163223267e-01 3.592565536499023438e+00 1.029648065567016602e+00 1.890334635972976685e-01
6.470000000000000000e+03 1.809507560729980469e+01 3.123447227478027344e+01 -4.479824565351009369e-03 5.655776336789131165e-02 1.562338136136531830e-02 1.798018068075180054e-02
6.471000000000000000e+03 5.968210220336914062e+01 -1.223723125457763672e+01 -1.818717569112777710e-01 5.565174579620361328e+00 1.614990830421447754e+00 2.457093596458435059e-01
6.472000000000000000e+03 5.954381561279296875e+01 -9.289182662963867188e+00 -1.974742710590362549e-01 5.517215728759765625e+00 1.595922470092773438e+00 2.453964948654174805e-01
6.473000000000000000e+03 5.919664382934570312e+01 -1.375246620178222656e+01 -1.740496009588241577e-01 5.503619670867919922e+00 1.598871111869812012e+00 2.618001103401184082e-01
6.474000000000000000e+03 1.884675788879394531e+01 2.323548889160156250e+01 1.304214354604482651e-02 1.012531742453575134e-01 3.428859636187553406e-02 4.489007964730262756e-02
6.475000000000000000e+03 5.741287994384765625e+01 -8.371870994567871094e+00 -2.068130373954772949e-01 5.097649097442626953e+00 1.467250823974609375e+00 2.353350520133972168e-01
6.476000000000000000e+03 5.040303039550781250e+01 -3.790900468826293945e+00 -1.659877747297286987e-01 3.498649597167968750e+00 9.997985363006591797e-01 2.181137353181838989e-01
6.477000000000000000e+03 5.425736236572265625e+01 2.541285324096679688e+01 8.950604498386383057e-02 4.459362983703613281e+00 1.364660739898681641e+00 1.999505639076232910e+00
6.478000000000000000e+03 5.214519500732421875e+01 2.043956565856933594e+01 -2.901480793952941895e-01 3.615765333175659180e+00 9.976851344108581543e-01 1.199619293212890625e+00
6.479000000000000000e+03 5.136280441284179688e+01 2.034981155395507812e+01 -2.372724115848541260e-01 3.236613512039184570e+00 8.998023271560668945e-01 1.121584296226501465e+00
6.480000000000000000e+03 5.174230957031250000e+01 2.135338211059570312e+01 -1.889140456914901733e-01 3.322937011718750000e+00 9.402069449424743652e-01 1.226761817932128906e+00
6.481000000000000000e+03 5.210383224487304688e+01 2.148027801513671875e+01 -2.051941156387329102e-01 3.522530317306518555e+00 9.952008724212646484e-01 1.278127431869506836e+00
6.482000000000000000e+03 5.197412872314453125e+01 2.191904258728027344e+01 -1.559077352285385132e-01 3.399549007415771484e+00 9.730923771858215332e-01 1.296580195426940918e+00
6.483000000000000000e+03 5.799241638183593750e+01 2.766372680664062500e+01 -4.037656188011169434e-01 8.660627365112304688e+00 2.477058410644531250e+00 2.290766716003417969e+00
6.484000000000000000e+03 5.242861175537109375e+01 2.205130767822265625e+01 -1.783416867256164551e-01 3.626019477844238281e+00 1.034303307533264160e+00 1.369234561920166016e+00
6.485000000000000000e+03 5.229392242431640625e+01 2.252407264709472656e+01 -1.186088547110557556e-01 3.492511272430419922e+00 1.012170672416687012e+00 1.391572833061218262e+00
6.486000000000000000e+03 5.904723739624023438e+01 2.611384010314941406e+01 -8.562045693397521973e-01 8.933526992797851562e+00 2.423196792602539062e+00 1.452289819717407227e+00
6.487000000000000000e+03 5.402720260620117188e+01 2.510392189025878906e+01 6.639751791954040527e-02 4.290516376495361328e+00 1.307074189186096191e+00 1.913491725921630859e+00
6.488000000000000000e+03 5.280040359497070312e+01 2.267458724975585938e+01 -1.482639014720916748e-01 3.788309574127197266e+00 1.092013716697692871e+00 1.463083148002624512e+00
6.489000000000000000e+03 5.472718429565429688e+01 2.544258499145507812e+01 1.389433071017265320e-02 4.877802848815917969e+00 1.467509150505065918e+00 2.074723482131958008e+00
6.490000000000000000e+03 4.506622695922851562e+01 1.373140907287597656e+01 -2.936745584011077881e-01 1.610009670257568359e+00 3.949005305767059326e-01 3.537502288818359375e-01
6.491000000000000000e+03 4.206142425537109375e+01 1.223881626129150391e+01 -3.397799134254455566e-01 9.486942291259765625e-01 1.826742887496948242e-01 1.079019010066986084e-01
6.492000000000000000e+03 4.438136291503906250e+01 1.228676795959472656e+01 -3.036608695983886719e-01 1.530309200286865234e+00 3.679945170879364014e-01 2.966106534004211426e-01
6.493000000000000000e+03 5.399036407470703125e+01 2.409215927124023438e+01 -9.845577180385589600e-02 4.409407138824462891e+00 1.293285489082336426e+00 1.767661213874816895e+00
6.494000000000000000e+03 5.386260223388671875e+01 2.478175926208496094e+01 3.136099502444267273e-02 4.222276210784912109e+00 1.276091098785400391e+00 1.848258972167968750e+00
6.495000000000000000e+03 4.468554306030273438e+01 1.431520175933837891e+01 -2.984650135040283203e-01 1.421225905418395996e+00 3.368282914161682129e-01 3.085481524467468262e-01
6.496000000000000000e+03 5.330996704101562500e+01 2.401926040649414062e+01 -3.329066932201385498e-02 3.963381767272949219e+00 1.179027318954467773e+00 1.664452910423278809e+00
6.497000000000000000e+03 5.330456924438476562e+01 2.276186370849609375e+01 -1.903499364852905273e-01 4.073504924774169922e+00 1.164946436882019043e+00 1.517609477043151855e+00
6.498000000000000000e+03 5.342342758178710938e+01 2.318386840820312500e+01 -1.596427708864212036e-01 4.121956348419189453e+00 1.188694000244140625e+00 1.580331802368164062e+00
6.499000000000000000e+03 4.491462707519531250e+01 1.473930072784423828e+01 -2.907906174659729004e-01 1.455272793769836426e+00 3.493446409702301025e-01 3.331061303615570068e-01
6.500000000000000000e+03 5.707600021362304688e+01 2.798936843872070312e+01 8.571955375373363495e-03 7.593187332153320312e+00 2.280527830123901367e+00 2.716691255569458008e+00
6.501000000000000000e+03 5.807788848876953125e+01 2.686205863952636719e+01 -5.578684806823730469e-01 8.420040130615234375e+00 2.358651638031005859e+00 2.036867856979370117e+00
6.502000000000000000e+03 5.517760086059570312e+01 2.670407104492187500e+01 2.059905976057052612e-01 5.180547237396240234e+00 1.615961313247680664e+00 2.364222526550292969e+00
6.503000000000000000e+03 5.530503463745117188e+01 2.570475006103515625e+01 -5.318316817283630371e-02 5.398120403289794922e+00 1.603481173515319824e+00 2.148863315582275391e+00
6.504000000000000000e+03 4.709318542480468750e+01 1.556698417663574219e+01 -2.863141000270843506e-01 2.040050268173217773e+00 5.261208415031433105e-01 5.369107723236083984e-01
6.505000000000000000e+03 4.753639221191406250e+01 1.620095825195312500e+01 -2.786864042282104492e-01 2.117313861846923828e+00 5.515882372856140137e-01 5.877244472503662109e-01
6.506000000000000000e+03 4.595062255859375000e+01 1.507933712005615234e+01 -2.876126468181610107e-01 1.725915312767028809e+00 4.314908087253570557e-01 4.279011785984039307e-01
6.507000000000000000e+03 4.859922790527343750e+01 1.700815010070800781e+01 -2.757104039192199707e-01 2.412720918655395508e+00 6.411032080650329590e-01 7.022284865379333496e-01
6.508000000000000000e+03 4.782754516601562500e+01 1.686959075927734375e+01 -2.656961381435394287e-01 2.163597345352172852e+00 5.693703293800354004e-01 6.320733428001403809e-01
6.509000000000000000e+03 5.610275650024414062e+01 2.769834899902343750e+01 2.574197947978973389e-01 6.228875160217285156e+00 1.945888519287109375e+00 2.711187362670898438e+00
6.510000000000000000e+03 5.565257644653320312e+01 2.719549179077148438e+01 2.284809350967407227e-01 5.674121379852294922e+00 1.770780801773071289e+00 2.537667989730834961e+00
6.511000000000000000e+03 4.993724822998046875e+01 2.019348526000976562e+01 -1.764034032821655273e-01 2.589862823486328125e+00 7.240378260612487793e-01 9.540024399757385254e-01
6.512000000000000000e+03 4.890458679199218750e+01 1.943458557128906250e+01 -1.866490840911865234e-01 2.249654769897460938e+00 6.189017295837402344e-01 7.954460382461547852e-01
6.513000000000000000e+03 4.571238708496093750e+01 1.408618831634521484e+01 -2.913471460342407227e-01 1.756043076515197754e+00 4.394087791442871094e-01 4.028082489967346191e-01
6.514000000000000000e+03 4.453221893310546875e+01 1.313979911804199219e+01 -3.049220144748687744e-01 1.486709356307983398e+00 3.545362055301666260e-01 3.016584217548370361e-01
6.515000000000000000e+03 4.158409118652343750e+01 1.056919193267822266e+01 -3.259831070899963379e-01 9.574350118637084961e-01 1.894355714321136475e-01 1.103154644370079041e-01
6.516000000000000000e+03 4.651641845703125000e+01 1.556515598297119141e+01 -2.780761420726776123e-01 1.853539109230041504e+00 4.726388752460479736e-01 4.782000184059143066e-01
6.517000000000000000e+03 4.799142456054687500e+01 1.786563682556152344e+01 -2.355234026908874512e-01 2.121179103851318359e+00 5.656967163085937500e-01 6.656472682952880859e-01
6.518000000000000000e+03 4.808823776245117188e+01 1.636804008483886719e+01 -2.832242548465728760e-01 2.295707464218139648e+00 6.037449836730957031e-01 6.440943479537963867e-01
6.519000000000000000e+03 4.849075317382812500e+01 1.951781272888183594e+01 -1.769786477088928223e-01 2.093140840530395508e+00 5.748486518859863281e-01 7.503326535224914551e-01
6.520000000000000000e+03 4.396046066284179688e+01 1.282116508483886719e+01 -3.095337748527526855e-01 1.364541172981262207e+00 3.165022134780883789e-01 2.586355507373809814e-01
6.521000000000000000e+03 4.062233734130859375e+01 8.192343711853027344e+00 -2.923514544963836670e-01 9.096989631652832031e-01 1.852042675018310547e-01 9.585976600646972656e-02
6.522000000000000000e+03 4.173004913330078125e+01 9.128636360168457031e+00 -2.950524687767028809e-01 1.098281621932983398e+00 2.409687489271163940e-01 1.508232504129409790e-01
6.523000000000000000e+03 4.144995498657226562e+01 8.524811744689941406e+00 -2.846326231956481934e-01 1.079611420631408691e+00 2.384936213493347168e-01 1.392676979303359985e-01
6.524000000000000000e+03 4.211680221557617188e+01 9.650115013122558594e+00 -3.033380508422851562e-01 1.144593954086303711e+00 2.523767650127410889e-01 1.635775864124298096e-01
6.525000000000000000e+03 4.224011993408203125e+01 1.036844921112060547e+01 -3.066584467887878418e-01 1.142925500869750977e+00 2.508801221847534180e-01 1.626633256673812866e-01
6.526000000000000000e+03 5.879745483398437500e+01 2.649338722229003906e+01 -7.731355428695678711e-01 8.933676719665527344e+00 2.448162317276000977e+00 1.622357130050659180e+00
6.527000000000000000e+03 5.766218185424804688e+01 2.746711540222167969e+01 -3.386832177639007568e-01 8.249114990234375000e+00 2.373129367828369141e+00 2.345875263214111328e+00
6.528000000000000000e+03 4.838980865478515625e+01 1.759914398193359375e+01 -2.529145181179046631e-01 2.297038793563842773e+00 6.132373213768005371e-01 7.044702768325805664e-01
6.529000000000000000e+03 3.689517211914062500e+01 4.039253711700439453e+00 -2.232063114643096924e-01 4.360497295856475830e-01 6.385302543640136719e-02 -1.489318907260894775e-02
6.530000000000000000e+03 3.969157409667968750e+01 5.222078323364257812e+00 -2.114064395427703857e-01 8.926931619644165039e-01 2.043860107660293579e-01 9.113264828920364380e-02
6.531000000000000000e+03 3.551694869995117188e+01 2.044764041900634766e+00 -1.627802252769470215e-01 3.124053478240966797e-01 4.488753899931907654e-02 -1.040771789848804474e-02
6.532000000000000000e+03 4.027297592163085938e+01 7.340821266174316406e+00 -2.675290703773498535e-01 9.022534489631652832e-01 1.904173046350479126e-01 9.073513746261596680e-02
6.533000000000000000e+03 6.109911727905273438e+01 2.366655731201171875e+01 -1.158173918724060059e+00 8.854483604431152344e+00 2.308892965316772461e+00 3.715569674968719482e-01
6.534000000000000000e+03 3.964386367797851562e+01 6.918026447296142578e+00 -2.695831656455993652e-01 8.008191585540771484e-01 1.593707948923110962e-01 6.457059830427169800e-02
6.535000000000000000e+03 4.988756561279296875e+01 1.974157142639160156e+01 -1.980409473180770874e-01 2.651774883270263672e+00 7.361202239990234375e-01 9.335646629333496094e-01
6.536000000000000000e+03 4.940991592407226562e+01 1.980947685241699219e+01 -1.788046658039093018e-01 2.416913270950317383e+00 6.714326143264770508e-01 8.669912219047546387e-01
6.537000000000000000e+03 4.269249343872070312e+01 9.370226860046386719e+00 -2.888250350952148438e-01 1.310494303703308105e+00 3.065007627010345459e-01 2.081751972436904907e-01
6.538000000000000000e+03 6.169688796997070312e+01 2.136091232299804688e+01 -1.168198943138122559e+00 8.260036468505859375e+00 2.127551317214965820e+00 1.645715981721878052e-01
6.539000000000000000e+03 6.268325424194335938e+01 2.010496139526367188e+01 -1.150338530540466309e+00 8.145497322082519531e+00 2.098547697067260742e+00 -8.159081637859344482e-02
6.540000000000000000e+03 3.633525466918945312e+01 2.894712209701538086e+00 -1.797017455101013184e-01 4.076069295406341553e-01 6.837155669927597046e-02 -4.435340233612805605e-04
6.541000000000000000e+03 3.584861373901367188e+01 3.214719772338867188e+00 -2.223019152879714966e-01 3.159832060337066650e-01 2.810438722372055054e-02 -3.080554865300655365e-02
6.542000000000000000e+03 6.187727737426757812e+01 2.497183036804199219e+01 -1.076704263687133789e+00 9.543494224548339844e+00 2.540036916732788086e+00 6.017225980758666992e-02
6.543000000000000000e+03 3.958211517333984375e+01 6.440136432647705078e+00 -2.578558325767517090e-01 8.035971522331237793e-01 1.637223958969116211e-01 6.544246524572372437e-02
6.544000000000000000e+03 4.142831802368164062e+01 1.140767478942871094e+01 -3.436332941055297852e-01 8.628347516059875488e-01 1.557604372501373291e-01 8.017718046903610229e-02
6.545000000000000000e+03 3.873370742797851562e+01 2.060211420059204102e+00 -1.022391468286514282e-01 8.338339924812316895e-01 2.194784581661224365e-01 8.954098820686340332e-02
6.546000000000000000e+03 2.153226470947265625e+01 2.348189735412597656e+01 2.450005710124969482e-02 1.105429157614707947e-01 4.051289334893226624e-02 5.984480679035186768e-02
6.547000000000000000e+03 2.027762985229492188e+01 2.478054618835449219e+01 1.312698982656002045e-02 9.863502532243728638e-02 3.352860361337661743e-02 4.673553630709648132e-02
6.548000000000000000e+03 5.759593963623046875e+01 4.670704305171966553e-01 -3.493331968784332275e-01 5.160207748413085938e+00 1.443262338638305664e+00 2.757249772548675537e-01
6.549000000000000000e+03 3.671037292480468750e+01 1.258546471595764160e+00 -9.714211523532867432e-02 5.048015713691711426e-01 1.222978457808494568e-01 3.919513523578643799e-02
6.550000000000000000e+03 3.938042068481445312e+01 1.321796894073486328e+00 -7.168237864971160889e-02 9.697582125663757324e-01 2.694227397441864014e-01 1.099628359079360962e-01
6.551000000000000000e+03 5.683249664306640625e+01 2.572869300842285156e+01 -4.222620427608489990e-01 6.912287712097167969e+00 1.947007775306701660e+00 2.074515581130981445e+00
6.552000000000000000e+03 2.233289718627929688e+01 2.496758079528808594e+01 2.043509855866432190e-02 1.027958914637565613e-01 3.696929663419723511e-02 5.440201610326766968e-02
6.553000000000000000e+03 6.223359680175781250e+01 2.275637245178222656e+01 -1.163327813148498535e+00 8.797408103942871094e+00 2.290224075317382812e+00 -9.616403840482234955e-03
6.554000000000000000e+03 6.074096679687500000e+01 2.095412445068359375e+01 -1.148375988006591797e+00 7.900879859924316406e+00 2.025751113891601562e+00 4.128385186195373535e-01
6.555000000000000000e+03 6.136351394653320312e+01 2.226041412353515625e+01 -1.172299385070800781e+00 8.432071685791015625e+00 2.177931547164916992e+00 2.731056213378906250e-01
6.556000000000000000e+03 6.241136932373046875e+01 2.350090408325195312e+01 -1.139641165733337402e+00 9.064599037170410156e+00 2.377487421035766602e+00 -1.016582101583480835e-01
6.557000000000000000e+03 3.788301849365234375e+01 4.409212112426757812e+00 -2.116860747337341309e-01 6.008684039115905762e-01 1.167546957731246948e-01 2.284620516002178192e-02
6.558000000000000000e+03 3.902634811401367188e+01 6.966930866241455078e+00 -2.905884683132171631e-01 6.637626886367797852e-01 1.119522675871849060e-01 2.139799483120441437e-02
6.559000000000000000e+03 3.648609161376953125e+01 1.969781756401062012e+00 -1.350930631160736084e-01 4.575096964836120605e-01 9.672499448060989380e-02 2.104169130325317383e-02
6.560000000000000000e+03 6.244234085083007812e+01 1.646387100219726562e+01 -1.019423365592956543e+00 7.404026508331298828e+00 1.915380954742431641e+00 1.455611642450094223e-02
6.561000000000000000e+03 4.620136260986328125e+01 -1.688602805137634277e+00 -1.080546677112579346e-01 2.487200736999511719e+00 7.137438654899597168e-01 2.105756402015686035e-01
6.562000000000000000e+03 4.506470870971679688e+01 -2.117636919021606445e+00 -7.472090423107147217e-02 2.255303382873535156e+00 6.541747450828552246e-01 1.777953505516052246e-01
6.563000000000000000e+03 6.049586105346679688e+01 1.033174514770507812e+01 -7.177609801292419434e-01 6.256743431091308594e+00 1.661694765090942383e+00 2.227994650602340698e-01
6.564000000000000000e+03 4.288618850708007812e+01 -1.959391236305236816e-01 -6.316597014665603638e-02 1.720072984695434570e+00 4.970721006393432617e-01 1.829597353935241699e-01
6.565000000000000000e+03 4.254022216796875000e+01 6.281213283538818359e+00 -2.273040562868118286e-01 1.435625910758972168e+00 3.624965846538543701e-01 2.166585773229598999e-01
6.566000000000000000e+03 4.449174118041992188e+01 -1.629541754722595215e+00 -6.783752143383026123e-02 2.077293634414672852e+00 6.028368473052978516e-01 1.824391037225723267e-01
6.567000000000000000e+03 6.163651657104492188e+01 1.061625099182128906e+01 -7.298841476440429688e-01 6.549975395202636719e+00 1.746027350425720215e+00 1.207127869129180908e-01
6.568000000000000000e+03 5.246588897705078125e+01 -7.384611129760742188e+00 -1.867803782224655151e-01 4.009881019592285156e+00 1.146930217742919922e+00 1.908169835805892944e-01
6.569000000000000000e+03 6.083763885498046875e+01 1.103013420104980469e+01 -7.474093437194824219e-01 6.398641109466552734e+00 1.695369482040405273e+00 1.968443393707275391e-01
6.570000000000000000e+03 5.873992156982421875e+01 3.445273876190185547e+00 -4.380113482475280762e-01 5.497546672821044922e+00 1.517860531806945801e+00 2.638033032417297363e-01
6.571000000000000000e+03 6.004038238525390625e+01 5.866253376007080078e+00 -5.309474468231201172e-01 5.882316112518310547e+00 1.605410575866699219e+00 2.282062023878097534e-01
6.572000000000000000e+03 4.860825729370117188e+01 -3.409145116806030273e+00 -1.365099996328353882e-01 3.087932348251342773e+00 8.854267597198486328e-01 2.054551094770431519e-01
6.573000000000000000e+03 5.897536849975585938e+01 5.961069107055664062e+00 -5.205500721931457520e-01 5.646680355072021484e+00 1.537839055061340332e+00 2.700460255146026611e-01
6.574000000000000000e+03 1.984227371215820312e+01 2.388992881774902344e+01 1.444081775844097137e-02 1.016649752855300903e-01 3.483173996210098267e-02 4.835554212331771851e-02
6.575000000000000000e+03 6.153277969360351562e+01 1.827758026123046875e+01 -1.091097950935363770e+00 7.522358894348144531e+00 1.929378271102905273e+00 1.688198149204254150e-01
6.576000000000000000e+03 5.265274047851562500e+01 2.022866630554199219e+01 -3.485532104969024658e-01 3.915572166442871094e+00 1.070105671882629395e+00 1.220727324485778809e+00
6.577000000000000000e+03 6.202261352539062500e+01 2.041111946105957031e+01 -1.156111598014831543e+00 8.089308738708496094e+00 2.079959392547607422e+00 7.741739600896835327e-02
6.578000000000000000e+03 6.103903579711914062e+01 2.003762245178222656e+01 -1.139243125915527344e+00 7.758273124694824219e+00 1.985709071159362793e+00 3.096586763858795166e-01
6.579000000000000000e+03 6.101763534545898438e+01 1.267202854156494141e+01 -8.389717936515808105e-01 6.584009170532226562e+00 1.723511219024658203e+00 1.966025382280349731e-01
6.580000000000000000e+03 6.006423568725585938e+01 -1.310006427764892578e+01 -1.691120564937591553e-01 5.665904521942138672e+00 1.649037837982177734e+00 2.569365501403808594e-01
6.581000000000000000e+03 5.885169601440429688e+01 -1.267778396606445312e+01 -1.824606657028198242e-01 5.427645206451416016e+00 1.573555350303649902e+00 2.647147476673126221e-01
6.582000000000000000e+03 4.531356430053710938e+01 -1.386285424232482910e+00 -9.173262119293212891e-02 2.287788867950439453e+00 6.588168740272521973e-01 2.014590352773666382e-01
6.583000000000000000e+03 4.327972793579101562e+01 1.618385910987854004e+00 -1.143119335174560547e-01 1.760299801826477051e+00 4.937963783740997314e-01 2.129026353359222412e-01
6.584000000000000000e+03 5.928440093994140625e+01 -1.130750179290771484e+01 -1.888788342475891113e-01 5.486170768737792969e+00 1.589187502861022949e+00 2.550655901432037354e-01
6.585000000000000000e+03 5.470328521728515625e+01 -5.588628292083740234e+00 -2.150268256664276123e-01 4.496302127838134766e+00 1.284382581710815430e+00 2.282378077507019043e-01
6.586000000000000000e+03 6.173602294921875000e+01 1.387954711914062500e+01 -8.904488086700439453e-01 6.899522781372070312e+00 1.802722096443176270e+00 1.092623546719551086e-01
6.587000000000000000e+03 5.794240951538085938e+01 2.724575281143188477e+00 -4.096468091011047363e-01 5.305382251739501953e+00 1.468720555305480957e+00 2.787789702415466309e-01
6.588000000000000000e+03 5.521632003784179688e+01 -1.032832241058349609e+01 -2.011917680501937866e-01 4.662090301513671875e+00 1.338269472122192383e+00 2.101080864667892456e-01
6.589000000000000000e+03 5.577545928955078125e+01 -6.148084163665771484e+00 -2.242776602506637573e-01 4.725778102874755859e+00 1.350450158119201660e+00 2.374085336923599243e-01
6.590000000000000000e+03 6.005257034301757812e+01 -8.273136138916015625e+00 -2.065598666667938232e-01 5.632294178009033203e+00 1.627720355987548828e+00 2.406551986932754517e-01
6.591000000000000000e+03 5.078194427490234375e+01 -7.816123962402343750e+00 -1.585949063301086426e-01 3.662648200988769531e+00 1.051216006278991699e+00 1.608720570802688599e-01
6.592000000000000000e+03 4.947406768798828125e+01 -3.736128091812133789e+00 -1.577356308698654175e-01 3.296885251998901367e+00 9.417448639869689941e-01 2.157074064016342163e-01
6.593000000000000000e+03 1.917371940612792969e+01 3.347291946411132812e+01 -1.370401150779798627e-04 5.725913867354393005e-02 1.713662967085838318e-02 1.676217280328273773e-02
6.594000000000000000e+03 5.683082580566406250e+01 -8.232011198997497559e-01 -3.106394708156585693e-01 4.988702297210693359e+00 1.403418779373168945e+00 2.685946822166442871e-01
6.595000000000000000e+03 5.781446838378906250e+01 -2.048569917678833008e+00 -2.930448949337005615e-01 5.183411121368408203e+00 1.467109918594360352e+00 2.538714408874511719e-01
6.596000000000000000e+03 5.182513809204101562e+01 -8.538486480712890625e+00 -1.657410562038421631e-01 3.895807266235351562e+00 1.119019865989685059e+00 1.588443517684936523e-01
6.597000000000000000e+03 5.452315902709960938e+01 2.516125679016113281e+01 -8.179242722690105438e-03 4.737660884857177734e+00 1.418844580650329590e+00 1.985723018646240234e+00
6.598000000000000000e+03 5.654565429687500000e+01 2.765587615966796875e+01 1.009643673896789551e-01 6.831888198852539062e+00 2.079855680465698242e+00 2.683816194534301758e+00
6.599000000000000000e+03 5.562911605834960938e+01 2.670991134643554688e+01 9.140140563249588013e-02 5.706325531005859375e+00 1.739318013191223145e+00 2.407707452774047852e+00
6.600000000000000000e+03 5.743716430664062500e+01 2.780844879150390625e+01 -1.632735580205917358e-01 8.043986320495605469e+00 2.364213705062866211e+00 2.560712814331054688e+00
6.601000000000000000e+03 5.498802185058593750e+01 2.524734878540039062e+01 -9.302533417940139771e-02 5.155687332153320312e+00 1.518798589706420898e+00 2.035049676895141602e+00
6.602000000000000000e+03 5.202033233642578125e+01 2.108695411682128906e+01 -2.303764820098876953e-01 3.520421028137207031e+00 9.870133996009826660e-01 1.245293498039245605e+00
6.603000000000000000e+03 5.254239654541015625e+01 2.156774330139160156e+01 -2.362027466297149658e-01 3.745851278305053711e+00 1.052894592285156250e+00 1.332329869270324707e+00
6.604000000000000000e+03 5.291015625000000000e+01 2.218048858642578125e+01 -2.157395631074905396e-01 3.900314807891845703e+00 1.105372548103332520e+00 1.416701793670654297e+00
6.605000000000000000e+03 4.508406829833984375e+01 1.326020240783691406e+01 -3.032082021236419678e-01 1.648084044456481934e+00 4.034627676010131836e-01 3.547520637512207031e-01
6.606000000000000000e+03 4.551594161987304688e+01 1.369511127471923828e+01 -2.968788743019104004e-01 1.725864648818969727e+00 4.286957383155822754e-01 3.865510523319244385e-01
6.607000000000000000e+03 5.480567169189453125e+01 2.492646408081054688e+01 -9.804674237966537476e-02 5.041099071502685547e+00 1.482915639877319336e+00 1.985426664352416992e+00
6.608000000000000000e+03 5.362045669555664062e+01 2.360267066955566406e+01 -1.258759349584579468e-01 4.208086490631103516e+00 1.224663138389587402e+00 1.655333518981933594e+00
6.609000000000000000e+03 5.412134552001953125e+01 2.459434318542480469e+01 -3.717043250799179077e-02 4.456841468811035156e+00 1.325901269912719727e+00 1.871513485908508301e+00
6.610000000000000000e+03 5.340907669067382812e+01 2.229973411560058594e+01 -2.485472112894058228e-01 4.167678356170654297e+00 1.175739407539367676e+00 1.479433417320251465e+00
6.611000000000000000e+03 5.563851165771484375e+01 2.623371315002441406e+01 -1.151681970804929733e-02 5.712985038757324219e+00 1.710440516471862793e+00 2.293563604354858398e+00
6.612000000000000000e+03 5.568222427368164062e+01 2.576291275024414062e+01 -1.264686435461044312e-01 5.754114627838134766e+00 1.688293814659118652e+00 2.174211978912353516e+00
6.613000000000000000e+03 5.362749862670898438e+01 2.402303123474121094e+01 -6.704203039407730103e-02 4.180695533752441406e+00 1.234096050262451172e+00 1.713697671890258789e+00
6.614000000000000000e+03 5.409022903442382812e+01 2.364895248413085938e+01 -1.821211278438568115e-01 4.515709400177001953e+00 1.300076484680175781e+00 1.701401591300964355e+00
6.615000000000000000e+03 5.033507156372070312e+01 1.921586227416992188e+01 -2.509041726589202881e-01 2.902399778366088867e+00 7.954486608505249023e-01 9.527323246002197266e-01
6.616000000000000000e+03 5.035868072509765625e+01 1.965488052368164062e+01 -2.218363136053085327e-01 2.850717067718505859e+00 7.886642217636108398e-01 9.860579967498779297e-01
6.617000000000000000e+03 5.845405578613281250e+01 2.632491111755371094e+01 -7.256811857223510742e-01 8.569202423095703125e+00 2.353056192398071289e+00 1.759201169013977051e+00
6.618000000000000000e+03 5.691721725463867188e+01 2.711649894714355469e+01 -1.672788858413696289e-01 7.224459648132324219e+00 2.117154121398925781e+00 2.448873043060302734e+00
6.619000000000000000e+03 4.930965042114257812e+01 1.898966789245605469e+01 -2.176007181406021118e-01 2.482319116592407227e+00 6.794155836105346680e-01 8.409209251403808594e-01
6.620000000000000000e+03 5.650008773803710938e+01 2.668850135803222656e+01 -1.357246488332748413e-01 6.659016132354736328e+00 1.956987380981445312e+00 2.368975162506103516e+00
6.621000000000000000e+03 5.606449890136718750e+01 2.670792770385742188e+01 -1.750363782048225403e-02 6.163832664489746094e+00 1.843898653984069824e+00 2.411058425903320312e+00
6.622000000000000000e+03 4.768833923339843750e+01 1.563957214355468750e+01 -2.920831441879272461e-01 2.221178531646728516e+00 5.787286162376403809e-01 5.948446393013000488e-01
6.623000000000000000e+03 4.652013397216796875e+01 1.503032398223876953e+01 -2.932321131229400635e-01 1.892476320266723633e+00 4.797732830047607422e-01 4.748864471912384033e-01
6.624000000000000000e+03 4.588604354858398438e+01 1.456201076507568359e+01 -2.951185703277587891e-01 1.762475728988647461e+00 4.402071535587310791e-01 4.190132021903991699e-01
6.625000000000000000e+03 5.104164123535156250e+01 1.988948059082031250e+01 -2.476221174001693726e-01 3.138958930969238281e+00 8.674010634422302246e-01 1.058737039566040039e+00
6.626000000000000000e+03 4.890846252441406250e+01 1.899861335754394531e+01 -2.070980668067932129e-01 2.304857254028320312e+00 6.293277144432067871e-01 7.883189916610717773e-01
6.627000000000000000e+03 4.753196334838867188e+01 1.724194908142089844e+01 -2.458323240280151367e-01 2.013995647430419922e+00 5.304489731788635254e-01 6.056401729583740234e-01
6.628000000000000000e+03 4.390886306762695312e+01 1.187730216979980469e+01 -3.066257536411285400e-01 1.427075266838073730e+00 3.361348509788513184e-01 2.725073099136352539e-01
6.629000000000000000e+03 4.646015548706054688e+01 1.451577472686767578e+01 -2.942209839820861816e-01 1.924511075019836426e+00 4.890870153903961182e-01 4.716391861438751221e-01
6.630000000000000000e+03 4.250510406494140625e+01 1.003092384338378906e+01 -2.995907068252563477e-01 1.212252497673034668e+00 2.737985551357269287e-01 1.860439479351043701e-01
6.631000000000000000e+03 4.117668151855468750e+01 7.917110919952392578e+00 -2.756073474884033203e-01 1.053901076316833496e+00 2.334881275892257690e-01 1.310763955116271973e-01
6.632000000000000000e+03 4.229628372192382812e+01 8.867883682250976562e+00 -2.764367461204528809e-01 1.251067399978637695e+00 2.923892140388488770e-01 1.885553449392318726e-01
6.633000000000000000e+03 5.771522521972656250e+01 2.805386161804199219e+01 -2.053782492876052856e-01 8.438815116882324219e+00 2.470031023025512695e+00 2.573894739151000977e+00
6.634000000000000000e+03 4.078683090209960938e+01 7.467159748077392578e+00 -2.676497995853424072e-01 1.000228285789489746e+00 2.197735309600830078e-01 1.189364418387413025e-01
6.635000000000000000e+03 4.200614166259765625e+01 8.322343826293945312e+00 -2.781863510608673096e-01 1.204526782035827637e+00 2.779021263122558594e-01 1.797552704811096191e-01
6.636000000000000000e+03 4.236301803588867188e+01 1.135703754425048828e+01 -3.231065869331359863e-01 1.095623135566711426e+00 2.317549586296081543e-01 1.559696644544601440e-01
6.637000000000000000e+03 4.847193908691406250e+01 1.853194427490234375e+01 -2.201935052871704102e-01 2.209603071212768555e+00 5.968228578567504883e-01 7.377368807792663574e-01
6.638000000000000000e+03 4.317814254760742188e+01 1.208898258209228516e+01 -3.180615007877349854e-01 1.235573530197143555e+00 2.752536237239837646e-01 2.077721655368804932e-01
6.639000000000000000e+03 4.179074859619140625e+01 1.155678558349609375e+01 -3.384307622909545898e-01 9.407690763473510742e-01 1.807014942169189453e-01 1.057152971625328064e-01
6.640000000000000000e+03 4.179857254028320312e+01 7.689572811126708984e+00 -2.594617307186126709e-01 1.195277690887451172e+00 2.807447910308837891e-01 1.682685613632202148e-01
6.641000000000000000e+03 4.027388381958007812e+01 6.874525070190429688e+00 -2.629570066928863525e-01 9.145039916038513184e-01 1.954641044139862061e-01 9.581860154867172241e-02
6.642000000000000000e+03 4.269281387329101562e+01 6.510629057884216309e-01 -8.392930775880813599e-02 1.657963633537292480e+00 4.722103178501129150e-01 1.863684058189392090e-01
6.643000000000000000e+03 3.879013824462890625e+01 4.880999565124511719e+00 -2.120441645383834839e-01 7.313591837882995605e-01 1.557945162057876587e-01 5.362583324313163757e-02
6.644000000000000000e+03 4.863893508911132812e+01 1.795570945739746094e+01 -2.451546788215637207e-01 2.335649251937866211e+00 6.271483302116394043e-01 7.415097951889038086e-01
6.645000000000000000e+03 3.901712036132812500e+01 6.420510292053222656e+00 -2.682200074195861816e-01 6.964725852012634277e-01 1.284757703542709351e-01 3.834396600723266602e-02
6.646000000000000000e+03 6.125172424316406250e+01 2.497873687744140625e+01 -1.093396186828613281e+00 9.396613121032714844e+00 2.490965127944946289e+00 3.112886548042297363e-01
6.647000000000000000e+03 5.931308364868164062e+01 2.563027381896972656e+01 -9.445265531539916992e-01 8.904554367065429688e+00 2.388008356094360352e+00 1.267104148864746094e+00
6.648000000000000000e+03 3.935677337646484375e+01 6.002220630645751953e+00 -2.522990405559539795e-01 7.689493894577026367e-01 1.549950987100601196e-01 5.993065237998962402e-02
6.649000000000000000e+03 3.902464675903320312e+01 5.500946521759033203e+00 -2.399289458990097046e-01 7.430840730667114258e-01 1.509465277194976807e-01 5.610432848334312439e-02
6.650000000000000000e+03 3.830248260498046875e+01 5.704764366149902344e+00 -2.544602453708648682e-01 6.025133728981018066e-01 1.044159457087516785e-01 1.214058604091405869e-02
6.651000000000000000e+03 3.869614028930664062e+01 1.447208881378173828e+00 -8.663883805274963379e-02 8.456211686134338379e-01 2.276947051286697388e-01 9.076900035142898560e-02
6.652000000000000000e+03 3.684841918945312500e+01 2.505019426345825195e+00 -1.540635079145431519e-01 4.946341216564178467e-01 1.021711900830268860e-01 2.478960342705249786e-02
6.653000000000000000e+03 3.592907714843750000e+01 2.556784391403198242e+00 -1.732391864061355591e-01 3.691094815731048584e-01 5.876109004020690918e-02 -6.297734566032886505e-03
6.654000000000000000e+03 4.309071731567382812e+01 7.772542953491210938e+00 -2.557980120182037354e-01 1.485951662063598633e+00 3.690460920333862305e-01 2.349400222301483154e-01
6.655000000000000000e+03 6.184076309204101562e+01 2.429493141174316406e+01 -1.123593807220458984e+00 9.268891334533691406e+00 2.443589448928833008e+00 8.189299702644348145e-02
6.656000000000000000e+03 6.111842727661132812e+01 1.779531860351562500e+01 -1.074472665786743164e+00 7.329772472381591797e+00 1.876590013504028320e+00 2.384556531906127930e-01
6.657000000000000000e+03 6.195740890502929688e+01 1.694313621520996094e+01 -1.050939559936523438e+00 7.383257389068603516e+00 1.899695396423339844e+00 8.984720706939697266e-02
6.658000000000000000e+03 6.013824844360351562e+01 2.120374298095703125e+01 -1.130371332168579102e+00 7.753340721130371094e+00 1.986890792846679688e+00 5.774710774421691895e-01
6.659000000000000000e+03 6.160071182250976562e+01 2.291004753112792969e+01 -1.178846836090087891e+00 8.722030639648437500e+00 2.262955188751220703e+00 1.956569254398345947e-01
6.660000000000000000e+03 6.012525558471679688e+01 2.544371986389160156e+01 -1.041880488395690918e+00 9.240945816040039062e+00 2.459719419479370117e+00 8.427494764328002930e-01
6.661000000000000000e+03 6.078779602050781250e+01 2.251012992858886719e+01 -1.170383095741271973e+00 8.350811004638671875e+00 2.154128313064575195e+00 4.578427672386169434e-01
6.662000000000000000e+03 5.723385620117187500e+01 3.439969301223754883e+00 -4.222875237464904785e-01 5.153623580932617188e+00 1.419400691986083984e+00 3.082669079303741455e-01
6.663000000000000000e+03 4.097953414916992188e+01 4.672219157218933105e-01 -6.227207183837890625e-02 1.304710388183593750e+00 3.727314770221710205e-01 1.443529874086380005e-01
6.664000000000000000e+03 4.604862594604492188e+01 -2.779640629887580872e-02 -1.254100948572158813e-01 2.429245233535766602e+00 6.911505460739135742e-01 2.406543642282485962e-01
6.665000000000000000e+03 6.071945571899414062e+01 1.940923309326171875e+01 -1.118247151374816895e+00 7.523450851440429688e+00 1.921561121940612793e+00 3.561880290508270264e-01
6.666000000000000000e+03 5.982754898071289062e+01 9.483324050903320312e+00 -6.739628314971923828e-01 6.059475898742675781e+00 1.615653872489929199e+00 2.573747634887695312e-01
6.667000000000000000e+03 6.163691711425781250e+01 9.551724433898925781e+00 -6.853821873664855957e-01 6.468348503112792969e+00 1.734889864921569824e+00 1.254352629184722900e-01
6.668000000000000000e+03 6.120951461791992188e+01 1.548300457000732422e+01 -9.701932668685913086e-01 6.973217964172363281e+00 1.800907373428344727e+00 1.914941519498825073e-01
6.669000000000000000e+03 6.114744949340820312e+01 1.444235897064208984e+01 -9.104514718055725098e-01 6.824951171875000000e+00 1.774349927902221680e+00 1.852735430002212524e-01
6.670000000000000000e+03 3.862617111206054688e+01 4.223091602325439453e+00 -2.005547434091567993e-01 7.285980582237243652e-01 1.584129929542541504e-01 5.710978806018829346e-02
6.671000000000000000e+03 4.511402511596679688e+01 -5.112980008125305176e-01 -1.019293591380119324e-01 2.236184120178222656e+00 6.402764320373535156e-01 2.139717489480972290e-01
6.672000000000000000e+03 4.469416046142578125e+01 3.525390923023223877e-01 -1.061254441738128662e-01 2.116741418838500977e+00 6.031848192214965820e-01 2.237987071275711060e-01
6.673000000000000000e+03 4.757450485229492188e+01 -1.449122309684753418e+00 -1.368105411529541016e-01 2.815949916839599609e+00 8.037418127059936523e-01 2.326589822769165039e-01
6.674000000000000000e+03 4.959068679809570312e+01 -2.814952135086059570e+00 -1.615134030580520630e-01 3.321941614151000977e+00 9.481284618377685547e-01 2.339369654655456543e-01
6.675000000000000000e+03 6.067547225952148438e+01 1.349406147003173828e+01 -8.747984766960144043e-01 6.620568275451660156e+00 1.723730921745300293e+00 2.315045297145843506e-01
6.676000000000000000e+03 5.795436096191406250e+01 4.165041446685791016e+00 -4.563584029674530029e-01 5.356090545654296875e+00 1.469919681549072266e+00 2.915314137935638428e-01
6.677000000000000000e+03 3.767749404907226562e+01 3.707405328750610352e+00 -1.922999769449234009e-01 5.907232761383056641e-01 1.195269897580146790e-01 3.144188597798347473e-02
6.678000000000000000e+03 3.821247482299804688e+01 1.842769026756286621e+00 -9.821551293134689331e-02 7.470047473907470703e-01 1.946367621421813965e-01 7.178607583045959473e-02
6.679000000000000000e+03 6.062466812133789062e+01 1.209619426727294922e+01 -8.025490045547485352e-01 6.450665950775146484e+00 1.694435119628906250e+00 2.220726162195205688e-01
6.680000000000000000e+03 6.004646682739257812e+01 1.254886531829833984e+01 -8.190013170242309570e-01 6.343117237091064453e+00 1.657234787940979004e+00 2.853250801563262939e-01
6.681000000000000000e+03 5.970550918579101562e+01 8.774790763854980469e+00 -6.490907669067382812e-01 5.970062255859375000e+00 1.596291422843933105e+00 2.656439542770385742e-01
6.682000000000000000e+03 5.861570358276367188e+01 4.976073741912841797e+00 -4.861400723457336426e-01 5.539370536804199219e+00 1.515969157218933105e+00 2.743195891380310059e-01
6.683000000000000000e+03 5.781690979003906250e+01 -3.012383699417114258e+00 -2.690972685813903809e-01 5.183811187744140625e+00 1.474414229393005371e+00 2.511982917785644531e-01
6.684000000000000000e+03 5.793969345092773438e+01 -3.904553890228271484e+00 -2.626773715019226074e-01 5.204609870910644531e+00 1.482579708099365234e+00 2.461343556642532349e-01
6.685000000000000000e+03 6.047698974609375000e+01 8.444569587707519531e+00 -6.440900564193725586e-01 6.109362125396728516e+00 1.639581680297851562e+00 2.147487550973892212e-01
6.686000000000000000e+03 5.184041595458984375e+01 -5.837274551391601562e+00 -1.871632635593414307e-01 3.870560169219970703e+00 1.105019092559814453e+00 2.100979536771774292e-01
6.687000000000000000e+03 5.045869827270507812e+01 -4.953682422637939453e+00 -1.681600660085678101e-01 3.518062591552734375e+00 1.004970788955688477e+00 1.966674625873565674e-01
6.688000000000000000e+03 5.135398483276367188e+01 -3.606807231903076172e+00 -1.981626749038696289e-01 3.718854427337646484e+00 1.056207537651062012e+00 2.324661314487457275e-01
6.689000000000000000e+03 5.463942718505859375e+01 -8.520127296447753906e+00 -2.034083306789398193e-01 4.512411117553710938e+00 1.292700767517089844e+00 2.116226553916931152e-01
6.690000000000000000e+03 6.133278274536132812e+01 1.915021133422851562e+01 -1.119173288345336914e+00 7.642571926116943359e+00 1.957019686698913574e+00 2.235005944967269897e-01
6.691000000000000000e+03 5.311777114868164062e+01 2.125145149230957031e+01 -3.142304122447967529e-01 4.067804336547851562e+00 1.126072287559509277e+00 1.346039056777954102e+00
6.692000000000000000e+03 5.663118362426757812e+01 3.090112805366516113e-01 -3.317451179027557373e-01 4.955632209777832031e+00 1.387166142463684082e+00 2.839461565017700195e-01
6.693000000000000000e+03 5.636821746826171875e+01 -1.082622814178466797e+01 -1.906297206878662109e-01 4.902321815490722656e+00 1.413507580757141113e+00 2.227516323328018188e-01
6.694000000000000000e+03 5.913018798828125000e+01 -1.033487892150878906e+01 -2.057909965515136719e-01 5.442706108093261719e+00 1.571074485778808594e+00 2.409120500087738037e-01
6.695000000000000000e+03 5.353415679931640625e+01 -7.952827930450439453e+00 -1.881503760814666748e-01 4.257875919342041016e+00 1.220917701721191406e+00 1.999374777078628540e-01
6.696000000000000000e+03 5.292054367065429688e+01 -9.178530693054199219e+00 -1.853161752223968506e-01 4.143949508666992188e+00 1.187590003013610840e+00 1.783044040203094482e-01
6.697000000000000000e+03 5.848967742919921875e+01 -8.849190711975097656e+00 -2.104589939117431641e-01 5.317103862762451172e+00 1.531993389129638672e+00 2.425454705953598022e-01
6.698000000000000000e+03 5.902436447143554688e+01 -7.737619400024414062e+00 -2.088003903627395630e-01 5.412563323974609375e+00 1.561128854751586914e+00 2.381183505058288574e-01
6.699000000000000000e+03 1.898672103881835938e+01 2.420155334472656250e+01 9.159904904663562775e-03 9.542064368724822998e-02 3.137416392564773560e-02 4.212839156389236450e-02
6.700000000000000000e+03 5.962282180786132812e+01 -6.654340744018554688e+00 -2.238777130842208862e-01 5.549577713012695312e+00 1.597710013389587402e+00 2.356805950403213501e-01
6.701000000000000000e+03 5.886750793457031250e+01 -4.955791473388671875e+00 -2.515306472778320312e-01 5.393496990203857422e+00 1.542589902877807617e+00 2.420195937156677246e-01
6.702000000000000000e+03 5.800597000122070312e+01 -1.280352687835693359e+01 -1.952947080135345459e-01 5.251449108123779297e+00 1.516846299171447754e+00 2.460801601409912109e-01
6.703000000000000000e+03 5.147400283813476562e+01 -6.844514369964599609e+00 -1.658927351236343384e-01 3.794485330581665039e+00 1.088577747344970703e+00 1.816516071557998657e-01
6.704000000000000000e+03 5.168534469604492188e+01 -4.696395874023437500e+00 -1.805579364299774170e-01 3.832804441452026367e+00 1.095673918724060059e+00 2.208070456981658936e-01
6.705000000000000000e+03 5.460565185546875000e+01 2.461312866210937500e+01 -1.223024055361747742e-01 4.855319023132324219e+00 1.419905066490173340e+00 1.887056350708007812e+00
6.706000000000000000e+03 5.650628662109375000e+01 2.715905189514160156e+01 -3.586703538894653320e-02 6.705790996551513672e+00 2.000977039337158203e+00 2.507761240005493164e+00
6.707000000000000000e+03 5.695706176757812500e+01 2.755903434753417969e+01 -8.671461045742034912e-02 7.348452568054199219e+00 2.178521394729614258e+00 2.584250926971435547e+00
6.708000000000000000e+03 5.237348937988281250e+01 2.086013793945312500e+01 -2.740180492401123047e-01 3.703379392623901367e+00 1.028808355331420898e+00 1.245044946670532227e+00
6.709000000000000000e+03 5.989685440063476562e+01 2.286372566223144531e+01 -1.115618944168090820e+00 8.153573989868164062e+00 2.111386537551879883e+00 7.464191913604736328e-01
6.710000000000000000e+03 5.301837539672851562e+01 2.170782279968261719e+01 -2.628709971904754639e-01 3.991296768188476562e+00 1.118527770042419434e+00 1.385461449623107910e+00
6.711000000000000000e+03 5.375497436523437500e+01 2.290698242187500000e+01 -2.275223284959793091e-01 4.373793601989746094e+00 1.243881464004516602e+00 1.585746169090270996e+00
6.712000000000000000e+03 5.351245117187500000e+01 2.182522773742675781e+01 -3.075587749481201172e-01 4.276781558990478516e+00 1.190766811370849609e+00 1.433874249458312988e+00
6.713000000000000000e+03 4.828105163574218750e+01 1.579084682464599609e+01 -3.039566576480865479e-01 2.415951967239379883e+00 6.335986256599426270e-01 6.450293660163879395e-01
6.714000000000000000e+03 4.974899291992187500e+01 1.885426712036132812e+01 -2.452225834131240845e-01 2.665407419204711914e+00 7.260554432868957520e-01 8.746282458305358887e-01
6.715000000000000000e+03 5.435882186889648438e+01 2.428942489624023438e+01 -1.313201934099197388e-01 4.678562641143798828e+00 1.364172697067260742e+00 1.829514861106872559e+00
6.716000000000000000e+03 5.403266906738281250e+01 2.194009780883789062e+01 -3.655972480773925781e-01 4.594749450683593750e+00 1.268745660781860352e+00 1.469522237777709961e+00
6.717000000000000000e+03 5.606123733520507812e+01 2.625250244140625000e+01 -1.197667196393013000e-01 6.159672260284423828e+00 1.811971664428710938e+00 2.290954113006591797e+00
6.718000000000000000e+03 5.432001495361328125e+01 2.486516189575195312e+01 -2.340447530150413513e-02 4.589179515838623047e+00 1.369732499122619629e+00 1.911081433296203613e+00
6.719000000000000000e+03 5.495495605468750000e+01 2.458063697814941406e+01 -1.908148974180221558e-01 5.148551940917968750e+00 1.487321138381958008e+00 1.910341382026672363e+00
6.720000000000000000e+03 5.607631301879882812e+01 2.581188583374023438e+01 -2.111466526985168457e-01 6.157863140106201172e+00 1.784014940261840820e+00 2.173962593078613281e+00
6.721000000000000000e+03 3.733434295654296875e+01 2.067932367324829102e+00 -1.251642853021621704e-01 5.739818811416625977e-01 1.346452832221984863e-01 4.350846633315086365e-02
6.722000000000000000e+03 5.613472747802734375e+01 2.538135910034179688e+01 -3.073973953723907471e-01 6.193268299102783203e+00 1.765761375427246094e+00 2.071139812469482422e+00
6.723000000000000000e+03 5.075748062133789062e+01 1.940750503540039062e+01 -2.645546793937683105e-01 3.051952600479125977e+00 8.362194299697875977e-01 9.991545677185058594e-01
6.724000000000000000e+03 4.866252899169921875e+01 1.652336883544921875e+01 -2.956084609031677246e-01 2.478100061416625977e+00 6.547474861145019531e-01 6.955370306968688965e-01
6.725000000000000000e+03 4.983419799804687500e+01 1.929447937011718750e+01 -2.192979753017425537e-01 2.669749259948730469e+00 7.351353764533996582e-01 9.028118252754211426e-01
6.726000000000000000e+03 4.888425064086914062e+01 1.832745361328125000e+01 -2.395581305027008057e-01 2.384902477264404297e+00 6.436033248901367188e-01 7.670205831527709961e-01
6.727000000000000000e+03 4.715230560302734375e+01 1.496592998504638672e+01 -2.957512140274047852e-01 2.120517969131469727e+00 5.474300384521484375e-01 5.352282524108886719e-01
6.728000000000000000e+03 5.186980056762695312e+01 1.999955558776855469e+01 -2.981559634208679199e-01 3.534998893737792969e+00 9.710528850555419922e-01 1.139248371124267578e+00
6.729000000000000000e+03 4.269694900512695312e+01 1.194241237640380859e+01 -3.150892853736877441e-01 1.125716686248779297e+00 2.431882023811340332e-01 1.761115938425064087e-01
6.730000000000000000e+03 4.336720657348632812e+01 1.163475894927978516e+01 -3.057991564273834229e-01 1.310136079788208008e+00 3.013010919094085693e-01 2.282633036375045776e-01
6.731000000000000000e+03 4.251714324951171875e+01 8.193466186523437500e+00 -2.669803202152252197e-01 1.326509118080139160e+00 3.178586363792419434e-01 2.014521211385726929e-01
6.732000000000000000e+03 4.266929244995117188e+01 1.060256576538085938e+01 -3.027465343475341797e-01 1.225897669792175293e+00 2.769453525543212891e-01 1.955157369375228882e-01
6.733000000000000000e+03 6.106182479858398438e+01 2.162066078186035156e+01 -1.169267058372497559e+00 8.173944473266601562e+00 2.101403236389160156e+00 3.334814310073852539e-01
6.734000000000000000e+03 5.980131149291992188e+01 2.052176284790039062e+01 -1.091911196708679199e+00 7.468587875366210938e+00 1.913003087043762207e+00 6.164227724075317383e-01
6.735000000000000000e+03 5.849525451660156250e+01 2.672359848022460938e+01 -6.805760264396667480e-01 8.783425331115722656e+00 2.430854797363281250e+00 1.819975852966308594e+00
6.736000000000000000e+03 5.696279525756835938e+01 2.617181015014648438e+01 -3.797069787979125977e-01 7.084587097167968750e+00 2.011464118957519531e+00 2.159914493560791016e+00
6.737000000000000000e+03 4.299185943603515625e+01 8.267720222473144531e+00 -2.669931352138519287e-01 1.434310078620910645e+00 3.501951098442077637e-01 2.292443811893463135e-01
6.738000000000000000e+03 4.956708908081054688e+01 1.843619537353515625e+01 -2.561978995800018311e-01 2.638607501983642578e+00 7.147228717803955078e-01 8.434289097785949707e-01
6.739000000000000000e+03 4.095533370971679688e+01 6.936822414398193359e+00 -2.507099211215972900e-01 1.056751847267150879e+00 2.418125867843627930e-01 1.345300823450088501e-01
6.740000000000000000e+03 6.046698379516601562e+01 2.366875076293945312e+01 -1.133766889572143555e+00 8.621758460998535156e+00 2.246397495269775391e+00 6.228309869766235352e-01
6.741000000000000000e+03 6.048274612426757812e+01 2.439740562438964844e+01 -1.106933116912841797e+00 8.923882484436035156e+00 2.345084905624389648e+00 6.417464017868041992e-01
6.742000000000000000e+03 4.410898208618164062e+01 1.038392734527587891e+01 -2.934180498123168945e-01 1.584920287132263184e+00 3.874506652355194092e-01 2.929541766643524170e-01
6.743000000000000000e+03 4.020684814453125000e+01 6.330536365509033203e+00 -2.437527328729629517e-01 9.307195544242858887e-01 2.060900479555130005e-01 9.992873668670654297e-02
6.744000000000000000e+03 4.225089645385742188e+01 2.878775596618652344e+00 -1.333066821098327637e-01 1.502765297889709473e+00 4.108375906944274902e-01 1.949362754821777344e-01
6.745000000000000000e+03 4.092747879028320312e+01 1.272967934608459473e+00 -7.882738858461380005e-02 1.275805473327636719e+00 3.590934276580810547e-01 1.503371894359588623e-01
6.746000000000000000e+03 5.996478652954101562e+01 1.557552051544189453e+01 -9.469239115715026855e-01 6.655743122100830078e+00 1.712645769119262695e+00 3.654604852199554443e-01
6.747000000000000000e+03 6.057981491088867188e+01 1.501521587371826172e+01 -9.443033933639526367e-01 6.754034519195556641e+00 1.742919325828552246e+00 2.692647874355316162e-01
6.748000000000000000e+03 5.172251129150390625e+01 2.072846603393554688e+01 -2.362629622220993042e-01 3.392433166503906250e+00 9.468510150909423828e-01 1.182648301124572754e+00
6.749000000000000000e+03 4.903474044799804688e+01 1.769473457336425781e+01 -2.696036398410797119e-01 2.507850408554077148e+00 6.714740395545959473e-01 7.651001214981079102e-01
6.750000000000000000e+03 4.251478576660156250e+01 1.440377950668334961e+00 -9.651777893304824829e-02 1.602563858032226562e+00 4.518138170242309570e-01 1.933081597089767456e-01
6.751000000000000000e+03 6.116718673706054688e+01 2.433411216735839844e+01 -1.125974059104919434e+00 9.140789031982421875e+00 2.404444456100463867e+00 3.523567914962768555e-01
6.752000000000000000e+03 4.172600555419921875e+01 1.329247474670410156e+00 -9.222905337810516357e-02 1.436198949813842773e+00 4.031909704208374023e-01 1.696233749389648438e-01
6.753000000000000000e+03 4.283158493041992188e+01 1.152077579498291016e+01 -3.232149481773376465e-01 1.183761596679687500e+00 2.581639885902404785e-01 1.877581179141998291e-01
6.754000000000000000e+03 4.551020812988281250e+01 1.334418010711669922e+01 -3.017548620700836182e-01 1.742159843444824219e+00 4.321215152740478516e-01 3.807898163795471191e-01
6.755000000000000000e+03 6.044404983520507812e+01 2.191308593750000000e+01 -1.140441060066223145e+00 8.069534301757812500e+00 2.078727960586547852e+00 5.320721864700317383e-01
6.756000000000000000e+03 5.573625564575195312e+01 2.529326248168945312e+01 -2.327329963445663452e-01 5.818563461303710938e+00 1.675749182701110840e+00 2.053742170333862305e+00
6.757000000000000000e+03 4.729586029052734375e+01 1.353491401672363281e+01 -3.150332868099212646e-01 2.245326995849609375e+00 5.790880918502807617e-01 5.225619673728942871e-01
6.758000000000000000e+03 4.611283493041992188e+01 1.382303428649902344e+01 -2.955006659030914307e-01 1.895281672477722168e+00 4.799343049526214600e-01 4.379090666770935059e-01
6.759000000000000000e+03 4.013604354858398438e+01 1.268358111381530762e+00 -8.297793567180633545e-02 1.112722873687744141e+00 3.089234828948974609e-01 1.293033957481384277e-01
6.760000000000000000e+03 6.044716262817382812e+01 1.881060409545898438e+01 -1.083977460861206055e+00 7.323015213012695312e+00 1.871711373329162598e+00 3.969830274581909180e-01
6.761000000000000000e+03 6.064015197753906250e+01 1.741482543945312500e+01 -1.051685094833374023e+00 7.124995231628417969e+00 1.821992993354797363e+00 3.199353218078613281e-01
6.762000000000000000e+03 5.713399505615234375e+01 1.971627235412597656e+00 -3.771977424621582031e-01 5.093810558319091797e+00 1.414983868598937988e+00 2.963450253009796143e-01
6.763000000000000000e+03 5.624884033203125000e+01 1.341301679611206055e+00 -3.552124500274658203e-01 4.885855674743652344e+00 1.359193086624145508e+00 2.979400753974914551e-01
6.764000000000000000e+03 5.585557556152343750e+01 -9.722451567649841309e-01 -2.941251397132873535e-01 4.761293888092041016e+00 1.340150713920593262e+00 2.805049419403076172e-01
6.765000000000000000e+03 5.647163009643554688e+01 2.779839754104614258e+00 -3.955100774765014648e-01 4.948873519897460938e+00 1.366009116172790527e+00 3.137373924255371094e-01
6.766000000000000000e+03 6.010643386840820312e+01 1.150314140319824219e+01 -7.719848155975341797e-01 6.269391059875488281e+00 1.649221897125244141e+00 2.618786394596099854e-01
6.767000000000000000e+03 5.805342102050781250e+01 9.950288772583007812e+00 -6.672985553741455078e-01 5.624722003936767578e+00 1.487227082252502441e+00 3.865760266780853271e-01
6.768000000000000000e+03 6.101513671875000000e+01 1.859501647949218750e+01 -1.097696661949157715e+00 7.447508335113525391e+00 1.904943466186523438e+00 2.702810466289520264e-01
6.769000000000000000e+03 5.982239913940429688e+01 1.893684387207031250e+01 -1.068806529045104980e+00 7.149337291717529297e+00 1.824159264564514160e+00 5.165801644325256348e-01
6.770000000000000000e+03 5.441495895385742188e+01 2.263157272338867188e+01 -3.450039029121398926e-01 4.815141677856445312e+00 1.341041326522827148e+00 1.581893086433410645e+00
6.771000000000000000e+03 4.352592849731445312e+01 8.527049422264099121e-01 -9.527434408664703369e-02 1.837742686271667480e+00 5.227404832839965820e-01 2.109088003635406494e-01
6.772000000000000000e+03 4.432321166992187500e+01 1.136546611785888672e+00 -1.190405115485191345e-01 2.007297992706298828e+00 5.664772987365722656e-01 2.298454791307449341e-01
6.773000000000000000e+03 5.990650558471679688e+01 1.393070411682128906e+01 -8.773066997528076172e-01 6.441940784454345703e+00 1.669390201568603516e+00 3.361961543560028076e-01
6.774000000000000000e+03 4.830303573608398438e+01 -2.052887439727783203e+00 -1.476599127054214478e-01 2.995208978652954102e+00 8.542647361755371094e-01 2.272747009992599487e-01
6.775000000000000000e+03 4.702544403076171875e+01 -2.295279979705810547e+00 -1.159218922257423401e-01 2.699999809265136719e+00 7.752233147621154785e-01 2.106418311595916748e-01
6.776000000000000000e+03 5.576340484619140625e+01 -9.063643455505371094e+00 -1.984730213880538940e-01 4.755271434783935547e+00 1.367039561271667480e+00 2.191691249608993530e-01
6.777000000000000000e+03 5.783917999267578125e+01 -4.724480152130126953e+00 -2.485260069370269775e-01 5.161689281463623047e+00 1.473949074745178223e+00 2.407343685626983643e-01
6.778000000000000000e+03 6.056959915161132812e+01 9.642201423645019531e+00 -6.847903132438659668e-01 6.210319042205810547e+00 1.657658576965332031e+00 2.150848805904388428e-01
6.779000000000000000e+03 6.053551864624023438e+01 1.407123279571533203e+01 -8.872968554496765137e-01 6.654022693634033203e+00 1.730017662048339844e+00 2.416194677352905273e-01
6.780000000000000000e+03 5.709045791625976562e+01 -4.173480510711669922e+00 -2.521077096462249756e-01 4.994101524353027344e+00 1.422598242759704590e+00 2.486308217048645020e-01
6.781000000000000000e+03 5.924301910400390625e+01 8.008666038513183594e+00 -6.090098619461059570e-01 5.817024707794189453e+00 1.562404394149780273e+00 2.775831818580627441e-01
6.782000000000000000e+03 4.171556091308593750e+01 6.991860866546630859e+00 -2.484330236911773682e-01 1.209589242935180664e+00 2.883468568325042725e-01 1.667634099721908569e-01
6.783000000000000000e+03 5.805047225952148438e+01 7.110594749450683594e+00 -5.558168888092041016e-01 5.484679698944091797e+00 1.478658795356750488e+00 3.238292634487152100e-01
6.784000000000000000e+03 5.801565933227539062e+01 6.277260780334472656e+00 -5.246682167053222656e-01 5.438651084899902344e+00 1.474194765090942383e+00 3.144254982471466064e-01
6.785000000000000000e+03 5.802555847167968750e+01 -1.005084133148193359e+01 -1.947858929634094238e-01 5.231643676757812500e+00 1.511057376861572266e+00 2.436165064573287964e-01
6.786000000000000000e+03 4.676661300659179688e+01 -7.983708977699279785e-01 -1.288338154554367065e-01 2.606172561645507812e+00 7.432016134262084961e-01 2.340380102396011353e-01
6.787000000000000000e+03 5.298996734619140625e+01 -6.166287422180175781e+00 -1.936436295509338379e-01 4.120227813720703125e+00 1.177975296974182129e+00 2.121456712484359741e-01
6.788000000000000000e+03 5.686274337768554688e+01 -6.706467151641845703e+00 -2.166321128606796265e-01 4.975218296051025391e+00 1.427575945854187012e+00 2.368012815713882446e-01
6.789000000000000000e+03 5.739909744262695312e+01 -5.635715484619140625e+00 -2.346453070640563965e-01 5.084631919860839844e+00 1.454995989799499512e+00 2.397142946720123291e-01
6.790000000000000000e+03 5.689017105102539062e+01 -9.573595046997070312e+00 -2.088077813386917114e-01 4.995617866516113281e+00 1.436043024063110352e+00 2.316348701715469360e-01
6.791000000000000000e+03 5.533948898315429688e+01 2.521893501281738281e+01 -1.554122120141983032e-01 5.449544906616210938e+00 1.588239789009094238e+00 2.040719270706176758e+00
6.792000000000000000e+03 5.502074432373046875e+01 2.410150718688964844e+01 -2.693405449390411377e-01 5.205318450927734375e+00 1.480793356895446777e+00 1.821915745735168457e+00
6.793000000000000000e+03 5.968871307373046875e+01 1.820998573303222656e+01 -1.036577939987182617e+00 6.991790294647216797e+00 1.786563634872436523e+00 5.146584510803222656e-01
6.794000000000000000e+03 5.345995712280273438e+01 2.048656654357910156e+01 -4.086306989192962646e-01 4.308638572692871094e+00 1.170002460479736328e+00 1.284615039825439453e+00
6.795000000000000000e+03 4.886530303955078125e+01 1.597393417358398438e+01 -3.140554130077362061e-01 2.601439952850341797e+00 6.862153410911560059e-01 6.972144246101379395e-01
6.796000000000000000e+03 5.649502182006835938e+01 2.624057960510253906e+01 -2.388749569654464722e-01 6.580392837524414062e+00 1.902455329895019531e+00 2.256036996841430664e+00
6.797000000000000000e+03 5.985398483276367188e+01 2.359902381896972656e+01 -1.097091078758239746e+00 8.372938156127929688e+00 2.182754039764404297e+00 8.148617744445800781e-01
6.798000000000000000e+03 5.456990051269531250e+01 2.387323188781738281e+01 -2.256514132022857666e-01 4.879809856414794922e+00 1.396247506141662598e+00 1.779160380363464355e+00
6.799000000000000000e+03 5.958282470703125000e+01 2.142242622375488281e+01 -1.090462803840637207e+00 7.625073909759521484e+00 1.960383296012878418e+00 7.303408980369567871e-01
6.800000000000000000e+03 5.423348236083984375e+01 2.315015792846679688e+01 -2.639268636703491211e-01 4.658436775207519531e+00 1.318352937698364258e+00 1.643036723136901855e+00
6.801000000000000000e+03 5.748409271240234375e+01 2.620038414001464844e+01 -5.097257494926452637e-01 7.608504295349121094e+00 2.129633426666259766e+00 2.050630807876586914e+00
6.802000000000000000e+03 5.693826675415039062e+01 2.666495704650878906e+01 -2.679675221443176270e-01 7.155228137969970703e+00 2.066178083419799805e+00 2.302931308746337891e+00
6.803000000000000000e+03 5.391144561767578125e+01 2.244437599182128906e+01 -2.976187169551849365e-01 4.510488033294677734e+00 1.263860821723937988e+00 1.537702441215515137e+00
6.804000000000000000e+03 5.680382156372070312e+01 2.464921951293945312e+01 -5.495409369468688965e-01 6.679237842559814453e+00 1.838909149169921875e+00 1.838086724281311035e+00
6.805000000000000000e+03 5.651782989501953125e+01 2.548993301391601562e+01 -3.826917707920074463e-01 6.561604976654052734e+00 1.853674054145812988e+00 2.043632030487060547e+00
6.806000000000000000e+03 5.737273406982421875e+01 2.671188545227050781e+01 -3.887750208377838135e-01 7.687225818634033203e+00 2.189535140991210938e+00 2.235038518905639648e+00
6.807000000000000000e+03 4.902795791625976562e+01 1.709670066833496094e+01 -2.929615080356597900e-01 2.581464052200317383e+00 6.865507364273071289e-01 7.442678213119506836e-01
6.808000000000000000e+03 5.027867507934570312e+01 1.871329307556152344e+01 -2.750535309314727783e-01 2.919782161712646484e+00 7.934185862541198730e-01 9.237816333770751953e-01
6.809000000000000000e+03 5.156543350219726562e+01 1.952738189697265625e+01 -3.013605773448944092e-01 3.425193309783935547e+00 9.371498227119445801e-01 1.091306805610656738e+00
6.810000000000000000e+03 4.431636047363281250e+01 1.134297180175781250e+01 -2.999880611896514893e-01 1.579625725746154785e+00 3.838913142681121826e-01 3.011998534202575684e-01
6.811000000000000000e+03 4.320235061645507812e+01 9.030312538146972656e+00 -2.766506671905517578e-01 1.444830060005187988e+00 3.504538238048553467e-01 2.345415204763412476e-01
6.812000000000000000e+03 3.786017608642578125e+01 2.494819879531860352e+00 -1.354496777057647705e-01 6.561326384544372559e-01 1.562048941850662231e-01 5.671704933047294617e-02
6.813000000000000000e+03 4.336046981811523438e+01 1.115552520751953125e+01 -3.026952743530273438e-01 1.345082521438598633e+00 3.127161860466003418e-01 2.405719459056854248e-01
6.814000000000000000e+03 3.939634704589843750e+01 2.059421777725219727e+00 -1.112758964300155640e-01 9.471703171730041504e-01 2.507683336734771729e-01 1.100381687283515930e-01
6.815000000000000000e+03 3.943465423583984375e+01 4.727435588836669922e+00 -2.066259235143661499e-01 8.533715605735778809e-01 1.940236836671829224e-01 8.544380962848663330e-02
6.816000000000000000e+03 3.732743835449218750e+01 3.049873113632202148e+00 -1.671897768974304199e-01 5.528661012649536133e-01 1.157028898596763611e-01 2.740011364221572876e-02
6.817000000000000000e+03 5.982570648193359375e+01 2.212152481079101562e+01 -1.116390466690063477e+00 7.910803318023681641e+00 2.038323879241943359e+00 7.070844173431396484e-01
6.818000000000000000e+03 5.960762405395507812e+01 2.504231452941894531e+01 -1.017486810684204102e+00 8.813022613525390625e+00 2.338660717010498047e+00 1.053274631500244141e+00
6.819000000000000000e+03 5.647966003417968750e+01 2.247742462158203125e+01 -6.846241354942321777e-01 6.175745964050292969e+00 1.647336483001708984e+00 1.466219782829284668e+00
6.820000000000000000e+03 6.048822402954101562e+01 2.298493385314941406e+01 -1.140632510185241699e+00 8.391217231750488281e+00 2.175175189971923828e+00 5.692415833473205566e-01
6.821000000000000000e+03 4.092066574096679688e+01 6.282937526702880859e+00 -2.388068288564682007e-01 1.083276152610778809e+00 2.533407807350158691e-01 1.385801732540130615e-01
6.822000000000000000e+03 4.004494857788085938e+01 4.774915695190429688e+00 -1.941955089569091797e-01 9.790842533111572266e-01 2.354666143655776978e-01 1.172266528010368347e-01
6.823000000000000000e+03 4.008094024658203125e+01 4.135695934295654297e+00 -1.747694015502929688e-01 1.018431067466735840e+00 2.530985176563262939e-01 1.245644390583038330e-01
6.824000000000000000e+03 4.940461349487304688e+01 1.737581253051757812e+01 -2.923772335052490234e-01 2.689445257186889648e+00 7.191203832626342773e-01 7.932806015014648438e-01
6.825000000000000000e+03 4.922597503662109375e+01 1.668664741516113281e+01 -3.044685721397399902e-01 2.683881282806396484e+00 7.138238549232482910e-01 7.510615587234497070e-01
6.826000000000000000e+03 4.701795959472656250e+01 1.438679218292236328e+01 -3.024979233741760254e-01 2.132608890533447266e+00 5.490332841873168945e-01 5.230020284652709961e-01
6.827000000000000000e+03 4.676681900024414062e+01 1.354974746704101562e+01 -3.083153665065765381e-01 2.107324600219726562e+00 5.397027730941772461e-01 4.792435765266418457e-01
6.828000000000000000e+03 5.859944534301757812e+01 2.587294387817382812e+01 -8.046130537986755371e-01 8.490867614746093750e+00 2.305876493453979492e+00 1.610778927803039551e+00
6.829000000000000000e+03 5.800815200805664062e+01 2.629010772705078125e+01 -6.244346499443054199e-01 8.140972137451171875e+00 2.254961490631103516e+00 1.921859860420227051e+00
6.830000000000000000e+03 4.250023651123046875e+01 1.096425628662109375e+01 -3.133087456226348877e-01 1.158884882926940918e+00 2.536728680133819580e-01 1.718751192092895508e-01
6.831000000000000000e+03 4.286840820312500000e+01 1.026046752929687500e+01 -2.984126508235931396e-01 1.304281473159790039e+00 3.017606437206268311e-01 2.100038230419158936e-01
6.832000000000000000e+03 6.046472930908203125e+01 1.298856353759765625e+01 -8.397848010063171387e-01 6.501042842864990234e+00 1.698377370834350586e+00 2.494244426488876343e-01
6.833000000000000000e+03 6.004019927978515625e+01 1.450607585906982422e+01 -8.937348723411560059e-01 6.557577133178710938e+00 1.699152708053588867e+00 3.171721398830413818e-01
6.834000000000000000e+03 4.524118041992187500e+01 1.280268192291259766e+01 -3.066346943378448486e-01 1.718378424644470215e+00 4.235231280326843262e-01 3.634429275989532471e-01
6.835000000000000000e+03 4.002828598022460938e+01 5.740591526031494141e+00 -2.338095903396606445e-01 9.288513660430908203e-01 2.085125297307968140e-01 1.022053882479667664e-01
6.836000000000000000e+03 3.850432968139648438e+01 3.506247520446777344e+00 -1.637400984764099121e-01 7.351366281509399414e-01 1.714189499616622925e-01 6.165579706430435181e-02
6.837000000000000000e+03 5.880187225341796875e+01 2.536083602905273438e+01 -8.811475038528442383e-01 8.428284645080566406e+00 2.264141082763671875e+00 1.430892825126647949e+00
6.838000000000000000e+03 5.319956970214843750e+01 2.079959678649902344e+01 -3.592800796031951904e-01 4.145641803741455078e+00 1.135908603668212891e+00 1.296881079673767090e+00
6.839000000000000000e+03 6.009503173828125000e+01 1.714134788513183594e+01 -1.011763930320739746e+00 6.911969184875488281e+00 1.770061612129211426e+00 3.779759705066680908e-01
6.840000000000000000e+03 5.764295959472656250e+01 9.331426620483398438e+00 -6.386919617652893066e-01 5.482601642608642578e+00 1.453172922134399414e+00 3.909063935279846191e-01
6.841000000000000000e+03 6.041066360473632812e+01 2.028591728210449219e+01 -1.128327846527099609e+00 7.622526168823242188e+00 1.948259592056274414e+00 4.625380635261535645e-01
6.842000000000000000e+03 5.922706604003906250e+01 2.218929290771484375e+01 -1.064324975013732910e+00 7.665159225463867188e+00 1.980250358581542969e+00 8.851251006126403809e-01
6.843000000000000000e+03 6.011181259155273438e+01 1.338194847106933594e+01 -8.612807393074035645e-01 6.436578750610351562e+00 1.672589421272277832e+00 3.028741776943206787e-01
6.844000000000000000e+03 4.479773330688476562e+01 1.264159011840820312e+01 -3.087190687656402588e-01 1.601742625236511230e+00 3.879070580005645752e-01 3.230233192443847656e-01
6.845000000000000000e+03 4.629080200195312500e+01 1.306856155395507812e+01 -3.055718541145324707e-01 2.002595424652099609e+00 5.091070532798767090e-01 4.479281008243560791e-01
6.846000000000000000e+03 4.819945907592773438e+01 7.832301855087280273e-01 -1.874527633190155029e-01 2.930963754653930664e+00 8.230533003807067871e-01 2.935561537742614746e-01
6.847000000000000000e+03 5.941600799560546875e+01 1.101061820983886719e+01 -7.354180216789245605e-01 6.063873291015625000e+00 1.598536491394042969e+00 3.059449493885040283e-01
6.848000000000000000e+03 6.028355407714843750e+01 1.827185821533203125e+01 -1.062041997909545898e+00 7.180590152740478516e+00 1.835564374923706055e+00 3.996242880821228027e-01
6.849000000000000000e+03 6.009173202514648438e+01 1.962060928344726562e+01 -1.091331362724304199e+00 7.370235443115234375e+00 1.883671283721923828e+00 5.045320391654968262e-01
6.850000000000000000e+03 4.307409286499023438e+01 2.330414772033691406e+00 -1.251585483551025391e-01 1.698335647583007812e+00 4.719531238079071045e-01 2.177518755197525024e-01
6.851000000000000000e+03 5.585478973388671875e+01 -2.030078649520874023e+00 -2.787160277366638184e-01 4.758051395416259766e+00 1.343800544738769531e+00 2.715576887130737305e-01
6.852000000000000000e+03 4.551240539550781250e+01 7.820135951042175293e-01 -1.333722323179244995e-01 2.287755489349365234e+00 6.463149785995483398e-01 2.471275776624679565e-01
6.853000000000000000e+03 4.506034469604492188e+01 1.501109719276428223e+00 -1.365786492824554443e-01 2.173643112182617188e+00 6.111193299293518066e-01 2.526450455188751221e-01
6.854000000000000000e+03 5.716583633422851562e+01 4.778185844421386719e+00 -4.631617665290832520e-01 5.181181907653808594e+00 1.415406107902526855e+00 3.304439485073089600e-01
6.855000000000000000e+03 4.374556732177734375e+01 2.542458295822143555e+00 -1.411796510219573975e-01 1.837956309318542480e+00 5.090329647064208984e-01 2.364904731512069702e-01
6.856000000000000000e+03 5.637463378906250000e+01 -5.007388591766357422e+00 -2.381982207298278809e-01 4.857521057128906250e+00 1.385796785354614258e+00 2.400113344192504883e-01
6.857000000000000000e+03 5.472620010375976562e+01 -2.961947917938232422e+00 -2.522091269493103027e-01 4.496618270874023438e+00 1.273322820663452148e+00 2.659071981906890869e-01
6.858000000000000000e+03 5.761790466308593750e+01 7.986000537872314453e+00 -5.807083249092102051e-01 5.423652648925781250e+00 1.452883243560791016e+00 3.578436672687530518e-01
6.859000000000000000e+03 5.187476730346679688e+01 -2.319922924041748047e+00 -2.210446894168853760e-01 3.826337575912475586e+00 1.081587910652160645e+00 2.564990222454071045e-01
6.860000000000000000e+03 5.680262374877929688e+01 -3.170938491821289062e+00 -2.656988501548767090e-01 4.949504852294921875e+00 1.405141711235046387e+00 2.478536367416381836e-01
6.861000000000000000e+03 5.567726135253906250e+01 2.205447196960449219e+00 -3.655743300914764404e-01 4.761231422424316406e+00 1.318697094917297363e+00 3.227981626987457275e-01
6.862000000000000000e+03 5.631176376342773438e+01 -7.857428550720214844e+00 -2.135284245014190674e-01 4.859910488128662109e+00 1.393914699554443359e+00 2.326929122209548950e-01
6.863000000000000000e+03 5.646030044555664062e+01 5.286859035491943359e+00 -4.671279489994049072e-01 5.013962268829345703e+00 1.364050388336181641e+00 3.563673794269561768e-01
6.864000000000000000e+03 5.568894958496093750e+01 1.824202388525009155e-02 -3.196261227130889893e-01 4.730255126953125000e+00 1.323188662528991699e+00 2.907802164554595947e-01
6.865000000000000000e+03 4.892802429199218750e+01 -1.295708894729614258e+00 -1.712130755186080933e-01 3.139313697814941406e+00 8.904302120208740234e-01 2.601357996463775635e-01
6.866000000000000000e+03 5.109977340698242188e+01 -2.657823801040649414e+00 -2.033642679452896118e-01 3.639214992523193359e+00 1.030755162239074707e+00 2.572671175003051758e-01
6.867000000000000000e+03 5.031927108764648438e+01 -2.793187141418457031e+00 -1.873548328876495361e-01 3.469526767730712891e+00 9.846515655517578125e-01 2.397733181715011597e-01
6.868000000000000000e+03 5.410956192016601562e+01 -6.747767925262451172e+00 -2.079734504222869873e-01 4.381081104278564453e+00 1.251932263374328613e+00 2.193884402513504028e-01
6.869000000000000000e+03 5.520665359497070312e+01 -7.311418533325195312e+00 -2.032203078269958496e-01 4.617965698242187500e+00 1.324423551559448242e+00 2.208643853664398193e-01
6.870000000000000000e+03 5.796092224121093750e+01 -7.222277641296386719e+00 -2.207394838333129883e-01 5.210588455200195312e+00 1.496954679489135742e+00 2.390967309474945068e-01
6.871000000000000000e+03 5.537510681152343750e+01 2.472482490539550781e+01 -2.503030002117156982e-01 5.497926235198974609e+00 1.574286937713623047e+00 1.934845685958862305e+00
6.872000000000000000e+03 5.277423095703125000e+01 2.070793151855468750e+01 -3.277679383754730225e-01 3.953017711639404297e+00 1.087574958801269531e+00 1.271522998809814453e+00
6.873000000000000000e+03 5.823624038696289062e+01 1.816173744201660156e+01 -9.504823088645935059e-01 6.455687046051025391e+00 1.651561498641967773e+00 7.370873093605041504e-01
6.874000000000000000e+03 5.493043518066406250e+01 2.283776664733886719e+01 -4.039594531059265137e-01 5.149952411651611328e+00 1.423797845840454102e+00 1.613605737686157227e+00
6.875000000000000000e+03 5.476293182373046875e+01 2.337396621704101562e+01 -3.229502141475677490e-01 5.051442623138427734e+00 1.418547749519348145e+00 1.704293727874755859e+00
6.876000000000000000e+03 5.711198425292968750e+01 2.535251998901367188e+01 -5.350127220153808594e-01 7.082281112670898438e+00 1.964180588722229004e+00 1.940433859825134277e+00
6.877000000000000000e+03 5.580823516845703125e+01 2.483276557922363281e+01 -3.217480778694152832e-01 5.877295970916748047e+00 1.666664361953735352e+00 1.961518287658691406e+00
6.878000000000000000e+03 5.358414840698242188e+01 2.134951972961425781e+01 -3.616795241832733154e-01 4.349192142486572266e+00 1.196253776550292969e+00 1.377262949943542480e+00
6.879000000000000000e+03 5.946471786499023438e+01 1.982598876953125000e+01 -1.071054935455322266e+00 7.207820415496826172e+00 1.841029644012451172e+00 6.423821449279785156e-01
6.880000000000000000e+03 5.406845474243164062e+01 2.086971473693847656e+01 -4.480265080928802490e-01 4.635687828063964844e+00 1.256298422813415527e+00 1.345835924148559570e+00
6.881000000000000000e+03 4.871688079833984375e+01 1.460240268707275391e+01 -3.358805179595947266e-01 2.649205446243286133e+00 6.939974427223205566e-01 6.450657844543457031e-01
6.882000000000000000e+03 4.974832153320312500e+01 1.775049018859863281e+01 -2.956132292747497559e-01 2.779910564422607422e+00 7.452892065048217773e-01 8.305884599685668945e-01
6.883000000000000000e+03 5.667089080810546875e+01 2.510956001281738281e+01 -4.634732604026794434e-01 6.607802391052246094e+00 1.843298792839050293e+00 1.945939064025878906e+00
6.884000000000000000e+03 5.811349868774414062e+01 2.572020721435546875e+01 -7.169763445854187012e-01 8.020201683044433594e+00 2.190967559814453125e+00 1.752552270889282227e+00
6.885000000000000000e+03 5.211833190917968750e+01 1.919120597839355469e+01 -3.666656613349914551e-01 3.711091279983520508e+00 1.003327608108520508e+00 1.097282767295837402e+00
6.886000000000000000e+03 5.760135269165039062e+01 1.666956329345703125e+01 -8.641368150711059570e-01 6.041592597961425781e+00 1.553236722946166992e+00 6.966851353645324707e-01
6.887000000000000000e+03 5.004129409790039062e+01 1.820084762573242188e+01 -2.858701646327972412e-01 2.870052814483642578e+00 7.752547860145568848e-01 8.781969547271728516e-01
6.888000000000000000e+03 5.134673309326171875e+01 1.815671730041503906e+01 -3.556745648384094238e-01 3.415207624435424805e+00 9.178599119186401367e-01 9.764924645423889160e-01
6.889000000000000000e+03 5.296803665161132812e+01 1.950377845764160156e+01 -4.196651875972747803e-01 4.098984241485595703e+00 1.103795766830444336e+00 1.163607478141784668e+00
6.890000000000000000e+03 5.240382003784179688e+01 1.972238540649414062e+01 -3.526679873466491699e-01 3.820022821426391602e+00 1.040206432342529297e+00 1.163944244384765625e+00
6.891000000000000000e+03 5.119952774047851562e+01 1.902806472778320312e+01 -3.034218251705169678e-01 3.281581640243530273e+00 8.934479355812072754e-01 1.026710748672485352e+00
6.892000000000000000e+03 5.374985885620117188e+01 1.985328865051269531e+01 -4.782709777355194092e-01 4.493216514587402344e+00 1.204483747482299805e+00 1.220120668411254883e+00
6.893000000000000000e+03 5.623602676391601562e+01 2.495132637023925781e+01 -3.970733582973480225e-01 6.242654323577880859e+00 1.753674387931823730e+00 1.953892111778259277e+00
6.894000000000000000e+03 4.292049789428710938e+01 1.113474082946777344e+01 -3.071997165679931641e-01 1.230086326599121094e+00 2.768659889698028564e-01 2.029109597206115723e-01
6.895000000000000000e+03 4.353350448608398438e+01 8.535479545593261719e+00 -2.685048580169677734e-01 1.559154987335205078e+00 3.871950209140777588e-01 2.577510178089141846e-01
6.896000000000000000e+03 4.381480789184570312e+01 9.445362091064453125e+00 -2.830888926982879639e-01 1.565444231033325195e+00 3.847065865993499756e-01 2.750643491744995117e-01
6.897000000000000000e+03 4.944283676147460938e+01 1.618655776977539062e+01 -3.294338285923004150e-01 2.789647579193115234e+00 7.380641102790832520e-01 7.490981221199035645e-01
6.898000000000000000e+03 4.751305770874023438e+01 1.404242610931396484e+01 -3.143233954906463623e-01 2.290438413619995117e+00 5.928344726562500000e-01 5.471323132514953613e-01
6.899000000000000000e+03 4.848167037963867188e+01 1.520110607147216797e+01 -3.179501295089721680e-01 2.533364534378051758e+00 6.646243333816528320e-01 6.464638710021972656e-01
6.900000000000000000e+03 5.765967941284179688e+01 2.701435852050781250e+01 -4.271380603313446045e-01 8.062507629394531250e+00 2.290610790252685547e+00 2.233823060989379883e+00
6.901000000000000000e+03 4.352873611450195312e+01 1.000126075744628906e+01 -2.957003116607666016e-01 1.455739974975585938e+00 3.480119109153747559e-01 2.508450448513031006e-01
6.902000000000000000e+03 4.294102096557617188e+01 9.855774879455566406e+00 -2.957552373409271240e-01 1.335031628608703613e+00 3.117828965187072754e-01 2.137563526630401611e-01
6.903000000000000000e+03 4.331957244873046875e+01 1.047975921630859375e+01 -2.996490299701690674e-01 1.368285775184631348e+00 3.205910325050354004e-01 2.366635054349899292e-01
6.904000000000000000e+03 4.631552505493164062e+01 1.344854259490966797e+01 -3.027328252792358398e-01 1.985577464103698730e+00 5.048533678054809570e-01 4.565527439117431641e-01
6.905000000000000000e+03 4.169601440429687500e+01 6.282076835632324219e+00 -2.267644703388214111e-01 1.240306735038757324e+00 3.040626645088195801e-01 1.744411885738372803e-01
6.906000000000000000e+03 4.252911376953125000e+01 7.002363204956054688e+00 -2.380420714616775513e-01 1.400773763656616211e+00 3.488195240497589111e-01 2.167407572269439697e-01
6.907000000000000000e+03 5.273221206665039062e+01 1.895346450805664062e+01 -4.223130941390991211e-01 4.002590656280517578e+00 1.074083328247070312e+00 1.110487699508666992e+00
6.908000000000000000e+03 5.360426712036132812e+01 2.089385032653808594e+01 -3.952042460441589355e-01 4.392220973968505859e+00 1.199105024337768555e+00 1.340340018272399902e+00
6.909000000000000000e+03 5.924288177490234375e+01 2.349885368347167969e+01 -1.041748046875000000e+00 8.059771537780761719e+00 2.105407238006591797e+00 1.015518069267272949e+00
6.910000000000000000e+03 5.953218841552734375e+01 1.209348678588867188e+01 -7.863377332687377930e-01 6.167527675628662109e+00 1.614356994628906250e+00 3.252774775028228760e-01
6.911000000000000000e+03 4.975711822509765625e+01 1.696624374389648438e+01 -3.219567239284515381e-01 2.864090204238891602e+00 7.626400589942932129e-01 8.038342595100402832e-01
6.912000000000000000e+03 3.855641937255859375e+01 2.751156091690063477e+00 -1.419084370136260986e-01 7.748933434486389160e-01 1.898954808712005615e-01 7.389438897371292114e-02
6.913000000000000000e+03 3.936290359497070312e+01 4.131009578704833984e+00 -1.783850789070129395e-01 8.654045462608337402e-01 2.061058282852172852e-01 8.985744416713714600e-02
6.914000000000000000e+03 4.080440139770507812e+01 5.604964256286621094e+00 -2.134894579648971558e-01 1.087067961692810059e+00 2.620735466480255127e-01 1.403653323650360107e-01
6.915000000000000000e+03 4.749570846557617188e+01 1.301554962992668152e-03 -1.592881977558135986e-01 2.770807266235351562e+00 7.834556698799133301e-01 2.688348293304443359e-01
6.916000000000000000e+03 4.400704574584960938e+01 1.862670421600341797e+00 -1.255050897598266602e-01 1.921318769454956055e+00 5.387440919876098633e-01 2.379979193210601807e-01
6.917000000000000000e+03 5.952315521240234375e+01 1.630093574523925781e+01 -9.640472531318664551e-01 6.624766826629638672e+00 1.698215842247009277e+00 4.545615017414093018e-01
6.918000000000000000e+03 5.900858306884765625e+01 2.478965568542480469e+01 -9.560769796371459961e-01 8.335167884826660156e+00 2.213727474212646484e+00 1.267325639724731445e+00
6.919000000000000000e+03 5.545973968505859375e+01 2.425911712646484375e+01 -3.374154865741729736e-01 5.586000919342041016e+00 1.574575662612915039e+00 1.850215673446655273e+00
6.920000000000000000e+03 4.604557037353515625e+01 1.265079212188720703e+01 -3.065026700496673584e-01 1.949247717857360840e+00 4.928235113620758057e-01 4.257309436798095703e-01
6.921000000000000000e+03 5.980257797241210938e+01 2.434132575988769531e+01 -1.074862122535705566e+00 8.640681266784667969e+00 2.269745826721191406e+00 9.064341783523559570e-01
6.922000000000000000e+03 4.219483947753906250e+01 3.553190231323242188e+00 -1.567546278238296509e-01 1.474867582321166992e+00 3.954339027404785156e-01 1.998028308153152466e-01
6.923000000000000000e+03 4.076004409790039062e+01 4.896578311920166016e+00 -1.969168484210968018e-01 1.112852096557617188e+00 2.747805714607238770e-01 1.403494924306869507e-01
6.924000000000000000e+03 5.759845352172851562e+01 2.557933235168457031e+01 -6.170632243156433105e-01 7.547584056854248047e+00 2.079156160354614258e+00 1.871438145637512207e+00
6.925000000000000000e+03 4.568461227416992188e+01 1.296515655517578125e+01 -3.053997159004211426e-01 1.821257114410400391e+00 4.547572135925292969e-01 3.960470259189605713e-01
6.926000000000000000e+03 4.580991363525390625e+01 1.353050136566162109e+01 -3.032056987285614014e-01 1.818798184394836426e+00 4.546777307987213135e-01 4.042882323265075684e-01
6.927000000000000000e+03 4.307261276245117188e+01 1.081768035888671875e+01 -2.994826734066009521e-01 1.311746358871459961e+00 3.036790788173675537e-01 2.225274592638015747e-01
6.928000000000000000e+03 5.320407867431640625e+01 2.003508186340332031e+01 -4.074706137180328369e-01 4.206591606140136719e+00 1.139736294746398926e+00 1.230722188949584961e+00
6.929000000000000000e+03 5.882626342773437500e+01 9.975906372070312500e+00 -6.816068291664123535e-01 5.821040153503417969e+00 1.541829943656921387e+00 3.341919779777526855e-01
6.930000000000000000e+03 3.934555816650390625e+01 2.776244163513183594e+00 -1.257610917091369629e-01 9.209790825843811035e-01 2.385654002428054810e-01 1.061296835541725159e-01
6.931000000000000000e+03 5.592268753051757812e+01 4.766240596771240234e+00 -4.381229579448699951e-01 4.859045982360839844e+00 1.326276898384094238e+00 3.622645437717437744e-01
6.932000000000000000e+03 5.535174560546875000e+01 9.153770804405212402e-01 -3.288031816482543945e-01 4.661314964294433594e+00 1.299753546714782715e+00 3.071070909500122070e-01
6.933000000000000000e+03 4.624468994140625000e+01 1.330424070358276367e+00 -1.548535525798797607e-01 2.451044797897338867e+00 6.888573765754699707e-01 2.676028609275817871e-01
6.934000000000000000e+03 5.653998565673828125e+01 4.118230819702148438e+00 -4.335323274135589600e-01 4.993370532989501953e+00 1.367951512336730957e+00 3.339038491249084473e-01
6.935000000000000000e+03 4.821128082275390625e+01 -6.442047357559204102e-01 -1.677577346563339233e-01 2.951535701751708984e+00 8.351333737373352051e-01 2.607046365737915039e-01
6.936000000000000000e+03 5.878372192382812500e+01 2.113045883178710938e+01 -1.023781418800354004e+00 7.200520992279052734e+00 1.853021860122680664e+00 8.861510753631591797e-01
6.937000000000000000e+03 5.457812118530273438e+01 2.207302856445312500e+01 -4.276846647262573242e-01 4.948055744171142578e+00 1.356111288070678711e+00 1.507690310478210449e+00
6.938000000000000000e+03 4.162877273559570312e+01 2.088995695114135742e+00 -1.071594581007957458e-01 1.397758722305297852e+00 3.871797621250152588e-01 1.733649820089340210e-01
6.939000000000000000e+03 5.430564498901367188e+01 -3.978196620941162109e+00 -2.308729588985443115e-01 4.395765781402587891e+00 1.249467849731445312e+00 2.530948519706726074e-01
6.940000000000000000e+03 4.012727737426757812e+01 2.038513898849487305e+00 -9.967042505741119385e-02 1.093796372413635254e+00 2.982377707958221436e-01 1.321145892143249512e-01
6.941000000000000000e+03 5.867902755737304688e+01 1.069901752471923828e+01 -7.059409618377685547e-01 5.839624881744384766e+00 1.540105223655700684e+00 3.623746633529663086e-01
6.942000000000000000e+03 5.765991973876953125e+01 5.515057086944580078e+00 -4.954375326633453369e-01 5.333970069885253906e+00 1.451559782028198242e+00 3.219403922557830811e-01
6.943000000000000000e+03 5.895371246337890625e+01 1.166508674621582031e+01 -7.586718201637268066e-01 5.995139598846435547e+00 1.570940375328063965e+00 3.649465143680572510e-01
6.944000000000000000e+03 5.729066467285156250e+01 6.737711906433105469e+00 -5.342913866043090820e-01 5.250775337219238281e+00 1.414945125579833984e+00 3.601382076740264893e-01
6.945000000000000000e+03 5.887346267700195312e+01 1.425925445556640625e+01 -8.552547097206115723e-01 6.192127704620361328e+00 1.601061820983886719e+00 4.420193135738372803e-01
6.946000000000000000e+03 5.935778808593750000e+01 1.493346309661865234e+01 -9.039132595062255859e-01 6.412837028503417969e+00 1.652677059173583984e+00 4.140237271785736084e-01
6.947000000000000000e+03 5.030653762817382812e+01 -9.856604337692260742e-01 -2.086807042360305786e-01 3.445597648620605469e+00 9.710750579833984375e-01 2.830324470996856689e-01
6.948000000000000000e+03 5.924779891967773438e+01 1.369331264495849609e+01 -8.519204258918762207e-01 6.250026702880859375e+00 1.619431853294372559e+00 3.962596058845520020e-01
6.949000000000000000e+03 5.487932205200195312e+01 -2.225340753793716431e-01 -2.976572215557098389e-01 4.538918018341064453e+00 1.272378325462341309e+00 2.970014512538909912e-01
6.950000000000000000e+03 5.500266265869140625e+01 -1.065962076187133789e+00 -2.898032963275909424e-01 4.564241886138916016e+00 1.282331466674804688e+00 2.827648818492889404e-01
6.951000000000000000e+03 5.267837524414062500e+01 -1.907998085021972656e+00 -2.348809242248535156e-01 4.012454032897949219e+00 1.133271932601928711e+00 2.716919779777526855e-01
6.952000000000000000e+03 5.376080322265625000e+01 3.135640621185302734e+00 -3.547214865684509277e-01 4.299823760986328125e+00 1.183530688285827637e+00 3.613445758819580078e-01
6.953000000000000000e+03 5.582887268066406250e+01 3.531064271926879883e+00 -4.026203155517578125e-01 4.820143699645996094e+00 1.325257062911987305e+00 3.409791290760040283e-01
6.954000000000000000e+03 5.487873458862304688e+01 1.712927103042602539e+00 -3.431617915630340576e-01 4.565206050872802734e+00 1.266613245010375977e+00 3.215298652648925781e-01
6.955000000000000000e+03 4.945624923706054688e+01 -2.015876531600952148e+00 -1.769718974828720093e-01 3.271280050277709961e+00 9.282924532890319824e-01 2.483646869659423828e-01
6.956000000000000000e+03 5.361423492431640625e+01 -5.007065773010253906e+00 -2.102083265781402588e-01 4.245956897735595703e+00 1.210724592208862305e+00 2.342071086168289185e-01
6.957000000000000000e+03 5.274697494506835938e+01 -4.195656776428222656e+00 -2.087011635303497314e-01 4.055297374725341797e+00 1.153978943824768066e+00 2.393047809600830078e-01
6.958000000000000000e+03 5.518710708618164062e+01 2.364694404602050781e+01 -3.604521751403808594e-01 5.339807033538818359e+00 1.493806481361389160e+00 1.734204292297363281e+00
6.959000000000000000e+03 5.409506607055664062e+01 2.140962982177734375e+01 -4.120258986949920654e-01 4.647361755371093750e+00 1.270600795745849609e+00 1.414387345314025879e+00
6.960000000000000000e+03 5.596849822998046875e+01 2.392312240600585938e+01 -4.635100364685058594e-01 5.932125091552734375e+00 1.640584588050842285e+00 1.769016027450561523e+00
6.961000000000000000e+03 5.589548110961914062e+01 2.438105010986328125e+01 -3.992836475372314453e-01 5.918819427490234375e+00 1.655860781669616699e+00 1.867310881614685059e+00
6.962000000000000000e+03 5.897837448120117188e+01 1.820759010314941406e+01 -9.975577592849731445e-01 6.740951538085937500e+00 1.723018169403076172e+00 6.150546669960021973e-01
6.963000000000000000e+03 5.459778594970703125e+01 2.083843421936035156e+01 -5.211459398269653320e-01 4.953468799591064453e+00 1.329696893692016602e+00 1.333073377609252930e+00
6.964000000000000000e+03 5.776992416381835938e+01 2.499604988098144531e+01 -7.218255996704101562e-01 7.522982597351074219e+00 2.040347099304199219e+00 1.688398838043212891e+00
6.965000000000000000e+03 4.727721786499023438e+01 1.296066093444824219e+01 -3.193383216857910156e-01 2.286891222000122070e+00 5.902659296989440918e-01 5.075272321701049805e-01
6.966000000000000000e+03 4.673005676269531250e+01 1.300426959991455078e+01 -3.126034736633300781e-01 2.130095720291137695e+00 5.452476143836975098e-01 4.711033999919891357e-01
6.967000000000000000e+03 5.727988433837890625e+01 2.482301139831542969e+01 -6.422088742256164551e-01 7.123285770416259766e+00 1.944323062896728516e+00 1.779166460037231445e+00
6.968000000000000000e+03 5.599316406250000000e+01 2.345513916015625000e+01 -5.285438299179077148e-01 5.927773475646972656e+00 1.619768977165222168e+00 1.673637986183166504e+00
6.969000000000000000e+03 5.634077072143554688e+01 2.450196838378906250e+01 -4.682450890541076660e-01 6.273214340209960938e+00 1.741490840911865234e+00 1.851898550987243652e+00
6.970000000000000000e+03 5.648669052124023438e+01 2.301585006713867188e+01 -6.441871523857116699e-01 6.229054927825927734e+00 1.675460219383239746e+00 1.555384159088134766e+00
6.971000000000000000e+03 5.353926849365234375e+01 1.933290100097656250e+01 -4.818060696125030518e-01 4.402684688568115234e+00 1.176263570785522461e+00 1.170691490173339844e+00
6.972000000000000000e+03 5.830024719238281250e+01 1.451980209350585938e+01 -8.457884788513183594e-01 6.042006969451904297e+00 1.558865547180175781e+00 5.085581541061401367e-01
6.973000000000000000e+03 5.083685302734375000e+01 1.848432350158691406e+01 -3.104597032070159912e-01 3.170249223709106445e+00 8.579367995262145996e-01 9.609518647193908691e-01
6.974000000000000000e+03 4.909407043457031250e+01 1.540768909454345703e+01 -3.340729475021362305e-01 2.725790739059448242e+00 7.175153493881225586e-01 6.972545385360717773e-01
6.975000000000000000e+03 5.019769668579101562e+01 1.739592552185058594e+01 -3.247204720973968506e-01 2.994973897933959961e+00 8.010759949684143066e-01 8.557590842247009277e-01
6.976000000000000000e+03 4.483920669555664062e+01 1.183955574035644531e+01 -3.005810379981994629e-01 1.685755252838134766e+00 4.155522584915161133e-01 3.333587944507598877e-01
6.977000000000000000e+03 4.377837753295898438e+01 1.087439346313476562e+01 -2.996536493301391602e-01 1.457738280296325684e+00 3.474254012107849121e-01 2.612582743167877197e-01
6.978000000000000000e+03 5.856657409667968750e+01 2.400068283081054688e+01 -9.298785328865051270e-01 7.806925296783447266e+00 2.063114166259765625e+00 1.294272422790527344e+00
6.979000000000000000e+03 5.752061843872070312e+01 2.317379760742187500e+01 -8.093029856681823730e-01 6.935727119445800781e+00 1.837927222251892090e+00 1.422584533691406250e+00
6.980000000000000000e+03 4.897251892089843750e+01 1.399562740325927734e+01 -3.551194369792938232e-01 2.772388458251953125e+00 7.251806855201721191e-01 6.399933695793151855e-01
6.981000000000000000e+03 4.443491744995117188e+01 9.851418495178222656e+00 -2.909690439701080322e-01 1.699567198753356934e+00 4.225794672966003418e-01 3.106127083301544189e-01
6.982000000000000000e+03 4.835555648803710938e+01 1.376537799835205078e+01 -3.378430604934692383e-01 2.580174922943115234e+00 6.726995706558227539e-01 5.944716930389404297e-01
6.983000000000000000e+03 5.394415664672851562e+01 2.035363388061523438e+01 -4.723234474658966064e-01 4.581473827362060547e+00 1.232745051383972168e+00 1.280647873878479004e+00
6.984000000000000000e+03 4.371366882324218750e+01 7.978032588958740234e+00 -2.602666020393371582e-01 1.632693529129028320e+00 4.117280840873718262e-01 2.694068849086761475e-01
6.985000000000000000e+03 5.926948928833007812e+01 2.283318901062011719e+01 -1.058249950408935547e+00 7.841248989105224609e+00 2.034899711608886719e+00 9.299301505088806152e-01
6.986000000000000000e+03 5.867009735107421875e+01 2.277525138854980469e+01 -9.941561818122863770e-01 7.536268711090087891e+00 1.962633848190307617e+00 1.101729750633239746e+00
6.987000000000000000e+03 5.052977371215820312e+01 1.792726516723632812e+01 -3.221316635608673096e-01 3.085475683212280273e+00 8.290032148361206055e-01 9.028897881507873535e-01
6.988000000000000000e+03 5.153833007812500000e+01 1.733905410766601562e+01 -4.008373916149139404e-01 3.542062282562255859e+00 9.423674345016479492e-01 9.361756443977355957e-01
6.989000000000000000e+03 5.921607589721679688e+01 2.077332496643066406e+01 -1.063091516494750977e+00 7.299572944641113281e+00 1.870944499969482422e+00 7.660006880760192871e-01
6.990000000000000000e+03 5.465304565429687500e+01 2.146008110046386719e+01 -4.856505393981933594e-01 4.990860462188720703e+00 1.351562976837158203e+00 1.420748829841613770e+00
6.991000000000000000e+03 4.519259262084960938e+01 1.234486865997314453e+01 -2.999515533447265625e-01 1.739290833473205566e+00 4.318017661571502686e-01 3.626478016376495361e-01
6.992000000000000000e+03 4.574221038818359375e+01 1.214470958709716797e+01 -3.048317432403564453e-01 1.895619869232177734e+00 4.772364497184753418e-01 3.950635492801666260e-01
6.993000000000000000e+03 5.916249847412109375e+01 2.416209220886230469e+01 -1.006722092628479004e+00 8.212743759155273438e+00 2.161806344985961914e+00 1.133228302001953125e+00
6.994000000000000000e+03 4.920602416992187500e+01 1.340156364440917969e+01 -3.679358661174774170e-01 2.896707057952880859e+00 7.586314082145690918e-01 6.392161846160888672e-01
6.995000000000000000e+03 4.162388229370117188e+01 5.588522434234619141e+00 -2.122212946414947510e-01 1.267992138862609863e+00 3.167312443256378174e-01 1.769128888845443726e-01
6.996000000000000000e+03 5.001594924926757812e+01 1.644009590148925781e+01 -3.416622877120971680e-01 2.995509862899780273e+00 7.961542606353759766e-01 8.026839494705200195e-01
6.997000000000000000e+03 5.056834030151367188e+01 1.656141662597656250e+01 -3.664346933364868164e-01 3.185311555862426758e+00 8.456630706787109375e-01 8.412998914718627930e-01
6.998000000000000000e+03 4.081147384643554688e+01 3.491569519042968750e+00 -1.524194031953811646e-01 1.186951875686645508e+00 3.103597462177276611e-01 1.503504961729049683e-01
6.999000000000000000e+03 3.932477188110351562e+01 3.470734596252441406e+00 -1.574338376522064209e-01 8.959313631057739258e-01 2.215492427349090576e-01 9.848028421401977539e-02
7.000000000000000000e+03 5.827942657470703125e+01 2.516299438476562500e+01 -8.046262860298156738e-01 7.962069034576416016e+00 2.147233009338378906e+00 1.588148474693298340e+00
7.001000000000000000e+03 5.072240066528320312e+01 1.709667778015136719e+01 -3.582802414894104004e-01 3.206638097763061523e+00 8.545073866844177246e-01 8.727909326553344727e-01
7.002000000000000000e+03 4.529030609130859375e+01 2.526224851608276367e+00 -1.613799929618835449e-01 2.205089807510375977e+00 6.131129860877990723e-01 2.747606635093688965e-01
7.003000000000000000e+03 4.321231842041015625e+01 7.204897403717041016e+00 -2.432064414024353027e-01 1.544024586677551270e+00 3.902454376220703125e-01 2.405184507369995117e-01
7.004000000000000000e+03 4.079668045043945312e+01 4.188170909881591797e+00 -1.650942265987396240e-01 1.155082821846008301e+00 2.969965934753417969e-01 1.495196670293807983e-01
7.005000000000000000e+03 5.948177719116210938e+01 1.711036300659179688e+01 -9.897003173828125000e-01 6.721400737762451172e+00 1.719510197639465332e+00 4.940787255764007568e-01
7.006000000000000000e+03 5.885687637329101562e+01 1.734774017333984375e+01 -9.660255908966064453e-01 6.564302444458007812e+00 1.679483056068420410e+00 5.865164995193481445e-01
7.007000000000000000e+03 5.914461135864257812e+01 1.906237602233886719e+01 -1.025827050209045410e+00 6.937635421752929688e+00 1.773542523384094238e+00 6.573839783668518066e-01
7.008000000000000000e+03 5.884519577026367188e+01 2.007649230957031250e+01 -1.021754860877990723e+00 7.024351119995117188e+00 1.800778865814208984e+00 7.830308079719543457e-01
7.009000000000000000e+03 5.224272918701171875e+01 -3.225880622863769531e+00 -2.169876545667648315e-01 3.916787385940551758e+00 1.109939932823181152e+00 2.538831830024719238e-01
7.010000000000000000e+03 4.958119201660156250e+01 -4.984340071678161621e-01 -1.987527757883071899e-01 3.273782730102539062e+00 9.225090146064758301e-01 2.845005989074707031e-01
7.011000000000000000e+03 5.864295196533203125e+01 2.161988830566406250e+01 -1.008210897445678711e+00 7.233755111694335938e+00 1.867663264274597168e+00 9.780955314636230469e-01
7.012000000000000000e+03 5.910176467895507812e+01 2.160086441040039062e+01 -1.056505680084228516e+00 7.471004962921142578e+00 1.924349904060363770e+00 8.438652157783508301e-01
7.013000000000000000e+03 5.850112152099609375e+01 1.934125328063964844e+01 -9.871711134910583496e-01 6.721223831176757812e+00 1.720215916633605957e+00 7.732163667678833008e-01
7.014000000000000000e+03 5.901990509033203125e+01 1.267958927154541016e+01 -8.043622374534606934e-01 6.084863185882568359e+00 1.584150314331054688e+00 3.877830803394317627e-01
7.015000000000000000e+03 5.433654403686523438e+01 2.445103883743286133e+00 -3.459534943103790283e-01 4.436117172241210938e+00 1.227049112319946289e+00 3.416046500205993652e-01
7.016000000000000000e+03 5.404995727539062500e+01 -1.815155148506164551e+00 -2.590650320053100586e-01 4.339292049407958984e+00 1.224068045616149902e+00 2.765296101570129395e-01
7.017000000000000000e+03 4.468061447143554688e+01 2.168933868408203125e+00 -1.450383216142654419e-01 2.065920352935791016e+00 5.762646198272705078e-01 2.544655203819274902e-01
7.018000000000000000e+03 4.572688674926757812e+01 1.950724124908447266e+00 -1.580470204353332520e-01 2.317796468734741211e+00 6.479248404502868652e-01 2.716729938983917236e-01
7.019000000000000000e+03 5.448657608032226562e+01 3.679986715316772461e+00 -3.849762976169586182e-01 4.485447406768798828e+00 1.230141282081604004e+00 3.677318692207336426e-01
7.020000000000000000e+03 5.508601379394531250e+01 2.973459959030151367e+00 -3.798384964466094971e-01 4.628481864929199219e+00 1.274593114852905273e+00 3.438484966754913330e-01
7.021000000000000000e+03 5.675832366943359375e+01 7.496034622192382812e+00 -5.421084761619567871e-01 5.154636859893798828e+00 1.383758544921875000e+00 3.858477175235748291e-01
7.022000000000000000e+03 4.421583175659179688e+01 8.854748725891113281e+00 -2.757713198661804199e-01 1.715061306953430176e+00 4.317869842052459717e-01 2.975522875785827637e-01
7.023000000000000000e+03 5.854529953002929688e+01 1.524769783020019531e+01 -8.810541033744812012e-01 6.204596996307373047e+00 1.597062826156616211e+00 5.202256441116333008e-01
7.024000000000000000e+03 5.837660598754882812e+01 1.130662822723388672e+01 -7.228838205337524414e-01 5.818791866302490234e+00 1.528772473335266113e+00 3.922819197177886963e-01
7.025000000000000000e+03 4.008393478393554688e+01 3.467828750610351562e+00 -1.446638852357864380e-01 1.039012432098388672e+00 2.683045566082000732e-01 1.291218698024749756e-01
7.026000000000000000e+03 5.456152343750000000e+01 5.430586338043212891e-01 -3.162473142147064209e-01 4.476873874664306641e+00 1.248187899589538574e+00 3.075296878814697266e-01
7.027000000000000000e+03 4.087844085693359375e+01 2.044248104095458984e+00 -1.094044148921966553e-01 1.242949604988098145e+00 3.400635421276092529e-01 1.510425060987472534e-01
7.028000000000000000e+03 4.236377716064453125e+01 2.180932998657226562e+00 -1.198873370885848999e-01 1.545832872390747070e+00 4.277836382389068604e-01 1.935984641313552856e-01
7.029000000000000000e+03 5.680950927734375000e+01 6.032790660858154297e+00 -5.021907687187194824e-01 5.122180938720703125e+00 1.385996937751770020e+00 3.612470924854278564e-01
7.030000000000000000e+03 5.549584579467773438e+01 2.244526672363281250e+01 -5.293124318122863770e-01 5.538446426391601562e+00 1.502740263938903809e+00 1.548537492752075195e+00
7.031000000000000000e+03 5.855086517333984375e+01 1.327167415618896484e+01 -8.064712882041931152e-01 5.985488891601562500e+00 1.553705215454101562e+00 4.487921893596649170e-01
7.032000000000000000e+03 5.334255599975585938e+01 -1.395463585853576660e+00 -2.568008005619049072e-01 4.176499843597412109e+00 1.175909638404846191e+00 2.806835174560546875e-01
7.033000000000000000e+03 5.860070037841796875e+01 1.609979438781738281e+01 -9.144312739372253418e-01 6.315658569335937500e+00 1.620368123054504395e+00 5.470465421676635742e-01
7.034000000000000000e+03 5.837029266357421875e+01 1.683032608032226562e+01 -9.215719699859619141e-01 6.348645210266113281e+00 1.628121972084045410e+00 6.173293590545654297e-01
7.035000000000000000e+03 5.018421554565429688e+01 -1.862400889396667480e+00 -1.860594302415847778e-01 3.419489383697509766e+00 9.700289964675903320e-01 2.666690051555633545e-01
7.036000000000000000e+03 5.089546585083007812e+01 -1.878971695899963379e+00 -2.052470147609710693e-01 3.604297876358032227e+00 1.019715309143066406e+00 2.689547240734100342e-01
7.037000000000000000e+03 5.805579757690429688e+01 1.053053665161132812e+01 -6.842623353004455566e-01 5.692739963531494141e+00 1.502543330192565918e+00 3.927765190601348877e-01
7.038000000000000000e+03 5.573092269897460938e+01 -3.200558900833129883e+00 -2.519764304161071777e-01 4.726729869842529297e+00 1.342426061630249023e+00 2.559517025947570801e-01
7.039000000000000000e+03 5.422220230102539062e+01 -4.395315051078796387e-01 -2.890206873416900635e-01 4.394939899444580078e+00 1.231775760650634766e+00 2.952910065650939941e-01
7.040000000000000000e+03 5.533412551879882812e+01 -4.424006938934326172e+00 -2.436631917953491211e-01 4.634000301361083984e+00 1.317101120948791504e+00 2.494554519653320312e-01
7.041000000000000000e+03 4.291289138793945312e+01 2.988934516906738281e+00 -1.456820666790008545e-01 1.637332320213317871e+00 4.474950730800628662e-01 2.176609188318252563e-01
7.042000000000000000e+03 4.222981643676757812e+01 4.212672233581542969e+00 -1.648551821708679199e-01 1.453555226325988770e+00 3.866100013256072998e-01 2.058890908956527710e-01
7.043000000000000000e+03 5.506395339965820312e+01 2.229506683349609375e+01 -4.731847643852233887e-01 5.242297649383544922e+00 1.430733799934387207e+00 1.520305037498474121e+00
7.044000000000000000e+03 5.747375106811523438e+01 2.373260879516601562e+01 -7.696584463119506836e-01 7.026121616363525391e+00 1.876939058303833008e+00 1.527466773986816406e+00
7.045000000000000000e+03 5.642274856567382812e+01 2.402471542358398438e+01 -5.440672636032104492e-01 6.295449256896972656e+00 1.725414514541625977e+00 1.751492261886596680e+00
7.046000000000000000e+03 5.524330902099609375e+01 2.143057823181152344e+01 -5.609790086746215820e-01 5.324300289154052734e+00 1.428996324539184570e+00 1.401896476745605469e+00
7.047000000000000000e+03 5.810309219360351562e+01 2.210234451293945312e+01 -9.405500292778015137e-01 7.076364040374755859e+00 1.840744137763977051e+00 1.155184149742126465e+00
7.048000000000000000e+03 5.647038269042968750e+01 2.352901840209960938e+01 -6.043304800987243652e-01 6.287535190582275391e+00 1.704961419105529785e+00 1.653903484344482422e+00
7.049000000000000000e+03 5.552293014526367188e+01 2.342884254455566406e+01 -4.435946643352508545e-01 5.576209068298339844e+00 1.539784312248229980e+00 1.697683334350585938e+00
7.050000000000000000e+03 5.597170257568359375e+01 2.245266532897949219e+01 -5.990544557571411133e-01 5.827421188354492188e+00 1.568510055541992188e+00 1.515819907188415527e+00
7.051000000000000000e+03 5.754651641845703125e+01 2.201741027832031250e+01 -8.667322993278503418e-01 6.749547004699707031e+00 1.764844417572021484e+00 1.240957379341125488e+00
7.052000000000000000e+03 5.174103927612304688e+01 1.866584014892578125e+01 -3.656556606292724609e-01 3.578136444091796875e+00 9.637442827224731445e-01 1.036247491836547852e+00
7.053000000000000000e+03 5.249319076538085938e+01 1.799565887451171875e+01 -4.511385560035705566e-01 3.966269016265869141e+00 1.054539084434509277e+00 1.016134977340698242e+00
7.054000000000000000e+03 5.582902908325195312e+01 2.135576820373535156e+01 -6.477902531623840332e-01 5.677628517150878906e+00 1.508951544761657715e+00 1.349460482597351074e+00
7.055000000000000000e+03 5.408678817749023438e+01 1.920404815673828125e+01 -5.410813093185424805e-01 4.669379234313964844e+00 1.238489389419555664e+00 1.156956553459167480e+00
7.056000000000000000e+03 5.429866409301757812e+01 1.972241020202636719e+01 -5.379154086112976074e-01 4.771110534667968750e+00 1.269958496093750000e+00 1.213356375694274902e+00
7.057000000000000000e+03 4.934714508056640625e+01 1.482303905487060547e+01 -3.529192507266998291e-01 2.856578111648559570e+00 7.510976791381835938e-01 6.925636529922485352e-01
7.058000000000000000e+03 4.485644912719726562e+01 9.307193756103515625e+00 -2.838930785655975342e-01 1.845778822898864746e+00 4.685657322406768799e-01 3.333488106727600098e-01
7.059000000000000000e+03 5.575135803222656250e+01 2.075587463378906250e+01 -6.659531593322753906e-01 5.566699504852294922e+00 1.470223903656005859e+00 1.283954977989196777e+00
7.060000000000000000e+03 5.812200164794921875e+01 2.150570106506347656e+01 -9.516397714614868164e-01 6.970354557037353516e+00 1.805614471435546875e+00 1.066666007041931152e+00
7.061000000000000000e+03 4.657651519775390625e+01 1.248245906829833984e+01 -3.146264851093292236e-01 2.122339248657226562e+00 5.423138141632080078e-01 4.558871686458587646e-01
7.062000000000000000e+03 5.790593338012695312e+01 2.442901420593261719e+01 -7.939235568046569824e-01 7.484484672546386719e+00 2.007168292999267578e+00 1.551114678382873535e+00
7.063000000000000000e+03 4.364116287231445312e+01 6.839818477630615234e+00 -2.381586730480194092e-01 1.664576530456542969e+00 4.279253780841827393e-01 2.688936293125152588e-01
7.064000000000000000e+03 4.152015686035156250e+01 3.522666692733764648e+00 -1.435318440198898315e-01 1.327443361282348633e+00 3.551734387874603271e-01 1.772689968347549438e-01
7.065000000000000000e+03 4.010041809082031250e+01 2.770710468292236328e+00 -1.308663785457611084e-01 1.066483855247497559e+00 2.806852161884307861e-01 1.285463869571685791e-01
7.066000000000000000e+03 4.967917251586914062e+01 1.563415145874023438e+01 -3.480389416217803955e-01 2.923365354537963867e+00 7.725979089736938477e-01 7.484819293022155762e-01
7.067000000000000000e+03 5.752156829833984375e+01 1.035287666320800781e+01 -6.637130975723266602e-01 5.480309963226318359e+00 1.444979071617126465e+00 4.264485538005828857e-01
7.068000000000000000e+03 5.697103500366210938e+01 9.972828865051269531e+00 -6.404113769531250000e-01 5.318964481353759766e+00 1.403565883636474609e+00 4.530858099460601807e-01
7.069000000000000000e+03 5.396419525146484375e+01 1.815539169311523438e+01 -5.670511722564697266e-01 4.598323822021484375e+00 1.209381818771362305e+00 1.052900791168212891e+00
7.070000000000000000e+03 5.102586364746093750e+01 1.763320350646972656e+01 -3.553204834461212158e-01 3.300648212432861328e+00 8.835983276367187500e-01 9.279762506484985352e-01
7.071000000000000000e+03 4.961478042602539062e+01 1.422340106964111328e+01 -3.749370276927947998e-01 2.990684032440185547e+00 7.847240567207336426e-01 6.857978701591491699e-01
7.072000000000000000e+03 5.791711425781250000e+01 1.969049072265625000e+01 -9.349191188812255859e-01 6.535887718200683594e+00 1.680290579795837402e+00 9.140612483024597168e-01
7.073000000000000000e+03 5.866046142578125000e+01 2.217828750610351562e+01 -9.999247789382934570e-01 7.364645957946777344e+00 1.909416317939758301e+00 1.025080680847167969e+00
7.074000000000000000e+03 5.809525299072265625e+01 2.269127273559570312e+01 -9.160478711128234863e-01 7.182514190673828125e+00 1.879939913749694824e+00 1.229063868522644043e+00
7.075000000000000000e+03 4.444162750244140625e+01 7.448103427886962891e+00 -2.518511414527893066e-01 1.833886742591857910e+00 4.746106863021850586e-01 3.019747436046600342e-01
7.076000000000000000e+03 5.825433349609375000e+01 1.388356685638427734e+01 -8.190337419509887695e-01 5.962707519531250000e+00 1.543102145195007324e+00 4.883728027343750000e-01
7.077000000000000000e+03 4.243768310546875000e+01 5.559523105621337891e+00 -2.017199695110321045e-01 1.445170283317565918e+00 3.730351030826568604e-01 2.145649045705795288e-01
7.078000000000000000e+03 4.443294525146484375e+01 4.297239780426025391e+00 -1.882632523775100708e-01 1.945412755012512207e+00 5.271448493003845215e-01 2.828674018383026123e-01
7.079000000000000000e+03 5.022690963745117188e+01 1.586898422241210938e+01 -3.714248538017272949e-01 3.120441675186157227e+00 8.247050046920776367e-01 7.849360108375549316e-01
7.080000000000000000e+03 5.844199371337890625e+01 2.459233665466308594e+01 -8.791623115539550781e-01 7.898035526275634766e+00 2.105661869049072266e+00 1.427399754524230957e+00
7.081000000000000000e+03 5.104172134399414062e+01 1.639247894287109375e+01 -3.969803452491760254e-01 3.393808126449584961e+00 8.990483283996582031e-01 8.617405295372009277e-01
7.082000000000000000e+03 5.520732498168945312e+01 4.270824909210205078e+00 -4.162455201148986816e-01 4.678996562957763672e+00 1.278825283050537109e+00 3.627699911594390869e-01
7.083000000000000000e+03 4.889160919189453125e+01 1.589518904685974121e+00 -2.155080437660217285e-01 3.087278127670288086e+00 8.615310192108154297e-01 3.225235641002655029e-01
7.084000000000000000e+03 5.486573028564453125e+01 1.956857872009277344e+01 -6.127178668975830078e-01 5.075096607208251953e+00 1.338713645935058594e+00 1.174939155578613281e+00
7.085000000000000000e+03 5.214609527587890625e+01 1.828379249572753906e+01 -4.045228660106658936e-01 3.775373220443725586e+00 1.011255025863647461e+00 1.032784461975097656e+00
7.086000000000000000e+03 5.448132705688476562e+01 2.026066017150878906e+01 -5.380843877792358398e-01 4.861151218414306641e+00 1.296920061111450195e+00 1.263324379920959473e+00
7.087000000000000000e+03 4.857087707519531250e+01 1.312861347198486328e+01 -3.485001325607299805e-01 2.693651437759399414e+00 7.035453915596008301e-01 5.875834226608276367e-01
7.088000000000000000e+03 4.717375564575195312e+01 1.238571071624755859e+01 -3.208281695842742920e-01 2.297580957412719727e+00 5.930258035659790039e-01 4.944892227649688721e-01
7.089000000000000000e+03 5.340949630737304688e+01 7.731282711029052734e-01 -2.996690869331359863e-01 4.194413661956787109e+00 1.168423295021057129e+00 3.128188550472259521e-01
7.090000000000000000e+03 4.496053695678710938e+01 3.097953796386718750e+00 -1.705630719661712646e-01 2.107753992080688477e+00 5.811572670936584473e-01 2.751845121383666992e-01
7.091000000000000000e+03 4.437238311767578125e+01 2.807209968566894531e+00 -1.529799699783325195e-01 1.979902744293212891e+00 5.480768680572509766e-01 2.604090571403503418e-01
7.092000000000000000e+03 4.543713378906250000e+01 1.156757354736328125e+01 -3.048514723777770996e-01 1.849720597267150879e+00 4.634607434272766113e-01 3.703252077102661133e-01
7.093000000000000000e+03 4.635460281372070312e+01 1.193967819213867188e+01 -3.114469349384307861e-01 2.098688364028930664e+00 5.361723899841308594e-01 4.399392604827880859e-01
7.094000000000000000e+03 5.590133666992187500e+01 7.171311378479003906e+00 -5.219544172286987305e-01 4.928468227386474609e+00 1.321954131126403809e+00 4.167473614215850830e-01
7.095000000000000000e+03 5.498727416992187500e+01 5.609266281127929688e+00 -4.463429152965545654e-01 4.650223731994628906e+00 1.261164188385009766e+00 3.993709981441497803e-01
7.096000000000000000e+03 4.890024566650390625e+01 1.255703449249267578e+01 -3.613496720790863037e-01 2.818351268768310547e+00 7.371004819869995117e-01 5.953248739242553711e-01
7.097000000000000000e+03 5.565488052368164062e+01 8.951734542846679688e+00 -5.644978284835815430e-01 4.914859294891357422e+00 1.305108428001403809e+00 4.703022539615631104e-01
7.098000000000000000e+03 5.696153259277343750e+01 8.776705741882324219e+00 -5.915210843086242676e-01 5.270964622497558594e+00 1.403833031654357910e+00 4.074045419692993164e-01
7.099000000000000000e+03 4.888083648681640625e+01 1.537128984928131104e-01 -1.929230690002441406e-01 3.095802307128906250e+00 8.708637952804565430e-01 2.900083363056182861e-01
7.100000000000000000e+03 4.748041152954101562e+01 2.673530578613281250e+00 -2.056517153978347778e-01 2.729511260986328125e+00 7.571578621864318848e-01 3.245524466037750244e-01
7.101000000000000000e+03 4.443868637084960938e+01 8.172881126403808594e+00 -2.601727247238159180e-01 1.802156090736389160e+00 4.625950157642364502e-01 3.109430670738220215e-01
7.102000000000000000e+03 4.581141662597656250e+01 2.924812793731689453e+00 -1.767270565032958984e-01 2.321293354034423828e+00 6.433699131011962891e-01 2.916460931301116943e-01
7.103000000000000000e+03 4.499972152709960938e+01 5.298841953277587891e+00 -2.197896987199783325e-01 2.048226356506347656e+00 5.485309958457946777e-01 3.023594915866851807e-01
7.104000000000000000e+03 4.495501708984375000e+01 1.025829696655273438e+01 -2.937442064285278320e-01 1.827568888664245605e+00 4.601474106311798096e-01 3.366185724735260010e-01
7.105000000000000000e+03 5.823371887207031250e+01 1.744553184509277344e+01 -9.369454383850097656e-01 6.365159511566162109e+00 1.628464102745056152e+00 6.893001198768615723e-01
7.106000000000000000e+03 4.155698394775390625e+01 2.815896511077880859e+00 -1.342703104019165039e-01 1.361883997917175293e+00 3.682841062545776367e-01 1.743385493755340576e-01
7.107000000000000000e+03 4.155739593505859375e+01 4.903437137603759766e+00 -1.863884776830673218e-01 1.283288240432739258e+00 3.290699422359466553e-01 1.815358251333236694e-01
7.108000000000000000e+03 5.559962844848632812e+01 7.907767295837402344e+00 -5.269318222999572754e-01 4.879036426544189453e+00 1.305631399154663086e+00 4.449408650398254395e-01
7.109000000000000000e+03 4.232956695556640625e+01 4.873749732971191406e+00 -1.944940686225891113e-01 1.448780894279479980e+00 3.762860298156738281e-01 2.053246647119522095e-01
7.110000000000000000e+03 4.310728836059570312e+01 4.765163898468017578e+00 -1.846381723880767822e-01 1.623777270317077637e+00 4.317417144775390625e-01 2.400759756565093994e-01
7.111000000000000000e+03 5.683856201171875000e+01 1.263389778137207031e+01 -7.267321944236755371e-01 5.437067031860351562e+00 1.413100481033325195e+00 5.463203787803649902e-01
7.112000000000000000e+03 5.786757659912109375e+01 1.103179931640625000e+01 -6.991136074066162109e-01 5.657701969146728516e+00 1.487576603889465332e+00 4.135766625404357910e-01
7.113000000000000000e+03 5.375922012329101562e+01 -8.054634928703308105e-01 -2.712836265563964844e-01 4.282453060150146484e+00 1.203350901603698730e+00 2.875119447708129883e-01
7.114000000000000000e+03 5.384123611450195312e+01 -2.676112651824951172e+00 -2.460170239210128784e-01 4.297455787658691406e+00 1.215431690216064453e+00 2.675177454948425293e-01
7.115000000000000000e+03 5.128893280029296875e+01 -7.232456207275390625e-01 -2.280981391668319702e-01 3.660381078720092773e+00 1.029684901237487793e+00 2.919990718364715576e-01
7.116000000000000000e+03 5.349501037597656250e+01 -3.467300653457641602e+00 -2.284145355224609375e-01 4.228434085845947266e+00 1.200005769729614258e+00 2.515223622322082520e-01
7.117000000000000000e+03 5.289000701904296875e+01 -8.133146762847900391e-01 -2.627799808979034424e-01 4.059608459472656250e+00 1.139048457145690918e+00 2.888265550136566162e-01
7.118000000000000000e+03 5.146356201171875000e+01 -1.632561445236206055e+00 -2.189197093248367310e-01 3.742413043975830078e+00 1.057047963142395020e+00 2.747999429702758789e-01
7.119000000000000000e+03 5.411680603027343750e+01 1.251519203186035156e+00 -3.174264132976531982e-01 4.371681690216064453e+00 1.216276645660400391e+00 3.227244615554809570e-01
7.120000000000000000e+03 5.303947067260742188e+01 -2.756932258605957031e+00 -2.333434224128723145e-01 4.103837013244628906e+00 1.161148071289062500e+00 2.551313638687133789e-01
7.121000000000000000e+03 5.428615951538085938e+01 -1.064597368240356445e+00 -2.737674713134765625e-01 4.405681610107421875e+00 1.239574313163757324e+00 2.851720154285430908e-01
7.122000000000000000e+03 5.598597335815429688e+01 2.296909141540527344e+01 -5.636819005012512207e-01 5.908072948455810547e+00 1.603317379951477051e+00 1.604004859924316406e+00
7.123000000000000000e+03 5.546391677856445312e+01 2.294811248779296875e+01 -4.795865416526794434e-01 5.535005092620849609e+00 1.516625523567199707e+00 1.620116353034973145e+00
7.124000000000000000e+03 5.591522979736328125e+01 2.191854476928710938e+01 -6.359136104583740234e-01 5.756792068481445312e+00 1.536263585090637207e+00 1.429224252700805664e+00
7.125000000000000000e+03 5.699542999267578125e+01 2.308458137512207031e+01 -7.313002347946166992e-01 6.590871810913085938e+00 1.757871389389038086e+00 1.501573204994201660e+00
7.126000000000000000e+03 5.696316909790039062e+01 2.362270736694335938e+01 -6.837949752807617188e-01 6.640558719635009766e+00 1.787029147148132324e+00 1.599272370338439941e+00
7.127000000000000000e+03 5.261361312866210938e+01 1.843353271484375000e+01 -4.401820898056030273e-01 3.969256877899169922e+00 1.058722376823425293e+00 1.070619344711303711e+00
7.128000000000000000e+03 4.467665863037109375e+01 1.079696655273437500e+01 -2.955555915832519531e-01 1.708938717842102051e+00 4.240149557590484619e-01 3.221949934959411621e-01
7.129000000000000000e+03 5.800576400756835938e+01 2.385808563232421875e+01 -8.496660590171813965e-01 7.399558544158935547e+00 1.964967727661132812e+00 1.427158713340759277e+00
7.130000000000000000e+03 5.822090911865234375e+01 2.025234413146972656e+01 -9.704915881156921387e-01 6.795098781585693359e+00 1.747382164001464844e+00 9.032289981842041016e-01
7.131000000000000000e+03 5.739466094970703125e+01 2.428224563598632812e+01 -7.112933993339538574e-01 7.074956893920898438e+00 1.909099102020263672e+00 1.642597436904907227e+00
7.132000000000000000e+03 5.644954299926757812e+01 2.191760826110839844e+01 -7.114381790161132812e-01 6.086019992828369141e+00 1.612374544143676758e+00 1.383707284927368164e+00
7.133000000000000000e+03 5.575972747802734375e+01 1.787290954589843750e+01 -7.361320257186889648e-01 5.391478538513183594e+00 1.396603941917419434e+00 9.558605551719665527e-01
7.134000000000000000e+03 5.803300857543945312e+01 1.880292701721191406e+01 -9.409465789794921875e-01 6.490620613098144531e+00 1.664902210235595703e+00 7.954373359680175781e-01
7.135000000000000000e+03 5.335526275634765625e+01 1.878276824951171875e+01 -4.882604181766510010e-01 4.326294898986816406e+00 1.151410222053527832e+00 1.108019709587097168e+00
7.136000000000000000e+03 5.864158248901367188e+01 2.338973617553710938e+01 -9.652975797653198242e-01 7.668258666992187500e+00 2.010888338088989258e+00 1.188810348510742188e+00
7.137000000000000000e+03 5.025106811523437500e+01 1.446907997131347656e+01 -3.925020098686218262e-01 3.189336776733398438e+00 8.390504121780395508e-01 7.271482944488525391e-01
7.138000000000000000e+03 4.995036315917968750e+01 1.506081295013427734e+01 -3.786403238773345947e-01 3.061223745346069336e+00 8.047749996185302734e-01 7.374227046966552734e-01
7.139000000000000000e+03 5.626106643676757812e+01 2.009874725341796875e+01 -7.559450268745422363e-01 5.817591190338134766e+00 1.518493771553039551e+00 1.152884244918823242e+00
7.140000000000000000e+03 5.806729888916015625e+01 2.327832603454589844e+01 -8.920253515243530273e-01 7.310691833496093750e+00 1.925599932670593262e+00 1.321866035461425781e+00
7.141000000000000000e+03 5.516241073608398438e+01 2.079302787780761719e+01 -5.948798656463623047e-01 5.254741668701171875e+00 1.397958636283874512e+00 1.320118665695190430e+00
7.142000000000000000e+03 5.458456420898437500e+01 1.906803512573242188e+01 -5.971092581748962402e-01 4.904962539672851562e+00 1.292356014251708984e+00 1.126092076301574707e+00
7.143000000000000000e+03 4.516691589355468750e+01 7.457085609436035156e+00 -2.566684484481811523e-01 2.006525039672851562e+00 5.249570012092590332e-01 3.322863280773162842e-01
7.144000000000000000e+03 4.509680175781250000e+01 6.736725807189941406e+00 -2.447205781936645508e-01 2.021426916122436523e+00 5.330119132995605469e-01 3.231538534164428711e-01
7.145000000000000000e+03 4.986178970336914062e+01 1.361953639984130859e+01 -3.850909173488616943e-01 3.084171772003173828e+00 8.097242116928100586e-01 6.742657423019409180e-01
7.146000000000000000e+03 5.051517868041992188e+01 1.532601547241210938e+01 -3.904663026332855225e-01 3.240113496780395508e+00 8.548941612243652344e-01 7.753158211708068848e-01
7.147000000000000000e+03 4.435597991943359375e+01 6.754500865936279297e+00 -2.386273741722106934e-01 1.844531416893005371e+00 4.817712008953094482e-01 2.943204641342163086e-01
7.148000000000000000e+03 4.340509033203125000e+01 6.192555904388427734e+00 -2.188472151756286621e-01 1.638182163238525391e+00 4.258004724979400635e-01 2.546503543853759766e-01
7.149000000000000000e+03 5.128170776367187500e+01 1.684221649169921875e+01 -3.976182937622070312e-01 3.469046115875244141e+00 9.214283227920532227e-01 8.966579437255859375e-01
7.150000000000000000e+03 4.523912811279296875e+01 8.205432891845703125e+00 -2.704970538616180420e-01 1.988153696060180664e+00 5.152969956398010254e-01 3.430262506008148193e-01
7.151000000000000000e+03 5.290410232543945312e+01 1.782268142700195312e+01 -4.855154454708099365e-01 4.100686073303222656e+00 1.084551215171813965e+00 1.021065473556518555e+00
7.152000000000000000e+03 5.749568557739257812e+01 1.383293628692626953e+01 -7.866217494010925293e-01 5.740765094757080078e+00 1.486242890357971191e+00 5.434002876281738281e-01
7.153000000000000000e+03 5.103529739379882812e+01 1.563935089111328125e+01 -4.122688174247741699e-01 3.421644210815429688e+00 9.028126001358032227e-01 8.153539896011352539e-01
7.154000000000000000e+03 5.241386413574218750e+01 1.618509292602539062e+01 -4.851910173892974854e-01 3.958900928497314453e+00 1.042112946510314941e+00 8.887012600898742676e-01
7.155000000000000000e+03 5.769269180297851562e+01 1.598757839202880859e+01 -8.608044385910034180e-01 5.974438667297363281e+00 1.534090280532836914e+00 6.579547524452209473e-01
7.156000000000000000e+03 5.768890380859375000e+01 1.527261447906494141e+01 -8.435577154159545898e-01 5.919955253601074219e+00 1.522919297218322754e+00 6.153969168663024902e-01
7.157000000000000000e+03 5.755417633056640625e+01 1.917362594604492188e+01 -9.066348671913146973e-01 6.342684268951416016e+00 1.630814790725708008e+00 9.174218773841857910e-01
7.158000000000000000e+03 5.181228256225585938e+01 1.783346748352050781e+01 -3.969984650611877441e-01 3.637614965438842773e+00 9.721849560737609863e-01 9.866102933883666992e-01
7.159000000000000000e+03 4.527913665771484375e+01 1.101334190368652344e+01 -2.957367002964019775e-01 1.852832555770874023e+00 4.671287536621093750e-01 3.602446019649505615e-01
7.160000000000000000e+03 5.332431030273437500e+01 -3.034680485725402832e-01 -2.741744220256805420e-01 4.174640655517578125e+00 1.170139908790588379e+00 2.893418967723846436e-01
7.161000000000000000e+03 5.178379821777343750e+01 -1.064771413803100586e+00 -2.287698537111282349e-01 3.820349693298339844e+00 1.077473998069763184e+00 2.796145379543304443e-01
7.162000000000000000e+03 5.794903182983398438e+01 1.181116485595703125e+01 -7.340160608291625977e-01 5.722787380218505859e+00 1.496631383895874023e+00 4.385964870452880859e-01
7.163000000000000000e+03 5.792571258544921875e+01 1.277397155761718750e+01 -7.745077013969421387e-01 5.780511379241943359e+00 1.501801133155822754e+00 4.743163585662841797e-01
7.164000000000000000e+03 4.791347122192382812e+01 1.295540714263916016e+01 -3.376681208610534668e-01 2.497841119766235352e+00 6.480518579483032227e-01 5.568423867225646973e-01
7.165000000000000000e+03 4.546806716918945312e+01 8.921083450317382812e+00 -2.780133783817291260e-01 2.011214017868041992e+00 5.199601650238037109e-01 3.588120937347412109e-01
7.166000000000000000e+03 4.631468582153320312e+01 2.497383117675781250e+00 -1.791551709175109863e-01 2.441139459609985352e+00 6.785953044891357422e-01 2.888950407505035400e-01
7.167000000000000000e+03 5.752271270751953125e+01 1.800407218933105469e+01 -8.934780955314636230e-01 6.131150245666503906e+00 1.571301698684692383e+00 8.186088800430297852e-01
7.168000000000000000e+03 4.581392288208007812e+01 9.524209022521972656e+00 -2.917050123214721680e-01 2.075403928756713867e+00 5.351096391677856445e-01 3.867671787738800049e-01
7.169000000000000000e+03 5.821320724487304688e+01 2.089029884338378906e+01 -9.711310267448425293e-01 6.908793449401855469e+00 1.781298756599426270e+00 9.647455811500549316e-01
7.170000000000000000e+03 5.756779479980468750e+01 2.078845024108886719e+01 -8.878610134124755859e-01 6.518881797790527344e+00 1.689306259155273438e+00 1.078933119773864746e+00
7.171000000000000000e+03 4.690408706665039062e+01 1.971300005912780762e+00 -1.793862432241439819e-01 2.598751068115234375e+00 7.258093953132629395e-01 2.981205880641937256e-01
7.172000000000000000e+03 4.551271057128906250e+01 3.367574453353881836e+00 -1.876485347747802734e-01 2.225036144256591797e+00 6.112162470817565918e-01 2.909611165523529053e-01
7.173000000000000000e+03 5.146279525756835938e+01 3.081318736076354980e-01 -2.472011893987655640e-01 3.718909263610839844e+00 1.041512370109558105e+00 3.119253814220428467e-01
7.174000000000000000e+03 4.818681335449218750e+01 2.150562047958374023e+00 -2.076675593852996826e-01 2.914729833602905273e+00 8.121186494827270508e-01 3.235661387443542480e-01
7.175000000000000000e+03 4.280128860473632812e+01 3.586927890777587891e+00 -1.572525501251220703e-01 1.595515131950378418e+00 4.314787685871124268e-01 2.163935601711273193e-01
7.176000000000000000e+03 5.699381256103515625e+01 2.195231056213378906e+01 -7.891573309898376465e-01 6.424696922302246094e+00 1.690661907196044922e+00 1.319792032241821289e+00
7.177000000000000000e+03 5.507568359375000000e+01 7.099162101745605469e+00 -4.929655790328979492e-01 4.685484409332275391e+00 1.257755756378173828e+00 4.366213977336883545e-01
7.178000000000000000e+03 5.594472503662109375e+01 6.320388793945312500e+00 -4.926879703998565674e-01 4.905575275421142578e+00 1.323866128921508789e+00 3.931645154953002930e-01
7.179000000000000000e+03 4.389293670654296875e+01 4.641982555389404297e+00 -1.932321935892105103e-01 1.815127015113830566e+00 4.865684509277343750e-01 2.609351873397827148e-01
7.180000000000000000e+03 4.411752319335937500e+01 3.422603607177734375e+00 -1.650412827730178833e-01 1.890224218368530273e+00 5.175548791885375977e-01 2.568747997283935547e-01
7.181000000000000000e+03 5.079960632324218750e+01 -2.468036711215972900e-01 -2.302879244089126587e-01 3.552772521972656250e+00 9.967453479766845703e-01 2.974311411380767822e-01
7.182000000000000000e+03 5.644807815551757812e+01 1.060497856140136719e+01 -6.432676315307617188e-01 5.197253704071044922e+00 1.366195797920227051e+00 4.937441051006317139e-01
7.183000000000000000e+03 5.630392456054687500e+01 9.497088432312011719e+00 -6.011844873428344727e-01 5.109447479248046875e+00 1.352478861808776855e+00 4.613577127456665039e-01
7.184000000000000000e+03 4.699226760864257812e+01 1.179666233062744141e+01 -3.131645619869232178e-01 2.286078453063964844e+00 5.918741822242736816e-01 4.777314364910125732e-01
7.185000000000000000e+03 4.763325119018554688e+01 1.168974399566650391e+01 -3.313512206077575684e-01 2.489721775054931641e+00 6.475111842155456543e-01 5.068571567535400391e-01
7.186000000000000000e+03 5.020782852172851562e+01 3.237676024436950684e-01 -2.228088378906250000e-01 3.421985626220703125e+00 9.597530364990234375e-01 3.130866289138793945e-01
7.187000000000000000e+03 4.152285385131835938e+01 4.217438697814941406e+00 -1.740615069866180420e-01 1.301758408546447754e+00 3.383090794086456299e-01 1.756728142499923706e-01
7.188000000000000000e+03 5.625703430175781250e+01 8.292516708374023438e+00 -5.581458806991577148e-01 5.060580253601074219e+00 1.350730299949645996e+00 4.275234043598175049e-01
7.189000000000000000e+03 5.388929367065429688e+01 4.328876495361328125e+00 -3.885687291622161865e-01 4.348540782928466797e+00 1.187991619110107422e+00 3.850400745868682861e-01
7.190000000000000000e+03 4.959783172607421875e+01 2.457316637039184570e+00 -2.455589026212692261e-01 3.266727685928344727e+00 9.063506126403808594e-01 3.460874557495117188e-01
7.191000000000000000e+03 5.095473098754882812e+01 -1.260872960090637207e+00 -2.116751372814178467e-01 3.608135938644409180e+00 1.018938183784484863e+00 2.828035950660705566e-01
7.192000000000000000e+03 5.179308319091796875e+01 -3.784757554531097412e-01 -2.526727020740509033e-01 3.813643217086791992e+00 1.068291187286376953e+00 2.982861995697021484e-01
7.193000000000000000e+03 5.697420501708984375e+01 2.135138320922851562e+01 -8.090710639953613281e-01 6.321671009063720703e+00 1.653779983520507812e+00 1.239981532096862793e+00
7.194000000000000000e+03 5.754150772094726562e+01 2.260241699218750000e+01 -8.448593616485595703e-01 6.854391574859619141e+00 1.802859663963317871e+00 1.332738876342773438e+00
7.195000000000000000e+03 5.228110122680664062e+01 1.755724716186523438e+01 -4.497474133968353271e-01 3.880192518234252930e+00 1.029133558273315430e+00 9.746094346046447754e-01
7.196000000000000000e+03 5.182383728027343750e+01 1.652740478515625000e+01 -4.391977190971374512e-01 3.697696685791015625e+00 9.775496721267700195e-01 8.974277377128601074e-01
7.197000000000000000e+03 5.314927291870117188e+01 1.826105308532714844e+01 -4.909982085227966309e-01 4.222837448120117188e+00 1.119551777839660645e+00 1.064133048057556152e+00
7.198000000000000000e+03 5.746880340576171875e+01 1.861239242553710938e+01 -8.834735155105590820e-01 6.169213771820068359e+00 1.585722088813781738e+00 8.842744231224060059e-01
7.199000000000000000e+03 5.392638015747070312e+01 1.867434692382812500e+01 -5.463229417800903320e-01 4.592761039733886719e+00 1.213931322097778320e+00 1.106117844581604004e+00
7.200000000000000000e+03 4.581256484985351562e+01 1.088068485260009766e+01 -3.004316687583923340e-01 2.019088745117187500e+00 5.155971050262451172e-01 4.013876914978027344e-01
7.201000000000000000e+03 4.532492065429687500e+01 9.821411132812500000e+00 -2.893991172313690186e-01 1.939921259880065918e+00 4.951566457748413086e-01 3.551846444606781006e-01
7.202000000000000000e+03 5.640266036987304688e+01 2.133436775207519531e+01 -7.354489564895629883e-01 6.006900787353515625e+00 1.581435561180114746e+00 1.305856823921203613e+00
7.203000000000000000e+03 5.507256698608398438e+01 2.015797996520996094e+01 -6.139040589332580566e-01 5.197175979614257812e+00 1.374981641769409180e+00 1.240814208984375000e+00
7.204000000000000000e+03 5.700355911254882812e+01 2.252795600891113281e+01 -7.632210850715637207e-01 6.504412651062011719e+00 1.722357511520385742e+00 1.405469775199890137e+00
7.205000000000000000e+03 4.289064025878906250e+01 4.139263153076171875e+00 -1.736217439174652100e-01 1.610381126403808594e+00 4.310277998447418213e-01 2.264206856489181519e-01
7.206000000000000000e+03 4.386647033691406250e+01 4.022239685058593750e+00 -1.772498339414596558e-01 1.814007401466369629e+00 4.910272657871246338e-01 2.534200847148895264e-01
7.207000000000000000e+03 4.582875823974609375e+01 6.046555042266845703e+00 -2.410093992948532104e-01 2.231905698776245117e+00 5.972688794136047363e-01 3.401956558227539062e-01
7.208000000000000000e+03 5.678178024291992188e+01 1.657601356506347656e+01 -8.100851178169250488e-01 5.714650630950927734e+00 1.471369743347167969e+00 7.802864313125610352e-01
7.209000000000000000e+03 5.588595199584960938e+01 1.964273452758789062e+01 -7.264830470085144043e-01 5.585757255554199219e+00 1.457782268524169922e+00 1.139371633529663086e+00
7.210000000000000000e+03 5.085084915161132812e+01 1.477423572540283203e+01 -4.212327301502227783e-01 3.379456996917724609e+00 8.874673247337341309e-01 7.614026069641113281e-01
7.211000000000000000e+03 5.691717147827148438e+01 2.001101303100585938e+01 -8.338634371757507324e-01 6.132193565368652344e+00 1.589498996734619141e+00 1.082057952880859375e+00
7.212000000000000000e+03 4.542142105102539062e+01 1.056897544860839844e+01 -3.031312227249145508e-01 1.919564843177795410e+00 4.849300682544708252e-01 3.639887869358062744e-01
7.213000000000000000e+03 4.610795974731445312e+01 1.136450099945068359e+01 -3.018787205219268799e-01 2.066446304321289062e+00 5.293703079223632812e-01 4.196763336658477783e-01
7.214000000000000000e+03 5.499891662597656250e+01 1.884398841857910156e+01 -6.475241184234619141e-01 5.086186885833740234e+00 1.331598877906799316e+00 1.099024891853332520e+00
7.215000000000000000e+03 5.141511154174804688e+01 1.515421199798583984e+01 -4.426483809947967529e-01 3.582785129547119141e+00 9.420410394668579102e-01 7.972496151924133301e-01
7.216000000000000000e+03 4.591140747070312500e+01 7.422686100006103516e+00 -2.680217027664184570e-01 2.192648172378540039e+00 5.773879885673522949e-01 3.648013770580291748e-01
7.217000000000000000e+03 4.326263809204101562e+01 5.472395896911621094e+00 -2.095610797405242920e-01 1.629930496215820312e+00 4.261108338832855225e-01 2.448346316814422607e-01
7.218000000000000000e+03 4.783823013305664062e+01 1.231327152252197266e+01 -3.303559422492980957e-01 2.515337228775024414e+00 6.554943919181823730e-01 5.368673205375671387e-01
7.219000000000000000e+03 5.056848526000976562e+01 1.383553028106689453e+01 -4.177967607975006104e-01 3.328547000885009766e+00 8.732250332832336426e-01 7.077528238296508789e-01
7.220000000000000000e+03 4.946041488647460938e+01 1.232296657562255859e+01 -3.848490715026855469e-01 3.003000020980834961e+00 7.854452729225158691e-01 6.079723238945007324e-01
7.221000000000000000e+03 5.600040435791015625e+01 1.635141372680664062e+01 -7.489353418350219727e-01 5.408792972564697266e+00 1.397957205772399902e+00 8.215759396553039551e-01
7.222000000000000000e+03 5.758660125732421875e+01 1.455500221252441406e+01 -8.141515851020812988e-01 5.840732097625732422e+00 1.507974147796630859e+00 5.815841555595397949e-01
7.223000000000000000e+03 5.579938888549804688e+01 1.025728225708007812e+01 -6.070784330368041992e-01 5.012872219085693359e+00 1.321738243103027344e+00 5.036941766738891602e-01
7.224000000000000000e+03 5.754014205932617188e+01 1.733792304992675781e+01 -8.809248805046081543e-01 6.104548454284667969e+00 1.567087054252624512e+00 7.552036643028259277e-01
7.225000000000000000e+03 5.278834152221679688e+01 1.738249206542968750e+01 -4.864105880260467529e-01 4.095556735992431641e+00 1.082743763923645020e+00 9.771620631217956543e-01
7.226000000000000000e+03 5.207627105712890625e+01 1.705484580993652344e+01 -4.436842203140258789e-01 3.789519786834716797e+00 1.003750681877136230e+00 9.387771487236022949e-01
7.227000000000000000e+03 5.694945526123046875e+01 2.071585655212402344e+01 -8.280904889106750488e-01 6.244438171386718750e+00 1.624904274940490723e+00 1.178546547889709473e+00
7.228000000000000000e+03 4.589077377319335938e+01 5.344687938690185547e+00 -2.281554043292999268e-01 2.271179676055908203e+00 6.129072904586791992e-01 3.361420929431915283e-01
7.229000000000000000e+03 4.610440826416015625e+01 3.444738864898681641e+00 -1.981049478054046631e-01 2.371587753295898438e+00 6.520448923110961914e-01 3.054458200931549072e-01
7.230000000000000000e+03 4.956695175170898438e+01 9.674553275108337402e-01 -2.214475423097610474e-01 3.254455089569091797e+00 9.099022150039672852e-01 3.137273192405700684e-01
7.231000000000000000e+03 4.877120590209960938e+01 2.946338653564453125e+00 -2.376696765422821045e-01 3.043160676956176758e+00 8.416473269462585449e-01 3.537074327468872070e-01
7.232000000000000000e+03 5.754277801513671875e+01 1.140219020843505859e+01 -6.969860196113586426e-01 5.567052364349365234e+00 1.461019873619079590e+00 4.512148499488830566e-01
7.233000000000000000e+03 5.455257797241210938e+01 4.903684616088867188e+00 -4.158574640750885010e-01 4.533122539520263672e+00 1.235179424285888672e+00 3.926480114459991455e-01
7.234000000000000000e+03 5.333491134643554688e+01 4.937299251556396484e+00 -3.865647614002227783e-01 4.212230682373046875e+00 1.147699713706970215e+00 4.098958671092987061e-01
7.235000000000000000e+03 5.163293838500976562e+01 1.544980049133300781e+00 -2.752266824245452881e-01 3.746397495269775391e+00 1.041351199150085449e+00 3.436110317707061768e-01
7.236000000000000000e+03 4.677912902832031250e+01 3.164647102355957031e+00 -2.044253796339035034e-01 2.540419578552246094e+00 7.007982730865478516e-01 3.179528415203094482e-01
7.237000000000000000e+03 4.583980941772460938e+01 6.734528064727783203e+00 -2.497417777776718140e-01 2.204462766647338867e+00 5.864163041114807129e-01 3.519022464752197266e-01
7.238000000000000000e+03 4.331805038452148438e+01 3.782103776931762695e+00 -1.689290404319763184e-01 1.711007356643676758e+00 4.626235067844390869e-01 2.369189858436584473e-01
7.239000000000000000e+03 5.123307418823242188e+01 1.418469047546386719e+01 -4.423489570617675781e-01 3.543976783752441406e+00 9.304883480072021484e-01 7.435621619224548340e-01
7.240000000000000000e+03 4.941537475585937500e+01 1.285930442810058594e+01 -3.712510764598846436e-01 2.972874641418457031e+00 7.804870605468750000e-01 6.297535896301269531e-01
7.241000000000000000e+03 5.397546386718750000e+01 6.282944679260253906e+00 -4.456033408641815186e-01 4.387424945831298828e+00 1.182546496391296387e+00 4.335739612579345703e-01
7.242000000000000000e+03 5.574790954589843750e+01 5.486814975738525391e+00 -4.614983499050140381e-01 4.832479476928710938e+00 1.311294317245483398e+00 3.765112459659576416e-01
7.243000000000000000e+03 5.218354797363281250e+01 8.373536467552185059e-01 -2.726971805095672607e-01 3.888314962387084961e+00 1.084685325622558594e+00 3.235359191894531250e-01
7.244000000000000000e+03 5.288410568237304688e+01 1.408692836761474609e+00 -2.967582643032073975e-01 4.070106983184814453e+00 1.132004499435424805e+00 3.339711725711822510e-01
7.245000000000000000e+03 5.317330932617187500e+01 3.803601741790771484e+00 -3.608520925045013428e-01 4.153828144073486328e+00 1.137892842292785645e+00 3.858838081359863281e-01
7.246000000000000000e+03 5.491287994384765625e+01 7.800366401672363281e+00 -5.064967274665832520e-01 4.672594070434570312e+00 1.249829173088073730e+00 4.549734592437744141e-01
7.247000000000000000e+03 5.003559494018554688e+01 1.301027774810791016e+01 -3.983062207698822021e-01 3.159286975860595703e+00 8.282942175865173340e-01 6.578114628791809082e-01
7.248000000000000000e+03 5.449806976318359375e+01 8.834645271301269531e+00 -5.175682902336120605e-01 4.594073295593261719e+00 1.222951531410217285e+00 5.022945404052734375e-01
7.249000000000000000e+03 5.693867492675781250e+01 1.523886013031005859e+01 -7.968363165855407715e-01 5.658945083618164062e+00 1.458632588386535645e+00 6.732754707336425781e-01
7.250000000000000000e+03 5.393174743652343750e+01 5.410090923309326172e+00 -4.197218120098114014e-01 4.370659351348876953e+00 1.185281276702880859e+00 4.127710759639739990e-01
7.251000000000000000e+03 5.672371292114257812e+01 1.390627384185791016e+01 -7.512973546981811523e-01 5.485412597656250000e+00 1.420234560966491699e+00 6.150007843971252441e-01
7.252000000000000000e+03 5.387664413452148438e+01 1.578767448663711548e-01 -2.931683361530303955e-01 4.308897018432617188e+00 1.204718589782714844e+00 3.040713369846343994e-01
7.253000000000000000e+03 5.240755081176757812e+01 -4.153738915920257568e-01 -2.543845474720001221e-01 3.925596237182617188e+00 1.101363539695739746e+00 3.019710481166839600e-01
7.254000000000000000e+03 5.277922821044921875e+01 2.263346314430236816e-01 -2.732099890708923340e-01 4.023838043212890625e+00 1.125188350677490234e+00 3.089144229888916016e-01
7.255000000000000000e+03 5.634708023071289062e+01 2.072373390197753906e+01 -7.513638138771057129e-01 5.931495189666748047e+00 1.554039359092712402e+00 1.211014270782470703e+00
7.256000000000000000e+03 5.267648315429687500e+01 1.683045387268066406e+01 -4.931754767894744873e-01 4.061964988708496094e+00 1.070636749267578125e+00 9.370176196098327637e-01
7.257000000000000000e+03 5.355074310302734375e+01 1.795102691650390625e+01 -5.379179120063781738e-01 4.417414665222167969e+00 1.163848996162414551e+00 1.036765336990356445e+00
7.258000000000000000e+03 5.619506072998046875e+01 1.574940490722656250e+01 -7.612437009811401367e-01 5.445106029510498047e+00 1.405158758163452148e+00 7.585856318473815918e-01
7.259000000000000000e+03 5.439889526367187500e+01 1.863621520996093750e+01 -5.940873026847839355e-01 4.805461406707763672e+00 1.263412117958068848e+00 1.088518977165222168e+00
7.260000000000000000e+03 5.688447570800781250e+01 1.927316474914550781e+01 -8.382970690727233887e-01 6.037891387939453125e+00 1.559878349304199219e+00 1.005724906921386719e+00
7.261000000000000000e+03 5.473608398437500000e+01 1.848249244689941406e+01 -6.251028180122375488e-01 4.975796699523925781e+00 1.305208206176757812e+00 1.068493247032165527e+00
7.262000000000000000e+03 5.568572998046875000e+01 2.015066337585449219e+01 -6.843091845512390137e-01 5.493484497070312500e+00 1.442752718925476074e+00 1.213035821914672852e+00
7.263000000000000000e+03 5.687400436401367188e+01 1.858927726745605469e+01 -8.382803201675415039e-01 5.951927661895751953e+00 1.534094214439392090e+00 9.256739020347595215e-01
7.264000000000000000e+03 4.610578155517578125e+01 1.049782943725585938e+01 -3.042329847812652588e-01 2.108882665634155273e+00 5.413949489593505859e-01 4.137767255306243896e-01
7.265000000000000000e+03 5.180004119873046875e+01 1.464222621917724609e+01 -4.715818464756011963e-01 3.737128019332885742e+00 9.796639084815979004e-01 7.871037721633911133e-01
7.266000000000000000e+03 5.535372543334960938e+01 1.927419090270996094e+01 -6.677193641662597656e-01 5.296811103820800781e+00 1.388727545738220215e+00 1.122146964073181152e+00
7.267000000000000000e+03 5.226120376586914062e+01 6.882193565368652344e+00 -4.114189445972442627e-01 3.919517993927001953e+00 1.052429676055908203e+00 4.698653817176818848e-01
7.268000000000000000e+03 5.760225677490234375e+01 2.015541458129882812e+01 -9.095590114593505859e-01 6.471586704254150391e+00 1.668608307838439941e+00 1.010083794593811035e+00
7.269000000000000000e+03 5.755118179321289062e+01 2.141193008422851562e+01 -8.787797093391418457e-01 6.654867172241210938e+00 1.732826232910156250e+00 1.159616470336914062e+00
7.270000000000000000e+03 4.679050064086914062e+01 1.118456077575683594e+01 -3.124321699142456055e-01 2.263625383377075195e+00 5.853579640388488770e-01 4.569760859012603760e-01
7.271000000000000000e+03 4.747542572021484375e+01 1.108512020111083984e+01 -3.266257643699645996e-01 2.465120553970336914e+00 6.415483951568603516e-01 4.820213317871093750e-01
7.272000000000000000e+03 5.567008590698242188e+01 1.887203598022460938e+01 -7.116925120353698730e-01 5.427480697631835938e+00 1.414736390113830566e+00 1.071043729782104492e+00
7.273000000000000000e+03 5.619581985473632812e+01 1.912623405456542969e+01 -7.615712881088256836e-01 5.688615798950195312e+00 1.478113412857055664e+00 1.055022239685058594e+00
7.274000000000000000e+03 4.423131179809570312e+01 6.063510894775390625e+00 -2.243314832448959351e-01 1.847764611244201660e+00 4.870299398899078369e-01 2.865030467510223389e-01
7.275000000000000000e+03 5.628540039062500000e+01 1.852417182922363281e+01 -7.892065644264221191e-01 5.714372634887695312e+00 1.477549910545349121e+00 9.697590470314025879e-01
7.276000000000000000e+03 5.238443756103515625e+01 1.507073402404785156e+01 -4.990960657596588135e-01 3.956517219543457031e+00 1.037226319313049316e+00 8.224401473999023438e-01
7.277000000000000000e+03 5.197999572753906250e+01 1.560634899139404297e+01 -4.735774099826812744e-01 3.804081439971923828e+00 9.991511702537536621e-01 8.461966514587402344e-01
7.278000000000000000e+03 5.183914947509765625e+01 7.975528717041015625e+00 -4.136684238910675049e-01 3.802956581115722656e+00 1.016786456108093262e+00 5.068672299385070801e-01
7.279000000000000000e+03 4.847549819946289062e+01 1.208831596374511719e+01 -3.525122404098510742e-01 2.724041700363159180e+00 7.114588618278503418e-01 5.597293376922607422e-01
7.280000000000000000e+03 5.689784622192382812e+01 1.590043258666992188e+01 -8.089713454246520996e-01 5.702835083007812500e+00 1.468159079551696777e+00 7.181468605995178223e-01
7.281000000000000000e+03 5.031669998168945312e+01 1.773737668991088867e+00 -2.497474253177642822e-01 3.434871196746826172e+00 9.555371403694152832e-01 3.380416333675384521e-01
7.282000000000000000e+03 4.590375137329101562e+01 4.673972129821777344e+00 -2.188899964094161987e-01 2.294790506362915039e+00 6.227701306343078613e-01 3.275622427463531494e-01
7.283000000000000000e+03 5.306826782226562500e+01 1.527639865875244141e+01 -5.396169424057006836e-01 4.204563617706298828e+00 1.099483966827392578e+00 8.368597626686096191e-01
7.284000000000000000e+03 5.090511322021484375e+01 1.000490665435791016e+00 -2.461282312870025635e-01 3.585402011871337891e+00 1.001782059669494629e+00 3.235583901405334473e-01
7.285000000000000000e+03 5.179759216308593750e+01 3.931338310241699219e+00 -3.296639621257781982e-01 3.784933567047119141e+00 1.036580920219421387e+00 3.928034901618957520e-01
7.286000000000000000e+03 4.665774917602539062e+01 7.371641635894775391e+00 -2.741275429725646973e-01 2.395363569259643555e+00 6.363708376884460449e-01 3.887858092784881592e-01
7.287000000000000000e+03 4.721693038940429688e+01 3.854254961013793945e+00 -2.236049771308898926e-01 2.632916688919067383e+00 7.227935194969177246e-01 3.417467772960662842e-01
7.288000000000000000e+03 5.393165588378906250e+01 1.768161010742187500e+01 -5.774800777435302734e-01 4.597942352294921875e+00 1.206138730049133301e+00 1.015895605087280273e+00
7.289000000000000000e+03 5.679701995849609375e+01 1.109344100952148438e+01 -6.705393791198730469e-01 5.356696605682373047e+00 1.405847191810607910e+00 4.884825348854064941e-01
7.290000000000000000e+03 5.735892486572265625e+01 1.091658592224121094e+01 -6.752023100852966309e-01 5.478347778320312500e+00 1.440943717956542969e+00 4.441707730293273926e-01
7.291000000000000000e+03 5.017679977416992188e+01 3.466702938079833984e+00 -2.836555242538452148e-01 3.398465156555175781e+00 9.344428777694702148e-01 3.797551691532135010e-01
7.292000000000000000e+03 5.181190109252929688e+01 2.707036256790161133e+00 -2.951761782169342041e-01 3.829231262207031250e+00 1.060216546058654785e+00 3.635632991790771484e-01
7.293000000000000000e+03 5.546601486206054688e+01 1.107735538482666016e+01 -6.237438321113586426e-01 4.939439296722412109e+00 1.294708609580993652e+00 5.563598871231079102e-01
7.294000000000000000e+03 5.347229385375976562e+01 5.941028118133544922e+00 -4.232996404170989990e-01 4.256328582763671875e+00 1.149908661842346191e+00 4.364620745182037354e-01
7.295000000000000000e+03 5.304616165161132812e+01 2.605049371719360352e+00 -3.195451200008392334e-01 4.120779514312744141e+00 1.140370249748229980e+00 3.538065254688262939e-01
7.296000000000000000e+03 5.222838592529296875e+01 1.416087341308593750e+01 -4.952836036682128906e-01 3.907516717910766602e+00 1.023669958114624023e+00 7.750632762908935547e-01
7.297000000000000000e+03 5.436568069458007812e+01 7.026070117950439453e+00 -4.733461141586303711e-01 4.515349388122558594e+00 1.212600946426391602e+00 4.422673285007476807e-01
7.298000000000000000e+03 5.512997436523437500e+01 6.377438545227050781e+00 -4.758577644824981689e-01 4.696490287780761719e+00 1.266189813613891602e+00 4.214490354061126709e-01
7.299000000000000000e+03 4.619279861450195312e+01 8.749488830566406250e+00 -2.879828512668609619e-01 2.222210407257080078e+00 5.802683234214782715e-01 3.910502791404724121e-01
7.300000000000000000e+03 4.411193084716796875e+01 5.337791919708251953e+00 -2.074668109416961670e-01 1.838530182838439941e+00 4.893190264701843262e-01 2.784204483032226562e-01
7.301000000000000000e+03 5.659481430053710938e+01 1.320511627197265625e+01 -7.252412438392639160e-01 5.401160240173339844e+00 1.402775764465332031e+00 5.875118970870971680e-01
7.302000000000000000e+03 5.686599349975585938e+01 1.457572460174560547e+01 -7.730090022087097168e-01 5.581211090087890625e+00 1.442460536956787109e+00 6.319556832313537598e-01
7.303000000000000000e+03 5.520973587036132812e+01 1.776630020141601562e+01 -6.901702880859375000e-01 5.140735149383544922e+00 1.335169434547424316e+00 9.946425557136535645e-01
7.304000000000000000e+03 5.560965347290039062e+01 1.689598274230957031e+01 -7.321115136146545410e-01 5.295366764068603516e+00 1.368976593017578125e+00 8.803095221519470215e-01
7.305000000000000000e+03 5.730926895141601562e+01 1.315193843841552734e+01 -7.589865922927856445e-01 5.653395652770996094e+00 1.468322753906250000e+00 5.314848423004150391e-01
7.306000000000000000e+03 5.415842819213867188e+01 7.711614131927490234e+00 -4.842516481876373291e-01 4.475706577301025391e+00 1.197436451911926270e+00 4.695735275745391846e-01
7.307000000000000000e+03 5.506339645385742188e+01 1.004364013671875000e+01 -5.805766582489013672e-01 4.795680522918701172e+00 1.264531135559082031e+00 5.259929299354553223e-01
7.308000000000000000e+03 5.112129974365234375e+01 2.294310092926025391e+00 -2.833690345287322998e-01 3.613802671432495117e+00 9.991300702095031738e-01 3.624991178512573242e-01
7.309000000000000000e+03 4.803238296508789062e+01 1.040474128723144531e+01 -3.336604833602905273e-01 2.656350851058959961e+00 6.968071460723876953e-01 4.974382817745208740e-01
7.310000000000000000e+03 5.442196273803710938e+01 1.823711967468261719e+01 -6.032701134681701660e-01 4.807628631591796875e+00 1.261307477951049805e+00 1.058647274971008301e+00
7.311000000000000000e+03 5.331488037109375000e+01 1.663230323791503906e+01 -5.383090972900390625e-01 4.309115409851074219e+00 1.131241798400878906e+00 9.393999576568603516e-01
7.312000000000000000e+03 5.101836776733398438e+01 1.204830265045166016e+01 -4.350854754447937012e-01 3.527107715606689453e+00 9.276066422462463379e-01 6.422517299652099609e-01
7.313000000000000000e+03 5.504486465454101562e+01 1.819618988037109375e+01 -6.608615517616271973e-01 5.108845710754394531e+00 1.334395289421081543e+00 1.043773174285888672e+00
7.314000000000000000e+03 5.261977767944335938e+01 1.035310649871826172e+01 -4.895867705345153809e-01 4.044684886932373047e+00 1.066529393196105957e+00 5.869473814964294434e-01
7.315000000000000000e+03 5.685977554321289062e+01 1.794071006774902344e+01 -8.304048180580139160e-01 5.872164249420166016e+00 1.512527823448181152e+00 8.775656223297119141e-01
7.316000000000000000e+03 5.628207015991210938e+01 1.795323181152343750e+01 -7.869623303413391113e-01 5.676330089569091797e+00 1.466810226440429688e+00 9.201174378395080566e-01
7.317000000000000000e+03 4.503839492797851562e+01 6.023910522460937500e+00 -2.269111126661300659e-01 2.031838893890380859e+00 5.414783358573913574e-01 3.150504827499389648e-01
7.318000000000000000e+03 4.601798248291015625e+01 8.100055694580078125e+00 -2.727841734886169434e-01 2.204297304153442383e+00 5.794539451599121094e-01 3.772355914115905762e-01
7.319000000000000000e+03 4.813822937011718750e+01 1.100058937072753906e+01 -3.373946547508239746e-01 2.654799938201904297e+00 6.952216029167175293e-01 5.188902616500854492e-01
7.320000000000000000e+03 4.879387283325195312e+01 1.159035205841064453e+01 -3.576461970806121826e-01 2.851143121719360352e+00 7.480490803718566895e-01 5.675939917564392090e-01
7.321000000000000000e+03 5.430879211425781250e+01 9.414780616760253906e+00 -5.344397425651550293e-01 4.531977653503417969e+00 1.199261426925659180e+00 5.251064896583557129e-01
7.322000000000000000e+03 4.712038421630859375e+01 6.457884788513183594e+00 -2.711426615715026855e-01 2.552941322326660156e+00 6.845395565032958984e-01 3.831100761890411377e-01
7.323000000000000000e+03 5.448612594604492188e+01 6.424176692962646484e+00 -4.564384222030639648e-01 4.532522201538085938e+00 1.222825169563293457e+00 4.198116958141326904e-01
7.324000000000000000e+03 4.641158676147460938e+01 9.362367630004882812e+00 -2.983939349651336670e-01 2.244703292846679688e+00 5.838927626609802246e-01 4.074353575706481934e-01
7.325000000000000000e+03 5.620441818237304688e+01 1.464817047119140625e+01 -7.406180500984191895e-01 5.360862255096435547e+00 1.386073231697082520e+00 6.964047551155090332e-01
7.326000000000000000e+03 5.521636581420898438e+01 1.418071651458740234e+01 -6.742240190505981445e-01 5.009431838989257812e+00 1.300562381744384766e+00 7.174653410911560059e-01
7.327000000000000000e+03 5.315916061401367188e+01 1.469009494781494141e+01 -5.492008328437805176e-01 4.237844944000244141e+00 1.106593251228332520e+00 8.000501394271850586e-01
7.328000000000000000e+03 4.736597061157226562e+01 5.437877655029296875e+00 -2.565363347530364990e-01 2.643960952758789062e+00 7.162273526191711426e-01 3.811162114143371582e-01
7.329000000000000000e+03 5.471588897705078125e+01 1.790127372741699219e+01 -6.355409622192382812e-01 4.898685932159423828e+00 1.278943538665771484e+00 1.018786311149597168e+00
7.330000000000000000e+03 5.560286712646484375e+01 1.550411701202392578e+01 -7.084398269653320312e-01 5.185148239135742188e+00 1.343012452125549316e+00 7.889751195907592773e-01
7.331000000000000000e+03 5.630794525146484375e+01 1.518650436401367188e+01 -7.562726140022277832e-01 5.451343059539794922e+00 1.408521056175231934e+00 7.141897082328796387e-01
7.332000000000000000e+03 5.551412963867187500e+01 1.244215869903564453e+01 -6.570980548858642578e-01 5.018610477447509766e+00 1.308453679084777832e+00 6.119076609611511230e-01
7.333000000000000000e+03 5.073136138916015625e+01 1.315705394744873047e+01 -4.254527688026428223e-01 3.402061939239501953e+00 8.929827809333801270e-01 6.832664012908935547e-01
7.334000000000000000e+03 5.252075195312500000e+01 6.199191570281982422e+00 -4.013183414936065674e-01 3.991924285888671875e+00 1.077181816101074219e+00 4.502916038036346436e-01
7.335000000000000000e+03 4.798154067993164062e+01 3.394277811050415039e+00 -2.326947003602981567e-01 2.836378812789916992e+00 7.811052203178405762e-01 3.444947004318237305e-01
7.336000000000000000e+03 5.498919296264648438e+01 9.354849815368652344e+00 -5.549721717834472656e-01 4.778834819793701172e+00 1.267158746719360352e+00 5.040782094001770020e-01
7.337000000000000000e+03 5.677624511718750000e+01 1.726967620849609375e+01 -8.172379136085510254e-01 5.758993625640869141e+00 1.482526779174804688e+00 8.229537010192871094e-01
7.338000000000000000e+03 5.632347869873046875e+01 1.204251861572265625e+01 -6.749518513679504395e-01 5.241053104400634766e+00 1.369830489158630371e+00 5.465061664581298828e-01
7.339000000000000000e+03 5.313448333740234375e+01 6.510069370269775391e+00 -4.279957115650177002e-01 4.165447235107421875e+00 1.121235489845275879e+00 4.566419124603271484e-01
7.340000000000000000e+03 4.668965148925781250e+01 5.481301307678222656e+00 -2.441696077585220337e-01 2.459016561508178711e+00 6.644540429115295410e-01 3.522770404815673828e-01
7.341000000000000000e+03 5.112020492553710938e+01 3.165777444839477539e+00 -2.905219197273254395e-01 3.622480392456054688e+00 9.995875358581542969e-01 3.698880970478057861e-01
7.342000000000000000e+03 5.184857177734375000e+01 5.889726638793945312e+00 -3.749366700649261475e-01 3.817055940628051758e+00 1.032635807991027832e+00 4.350094795227050781e-01
7.343000000000000000e+03 5.234534072875976562e+01 2.065054893493652344e+00 -3.047702610492706299e-01 3.941311836242675781e+00 1.090962529182434082e+00 3.459509909152984619e-01
7.344000000000000000e+03 5.245043182373046875e+01 3.271939039230346680e+00 -3.238352835178375244e-01 3.968997001647949219e+00 1.093548536300659180e+00 3.700927793979644775e-01
7.345000000000000000e+03 4.673978805541992188e+01 8.028411865234375000e+00 -2.856686115264892578e-01 2.394185781478881836e+00 6.325551867485046387e-01 4.017196595668792725e-01
7.346000000000000000e+03 4.732387924194335938e+01 7.399495601654052734e+00 -2.887971997261047363e-01 2.573973655700683594e+00 6.855528950691223145e-01 4.022217988967895508e-01
7.347000000000000000e+03 5.575719833374023438e+01 1.842024612426757812e+01 -7.227325439453125000e-01 5.414133071899414062e+00 1.407420039176940918e+00 1.015608906745910645e+00
7.348000000000000000e+03 5.580389022827148438e+01 1.497882938385009766e+01 -7.249696850776672363e-01 5.239045143127441406e+00 1.354222655296325684e+00 7.342876195907592773e-01
7.349000000000000000e+03 4.606829071044921875e+01 1.002847480773925781e+01 -2.949672341346740723e-01 2.125937700271606445e+00 5.492911338806152344e-01 4.069960415363311768e-01
7.350000000000000000e+03 5.335669708251953125e+01 1.347626781463623047e+01 -5.575705766677856445e-01 4.312031269073486328e+00 1.126338243484497070e+00 7.260795235633850098e-01
7.351000000000000000e+03 5.305274581909179688e+01 1.422400283813476562e+01 -5.431593656539916992e-01 4.207462787628173828e+00 1.099291086196899414e+00 7.706576585769653320e-01
7.352000000000000000e+03 5.309922027587890625e+01 1.596004772186279297e+01 -5.343517065048217773e-01 4.221508979797363281e+00 1.106147170066833496e+00 8.784229755401611328e-01
7.353000000000000000e+03 5.379522323608398438e+01 1.525358009338378906e+01 -5.896062254905700684e-01 4.507143974304199219e+00 1.175261259078979492e+00 8.311036825180053711e-01
7.354000000000000000e+03 5.361783599853515625e+01 1.720324707031250000e+01 -5.537246465682983398e-01 4.439761638641357422e+00 1.165811061859130859e+00 9.778804183006286621e-01
7.355000000000000000e+03 5.305429077148437500e+01 7.976747989654541016e+00 -4.585148096084594727e-01 4.140948772430419922e+00 1.104730248451232910e+00 4.967990219593048096e-01
7.356000000000000000e+03 4.668262863159179688e+01 1.056087398529052734e+01 -3.104250133037567139e-01 2.258065462112426758e+00 5.842921733856201172e-01 4.371111989021301270e-01
7.357000000000000000e+03 5.012952804565429688e+01 1.237522697448730469e+01 -4.026858508586883545e-01 3.232956647872924805e+00 8.490812182426452637e-01 6.384571194648742676e-01
7.358000000000000000e+03 4.944544601440429688e+01 1.169113826751708984e+01 -3.748475015163421631e-01 3.041728019714355469e+00 8.000641465187072754e-01 5.937116742134094238e-01
7.359000000000000000e+03 4.922696304321289062e+01 3.777750015258789062e+00 -2.670000791549682617e-01 3.136610507965087891e+00 8.608831167221069336e-01 3.742521405220031738e-01
7.360000000000000000e+03 4.950147247314453125e+01 1.025920391082763672e+01 -3.751476407051086426e-01 3.116896867752075195e+00 8.225247859954833984e-01 5.429971814155578613e-01
7.361000000000000000e+03 5.483740234375000000e+01 1.563528347015380859e+01 -6.640641689300537109e-01 4.930559635162353516e+00 1.279948711395263672e+00 8.304571509361267090e-01
7.362000000000000000e+03 5.183753967285156250e+01 1.226094150543212891e+01 -4.727121293544769287e-01 3.784610509872436523e+00 9.935694932937622070e-01 6.732106208801269531e-01
7.363000000000000000e+03 5.145214843750000000e+01 1.308618068695068359e+01 -4.585630297660827637e-01 3.651014804840087891e+00 9.577355384826660156e-01 7.004277110099792480e-01
7.364000000000000000e+03 4.701087570190429688e+01 4.912118911743164062e+00 -2.379857450723648071e-01 2.555670022964477539e+00 6.953052878379821777e-01 3.533058166503906250e-01
7.365000000000000000e+03 5.444473648071289062e+01 1.747706794738769531e+01 -6.209297180175781250e-01 4.778933048248291016e+00 1.247400999069213867e+00 9.906923174858093262e-01
7.366000000000000000e+03 4.656445312500000000e+01 4.388942718505859375e+00 -2.265586256980895996e-01 2.465617656707763672e+00 6.717177033424377441e-01 3.343925476074218750e-01
7.367000000000000000e+03 5.448288726806640625e+01 1.439896297454833984e+01 -6.292451620101928711e-01 4.711961269378662109e+00 1.224814891815185547e+00 7.631854414939880371e-01
7.368000000000000000e+03 5.597622680664062500e+01 1.401988506317138672e+01 -7.173651456832885742e-01 5.255568027496337891e+00 1.361460924148559570e+00 6.725049614906311035e-01
7.369000000000000000e+03 5.322610473632812500e+01 1.753328514099121094e+01 -5.162211656570434570e-01 4.256553649902343750e+00 1.122099757194519043e+00 1.006685733795166016e+00
7.370000000000000000e+03 5.616191482543945312e+01 1.127406883239746094e+01 -6.504509449005126953e-01 5.135451316833496094e+00 1.345500111579895020e+00 5.343757867813110352e-01
7.371000000000000000e+03 5.275487518310546875e+01 1.377843379974365234e+01 -5.311481952667236328e-01 4.103398799896240234e+00 1.071675181388854980e+00 7.419618964195251465e-01
7.372000000000000000e+03 5.030545043945312500e+01 5.449931621551513672e+00 -3.258673846721649170e-01 3.401286840438842773e+00 9.226257801055908203e-01 4.272696673870086670e-01
7.373000000000000000e+03 5.344816970825195312e+01 7.409838676452636719e+00 -4.547544717788696289e-01 4.255670070648193359e+00 1.140274643898010254e+00 4.769466221332550049e-01
7.374000000000000000e+03 5.037799453735351562e+01 4.515670299530029297e+00 -3.004885613918304443e-01 3.440732479095458984e+00 9.420731663703918457e-01 4.001451134681701660e-01
7.375000000000000000e+03 5.378217697143554688e+01 8.412614822387695312e+00 -4.884662032127380371e-01 4.381909370422363281e+00 1.168033003807067871e+00 4.968161284923553467e-01
7.376000000000000000e+03 5.426560974121093750e+01 1.045074653625488281e+01 -5.526683926582336426e-01 4.551264286041259766e+00 1.199578762054443359e+00 5.619522333145141602e-01
7.377000000000000000e+03 5.481068038940429688e+01 1.072850513458251953e+01 -5.814967751502990723e-01 4.729027748107910156e+00 1.244259357452392578e+00 5.644609332084655762e-01
7.378000000000000000e+03 5.472480773925781250e+01 1.284368991851806641e+01 -6.245768666267395020e-01 4.760520458221435547e+00 1.240783095359802246e+00 6.710655093193054199e-01
7.379000000000000000e+03 5.132773971557617188e+01 4.720303058624267578e+00 -3.351688385009765625e-01 3.673330068588256836e+00 1.001448392868041992e+00 4.136542379856109619e-01
7.380000000000000000e+03 4.659780120849609375e+01 9.953368186950683594e+00 -3.064174354076385498e-01 2.266800403594970703e+00 5.881148576736450195e-01 4.229072630405426025e-01
7.381000000000000000e+03 5.217438888549804688e+01 5.149948596954345703e+00 -3.617738485336303711e-01 3.911207437515258789e+00 1.064830064773559570e+00 4.179871380329132080e-01
7.382000000000000000e+03 4.832041549682617188e+01 5.714423656463623047e+00 -2.752201855182647705e-01 2.887771844863891602e+00 7.837654948234558105e-01 3.981670439243316650e-01
7.383000000000000000e+03 5.373073959350585938e+01 6.819388389587402344e+00 -4.449698925018310547e-01 4.339629173278808594e+00 1.168397784233093262e+00 4.519517123699188232e-01
7.384000000000000000e+03 5.440094757080078125e+01 1.533726596832275391e+01 -6.257125139236450195e-01 4.713065624237060547e+00 1.226205945014953613e+00 8.116414546966552734e-01
7.385000000000000000e+03 5.468969345092773438e+01 1.677417182922363281e+01 -6.490256190299987793e-01 4.896663665771484375e+00 1.274291515350341797e+00 9.221156835556030273e-01
7.386000000000000000e+03 4.767467880249023438e+01 6.035428524017333984e+00 -2.673699855804443359e-01 2.708803176879882812e+00 7.324299812316894531e-01 3.936253190040588379e-01
7.387000000000000000e+03 5.416506958007812500e+01 1.697541236877441406e+01 -6.000281572341918945e-01 4.676901340484619141e+00 1.223062038421630859e+00 9.464462399482727051e-01
7.388000000000000000e+03 5.241967773437500000e+01 1.329678630828857422e+01 -5.077599287033081055e-01 3.995968341827392578e+00 1.046462535858154297e+00 7.217574119567871094e-01
7.389000000000000000e+03 4.954536819458007812e+01 1.098141956329345703e+01 -3.835676908493041992e-01 3.114186286926269531e+00 8.191855549812316895e-01 5.705766677856445312e-01
7.390000000000000000e+03 4.741120529174804688e+01 7.978055477142333984e+00 -2.982347011566162109e-01 2.572486877441406250e+00 6.822755932807922363e-01 4.204461872577667236e-01
7.391000000000000000e+03 5.451282119750976562e+01 1.632557106018066406e+01 -6.355717182159423828e-01 4.800930500030517578e+00 1.249607682228088379e+00 8.841502070426940918e-01
7.392000000000000000e+03 5.580955886840820312e+01 1.325424766540527344e+01 -6.875684261322021484e-01 5.161684989929199219e+00 1.342234969139099121e+00 6.358222961425781250e-01
7.393000000000000000e+03 5.023351287841796875e+01 1.115151309967041016e+01 -4.022449254989624023e-01 3.295436620712280273e+00 8.679574728012084961e-01 5.931662321090698242e-01
7.394000000000000000e+03 5.204604339599609375e+01 1.147053909301757812e+01 -4.733127653598785400e-01 3.853688240051269531e+00 1.014112591743469238e+00 6.348523497581481934e-01
7.395000000000000000e+03 5.527757263183593750e+01 1.477981185913085938e+01 -6.924176216125488281e-01 5.047185897827148438e+00 1.306430578231811523e+00 7.557955384254455566e-01
7.396000000000000000e+03 5.533168411254882812e+01 1.599812030792236328e+01 -6.961373686790466309e-01 5.103595256805419922e+00 1.322237372398376465e+00 8.414824008941650391e-01
7.397000000000000000e+03 5.608694458007812500e+01 1.741489219665527344e+01 -7.646483182907104492e-01 5.505434036254882812e+00 1.422235727310180664e+00 8.992221951484680176e-01
7.398000000000000000e+03 4.722330474853515625e+01 9.876381874084472656e+00 -3.158020079135894775e-01 2.441445350646972656e+00 6.376930475234985352e-01 4.525470137596130371e-01
7.399000000000000000e+03 5.012627029418945312e+01 1.174490833282470703e+01 -4.024682044982910156e-01 3.250067472457885742e+00 8.542797565460205078e-01 6.156039834022521973e-01
7.400000000000000000e+03 4.881373596191406250e+01 1.096709060668945312e+01 -3.534832894802093506e-01 2.874202728271484375e+00 7.562158703804016113e-01 5.464717745780944824e-01
7.401000000000000000e+03 4.735287857055664062e+01 1.048599147796630859e+01 -3.209024369716644287e-01 2.454665660858154297e+00 6.401289701461791992e-01 4.709658920764923096e-01
7.402000000000000000e+03 4.789383316040039062e+01 9.790433883666992188e+00 -3.291494548320770264e-01 2.642502307891845703e+00 6.940058469772338867e-01 4.803909659385681152e-01
7.403000000000000000e+03 4.772950744628906250e+01 9.173028945922851562e+00 -3.174690008163452148e-01 2.619143247604370117e+00 6.905022263526916504e-01 4.612008333206176758e-01
7.404000000000000000e+03 4.657215118408203125e+01 6.120204925537109375e+00 -2.522513866424560547e-01 2.415513277053833008e+00 6.489785909652709961e-01 3.636934161186218262e-01
7.405000000000000000e+03 5.379353332519531250e+01 1.587917804718017578e+01 -5.864140987396240234e-01 4.511854648590087891e+00 1.177632212638854980e+00 8.775255680084228516e-01
7.406000000000000000e+03 5.511449813842773438e+01 1.524249267578125000e+01 -6.805028915405273438e-01 5.009303092956542969e+00 1.298640131950378418e+00 8.104351758956909180e-01
7.407000000000000000e+03 5.365039443969726562e+01 9.554392814636230469e+00 -5.104722380638122559e-01 4.350120544433593750e+00 1.151894450187683105e+00 5.438407659530639648e-01
7.408000000000000000e+03 5.498555374145507812e+01 1.176939201354980469e+01 -6.120870709419250488e-01 4.827022075653076172e+00 1.264480590820312500e+00 6.016677021980285645e-01
7.409000000000000000e+03 4.655403137207031250e+01 6.723624706268310547e+00 -2.645568549633026123e-01 2.390556097030639648e+00 6.377997994422912598e-01 3.774881064891815186e-01
7.410000000000000000e+03 5.361695861816406250e+01 1.401411628723144531e+01 -5.771256089210510254e-01 4.397899627685546875e+00 1.146232128143310547e+00 7.482362985610961914e-01
7.411000000000000000e+03 5.390692138671875000e+01 1.009121608734130859e+01 -5.350494384765625000e-01 4.433551311492919922e+00 1.169550538063049316e+00 5.657719373703002930e-01
7.412000000000000000e+03 5.440387344360351562e+01 1.128763484954833984e+01 -5.817175507545471191e-01 4.622116565704345703e+00 1.212119817733764648e+00 5.959582328796386719e-01
7.413000000000000000e+03 5.110627365112304688e+01 5.589611530303955078e+00 -3.459544181823730469e-01 3.614861011505126953e+00 9.806720018386840820e-01 4.410321414470672607e-01
7.414000000000000000e+03 4.840128707885742188e+01 4.109678745269775391e+00 -2.554775774478912354e-01 2.923102378845214844e+00 8.002874851226806641e-01 3.710253238677978516e-01
7.415000000000000000e+03 5.002125549316406250e+01 7.164501190185546875e+00 -3.469556272029876709e-01 3.327161312103271484e+00 8.940616846084594727e-01 4.671435356140136719e-01
7.416000000000000000e+03 4.705997848510742188e+01 9.263407707214355469e+00 -3.070441782474517822e-01 2.428115129470825195e+00 6.363213062286376953e-01 4.337886571884155273e-01
7.417000000000000000e+03 5.378742218017578125e+01 1.460937595367431641e+01 -5.910175442695617676e-01 4.472892284393310547e+00 1.164562463760375977e+00 7.895570397377014160e-01
7.418000000000000000e+03 5.243396377563476562e+01 7.496781349182128906e+00 -4.266375899314880371e-01 3.964888811111450195e+00 1.061475276947021484e+00 4.775108993053436279e-01
7.419000000000000000e+03 4.873989486694335938e+01 1.033267402648925781e+01 -3.532974123954772949e-01 2.870924949645996094e+00 7.552883028984069824e-01 5.295603275299072266e-01
7.420000000000000000e+03 5.502814102172851562e+01 1.723843193054199219e+01 -6.739482283592224121e-01 5.064584732055664062e+00 1.317190885543823242e+00 9.591605663299560547e-01
7.421000000000000000e+03 5.393124389648437500e+01 1.645107460021972656e+01 -5.918796658515930176e-01 4.566033363342285156e+00 1.192246079444885254e+00 9.076713919639587402e-01
7.422000000000000000e+03 5.304836273193359375e+01 1.296651935577392578e+01 -5.370370745658874512e-01 4.206840515136718750e+00 1.100941061973571777e+00 6.983633041381835938e-01
7.423000000000000000e+03 5.401193618774414062e+01 1.318027973175048828e+01 -5.908578634262084961e-01 4.530222415924072266e+00 1.181809306144714355e+00 6.994618773460388184e-01
7.424000000000000000e+03 5.255309295654296875e+01 1.116307735443115234e+01 -4.978424310684204102e-01 4.032991409301757812e+00 1.060544729232788086e+00 6.163691282272338867e-01
7.425000000000000000e+03 4.688631439208984375e+01 8.650263786315917969e+00 -2.936260700225830078e-01 2.405741453170776367e+00 6.336345672607421875e-01 4.185185134410858154e-01
7.426000000000000000e+03 4.801255035400390625e+01 5.103999137878417969e+00 -2.659482657909393311e-01 2.809648036956787109e+00 7.631099224090576172e-01 3.833779096603393555e-01
7.427000000000000000e+03 4.754881286621093750e+01 6.924839496612548828e+00 -2.815457582473754883e-01 2.650836229324340820e+00 7.107871770858764648e-01 4.052728116512298584e-01
7.428000000000000000e+03 5.118052291870117188e+01 1.119464397430419922e+01 -4.347470104694366455e-01 3.599569797515869141e+00 9.494468569755554199e-01 6.198487877845764160e-01
7.429000000000000000e+03 5.217527008056640625e+01 9.958025932312011719e+00 -4.651986956596374512e-01 3.903187513351440430e+00 1.031396627426147461e+00 5.701358914375305176e-01
7.430000000000000000e+03 5.473060226440429688e+01 1.492091560363769531e+01 -6.424093246459960938e-01 4.821017742156982422e+00 1.253582477569580078e+00 7.822092771530151367e-01
7.431000000000000000e+03 5.440624237060546875e+01 1.583899307250976562e+01 -6.301656365394592285e-01 4.742252826690673828e+00 1.233626127243041992e+00 8.502197265625000000e-01
7.432000000000000000e+03 5.427972793579101562e+01 1.377171325683593750e+01 -6.108918786048889160e-01 4.627939224243164062e+00 1.205114245414733887e+00 7.350967526435852051e-01
7.433000000000000000e+03 5.501301193237304688e+01 1.350413227081298828e+01 -6.493653655052185059e-01 4.884994983673095703e+00 1.270688891410827637e+00 6.877282857894897461e-01
7.434000000000000000e+03 5.320764541625976562e+01 8.995421409606933594e+00 -4.787033498287200928e-01 4.220046043395996094e+00 1.122402787208557129e+00 5.317618250846862793e-01
7.435000000000000000e+03 5.389962005615234375e+01 1.086460781097412109e+01 -5.446234345436096191e-01 4.459403038024902344e+00 1.174433827400207520e+00 5.893905162811279297e-01
7.436000000000000000e+03 4.963459777832031250e+01 8.081974983215332031e+00 -3.529728949069976807e-01 3.187285900115966797e+00 8.502939343452453613e-01 4.876799285411834717e-01
7.437000000000000000e+03 5.158312225341796875e+01 6.669537067413330078e+00 -3.840404450893402100e-01 3.744748592376708984e+00 1.008212447166442871e+00 4.660038948059082031e-01
7.438000000000000000e+03 5.440320587158203125e+01 9.980619430541992188e+00 -5.483147501945495605e-01 4.564476013183593750e+00 1.204848289489746094e+00 5.425161123275756836e-01
7.439000000000000000e+03 5.433097076416015625e+01 1.225344657897949219e+01 -5.940833091735839844e-01 4.628993988037109375e+00 1.210473299026489258e+00 6.455795168876647949e-01
7.440000000000000000e+03 4.756081771850585938e+01 8.567412376403808594e+00 -3.088226318359375000e-01 2.597446680068969727e+00 6.865872144699096680e-01 4.389078319072723389e-01
7.441000000000000000e+03 4.859199142456054688e+01 9.690422058105468750e+00 -3.427011072635650635e-01 2.855273723602294922e+00 7.537717819213867188e-01 5.046334266662597656e-01
7.442000000000000000e+03 5.093301773071289062e+01 6.323022365570068359e+00 -3.596551120281219482e-01 3.556093692779541016e+00 9.589315652847290039e-01 4.576714932918548584e-01
7.443000000000000000e+03 5.208969497680664062e+01 9.045330047607421875e+00 -4.393975436687469482e-01 3.898626565933227539e+00 1.037768721580505371e+00 5.328098535537719727e-01
7.444000000000000000e+03 4.955905151367187500e+01 5.376291275024414062e+00 -3.019480109214782715e-01 3.218779563903808594e+00 8.750494718551635742e-01 4.094888269901275635e-01
7.445000000000000000e+03 4.948635101318359375e+01 4.603679656982421875e+00 -2.841466963291168213e-01 3.198626518249511719e+00 8.743439912796020508e-01 3.930228352546691895e-01
7.446000000000000000e+03 5.031100082397460938e+01 6.236306190490722656e+00 -3.389061391353607178e-01 3.389943122863769531e+00 9.153110384941101074e-01 4.425294697284698486e-01
7.447000000000000000e+03 4.823593521118164062e+01 8.455994606018066406e+00 -3.232010304927825928e-01 2.791136741638183594e+00 7.403807044029235840e-01 4.610360562801361084e-01
7.448000000000000000e+03 5.344254684448242188e+01 1.126220989227294922e+01 -5.387699007987976074e-01 4.324563980102539062e+00 1.135738253593444824e+00 6.118788123130798340e-01
7.449000000000000000e+03 4.935828781127929688e+01 7.454614162445068359e+00 -3.328114151954650879e-01 3.130828857421875000e+00 8.394052386283874512e-01 4.649499654769897461e-01
7.450000000000000000e+03 4.926399230957031250e+01 5.938132286071777344e+00 -3.069053292274475098e-01 3.140424728393554688e+00 8.500558137893676758e-01 4.182377755641937256e-01
7.451000000000000000e+03 5.272369384765625000e+01 1.246674156188964844e+01 -5.182639956474304199e-01 4.096949577331542969e+00 1.073605656623840332e+00 6.763952374458312988e-01
7.452000000000000000e+03 5.220685195922851562e+01 1.073322105407714844e+01 -4.724138975143432617e-01 3.930150508880615234e+00 1.037320971488952637e+00 6.012255549430847168e-01
7.453000000000000000e+03 5.177727890014648438e+01 1.044615173339843750e+01 -4.562846422195434570e-01 3.768615245819091797e+00 9.936991930007934570e-01 5.887291431427001953e-01
7.454000000000000000e+03 5.069902038574218750e+01 1.064054298400878906e+01 -4.179404079914093018e-01 3.447749376296997070e+00 9.089426994323730469e-01 5.869178175926208496e-01
7.455000000000000000e+03 4.787586593627929688e+01 7.353686809539794922e+00 -2.975339591503143311e-01 2.737944364547729492e+00 7.321230769157409668e-01 4.286777079105377197e-01
7.456000000000000000e+03 4.808205032348632812e+01 6.584459781646728516e+00 -2.915317118167877197e-01 2.803445100784301758e+00 7.535740137100219727e-01 4.139900505542755127e-01
7.457000000000000000e+03 5.114554595947265625e+01 7.379812717437744141e+00 -3.863442838191986084e-01 3.617293834686279297e+00 9.692848920822143555e-01 4.837737381458282471e-01
7.458000000000000000e+03 5.140774154663085938e+01 8.647004127502441406e+00 -4.150883853435516357e-01 3.684240102767944336e+00 9.807455539703369141e-01 5.222967267036437988e-01
7.459000000000000000e+03 5.255889129638671875e+01 8.504836082458496094e+00 -4.447397291660308838e-01 4.028066158294677734e+00 1.074998021125793457e+00 5.170316100120544434e-01
7.460000000000000000e+03 5.308622360229492188e+01 9.946297645568847656e+00 -4.991710484027862549e-01 4.178201198577880859e+00 1.103708982467651367e+00 5.647719502449035645e-01
7.461000000000000000e+03 4.930258560180664062e+01 9.558337211608886719e+00 -3.632920384407043457e-01 3.069584608078002930e+00 8.118877410888671875e-01 5.193557739257812500e-01
7.462000000000000000e+03 4.841609573364257812e+01 9.059508323669433594e+00 -3.354748487472534180e-01 2.824792623519897461e+00 7.467952966690063477e-01 4.819668233394622803e-01
7.463000000000000000e+03 5.060097885131835938e+01 6.829130649566650391e+00 -3.610439002513885498e-01 3.453871488571166992e+00 9.278482794761657715e-01 4.665065407752990723e-01
7.464000000000000000e+03 4.892844390869140625e+01 5.434972763061523438e+00 -2.864108383655548096e-01 3.031730890274047852e+00 8.235960006713867188e-01 4.002286791801452637e-01
7.465000000000000000e+03 5.125046539306640625e+01 1.014325714111328125e+01 -4.287789165973663330e-01 3.622960090637207031e+00 9.582543969154357910e-01 5.761905908584594727e-01
7.466000000000000000e+03 5.023365402221679688e+01 1.004680061340332031e+01 -3.962938189506530762e-01 3.327893495559692383e+00 8.794798851013183594e-01 5.587663650512695312e-01
7.467000000000000000e+03 4.911525344848632812e+01 8.906660079956054688e+00 -3.516872227191925049e-01 3.028179645538330078e+00 8.029477000236511230e-01 4.963096380233764648e-01
7.468000000000000000e+03 5.264338302612304688e+01 9.481810569763183594e+00 -4.746145904064178467e-01 4.049121856689453125e+00 1.072352170944213867e+00 5.542158484458923340e-01
7.469000000000000000e+03 4.903283309936523438e+01 6.843639373779296875e+00 -3.181450366973876953e-01 3.050350904464721680e+00 8.196617960929870605e-01 4.422774016857147217e-01
7.470000000000000000e+03 5.388473892211914062e+01 1.173822021484375000e+01 -5.600156188011169434e-01 4.476397991180419922e+00 1.174914717674255371e+00 6.286183595657348633e-01
7.471000000000000000e+03 5.302606582641601562e+01 1.079859924316406250e+01 -5.046553015708923340e-01 4.179890155792236328e+00 1.102570414543151855e+00 5.978276729583740234e-01
7.472000000000000000e+03 4.966651535034179688e+01 6.495869159698486328e+00 -3.303172886371612549e-01 3.226092338562011719e+00 8.687325119972229004e-01 4.456491172313690186e-01
7.473000000000000000e+03 4.867138671875000000e+01 6.280039787292480469e+00 -2.963829636573791504e-01 2.964588165283203125e+00 8.004615306854248047e-01 4.221721291542053223e-01
7.474000000000000000e+03 4.870011901855468750e+01 7.697563648223876953e+00 -3.207508623600006104e-01 2.941067695617675781e+00 7.860950231552124023e-01 4.572558403015136719e-01
7.475000000000000000e+03 4.842782592773437500e+01 7.121539592742919922e+00 -3.051614165306091309e-01 2.880166053771972656e+00 7.725014090538024902e-01 4.370616674423217773e-01
7.476000000000000000e+03 4.871055603027343750e+01 4.803574562072753906e+00 -2.733440399169921875e-01 2.988172531127929688e+00 8.144485354423522949e-01 3.865607380867004395e-01
7.477000000000000000e+03 5.116946792602539062e+01 9.269240379333496094e+00 -4.149282574653625488e-01 3.613917112350463867e+00 9.596967101097106934e-01 5.488546490669250488e-01
7.478000000000000000e+03 4.805604171752929688e+01 7.881097316741943359e+00 -3.121241927146911621e-01 2.766729593276977539e+00 7.363815903663635254e-01 4.417774975299835205e-01
7.479000000000000000e+03 5.041741561889648438e+01 7.827734470367431641e+00 -3.720658719539642334e-01 3.420990467071533203e+00 9.146773815155029297e-01 4.990122020244598389e-01
7.480000000000000000e+03 4.892226791381835938e+01 8.293428421020507812e+00 -3.391667902469635010e-01 2.989789247512817383e+00 7.951867580413818359e-01 4.761148095130920410e-01
7.481000000000000000e+03 5.061882400512695312e+01 9.196491241455078125e+00 -3.962585330009460449e-01 3.454407930374145508e+00 9.174447655677795410e-01 5.428707599639892578e-01
7.482000000000000000e+03 4.983003234863281250e+01 8.716642379760742188e+00 -3.679410815238952637e-01 3.226226806640625000e+00 8.574857115745544434e-01 5.066994428634643555e-01
7.483000000000000000e+03 5.081129074096679688e+01 9.707381248474121094e+00 -4.124224781990051270e-01 3.503460645675659180e+00 9.273114204406738281e-01 5.612127780914306641e-01
7.484000000000000000e+03 5.168008804321289062e+01 9.594033241271972656e+00 -4.388350546360015869e-01 3.758122682571411133e+00 9.957862496376037598e-01 5.472886562347412109e-01
7.485000000000000000e+03 6.180197525024414062e+01 -2.965140342712402344e+01 1.457913368940353394e-01 6.024703979492187500e+00 1.851148724555969238e+00 3.634604215621948242e-01
7.486000000000000000e+03 6.471094512939453125e+01 -2.629725646972656250e+01 4.097593575716018677e-02 6.502447128295898438e+00 1.963026881217956543e+00 3.649106025695800781e-01
7.487000000000000000e+03 2.603682708740234375e+01 -3.539599609375000000e+01 2.894618809223175049e-01 3.179291188716888428e-01 1.822172999382019043e-01 -1.778442412614822388e-01
7.488000000000000000e+03 1.730597496032714844e+01 3.755258560180664062e+01 -2.650916110724210739e-03 3.960804268717765808e-02 1.108713727444410324e-02 6.907876580953598022e-03
7.489000000000000000e+03 1.335697650909423828e+01 3.495685577392578125e+01 -6.146646104753017426e-03 7.219148334115743637e-03 3.217506455257534981e-04 1.675647217780351639e-03
7.490000000000000000e+03 2.377457618713378906e+01 3.781519317626953125e+01 1.056432910263538361e-02 6.638784706592559814e-02 2.308565191924571991e-02 1.386586669832468033e-02
7.491000000000000000e+03 6.833267211914062500e+01 -3.228681564331054688e+01 1.252403110265731812e-01 6.951061248779296875e+00 2.122890472412109375e+00 2.797873616218566895e-01
7.492000000000000000e+03 7.212717437744140625e+01 -3.822379684448242188e+01 9.643911570310592651e-02 7.443303108215332031e+00 2.261922597885131836e+00 9.289051592350006104e-02
7.493000000000000000e+03 1.093004989624023438e+01 3.431964874267578125e+01 -6.138900294899940491e-03 -1.623767241835594177e-02 -6.712971720844507217e-03 -3.029925981536507607e-03
7.494000000000000000e+03 5.744977569580078125e+01 -2.714611244201660156e+01 8.005048334598541260e-02 5.359128952026367188e+00 1.631753802299499512e+00 3.722171783447265625e-01
7.495000000000000000e+03 5.519562149047851562e+01 -2.746192932128906250e+01 8.321638405323028564e-02 5.041572570800781250e+00 1.537436604499816895e+00 3.664740622043609619e-01
7.496000000000000000e+03 1.495077800750732422e+01 -3.035372161865234375e+01 9.595970064401626587e-02 -1.732791960239410400e-01 -2.319584786891937256e-02 -1.383965909481048584e-01
7.497000000000000000e+03 1.656527328491210938e+01 -3.191471672058105469e+01 1.106364205479621887e-01 -7.975331693887710571e-02 9.264932945370674133e-03 -1.423158794641494751e-01
7.498000000000000000e+03 7.395032501220703125e+01 3.777738952636718750e+01 4.200750291347503662e-01 6.402361392974853516e+00 2.046730995178222656e+00 -3.938339948654174805e-01
7.499000000000000000e+03 3.901919364929199219e+00 3.682230758666992188e+01 1.991756435018032789e-04 -1.014774963259696960e-01 -3.038349561393260956e-02 -4.832580685615539551e-03
7.500000000000000000e+03 9.009945869445800781e+00 3.583818817138671875e+01 -7.346013095229864120e-03 -3.763096407055854797e-02 -1.349309366196393967e-02 -5.876818671822547913e-03
7.501000000000000000e+03 6.034347534179687500e+01 -2.805658149719238281e+01 1.253054141998291016e-01 5.808557987213134766e+00 1.780159115791320801e+00 3.592974543571472168e-01
7.502000000000000000e+03 6.065243530273437500e+01 -2.511629104614257812e+01 2.241189405322074890e-02 5.874114036560058594e+00 1.768957853317260742e+00 3.706753551959991455e-01
7.503000000000000000e+03 7.120665740966796875e+01 3.830493545532226562e+01 5.800113081932067871e-01 7.869019985198974609e+00 2.534709453582763672e+00 -1.816760748624801636e-01
7.504000000000000000e+03 6.731852722167968750e+01 4.119134140014648438e+01 6.319417059421539307e-02 1.071521377563476562e+01 3.233522176742553711e+00 1.964744031429290771e-01
7.505000000000000000e+03 6.234103012084960938e+01 -3.334841156005859375e+01 2.678789496421813965e-01 6.087798595428466797e+00 1.906703352928161621e+00 2.706893682479858398e-01
7.506000000000000000e+03 5.735239410400390625e+01 -2.486413574218750000e+01 -1.436637155711650848e-02 5.323922157287597656e+00 1.592866659164428711e+00 3.596315383911132812e-01
7.507000000000000000e+03 1.206827068328857422e+01 -3.449986267089843750e+01 6.730128079652786255e-02 -3.365480303764343262e-01 -8.077402412891387939e-02 -7.459542900323867798e-02
7.508000000000000000e+03 6.370953369140625000e+01 -3.096166610717773438e+01 1.724462360143661499e-01 6.289435863494873047e+00 1.938564658164978027e+00 3.297175168991088867e-01
7.509000000000000000e+03 5.322560882568359375e+01 -4.070841979980468750e+01 6.758167743682861328e-01 4.952016353607177734e+00 1.688349962234497070e+00 3.005788661539554596e-02
7.510000000000000000e+03 5.126472091674804688e+01 -3.664586257934570312e+01 8.386720418930053711e-01 4.710873603820800781e+00 1.664863705635070801e+00 1.100842431187629700e-01
7.511000000000000000e+03 2.767856979370117188e+01 -4.122543334960937500e+01 3.736867010593414307e-01 2.969635426998138428e-01 2.011950761079788208e-01 -5.095361918210983276e-02
7.512000000000000000e+03 2.486918449401855469e+01 -3.792072296142578125e+01 2.595281898975372314e-01 2.491814792156219482e-01 1.526129096746444702e-01 -1.251323521137237549e-01
7.513000000000000000e+03 1.559283065795898438e+01 -3.681327438354492188e+01 9.662556648254394531e-02 -1.553893089294433594e-01 -1.762912236154079437e-02 -7.591324299573898315e-02
7.514000000000000000e+03 1.276294231414794922e+01 4.103850555419921875e+01 -7.258955389261245728e-03 -4.613910801708698273e-03 -3.561859950423240662e-03 -3.724341513589024544e-04
7.515000000000000000e+03 8.249917984008789062e+00 4.106515502929687500e+01 -5.268330220133066177e-03 -5.034120380878448486e-02 -1.668285951018333435e-02 -6.899870350025594234e-04
7.516000000000000000e+03 5.795687484741210938e+01 -3.745501708984375000e+01 5.104195475578308105e-01 5.444664955139160156e+00 1.786525249481201172e+00 1.875207424163818359e-01
7.517000000000000000e+03 5.437692260742187500e+01 -3.729808425903320312e+01 6.423614025115966797e-01 5.037501811981201172e+00 1.703958988189697266e+00 1.133454814553260803e-01
7.518000000000000000e+03 6.276404953002929688e+01 3.948699569702148438e+01 -5.193798542022705078e-01 1.360651969909667969e+01 3.926141738891601562e+00 1.141069054603576660e+00
7.519000000000000000e+03 5.935266494750976562e+01 -2.640584373474121094e+01 6.779751181602478027e-02 5.657612800598144531e+00 1.717623114585876465e+00 3.750256299972534180e-01
7.520000000000000000e+03 2.042512321472167969e+01 -3.464813232421875000e+01 1.781479567289352417e-01 9.087582677602767944e-02 8.070713281631469727e-02 -1.389888077974319458e-01
7.521000000000000000e+03 5.989248275756835938e+01 -3.182567977905273438e+01 2.900002002716064453e-01 5.679019451141357422e+00 1.790705800056457520e+00 3.291901051998138428e-01
7.522000000000000000e+03 6.072098159790039062e+01 -3.601393508911132812e+01 3.791452944278717041e-01 5.843167304992675781e+00 1.866693854331970215e+00 2.063248455524444580e-01
7.523000000000000000e+03 1.458025836944580078e+01 -3.378721237182617188e+01 1.136510521173477173e-01 -2.045934647321701050e-01 -2.728272415697574615e-02 -1.078704744577407837e-01
7.524000000000000000e+03 5.814332962036132812e+01 -2.968138885498046875e+01 2.084315419197082520e-01 5.465507030487060547e+00 1.702181696891784668e+00 3.796975314617156982e-01
7.525000000000000000e+03 5.826082229614257812e+01 -3.448123931884765625e+01 4.038495123386383057e-01 5.448953628540039062e+00 1.755840897560119629e+00 2.934996485710144043e-01
7.526000000000000000e+03 5.076113510131835938e+01 3.821335601806640625e+01 1.754466816782951355e-02 2.756564132869243622e-02 1.353309303522109985e-02 -9.012373164296150208e-03
7.527000000000000000e+03 1.713755989074707031e+01 -2.474083900451660156e+00 -1.025060534477233887e+00 -6.231514215469360352e-01 -4.944636225700378418e-01 -6.691056489944458008e-01
7.528000000000000000e+03 1.903281593322753906e+01 -6.485186815261840820e-01 -1.821672916412353516e+00 -5.668947100639343262e-01 -7.165703177452087402e-01 -9.169346690177917480e-01
7.529000000000000000e+03 2.042021369934082031e+01 1.714243292808532715e-01 -1.590674042701721191e+00 -1.435596108436584473e+00 -9.078810811042785645e-01 -1.361969947814941406e+00
7.530000000000000000e+03 2.058778381347656250e+01 2.782198488712310791e-01 -1.407368779182434082e+00 -8.716427087783813477e-01 -6.837034821510314941e-01 -1.371774673461914062e+00
7.531000000000000000e+03 2.089767837524414062e+01 4.673400521278381348e-01 -1.552614092826843262e+00 -5.081936717033386230e-01 -6.182423233985900879e-01 -1.376288652420043945e+00
7.532000000000000000e+03 2.111217880249023438e+01 1.433802843093872070e-01 -1.571027159690856934e+00 -2.282957285642623901e-01 -5.397968888282775879e-01 -1.170758962631225586e+00
7.533000000000000000e+03 2.130041313171386719e+01 5.987070202827453613e-01 -1.457760334014892578e+00 -4.116909503936767578e-01 -5.608353614807128906e-01 -1.200041055679321289e+00
7.534000000000000000e+03 2.167483329772949219e+01 8.234828710556030273e-01 -1.394125342369079590e+00 -3.300092220306396484e-01 -5.172404050827026367e-01 -1.074046850204467773e+00
7.535000000000000000e+03 2.264816093444824219e+01 1.541085243225097656e+00 -1.500608086585998535e+00 -2.922358512878417969e-01 -5.378531813621520996e-01 -8.795651197433471680e-01
7.536000000000000000e+03 2.280986785888671875e+01 1.654272198677062988e+00 -1.507448911666870117e+00 -3.343641161918640137e-01 -5.525438785552978516e-01 -8.292453885078430176e-01
7.537000000000000000e+03 2.298026657104492188e+01 1.758022308349609375e+00 -1.476287484169006348e+00 -3.279608786106109619e-01 -5.412744879722595215e-01 -8.063725829124450684e-01
7.538000000000000000e+03 2.351560592651367188e+01 2.048071384429931641e+00 -1.492056965827941895e+00 -3.409196138381958008e-01 -5.498929619789123535e-01 -7.432398796081542969e-01
7.539000000000000000e+03 2.349943542480468750e+01 1.705067038536071777e+00 -1.397107124328613281e+00 -2.874934971332550049e-01 -5.053801536560058594e-01 -6.786049604415893555e-01
7.540000000000000000e+03 2.420757865905761719e+01 1.549304604530334473e+00 -1.230859994888305664e+00 -2.322818636894226074e-01 -4.389425814151763916e-01 -5.297285318374633789e-01
7.541000000000000000e+03 2.390286254882812500e+01 1.617006659507751465e+00 -1.247727274894714355e+00 -2.511573135852813721e-01 -4.496653974056243896e-01 -6.016346812248229980e-01
7.542000000000000000e+03 2.426016807556152344e+01 2.263231039047241211e+00 -1.370440602302551270e+00 -3.603728115558624268e-01 -5.192440152168273926e-01 -6.962568163871765137e-01
7.543000000000000000e+03 2.438212966918945312e+01 2.419571399688720703e+00 -1.431211590766906738e+00 -3.516235053539276123e-01 -5.348505377769470215e-01 -6.933745741844177246e-01
7.544000000000000000e+03 2.501914405822753906e+01 3.072271823883056641e+00 -1.394822359085083008e+00 -4.331458508968353271e-01 -5.483904480934143066e-01 -7.312439680099487305e-01
7.545000000000000000e+03 2.532720375061035156e+01 3.248655796051025391e+00 -1.362515568733215332e+00 -4.382839202880859375e-01 -5.402398109436035156e-01 -7.231184244155883789e-01
7.546000000000000000e+03 2.550490188598632812e+01 3.339133024215698242e+00 -1.367793321609497070e+00 -4.509314894676208496e-01 -5.456174612045288086e-01 -7.215000391006469727e-01
7.547000000000000000e+03 2.575601005554199219e+01 3.198018789291381836e+00 -1.292265653610229492e+00 -4.367830455303192139e-01 -5.187146067619323730e-01 -6.659376025199890137e-01
7.548000000000000000e+03 2.629689216613769531e+01 3.235952377319335938e+00 -1.206575870513916016e+00 -4.381325244903564453e-01 -4.934125244617462158e-01 -6.179588437080383301e-01
7.549000000000000000e+03 2.667771911621093750e+01 3.610142707824707031e+00 -1.171675682067871094e+00 -4.823677539825439453e-01 -4.962130486965179443e-01 -6.421867609024047852e-01
7.550000000000000000e+03 2.770235824584960938e+01 4.148253440856933594e+00 -1.077480196952819824e+00 -5.791210532188415527e-01 -4.969803690910339355e-01 -6.281292438507080078e-01
7.551000000000000000e+03 2.799503517150878906e+01 4.792543888092041016e+00 -1.106661081314086914e+00 -6.689855456352233887e-01 -5.326939821243286133e-01 -6.985592842102050781e-01
7.552000000000000000e+03 2.877148628234863281e+01 5.402812004089355469e+00 -1.051755428314208984e+00 -6.931055784225463867e-01 -5.234583020210266113e-01 -6.537135243415832520e-01
7.553000000000000000e+03 2.892060089111328125e+01 5.485537528991699219e+00 -1.054799079895019531e+00 -6.594023704528808594e-01 -5.142604112625122070e-01 -6.393240690231323242e-01
7.554000000000000000e+03 2.934739112854003906e+01 9.587095260620117188e+00 -1.564988255500793457e+00 -7.353445887565612793e-01 -6.900998353958129883e-01 -1.114970326423645020e+00
7.555000000000000000e+03 2.831816291809082031e+01 9.098684310913085938e+00 -2.281299829483032227e+00 -1.549834728240966797e+00 -1.149340391159057617e+00 -1.837655067443847656e+00
7.556000000000000000e+03 2.742436790466308594e+01 8.270503997802734375e+00 -3.731392145156860352e+00 -1.963862180709838867e+00 -1.708576321601867676e+00 -2.876177549362182617e+00
7.557000000000000000e+03 2.710642814636230469e+01 8.175982475280761719e+00 -4.306894779205322266e+00 -2.934211015701293945e+00 -2.172331809997558594e+00 -3.588059186935424805e+00
7.558000000000000000e+03 5.439850616455078125e+01 3.332508087158203125e+01 1.019020438194274902e+00 5.581114292144775391e-01 4.731395542621612549e-01 3.356027603149414062e-01
7.559000000000000000e+03 5.552476119995117188e+01 3.350001525878906250e+01 2.136132478713989258e+00 8.205682039260864258e-01 8.870102167129516602e-01 9.044510722160339355e-01
7.560000000000000000e+03 5.574235916137695312e+01 3.328650665283203125e+01 2.807225227355957031e+00 1.185818791389465332e+00 1.197913169860839844e+00 1.565340876579284668e+00
7.561000000000000000e+03 5.627570343017578125e+01 3.336323165893554688e+01 3.614511966705322266e+00 1.655404329299926758e+00 1.580974936485290527e+00 2.379991054534912109e+00
7.562000000000000000e+03 5.686835098266601562e+01 3.329130554199218750e+01 4.728567600250244141e+00 3.265264511108398438e+00 2.398149490356445312e+00 4.059872150421142578e+00
7.563000000000000000e+03 5.662230300903320312e+01 3.300159835815429688e+01 4.150547981262207031e+00 3.286563634872436523e+00 2.231133460998535156e+00 3.768061637878417969e+00
7.564000000000000000e+03 5.714635086059570312e+01 3.254885101318359375e+01 3.791121006011962891e+00 6.623688697814941406e+00 3.124442815780639648e+00 5.307168483734130859e+00
7.565000000000000000e+03 5.725855255126953125e+01 3.324041748046875000e+01 5.194037914276123047e+00 5.253188610076904297e+00 3.134168148040771484e+00 5.494039535522460938e+00
7.566000000000000000e+03 5.741016006469726562e+01 3.291215133666992188e+01 4.444613933563232422e+00 7.458479404449462891e+00 3.570928096771240234e+00 6.076972961425781250e+00
7.567000000000000000e+03 5.783241653442382812e+01 3.280519485473632812e+01 3.683455944061279297e+00 1.097456455230712891e+01 4.397406101226806641e+00 6.583283424377441406e+00
7.568000000000000000e+03 5.784716415405273438e+01 3.313547515869140625e+01 4.554443359375000000e+00 1.052308845520019531e+01 4.523259639739990234e+00 7.236448287963867188e+00
7.569000000000000000e+03 5.827939605712890625e+01 3.307546234130859375e+01 2.980534315109252930e+00 1.598626041412353516e+01 5.690038204193115234e+00 7.326706409454345703e+00
7.570000000000000000e+03 5.729740905761718750e+01 3.672475814819335938e+01 1.488799691200256348e+00 6.594054222106933594e+00 2.424856185913085938e+00 -3.851944923400878906e+00
7.571000000000000000e+03 5.874528884887695312e+01 3.641802215576171875e+01 -9.130283445119857788e-02 1.751108169555664062e+01 5.225933551788330078e+00 -3.994118690490722656e+00
7.572000000000000000e+03 2.595972251892089844e+01 7.297086238861083984e+00 -6.181059837341308594e+00 -3.187075138092041016e+00 -2.810440540313720703e+00 -3.807586431503295898e+00
7.573000000000000000e+03 1.530409240722656250e+01 4.936506271362304688e+00 2.209113836288452148e-01 3.087614476680755615e-01 1.589018553495407104e-01 2.804369628429412842e-01
7.574000000000000000e+03 4.135446166992187500e+01 3.223579406738281250e+01 7.245353609323501587e-02 5.696322396397590637e-02 3.882502764463424683e-02 7.412832975387573242e-02
7.575000000000000000e+03 4.831617736816406250e+01 3.713745117187500000e+01 1.658518612384796143e-01 -1.520432904362678528e-02 4.519426077604293823e-02 1.304828524589538574e-01
7.576000000000000000e+03 4.939306640625000000e+01 3.821706390380859375e+01 1.016989350318908691e-01 8.376421034336090088e-02 5.563894659280776978e-02 9.924747049808502197e-02
7.577000000000000000e+03 7.736499023437500000e+01 3.905576705932617188e+01 1.771746575832366943e-01 3.877952337265014648e+00 1.216538071632385254e+00 4.874748736619949341e-02
7.578000000000000000e+03 7.805448913574218750e+01 4.162722778320312500e+01 -2.114669382572174072e-01 3.579442024230957031e+00 1.010392546653747559e+00 5.887384712696075439e-02
7.579000000000000000e+03 1.501754188537597656e+01 9.275783300399780273e-01 9.159120559692382812e+00 1.459324598312377930e+00 3.185533761978149414e+00 -3.476628541946411133e+00
7.580000000000000000e+03 4.610194396972656250e+01 -4.008795166015625000e+01 6.048488616943359375e-01 4.535758018493652344e+00 1.542181968688964844e+00 1.141010224819183350e-01
7.581000000000000000e+03 4.359730529785156250e+01 -3.966627120971679688e+01 1.311698436737060547e+00 2.109884977340698242e+00 1.026475071907043457e+00 1.007709980010986328e+00
7.582000000000000000e+03 5.498070526123046875e+01 3.309834289550781250e+01 1.786937355995178223e+00 9.628673791885375977e-01 8.249414563179016113e-01 9.622229337692260742e-01
7.583000000000000000e+03 2.691680145263671875e+01 3.562979221343994141e+00 -1.128698945045471191e+00 -4.986400008201599121e-01 -4.882016777992248535e-01 -6.118534207344055176e-01
7.584000000000000000e+03 2.743408966064453125e+01 3.448346614837646484e+00 -1.021783709526062012e+00 -4.789918363094329834e-01 -4.502326548099517822e-01 -5.286480784416198730e-01
7.585000000000000000e+03 2.808902359008789062e+01 3.954444885253906250e+00 -9.712007045745849609e-01 -5.376586318016052246e-01 -4.526578187942504883e-01 -5.255876183509826660e-01
7.586000000000000000e+03 2.933594512939453125e+01 5.133060932159423828e+00 -9.463188052177429199e-01 -5.204113721847534180e-01 -4.400190412998199463e-01 -5.561571717262268066e-01
7.587000000000000000e+03 2.465831947326660156e+01 2.288816690444946289e+00 -1.288615226745605469e+00 -3.456418812274932861e-01 -4.902771413326263428e-01 -6.278192996978759766e-01
7.588000000000000000e+03 5.657323837280273438e+01 3.700430297851562500e+01 1.350060582160949707e+00 3.789647102355957031e+00 1.541912317276000977e+00 -2.329138755798339844e+00
7.589000000000000000e+03 5.241191864013671875e+01 3.958916473388671875e+01 -8.279902487993240356e-02 -2.449783980846405029e-01 -9.833322465419769287e-02 2.688309550285339355e-01
7.590000000000000000e+03 2.043571853637695312e+01 -5.078285932540893555e-01 -2.880973815917968750e+00 -1.617203474044799805e+00 -1.349453210830688477e+00 -1.343307018280029297e+00
7.591000000000000000e+03 2.259629058837890625e+01 7.656160593032836914e-01 -1.290804982185363770e+00 -4.358294978737831116e-02 -4.003163576126098633e-01 -7.445189952850341797e-01
7.592000000000000000e+03 2.252201461791992188e+01 1.286952644586563110e-01 -1.015097022056579590e+00 1.829763650894165039e-01 -2.496361881494522095e-01 -5.700621008872985840e-01
7.593000000000000000e+03 2.417163467407226562e+01 1.856569051742553711e+00 -1.269930720329284668e+00 -2.829451858997344971e-01 -4.658627808094024658e-01 -6.139527559280395508e-01
7.594000000000000000e+03 2.450922203063964844e+01 1.845304250717163086e+00 -1.267443776130676270e+00 -2.694502472877502441e-01 -4.610681831836700439e-01 -5.597230195999145508e-01
7.595000000000000000e+03 5.462856292724609375e+01 3.291701126098632812e+01 1.636733412742614746e+00 9.752393364906311035e-01 7.835918068885803223e-01 9.377193450927734375e-01
7.596000000000000000e+03 5.637296676635742188e+01 3.265330886840820312e+01 3.630695104598999023e+00 3.457501649856567383e+00 2.126459121704101562e+00 3.573996305465698242e+00
7.597000000000000000e+03 5.722952651977539062e+01 3.295257949829101562e+01 4.653878211975097656e+00 6.082619667053222656e+00 3.220949172973632812e+00 5.656439304351806641e+00
7.598000000000000000e+03 5.757740783691406250e+01 3.251073074340820312e+01 3.321511983871459961e+00 9.337046623229980469e+00 3.797567367553710938e+00 5.909342288970947266e+00
7.599000000000000000e+03 5.832563018798828125e+01 3.240697860717773438e+01 1.887492299079895020e+00 1.390911483764648438e+01 4.738982200622558594e+00 4.990048885345458984e+00
7.600000000000000000e+03 5.864693069458007812e+01 3.267695236206054688e+01 2.105506658554077148e+00 1.636274719238281250e+01 5.540476322174072266e+00 4.104097366333007812e+00
7.601000000000000000e+03 2.688667297363281250e+01 3.195829629898071289e+00 -1.047971487045288086e+00 -4.412779808044433594e-01 -4.467748403549194336e-01 -5.264582037925720215e-01
7.602000000000000000e+03 2.717717742919921875e+01 3.110190629959106445e+00 -1.008014798164367676e+00 -4.463136196136474609e-01 -4.362985193729400635e-01 -4.979335367679595947e-01
7.603000000000000000e+03 2.630997657775878906e+01 3.473786592483520508e+00 -1.219427108764648438e+00 -4.610565304756164551e-01 -5.041450858116149902e-01 -6.546705365180969238e-01
7.604000000000000000e+03 1.774007606506347656e+01 -1.877516865730285645e+00 -1.286952137947082520e+00 -4.777484238147735596e-01 -5.294101834297180176e-01 -7.034201025962829590e-01
7.605000000000000000e+03 1.812270927429199219e+01 -2.623749494552612305e+00 -8.941879868507385254e-01 -6.649170517921447754e-01 -4.677315056324005127e-01 -7.410923242568969727e-01
7.606000000000000000e+03 1.567672252655029297e+01 -3.043650627136230469e+00 -7.141464948654174805e-01 -5.279797911643981934e-01 -3.726378977298736572e-01 -6.224845051765441895e-01
7.607000000000000000e+03 2.302718544006347656e+01 1.284858465194702148e+00 -1.387152075767517090e+00 -2.285588085651397705e-01 -4.847132861614227295e-01 -7.203229069709777832e-01
7.608000000000000000e+03 2.056089401245117188e+01 -1.997097022831439972e-02 -1.397759437561035156e+00 -9.801917076110839844e-01 -7.133853435516357422e-01 -1.541888356208801270e+00
7.609000000000000000e+03 5.641030883789062500e+01 3.300334548950195312e+01 3.854853153228759766e+00 2.678976297378540039e+00 1.960148811340332031e+00 3.219789028167724609e+00
7.610000000000000000e+03 5.588155746459960938e+01 3.276790618896484375e+01 3.124191284179687500e+00 2.241588115692138672e+00 1.609733819961547852e+00 2.553442239761352539e+00
7.611000000000000000e+03 2.229118919372558594e+01 -3.650376129150390625e+01 2.367379069328308105e-01 1.790083944797515869e-01 1.247238889336585999e-01 -1.243962198495864868e-01
7.612000000000000000e+03 1.949095153808593750e+01 -7.832447886466979980e-01 -2.051161766052246094e+00 -1.018544077873229980e+00 -9.209117889404296875e-01 -1.099697113037109375e+00
7.613000000000000000e+03 2.955340194702148438e+01 5.322909832000732422e+00 -9.252518415451049805e-01 -4.773083329200744629e-01 -4.207680523395538330e-01 -5.669826269149780273e-01
7.614000000000000000e+03 1.170876407623291016e+01 3.004708051681518555e+00 6.307286620140075684e-01 -4.131148755550384521e-02 1.768251508474349976e-01 -1.333312839269638062e-01
7.615000000000000000e+03 5.917744064331054688e+01 3.820685577392578125e+01 -1.005280256271362305e+00 1.452624320983886719e+01 4.056288719177246094e+00 -1.351570129394531250e+00
7.616000000000000000e+03 4.794597244262695312e+01 3.836174392700195312e+01 8.735801279544830322e-02 -3.525863587856292725e-02 1.562981307506561279e-02 1.033743694424629211e-01
7.617000000000000000e+03 2.666475677490234375e+01 -2.931849956512451172e+00 2.156327068805694580e-01 -1.011200994253158569e-01 3.435378149151802063e-02 -4.189366847276687622e-02
7.618000000000000000e+03 2.540197372436523438e+01 2.619455337524414062e+00 -1.237487673759460449e+00 -3.800037205219268799e-01 -4.852474033832550049e-01 -6.007366776466369629e-01
7.619000000000000000e+03 2.329236412048339844e+01 -3.623714670538902283e-02 -7.929835319519042969e-01 4.179365932941436768e-02 -2.253569662570953369e-01 -3.736727237701416016e-01
7.620000000000000000e+03 2.314892959594726562e+01 5.725815892219543457e-01 -1.051427245140075684e+00 -4.414788261055946350e-02 -3.286725282669067383e-01 -5.263175368309020996e-01
7.621000000000000000e+03 5.804525756835937500e+01 3.216012954711914062e+01 1.946967005729675293e+00 1.199628448486328125e+01 4.182975292205810547e+00 5.206377506256103516e+00
7.622000000000000000e+03 2.453224754333496094e+01 1.522967219352722168e+00 -1.084489583969116211e+00 -2.342761009931564331e-01 -3.956297039985656738e-01 -4.847004413604736328e-01
7.623000000000000000e+03 2.898773193359375000e+01 4.895451068878173828e+00 -9.732244014739990234e-01 -5.584068894386291504e-01 -4.594893753528594971e-01 -5.454432368278503418e-01
7.624000000000000000e+03 5.685533142089843750e+01 3.252762603759765625e+01 3.832281589508056641e+00 5.339941501617431641e+00 2.751667022705078125e+00 4.798804759979248047e+00
7.625000000000000000e+03 5.797339248657226562e+01 3.763752746582031250e+01 -2.402776777744293213e-01 1.196264839172363281e+01 3.516710996627807617e+00 -3.406723737716674805e+00
7.626000000000000000e+03 1.310364627838134766e+01 1.755762457847595215e+00 1.460888743400573730e+00 6.450101137161254883e-01 6.317696571350097656e-01 -4.697267413139343262e-01
7.627000000000000000e+03 5.746987152099609375e+01 3.689028549194335938e+01 1.417653203010559082e+00 7.592268466949462891e+00 2.702976465225219727e+00 -4.291681289672851562e+00
7.628000000000000000e+03 5.718129730224609375e+01 3.725740814208984375e+01 1.009083271026611328e+00 6.859151840209960938e+00 2.360470533370971680e+00 -3.510380983352661133e+00
7.629000000000000000e+03 5.952366638183593750e+01 3.726128387451171875e+01 -1.479088515043258667e-01 1.681795120239257812e+01 5.001012802124023438e+00 -3.005910217761993408e-01
7.630000000000000000e+03 5.479111862182617188e+01 3.259534072875976562e+01 2.004702806472778320e+00 1.313844203948974609e+00 9.955641627311706543e-01 1.356796860694885254e+00
7.631000000000000000e+03 5.448428726196289062e+01 3.255937194824218750e+01 1.669355988502502441e+00 1.067548871040344238e+00 8.210714459419250488e-01 1.141496896743774414e+00
7.632000000000000000e+03 5.850959396362304688e+01 3.783903121948242188e+01 -4.746600389480590820e-01 1.355698204040527344e+01 3.924696683883666992e+00 -2.813003063201904297e+00
7.633000000000000000e+03 2.748124122619628906e+01 3.110106945037841797e+00 -9.348115324974060059e-01 -4.332676231861114502e-01 -4.104237556457519531e-01 -4.574225246906280518e-01
7.634000000000000000e+03 2.766965866088867188e+01 3.481316566467285156e+00 -9.750513434410095215e-01 -4.770958125591278076e-01 -4.356441497802734375e-01 -5.027025938034057617e-01
7.635000000000000000e+03 5.698201751708984375e+01 3.269770812988281250e+01 4.142396450042724609e+00 5.468599319458007812e+00 2.883298635482788086e+00 5.024015426635742188e+00
7.636000000000000000e+03 5.680731964111328125e+01 3.273492050170898438e+01 4.142242431640625000e+00 4.635247230529785156e+00 2.633246898651123047e+00 4.593231678009033203e+00
7.637000000000000000e+03 2.562718200683593750e+01 2.697331428527832031e+00 -1.206229209899902344e+00 -3.551764190196990967e-01 -4.684216976165771484e-01 -5.675132870674133301e-01
7.638000000000000000e+03 2.549813079833984375e+01 2.391132831573486328e+00 -1.155268311500549316e+00 -3.294170200824737549e-01 -4.454056024551391602e-01 -5.249630808830261230e-01
7.639000000000000000e+03 5.666182327270507812e+01 3.241788101196289062e+01 3.687777996063232422e+00 4.903870582580566406e+00 2.577494621276855469e+00 4.450415611267089844e+00
7.640000000000000000e+03 2.792843437194824219e+01 3.541272878646850586e+00 -9.463087916374206543e-01 -5.019859075546264648e-01 -4.344884157180786133e-01 -4.994826018810272217e-01
7.641000000000000000e+03 3.728752517700195312e+01 2.906224060058593750e+01 6.216954439878463745e-02 8.483956009149551392e-02 4.410273209214210510e-02 7.167708873748779297e-02
7.642000000000000000e+03 3.751276016235351562e+01 2.855156135559082031e+01 7.306270301342010498e-02 8.291628211736679077e-02 4.679369553923606873e-02 7.536482065916061401e-02
7.643000000000000000e+03 4.753331756591796875e+01 3.774083709716796875e+01 2.195645272731781006e-01 5.412359908223152161e-02 8.210644125938415527e-02 5.206613987684249878e-02
7.644000000000000000e+03 2.451053619384765625e+01 1.582272338867187500e+01 1.100656241178512573e-01 1.306278854608535767e-01 7.220804691314697266e-02 1.240491122007369995e-01
7.645000000000000000e+03 3.282705307006835938e+01 2.397237777709960938e+01 6.906495988368988037e-02 9.172771126031875610e-02 4.823780432343482971e-02 7.896522432565689087e-02
7.646000000000000000e+03 3.977722167968750000e+01 3.143175888061523438e+01 8.184748142957687378e-02 8.039306104183197021e-02 4.867216199636459351e-02 6.406874954700469971e-02
7.647000000000000000e+03 4.371602630615234375e+01 3.434597778320312500e+01 1.129579693078994751e-01 4.532441496849060059e-02 4.748471453785896301e-02 7.032790780067443848e-02
7.648000000000000000e+03 4.361145019531250000e+01 3.525968170166015625e+01 1.325796544551849365e-01 3.334117680788040161e-02 4.977624863386154175e-02 6.884174793958663940e-02
7.649000000000000000e+03 7.500318145751953125e+01 -3.797140121459960938e+01 3.217030316591262817e-02 7.841939449310302734e+00 2.362232923507690430e+00 4.498486593365669250e-02
7.650000000000000000e+03 5.704677581787109375e+01 3.687104034423828125e+01 1.430551767349243164e+00 4.980611801147460938e+00 1.923349022865295410e+00 -3.019662380218505859e+00
7.651000000000000000e+03 1.274779129028320312e+01 4.134847164154052734e+00 3.172720074653625488e-01 7.744593620300292969e-01 3.275194168090820312e-01 -2.405949383974075317e-01
7.652000000000000000e+03 1.782494544982910156e+01 -2.363920688629150391e+00 -9.094122052192687988e-01 -5.295263528823852539e-01 -4.316815733909606934e-01 -6.185380816459655762e-01
7.653000000000000000e+03 3.468775939941406250e+01 -3.673880004882812500e+01 5.028035044670104980e-01 4.523466825485229492e-01 2.865450680255889893e-01 -4.506301581859588623e-01
7.654000000000000000e+03 6.215542602539062500e+01 3.183964729309082031e+01 2.448562383651733398e+00 1.309027194976806641e+01 4.661650180816650391e+00 -1.624235391616821289e+00
7.655000000000000000e+03 4.886266326904296875e+01 -2.877446556091308594e+01 5.392262712121009827e-02 4.204295635223388672e+00 1.277465581893920898e+00 1.008898168802261353e-01
7.656000000000000000e+03 3.240854644775390625e+01 -3.443085861206054688e+01 3.059825599193572998e-01 5.346255898475646973e-01 2.521824538707733154e-01 -4.074070453643798828e-01
7.657000000000000000e+03 7.097910308837890625e+01 -3.434286499023437500e+01 9.303042292594909668e-02 7.314706802368164062e+00 2.222321271896362305e+00 1.734415143728256226e-01
7.658000000000000000e+03 4.377497863769531250e+01 3.697209930419921875e+01 1.210661977529525757e-01 1.382929738610982895e-02 4.046864807605743408e-02 3.737606480717658997e-02
7.659000000000000000e+03 5.055654525756835938e+01 -3.165485954284667969e+01 3.562428355216979980e-01 4.538112163543701172e+00 1.468306422233581543e+00 2.886797785758972168e-01
7.660000000000000000e+03 7.105334472656250000e+01 3.624421310424804688e+01 8.640116453170776367e-01 7.773636341094970703e+00 2.591294288635253906e+00 -3.210310339927673340e-01
7.661000000000000000e+03 7.109458160400390625e+01 3.482390594482421875e+01 1.036342501640319824e+00 7.698289871215820312e+00 2.620389699935913086e+00 -5.892753601074218750e-01
7.662000000000000000e+03 2.586641120910644531e+01 1.950350165367126465e+00 -1.008120059967041016e+00 -2.832069098949432373e-01 -3.873980939388275146e-01 -4.039901494979858398e-01
7.663000000000000000e+03 2.582241058349609375e+01 2.719212532043457031e+00 -1.174953222274780273e+00 -3.909248411655426025e-01 -4.697634279727935791e-01 -5.609957575798034668e-01
7.664000000000000000e+03 1.322077941894531250e+01 4.679586887359619141e+00 1.617393791675567627e-01 8.446732163429260254e-01 3.019237816333770752e-01 -7.296861708164215088e-02
7.665000000000000000e+03 5.654482650756835938e+01 3.162594223022460938e+01 2.594691038131713867e+00 5.619792461395263672e+00 2.464344978332519531e+00 4.172859191894531250e+00
7.666000000000000000e+03 5.711282348632812500e+01 3.202981185913085938e+01 2.934901475906372070e+00 7.241512775421142578e+00 3.052924156188964844e+00 4.999210357666015625e+00
7.667000000000000000e+03 7.156027984619140625e+01 3.356307601928710938e+01 8.775870203971862793e-01 7.559257984161376953e+00 2.531053543090820312e+00 -9.374558329582214355e-01
7.668000000000000000e+03 2.347673797607421875e+01 3.040009438991546631e-01 -9.158421754837036133e-01 6.384271197021007538e-03 -2.728373706340789795e-01 -4.184610843658447266e-01
7.669000000000000000e+03 2.601106262207031250e+01 3.007267951965332031e+00 -1.208820939064025879e+00 -4.265393316745758057e-01 -4.906080961227416992e-01 -6.115859150886535645e-01
7.670000000000000000e+03 2.572518920898437500e+01 2.525829076766967773e+00 -1.139683961868286133e+00 -3.713998496532440186e-01 -4.533251523971557617e-01 -5.409552454948425293e-01
7.671000000000000000e+03 1.879633712768554688e+01 -2.472563743591308594e+00 -6.471967101097106934e-01 -8.530367612838745117e-01 -4.500700533390045166e-01 -7.098238468170166016e-01
7.672000000000000000e+03 1.692755508422851562e+01 -3.041830539703369141e+00 -6.838780641555786133e-01 -6.236004233360290527e-01 -3.922435343265533447e-01 -5.552017092704772949e-01
7.673000000000000000e+03 2.621872901916503906e+01 3.013028860092163086e+00 -1.133559703826904297e+00 -4.218435585498809814e-01 -4.666209816932678223e-01 -5.719049572944641113e-01
7.674000000000000000e+03 6.818531036376953125e+00 -3.160568809509277344e+01 3.465068712830543518e-02 -6.340851187705993652e-01 -1.798303425312042236e-01 -7.812056690454483032e-02
7.675000000000000000e+03 4.037611007690429688e+01 3.244339752197265625e+01 7.479997724294662476e-02 4.745141416788101196e-02 3.667541593313217163e-02 6.796473264694213867e-02
7.676000000000000000e+03 5.449612808227539062e+01 3.178883552551269531e+01 1.836396455764770508e+00 1.725980043411254883e+00 1.068712949752807617e+00 1.803543090820312500e+00
7.677000000000000000e+03 2.566218566894531250e+01 2.169654369354248047e+00 -1.090212225914001465e+00 -3.304884731769561768e-01 -4.262101948261260986e-01 -4.794900417327880859e-01
7.678000000000000000e+03 2.566687202453613281e+01 1.769463896751403809e+00 -9.775220155715942383e-01 -3.007907569408416748e-01 -3.834938406944274902e-01 -4.183509647846221924e-01
7.679000000000000000e+03 2.823954010009765625e+01 3.424466371536254883e+00 -8.598488569259643555e-01 -4.588868021965026855e-01 -3.956207036972045898e-01 -4.222226142883300781e-01
7.680000000000000000e+03 2.337770462036132812e+01 7.784268856048583984e-01 -1.135872364044189453e+00 -1.009006202220916748e-01 -3.710319101810455322e-01 -5.325300097465515137e-01
7.681000000000000000e+03 2.911536598205566406e+01 3.883996248245239258e+00 -8.270994424819946289e-01 -4.501754343509674072e-01 -3.831824660301208496e-01 -4.059407114982604980e-01
7.682000000000000000e+03 2.754871177673339844e+01 2.755940198898315430e+00 -8.729916214942932129e-01 -4.217531085014343262e-01 -3.884234130382537842e-01 -3.982755243778228760e-01
7.683000000000000000e+03 1.246850967407226562e+01 4.336467266082763672e+00 3.161137700080871582e-01 5.787793993949890137e-01 2.684679627418518066e-01 -2.218567430973052979e-01
7.684000000000000000e+03 8.252866744995117188e+00 -5.421396732330322266e+00 -1.731403023004531860e-01 -1.310012638568878174e-01 -9.124246984720230103e-02 -2.993955314159393311e-01
7.685000000000000000e+03 1.041841030120849609e+01 -5.213599681854248047e+00 -2.564364969730377197e-01 -1.466488838195800781e-01 -1.209256201982498169e-01 -3.895291388034820557e-01
7.686000000000000000e+03 1.587364196777343750e+01 -5.065032482147216797e+00 -1.408642381429672241e-01 -4.772612452507019043e-01 -1.854376494884490967e-01 -4.739151895046234131e-01
7.687000000000000000e+03 5.948152160644531250e+01 3.170746803283691406e+01 7.662431001663208008e-01 1.547578907012939453e+01 4.872609615325927734e+00 1.535467267036437988e+00
7.688000000000000000e+03 5.979411697387695312e+01 3.148084259033203125e+01 7.695196866989135742e-01 1.495752048492431641e+01 4.718111991882324219e+00 1.021394491195678711e+00
7.689000000000000000e+03 7.135418415069580078e+00 -3.026096343994140625e+01 3.662733733654022217e-02 -5.902786850929260254e-01 -1.660954058170318604e-01 -9.293696284294128418e-02
7.690000000000000000e+03 4.987164306640625000e+01 -3.009830856323242188e+01 1.990633010864257812e-01 4.444378376007080078e+00 1.393032550811767578e+00 2.391776144504547119e-01
7.691000000000000000e+03 2.624132347106933594e+01 2.791856765747070312e+00 -1.121637463569641113e+00 -3.961485922336578369e-01 -4.553358256816864014e-01 -5.315790772438049316e-01
7.692000000000000000e+03 2.639725303649902344e+01 2.907081842422485352e+00 -1.098258376121520996e+00 -4.047212004661560059e-01 -4.508938789367675781e-01 -5.340664982795715332e-01
7.693000000000000000e+03 2.634262847900390625e+01 2.570143938064575195e+00 -1.024824380874633789e+00 -3.720757365226745605e-01 -4.190700054168701172e-01 -4.743063449859619141e-01
7.694000000000000000e+03 3.982882690429687500e+01 3.255490112304687500e+01 6.435170024633407593e-02 5.634218826889991760e-02 3.620816767215728760e-02 6.164195016026496887e-02
7.695000000000000000e+03 2.611061477661132812e+01 2.473718166351318359e+00 -1.085632324218750000e+00 -3.608762919902801514e-01 -4.339525699615478516e-01 -4.862050414085388184e-01
7.696000000000000000e+03 3.519056320190429688e+01 2.739062118530273438e+01 6.908879429101943970e-02 9.053636342287063599e-02 4.788754880428314209e-02 7.499293982982635498e-02
7.697000000000000000e+03 4.463000869750976562e+01 3.548364257812500000e+01 8.575239032506942749e-02 3.208400681614875793e-02 3.535091876983642578e-02 6.129715219140052795e-02
7.698000000000000000e+03 9.811473846435546875e+00 -6.016031265258789062e+00 -1.872670501470565796e-01 -1.684530079364776611e-01 -1.067160144448280334e-01 -3.795621693134307861e-01
7.699000000000000000e+03 2.943203544616699219e+01 3.924211502075195312e+00 -7.768941521644592285e-01 -3.974370360374450684e-01 -3.522993624210357666e-01 -3.765436708927154541e-01
7.700000000000000000e+03 2.979773902893066406e+01 3.952213287353515625e+00 -7.509829401969909668e-01 -3.705368340015411377e-01 -3.364559412002563477e-01 -3.589613437652587891e-01
7.701000000000000000e+03 4.091108322143554688e+01 2.036206626892089844e+01 -4.214476644992828369e-01 -2.351095527410507202e-01 -1.969671547412872314e-01 -3.726671636104583740e-01
7.702000000000000000e+03 5.780534362792968750e+01 3.217198562622070312e+01 2.408096790313720703e+00 1.079552555084228516e+01 3.961086511611938477e+00 5.484873771667480469e+00
7.703000000000000000e+03 5.774895095825195312e+01 3.190098190307617188e+01 2.060712099075317383e+00 1.044205951690673828e+01 3.750831365585327148e+00 5.124898910522460938e+00
7.704000000000000000e+03 4.434126663208007812e+01 -2.521030235290527344e+01 -1.197407320141792297e-01 2.665174722671508789e+00 7.636301517486572266e-01 -3.433331549167633057e-01
7.705000000000000000e+03 2.625439262390136719e+01 1.982017159461975098e+00 -9.500942826271057129e-01 -3.137118816375732422e-01 -3.791418373584747314e-01 -3.795229196548461914e-01
7.706000000000000000e+03 2.645548820495605469e+01 2.308778047561645508e+00 -9.970207214355468750e-01 -3.560954332351684570e-01 -4.059348404407501221e-01 -4.321683943271636963e-01
7.707000000000000000e+03 2.891994476318359375e+01 2.940419673919677734e+00 -7.044355869293212891e-01 -3.863708078861236572e-01 -3.272419273853302002e-01 -3.082885444164276123e-01
7.708000000000000000e+03 5.467076873779296875e+01 3.132443809509277344e+01 1.919199585914611816e+00 2.316598653793334961e+00 1.270739555358886719e+00 2.246587276458740234e+00
7.709000000000000000e+03 3.367195510864257812e+01 2.506924247741699219e+01 6.582065671682357788e-02 9.053169190883636475e-02 4.690570756793022156e-02 7.778691500425338745e-02
7.710000000000000000e+03 3.310569000244140625e+01 2.516625022888183594e+01 6.603501737117767334e-02 9.078680723905563354e-02 4.704654589295387268e-02 7.830894738435745239e-02
7.711000000000000000e+03 4.249005889892578125e+01 3.394532775878906250e+01 1.037526801228523254e-01 6.478649377822875977e-02 5.056175217032432556e-02 6.761199235916137695e-02
7.712000000000000000e+03 2.661197090148925781e+01 3.877345919609069824e-01 -4.472883045673370361e-01 -2.140607386827468872e-01 -1.984047144651412964e-01 -1.049691066145896912e-01
7.713000000000000000e+03 3.641388320922851562e+01 2.859664154052734375e+01 6.233051046729087830e-02 8.956026285886764526e-02 4.556723311543464661e-02 6.752150505781173706e-02
7.714000000000000000e+03 3.364404296875000000e+01 7.467770576477050781e+00 -5.063250064849853516e-01 -2.581506669521331787e-01 -2.293427139520645142e-01 -3.508975505828857422e-01
7.715000000000000000e+03 6.121760559082031250e+01 3.083410453796386719e+01 8.066476583480834961e-01 1.345988368988037109e+01 4.279959201812744141e+00 -5.235422253608703613e-01
7.716000000000000000e+03 2.792566490173339844e+01 2.452167510986328125e+00 -7.700772881507873535e-01 -3.912127912044525146e-01 -3.483870327472686768e-01 -3.253885209560394287e-01
7.717000000000000000e+03 2.770377159118652344e+01 2.136258363723754883e+00 -7.372739315032958984e-01 -3.735091090202331543e-01 -3.332349359989166260e-01 -3.018000423908233643e-01
7.718000000000000000e+03 2.818771934509277344e+01 2.076911687850952148e+00 -6.705529689788818359e-01 -3.428308069705963135e-01 -3.040151298046112061e-01 -2.402282804250717163e-01
7.719000000000000000e+03 1.647269058227539062e+01 -5.644467353820800781e+00 -6.097831204533576965e-02 -4.070925712585449219e-01 -1.404212713241577148e-01 -3.783191144466400146e-01
7.720000000000000000e+03 3.893931961059570312e+01 3.287346649169921875e+01 7.459142059087753296e-02 8.751501888036727905e-02 4.863193258643150330e-02 6.104161590337753296e-02
7.721000000000000000e+03 5.649897384643554688e+01 3.125882530212402344e+01 2.305874347686767578e+00 5.956280708312988281e+00 2.478646516799926758e+00 4.134908676147460938e+00
7.722000000000000000e+03 4.398928070068359375e+01 -1.975213241577148438e+01 -1.569581627845764160e-01 2.315896272659301758e+00 6.476814150810241699e-01 -2.024657577276229858e-01
7.723000000000000000e+03 4.236251068115234375e+01 -1.757252693176269531e+01 -9.298972785472869873e-02 1.852079153060913086e+00 5.277268290519714355e-01 -1.720604300498962402e-01
7.724000000000000000e+03 2.915433692932128906e+01 3.332902669906616211e+00 -7.186213731765747070e-01 -3.768009245395660400e-01 -3.286266922950744629e-01 -3.069426417350769043e-01
7.725000000000000000e+03 5.600432205200195312e+01 3.120724296569824219e+01 2.245763063430786133e+00 4.741724014282226562e+00 2.096246242523193359e+00 3.605380058288574219e+00
7.726000000000000000e+03 2.980426025390625000e+01 3.567523956298828125e+00 -6.775143742561340332e-01 -3.417192995548248291e-01 -3.057700991630554199e-01 -3.102037906646728516e-01
7.727000000000000000e+03 5.687068176269531250e+01 3.157509994506835938e+01 2.508881092071533203e+00 6.692451477050781250e+00 2.760399818420410156e+00 4.508249759674072266e+00
7.728000000000000000e+03 8.450567245483398438e+00 -2.705795097351074219e+01 4.096708446741104126e-02 -4.878573417663574219e-01 -1.340670734643936157e-01 -1.216747388243675232e-01
7.729000000000000000e+03 5.575177001953125000e+01 3.118672180175781250e+01 2.218752861022949219e+00 4.165557384490966797e+00 1.915293097496032715e+00 3.334726333618164062e+00
7.730000000000000000e+03 7.262658691406250000e+01 2.898858261108398438e+01 2.566922605037689209e-01 7.381316661834716797e+00 2.291402816772460938e+00 -1.466324210166931152e+00
7.731000000000000000e+03 7.402883148193359375e+01 -3.033767890930175781e+01 1.757334545254707336e-02 7.810823440551757812e+00 2.348519086837768555e+00 1.871351003646850586e-01
7.732000000000000000e+03 7.163096618652343750e+01 3.067077445983886719e+01 5.781386494636535645e-01 7.571319103240966797e+00 2.444837331771850586e+00 -1.373036623001098633e+00
7.733000000000000000e+03 5.406071472167968750e+01 3.139342498779296875e+01 1.594225525856018066e+00 1.630396008491516113e+00 9.673864841461181641e-01 1.717582345008850098e+00
7.734000000000000000e+03 5.380786895751953125e+01 3.091825485229492188e+01 1.455683946609497070e+00 1.712600111961364746e+00 9.504852294921875000e-01 1.763377785682678223e+00
7.735000000000000000e+03 5.488238525390625000e+01 3.093015098571777344e+01 1.852297902107238770e+00 2.941575050354003906e+00 1.438161849975585938e+00 2.568699836730957031e+00
7.736000000000000000e+03 5.493029403686523438e+01 3.125409317016601562e+01 1.984452009201049805e+00 2.749081373214721680e+00 1.420060038566589355e+00 2.508717536926269531e+00
7.737000000000000000e+03 2.610810470581054688e+01 1.292660117149353027e+00 -7.735123634338378906e-01 -2.737209498882293701e-01 -3.141700029373168945e-01 -2.764034569263458252e-01
7.738000000000000000e+03 2.547072792053222656e+01 8.284489512443542480e-01 -7.408624291419982910e-01 -1.558856368064880371e-01 -2.690244317054748535e-01 -2.367868870496749878e-01
7.739000000000000000e+03 5.986082458496093750e+01 3.071932983398437500e+01 1.976896971464157104e-01 1.372082328796386719e+01 4.175553798675537109e+00 1.159921884536743164e+00
7.740000000000000000e+03 3.652391433715820312e+01 2.885429954528808594e+01 7.502214610576629639e-02 8.416630327701568604e-02 4.775653406977653503e-02 7.767782360315322876e-02
7.741000000000000000e+03 2.664987373352050781e+01 1.637244820594787598e+00 -7.889778017997741699e-01 -3.187313079833984375e-01 -3.323127329349517822e-01 -3.025847375392913818e-01
7.742000000000000000e+03 4.538446807861328125e+01 -2.071766090393066406e+01 -1.832247227430343628e-01 2.717794179916381836e+00 7.603708505630493164e-01 -1.812583655118942261e-01
7.743000000000000000e+03 1.134145355224609375e+01 -2.693352317810058594e+01 6.738591194152832031e-02 -3.269427418708801270e-01 -7.786704599857330322e-02 -1.437660008668899536e-01
7.744000000000000000e+03 5.695142745971679688e+01 3.114961433410644531e+01 1.909184455871582031e+00 7.307255744934082031e+00 2.764931917190551758e+00 4.286091804504394531e+00
7.745000000000000000e+03 2.719470596313476562e+01 -4.101087749004364014e-01 -2.114367485046386719e-01 -2.207794934511184692e-01 -1.296648681163787842e-01 -6.303524225950241089e-02
7.746000000000000000e+03 5.193064117431640625e+01 3.091503143310546875e+01 6.495627760887145996e-01 4.077956378459930420e-01 3.172075152397155762e-01 6.293398737907409668e-01
7.747000000000000000e+03 5.793762969970703125e+01 3.174951553344726562e+01 1.687311291694641113e+00 1.111290550231933594e+01 3.840065002441406250e+00 4.788922309875488281e+00
7.748000000000000000e+03 3.543684005737304688e+01 3.222628021240234375e+01 4.838990792632102966e-02 7.856965065002441406e-02 3.808786720037460327e-02 5.311200767755508423e-02
7.749000000000000000e+03 1.610577011108398438e+01 7.566702365875244141e+00 1.554859429597854614e-01 3.021039068698883057e-01 1.372769623994827271e-01 2.067622095346450806e-01
7.750000000000000000e+03 1.717189407348632812e+01 -1.410741901397705078e+01 1.762533187866210938e-01 6.322253961116075516e-03 5.477267131209373474e-02 -2.402837127447128296e-01
7.751000000000000000e+03 5.545873260498046875e+01 3.133312988281250000e+01 2.248281955718994141e+00 3.366872787475585938e+00 1.684546470642089844e+00 2.938071489334106445e+00
7.752000000000000000e+03 5.574357604980468750e+01 3.091178894042968750e+01 2.025125741958618164e+00 4.369915485382080078e+00 1.918512344360351562e+00 3.348642826080322266e+00
7.753000000000000000e+03 5.512719345092773438e+01 3.089990234375000000e+01 1.905439376831054688e+00 3.311065196990966797e+00 1.564951419830322266e+00 2.772255897521972656e+00
7.754000000000000000e+03 3.510614776611328125e+01 -8.014095306396484375e+00 1.433559507131576538e-01 3.344597518444061279e-01 1.433447152376174927e-01 -4.138034209609031677e-02
7.755000000000000000e+03 1.120755004882812500e+01 -2.534053611755371094e+01 8.314358443021774292e-02 -3.245472311973571777e-01 -7.242109626531600952e-02 -1.648705303668975830e-01
7.756000000000000000e+03 7.163206481933593750e+01 2.722560501098632812e+01 6.476851552724838257e-02 7.818975448608398438e+00 2.365123271942138672e+00 -1.608830094337463379e+00
7.757000000000000000e+03 5.967547607421875000e+01 2.920614433288574219e+01 -4.424390196800231934e-01 1.161118507385253906e+01 3.350623846054077148e+00 1.436589598655700684e+00
7.758000000000000000e+03 5.434634017944335938e+01 3.068574333190917969e+01 1.596559762954711914e+00 2.487096786499023438e+00 1.225096940994262695e+00 2.230807542800903320e+00
7.759000000000000000e+03 5.487005996704101562e+01 3.060517692565917969e+01 1.719727635383605957e+00 3.183853626251220703e+00 1.471074342727661133e+00 2.641219377517700195e+00
7.760000000000000000e+03 5.513890075683593750e+01 3.060238647460937500e+01 1.793984055519104004e+00 3.591022968292236328e+00 1.615502119064331055e+00 2.870033740997314453e+00
7.761000000000000000e+03 2.824679946899414062e+01 2.009818458557128906e+01 8.630239963531494141e-02 1.075748130679130554e-01 5.816316232085227966e-02 9.739343822002410889e-02
7.762000000000000000e+03 3.587070465087890625e+01 2.879429435729980469e+01 5.951412394642829895e-02 8.412826806306838989e-02 4.309271648526191711e-02 6.626532226800918579e-02
7.763000000000000000e+03 1.532243633270263672e+01 -8.524614334106445312e+00 1.062011346220970154e-01 -2.663195133209228516e-01 -4.803551733493804932e-02 -3.425829112529754639e-01
7.764000000000000000e+03 4.091659927368164062e+01 1.924056434631347656e+01 -4.046325087547302246e-01 -8.978336304426193237e-02 -1.483247578144073486e-01 -3.117883503437042236e-01
7.765000000000000000e+03 3.442729568481445312e+01 2.972642135620117188e+01 5.545797571539878845e-02 9.325337409973144531e-02 4.461340606212615967e-02 6.606823205947875977e-02
7.766000000000000000e+03 1.408522415161132812e+01 8.597075462341308594e+00 7.703197747468948364e-02 3.223143219947814941e-01 1.198038905858993530e-01 9.751981496810913086e-02
7.767000000000000000e+03 2.874025726318359375e+01 2.102917289733886719e+01 7.819101214408874512e-02 1.060163378715515137e-01 5.526220425963401794e-02 9.361895918846130371e-02
7.768000000000000000e+03 1.571095466613769531e+01 9.102967262268066406e+00 1.060421764850616455e-01 2.792237102985382080e-01 1.155797615647315979e-01 1.534646600484848022e-01
7.769000000000000000e+03 4.566882705688476562e+01 -2.175498008728027344e+01 -1.928461492061614990e-01 2.844504833221435547e+00 7.954975962638854980e-01 -1.907491981983184814e-01
7.770000000000000000e+03 4.648001098632812500e+01 -2.052638244628906250e+01 -1.849487125873565674e-01 3.048660039901733398e+00 8.591133952140808105e-01 -1.192962452769279480e-01
7.771000000000000000e+03 2.756414985656738281e+01 -3.772552907466888428e-01 -2.212054282426834106e-01 -2.652956843376159668e-01 -1.459503322839736938e-01 -6.403133273124694824e-02
7.772000000000000000e+03 3.627550125122070312e+01 2.899341964721679688e+01 5.892100185155868530e-02 9.068578481674194336e-02 4.488203674554824829e-02 6.405789405107498169e-02
7.773000000000000000e+03 5.535332870483398438e+01 3.089411544799804688e+01 1.985794782638549805e+00 3.629585742950439453e+00 1.684614181518554688e+00 2.997056007385253906e+00
7.774000000000000000e+03 5.555517578125000000e+01 3.092169570922851562e+01 2.028366565704345703e+00 3.966596126556396484e+00 1.798488855361938477e+00 3.186238527297973633e+00
7.775000000000000000e+03 5.561872482299804688e+01 3.072206497192382812e+01 1.905545949935913086e+00 4.284715175628662109e+00 1.857078433036804199e+00 3.271022558212280273e+00
7.776000000000000000e+03 3.617424011230468750e+01 2.872131538391113281e+01 7.090040296316146851e-02 8.714904636144638062e-02 4.741483554244041443e-02 7.687634974718093872e-02
7.777000000000000000e+03 3.369628143310546875e+01 2.712522506713867188e+01 6.233850494027137756e-02 8.865857124328613281e-02 4.529912024736404419e-02 7.408576458692550659e-02
7.778000000000000000e+03 5.718581199645996094e+00 5.497764587402343750e+00 6.457893550395965576e-02 -1.345181763172149658e-01 -2.098177373409271240e-02 1.284766793251037598e-01
7.779000000000000000e+03 4.666097259521484375e+01 -2.156518936157226562e+01 -2.132158875465393066e-01 3.138068675994873047e+00 8.774558305740356445e-01 -1.129643023014068604e-01
7.780000000000000000e+03 2.796191787719726562e+01 9.379843473434448242e-01 -4.771288037300109863e-01 -2.781960070133209229e-01 -2.265974432229995728e-01 -1.282663643360137939e-01
7.781000000000000000e+03 3.378310394287109375e+01 2.671690559387207031e+01 6.055595725774765015e-02 9.167239814996719360e-02 4.566850885748863220e-02 7.586601376533508301e-02
7.782000000000000000e+03 1.701735115051269531e+01 9.408926010131835938e+00 1.316905915737152100e-01 2.381880730390548706e-01 1.109635978937149048e-01 1.697832792997360229e-01
7.783000000000000000e+03 5.388151931762695312e+01 3.059398078918457031e+01 1.444737315177917480e+00 2.031611442565917969e+00 1.042904615402221680e+00 1.931176900863647461e+00
7.784000000000000000e+03 2.918094635009765625e+01 1.324271321296691895e+00 -4.272961318492889404e-01 -2.601591944694519043e-01 -2.062366008758544922e-01 -1.146016791462898254e-01
7.785000000000000000e+03 7.135965728759765625e+01 2.078582191467285156e+01 -4.650796055793762207e-01 8.070082664489746094e+00 2.281501054763793945e+00 -1.257731199264526367e+00
7.786000000000000000e+03 7.262110900878906250e+01 -2.138510704040527344e+01 -2.079061791300773621e-02 7.793650150299072266e+00 2.331857919692993164e+00 2.488294094800949097e-01
7.787000000000000000e+03 1.115063190460205078e+01 -2.291315269470214844e+01 9.347134828567504883e-02 -3.172937333583831787e-01 -6.714671850204467773e-02 -1.836527287960052490e-01
7.788000000000000000e+03 1.375951290130615234e+01 8.305543899536132812e+00 7.526841014623641968e-02 3.353698849678039551e-01 1.231914907693862915e-01 8.309595286846160889e-02
7.789000000000000000e+03 5.405328750610351562e+00 5.954639911651611328e+00 7.553194463253021240e-02 -1.376375854015350342e-01 -1.863169297575950623e-02 1.074655577540397644e-01
7.790000000000000000e+03 1.804572296142578125e+01 2.325209426879882812e+01 7.564870640635490417e-03 9.631466865539550781e-02 3.116386197507381439e-02 3.971285372972488403e-02
7.791000000000000000e+03 4.750122833251953125e+01 -1.865750694274902344e+01 -1.962867379188537598e-01 3.217958688735961914e+00 9.065016508102416992e-01 -5.380626022815704346e-02
7.792000000000000000e+03 4.723837661743164062e+01 -1.987909507751464844e+01 -1.997258216142654419e-01 3.221208095550537109e+00 9.064447283744812012e-01 -7.913286983966827393e-02
7.793000000000000000e+03 2.899552726745605469e+01 1.653324961662292480e+00 -4.872562587261199951e-01 -3.132363259792327881e-01 -2.401477694511413574e-01 -1.622528284788131714e-01
7.794000000000000000e+03 3.331268692016601562e+01 2.695014381408691406e+01 6.252010166645050049e-02 9.211293607950210571e-02 4.638991132378578186e-02 7.426232844591140747e-02
7.795000000000000000e+03 2.069232368469238281e+01 1.349095821380615234e+01 1.111515760421752930e-01 1.640859097242355347e-01 8.257124572992324829e-02 1.336730569601058960e-01
7.796000000000000000e+03 3.431427001953125000e+01 1.098467826843261719e+01 -6.932782530784606934e-01 -4.455133378505706787e-01 -3.416374623775482178e-01 -5.313798785209655762e-01
7.797000000000000000e+03 1.333307075500488281e+01 7.796639919281005859e+00 8.153241127729415894e-02 3.549394905567169189e-01 1.309415698051452637e-01 5.714365839958190918e-02
7.798000000000000000e+03 1.352317523956298828e+01 8.262632369995117188e+00 7.490155845880508423e-02 3.300276994705200195e-01 1.214787811040878296e-01 7.024627923965454102e-02
7.799000000000000000e+03 1.329567527770996094e+01 8.253899574279785156e+00 7.647412270307540894e-02 3.213134109973907471e-01 1.193362623453140259e-01 5.345881730318069458e-02
7.800000000000000000e+03 9.624113082885742188e+00 2.641270828247070312e+01 -7.343567442148923874e-03 -1.350939646363258362e-02 -6.255889311432838440e-03 -9.610390290617942810e-03
7.801000000000000000e+03 3.031915664672851562e+01 2.379574584960937500e+01 6.514241546392440796e-02 9.408408403396606445e-02 4.776794835925102234e-02 8.222562819719314575e-02
7.802000000000000000e+03 3.507114410400390625e+01 4.001883029937744141e+00 -2.888850867748260498e-01 1.752268522977828979e-01 -3.409746661782264709e-02 -9.784930199384689331e-02
7.803000000000000000e+03 6.066928863525390625e+01 2.706706619262695312e+01 -8.934755921363830566e-01 1.035210418701171875e+01 2.837588548660278320e+00 5.822555422782897949e-01
7.804000000000000000e+03 3.626182174682617188e+01 -6.774292945861816406e+00 1.476809680461883545e-01 5.237699747085571289e-01 2.014352679252624512e-01 -2.279704064130783081e-02
7.805000000000000000e+03 1.047363185882568359e+01 -1.693709182739257812e+01 1.012279689311981201e-01 -3.097088336944580078e-01 -6.254425644874572754e-02 -2.514881193637847900e-01
7.806000000000000000e+03 2.909583282470703125e+01 9.708485007286071777e-01 -3.961151838302612305e-01 -2.501395642757415771e-01 -1.938764303922653198e-01 -8.818823844194412231e-02
7.807000000000000000e+03 2.315614700317382812e+01 1.566335582733154297e+01 1.023469716310501099e-01 1.436494439840316772e-01 7.379892468452453613e-02 1.211541965603828430e-01
7.808000000000000000e+03 5.414140701293945312e+01 3.010536003112792969e+01 1.371154189109802246e+00 2.580619573593139648e+00 1.185532093048095703e+00 2.184792995452880859e+00
7.809000000000000000e+03 5.488390731811523438e+01 3.027729415893554688e+01 1.594606518745422363e+00 3.446726560592651367e+00 1.512399911880493164e+00 2.719655990600585938e+00
7.810000000000000000e+03 5.521717071533203125e+01 2.998467445373535156e+01 1.483307242393493652e+00 4.137247085571289062e+00 1.686166286468505859e+00 2.962962865829467773e+00
7.811000000000000000e+03 1.063608264923095703e+01 -7.835303783416748047e+00 -5.218379572033882141e-02 -2.569743096828460693e-01 -9.274743497371673584e-02 -4.040862917900085449e-01
7.812000000000000000e+03 4.004275512695312500e+01 1.791734504699707031e+01 -4.576285779476165771e-01 -1.120673641562461853e-01 -1.709087938070297241e-01 -3.400335907936096191e-01
7.813000000000000000e+03 6.017427444458007812e+01 2.687341690063476562e+01 -9.019154310226440430e-01 1.002596664428710938e+01 2.737215280532836914e+00 9.095813632011413574e-01
7.814000000000000000e+03 1.523983669281005859e+01 9.390719413757324219e+00 8.935135602951049805e-02 2.779151499271392822e-01 1.101799532771110535e-01 1.307233870029449463e-01
7.815000000000000000e+03 3.299463272094726562e+01 2.692871856689453125e+01 5.447737500071525574e-02 8.908139169216156006e-02 4.306763038039207458e-02 7.098790258169174194e-02
7.816000000000000000e+03 3.222115325927734375e+01 2.663880920410156250e+01 5.711539834737777710e-02 8.880440890789031982e-02 4.377594217658042908e-02 7.320079952478408813e-02
7.817000000000000000e+03 5.768893718719482422e+00 6.274302959442138672e+00 8.120121061801910400e-02 -1.272858828306198120e-01 -1.382539886981248856e-02 9.140216559171676636e-02
7.818000000000000000e+03 6.984897613525390625e+01 -2.364474868774414062e+01 -3.876745002344250679e-03 7.318976879119873047e+00 2.194530010223388672e+00 3.072313070297241211e-01
7.819000000000000000e+03 1.005876159667968750e+01 -1.067141819000244141e+01 5.744742229580879211e-02 -2.997958958148956299e-01 -7.270454615354537964e-02 -3.542891442775726318e-01
7.820000000000000000e+03 6.836922454833984375e+01 -2.185548210144042969e+01 -1.028230134397745132e-02 7.105986118316650391e+00 2.128711223602294922e+00 3.287839591503143311e-01
7.821000000000000000e+03 2.764009284973144531e+01 8.304093033075332642e-02 -3.230617940425872803e-01 -2.769232392311096191e-01 -1.799955070018768311e-01 -7.315363734960556030e-02
7.822000000000000000e+03 3.259991836547851562e+01 2.791159820556640625e+01 6.181243062019348145e-02 8.943809568881988525e-02 4.537515714764595032e-02 7.247897982597351074e-02
7.823000000000000000e+03 6.823082733154296875e+01 -1.418250465393066406e+01 -8.237545937299728394e-02 7.167077541351318359e+00 2.125410556793212891e+00 2.717908024787902832e-01
7.824000000000000000e+03 1.308695888519287109e+01 7.949991226196289062e+00 7.617276161909103394e-02 3.373829424381256104e-01 1.240667104721069336e-01 4.108520969748497009e-02
7.825000000000000000e+03 5.433448791503906250e+01 2.996471786499023438e+01 1.373459577560424805e+00 3.004358530044555664e+00 1.313345432281494141e+00 2.398701667785644531e+00
7.826000000000000000e+03 1.511990928649902344e+01 9.989804267883300781e+00 7.908401638269424438e-02 2.607662081718444824e-01 1.019550710916519165e-01 1.156667321920394897e-01
7.827000000000000000e+03 6.832974243164062500e+01 -1.754268264770507812e+01 -5.833599343895912170e-02 7.141398906707763672e+00 2.124918937683105469e+00 3.066895008087158203e-01
7.828000000000000000e+03 4.727241897583007812e+01 2.487723350524902344e+01 -5.847016815096139908e-03 6.613915562629699707e-01 1.966633647680282593e-01 3.372370004653930664e-01
7.829000000000000000e+03 4.722923660278320312e+01 2.452915573120117188e+01 -1.879007369279861450e-02 7.370938658714294434e-01 2.154911309480667114e-01 3.652175366878509521e-01
7.830000000000000000e+03 2.698718643188476562e+01 2.134366607666015625e+01 6.638827919960021973e-02 1.137744039297103882e-01 5.404880270361900330e-02 8.965408056974411011e-02
7.831000000000000000e+03 1.950023460388183594e+01 1.379137611389160156e+01 9.128387272357940674e-02 1.692736297845840454e-01 7.816725224256515503e-02 1.216723322868347168e-01
7.832000000000000000e+03 3.159970474243164062e+01 2.663588905334472656e+01 5.451069399714469910e-02 9.230490028858184814e-02 4.404467716813087463e-02 7.275674492120742798e-02
7.833000000000000000e+03 3.747805404663085938e+01 1.405643653869628906e+01 -5.579202175140380859e-01 -2.232892513275146484e-01 -2.343628406524658203e-01 -4.077659547328948975e-01
7.834000000000000000e+03 4.060860061645507812e+01 1.736985588073730469e+01 -4.240956902503967285e-01 7.479345798492431641e-02 -1.047906726598739624e-01 -2.417894601821899414e-01
7.835000000000000000e+03 4.060682678222656250e+01 1.790114212036132812e+01 -4.239749610424041748e-01 1.128663774579763412e-02 -1.238064989447593689e-01 -2.730884253978729248e-01
7.836000000000000000e+03 1.943888854980468750e+01 2.236637496948242188e+01 1.859437301754951477e-02 1.090770959854125977e-01 3.830144181847572327e-02 5.261205136775970459e-02
7.837000000000000000e+03 2.760445404052734375e+01 2.455928421020507812e+01 4.807205870747566223e-02 1.060651540756225586e-01 4.624116420745849609e-02 7.690949738025665283e-02
7.838000000000000000e+03 2.731331634521484375e+01 2.524044418334960938e+01 4.597705602645874023e-02 1.018002480268478394e-01 4.433319345116615295e-02 7.267947494983673096e-02
7.839000000000000000e+03 7.033023071289062500e+01 1.950989532470703125e+01 -5.832753777503967285e-01 8.153142929077148438e+00 2.270960092544555664e+00 -1.125843644142150879e+00
7.840000000000000000e+03 5.642594528198242188e+01 2.836243820190429688e+01 3.834277093410491943e-01 6.661835670471191406e+00 2.113579034805297852e+00 2.943560838699340820e+00
7.841000000000000000e+03 5.974576187133789062e+01 2.692890739440917969e+01 -8.692395687103271484e-01 9.811163902282714844e+00 2.682577371597290039e+00 1.212631702423095703e+00
7.842000000000000000e+03 2.678055381774902344e+01 2.287914657592773438e+01 5.332472175359725952e-02 1.102259382605552673e-01 4.906519874930381775e-02 8.151260018348693848e-02
7.843000000000000000e+03 3.554353332519531250e+01 3.847163200378417969e+00 -2.679516971111297607e-01 2.364239543676376343e-01 -9.458320215344429016e-03 -6.973473727703094482e-02
7.844000000000000000e+03 6.590739440917968750e+01 2.447625350952148438e+01 -7.195379734039306641e-01 9.214753150939941406e+00 2.548564672470092773e+00 -1.174047350883483887e+00
7.845000000000000000e+03 5.306676864624023438e+01 2.886266899108886719e+01 9.529815912246704102e-01 2.272778034210205078e+00 9.677278995513916016e-01 1.813292145729064941e+00
7.846000000000000000e+03 3.511689376831054688e+01 5.878681659698486328e+00 -3.794496655464172363e-01 5.942156165838241577e-02 -9.600843489170074463e-02 -1.794233173131942749e-01
7.847000000000000000e+03 6.841133880615234375e+01 1.553017234802246094e+01 -6.905079483985900879e-01 7.950321197509765625e+00 2.177943944931030273e+00 -6.761739850044250488e-01
7.848000000000000000e+03 3.567309570312500000e+01 6.022562026977539062e+00 -3.576116561889648438e-01 1.440538167953491211e-01 -6.406734883785247803e-02 -1.472236514091491699e-01
7.849000000000000000e+03 6.893885040283203125e+01 -1.574994809925556183e-02 -2.073452174663543701e-01 7.463407993316650391e+00 2.176818847656250000e+00 2.836256846785545349e-02
7.850000000000000000e+03 4.755809402465820312e+01 2.446442985534667969e+01 2.020304556936025620e-03 8.320208787918090820e-01 2.502123415470123291e-01 4.227669239044189453e-01
7.851000000000000000e+03 2.713919639587402344e+01 1.986926269531250000e+01 8.033479750156402588e-02 1.130486503243446350e-01 5.801503360271453857e-02 9.549426287412643433e-02
7.852000000000000000e+03 2.811259841918945312e+01 2.544365692138671875e+01 4.767140001058578491e-02 9.831783920526504517e-02 4.379677399992942810e-02 7.199310511350631714e-02
7.853000000000000000e+03 5.871758270263671875e+01 2.710052299499511719e+01 -6.945265531539916992e-01 9.110362052917480469e+00 2.524750471115112305e+00 1.797197461128234863e+00
7.854000000000000000e+03 2.272965240478515625e+01 1.562009811401367188e+01 9.835111349821090698e-02 1.458475887775421143e-01 7.325960695743560791e-02 1.188640892505645752e-01
7.855000000000000000e+03 2.634441566467285156e+01 2.088581466674804688e+01 6.602960079908370972e-02 1.167955696582794189e-01 5.484755337238311768e-02 9.034089744091033936e-02
7.856000000000000000e+03 2.663954544067382812e+01 2.116184425354003906e+01 6.533022969961166382e-02 1.132125779986381531e-01 5.356284230947494507e-02 8.866220712661743164e-02
7.857000000000000000e+03 1.735445785522460938e+01 1.094099426269531250e+01 1.025180667638778687e-01 2.172795683145523071e-01 9.593929350376129150e-02 1.441975384950637817e-01
7.858000000000000000e+03 5.433993148803710938e+01 2.947196006774902344e+01 1.248836517333984375e+00 3.257923841476440430e+00 1.352028131484985352e+00 2.451013565063476562e+00
7.859000000000000000e+03 3.609985733032226562e+01 1.216526412963867188e+01 -6.015369892120361328e-01 -2.803051471710205078e-01 -2.645526528358459473e-01 -4.337367415428161621e-01
7.860000000000000000e+03 3.630633926391601562e+01 1.259684848785400391e+01 -6.048259139060974121e-01 -2.841725349426269531e-01 -2.666995525360107422e-01 -4.426853954792022705e-01
7.861000000000000000e+03 6.719885253906250000e+01 -1.410749721527099609e+01 -9.210675209760665894e-02 6.997900962829589844e+00 2.071738243103027344e+00 2.728407382965087891e-01
7.862000000000000000e+03 6.532504272460937500e+01 -1.492293548583984375e+01 -1.101913675665855408e-01 6.643960952758789062e+00 1.960130810737609863e+00 2.971310317516326904e-01
7.863000000000000000e+03 2.684152603149414062e+01 2.014633560180664062e+01 7.590062171220779419e-02 1.135851442813873291e-01 5.684572830796241760e-02 9.440951794385910034e-02
7.864000000000000000e+03 2.330777740478515625e+01 1.787598991394042969e+01 7.645504176616668701e-02 1.342062205076217651e-01 6.319838017225265503e-02 1.030290871858596802e-01
7.865000000000000000e+03 6.819808959960937500e+01 -1.384476184844970703e+00 -2.028363943099975586e-01 7.301704883575439453e+00 2.129660606384277344e+00 7.490986585617065430e-02
7.866000000000000000e+03 3.589608764648437500e+01 1.104220581054687500e+01 -5.766065120697021484e-01 -2.087174504995346069e-01 -2.355971783399581909e-01 -3.823040723800659180e-01
7.867000000000000000e+03 2.649924087524414062e+01 2.037334251403808594e+01 7.208962738513946533e-02 1.152658760547637939e-01 5.620665103197097778e-02 9.255406260490417480e-02
7.868000000000000000e+03 2.676730537414550781e+01 2.041338729858398438e+01 7.338611036539077759e-02 1.169244423508644104e-01 5.709316581487655640e-02 9.437188506126403809e-02
7.869000000000000000e+03 1.888815307617187500e+01 1.415299129486083984e+01 8.003447204828262329e-02 1.697762310504913330e-01 7.494320720434188843e-02 1.135598793625831604e-01
7.870000000000000000e+03 6.914871978759765625e+01 7.109726905822753906e+00 -3.727031946182250977e-01 7.640020847320556641e+00 2.180195331573486328e+00 -2.166768908500671387e-01
7.871000000000000000e+03 4.900805282592773438e+01 2.608715629577636719e+01 2.024071961641311646e-01 9.896957874298095703e-01 3.576309084892272949e-01 6.348849534988403320e-01
7.872000000000000000e+03 6.252145385742187500e+01 2.503981781005859375e+01 -1.031191825866699219e+00 9.656312942504882812e+00 2.587536334991455078e+00 -2.357562631368637085e-01
7.873000000000000000e+03 1.675914573669433594e+01 2.018045425415039062e+01 1.509569678455591202e-02 1.101607084274291992e-01 3.757692128419876099e-02 4.398547112941741943e-02
7.874000000000000000e+03 6.805971527099609375e+01 -2.216896057128906250e+00 -1.988219618797302246e-01 7.263327598571777344e+00 2.119351625442504883e+00 9.579899907112121582e-02
7.875000000000000000e+03 6.795540618896484375e+01 -1.653996276855468750e+01 -7.486245036125183105e-02 7.088366031646728516e+00 2.104051113128662109e+00 2.894349992275238037e-01
7.876000000000000000e+03 1.992801284790039062e+01 1.444606971740722656e+01 8.815366774797439575e-02 1.631377339363098145e-01 7.538741827011108398e-02 1.178452745079994202e-01
7.877000000000000000e+03 5.477018737792968750e+01 2.907984161376953125e+01 1.062566399574279785e+00 4.004899024963378906e+00 1.520239710807800293e+00 2.642386436462402344e+00
7.878000000000000000e+03 3.755222320556640625e+01 1.300400447845458984e+01 -5.302792191505432129e-01 -9.675050526857376099e-02 -1.881089061498641968e-01 -3.385182321071624756e-01
7.879000000000000000e+03 4.116523361206054688e+01 1.733273124694824219e+01 -3.935071229934692383e-01 2.035888731479644775e-01 -5.697547271847724915e-02 -1.738159954547882080e-01
7.880000000000000000e+03 4.201222991943359375e+01 1.749746513366699219e+01 -3.494892716407775879e-01 3.796510100364685059e-01 9.048525243997573853e-03 -7.605430483818054199e-02
7.881000000000000000e+03 3.573688507080078125e+01 1.147807788848876953e+01 -5.974884033203125000e-01 -2.695105075836181641e-01 -2.600996792316436768e-01 -4.240068793296813965e-01
7.882000000000000000e+03 3.657177352905273438e+01 1.211328315734863281e+01 -5.642054080963134766e-01 -1.851915866136550903e-01 -2.248190939426422119e-01 -3.822488188743591309e-01
7.883000000000000000e+03 3.388884735107421875e+01 -2.516498565673828125e-01 -5.554922297596931458e-02 1.370891034603118896e-01 2.446196414530277252e-02 2.607920952141284943e-02
7.884000000000000000e+03 7.855116367340087891e+00 2.034452438354492188e+01 -4.677888937294483185e-03 -2.838699147105216980e-02 -9.919463656842708588e-03 -1.834345236420631409e-02
7.885000000000000000e+03 3.599322509765625000e+01 2.110867500305175781e+00 -1.532913893461227417e-01 3.829153180122375488e-01 6.888717412948608398e-02 7.727585732936859131e-03
7.886000000000000000e+03 1.860389137268066406e+01 2.001413536071777344e+01 2.613147720694541931e-02 1.217090860009193420e-01 4.435217007994651794e-02 5.941081792116165161e-02
7.887000000000000000e+03 4.355172729492187500e+01 1.923678588867187500e+01 -2.726150155067443848e-01 5.214121341705322266e-01 7.463913410902023315e-02 5.290132015943527222e-02
7.888000000000000000e+03 4.424880981445312500e+01 1.895423316955566406e+01 -2.515147626399993896e-01 7.504833936691284180e-01 1.496905833482742310e-01 1.600741595029830933e-01
7.889000000000000000e+03 4.327005767822265625e+01 1.923093986511230469e+01 -2.869158685207366943e-01 4.427927732467651367e-01 4.676307365298271179e-02 7.160552311688661575e-03
7.890000000000000000e+03 4.855464935302734375e+01 2.413263511657714844e+01 7.528003305196762085e-02 1.300628066062927246e+00 4.127724468708038330e-01 6.907662749290466309e-01
7.891000000000000000e+03 2.373167419433593750e+01 1.874521446228027344e+01 7.235187292098999023e-02 1.286229789257049561e-01 6.029245629906654358e-02 9.791542589664459229e-02
7.892000000000000000e+03 6.685814666748046875e+01 -7.585926055908203125e+00 -1.419263780117034912e-01 6.976645946502685547e+00 2.050415754318237305e+00 2.015816122293472290e-01
7.893000000000000000e+03 6.696201324462890625e+01 -2.777748107910156250e+00 -2.057182937860488892e-01 7.045668125152587891e+00 2.051985025405883789e+00 1.155405640602111816e-01
7.894000000000000000e+03 6.552373504638671875e+01 -7.361941337585449219e+00 -1.564216315746307373e-01 6.720468997955322266e+00 1.969214200973510742e+00 2.025297433137893677e-01
7.895000000000000000e+03 3.789329147338867188e+01 8.889541029930114746e-01 -6.906833499670028687e-02 7.080747485160827637e-01 1.917019188404083252e-01 7.771106064319610596e-02
7.896000000000000000e+03 8.860441207885742188e+00 1.800825309753417969e+01 7.781915483064949512e-04 2.961997408419847488e-03 1.122056739404797554e-03 -1.289308257400989532e-02
7.897000000000000000e+03 1.885264778137207031e+01 1.924588203430175781e+01 3.206828236579895020e-02 1.283833533525466919e-01 4.813549295067787170e-02 6.606788933277130127e-02
7.898000000000000000e+03 2.298348808288574219e+01 2.023843193054199219e+01 5.101358890533447266e-02 1.254564672708511353e-01 5.294101685285568237e-02 8.324248343706130981e-02
7.899000000000000000e+03 6.484600830078125000e+01 -7.771742820739746094e+00 -1.755658388137817383e-01 6.562275409698486328e+00 1.916012883186340332e+00 2.235685139894485474e-01
7.900000000000000000e+03 6.477281188964843750e+01 -8.971290588378906250e+00 -1.543218344449996948e-01 6.579525947570800781e+00 1.927561283111572266e+00 2.300592362880706787e-01
7.901000000000000000e+03 6.760093688964843750e+01 2.012985992431640625e+01 -8.197646737098693848e-01 8.375279426574707031e+00 2.266654491424560547e+00 -9.968532323837280273e-01
7.902000000000000000e+03 5.731983947753906250e+01 2.747306251525878906e+01 -2.030409574508666992e-01 7.693420410156250000e+00 2.247113704681396484e+00 2.485730409622192383e+00
7.903000000000000000e+03 2.103435134887695312e+01 1.570864868164062500e+01 8.374318480491638184e-02 1.513097733259201050e-01 7.051588594913482666e-02 1.108648031949996948e-01
7.904000000000000000e+03 2.549759101867675781e+01 1.984022903442382812e+01 7.076869904994964600e-02 1.205832585692405701e-01 5.740558728575706482e-02 9.367097169160842896e-02
7.905000000000000000e+03 2.587341117858886719e+01 1.969941711425781250e+01 7.586913555860519409e-02 1.199197769165039062e-01 5.873667448759078979e-02 9.653449803590774536e-02
7.906000000000000000e+03 6.975704193115234375e+01 9.033977508544921875e+00 -4.060826897621154785e-01 7.777184963226318359e+00 2.211330652236938477e+00 -3.269629478454589844e-01
7.907000000000000000e+03 3.692740249633789062e+01 1.684933423995971680e+00 -1.127430275082588196e-01 5.298643112182617188e-01 1.251363754272460938e-01 4.294321313500404358e-02
7.908000000000000000e+03 6.888641357421875000e+01 9.452797889709472656e+00 -4.564266800880432129e-01 7.682211875915527344e+00 2.167735576629638672e+00 -3.200893998146057129e-01
7.909000000000000000e+03 6.673084259033203125e+01 1.934689903259277344e+01 -9.132081866264343262e-01 8.306839942932128906e+00 2.218089580535888672e+00 -8.042525053024291992e-01
7.910000000000000000e+03 6.694351196289062500e+01 2.016464996337890625e+01 -8.885919451713562012e-01 8.427328109741210938e+00 2.261620759963989258e+00 -8.964030146598815918e-01
7.911000000000000000e+03 5.043790435791015625e+01 2.516820144653320312e+01 2.496474087238311768e-01 1.904475808143615723e+00 6.462369561195373535e-01 1.096995115280151367e+00
7.912000000000000000e+03 6.121940612792968750e+01 -1.266590595245361328e+01 -1.695233136415481567e-01 5.861935615539550781e+00 1.707723736763000488e+00 2.790391445159912109e-01
7.913000000000000000e+03 6.050815200805664062e+01 -1.223197078704833984e+01 -1.810911893844604492e-01 5.748682022094726562e+00 1.670277237892150879e+00 2.676863372325897217e-01
7.914000000000000000e+03 4.880563735961914062e+01 2.389571571350097656e+01 7.553929835557937622e-02 1.429260134696960449e+00 4.514398574829101562e-01 7.508208751678466797e-01
7.915000000000000000e+03 4.901340484619140625e+01 2.351745414733886719e+01 5.486342683434486389e-02 1.633076429367065430e+00 5.063819289207458496e-01 8.198176622390747070e-01
7.916000000000000000e+03 5.729584503173828125e+01 2.709489631652832031e+01 -2.869289815425872803e-01 7.634360313415527344e+00 2.204229354858398438e+00 2.402186870574951172e+00
7.917000000000000000e+03 6.102669906616210938e+01 2.303947639465332031e+01 -1.163729310035705566e+00 8.630220413208007812e+00 2.239947319030761719e+00 3.894686698913574219e-01
7.918000000000000000e+03 6.137259292602539062e+01 2.069061088562011719e+01 -1.164534211158752441e+00 8.007436752319335938e+00 2.052870750427246094e+00 2.335242927074432373e-01
7.919000000000000000e+03 6.689553833007812500e+01 1.035827922821044922e+01 -5.931997299194335938e-01 7.452120780944824219e+00 2.057676315307617188e+00 -2.680138647556304932e-01
7.920000000000000000e+03 1.742241668701171875e+01 1.906060791015625000e+01 2.246053516864776611e-02 1.240253075957298279e-01 4.394575208425521851e-02 5.527498573064804077e-02
7.921000000000000000e+03 4.920503997802734375e+01 2.397305679321289062e+01 9.372080862522125244e-02 1.582748293876647949e+00 5.029407143592834473e-01 8.282185792922973633e-01
7.922000000000000000e+03 6.007889175415039062e+01 -1.070613193511962891e+01 -1.864127963781356812e-01 5.654287815093994141e+00 1.640362501144409180e+00 2.524875700473785400e-01
7.923000000000000000e+03 5.840172958374023438e+01 -1.185670757293701172e+01 -1.859774738550186157e-01 5.306945323944091797e+00 1.536290287971496582e+00 2.425552457571029663e-01
7.924000000000000000e+03 3.817826080322265625e+01 1.262397480010986328e+01 -4.885653853416442871e-01 6.171588227152824402e-02 -1.280548572540283203e-01 -2.551320493221282959e-01
7.925000000000000000e+03 1.481287097930908203e+01 1.760161018371582031e+01 1.425385195761919022e-02 1.181218326091766357e-01 3.971270471811294556e-02 3.912436962127685547e-02
7.926000000000000000e+03 3.901137161254882812e+01 1.017578792572021484e+01 -3.904201388359069824e-01 4.582161605358123779e-01 2.033880352973937988e-02 -6.811356544494628906e-02
7.927000000000000000e+03 6.796245574951171875e+01 9.641634941101074219e+00 -5.127923488616943359e-01 7.571217060089111328e+00 2.117527246475219727e+00 -2.955009937286376953e-01
7.928000000000000000e+03 1.808381462097167969e+01 1.541319942474365234e+01 5.629043653607368469e-02 1.615697294473648071e-01 6.535805016756057739e-02 9.312590211629867554e-02
7.929000000000000000e+03 1.816357994079589844e+01 1.587344264984130859e+01 5.256663262844085693e-02 1.557441651821136475e-01 6.249323859810829163e-02 8.866216242313385010e-02
7.930000000000000000e+03 1.049846363067626953e+01 1.580279350280761719e+01 1.069219037890434265e-02 5.831247940659523010e-02 2.070140093564987183e-02 -2.704587532207369804e-03
7.931000000000000000e+03 4.484338378906250000e+01 1.907738685607910156e+01 -2.290871888399124146e-01 9.159424304962158203e-01 2.060565799474716187e-01 2.469604462385177612e-01
7.932000000000000000e+03 3.893280029296875000e+01 1.269638538360595703e+01 -4.514082968235015869e-01 2.185880988836288452e-01 -6.984606385231018066e-02 -1.816567629575729370e-01
7.933000000000000000e+03 3.989483261108398438e+01 1.398755455017089844e+01 -4.366334974765777588e-01 2.811563313007354736e-01 -4.664314538240432739e-02 -1.511459350585937500e-01
7.934000000000000000e+03 4.171540832519531250e+01 -5.491298675537109375e+00 2.337780036032199860e-02 1.569406867027282715e+00 4.778353869915008545e-01 5.685565620660781860e-02
7.935000000000000000e+03 4.120623779296875000e+01 -4.887242317199707031e+00 4.041407257318496704e-02 1.452845573425292969e+00 4.479779005050659180e-01 5.354940146207809448e-02
7.936000000000000000e+03 4.267244720458984375e+01 -4.934938430786132812e+00 -1.970997545868158340e-03 1.756239533424377441e+00 5.262805223464965820e-01 8.605816215276718140e-02
7.937000000000000000e+03 1.305326271057128906e+01 1.271913909912109375e+01 3.488401323556900024e-02 1.660348474979400635e-01 6.027565896511077881e-02 3.699963912367820740e-02
7.938000000000000000e+03 4.928774261474609375e+01 2.361199569702148438e+01 6.997522711753845215e-02 1.730730533599853516e+00 5.402117371559143066e-01 8.687939047813415527e-01
7.939000000000000000e+03 1.434741210937500000e+01 1.419746017456054688e+01 3.137168660759925842e-02 1.590036749839782715e-01 5.711260810494422913e-02 5.227456986904144287e-02
7.940000000000000000e+03 5.041318130493164062e+01 2.692518424987792969e+01 3.979305624961853027e-01 1.356230378150939941e+00 5.262482762336730957e-01 9.507898092269897461e-01
7.941000000000000000e+03 4.705327987670898438e+01 2.151742172241210938e+01 -1.114211678504943848e-01 1.237492442131042480e+00 3.378213942050933838e-01 5.057740211486816406e-01
7.942000000000000000e+03 1.286249065399169922e+01 1.341076374053955078e+01 2.829221263527870178e-02 1.446420103311538696e-01 5.188026279211044312e-02 2.897711843252182007e-02
7.943000000000000000e+03 6.035246276855468750e+01 -5.795205593109130859e+00 -2.341943979263305664e-01 5.687117099761962891e+00 1.635876774787902832e+00 2.285708189010620117e-01
7.944000000000000000e+03 4.083714675903320312e+01 2.781308412551879883e+00 -1.225272491574287415e-01 1.213519454002380371e+00 3.272976577281951904e-01 1.540645062923431396e-01
7.945000000000000000e+03 4.463643264770507812e+01 1.754455184936523438e+01 -2.614423930644989014e-01 1.063180088996887207e+00 2.405212968587875366e-01 2.504749894142150879e-01
7.946000000000000000e+03 5.690051651000976562e+01 2.414559173583984375e+01 -6.294044852256774902e-01 6.689629077911376953e+00 1.818067431449890137e+00 1.711953759193420410e+00
7.947000000000000000e+03 4.449448013305664062e+01 -3.956871509552001953e+00 -4.307360574603080750e-02 2.131915330886840820e+00 6.266525387763977051e-01 1.362019479274749756e-01
7.948000000000000000e+03 5.094057083129882812e+01 2.554162216186523438e+01 2.992175817489624023e-01 2.049778699874877930e+00 7.046988606452941895e-01 1.207257509231567383e+00
7.949000000000000000e+03 5.786356353759765625e+01 1.320068717002868652e+00 -3.679430186748504639e-01 5.235258102416992188e+00 1.460194468498229980e+00 2.673352062702178955e-01
7.950000000000000000e+03 4.274658966064453125e+01 8.619736671447753906e+00 -2.773579955101013184e-01 1.354290485382080078e+00 3.230797648429870605e-01 2.128987461328506470e-01
7.951000000000000000e+03 5.646401214599609375e+01 2.583843231201171875e+01 -2.944142520427703857e-01 6.549069404602050781e+00 1.876396536827087402e+00 2.169021368026733398e+00
7.952000000000000000e+03 5.356358718872070312e+01 2.644887351989746094e+01 4.099736511707305908e-01 3.652574062347412109e+00 1.218764305114746094e+00 1.992055654525756836e+00
7.953000000000000000e+03 5.829911422729492188e+01 -1.334326386451721191e+00 -3.157040476799011230e-01 5.289685249328613281e+00 1.492194414138793945e+00 2.483241409063339233e-01
7.954000000000000000e+03 6.192894744873046875e+01 1.294596862792968750e+01 -8.441913723945617676e-01 6.833503246307373047e+00 1.796793580055236816e+00 8.814339339733123779e-02
7.955000000000000000e+03 4.193168640136718750e+01 1.116841316223144531e+01 -3.255453407764434814e-01 9.999589920043945312e-01 2.023240923881530762e-01 1.242989301681518555e-01
7.956000000000000000e+03 4.352914047241210938e+01 3.178549051284790039e+00 -1.526155620813369751e-01 1.778444409370422363e+00 4.877486526966094971e-01 2.384818345308303833e-01
7.957000000000000000e+03 5.901709365844726562e+01 7.048780918121337891e+00 -5.716208219528198242e-01 5.720482349395751953e+00 1.544658541679382324e+00 2.850411832332611084e-01
7.958000000000000000e+03 6.131402206420898438e+01 1.329460334777832031e+01 -8.617201447486877441e-01 6.734826564788818359e+00 1.761931896209716797e+00 1.612320691347122192e-01
7.959000000000000000e+03 4.120612335205078125e+01 1.221331024169921875e+01 -3.633393645286560059e-01 7.343410253524780273e-01 1.113005056977272034e-01 3.735502809286117554e-02
7.960000000000000000e+03 6.136004257202148438e+01 1.646708488464355469e+01 -1.012990236282348633e+00 7.164399147033691406e+00 1.845422744750976562e+00 1.782761812210083008e-01
7.961000000000000000e+03 6.073119735717773438e+01 1.812878608703613281e+01 -1.073213100433349609e+00 7.288665294647216797e+00 1.864635705947875977e+00 3.168913125991821289e-01
7.962000000000000000e+03 4.034825897216796875e+01 1.402638149261474609e+01 -4.179569780826568604e-01 3.827532231807708740e-01 -1.056112349033355713e-02 -1.047990918159484863e-01
7.963000000000000000e+03 4.775873947143554688e+01 2.152678680419921875e+01 -8.789436519145965576e-02 1.495758891105651855e+00 4.223593473434448242e-01 6.326112151145935059e-01
7.964000000000000000e+03 4.766989517211914062e+01 2.028536605834960938e+01 -1.422221958637237549e-01 1.668419718742370605e+00 4.578592777252197266e-01 6.319026350975036621e-01
7.965000000000000000e+03 4.220111846923828125e+01 1.177773380279541016e+01 -3.297159373760223389e-01 1.010280013084411621e+00 2.041692137718200684e-01 1.306339949369430542e-01
7.966000000000000000e+03 4.378562927246093750e+01 7.403515338897705078e+00 -2.421123832464218140e-01 1.684068799018859863e+00 4.325869381427764893e-01 2.812247574329376221e-01
7.967000000000000000e+03 5.555052185058593750e+01 2.383893394470214844e+01 -4.001859426498413086e-01 5.635730266571044922e+00 1.570663213729858398e+00 1.785408854484558105e+00
7.968000000000000000e+03 6.031145858764648438e+01 1.659177017211914062e+01 -9.969146847724914551e-01 6.927654266357421875e+00 1.779221892356872559e+00 3.314383625984191895e-01
7.969000000000000000e+03 6.157845687866210938e+01 8.601908683776855469e+00 -6.474890708923339844e-01 6.352149486541748047e+00 1.711398124694824219e+00 1.440516114234924316e-01
7.970000000000000000e+03 5.493142318725585938e+01 -1.980123758316040039e+00 -2.626329660415649414e-01 4.557209014892578125e+00 1.288372874259948730e+00 2.688112556934356689e-01
7.971000000000000000e+03 4.729499435424804688e+01 1.984927940368652344e+01 -1.641420572996139526e-01 1.583985924720764160e+00 4.259531795978546143e-01 5.795120596885681152e-01
7.972000000000000000e+03 4.735498809814453125e+01 1.925789833068847656e+01 -1.749974042177200317e-01 1.687528729438781738e+00 4.537593722343444824e-01 5.962274074554443359e-01
7.973000000000000000e+03 5.238013076782226562e+01 -1.126320958137512207e+00 -2.460165619850158691e-01 3.917708635330200195e+00 1.101507663726806641e+00 2.827421724796295166e-01
7.974000000000000000e+03 5.387497329711914062e+01 2.445028495788574219e+01 -3.079609200358390808e-02 4.287733078002929688e+00 1.277081131935119629e+00 1.803995490074157715e+00
7.975000000000000000e+03 6.036600494384765625e+01 1.783108139038085938e+01 -1.057441830635070801e+00 7.124194145202636719e+00 1.820025682449340820e+00 3.738056719303131104e-01
7.976000000000000000e+03 5.839772415161132812e+01 8.612525939941406250e+00 -6.188663840293884277e-01 5.643589973449707031e+00 1.507416963577270508e+00 3.398596048355102539e-01
7.977000000000000000e+03 5.908023834228515625e+01 9.236779212951660156e+00 -6.606504917144775391e-01 5.852117061614990234e+00 1.557439923286437988e+00 3.134034872055053711e-01
7.978000000000000000e+03 5.539791488647460938e+01 2.198178672790527344e+01 -5.488636493682861328e-01 5.431427001953125000e+00 1.464768886566162109e+00 1.466926217079162598e+00
7.979000000000000000e+03 5.984947967529296875e+01 1.761752891540527344e+01 -1.028980016708374023e+00 6.910700321197509766e+00 1.764515995979309082e+00 4.652333855628967285e-01
7.980000000000000000e+03 4.470366287231445312e+01 3.691962957382202148e+00 -1.817111521959304810e-01 2.035159826278686523e+00 5.560346245765686035e-01 2.840856909751892090e-01
7.981000000000000000e+03 4.510149383544921875e+01 4.585343360900878906e+00 -1.979718059301376343e-01 2.096398830413818359e+00 5.695281028747558594e-01 2.975254952907562256e-01
7.982000000000000000e+03 5.958803558349609375e+01 1.307569885253906250e+01 -8.288463354110717773e-01 6.269379615783691406e+00 1.632159948348999023e+00 3.427402377128601074e-01
7.983000000000000000e+03 5.845610427856445312e+01 1.224461364746093750e+01 -7.690814733505249023e-01 5.898980140686035156e+00 1.538969635963439941e+00 4.190419018268585205e-01
7.984000000000000000e+03 4.309718704223632812e+01 1.251753902435302734e+01 -3.155534565448760986e-01 1.172171235084533691e+00 2.569853067398071289e-01 2.023426741361618042e-01
7.985000000000000000e+03 5.261980438232421875e+01 4.462070941925048828e+00 -3.631443381309509277e-01 4.020200252532958984e+00 1.097116708755493164e+00 4.023025929927825928e-01
7.986000000000000000e+03 5.360108947753906250e+01 1.933968663215637207e+00 -3.254187703132629395e-01 4.253456115722656250e+00 1.178411245346069336e+00 3.343589305877685547e-01
7.987000000000000000e+03 5.534741210937500000e+01 1.853340911865234375e+01 -6.800892949104309082e-01 5.243349552154541016e+00 1.368978142738342285e+00 1.063807368278503418e+00
7.988000000000000000e+03 4.355143737792968750e+01 1.237423419952392578e+01 -3.163696229457855225e-01 1.289227008819580078e+00 2.918572127819061279e-01 2.389028966426849365e-01
7.989000000000000000e+03 4.601903152465820312e+01 4.058064460754394531e+00 -2.047310173511505127e-01 2.340964794158935547e+00 6.408701539039611816e-01 3.121308684349060059e-01
7.990000000000000000e+03 4.532738876342773438e+01 3.933279275894165039e+00 -1.922689080238342285e-01 2.173328161239624023e+00 5.943177342414855957e-01 2.925589680671691895e-01
7.991000000000000000e+03 5.742161560058593750e+01 1.222924041748046875e+01 -7.313237786293029785e-01 5.576991558074951172e+00 1.453700423240661621e+00 4.915622770786285400e-01
7.992000000000000000e+03 5.509925842285156250e+01 8.393863677978515625e+00 -5.330418944358825684e-01 4.732078075408935547e+00 1.259710788726806641e+00 4.651020765304565430e-01
7.993000000000000000e+03 4.569797134399414062e+01 1.022615623474121094e+01 -2.948304712772369385e-01 1.990042924880981445e+00 5.085637569427490234e-01 3.832516372203826904e-01
7.994000000000000000e+03 5.268633270263671875e+01 2.112840843200683594e+01 -2.818735837936401367e-01 3.851911783218383789e+00 1.071011424064636230e+00 1.306855320930480957e+00
7.995000000000000000e+03 5.287657928466796875e+01 5.551852226257324219e+00 -3.954480290412902832e-01 4.090276718139648438e+00 1.108448624610900879e+00 4.303905665874481201e-01
7.996000000000000000e+03 5.701644134521484375e+01 1.170003128051757812e+01 -6.908764839172363281e-01 5.459921360015869141e+00 1.430713415145874023e+00 4.824626445770263672e-01
7.997000000000000000e+03 5.139562225341796875e+01 2.109538459777832031e+01 -1.837093085050582886e-01 3.190693855285644531e+00 9.020953774452209473e-01 1.175584554672241211e+00
7.998000000000000000e+03 5.435623550415039062e+01 5.894160270690917969e+00 -4.423069357872009277e-01 4.481212139129638672e+00 1.211671590805053711e+00 4.169076681137084961e-01
7.999000000000000000e+03 4.766334152221679688e+01 4.485038757324218750e+00 -2.472766339778900146e-01 2.728119611740112305e+00 7.442528605461120605e-01 3.624921143054962158e-01
8.000000000000000000e+03 4.876040267944335938e+01 1.737398338317871094e+01 -2.670622467994689941e-01 2.433164358139038086e+00 6.498306393623352051e-01 7.338064312934875488e-01
8.001000000000000000e+03 4.931411361694335938e+01 1.804977798461914062e+01 -2.605139017105102539e-01 2.585232973098754883e+00 6.974157691001892090e-01 8.104180097579956055e-01
8.002000000000000000e+03 4.658177947998046875e+01 1.404959392547607422e+01 -2.980270981788635254e-01 2.023374557495117188e+00 5.176042318344116211e-01 4.789508879184722900e-01
8.003000000000000000e+03 4.822892761230468750e+01 1.157009029388427734e+01 -3.423416912555694580e-01 2.647170543670654297e+00 6.914486289024353027e-01 5.277566313743591309e-01
8.004000000000000000e+03 4.914171981811523438e+01 1.866409492492675781e+01 -2.350391745567321777e-01 2.435785055160522461e+00 6.602237820625305176e-01 8.057371973991394043e-01
8.005000000000000000e+03 5.285454177856445312e+01 7.067804813385009766e+00 -4.250068068504333496e-01 4.101706981658935547e+00 1.103010058403015137e+00 4.684613645076751709e-01
8.006000000000000000e+03 5.505517578125000000e+01 1.645518302917480469e+01 -6.803415417671203613e-01 5.025572776794433594e+00 1.303569436073303223e+00 8.762201666831970215e-01
8.007000000000000000e+03 5.368187713623046875e+01 1.263436126708984375e+01 -5.677912235260009766e-01 4.418293952941894531e+00 1.155150771141052246e+00 6.765013933181762695e-01
8.008000000000000000e+03 5.331350326538085938e+01 1.212367916107177734e+01 -5.423055887222290039e-01 4.292750358581542969e+00 1.125133395195007324e+00 6.532089710235595703e-01
8.009000000000000000e+03 5.347274780273437500e+01 1.042212867736816406e+01 -5.238324403762817383e-01 4.314755439758300781e+00 1.137276887893676758e+00 5.748147368431091309e-01
8.010000000000000000e+03 4.999013137817382812e+01 9.373040199279785156e+00 -3.794397711753845215e-01 3.268274068832397461e+00 8.666502833366394043e-01 5.241947770118713379e-01
8.011000000000000000e+03 4.600868225097656250e+01 1.325327587127685547e+01 -2.993057370185852051e-01 1.901900172233581543e+00 4.807783365249633789e-01 4.271433949470520020e-01
8.012000000000000000e+03 4.780607604980468750e+01 1.356085681915283203e+01 -3.226932883262634277e-01 2.440955638885498047e+00 6.354786753654479980e-01 5.666961669921875000e-01
8.013000000000000000e+03 5.292981719970703125e+01 1.163370800018310547e+01 -5.156443715095520020e-01 4.158672332763671875e+00 1.092908382415771484e+00 6.353685855865478516e-01
8.014000000000000000e+03 5.238852691650390625e+01 1.196635437011718750e+01 -4.969550073146820068e-01 3.981492042541503906e+00 1.045361161231994629e+00 6.549788713455200195e-01
8.015000000000000000e+03 5.061197662353515625e+01 8.537848472595214844e+00 -3.847308754920959473e-01 3.457413434982299805e+00 9.218047857284545898e-01 5.189331769943237305e-01
8.016000000000000000e+03 5.070783233642578125e+01 1.608603668212890625e+01 -3.844325244426727295e-01 3.265828847885131836e+00 8.644189238548278809e-01 8.218382000923156738e-01
8.017000000000000000e+03 5.211594009399414062e+01 1.278744029998779297e+01 -4.872495532035827637e-01 3.893937349319458008e+00 1.022006392478942871e+00 6.982343792915344238e-01
8.018000000000000000e+03 5.173647689819335938e+01 1.096064281463623047e+01 -4.559486508369445801e-01 3.752358198165893555e+00 9.889228343963623047e-01 6.028919219970703125e-01
8.019000000000000000e+03 5.148325729370117188e+01 1.603827667236328125e+01 -4.297649264335632324e-01 3.584690570831298828e+00 9.464777112007141113e-01 8.606398105621337891e-01
8.020000000000000000e+03 5.067174148559570312e+01 1.158259296417236328e+01 -4.233461320400238037e-01 3.437664747238159180e+00 9.042955636978149414e-01 6.151770949363708496e-01
8.021000000000000000e+03 5.075248718261718750e+01 1.250987148284912109e+01 -4.298464357852935791e-01 3.433723926544189453e+00 9.011632800102233887e-01 6.500418782234191895e-01
8.022000000000000000e+03 5.177104949951171875e+01 1.367282104492187500e+01 -4.724029302597045898e-01 3.739464282989501953e+00 9.801183938980102539e-01 7.333528995513916016e-01
8.023000000000000000e+03 5.152474212646484375e+01 1.174510002136230469e+01 -4.528717398643493652e-01 3.693529605865478516e+00 9.721973538398742676e-01 6.404169201850891113e-01
8.024000000000000000e+03 5.129755401611328125e+01 1.250318336486816406e+01 -4.507657885551452637e-01 3.613928318023681641e+00 9.489488005638122559e-01 6.715645790100097656e-01
8.025000000000000000e+03 5.266363906860351562e+01 1.454732227325439453e+01 -5.204383134841918945e-01 4.065897464752197266e+00 1.063637733459472656e+00 7.883805632591247559e-01
8.026000000000000000e+03 2.584260368347167969e+01 7.212127685546875000e+00 -5.523404121398925781e+00 -2.963838338851928711e+00 -2.546172857284545898e+00 -4.200970172882080078e+00
8.027000000000000000e+03 2.572043228149414062e+01 7.138077259063720703e+00 -5.699176788330078125e+00 -2.801342725753784180e+00 -2.550155878067016602e+00 -3.938423156738281250e+00
8.028000000000000000e+03 2.634960937500000000e+01 7.597590446472167969e+00 -5.184895038604736328e+00 -3.182942152023315430e+00 -2.510351181030273438e+00 -4.138103008270263672e+00
8.029000000000000000e+03 2.616375732421875000e+01 7.453528404235839844e+00 -5.814851760864257812e+00 -3.620802164077758789e+00 -2.830696105957031250e+00 -4.325488090515136719e+00
8.030000000000000000e+03 2.604857063293457031e+01 7.368948459625244141e+00 -4.450533390045166016e+00 -2.604524374008178711e+00 -2.116517305374145508e+00 -4.030341625213623047e+00
8.031000000000000000e+03 2.604848098754882812e+01 7.351891517639160156e+00 -5.185586452484130859e+00 -2.793755054473876953e+00 -2.393802404403686523e+00 -4.315226078033447266e+00
8.032000000000000000e+03 2.595682525634765625e+01 7.306581020355224609e+00 -6.673285007476806641e+00 -3.516669988632202148e+00 -3.056986331939697266e+00 -4.238371372222900391e+00
8.033000000000000000e+03 2.575144386291503906e+01 7.166223526000976562e+00 -5.700169563293457031e+00 -2.835322856903076172e+00 -2.560647726058959961e+00 -4.031312942504882812e+00
8.034000000000000000e+03 2.577326011657714844e+01 7.178963184356689453e+00 -5.586392402648925781e+00 -2.759132623672485352e+00 -2.503657579421997070e+00 -3.511197566986083984e+00
8.035000000000000000e+03 2.584219551086425781e+01 7.227824687957763672e+00 -5.555536746978759766e+00 -2.894780635833740234e+00 -2.535095214843750000e+00 -4.265822410583496094e+00
8.036000000000000000e+03 2.585145950317382812e+01 7.226785659790039062e+00 -5.524016857147216797e+00 -2.991354703903198242e+00 -2.554611444473266602e+00 -4.472301483154296875e+00
8.037000000000000000e+03 2.605788612365722656e+01 7.388123035430908203e+00 -5.455512046813964844e+00 -3.154097557067871094e+00 -2.582882881164550781e+00 -4.198847770690917969e+00
8.038000000000000000e+03 1.440290260314941406e+01 9.627699851989746094e-01 3.002429246902465820e+00 2.393694877624511719e+00 1.618837237358093262e+00 -1.931972861289978027e+00
8.039000000000000000e+03 5.393896865844726562e+01 3.702827835083007812e+01 2.205114113166928291e-03 -1.370371103286743164e+00 -4.104498028755187988e-01 2.371467798948287964e-01
8.040000000000000000e+03 5.400227355957031250e+01 3.626478958129882812e+01 7.622730731964111328e-02 -5.585188269615173340e-01 -1.446874588727951050e-01 3.103940188884735107e-01
8.041000000000000000e+03 5.451762008666992188e+01 3.686164474487304688e+01 2.306303977966308594e-01 -4.504814147949218750e-01 -6.595530360937118530e-02 2.901037037372589111e-01
8.042000000000000000e+03 5.397058868408203125e+01 3.665151977539062500e+01 8.699287660419940948e-03 -9.742672443389892578e-01 -2.896704077720642090e-01 2.485924214124679565e-01
8.043000000000000000e+03 5.564248657226562500e+01 3.614342117309570312e+01 2.356303483247756958e-01 2.481072545051574707e-01 1.451212763786315918e-01 2.325251549482345581e-01
8.044000000000000000e+03 5.409300613403320312e+01 3.583216857910156250e+01 -2.932998239994049072e-01 -1.672199964523315430e-01 -1.381559520959854126e-01 2.209791541099548340e-01
8.045000000000000000e+03 5.526097869873046875e+01 3.538493347167968750e+01 -1.472234964370727539e+00 -8.456858247518539429e-02 -4.670410454273223877e-01 6.376666426658630371e-01
8.046000000000000000e+03 5.565135574340820312e+01 3.633640670776367188e+01 5.158444643020629883e-01 4.409065246582031250e-01 2.870253026485443115e-01 2.908312715590000153e-03
8.047000000000000000e+03 5.524278259277343750e+01 3.611079025268554688e+01 -6.791044026613235474e-02 4.742427170276641846e-02 -6.145850755274295807e-03 5.910927653312683105e-01
8.048000000000000000e+03 5.508263397216796875e+01 3.656954956054687500e+01 4.140216112136840820e-01 1.010778918862342834e-02 1.272388100624084473e-01 5.175674557685852051e-01
8.049000000000000000e+03 5.554107666015625000e+01 3.659916305541992188e+01 5.185823440551757812e-01 6.959084868431091309e-01 3.643472194671630859e-01 1.142445281147956848e-01
8.050000000000000000e+03 5.446120834350585938e+01 3.653184127807617188e+01 7.220269739627838135e-02 -4.563635885715484619e-01 -1.152482703328132629e-01 5.339480042457580566e-01
8.051000000000000000e+03 5.557363128662109375e+01 3.595574188232421875e+01 -7.848399877548217773e-02 2.294988632202148438e-01 4.530445858836174011e-02 3.214062154293060303e-01
8.052000000000000000e+03 5.550205612182617188e+01 3.575230026245117188e+01 -6.950426697731018066e-01 5.398477613925933838e-02 -1.923173815011978149e-01 5.308300852775573730e-01
8.053000000000000000e+03 5.490056991577148438e+01 3.633189773559570312e+01 1.348635554313659668e-01 -2.812020182609558105e-01 -4.390154033899307251e-02 5.036407709121704102e-01
8.054000000000000000e+03 5.498474884033203125e+01 3.563390731811523438e+01 -1.049270868301391602e+00 -2.662879228591918945e-01 -3.946676254272460938e-01 5.476135015487670898e-01
8.055000000000000000e+03 5.543824768066406250e+01 3.555218505859375000e+01 -1.059340476989746094e+00 7.769408822059631348e-02 -2.944939136505126953e-01 7.073933482170104980e-01
8.056000000000000000e+03 5.511900329589843750e+01 3.589117431640625000e+01 -3.286042809486389160e-01 -1.223217323422431946e-01 -1.352778077125549316e-01 5.948243141174316406e-01
8.057000000000000000e+03 5.444214248657226562e+01 3.620195007324218750e+01 2.686318010091781616e-02 -4.285287559032440186e-01 -1.204996779561042786e-01 5.341933369636535645e-01
8.058000000000000000e+03 5.538392257690429688e+01 3.628763580322265625e+01 1.609784364700317383e-01 4.926084876060485840e-01 1.960760802030563354e-01 2.666282951831817627e-01
8.059000000000000000e+03 5.477891159057617188e+01 3.607714462280273438e+01 -2.095296829938888550e-01 -4.038566946983337402e-01 -1.840159147977828979e-01 6.021674275398254395e-01
8.060000000000000000e+03 5.459749603271484375e+01 3.584052658081054688e+01 -5.825980305671691895e-01 -3.744869232177734375e-01 -2.871254980564117432e-01 5.511894226074218750e-01
8.061000000000000000e+03 1.114653110504150391e+01 1.993262022733688354e-01 -1.858097195625305176e+00 -1.523584872484207153e-01 -6.031367182731628418e-01 5.718882083892822266e-01
8.062000000000000000e+03 1.121876430511474609e+01 9.378392100334167480e-01 -8.098763823509216309e-01 -3.834787905216217041e-01 -3.580065667629241943e-01 6.658697128295898438e-01
8.063000000000000000e+03 1.040455722808837891e+01 3.265222907066345215e-01 -1.480582118034362793e+00 -1.827121078968048096e-01 -4.989882707595825195e-01 4.039774239063262939e-01
8.064000000000000000e+03 1.188854217529296875e+01 7.071893662214279175e-02 -2.402239322662353516e+00 -2.504664063453674316e-01 -7.958117723464965820e-01 7.352178096771240234e-01
8.065000000000000000e+03 1.271423625946044922e+01 6.772393584251403809e-01 -9.682712554931640625e-01 -3.725389540195465088e-01 -4.022430777549743652e-01 9.514462351799011230e-01
8.066000000000000000e+03 1.263056278228759766e+01 -5.929099395871162415e-02 -3.047193050384521484e+00 -1.661376953125000000e-01 -9.639992117881774902e-01 8.795516490936279297e-01
8.067000000000000000e+03 1.047107124328613281e+01 1.066026568412780762e+00 -7.001111507415771484e-01 -3.087000846862792969e-01 -3.026433885097503662e-01 5.143184661865234375e-01
8.068000000000000000e+03 1.196649551391601562e+01 8.082405924797058105e-01 -8.528910875320434570e-01 -3.523347973823547363e-01 -3.615677654743194580e-01 8.039273023605346680e-01
8.069000000000000000e+03 8.876827239990234375e+00 3.907654583454132080e-01 -7.670676708221435547e-01 -3.117369301617145538e-02 -2.394724041223526001e-01 1.199604347348213196e-01
8.070000000000000000e+03 9.647832870483398438e+00 3.904283344745635986e-01 -1.115990042686462402e+00 -7.343591749668121338e-02 -3.568277955055236816e-01 2.252884805202484131e-01
8.071000000000000000e+03 7.379626274108886719e+00 1.131214857101440430e+00 -3.461278080940246582e-01 -3.285695612430572510e-02 -1.136954352259635925e-01 1.641172766685485840e-01
8.072000000000000000e+03 7.333109855651855469e+00 3.912148773670196533e-01 -4.116612672805786133e-01 -1.483874581754207611e-02 -1.279500126838684082e-01 6.067503988742828369e-02
8.073000000000000000e+03 5.048897743225097656e+00 1.131865501403808594e+00 -1.457907706499099731e-01 -1.877841539680957794e-02 -4.937075823545455933e-02 8.082060515880584717e-02
8.074000000000000000e+03 2.717499017715454102e+00 1.131736278533935547e+00 -4.200047999620437622e-02 -9.704970754683017731e-03 -1.551163475960493088e-02 3.319616615772247314e-02
8.075000000000000000e+03 2.700361490249633789e+00 3.917362987995147705e-01 -2.819237858057022095e-02 -3.783703781664371490e-03 -9.592824615538120270e-03 1.185329444706439972e-02
8.076000000000000000e+03 1.940472364425659180e+00 1.131693840026855469e+00 -2.263678051531314850e-02 -1.260241772979497910e-02 -1.057175919413566589e-02 2.111893706023693085e-02
8.077000000000000000e+03 1.928231120109558105e+00 3.916938602924346924e-01 -9.743753820657730103e-03 -1.970175420865416527e-03 -3.514178795740008354e-03 6.135707255452871323e-03
8.078000000000000000e+03 1.157143712043762207e+00 3.913856744766235352e-01 -1.587460166774690151e-03 -2.099454170092940331e-03 -1.106074312701821327e-03 1.717379200272262096e-03
8.079000000000000000e+03 3.882699608802795410e-01 1.130560278892517090e+00 -1.604257151484489441e-03 -1.407035510055720806e-03 -9.033877868205308914e-04 1.517792348749935627e-03
8.080000000000000000e+03 3.858217298984527588e-01 3.905603289604187012e-01 2.815479456330649555e-05 1.651394850341603160e-04 5.798828351544216275e-05 -7.069358980515971780e-05
8.081000000000000000e+03 4.245013236999511719e+00 3.917648196220397949e-01 -9.783226996660232544e-02 -5.663058720529079437e-03 -3.104859963059425354e-02 2.260520122945308685e-02
8.082000000000000000e+03 3.495027065277099609e+00 1.131726503372192383e+00 -6.815161556005477905e-02 -1.453167852014303207e-02 -2.480498701333999634e-02 4.890860989689826965e-02
8.083000000000000000e+03 4.271943569183349609e+00 1.131764769554138184e+00 -1.030196696519851685e-01 -1.003738027065992355e-02 -3.391711413860321045e-02 6.259251385927200317e-02
8.084000000000000000e+03 5.017070770263671875e+00 3.918655514717102051e-01 -1.505161076784133911e-01 3.818593977484852076e-04 -4.504027217626571655e-02 2.853089943528175354e-02
8.085000000000000000e+03 5.789480209350585938e+00 3.920044898986816406e-01 -2.171309590339660645e-01 -8.630124852061271667e-03 -6.772832572460174561e-02 3.638061508536338806e-02
8.086000000000000000e+03 6.603249549865722656e+00 1.131646037101745605e+00 -2.649207115173339844e-01 -3.101869672536849976e-02 -8.878182619810104370e-02 1.281439960002899170e-01
8.087000000000000000e+03 6.561629772186279297e+00 3.916460275650024414e-01 -3.019716739654541016e-01 -2.368757704971358180e-04 -9.066256880760192871e-02 4.626382142305374146e-02
8.088000000000000000e+03 8.105130195617675781e+00 3.909509181976318359e-01 -5.592365264892578125e-01 -6.263740826398134232e-03 -1.696500778198242188e-01 8.339761942625045776e-02
8.089000000000000000e+03 8.933135986328125000e+00 1.130765438079833984e+00 -5.711346268653869629e-01 -1.014478579163551331e-01 -2.017747461795806885e-01 3.134488761425018311e-01
8.090000000000000000e+03 9.709038734436035156e+00 1.130428314208984375e+00 -6.240559816360473633e-01 -2.333826273679733276e-01 -2.572315931320190430e-01 4.335271716117858887e-01
8.091000000000000000e+03 8.156541824340820312e+00 1.130950927734375000e+00 -4.439271390438079834e-01 -6.472959369421005249e-02 -1.525970250368118286e-01 2.193258106708526611e-01
8.092000000000000000e+03 1.164488434791564941e+00 1.131385684013366699e+00 -8.647852577269077301e-03 -8.380296640098094940e-03 -5.108444485813379288e-03 8.294403553009033203e-03
8.093000000000000000e+03 5.826203823089599609e+00 1.132004499435424805e+00 -1.995101273059844971e-01 -1.502967718988656998e-02 -6.436194479465484619e-02 1.000459417700767517e-01
8.094000000000000000e+03 3.472993135452270508e+00 3.917265534400939941e-01 -5.756331235170364380e-02 -5.219671293161809444e-04 -1.742558367550373077e-02 1.659966073930263519e-02
8.095000000000000000e+03 9.574274063110351562e+00 -3.935540616512298584e-01 -2.492059171199798584e-01 4.374125972390174866e-03 -7.344953715801239014e-02 -1.236592140048742294e-02
8.096000000000000000e+03 8.789978027343750000e+00 -3.986168801784515381e-01 -2.178020775318145752e-01 3.091458929702639580e-03 -6.441318988800048828e-02 -2.040260657668113708e-02
8.097000000000000000e+03 8.686211585998535156e+00 -1.138616919517517090e+00 -2.438717633485794067e-01 -2.134081907570362091e-03 -7.380175590515136719e-02 -6.431841850280761719e-02
8.098000000000000000e+03 8.006248474121093750e+00 -3.998050093650817871e-01 -1.749270260334014893e-01 -2.643996849656105042e-03 -5.327130481600761414e-02 -2.156508341431617737e-02
8.099000000000000000e+03 7.223060607910156250e+00 -3.997795581817626953e-01 -1.340082734823226929e-01 8.114498923532664776e-04 -3.995904326438903809e-02 -1.927490718662738800e-02
8.100000000000000000e+03 6.439927577972412109e+00 -4.006183743476867676e-01 -9.556201100349426270e-02 -3.022902878001332283e-03 -2.957547456026077271e-02 -1.772348210215568542e-02
8.101000000000000000e+03 5.657042503356933594e+00 -4.034312665462493896e-01 -6.333331018686294556e-02 -6.721621321048587561e-05 -1.902015879750251770e-02 -1.405039150267839432e-02
8.102000000000000000e+03 4.874185085296630859e+00 -4.075828790664672852e-01 -3.607716411352157593e-02 -2.554527716711163521e-03 -1.158950757235288620e-02 -1.197261735796928406e-02
8.103000000000000000e+03 4.091480255126953125e+00 -4.106692969799041748e-01 -1.576695777475833893e-02 -1.286179991438984871e-03 -5.115941166877746582e-03 -7.993277162313461304e-03
8.104000000000000000e+03 3.310033082962036133e+00 -4.133046567440032959e-01 -1.311350264586508274e-03 -1.968908822163939476e-03 -9.840776911005377769e-04 -4.823902156203985214e-03
8.105000000000000000e+03 2.531398296356201172e+00 -4.163123965263366699e-01 5.419192835688591003e-03 -1.599272130988538265e-03 1.145976246334612370e-03 -1.437189406715333462e-03
8.106000000000000000e+03 6.962535381317138672e-01 -1.126455783843994141e+00 1.700198394246399403e-03 2.383695915341377258e-03 1.225168351083993912e-03 3.109969198703765869e-03
8.107000000000000000e+03 3.739950358867645264e-01 -5.643373131752014160e-01 8.018962689675390720e-04 2.445894526317715645e-03 9.743372211232781410e-04 1.309450715780258179e-03
8.108000000000000000e+03 9.497249603271484375e+00 -1.133554100990295410e+00 -3.135890662670135498e-01 1.605861447751522064e-02 -8.925913274288177490e-02 -6.238962337374687195e-02
8.109000000000000000e+03 7.875741004943847656e+00 -1.139804959297180176e+00 -1.976313740015029907e-01 -9.474819671595469117e-05 -5.931783467531204224e-02 -6.166069582104682922e-02
8.110000000000000000e+03 7.065812587738037109e+00 -1.139779567718505859e+00 -1.516572982072830200e-01 -8.376018144190311432e-03 -4.800999537110328674e-02 -5.705687031149864197e-02
8.111000000000000000e+03 6.255938053131103516e+00 -1.140618443489074707e+00 -1.159932762384414673e-01 -3.898717695847153664e-03 -3.596759960055351257e-02 -4.822140559554100037e-02
8.112000000000000000e+03 5.446311473846435547e+00 -1.143431305885314941e+00 -8.173374831676483154e-02 -9.026906453073024750e-03 -2.722819708287715912e-02 -4.164138808846473694e-02
8.113000000000000000e+03 4.636712551116943359e+00 -1.147582888603210449e+00 -5.705611035227775574e-02 -5.776970181614160538e-03 -1.884992420673370361e-02 -3.116444312036037445e-02
8.114000000000000000e+03 3.827266693115234375e+00 -1.150669336318969727e+00 -3.458087891340255737e-02 -8.602741174399852753e-03 -1.295508537441492081e-02 -2.392185293138027191e-02
8.115000000000000000e+03 3.019078254699707031e+00 -1.153304696083068848e+00 -1.956452429294586182e-02 -7.663969881832599640e-03 -8.168548345565795898e-03 -1.329815573990345001e-02
8.116000000000000000e+03 2.213702201843261719e+00 -1.156312346458435059e+00 -7.609197869896888733e-03 -6.126920226961374283e-03 -4.120835568755865097e-03 -4.242660477757453918e-03
8.117000000000000000e+03 1.420517802238464355e+00 -1.151062846183776855e+00 -4.562596790492534637e-03 -2.317686565220355988e-03 -2.064085099846124649e-03 1.838779309764504433e-03
8.118000000000000000e+03 1.764955043792724609e+00 -4.110628962516784668e-01 7.439242210239171982e-03 -3.707540454342961311e-04 2.120546530932188034e-03 1.197271980345249176e-03
8.119000000000000000e+03 1.067432165145874023e+00 -3.864558041095733643e-01 3.810925409197807312e-03 -1.157764927484095097e-03 7.959481445141136646e-04 2.211999148130416870e-03
8.120000000000000000e+03 1.107046413421630859e+01 -5.791122317314147949e-01 -4.226755797863006592e-01 -1.823676517233252525e-03 -1.273497790098190308e-01 1.288832910358905792e-02
8.121000000000000000e+03 1.172848224639892578e+01 -1.444193720817565918e+00 -6.161518692970275879e-01 -3.799104131758213043e-03 -1.859852969646453857e-01 -1.259786635637283325e-01
8.122000000000000000e+03 1.026795482635498047e+01 -1.192459702491760254e+00 -3.903048038482666016e-01 1.180361583828926086e-02 -1.135503575205802917e-01 -7.435825467109680176e-02
8.123000000000000000e+03 1.245870399475097656e+01 -1.572161674499511719e+00 -7.490042448043823242e-01 -1.071330346167087555e-02 -2.279152721166610718e-01 -1.746862828731536865e-01
8.124000000000000000e+03 1.254237651824951172e+01 -8.356313705444335938e-01 -7.694572210311889648e-01 -1.658667437732219696e-02 -2.358131706714630127e-01 6.864131428301334381e-03
8.125000000000000000e+03 1.180643558502197266e+01 -7.066720724105834961e-01 -5.630505084991455078e-01 2.074327319860458374e-03 -1.682928651571273804e-01 1.878761872649192810e-02
8.126000000000000000e+03 1.099823093414306641e+01 -1.317625284194946289e+00 -4.874235391616821289e-01 2.024910040199756622e-02 -1.401523202657699585e-01 -9.201393276453018188e-02
8.127000000000000000e+03 1.033446884155273438e+01 -4.529553353786468506e-01 -3.126588761806488037e-01 9.962698444724082947e-03 -9.080884605646133423e-02 2.834144281223416328e-03
8.128000000000000000e+03 1.412816143035888672e+01 -9.967193007469177246e-01 -1.274555563926696777e+00 -2.540871500968933105e-02 -3.899892866611480713e-01 -9.789521247148513794e-02
8.129000000000000000e+03 1.524391746520996094e+01 -1.466321945190429688e+00 -1.701133131980895996e+00 -2.975786626338958740e-01 -5.996135473251342773e-01 -6.455032229423522949e-01
8.130000000000000000e+03 1.616965675354003906e+01 -1.725686669349670410e+00 -1.441051959991455078e+00 -6.555302143096923828e-01 -6.289746165275573730e-01 -6.667945384979248047e-01
8.131000000000000000e+03 1.574865627288818359e+01 -1.673639893531799316e+00 -1.403332948684692383e+00 -6.162633895874023438e-01 -6.058788895606994629e-01 -6.220969557762145996e-01
8.132000000000000000e+03 1.561703586578369141e+01 -9.138993620872497559e-01 -2.675556421279907227e+00 -3.048928976058959961e-01 -8.941348195075988770e-01 -3.698326051235198975e-01
8.133000000000000000e+03 1.330834674835205078e+01 -9.333403110504150391e-01 -1.006643652915954590e+00 -2.661224268376827240e-02 -3.099767565727233887e-01 -3.961759433150291443e-02
8.134000000000000000e+03 1.325672912597656250e+01 -1.671557903289794922e+00 -9.153674840927124023e-01 -7.224553078413009644e-02 -2.962839007377624512e-01 -2.373681217432022095e-01
8.135000000000000000e+03 1.414637279510498047e+01 -1.739302992820739746e+00 -1.146610021591186523e+00 -6.481158733367919922e-02 -3.634264767169952393e-01 -3.285898566246032715e-01
8.136000000000000000e+03 1.646326637268066406e+01 -1.909508228302001953e+00 -1.327925562858581543e+00 -7.257202863693237305e-01 -6.160937547683715820e-01 -6.261748671531677246e-01
8.137000000000000000e+03 1.419766807556152344e+01 -2.838388085365295410e-01 -5.472335815429687500e+00 2.056105583906173706e-01 -1.580017685890197754e+00 9.521632790565490723e-01
8.138000000000000000e+03 1.352537155151367188e+01 5.852731466293334961e-01 -4.710345566272735596e-01 2.094607613980770111e-02 -1.350265443325042725e-01 8.651894330978393555e-01
8.139000000000000000e+03 1.342303657531738281e+01 -1.497735083103179932e-01 -4.113134384155273438e+00 -1.603408157825469971e-01 -1.282042503356933594e+00 9.892960190773010254e-01
8.140000000000000000e+03 1.515072631835937500e+01 6.366986036300659180e-01 4.496919631958007812e+00 1.215699315071105957e+00 1.713785648345947266e+00 -1.353250741958618164e+00
8.141000000000000000e+03 1.436956024169921875e+01 6.066150665283203125e-01 1.555854797363281250e+00 1.459120035171508789e+00 9.044924378395080566e-01 -5.028602480888366699e-01
8.142000000000000000e+03 2.157444953918457031e+01 4.003563880920410156e+00 -1.872387290000915527e+00 -1.105604410171508789e+00 -8.933975100517272949e-01 -1.477967381477355957e+00
8.143000000000000000e+03 2.389948272705078125e+01 5.596093177795410156e+00 -4.218695163726806641e+00 -2.038911104202270508e+00 -1.877281904220581055e+00 -2.866348981857299805e+00
8.144000000000000000e+03 2.412474632263183594e+01 4.887040615081787109e+00 1.077938675880432129e+00 -9.553779661655426025e-02 2.947202622890472412e-01 4.290076196193695068e-01
8.145000000000000000e+03 1.590177440643310547e+01 -5.061372518539428711e-01 -3.840485095977783203e+00 -2.216632813215255737e-01 -1.218644499778747559e+00 -1.148736596107482910e+00
8.146000000000000000e+03 1.952704048156738281e+01 2.294429063796997070e+00 -3.401878774166107178e-01 -8.094331026077270508e-01 -3.448863029479980469e-01 -7.715933322906494141e-01
8.147000000000000000e+03 2.090116500854492188e+01 2.502764463424682617e+00 -3.258894681930541992e-01 -2.560403347015380859e-01 -1.745789349079132080e-01 -3.104000985622406006e-01
8.148000000000000000e+03 2.118369483947753906e+01 2.726105928421020508e+00 1.005885973572731018e-01 -1.262017339468002319e-01 -7.683938834816217422e-03 -1.258440613746643066e-01
8.149000000000000000e+03 2.619468307495117188e+01 6.949645519256591797e+00 -2.681233406066894531e+00 -1.585940241813659668e+00 -1.280152082443237305e+00 -2.002704381942749023e+00
8.150000000000000000e+03 2.673808860778808594e+01 7.608308792114257812e+00 -3.766732931137084961e+00 -2.319259881973266602e+00 -1.825797796249389648e+00 -2.923854589462280273e+00
8.151000000000000000e+03 2.781131172180175781e+01 8.301882743835449219e+00 -2.746225833892822266e+00 -1.227029919624328613e+00 -1.191976785659790039e+00 -1.829835057258605957e+00
8.152000000000000000e+03 2.843750381469726562e+01 8.249814033508300781e+00 -1.741539955139160156e+00 3.254435062408447266e-01 -4.248289465904235840e-01 -6.338639855384826660e-01
8.153000000000000000e+03 2.872324943542480469e+01 8.505600929260253906e+00 -1.930638670921325684e+00 -5.961892604827880859e-01 -7.580483555793762207e-01 -6.626465916633605957e-01
8.154000000000000000e+03 2.901180076599121094e+01 8.513568878173828125e+00 -1.621291756629943848e+00 -2.882393300533294678e-01 -5.728593468666076660e-01 -3.894876241683959961e-01
8.155000000000000000e+03 2.951800727844238281e+01 8.114252090454101562e+00 -5.348516106605529785e-01 -5.116926431655883789e-01 -3.139632642269134521e-01 -1.405350863933563232e-01
8.156000000000000000e+03 2.974779701232910156e+01 7.457363605499267578e+00 -4.616506770253181458e-02 -8.723012208938598633e-01 -2.755398750305175781e-01 -5.875502228736877441e-01
8.157000000000000000e+03 2.969834518432617188e+01 6.596699714660644531e+00 -6.625375747680664062e-01 -5.508657693862915039e-01 -3.640210032463073730e-01 -8.932889699935913086e-01
8.158000000000000000e+03 2.914324760437011719e+01 6.185403347015380859e+00 -1.066750645637512207e+00 -6.221023797988891602e-01 -5.066559314727783203e-01 -7.694114446640014648e-01
8.159000000000000000e+03 2.731749725341796875e+01 6.180770397186279297e+00 -1.729630351066589355e+00 -7.290253043174743652e-01 -7.375966906547546387e-01 -1.118373274803161621e+00
8.160000000000000000e+03 2.667770767211914062e+01 5.437873363494873047e+00 -1.557347774505615234e+00 -6.533449292182922363e-01 -6.632078289985656738e-01 -9.879299998283386230e-01
8.161000000000000000e+03 2.510387229919433594e+01 4.538621902465820312e+00 -1.602258205413818359e+00 -6.012959480285644531e-01 -6.610662341117858887e-01 -9.790177941322326660e-01
8.162000000000000000e+03 2.605690193176269531e+01 5.097530364990234375e+00 -1.564168095588684082e+00 -6.195019483566284180e-01 -6.551010012626647949e-01 -9.760720729827880859e-01
8.163000000000000000e+03 2.561135482788085938e+01 5.157556533813476562e+00 -1.610710382461547852e+00 -6.242017149925231934e-01 -6.704736351966857910e-01 -1.008881926536560059e+00
8.164000000000000000e+03 2.728079605102539062e+01 4.737926959991455078e+00 -1.259514451026916504e+00 -6.530319452285766602e-01 -5.737639069557189941e-01 -8.045478463172912598e-01
8.165000000000000000e+03 2.848536109924316406e+01 5.469244956970214844e+00 -1.108699083328247070e+00 -7.580195069313049316e-01 -5.600155591964721680e-01 -7.213190793991088867e-01
8.166000000000000000e+03 2.787462043762207031e+01 6.200993061065673828e+00 -1.580770611763000488e+00 -9.276567101478576660e-01 -7.525281906127929688e-01 -1.150377035140991211e+00
8.167000000000000000e+03 2.660818672180175781e+01 6.537590503692626953e+00 1.290593981742858887e+00 2.903963625431060791e-01 4.742971062660217285e-01 6.584867238998413086e-01
8.168000000000000000e+03 2.734742164611816406e+01 6.542398452758789062e+00 3.767853021621704102e+00 1.389506936073303223e+00 1.547207951545715332e+00 2.309533596038818359e+00
8.169000000000000000e+03 2.703376388549804688e+01 6.653264045715332031e+00 1.945139527320861816e+00 8.224740624427795410e-01 8.302840590476989746e-01 1.248895525932312012e+00
8.170000000000000000e+03 2.627173042297363281e+01 4.064880847930908203e+00 -1.322809815406799316e+00 -5.387467145919799805e-01 -5.584669709205627441e-01 -7.712027430534362793e-01
8.171000000000000000e+03 2.386675453186035156e+01 2.603332996368408203e+00 -1.536296486854553223e+00 -4.095711708068847656e-01 -5.837602615356445312e-01 -7.859680652618408203e-01
8.172000000000000000e+03 2.220455932617187500e+01 3.039056539535522461e+00 -1.971073508262634277e+00 -7.332978844642639160e-01 -8.113114237785339355e-01 -1.223007440567016602e+00
8.173000000000000000e+03 2.217053604125976562e+01 1.547746300697326660e+00 -1.575507640838623047e+00 -4.475876986980438232e-01 -6.069286465644836426e-01 -9.738897085189819336e-01
8.174000000000000000e+03 2.025352096557617188e+01 4.149144887924194336e-01 -1.323302388191223145e+00 -1.125624060630798340e+00 -7.346779108047485352e-01 -1.152717828750610352e+00
8.175000000000000000e+03 1.814858818054199219e+01 4.918190240859985352e-01 -1.436783432960510254e+00 -4.742810726165771484e-01 -5.733193755149841309e-01 -8.313192725181579590e-01
8.176000000000000000e+03 1.820799827575683594e+01 -8.796090483665466309e-01 -1.738067388534545898e+00 -4.889396727085113525e-01 -6.681021451950073242e-01 -8.967180848121643066e-01
8.177000000000000000e+03 2.170348358154296875e+01 2.723834276199340820e+00 -2.007938623428344727e+00 -7.878755331039428711e-01 -8.387442231178283691e-01 -1.241881966590881348e+00
8.178000000000000000e+03 2.102823257446289062e+01 2.260757684707641602e+00 -1.942878723144531250e+00 -7.818651199340820312e-01 -8.174231052398681641e-01 -1.233482837677001953e+00
8.179000000000000000e+03 1.607972335815429688e+01 -8.520542383193969727e-01 -3.215760231018066406e+00 -8.848006725311279297e-01 -1.230168223381042480e+00 -1.036022186279296875e+00
8.180000000000000000e+03 1.663420677185058594e+01 -1.785859823226928711e+00 -1.383637309074401855e+00 -6.628523468971252441e-01 -6.139469146728515625e-01 -5.797413587570190430e-01
8.181000000000000000e+03 1.890606498718261719e+01 -4.218147695064544678e-01 -1.974645256996154785e+00 -6.066398024559020996e-01 -7.743855118751525879e-01 -9.248645901679992676e-01
8.182000000000000000e+03 2.062004280090332031e+01 6.062549352645874023e-01 -1.413340926170349121e+00 -8.219848275184631348e-01 -6.705977320671081543e-01 -1.320669293403625488e+00
8.183000000000000000e+03 2.088251113891601562e+01 1.380865573883056641e+00 -1.515373587608337402e+00 -8.247737288475036621e-01 -7.020441889762878418e-01 -1.220856070518493652e+00
8.184000000000000000e+03 2.300205802917480469e+01 2.110841751098632812e+00 -1.572103857994079590e+00 -4.008125066757202148e-01 -5.918748974800109863e-01 -8.675090074539184570e-01
8.185000000000000000e+03 2.438932991027832031e+01 2.960635662078857422e+00 -1.489052772521972656e+00 -4.272823929786682129e-01 -5.749005675315856934e-01 -7.829803824424743652e-01
8.186000000000000000e+03 2.521880340576171875e+01 3.450610637664794922e+00 -1.437463998794555664e+00 -4.676778614521026611e-01 -5.715425610542297363e-01 -7.729213237762451172e-01
8.187000000000000000e+03 2.289822006225585938e+01 3.422800064086914062e+00 -1.885480165481567383e+00 -6.997594237327575684e-01 -7.755718827247619629e-01 -1.153231501579284668e+00
8.188000000000000000e+03 2.307255363464355469e+01 3.524418592453002930e+00 -1.865086555480957031e+00 -7.056983113288879395e-01 -7.712354660034179688e-01 -1.137554883956909180e+00
8.189000000000000000e+03 2.407131767272949219e+01 4.178638458251953125e+00 -1.733665704727172852e+00 -6.575967669486999512e-01 -7.173787355422973633e-01 -1.065406560897827148e+00
8.190000000000000000e+03 1.780109024047851562e+01 1.569384574890136719e+00 1.853307247161865234e+00 4.228548109531402588e-01 6.828486323356628418e-01 8.693504333496093750e-01
8.191000000000000000e+03 2.510248374938964844e+01 4.799768447875976562e+00 -1.637868642807006836e+00 -6.277308464050292969e-01 -6.796798706054687500e-01 -1.008610248565673828e+00
8.192000000000000000e+03 2.383655929565429688e+01 3.735404729843139648e+00 -1.722151160240173340e+00 -6.045097112655639648e-01 -6.979982852935791016e-01 -1.028915405273437500e+00
8.193000000000000000e+03 2.356903648376464844e+01 3.872204303741455078e+00 -1.789399743080139160e+00 -6.701980829238891602e-01 -7.378793358802795410e-01 -1.103882431983947754e+00
8.194000000000000000e+03 2.272424316406250000e+01 3.322763919830322266e+00 -1.915820837020874023e+00 -7.176728248596191406e-01 -7.900481224060058594e-01 -1.164238214492797852e+00
8.195000000000000000e+03 2.186722183227539062e+01 2.835867881774902344e+00 -1.995999455451965332e+00 -7.534747719764709473e-01 -8.248422741889953613e-01 -1.249371886253356934e+00
8.196000000000000000e+03 1.797665786743164062e+01 3.892868459224700928e-01 -1.483193397521972656e+00 -5.030907392501831055e-01 -5.958852171897888184e-01 -8.823630809783935547e-01
8.197000000000000000e+03 1.780901718139648438e+01 2.828388810157775879e-01 -1.558683156967163086e+00 -5.471438765525817871e-01 -6.317481398582458496e-01 -9.056814312934875488e-01
8.198000000000000000e+03 1.786056327819824219e+01 -7.438153028488159180e-01 -1.796066522598266602e+00 -4.543681442737579346e-01 -6.751304268836975098e-01 -8.900800943374633789e-01
8.199000000000000000e+03 1.490975666046142578e+01 -9.672126770019531250e-01 -1.616512537002563477e+00 8.076547086238861084e-02 -4.607241153717041016e-01 -8.327370136976242065e-02
8.200000000000000000e+03 1.553082847595214844e+01 -5.301201939582824707e-01 -5.738932609558105469e+00 4.262255430221557617e-01 -1.593812108039855957e+00 -1.072208583354949951e-01
8.201000000000000000e+03 2.761780357360839844e+01 7.930091857910156250e+00 -2.221194028854370117e+00 -7.946102023124694824e-01 -9.047412276268005371e-01 -1.562009215354919434e+00
8.202000000000000000e+03 2.491459465026855469e+01 6.318172931671142578e+00 -3.914781093597412109e+00 -2.266064167022705078e+00 -1.854253530502319336e+00 -3.043425798416137695e+00
8.203000000000000000e+03 2.509618377685546875e+01 5.497509956359863281e+00 1.610449433326721191e+00 6.263151764869689941e-01 6.710293889045715332e-01 7.535101175308227539e-01
8.204000000000000000e+03 2.355752754211425781e+01 5.373759746551513672e+00 -4.188447475433349609e+00 -1.853898882865905762e+00 -1.812703967094421387e+00 -2.729321718215942383e+00
8.205000000000000000e+03 2.223781585693359375e+01 4.491950511932373047e+00 -2.528750896453857422e+00 -1.270609974861145020e+00 -1.139808297157287598e+00 -1.807417750358581543e+00
8.206000000000000000e+03 2.086944961547851562e+01 3.572295188903808594e+00 -1.507969617843627930e+00 -8.745826482772827148e-01 -7.147656679153442383e-01 -1.204464554786682129e+00
8.207000000000000000e+03 2.071192550659179688e+01 3.059936761856079102e+00 -5.274451971054077148e-01 -8.619865179061889648e-01 -4.168295264244079590e-01 -8.806385397911071777e-01
8.208000000000000000e+03 2.016724014282226562e+01 3.137828350067138672e+00 -9.185788035392761230e-01 -6.462591886520385742e-01 -4.694513976573944092e-01 -8.196625709533691406e-01
8.209000000000000000e+03 2.013880538940429688e+01 2.411051511764526367e+00 -5.747856497764587402e-01 -8.371453285217285156e-01 -4.235793054103851318e-01 -8.583075404167175293e-01
8.210000000000000000e+03 1.905813980102539062e+01 1.327856063842773438e+00 -3.157868385314941406e+00 -1.154599785804748535e+00 -1.293740391731262207e+00 -1.850248217582702637e+00
8.211000000000000000e+03 1.744436645507812500e+01 1.317501544952392578e+00 2.270188331604003906e+00 4.717915058135986328e-01 8.225939869880676270e-01 9.371253848075866699e-01
8.212000000000000000e+03 1.628603553771972656e+01 8.226152062416076660e-01 3.992156982421875000e+00 2.692838311195373535e-01 1.278432250022888184e+00 1.180130243301391602e+00
8.213000000000000000e+03 1.592049598693847656e+01 7.100230455398559570e-01 4.491346359252929688e+00 5.897874236106872559e-01 1.524340152740478516e+00 6.721853613853454590e-01
8.214000000000000000e+03 1.661206626892089844e+01 8.281219750642776489e-03 -4.704567432403564453e+00 -1.067262887954711914e+00 -1.731549024581909180e+00 -2.555691242218017578e+00
8.215000000000000000e+03 1.869659805297851562e+01 1.178386449813842773e+00 -3.327232837677001953e+00 -1.446666002273559570e+00 -1.432169675827026367e+00 -2.116867542266845703e+00
8.216000000000000000e+03 1.813349723815917969e+01 1.811456799507141113e+00 1.469979763031005859e+00 2.954478859901428223e-01 5.296282768249511719e-01 7.009108066558837891e-01
8.217000000000000000e+03 1.867108726501464844e+01 1.794123888015747070e+00 3.950307145714759827e-02 -6.309596300125122070e-01 -1.774369627237319946e-01 -4.897831678390502930e-01
8.218000000000000000e+03 2.021986579895019531e+01 2.136486768722534180e+00 -1.039218664169311523e+00 -6.413654685020446777e-01 -5.041752457618713379e-01 -8.064250349998474121e-01
8.219000000000000000e+03 2.072131156921386719e+01 2.411337137222290039e+00 -4.762428700923919678e-01 -2.950785160064697266e-01 -2.313964217901229858e-01 -3.997995257377624512e-01
8.220000000000000000e+03 2.134403800964355469e+01 2.867102384567260742e+00 3.185404539108276367e-01 -1.082976758480072021e-01 6.307283043861389160e-02 -3.402565792202949524e-02
8.221000000000000000e+03 2.052456855773925781e+01 3.346909999847412109e+00 -1.275949239730834961e+00 -8.232520222663879395e-01 -6.297603845596313477e-01 -1.023081421852111816e+00
8.222000000000000000e+03 2.190268898010253906e+01 3.133645534515380859e+00 8.370337486267089844e-01 1.947055757045745850e-01 3.095217943191528320e-01 3.427779674530029297e-01
8.223000000000000000e+03 2.170759963989257812e+01 3.228340387344360352e+00 4.780630171298980713e-01 -3.113245964050292969e-01 5.002152547240257263e-02 -4.801017418503761292e-02
8.224000000000000000e+03 2.218294525146484375e+01 3.758147478103637695e+00 -2.627653256058692932e-02 -5.016660094261169434e-01 -1.583827733993530273e-01 -4.432385563850402832e-01
8.225000000000000000e+03 2.309049415588378906e+01 3.885665655136108398e+00 1.904845237731933594e+00 5.976917743682861328e-01 7.507610917091369629e-01 9.868630170822143555e-01
8.226000000000000000e+03 2.343356513977050781e+01 4.924833297729492188e+00 -1.690462589263916016e+00 -1.218912005424499512e+00 -8.728123903274536133e-01 -1.502461552619934082e+00
8.227000000000000000e+03 2.389833259582519531e+01 4.438695907592773438e+00 2.834534406661987305e+00 8.067942261695861816e-01 1.092398643493652344e+00 1.478747487068176270e+00
8.228000000000000000e+03 2.493483924865722656e+01 5.057234764099121094e+00 3.325540542602539062e+00 1.102295756340026855e+00 1.328350901603698730e+00 2.000586748123168945e+00
8.229000000000000000e+03 2.634406471252441406e+01 5.882075309753417969e+00 3.820417404174804688e+00 1.300960779190063477e+00 1.536413431167602539e+00 2.291123867034912109e+00
8.230000000000000000e+03 2.651717948913574219e+01 6.223111629486083984e+00 2.919591903686523438e+00 9.125057458877563477e-01 1.149629235267639160e+00 1.707242727279663086e+00
8.231000000000000000e+03 2.752372932434082031e+01 6.642493247985839844e+00 3.764916658401489258e+00 1.419736266136169434e+00 1.555395841598510742e+00 2.320673942565917969e+00
8.232000000000000000e+03 2.770738792419433594e+01 6.731254100799560547e+00 3.834967613220214844e+00 1.442328214645385742e+00 1.583188772201538086e+00 2.292567253112792969e+00
8.233000000000000000e+03 2.837801170349121094e+01 8.509162902832031250e+00 -2.363913536071777344e+00 -2.813558578491210938e-01 -7.935808300971984863e-01 -1.198319554328918457e+00
8.234000000000000000e+03 2.877238655090332031e+01 8.255836486816406250e+00 -1.116950154304504395e+00 1.163982748985290527e-01 -3.001655638217926025e-01 -1.351000964641571045e-01
8.235000000000000000e+03 2.819168090820312500e+01 8.265731811523437500e+00 -2.258032798767089844e+00 -2.588353157043457031e-01 -7.550604343414306641e-01 -1.147998094558715820e+00
8.236000000000000000e+03 2.762212753295898438e+01 6.936492919921875000e+00 2.483759164810180664e+00 9.503527879714965820e-01 1.030233621597290039e+00 1.507255434989929199e+00
8.237000000000000000e+03 2.782902908325195312e+01 6.540134429931640625e+00 -1.908179879188537598e+00 -8.748832345008850098e-01 -8.349189162254333496e-01 -1.282799482345581055e+00
8.238000000000000000e+03 2.816375541687011719e+01 6.255253791809082031e+00 -1.450511336326599121e+00 -1.066648483276367188e+00 -7.551479339599609375e-01 -1.119744420051574707e+00
8.239000000000000000e+03 2.855319404602050781e+01 6.142180919647216797e+00 -1.212981581687927246e+00 -9.801668524742126465e-01 -6.579445600509643555e-01 -8.601725697517395020e-01
8.240000000000000000e+03 2.994088172912597656e+01 7.355839729309082031e+00 -2.172647118568420410e-01 -8.236503601074218750e-01 -3.122745156288146973e-01 -6.873343586921691895e-01
8.241000000000000000e+03 2.965469932556152344e+01 6.280673980712890625e+00 -8.496592640876770020e-01 -4.830353260040283203e-01 -3.998083770275115967e-01 -8.227884769439697266e-01
8.242000000000000000e+03 2.813894844055175781e+01 5.262156963348388672e+00 -1.157390832901000977e+00 -7.532265782356262207e-01 -5.731852054595947266e-01 -7.690900564193725586e-01
8.243000000000000000e+03 2.796563339233398438e+01 5.154746055603027344e+00 -1.182902455329895020e+00 -7.433599233627319336e-01 -5.778787136077880859e-01 -7.847388386726379395e-01
8.244000000000000000e+03 2.745028686523437500e+01 4.845677852630615234e+00 -1.238117456436157227e+00 -6.586001515388488770e-01 -5.690153241157531738e-01 -7.945823669433593750e-01
8.245000000000000000e+03 2.690469741821289062e+01 4.545875072479248047e+00 -1.293381333351135254e+00 -6.130815148353576660e-01 -5.719388723373413086e-01 -8.069019317626953125e-01
8.246000000000000000e+03 2.642532920837402344e+01 4.458956241607666016e+00 -1.368640065193176270e+00 -5.770986080169677734e-01 -5.837216377258300781e-01 -8.341695666313171387e-01
8.247000000000000000e+03 2.658790779113769531e+01 4.286829948425292969e+00 -1.321994066238403320e+00 -5.566459894180297852e-01 -5.635920166969299316e-01 -7.798185348510742188e-01
8.248000000000000000e+03 2.574311637878417969e+01 3.786098003387451172e+00 -1.385330557823181152e+00 -4.887043535709381104e-01 -5.622104406356811523e-01 -7.706336975097656250e-01
8.249000000000000000e+03 2.541836547851562500e+01 3.930738449096679688e+00 -1.469650745391845703e+00 -5.098580121994018555e-01 -5.938526391983032227e-01 -8.333088755607604980e-01
8.250000000000000000e+03 2.420208168029785156e+01 2.860757350921630859e+00 -1.520747303962707520e+00 -4.451868534088134766e-01 -5.897802710533142090e-01 -7.953614592552185059e-01
8.251000000000000000e+03 2.345994377136230469e+01 2.607226133346557617e+00 -1.587447047233581543e+00 -4.338980913162231445e-01 -6.064035296440124512e-01 -8.584653735160827637e-01
8.252000000000000000e+03 2.318541145324707031e+01 2.221759319305419922e+00 -1.586018919944763184e+00 -4.302229583263397217e-01 -6.048725843429565430e-01 -8.467233777046203613e-01
8.253000000000000000e+03 2.254116249084472656e+01 2.054912328720092773e+00 -1.638060688972473145e+00 -4.918473362922668457e-01 -6.389724016189575195e-01 -9.602760672569274902e-01
8.254000000000000000e+03 2.216105842590332031e+01 1.763288617134094238e+00 -1.580278873443603516e+00 -4.853231310844421387e-01 -6.196805834770202637e-01 -1.002663850784301758e+00
8.255000000000000000e+03 2.199205207824707031e+01 1.458675265312194824e+00 -1.526448726654052734e+00 -4.238281548023223877e-01 -5.850830674171447754e-01 -1.019133090972900391e+00
8.256000000000000000e+03 2.183944702148437500e+01 1.690778493881225586e+00 -1.620888471603393555e+00 -5.671589970588684082e-01 -6.564142107963562012e-01 -1.073013782501220703e+00
8.257000000000000000e+03 2.182098770141601562e+01 1.338136911392211914e+00 -1.568328857421875000e+00 -4.952287375926971436e-01 -6.190672516822814941e-01 -1.046544194221496582e+00
8.258000000000000000e+03 2.131197357177734375e+01 1.024908065795898438e+00 -1.464217662811279297e+00 -5.461347103118896484e-01 -6.031057238578796387e-01 -1.226788163185119629e+00
8.259000000000000000e+03 2.114123344421386719e+01 9.171155691146850586e-01 -1.446819782257080078e+00 -6.931259632110595703e-01 -6.419837474822998047e-01 -1.217235684394836426e+00
8.260000000000000000e+03 2.067724800109863281e+01 9.409630894660949707e-01 -1.409123182296752930e+00 -7.909762859344482422e-01 -6.600298285484313965e-01 -1.280221939086914062e+00
8.261000000000000000e+03 2.001682472229003906e+01 1.637134432792663574e+00 -1.558645248413085938e+00 -7.150220870971679688e-01 -6.821001768112182617e-01 -1.035791754722595215e+00
8.262000000000000000e+03 2.044163322448730469e+01 5.099294185638427734e-01 -1.393853306770324707e+00 -1.162030339241027832e+00 -7.667651176452636719e-01 -1.320320606231689453e+00
8.263000000000000000e+03 1.973522758483886719e+01 4.402073472738265991e-02 -1.816699266433715820e+00 -1.127017378807067871e+00 -8.831149935722351074e-01 -9.048362374305725098e-01
8.264000000000000000e+03 2.007245063781738281e+01 2.987338006496429443e-01 -1.582732081413269043e+00 -1.215156197547912598e+00 -8.393664956092834473e-01 -1.102938055992126465e+00
8.265000000000000000e+03 1.928709983825683594e+01 -2.650651633739471436e-01 -2.263922691345214844e+00 -8.513609170913696289e-01 -9.345850944519042969e-01 -7.039316296577453613e-01
8.266000000000000000e+03 1.904242515563964844e+01 -6.172461062669754028e-02 -1.943925857543945312e+00 -7.298828959465026855e-01 -8.021426200866699219e-01 -8.151795864105224609e-01
8.267000000000000000e+03 1.837055206298828125e+01 -4.188842475414276123e-01 -1.751970529556274414e+00 -4.057368934154510498e-01 -6.473122239112854004e-01 -9.061975479125976562e-01
8.268000000000000000e+03 1.854799652099609375e+01 -6.623200178146362305e-01 -1.856135129928588867e+00 -4.855691492557525635e-01 -7.025112509727478027e-01 -9.332262277603149414e-01
8.269000000000000000e+03 1.837671661376953125e+01 -7.712314128875732422e-01 -1.714137077331542969e+00 -4.133383333683013916e-01 -6.382426023483276367e-01 -9.446306228637695312e-01
8.270000000000000000e+03 2.547790527343750000e+01 6.817430019378662109e+00 -4.668286323547363281e+00 -2.306132555007934570e+00 -2.092325687408447266e+00 -3.287594318389892578e+00
8.271000000000000000e+03 2.751976966857910156e+01 8.118475914001464844e+00 -3.022189378738403320e+00 -1.650565981864929199e+00 -1.401826620101928711e+00 -2.335148811340332031e+00
8.272000000000000000e+03 2.774594306945800781e+01 8.091825485229492188e+00 -2.356437921524047852e+00 -8.729700446128845215e-01 -9.688223600387573242e-01 -1.585999727249145508e+00
8.273000000000000000e+03 2.639754867553710938e+01 7.404555320739746094e+00 -4.130386829376220703e+00 -2.569382905960083008e+00 -2.009930849075317383e+00 -3.117838382720947266e+00
8.274000000000000000e+03 2.606106948852539062e+01 7.185231208801269531e+00 -4.607190608978271484e+00 -2.607335329055786133e+00 -2.164357900619506836e+00 -3.371220827102661133e+00
8.275000000000000000e+03 2.798363685607910156e+01 8.158415794372558594e+00 -2.358128547668457031e+00 -4.757303297519683838e-01 -8.501576185226440430e-01 -1.341032505035400391e+00
8.276000000000000000e+03 2.766287040710449219e+01 7.594291687011718750e+00 -7.617113590240478516e-01 -7.098871469497680664e-02 -2.498100250959396362e-01 -6.823711395263671875e-01
8.277000000000000000e+03 2.922995376586914062e+01 8.264119148254394531e+00 -9.433926343917846680e-01 -4.626293778419494629e-01 -4.218066036701202393e-01 -1.253514736890792847e-01
8.278000000000000000e+03 2.787303733825683594e+01 7.956303119659423828e+00 -1.937662601470947266e+00 -1.467286944389343262e-01 -6.253173947334289551e-01 -1.204165577888488770e+00
8.279000000000000000e+03 2.732738494873046875e+01 7.844492435455322266e+00 -2.623903036117553711e+00 -1.368636965751647949e+00 -1.197762012481689453e+00 -2.018857240676879883e+00
8.280000000000000000e+03 2.705543899536132812e+01 7.530703067779541016e+00 -2.198547601699829102e+00 -1.245039224624633789e+00 -1.033076047897338867e+00 -1.659227490425109863e+00
8.281000000000000000e+03 2.968653678894042969e+01 7.849141120910644531e+00 -2.626874744892120361e-01 -7.269273996353149414e-01 -2.968844771385192871e-01 -3.786529004573822021e-01
8.282000000000000000e+03 2.835629081726074219e+01 6.176811218261718750e+00 -1.324611186981201172e+00 -1.059974312782287598e+00 -7.153756618499755859e-01 -9.998149871826171875e-01
8.283000000000000000e+03 2.950033187866210938e+01 6.448091506958007812e+00 -8.951779603958129883e-01 -4.875552058219909668e-01 -4.148199558258056641e-01 -9.308684468269348145e-01
8.284000000000000000e+03 2.894675827026367188e+01 6.136587142944335938e+00 -1.119206070899963379e+00 -7.181936502456665039e-01 -5.512199401855468750e-01 -7.461649179458618164e-01
8.285000000000000000e+03 2.874980735778808594e+01 6.135490417480468750e+00 -1.180387973785400391e+00 -8.702858090400695801e-01 -6.152021288871765137e-01 -7.897412180900573730e-01
8.286000000000000000e+03 2.767642974853515625e+01 6.402858257293701172e+00 -1.805898308753967285e+00 -8.178858160972595215e-01 -7.871352434158325195e-01 -1.220429778099060059e+00
8.287000000000000000e+03 2.937743759155273438e+01 6.025830745697021484e+00 -9.809350371360778809e-01 -5.497713088989257812e-01 -4.592119157314300537e-01 -7.237415313720703125e-01
8.288000000000000000e+03 2.971186447143554688e+01 7.641345977783203125e+00 8.788858354091644287e-02 -8.728731274604797363e-01 -2.354953587055206299e-01 -4.705597460269927979e-01
8.289000000000000000e+03 1.572074985504150391e+01 2.189624011516571045e-01 -6.167200803756713867e-01 1.366175651550292969e+00 2.248366773128509521e-01 -1.043720245361328125e+00
8.290000000000000000e+03 2.408654022216796875e+01 4.547325134277343750e+00 3.033373832702636719e+00 8.309002518653869629e-01 1.159282207489013672e+00 1.592309594154357910e+00
8.291000000000000000e+03 2.037843704223632812e+01 2.863221883773803711e+00 -5.487508773803710938e-01 -8.554956316947937012e-01 -4.212739467620849609e-01 -8.386664390563964844e-01
8.292000000000000000e+03 2.261888504028320312e+01 3.930613756179809570e+00 7.594023346900939941e-01 -1.895219236612319946e-01 1.709641218185424805e-01 6.962332874536514282e-02
8.293000000000000000e+03 2.189883041381835938e+01 4.254463672637939453e+00 -2.143357753753662109e+00 -1.151148796081542969e+00 -9.883520007133483887e-01 -1.627621650695800781e+00
8.294000000000000000e+03 1.715502357482910156e+01 2.484077364206314087e-01 -4.959588527679443359e+00 -1.682814121246337891e+00 -1.992720723152160645e+00 -3.169060468673706055e+00
8.295000000000000000e+03 1.699773979187011719e+01 1.264773458242416382e-01 -5.117566585540771484e+00 -1.495785474777221680e+00 -1.984005689620971680e+00 -2.930984735488891602e+00
8.296000000000000000e+03 1.885128974914550781e+01 2.235883474349975586e+00 6.174523830413818359e-01 -1.069284975528717041e-01 1.531571745872497559e-01 6.536407023668289185e-02
8.297000000000000000e+03 1.847843170166015625e+01 2.026584863662719727e+00 1.075458288192749023e+00 4.257355257868766785e-02 3.354095518589019775e-01 4.160188734531402588e-01
8.298000000000000000e+03 2.543092918395996094e+01 5.707922935485839844e+00 1.225625514984130859e+00 1.819762736558914185e-01 4.222805202007293701e-01 6.561015248298645020e-01
8.299000000000000000e+03 2.457446861267089844e+01 5.008879184722900391e+00 2.419965505599975586e+00 4.820664227008819580e-01 8.706095814704895020e-01 1.129384994506835938e+00
8.300000000000000000e+03 2.325514793395996094e+01 3.987225294113159180e+00 2.116529941558837891e+00 5.671521425247192383e-01 8.051046133041381836e-01 1.051758646965026855e+00
8.301000000000000000e+03 2.463901519775390625e+01 4.825169563293457031e+00 3.171591997146606445e+00 1.143548130989074707e+00 1.294542074203491211e+00 2.058640003204345703e+00
8.302000000000000000e+03 2.104832649230957031e+01 2.598700046539306641e+00 -1.333089917898178101e-01 -1.770208925008773804e-01 -9.309896826744079590e-02 -1.832439303398132324e-01
8.303000000000000000e+03 2.219436645507812500e+01 3.388534784317016602e+00 1.220982551574707031e+00 2.353604584932327271e-01 4.369029104709625244e-01 4.923914670944213867e-01
8.304000000000000000e+03 2.275546455383300781e+01 3.693754434585571289e+00 1.642585992813110352e+00 3.850481212139129639e-01 6.082902550697326660e-01 8.299612402915954590e-01
8.305000000000000000e+03 2.191262245178222656e+01 3.660018205642700195e+00 -2.131216824054718018e-01 -5.710380673408508301e-01 -2.352479100227355957e-01 -5.704418420791625977e-01
8.306000000000000000e+03 2.427522277832031250e+01 4.646494388580322266e+00 3.233577013015747070e+00 8.958173394203186035e-01 1.238818287849426270e+00 1.729293942451477051e+00
8.307000000000000000e+03 2.446111488342285156e+01 4.740173339843750000e+00 3.318756580352783203e+00 9.718365073204040527e-01 1.287177920341491699e+00 1.922226786613464355e+00
8.308000000000000000e+03 2.528694915771484375e+01 5.271379947662353516e+00 3.436714410781860352e+00 1.241700410842895508e+00 1.403524518013000488e+00 1.947522282600402832e+00
8.309000000000000000e+03 2.717264175415039062e+01 6.434658527374267578e+00 3.758121728897094727e+00 1.313803672790527344e+00 1.521577596664428711e+00 2.273857355117797852e+00
8.310000000000000000e+03 1.733164405822753906e+01 3.668887019157409668e-01 -5.015428543090820312e+00 -2.079307556152343750e+00 -2.128420829772949219e+00 -2.929339408874511719e+00
8.311000000000000000e+03 1.705279922485351562e+01 1.104628801345825195e+00 2.819282293319702148e+00 4.669210016727447510e-01 9.858610033988952637e-01 9.588754773139953613e-01
8.312000000000000000e+03 1.820470809936523438e+01 1.020192623138427734e+00 -2.604230403900146484e+00 -1.513855576515197754e+00 -1.235425710678100586e+00 -2.120393037796020508e+00
8.313000000000000000e+03 1.934757041931152344e+01 1.523654103279113770e+00 -2.430431604385375977e+00 -1.114829421043395996e+00 -1.063578248023986816e+00 -1.585774779319763184e+00
8.314000000000000000e+03 1.620856475830078125e+01 -2.564688026905059814e-01 -4.342448234558105469e+00 -1.056182146072387695e+00 -1.619589090347290039e+00 -2.011989116668701172e+00
8.315000000000000000e+03 1.637600135803222656e+01 -1.055432707071304321e-01 -4.569261074066162109e+00 -1.027310252189636230e+00 -1.678971409797668457e+00 -2.258256912231445312e+00
8.316000000000000000e+03 1.682551574707031250e+01 6.590063869953155518e-02 -4.898852825164794922e+00 -1.481502652168273926e+00 -1.914106607437133789e+00 -2.661198377609252930e+00
8.317000000000000000e+03 2.681288909912109375e+01 6.210831165313720703e+00 3.622368335723876953e+00 1.450437784194946289e+00 1.521841883659362793e+00 2.288864850997924805e+00
8.318000000000000000e+03 2.041065216064453125e+01 2.207756280899047852e+00 -8.446307778358459473e-01 -5.029513835906982422e-01 -4.042746424674987793e-01 -6.606107950210571289e-01
8.319000000000000000e+03 1.647114562988281250e+01 -6.173247694969177246e-01 -2.220945358276367188e+00 -6.762847304344177246e-01 -8.691690564155578613e-01 -1.194840550422668457e+00
8.320000000000000000e+03 2.714648437500000000e+01 6.079617023468017578e+00 -1.694002866744995117e+00 -7.077479958534240723e-01 -7.205252647399902344e-01 -1.095059394836425781e+00
8.321000000000000000e+03 2.610667991638183594e+01 3.989916086196899414e+00 -1.349337220191955566e+00 -5.151369571685791016e-01 -5.593422651290893555e-01 -7.797287702560424805e-01
8.322000000000000000e+03 1.833070755004882812e+01 5.895792841911315918e-01 -1.365918040275573730e+00 -4.895288050174713135e-01 -5.566340684890747070e-01 -7.857124209403991699e-01
8.323000000000000000e+03 2.237835693359375000e+01 3.131584405899047852e+00 -1.959659695625305176e+00 -7.472802400588989258e-01 -8.120819926261901855e-01 -1.195419311523437500e+00
8.324000000000000000e+03 1.764385032653808594e+01 1.744001954793930054e-01 -1.610694050788879395e+00 -5.476413965225219727e-01 -6.475006341934204102e-01 -9.545443058013916016e-01
8.325000000000000000e+03 1.916730690002441406e+01 1.125744342803955078e+00 -1.240910649299621582e+00 -5.391063690185546875e-01 -5.340051054954528809e-01 -8.072153329849243164e-01
8.326000000000000000e+03 2.649093246459960938e+01 5.643176078796386719e+00 -1.613708257675170898e+00 -6.544757485389709473e-01 -6.804552078247070312e-01 -1.019412636756896973e+00
8.327000000000000000e+03 2.631550598144531250e+01 5.527283191680908203e+00 -1.610687017440795898e+00 -6.431428790092468262e-01 -6.761489510536193848e-01 -1.010272502899169922e+00
8.328000000000000000e+03 2.612833976745605469e+01 5.438388347625732422e+00 -1.609858155250549316e+00 -6.326020956039428711e-01 -6.727380752563476562e-01 -1.006788134574890137e+00
8.329000000000000000e+03 2.492999267578125000e+01 4.705292224884033203e+00 -1.650860190391540527e+00 -6.247180104255676270e-01 -6.826734542846679688e-01 -1.020129203796386719e+00
8.330000000000000000e+03 2.546989440917968750e+01 4.657116889953613281e+00 -1.568160414695739746e+00 -5.974120497703552246e-01 -6.496717333793640137e-01 -9.591970443725585938e-01
8.331000000000000000e+03 2.545153236389160156e+01 5.036966800689697266e+00 -1.617896437644958496e+00 -6.330701112747192383e-01 -6.752899289131164551e-01 -1.003845930099487305e+00
8.332000000000000000e+03 2.459490013122558594e+01 4.509659290313720703e+00 -1.679289460182189941e+00 -6.352388262748718262e-01 -6.943584680557250977e-01 -1.038010716438293457e+00
8.333000000000000000e+03 2.469862174987792969e+01 4.145606040954589844e+00 -1.630533099174499512e+00 -5.855339169502258301e-01 -6.648201346397399902e-01 -9.648627638816833496e-01
8.334000000000000000e+03 2.373550224304199219e+01 3.974582195281982422e+00 -1.773355960845947266e+00 -6.712830662727355957e-01 -7.333917021751403809e-01 -1.085469961166381836e+00
8.335000000000000000e+03 2.424369049072265625e+01 4.286685943603515625e+00 -1.714481711387634277e+00 -6.429175138473510742e-01 -7.072197794914245605e-01 -1.054503202438354492e+00
8.336000000000000000e+03 2.339944267272949219e+01 3.365537881851196289e+00 -1.766091108322143555e+00 -6.098717451095581055e-01 -7.127888202667236328e-01 -1.029898881912231445e+00
8.337000000000000000e+03 1.737028121948242188e+01 -1.417335867881774902e+00 -1.617410421371459961e+00 -4.559665918350219727e-01 -6.220130920410156250e-01 -7.176276445388793945e-01
8.338000000000000000e+03 1.628935050964355469e+01 -7.278177142143249512e-01 -2.482149839401245117e+00 -7.304204702377319336e-01 -9.637711048126220703e-01 -1.210503935813903809e+00
8.339000000000000000e+03 1.664281463623046875e+01 -5.031195878982543945e-01 -2.070315122604370117e+00 -6.813036799430847168e-01 -8.254856467247009277e-01 -1.138057231903076172e+00
8.340000000000000000e+03 2.750169563293457031e+01 6.282786369323730469e+00 -1.767149209976196289e+00 -7.989988923072814941e-01 -7.698444128036499023e-01 -1.152345299720764160e+00
8.341000000000000000e+03 2.573222351074218750e+01 4.982469081878662109e+00 -1.581812858581542969e+00 -6.116116046905517578e-01 -6.580273509025573730e-01 -9.787312746047973633e-01
8.342000000000000000e+03 2.255205917358398438e+01 3.223788022994995117e+00 -1.931535601615905762e+00 -7.119809985160827637e-01 -7.930549979209899902e-01 -1.190517544746398926e+00
8.343000000000000000e+03 2.247628593444824219e+01 2.902311563491821289e+00 -1.878051161766052246e+00 -6.513203382492065430e-01 -7.588114738464355469e-01 -1.130675435066223145e+00
8.344000000000000000e+03 2.120512962341308594e+01 2.366119623184204102e+00 -1.961429119110107422e+00 -7.799040675163269043e-01 -8.223999738693237305e-01 -1.242869853973388672e+00
8.345000000000000000e+03 1.982842826843261719e+01 1.562138557434082031e+00 -1.503636837005615234e+00 -6.549614071846008301e-01 -6.475794911384582520e-01 -9.843112826347351074e-01
8.346000000000000000e+03 1.685240936279296875e+01 -8.052365779876708984e-01 -2.044480323791503906e+00 -5.395072698593139648e-01 -7.751963138580322266e-01 -9.440650343894958496e-01
8.347000000000000000e+03 2.866297340393066406e+01 5.560963630676269531e+00 -1.099226951599121094e+00 -7.514848709106445312e-01 -5.552135109901428223e-01 -6.989242434501647949e-01
8.348000000000000000e+03 2.709033966064453125e+01 4.650040626525878906e+00 -1.277246236801147461e+00 -6.218486428260803223e-01 -5.697284340858459473e-01 -8.053102493286132812e-01
8.349000000000000000e+03 1.701620674133300781e+01 -1.598754167556762695e+00 -1.450430393218994141e+00 -5.880447626113891602e-01 -6.115425229072570801e-01 -6.197486519813537598e-01
8.350000000000000000e+03 1.990662193298339844e+01 1.681541800498962402e-01 -1.444442987442016602e+00 -1.141738772392272949e+00 -7.758545279502868652e-01 -9.962229132652282715e-01
8.351000000000000000e+03 2.402393531799316406e+01 2.738673686981201172e+00 -1.530352592468261719e+00 -4.150906503200531006e-01 -5.836329460144042969e-01 -7.924506664276123047e-01
8.352000000000000000e+03 2.919072723388671875e+01 5.915001869201660156e+00 -1.038591861724853516e+00 -5.981171131134033203e-01 -4.910127222537994385e-01 -6.933274865150451660e-01
8.353000000000000000e+03 2.800765800476074219e+01 5.494798660278320312e+00 -1.236792325973510742e+00 -8.227580785751342773e-01 -6.178650856018066406e-01 -8.641763925552368164e-01
8.354000000000000000e+03 2.761833190917968750e+01 4.951700210571289062e+00 -1.216971397399902344e+00 -6.990349292755126953e-01 -5.748019218444824219e-01 -7.971771359443664551e-01
8.355000000000000000e+03 2.456723022460937500e+01 3.055789470672607422e+00 -1.496479988098144531e+00 -4.426436126232147217e-01 -5.817370414733886719e-01 -7.832770943641662598e-01
8.356000000000000000e+03 2.249617195129394531e+01 1.752540349960327148e+00 -1.560817360877990723e+00 -4.487370550632476807e-01 -6.028663516044616699e-01 -9.377396702766418457e-01
8.357000000000000000e+03 2.233315849304199219e+01 1.638239860534667969e+00 -1.547254443168640137e+00 -4.035186767578125000e-01 -5.852319002151489258e-01 -9.476813673973083496e-01
8.358000000000000000e+03 2.148179817199707031e+01 1.128484606742858887e+00 -1.533802866935729980e+00 -5.454167127609252930e-01 -6.237658858299255371e-01 -1.134120702743530273e+00
8.359000000000000000e+03 2.096979713439941406e+01 8.090916872024536133e-01 -1.421414613723754883e+00 -6.304129958152770996e-01 -6.155482530593872070e-01 -1.289461612701416016e+00
8.360000000000000000e+03 2.354416084289550781e+01 2.388252258300781250e+00 -1.569181203842163086e+00 -4.173237979412078857e-01 -5.959514975547790527e-01 -8.214668035507202148e-01
8.361000000000000000e+03 2.522423934936523438e+01 4.140122890472412109e+00 -1.530986428260803223e+00 -5.496469140052795410e-01 -6.241900324821472168e-01 -9.046911597251892090e-01
8.362000000000000000e+03 2.577788734436035156e+01 4.142484188079833984e+00 -1.432712078094482422e+00 -5.306148529052734375e-01 -5.889980792999267578e-01 -8.371638059616088867e-01
8.363000000000000000e+03 2.091345596313476562e+01 1.713690042495727539e+00 -1.643579244613647461e+00 -8.034982681274414062e-01 -7.341232895851135254e-01 -1.207892298698425293e+00
8.364000000000000000e+03 2.337233734130859375e+01 2.300741434097290039e+00 -1.542428851127624512e+00 -3.914832174777984619e-01 -5.801736116409301758e-01 -8.310697674751281738e-01
8.365000000000000000e+03 2.489199066162109375e+01 3.406341314315795898e+00 -1.472468018531799316e+00 -4.649815559387207031e-01 -5.812348723411560059e-01 -8.035624027252197266e-01
8.366000000000000000e+03 2.883820724487304688e+01 5.658454418182373047e+00 -1.067026853561401367e+00 -7.176705002784729004e-01 -5.354092121124267578e-01 -6.810845136642456055e-01
8.367000000000000000e+03 2.854191970825195312e+01 5.962574481964111328e+00 -1.183437585830688477e+00 -9.155884981155395508e-01 -6.297078132629394531e-01 -8.275688886642456055e-01
8.368000000000000000e+03 2.817785644531250000e+01 5.623554706573486328e+00 -1.216204166412353516e+00 -8.445005416870117188e-01 -6.182113885879516602e-01 -8.519333600997924805e-01
8.369000000000000000e+03 2.474594879150390625e+01 3.141265630722045898e+00 -1.456424713134765625e+00 -4.343329668045043945e-01 -5.672273039817810059e-01 -7.670975923538208008e-01
8.370000000000000000e+03 2.469014930725097656e+01 3.378220081329345703e+00 -1.528347849845886230e+00 -4.865789413452148438e-01 -6.044780015945434570e-01 -8.306555151939392090e-01
8.371000000000000000e+03 2.319405364990234375e+01 2.760295867919921875e+00 -1.713782191276550293e+00 -5.147444009780883789e-01 -6.685579419136047363e-01 -9.485673308372497559e-01
8.372000000000000000e+03 2.271275901794433594e+01 2.695827960968017578e+00 -1.771783709526062012e+00 -5.693447589874267578e-01 -7.023385167121887207e-01 -1.035593271255493164e+00
8.373000000000000000e+03 2.165103340148925781e+01 1.230265378952026367e+00 -1.472455859184265137e+00 -4.657845199108123779e-01 -5.814720988273620605e-01 -1.120306611061096191e+00
8.374000000000000000e+03 2.101836776733398438e+01 1.156368136405944824e+00 -1.472291231155395508e+00 -6.723712682723999023e-01 -6.433987617492675781e-01 -1.247953891754150391e+00
8.375000000000000000e+03 1.959152603149414062e+01 -8.714351803064346313e-02 -1.610471725463867188e+00 -1.043691992759704590e+00 -7.962490916252136230e-01 -9.013112783432006836e-01
8.376000000000000000e+03 1.910376167297363281e+01 -3.396536111831665039e-01 -1.890802502632141113e+00 -5.407709479331970215e-01 -7.294720411300659180e-01 -8.973963856697082520e-01
8.377000000000000000e+03 1.737996482849121094e+01 -1.082728028297424316e+00 -1.760734081268310547e+00 -4.343464374542236328e-01 -6.585241556167602539e-01 -8.040792346000671387e-01
8.378000000000000000e+03 1.665299797058105469e+01 -1.366106986999511719e+00 -1.638251900672912598e+00 -6.552845239639282227e-01 -6.880609393119812012e-01 -5.741171240806579590e-01
8.379000000000000000e+03 2.560299110412597656e+01 4.036937236785888672e+00 -1.463670730590820312e+00 -5.298422574996948242e-01 -5.980538725852966309e-01 -8.406466841697692871e-01
8.380000000000000000e+03 2.556997489929199219e+01 3.676821708679199219e+00 -1.402805328369140625e+00 -4.915996193885803223e-01 -5.683215260505676270e-01 -7.781727313995361328e-01
8.381000000000000000e+03 2.267225265502929688e+01 1.856473326683044434e+00 -1.565319776535034180e+00 -3.796519637107849121e-01 -5.834915637969970703e-01 -9.045424461364746094e-01
8.382000000000000000e+03 1.875694274902343750e+01 1.500918716192245483e-01 -1.803841114044189453e+00 -5.558768510818481445e-01 -7.079153656959533691e-01 -8.079047203063964844e-01
8.383000000000000000e+03 1.945619201660156250e+01 -1.930207461118698120e-01 -1.517775416374206543e+00 -1.018270134925842285e+00 -7.608136534690856934e-01 -7.175256609916687012e-01
8.384000000000000000e+03 2.010481643676757812e+01 1.357575654983520508e+00 -1.415155649185180664e+00 -8.593843579292297363e-01 -6.823620200157165527e-01 -1.111388921737670898e+00
8.385000000000000000e+03 1.841072654724121094e+01 5.619067698717117310e-02 -1.703152179718017578e+00 -4.717798829078674316e-01 -6.524795889854431152e-01 -8.309566378593444824e-01
8.386000000000000000e+03 2.293848037719726562e+01 3.778915882110595703e+00 1.706489920616149902e+00 4.541247785091400146e-01 6.481844186782836914e-01 9.699760675430297852e-01
8.387000000000000000e+03 2.319155120849609375e+01 4.172224521636962891e+00 1.360155463218688965e+00 1.407954990863800049e-01 4.502852857112884521e-01 5.228083133697509766e-01
8.388000000000000000e+03 2.230008888244628906e+01 2.838378667831420898e+00 -1.912074208259582520e+00 -7.019411325454711914e-01 -7.842046022415161133e-01 -1.148438334465026855e+00
8.389000000000000000e+03 2.168866348266601562e+01 2.394690036773681641e+00 -1.880388498306274414e+00 -7.264484167098999023e-01 -7.820510864257812500e-01 -1.178471565246582031e+00
8.390000000000000000e+03 1.698645019531250000e+01 5.031378865242004395e-01 -1.737731337547302246e+00 -5.701652765274047852e-01 -6.923689842224121094e-01 -1.198286056518554688e+00
8.391000000000000000e+03 1.666123962402343750e+01 9.482248425483703613e-01 3.496735811233520508e+00 3.835251033306121826e-01 1.164078235626220703e+00 1.003634452819824219e+00
8.392000000000000000e+03 1.766868972778320312e+01 5.414660573005676270e-01 -4.615269184112548828e+00 -1.971401929855346680e+00 -1.976001381874084473e+00 -3.005097389221191406e+00
8.393000000000000000e+03 2.321248054504394531e+01 5.169775009155273438e+00 -3.931173801422119141e+00 -1.632962107658386230e+00 -1.669240713119506836e+00 -2.530650138854980469e+00
8.394000000000000000e+03 2.459815216064453125e+01 6.050763130187988281e+00 -3.963167905807495117e+00 -2.272596120834350586e+00 -1.870729207992553711e+00 -2.899206638336181641e+00
8.395000000000000000e+03 2.424361228942871094e+01 5.820015430450439453e+00 -4.093848705291748047e+00 -2.139825820922851562e+00 -1.870102286338806152e+00 -2.914683818817138672e+00
8.396000000000000000e+03 2.288629722595214844e+01 4.957085609436035156e+00 -3.429627418518066406e+00 -1.479078173637390137e+00 -1.472611665725708008e+00 -2.307579994201660156e+00
8.397000000000000000e+03 2.257455825805664062e+01 4.721637248992919922e+00 -2.884750366210937500e+00 -1.370497703552246094e+00 -1.276574492454528809e+00 -2.036760330200195312e+00
8.398000000000000000e+03 1.947818183898925781e+01 2.024142265319824219e+00 -7.624130249023437500e-01 -9.398769140243530273e-01 -5.106869935989379883e-01 -9.829702377319335938e-01
8.399000000000000000e+03 1.982610702514648438e+01 2.928222179412841797e+00 -6.087455749511718750e-01 -5.113496780395507812e-01 -3.360285758972167969e-01 -5.502191781997680664e-01
8.400000000000000000e+03 2.083228874206542969e+01 2.681646585464477539e+00 -2.185499817132949829e-01 -5.073767304420471191e-01 -2.177780121564865112e-01 -4.630501866340637207e-01
8.401000000000000000e+03 1.949709129333496094e+01 2.715226173400878906e+00 -2.616850435733795166e-01 -3.128050565719604492e-01 -1.723470240831375122e-01 -3.517808616161346436e-01
8.402000000000000000e+03 1.919207572937011719e+01 2.472609281539916992e+00 1.768310815095901489e-01 -2.103809863328933716e-01 -1.006496977061033249e-02 -1.342492103576660156e-01
8.403000000000000000e+03 2.121676445007324219e+01 3.790680646896362305e+00 -1.750694990158081055e+00 -1.045753479003906250e+00 -8.389345407485961914e-01 -1.301174759864807129e+00
8.404000000000000000e+03 2.519695091247558594e+01 6.583257198333740234e+00 -4.278053760528564453e+00 -2.242515087127685547e+00 -1.956170558929443359e+00 -3.173963308334350586e+00
8.405000000000000000e+03 1.563149452209472656e+01 6.393854022026062012e-01 5.121915817260742188e+00 9.464245438575744629e-01 1.820502161979675293e+00 -1.803967803716659546e-01
8.406000000000000000e+03 2.067097282409667969e+01 2.069600105285644531e+00 -1.855980992317199707e+00 -7.876476645469665527e-01 -7.930885553359985352e-01 -1.192702293395996094e+00
8.407000000000000000e+03 1.747878456115722656e+01 6.543330848217010498e-02 -1.671953439712524414e+00 -5.860777497291564941e-01 -6.774093508720397949e-01 -9.869009256362915039e-01
8.408000000000000000e+03 2.746684837341308594e+01 5.217572212219238281e+00 -1.314756274223327637e+00 -7.110285162925720215e-01 -6.077354550361633301e-01 -8.793728947639465332e-01
8.409000000000000000e+03 2.720285987854003906e+01 7.952029705047607422e+00 -3.431939840316772461e+00 -2.014587163925170898e+00 -1.633958101272583008e+00 -2.571722507476806641e+00
8.410000000000000000e+03 2.720083045959472656e+01 7.676205158233642578e+00 -2.411444902420043945e+00 -1.334768533706665039e+00 -1.123864054679870605e+00 -1.859179496765136719e+00
8.411000000000000000e+03 2.689942932128906250e+01 7.720446586608886719e+00 -3.624984741210937500e+00 -2.223187208175659180e+00 -1.754451513290405273e+00 -2.895038604736328125e+00
8.412000000000000000e+03 2.759079551696777344e+01 7.387093544006347656e+00 2.313918061554431915e-02 1.133334487676620483e-01 4.094178974628448486e-02 -1.149906069040298462e-01
8.413000000000000000e+03 2.735442161560058594e+01 8.031585693359375000e+00 -3.234211444854736328e+00 -1.596518516540527344e+00 -1.449218988418579102e+00 -2.429071903228759766e+00
8.414000000000000000e+03 2.757423591613769531e+01 7.161364555358886719e+00 1.141528367996215820e+00 5.589131116867065430e-01 5.101324319839477539e-01 6.473929882049560547e-01
8.415000000000000000e+03 1.913147354125976562e+01 1.708049178123474121e+00 -1.349595069885253906e+00 -1.052710413932800293e+00 -7.206916213035583496e-01 -1.272585034370422363e+00
8.416000000000000000e+03 1.783256149291992188e+01 6.709766387939453125e-01 -4.457123279571533203e+00 -1.878620982170104980e+00 -1.900723218917846680e+00 -2.826309680938720703e+00
8.417000000000000000e+03 2.203362846374511719e+01 3.262252807617187500e+00 9.993507266044616699e-01 1.812712997198104858e-01 3.541865944862365723e-01 4.502819180488586426e-01
8.418000000000000000e+03 2.494200134277343750e+01 5.372527599334716797e+00 1.552082180976867676e+00 3.875261545181274414e-01 5.818824768066406250e-01 9.564119577407836914e-01
8.419000000000000000e+03 2.355599021911621094e+01 4.197517395019531250e+00 2.479754447937011719e+00 7.248632311820983887e-01 9.613853096961975098e-01 1.323659300804138184e+00
8.420000000000000000e+03 1.835742568969726562e+01 9.198219180107116699e-01 -3.829694747924804688e+00 -1.506719589233398438e+00 -1.600924253463745117e+00 -2.483641147613525391e+00
8.421000000000000000e+03 1.981208992004394531e+01 1.908708810806274414e+00 -1.368884921073913574e+00 -7.828114628791809082e-01 -6.455089449882507324e-01 -1.136454701423645020e+00
8.422000000000000000e+03 1.889168930053710938e+01 1.260418415069580078e+00 -3.203898906707763672e+00 -1.260489702224731445e+00 -1.339316606521606445e+00 -1.998765110969543457e+00
8.423000000000000000e+03 2.579296684265136719e+01 5.605371475219726562e+00 3.552240133285522461e+00 1.322396159172058105e+00 1.462390899658203125e+00 2.095598697662353516e+00
8.424000000000000000e+03 2.328168487548828125e+01 4.355839252471923828e+00 9.549658298492431641e-01 -1.846364289522171021e-01 2.310988306999206543e-01 1.363908797502517700e-01
8.425000000000000000e+03 1.962993812561035156e+01 1.788683295249938965e+00 -1.736375451087951660e+00 -9.562503695487976074e-01 -8.077877759933471680e-01 -1.238468766212463379e+00
8.426000000000000000e+03 2.154427337646484375e+01 2.975977420806884766e+00 4.881214797496795654e-01 -8.452132344245910645e-02 1.210800483822822571e-01 6.508395075798034668e-02
8.427000000000000000e+03 2.562596130371093750e+01 5.488987922668457031e+00 3.489895343780517578e+00 1.200664520263671875e+00 1.407167911529541016e+00 2.151075363159179688e+00
8.428000000000000000e+03 2.240906715393066406e+01 3.824522256851196289e+00 5.021398067474365234e-01 -3.430435359477996826e-01 4.772888123989105225e-02 -1.252685189247131348e-01
8.429000000000000000e+03 1.945355224609375000e+01 1.662100911140441895e+00 -1.833156228065490723e+00 -9.708017110824584961e-01 -8.411874175071716309e-01 -1.470855116844177246e+00
8.430000000000000000e+03 2.344686126708984375e+01 4.526854038238525391e+00 6.691771149635314941e-01 -3.260723054409027100e-01 1.029314398765563965e-01 -6.808935850858688354e-02
8.431000000000000000e+03 2.002790832519531250e+01 2.680840253829956055e+00 -4.442586004734039307e-01 -7.992264628410339355e-01 -3.730455040931701660e-01 -7.658132910728454590e-01
8.432000000000000000e+03 1.999521446228027344e+01 2.037484884262084961e+00 -1.215041518211364746e+00 -7.688874602317810059e-01 -5.951786637306213379e-01 -9.561040997505187988e-01
8.433000000000000000e+03 2.472340774536132812e+01 5.524893760681152344e+00 -6.032871007919311523e-01 -7.084183692932128906e-01 -3.935116231441497803e-01 -5.424782037734985352e-01
8.434000000000000000e+03 1.850706863403320312e+01 1.045880794525146484e+00 -3.491756200790405273e+00 -1.505298495292663574e+00 -1.499116420745849609e+00 -2.326334714889526367e+00
8.435000000000000000e+03 1.807388114929199219e+01 1.353222250938415527e+00 1.851211301982402802e-02 -7.765087485313415527e-01 -2.273989766836166382e-01 -6.448419690132141113e-01
8.436000000000000000e+03 2.476775360107421875e+01 5.282151699066162109e+00 1.271421909332275391e+00 1.939997375011444092e-01 4.396264851093292236e-01 6.817370653152465820e-01
8.437000000000000000e+03 1.802577590942382812e+01 7.688775658607482910e-01 -4.319842338562011719e+00 -1.721701622009277344e+00 -1.812463283538818359e+00 -2.723779916763305664e+00
8.438000000000000000e+03 1.751261901855468750e+01 4.459056854248046875e-01 -4.908567428588867188e+00 -1.553872704505920410e+00 -1.938732147216796875e+00 -3.102118253707885742e+00
8.439000000000000000e+03 1.748308944702148438e+01 7.161186337471008301e-01 -1.866865515708923340e+00 -8.812669515609741211e-01 -8.244397640228271484e-01 -1.701639413833618164e+00
8.440000000000000000e+03 2.175073432922363281e+01 3.445808649063110352e+00 -3.620050475001335144e-02 -5.276163220405578613e-01 -1.691450476646423340e-01 -4.030482172966003418e-01
8.441000000000000000e+03 2.698365974426269531e+01 6.330865859985351562e+00 3.721680641174316406e+00 1.442530632019042969e+00 1.549263477325439453e+00 2.193836927413940430e+00
8.442000000000000000e+03 2.316289901733398438e+01 4.730809688568115234e+00 -1.465154409408569336e+00 -1.077010989189147949e+00 -7.626496553421020508e-01 -1.361211895942687988e+00
8.443000000000000000e+03 2.390306663513183594e+01 4.072781562805175781e+00 -1.750310182571411133e+00 -6.599735617637634277e-01 -7.230851054191589355e-01 -1.076636552810668945e+00
8.444000000000000000e+03 2.434104156494140625e+01 4.051373481750488281e+00 -1.676281809806823730e+00 -6.088391542434692383e-01 -6.855363249778747559e-01 -1.004174232482910156e+00
8.445000000000000000e+03 1.749348831176757812e+01 -2.773938775062561035e-01 -1.800399422645568848e+00 -5.129040479660034180e-01 -6.939910054206848145e-01 -9.612216949462890625e-01
8.446000000000000000e+03 1.681100463867187500e+01 -3.843196630477905273e-01 -1.944400548934936523e+00 -6.600031852722167969e-01 -7.813211083412170410e-01 -1.116640329360961914e+00
8.447000000000000000e+03 2.064845657348632812e+01 1.720833301544189453e+00 -1.657826781272888184e+00 -8.100448846817016602e-01 -7.403615117073059082e-01 -1.196785688400268555e+00
8.448000000000000000e+03 2.354714202880859375e+01 3.523911237716674805e+00 -1.758359313011169434e+00 -6.131407022476196289e-01 -7.114500403404235840e-01 -1.040594696998596191e+00
8.449000000000000000e+03 2.284470939636230469e+01 3.051742553710937500e+00 -1.831887483596801758e+00 -6.217511892318725586e-01 -7.360916137695312500e-01 -1.087325692176818848e+00
8.450000000000000000e+03 2.114830780029296875e+01 1.961969375610351562e+00 -1.731692433357238770e+00 -7.403147220611572266e-01 -7.416021823883056641e-01 -1.197030305862426758e+00
8.451000000000000000e+03 2.664954948425292969e+01 5.772653579711914062e+00 -1.624616265296936035e+00 -6.610517501831054688e-01 -6.857004165649414062e-01 -1.036351323127746582e+00
8.452000000000000000e+03 2.085013771057128906e+01 2.169435262680053711e+00 -1.897792100906372070e+00 -7.662460803985595703e-01 -7.992114424705505371e-01 -1.231406927108764648e+00
8.453000000000000000e+03 2.347192382812500000e+01 2.782396554946899414e+00 -1.683875799179077148e+00 -4.555590152740478516e-01 -6.418304443359375000e-01 -8.839553594589233398e-01
8.454000000000000000e+03 2.442706489562988281e+01 4.389493942260742188e+00 -1.697439670562744141e+00 -6.479393243789672852e-01 -7.036136984825134277e-01 -1.041099190711975098e+00
8.455000000000000000e+03 1.697849273681640625e+01 -2.681143581867218018e-01 -1.855833888053894043e+00 -6.426286697387695312e-01 -7.495387792587280273e-01 -1.082837939262390137e+00
8.456000000000000000e+03 1.953655624389648438e+01 1.334767699241638184e+00 -1.316148519515991211e+00 -6.139301061630249023e-01 -5.790235996246337891e-01 -8.643801808357238770e-01
8.457000000000000000e+03 1.868786430358886719e+01 5.500091910362243652e-01 -1.577112317085266113e+00 -4.718425571918487549e-01 -6.146864891052246094e-01 -8.040474653244018555e-01
8.458000000000000000e+03 1.882062339782714844e+01 9.368521571159362793e-01 -1.228134274482727051e+00 -4.812723398208618164e-01 -5.128219723701477051e-01 -7.655294537544250488e-01
8.459000000000000000e+03 2.038509559631347656e+01 1.609160423278808594e+00 -1.571425557136535645e+00 -8.269914388656616211e-01 -7.195250988006591797e-01 -1.163020730018615723e+00
8.460000000000000000e+03 2.033870124816894531e+01 1.899681448936462402e+00 -1.727908372879028320e+00 -7.313805222511291504e-01 -7.377866506576538086e-01 -1.126913189888000488e+00
8.461000000000000000e+03 1.850164413452148438e+01 7.063417434692382812e-01 -1.303898692131042480e+00 -4.647246599197387695e-01 -5.305870175361633301e-01 -7.875446677207946777e-01
8.462000000000000000e+03 2.476949882507324219e+01 4.374063491821289062e+00 -1.631815910339355469e+00 -6.035519838333129883e-01 -6.706103682518005371e-01 -9.911269545555114746e-01
8.463000000000000000e+03 2.643661117553710938e+01 5.221018314361572266e+00 -1.528914332389831543e+00 -6.427717804908752441e-01 -6.515058279037475586e-01 -9.692005515098571777e-01
8.464000000000000000e+03 1.714562606811523438e+01 -1.553380340337753296e-01 -1.789212346076965332e+00 -6.233375072479248047e-01 -7.237649559974670410e-01 -1.054100036621093750e+00
8.465000000000000000e+03 2.687044715881347656e+01 5.361169338226318359e+00 -1.473997712135314941e+00 -6.701850891113281250e-01 -6.432548165321350098e-01 -9.639295935630798340e-01
8.466000000000000000e+03 2.709128570556640625e+01 5.285356521606445312e+00 -1.430332303047180176e+00 -6.966915726661682129e-01 -6.381071805953979492e-01 -9.477934241294860840e-01
8.467000000000000000e+03 2.118954086303710938e+01 1.274497270584106445e+00 -1.518800854682922363e+00 -7.066851854324340820e-01 -6.676458120346069336e-01 -1.188245177268981934e+00
8.468000000000000000e+03 2.019433784484863281e+01 1.759514331817626953e+00 -1.613519906997680664e+00 -7.050313949584960938e-01 -6.955654025077819824e-01 -1.096658945083618164e+00
8.469000000000000000e+03 2.018190765380859375e+01 1.064736366271972656e+00 -1.376412034034729004e+00 -9.135416746139526367e-01 -6.869861483573913574e-01 -1.163120985031127930e+00
8.470000000000000000e+03 1.935871696472167969e+01 1.216935992240905762e+00 -1.274343371391296387e+00 -5.579049587249755859e-01 -5.496745109558105469e-01 -8.432627320289611816e-01
8.471000000000000000e+03 2.539921188354492188e+01 3.561335802078247070e+00 -1.410866141319274902e+00 -4.760979712009429932e-01 -5.660892128944396973e-01 -7.750439643859863281e-01
8.472000000000000000e+03 1.571566581726074219e+01 -1.323912382125854492e+00 -1.808041691780090332e+00 -5.608534216880798340e-01 -7.106685638427734375e-01 -6.787375807762145996e-01
8.473000000000000000e+03 2.263900375366210938e+01 2.504871845245361328e+00 -1.742908954620361328e+00 -5.503433346748352051e-01 -6.879757046699523926e-01 -1.003010749816894531e+00
8.474000000000000000e+03 2.800488471984863281e+01 5.848486900329589844e+00 -1.335833430290222168e+00 -9.069026708602905273e-01 -6.728208661079406738e-01 -9.749234914779663086e-01
8.475000000000000000e+03 1.719545364379882812e+01 -1.510667562484741211e+00 -1.600527048110961914e+00 -5.590789318084716797e-01 -6.478818058967590332e-01 -6.871325373649597168e-01
8.476000000000000000e+03 1.787138938903808594e+01 -1.097423791885375977e+00 -1.696795821189880371e+00 -4.844677150249481201e-01 -6.543790698051452637e-01 -8.523442745208740234e-01
8.477000000000000000e+03 2.079612731933593750e+01 7.050688266754150391e-01 -1.398240566253662109e+00 -8.704335689544677734e-01 -6.806022524833679199e-01 -1.284567117691040039e+00
8.478000000000000000e+03 2.169133377075195312e+01 1.558170557022094727e+00 -1.562610626220703125e+00 -5.438072085380554199e-01 -6.319253444671630859e-01 -1.104680061340332031e+00
8.479000000000000000e+03 2.729758262634277344e+01 5.097759246826171875e+00 -1.324372529983520508e+00 -6.952348947525024414e-01 -6.058822274208068848e-01 -8.779120445251464844e-01
8.480000000000000000e+03 2.415109443664550781e+01 3.541301012039184570e+00 -1.649607777595520020e+00 -5.379996299743652344e-01 -6.562822461128234863e-01 -9.357748627662658691e-01
8.481000000000000000e+03 2.448440170288085938e+01 3.341402530670166016e+00 -1.542535662651062012e+00 -4.741190075874328613e-01 -6.049963831901550293e-01 -8.441031575202941895e-01
8.482000000000000000e+03 1.683305740356445312e+01 -1.691916942596435547e+00 -1.559452652931213379e+00 -5.981199145317077637e-01 -6.472717523574829102e-01 -6.789146661758422852e-01
8.483000000000000000e+03 2.622740745544433594e+01 7.297908306121826172e+00 -4.328444480895996094e+00 -2.518840789794921875e+00 -2.054185628890991211e+00 -3.283275842666625977e+00
8.484000000000000000e+03 2.697657012939453125e+01 5.983730792999267578e+00 -1.670666575431823730e+00 -6.950236558914184570e-01 -7.097070217132568359e-01 -1.064432621002197266e+00
8.485000000000000000e+03 2.779113769531250000e+01 5.052097320556640625e+00 -1.201551437377929688e+00 -7.105167508125305176e-01 -5.736204385757446289e-01 -7.938286066055297852e-01
8.486000000000000000e+03 2.248469924926757812e+01 4.194937229156494141e+00 -7.856061458587646484e-01 -8.296529650688171387e-01 -4.845777451992034912e-01 -9.177997112274169922e-01
8.487000000000000000e+03 2.810100364685058594e+01 6.046474933624267578e+00 -1.374952554702758789e+00 -9.762152433395385742e-01 -7.053503394126892090e-01 -1.031158208847045898e+00
8.488000000000000000e+03 2.771772384643554688e+01 5.859869003295898438e+00 -1.439507842063903809e+00 -8.496439456939697266e-01 -6.867455244064331055e-01 -1.038303971290588379e+00
8.489000000000000000e+03 2.727552604675292969e+01 5.811677932739257812e+00 -1.554072260856628418e+00 -7.422762513160705566e-01 -6.889045834541320801e-01 -1.048547387123107910e+00
8.490000000000000000e+03 1.802574157714843750e+01 -6.289025545120239258e-01 -1.769317626953125000e+00 -3.865132331848144531e-01 -6.467492580413818359e-01 -9.195021986961364746e-01
8.491000000000000000e+03 2.210570907592773438e+01 2.492837190628051758e+00 -1.843580603599548340e+00 -6.440678834915161133e-01 -7.462944984436035156e-01 -1.120562076568603516e+00
8.492000000000000000e+03 2.677413558959960938e+01 6.737572669982910156e+00 6.843110322952270508e-01 1.534091681241989136e-01 2.513160705566406250e-01 3.872912526130676270e-01
8.493000000000000000e+03 2.137590599060058594e+01 2.484710216522216797e+00 -1.980769157409667969e+00 -7.905068397521972656e-01 -8.313828110694885254e-01 -1.249291777610778809e+00
8.494000000000000000e+03 2.203787803649902344e+01 2.063200950622558594e+00 -1.703644037246704102e+00 -5.812097191810607910e-01 -6.854560971260070801e-01 -1.067221522331237793e+00
8.495000000000000000e+03 2.509796905517578125e+01 3.919186592102050781e+00 -1.542734861373901367e+00 -5.194092988967895508e-01 -6.186432838439941406e-01 -8.713276386260986328e-01
8.496000000000000000e+03 2.195049285888671875e+01 1.871048808097839355e+00 -1.659895658493041992e+00 -5.574234724044799805e-01 -6.651957631111145020e-01 -1.065926671028137207e+00
8.497000000000000000e+03 2.650942611694335938e+01 5.975653648376464844e+00 3.815191268920898438e+00 1.410435080528259277e+00 1.567687869071960449e+00 2.342609167098999023e+00
8.498000000000000000e+03 2.526243782043457031e+01 3.778376102447509766e+00 -1.474086999893188477e+00 -5.061029195785522461e-01 -5.940569639205932617e-01 -8.252317905426025391e-01
8.499000000000000000e+03 2.581404304504394531e+01 5.989075660705566406e+00 1.314778208732604980e+00 3.179962337017059326e-01 4.898323416709899902e-01 6.082846522331237793e-01
8.500000000000000000e+03 2.056393432617187500e+01 2.613148450851440430e+00 -3.650020956993103027e-01 -6.979613304138183594e-01 -3.188890218734741211e-01 -6.627140045166015625e-01
8.501000000000000000e+03 2.220507812500000000e+01 4.010235309600830078e+00 -7.921653389930725098e-01 -7.805014252662658691e-01 -4.718000292778015137e-01 -9.019827842712402344e-01
8.502000000000000000e+03 2.517549514770507812e+01 5.827631950378417969e+00 -5.954008102416992188e-01 -3.380786180496215820e-01 -2.800438404083251953e-01 -4.743339121341705322e-01
8.503000000000000000e+03 2.293656158447265625e+01 4.501118659973144531e+00 -8.822188377380371094e-01 -8.477208018302917480e-01 -5.189818739891052246e-01 -1.000854969024658203e+00
8.504000000000000000e+03 2.442124557495117188e+01 5.519610404968261719e+00 -1.618328690528869629e+00 -1.170545816421508789e+00 -8.366623520851135254e-01 -1.268395781517028809e+00
8.505000000000000000e+03 2.104181480407714844e+01 3.073762416839599609e+00 -3.041620254516601562e-01 -7.153126597404479980e-01 -3.058423995971679688e-01 -6.994510889053344727e-01
8.506000000000000000e+03 2.142096900939941406e+01 3.482760190963745117e+00 -5.840641856193542480e-01 -8.526543378829956055e-01 -4.310155510902404785e-01 -8.748676776885986328e-01
8.507000000000000000e+03 2.412429046630859375e+01 5.373105525970458984e+00 -1.956088185310363770e+00 -1.257520556449890137e+00 -9.640825986862182617e-01 -1.494142174720764160e+00
8.508000000000000000e+03 2.116611099243164062e+01 3.312534093856811523e+00 -5.875832438468933105e-01 -8.975379467010498047e-01 -4.455363452434539795e-01 -8.556523323059082031e-01
8.509000000000000000e+03 1.517877674102783203e+01 2.289497256278991699e-01 -3.613429367542266846e-01 1.618108272552490234e+00 3.770296275615692139e-01 -9.620231389999389648e-01
8.510000000000000000e+03 2.783670806884765625e+01 5.383440017700195312e+00 -1.262778520584106445e+00 -7.729128003120422363e-01 -6.107074022293090820e-01 -8.712639808654785156e-01
8.511000000000000000e+03 1.819314384460449219e+01 -5.126250386238098145e-01 -1.830793738365173340e+00 -4.533078968524932861e-01 -6.852304935455322266e-01 -9.094089865684509277e-01
8.512000000000000000e+03 2.597503852844238281e+01 5.709755897521972656e+00 3.643493175506591797e+00 1.267807841300964355e+00 1.473390340805053711e+00 2.115877866744995117e+00
8.513000000000000000e+03 1.796308708190917969e+01 1.059279084205627441e+00 -1.250830411911010742e+00 -1.080676198005676270e+00 -6.994519829750061035e-01 -1.417629599571228027e+00
8.514000000000000000e+03 2.720183753967285156e+01 6.784772396087646484e+00 1.829215168952941895e+00 6.581839323043823242e-01 7.462197542190551758e-01 1.187140941619873047e+00
8.515000000000000000e+03 1.673983955383300781e+01 5.516457557678222656e-01 -7.353976964950561523e-01 -1.545774787664413452e-01 -2.669925391674041748e-01 -6.141113042831420898e-01
8.516000000000000000e+03 2.389292526245117188e+01 4.802043437957763672e+00 8.193578720092773438e-01 -1.492843478918075562e-01 2.010220587253570557e-01 5.570594221353530884e-02
8.517000000000000000e+03 1.610945892333984375e+01 3.070570528507232666e-01 -4.688588678836822510e-01 1.796089708805084229e-01 -8.677497506141662598e-02 -6.521126031875610352e-01
8.518000000000000000e+03 2.368414306640625000e+01 3.659442424774169922e+00 -1.759525895118713379e+00 -6.220349669456481934e-01 -7.144683003425598145e-01 -1.035079598426818848e+00
8.519000000000000000e+03 2.561004066467285156e+01 4.838339805603027344e+00 -1.584295392036437988e+00 -6.026106476783752441e-01 -6.560717821121215820e-01 -9.728159904479980469e-01
8.520000000000000000e+03 2.371541023254394531e+01 2.803117275238037109e+00 -1.609334111213684082e+00 -4.539579153060913086e-01 -6.189876198768615723e-01 -8.558571934700012207e-01
8.521000000000000000e+03 2.558269309997558594e+01 4.275063514709472656e+00 -1.480101346969604492e+00 -5.529048442840576172e-01 -6.099018454551696777e-01 -8.819237351417541504e-01
8.522000000000000000e+03 2.534510612487792969e+01 4.405199050903320312e+00 -1.560205817222595215e+00 -5.717492103576660156e-01 -6.395865082740783691e-01 -9.299915432929992676e-01
8.523000000000000000e+03 2.360383987426757812e+01 3.146109819412231445e+00 -1.707065224647521973e+00 -5.365382432937622070e-01 -6.730810403823852539e-01 -9.538015127182006836e-01
8.524000000000000000e+03 2.136069869995117188e+01 1.376713991165161133e+00 -1.501756668090820312e+00 -6.068570613861083984e-01 -6.325840950012207031e-01 -1.187029004096984863e+00
8.525000000000000000e+03 1.911192321777343750e+01 8.317236304283142090e-01 -1.293485641479492188e+00 -6.265353560447692871e-01 -5.760062932968139648e-01 -8.118675351142883301e-01
8.526000000000000000e+03 2.709817886352539062e+01 5.751211166381835938e+00 -1.562861442565917969e+00 -7.146862745285034180e-01 -6.832643151283264160e-01 -1.037564635276794434e+00
8.527000000000000000e+03 2.756222724914550781e+01 5.541855812072753906e+00 -1.369271755218505859e+00 -7.668760418891906738e-01 -6.408443450927734375e-01 -9.542399644851684570e-01
8.528000000000000000e+03 1.706620979309082031e+01 -1.017040967941284180e+00 -1.922133445739746094e+00 -4.516126513481140137e-01 -7.121238112449645996e-01 -8.020610213279724121e-01
8.529000000000000000e+03 2.030491447448730469e+01 7.856969833374023438e-01 -1.318783521652221680e+00 -9.764788746833801270e-01 -6.885787248611450195e-01 -1.170225501060485840e+00
8.530000000000000000e+03 2.607737541198730469e+01 4.842619895935058594e+00 -1.495869278907775879e+00 -6.044551134109497070e-01 -6.300973296165466309e-01 -9.364929795265197754e-01
8.531000000000000000e+03 2.666492843627929688e+01 4.805519580841064453e+00 -1.402532219886779785e+00 -6.090037822723388672e-01 -6.034607887268066406e-01 -8.727328181266784668e-01
8.532000000000000000e+03 2.630720329284667969e+01 4.768382549285888672e+00 -1.462927222251892090e+00 -5.986078381538391113e-01 -6.184605360031127930e-01 -9.023825526237487793e-01
8.533000000000000000e+03 2.283657073974609375e+01 1.973399281501770020e+00 -1.585635185241699219e+00 -4.095223248004913330e-01 -5.985472202301025391e-01 -8.785151839256286621e-01
8.534000000000000000e+03 2.334562683105468750e+01 2.934128522872924805e+00 -1.709725737571716309e+00 -5.468901395797729492e-01 -6.769847273826599121e-01 -9.635760188102722168e-01
8.535000000000000000e+03 1.984938049316406250e+01 5.231701135635375977e-01 -1.256924510002136230e+00 -9.924614429473876953e-01 -6.748157739639282227e-01 -1.016987919807434082e+00
8.536000000000000000e+03 2.011395072937011719e+01 7.077939510345458984e-01 -1.398687362670898438e+00 -1.000537633895874023e+00 -7.197675108909606934e-01 -1.165885090827941895e+00
8.537000000000000000e+03 1.963491249084472656e+01 7.110378742218017578e-01 -1.472231030464172363e+00 -8.638377785682678223e-01 -7.008206248283386230e-01 -9.724324345588684082e-01
8.538000000000000000e+03 1.723280715942382812e+01 -1.188942551612854004e+00 -1.733960390090942383e+00 -5.234274864196777344e-01 -6.772163510322570801e-01 -7.854588627815246582e-01
8.539000000000000000e+03 1.616164016723632812e+01 -1.410947084426879883e+00 -1.697792887687683105e+00 -7.890945672988891602e-01 -7.460662126541137695e-01 -5.843750834465026855e-01
8.540000000000000000e+03 2.569254302978515625e+01 4.493881225585937500e+00 -1.526530742645263672e+00 -5.648985505104064941e-01 -6.274287700653076172e-01 -9.091107845306396484e-01
8.541000000000000000e+03 1.685601615905761719e+01 -1.279227972030639648e+00 -1.878498792648315430e+00 -5.378590822219848633e-01 -7.249073386192321777e-01 -6.682879328727722168e-01
8.542000000000000000e+03 1.799986267089843750e+01 -2.705654203891754150e-01 -1.766463160514831543e+00 -3.981461822986602783e-01 -6.493827700614929199e-01 -9.044229984283447266e-01
8.543000000000000000e+03 2.143686676025390625e+01 1.690131187438964844e+00 -1.615845680236816406e+00 -6.486281156539916992e-01 -6.793421506881713867e-01 -1.157480239868164062e+00
8.544000000000000000e+03 2.634053611755371094e+01 6.562598705291748047e+00 3.218612447381019592e-02 -3.320294022560119629e-01 -8.995298296213150024e-02 -8.113040775060653687e-02
8.545000000000000000e+03 2.582064056396484375e+01 6.539969921112060547e+00 -2.003353834152221680e+00 -1.204101920127868652e+00 -9.622367024421691895e-01 -1.556324601173400879e+00
8.546000000000000000e+03 2.690040969848632812e+01 7.386531829833984375e+00 -2.156045436859130859e+00 -1.243735551834106445e+00 -1.019934296607971191e+00 -1.662079930305480957e+00
8.547000000000000000e+03 2.739855003356933594e+01 6.886539459228515625e+00 2.022072076797485352e+00 7.993818521499633789e-01 8.464362025260925293e-01 1.209922909736633301e+00
8.548000000000000000e+03 2.546012306213378906e+01 6.374949455261230469e+00 -2.307821273803710938e+00 -1.349579095840454102e+00 -1.097220063209533691e+00 -1.853779673576354980e+00
8.549000000000000000e+03 2.576717567443847656e+01 6.282899379730224609e+00 -6.768044233322143555e-01 -4.545174539089202881e-01 -3.393965661525726318e-01 -6.292848587036132812e-01
8.550000000000000000e+03 2.224742889404296875e+01 2.353343725204467773e+00 -1.763710498809814453e+00 -6.148680448532104492e-01 -7.135735750198364258e-01 -1.081239938735961914e+00
8.551000000000000000e+03 1.846948242187500000e+01 3.501643538475036621e-01 -1.620070576667785645e+00 -4.872274696826934814e-01 -6.321893930435180664e-01 -8.171532154083251953e-01
8.552000000000000000e+03 2.635047340393066406e+01 7.097494602203369141e+00 -2.905187129974365234e+00 -1.720853090286254883e+00 -1.387812018394470215e+00 -2.103349685668945312e+00
8.553000000000000000e+03 1.812079811096191406e+01 1.768802553415298462e-01 -1.644258618354797363e+00 -4.584188461303710938e-01 -6.308032274246215820e-01 -8.582664728164672852e-01
8.554000000000000000e+03 2.571139526367187500e+01 6.977231502532958984e+00 -4.777326583862304688e+00 -2.503033638000488281e+00 -2.184108018875122070e+00 -3.367612838745117188e+00
8.555000000000000000e+03 2.285479354858398438e+01 4.230628013610839844e+00 3.691129013895988464e-02 -5.032641887664794922e-01 -1.399058550596237183e-01 -4.135037958621978760e-01
8.556000000000000000e+03 1.606735420227050781e+01 -3.954804837703704834e-01 -3.726005792617797852e+00 -2.685410976409912109e-01 -1.198364138603210449e+00 -2.057566642761230469e+00
8.557000000000000000e+03 1.644632148742675781e+01 -1.453485488891601562e+00 -1.731192111968994141e+00 -6.547655463218688965e-01 -7.157872915267944336e-01 -6.685541868209838867e-01
8.558000000000000000e+03 1.625562286376953125e+01 -1.167083740234375000e+00 -2.076042413711547852e+00 -7.258685827255249023e-01 -8.405733108520507812e-01 -4.773410260677337646e-01
8.559000000000000000e+03 1.906036376953125000e+01 1.955818653106689453e+00 -3.823505640029907227e-01 -7.609952688217163086e-01 -3.430037498474121094e-01 -7.926663160324096680e-01
8.560000000000000000e+03 1.830961990356445312e+01 -2.198664695024490356e-01 -1.880078673362731934e+00 -4.558126330375671387e-01 -7.007673978805541992e-01 -9.411600828170776367e-01
8.561000000000000000e+03 1.897157478332519531e+01 5.663049221038818359e-01 -1.640937566757202148e+00 -5.913735032081604004e-01 -6.696933507919311523e-01 -9.042563438415527344e-01
8.562000000000000000e+03 2.714145660400390625e+01 5.515115261077880859e+00 -1.466529607772827148e+00 -7.041756510734558105e-01 -6.512115597724914551e-01 -9.813753366470336914e-01
8.563000000000000000e+03 2.736359596252441406e+01 5.513992786407470703e+00 -1.423309445381164551e+00 -7.552698254585266113e-01 -6.535738110542297363e-01 -9.750161767005920410e-01
8.564000000000000000e+03 2.710399055480957031e+01 7.190565109252929688e+00 -6.257033348083496094e-01 -2.724892199039459229e-01 -2.694577574729919434e-01 -3.884376883506774902e-01
8.565000000000000000e+03 2.526805114746093750e+01 6.093179225921630859e+00 -1.566742062568664551e+00 -8.190237283706665039e-01 -7.157297134399414062e-01 -1.241349339485168457e+00
8.566000000000000000e+03 2.039383125305175781e+01 1.114218592643737793e+00 -1.381525874137878418e+00 -8.811854720115661621e-01 -6.788133978843688965e-01 -1.184856534004211426e+00
8.567000000000000000e+03 2.417414855957031250e+01 3.933209896087646484e+00 -1.688825845718383789e+00 -5.973948836326599121e-01 -6.858662366867065430e-01 -1.008278131484985352e+00
8.568000000000000000e+03 2.251664733886718750e+01 2.358477115631103516e+00 -1.725267171859741211e+00 -5.553640127182006836e-01 -6.841893196105957031e-01 -1.023095130920410156e+00
8.569000000000000000e+03 1.867271995544433594e+01 3.759214282035827637e-01 -1.432516813278198242e+00 -5.059311985969543457e-01 -5.815343856811523438e-01 -8.439719676971435547e-01
8.570000000000000000e+03 1.949674224853515625e+01 9.525567889213562012e-01 -1.330713391304016113e+00 -8.401504158973693848e-01 -6.512591242790222168e-01 -9.576337933540344238e-01
8.571000000000000000e+03 1.783939170837402344e+01 -3.905213475227355957e-01 -1.813081622123718262e+00 -4.512002468109130859e-01 -6.792845726013183594e-01 -9.113644361495971680e-01
8.572000000000000000e+03 2.321898460388183594e+01 3.217948198318481445e+00 -1.783750772476196289e+00 -5.927386879920959473e-01 -7.129468321800231934e-01 -1.036031007766723633e+00
8.573000000000000000e+03 2.300796318054199219e+01 2.877877712249755859e+00 -1.753806471824645996e+00 -5.685541033744812012e-01 -6.967082023620605469e-01 -1.012174367904663086e+00
8.574000000000000000e+03 2.580160903930664062e+01 4.695583820343017578e+00 -1.518709540367126465e+00 -5.889443159103393555e-01 -6.322961449623107910e-01 -9.331077933311462402e-01
8.575000000000000000e+03 2.489657402038574219e+01 4.026909351348876953e+00 -1.571262836456298828e+00 -5.524671077728271484e-01 -6.371189951896667480e-01 -9.228442907333374023e-01
8.576000000000000000e+03 1.720486450195312500e+01 -8.704810738563537598e-01 -1.914171934127807617e+00 -4.818943142890930176e-01 -7.188198566436767578e-01 -8.797680139541625977e-01
8.577000000000000000e+03 1.967807006835937500e+01 1.468261122703552246e+00 -1.359523296356201172e+00 -6.116454601287841797e-01 -5.913506150245666504e-01 -9.515228867530822754e-01
8.578000000000000000e+03 1.999178695678710938e+01 9.750122427940368652e-01 -1.305642366409301758e+00 -9.101765155792236328e-01 -6.647456288337707520e-01 -1.093324542045593262e+00
8.579000000000000000e+03 1.881453514099121094e+01 -1.145941466093063354e-01 -1.744001150131225586e+00 -4.218648970127105713e-01 -6.497598290443420410e-01 -8.305910229682922363e-01
8.580000000000000000e+03 2.476461601257324219e+01 3.816526651382446289e+00 -1.577970504760742188e+00 -5.255296826362609863e-01 -6.310500502586364746e-01 -8.895169496536254883e-01
8.581000000000000000e+03 2.222923851013183594e+01 2.596244335174560547e+00 -1.854085683822631836e+00 -6.720782518386840820e-01 -7.578492164611816406e-01 -1.117281913757324219e+00
8.582000000000000000e+03 2.157818603515625000e+01 1.730562210083007812e+00 -1.644483804702758789e+00 -6.261748671531677246e-01 -6.811975836753845215e-01 -1.156111955642700195e+00
8.583000000000000000e+03 1.753607368469238281e+01 -9.707576036453247070e-01 -1.790115356445312500e+00 -4.631711244583129883e-01 -6.759859919548034668e-01 -8.405552506446838379e-01
8.584000000000000000e+03 1.557396507263183594e+01 -2.852958738803863525e-01 -4.650444984436035156e+00 1.184728264808654785e+00 -1.039714932441711426e+00 -1.034837603569030762e+00
8.585000000000000000e+03 1.580789661407470703e+01 -2.014942407608032227e+00 -1.217204332351684570e+00 -6.352215409278869629e-01 -5.557277798652648926e-01 -6.725026965141296387e-01
8.586000000000000000e+03 2.779977416992187500e+01 6.011123180389404297e+00 -1.509504079818725586e+00 -8.931974172592163086e-01 -7.208104729652404785e-01 -1.087463617324829102e+00
8.587000000000000000e+03 2.430105209350585938e+01 3.707533121109008789e+00 -1.640251398086547852e+00 -5.519760847091674805e-01 -6.576682329177856445e-01 -9.402490258216857910e-01
8.588000000000000000e+03 1.976152992248535156e+01 8.037325739860534668e-01 -1.407393693923950195e+00 -8.013049364089965820e-01 -6.626095771789550781e-01 -1.013731837272644043e+00
8.589000000000000000e+03 2.400750732421875000e+01 3.809019565582275391e+00 -1.711822867393493652e+00 -6.116509437561035156e-01 -6.970421671867370605e-01 -1.012602210044860840e+00
8.590000000000000000e+03 2.676595687866210938e+01 6.886943340301513672e+00 -8.474711328744888306e-02 -2.234240770339965820e-01 -9.245135635137557983e-02 -7.050754129886627197e-02
8.591000000000000000e+03 2.651888465881347656e+01 7.204801559448242188e+00 -2.783424854278564453e+00 -1.690438389778137207e+00 -1.342159032821655273e+00 -2.029307126998901367e+00
8.592000000000000000e+03 1.628826141357421875e+01 -2.017508745193481445e+00 -1.229717373847961426e+00 -6.406474113464355469e-01 -5.611094236373901367e-01 -6.506566405296325684e-01
8.593000000000000000e+03 2.591839790344238281e+01 4.346871852874755859e+00 -1.433471083641052246e+00 -5.574929714202880859e-01 -5.972892642021179199e-01 -8.552416563034057617e-01
8.594000000000000000e+03 1.501998519897460938e+01 -1.876763939857482910e+00 -1.377705574035644531e+00 -2.889311015605926514e-01 -4.999910295009613037e-01 -5.894492864608764648e-01
8.595000000000000000e+03 2.733472442626953125e+01 7.141497611999511719e+00 3.990944921970367432e-01 2.506954073905944824e-01 1.949369758367538452e-01 3.158011436462402344e-01
8.596000000000000000e+03 2.684387207031250000e+01 6.556024074554443359e+00 1.803497672080993652e+00 7.750102877616882324e-01 7.735524177551269531e-01 1.104810833930969238e+00
8.597000000000000000e+03 2.666568374633789062e+01 6.083534240722656250e+00 3.713323831558227539e+00 1.433752655982971191e+00 1.544122934341430664e+00 2.349322795867919922e+00
8.598000000000000000e+03 2.625601196289062500e+01 6.063596248626708984e+00 2.550934553146362305e+00 7.624841928482055664e-01 9.940255880355834961e-01 1.466238021850585938e+00
8.599000000000000000e+03 2.616489219665527344e+01 5.798119544982910156e+00 3.753631591796875000e+00 1.262922644615173340e+00 1.504966259002685547e+00 2.176288127899169922e+00
8.600000000000000000e+03 2.606442070007324219e+01 6.034417629241943359e+00 1.963176846504211426e+00 5.470839738845825195e-01 7.530782818794250488e-01 1.090641736984252930e+00
8.601000000000000000e+03 2.558020401000976562e+01 5.873181343078613281e+00 1.126617670059204102e+00 1.813760399818420410e-01 3.923980891704559326e-01 4.436042010784149170e-01
8.602000000000000000e+03 2.528006172180175781e+01 5.593722820281982422e+00 1.453891396522521973e+00 4.125915169715881348e-01 5.599448680877685547e-01 8.116471171379089355e-01
8.603000000000000000e+03 2.545791816711425781e+01 5.377339839935302734e+00 3.527916669845581055e+00 1.149026155471801758e+00 1.403082847595214844e+00 2.044434070587158203e+00
8.604000000000000000e+03 2.511786651611328125e+01 5.163075447082519531e+00 3.296772241592407227e+00 1.200114011764526367e+00 1.349065899848937988e+00 2.016335248947143555e+00
8.605000000000000000e+03 2.478065109252929688e+01 4.935214519500732422e+00 3.347828626632690430e+00 1.282885074615478516e+00 1.389214158058166504e+00 1.854665994644165039e+00
8.606000000000000000e+03 2.434786415100097656e+01 4.955834388732910156e+00 1.470038056373596191e+00 1.907586157321929932e-01 4.982390105724334717e-01 7.901241779327392578e-01
8.607000000000000000e+03 2.371851730346679688e+01 4.320669174194335938e+00 2.632471323013305664e+00 7.556127905845642090e-01 1.016425251960754395e+00 1.412437200546264648e+00
8.608000000000000000e+03 2.365928649902343750e+01 4.679716110229492188e+00 6.021655797958374023e-01 -3.038612902164459229e-01 8.949128538370132446e-02 -7.298377156257629395e-02
8.609000000000000000e+03 2.341914558410644531e+01 4.077101707458496094e+00 2.292904376983642578e+00 6.083395481109619141e-01 8.703731894493103027e-01 1.266366124153137207e+00
8.610000000000000000e+03 2.287387466430664062e+01 3.978004455566406250e+00 1.238119959831237793e+00 -5.181285366415977478e-02 3.558921217918395996e-01 3.660400509834289551e-01
8.611000000000000000e+03 2.257127761840820312e+01 3.593299865722656250e+00 1.491052746772766113e+00 3.459934890270233154e-01 5.511139035224914551e-01 7.193264961242675781e-01
8.612000000000000000e+03 2.238205909729003906e+01 3.494225025177001953e+00 1.328853964805603027e+00 2.238931804895401001e-01 4.658241271972656250e-01 6.441239714622497559e-01
8.613000000000000000e+03 2.175230789184570312e+01 3.041884422302246094e+00 6.053474545478820801e-01 -3.013293817639350891e-02 1.725643575191497803e-01 2.739096879959106445e-01
8.614000000000000000e+03 2.091606521606445312e+01 2.871060132980346680e+00 -1.551981419324874878e-01 -5.915943384170532227e-01 -2.240377515554428101e-01 -5.502014160156250000e-01
8.615000000000000000e+03 2.039735031127929688e+01 2.418879747390747070e+00 -5.765660405158996582e-01 -7.139434814453125000e-01 -3.871528506278991699e-01 -7.396891117095947266e-01
8.616000000000000000e+03 2.056420326232910156e+01 2.295139312744140625e+00 -6.269104480743408203e-01 -3.834798634052276611e-01 -3.031170964241027832e-01 -4.795736670494079590e-01
8.617000000000000000e+03 1.985025787353515625e+01 2.300310134887695312e+00 -6.581360101699829102e-01 -9.320125579833984375e-01 -4.770445525646209717e-01 -9.581273794174194336e-01
8.618000000000000000e+03 1.921669578552246094e+01 1.422919631004333496e+00 -2.825227975845336914e+00 -1.073219895362854004e+00 -1.169534325599670410e+00 -1.900519728660583496e+00
8.619000000000000000e+03 1.834779357910156250e+01 1.595245122909545898e+00 3.368134498596191406e-01 -6.210887432098388672e-01 -8.528258651494979858e-02 -3.502947390079498291e-01
8.620000000000000000e+03 1.854553031921386719e+01 1.398307919502258301e+00 -1.368457555770874023e+00 -1.213217735290527344e+00 -7.745025753974914551e-01 -1.391004920005798340e+00
8.621000000000000000e+03 1.820831489562988281e+01 8.324990868568420410e-01 -4.172000408172607422e+00 -1.655750632286071777e+00 -1.748325347900390625e+00 -2.590993165969848633e+00
8.622000000000000000e+03 1.684770965576171875e+01 3.050752580165863037e-01 -2.994148731231689453e+00 -1.185431599617004395e+00 -1.253874063491821289e+00 -2.311208963394165039e+00
8.623000000000000000e+03 1.643051910400390625e+01 4.287737011909484863e-01 -2.209527790546417236e-01 -2.156278491020202637e-01 -1.309741884469985962e-01 -6.675125956535339355e-01
8.624000000000000000e+03 1.508499240875244141e+01 -1.196102350950241089e-01 -4.081227779388427734e+00 6.087937355041503906e-01 -1.041730284690856934e+00 -3.063282668590545654e-01
8.625000000000000000e+03 1.489139747619628906e+01 -4.429558813571929932e-01 -6.904350757598876953e+00 -1.737153381109237671e-01 -2.123419761657714844e+00 5.102295279502868652e-01
8.626000000000000000e+03 1.458994865417480469e+01 1.278747320175170898e-01 -1.975284099578857422e+00 5.136304497718811035e-01 -4.384960830211639404e-01 3.211385011672973633e-01
8.627000000000000000e+03 2.798352813720703125e+01 6.378621101379394531e+00 -1.671003222465515137e+00 -9.916779994964599609e-01 -7.988043427467346191e-01 -1.245362520217895508e+00
8.628000000000000000e+03 2.744732856750488281e+01 5.919847488403320312e+00 -1.552891135215759277e+00 -8.023767471313476562e-01 -7.065803408622741699e-01 -1.080774903297424316e+00
8.629000000000000000e+03 2.681096076965332031e+01 5.881733417510986328e+00 -1.647377729415893555e+00 -6.671476960182189941e-01 -6.943576335906982422e-01 -1.050829291343688965e+00
8.630000000000000000e+03 2.695290946960449219e+01 5.657287120819091797e+00 -1.556970596313476562e+00 -6.903336048126220703e-01 -6.741912961006164551e-01 -1.019376277923583984e+00
8.631000000000000000e+03 2.680890464782714844e+01 5.554503917694091797e+00 -1.563552975654602051e+00 -6.676459312438964844e-01 -6.693596839904785156e-01 -1.008474111557006836e+00
8.632000000000000000e+03 2.595121192932128906e+01 5.348055839538574219e+00 -1.608920693397521973e+00 -6.285402774810791016e-01 -6.712383031845092773e-01 -1.005311965942382812e+00
8.633000000000000000e+03 2.624352073669433594e+01 5.168264389038085938e+00 -1.550734996795654297e+00 -6.195186376571655273e-01 -6.510760784149169922e-01 -9.740450382232666016e-01
8.634000000000000000e+03 2.577732086181640625e+01 5.259509563446044922e+00 -1.613529920578002930e+00 -6.290408372879028320e-01 -6.727712154388427734e-01 -1.003597617149353027e+00
8.635000000000000000e+03 2.587140464782714844e+01 5.063723564147949219e+00 -1.568852186203002930e+00 -6.124181747436523438e-01 -6.543810963630676270e-01 -9.823306202888488770e-01
8.636000000000000000e+03 2.528497123718261719e+01 4.897889137268066406e+00 -1.626416563987731934e+00 -6.248326301574707031e-01 -6.753747463226318359e-01 -1.006376743316650391e+00
8.637000000000000000e+03 2.476001930236816406e+01 4.607118606567382812e+00 -1.664685726165771484e+00 -6.365034580230712891e-01 -6.903567314147949219e-01 -1.024241089820861816e+00
8.638000000000000000e+03 2.340548515319824219e+01 3.757633924484252930e+00 -1.822720408439636230e+00 -6.924982070922851562e-01 -7.545655965805053711e-01 -1.105443835258483887e+00
8.639000000000000000e+03 2.324150848388671875e+01 3.638243675231933594e+00 -1.841065883636474609e+00 -6.757742166519165039e-01 -7.550520300865173340e-01 -1.131123065948486328e+00
8.640000000000000000e+03 2.301863098144531250e+01 3.138655900955200195e+00 -1.817671298980712891e+00 -6.276273131370544434e-01 -7.335895895957946777e-01 -1.053828477859497070e+00
8.641000000000000000e+03 2.266702651977539062e+01 2.957285165786743164e+00 -1.857161760330200195e+00 -6.506338715553283691e-01 -7.523387074470520020e-01 -1.093732714653015137e+00
8.642000000000000000e+03 2.203386688232421875e+01 2.941110372543334961e+00 -1.996645569801330566e+00 -7.712751030921936035e-01 -8.303762078285217285e-01 -1.224457621574401855e+00
8.643000000000000000e+03 2.213482093811035156e+01 2.759301662445068359e+00 -1.912763476371765137e+00 -6.874946355819702148e-01 -7.800774574279785156e-01 -1.175156950950622559e+00
8.644000000000000000e+03 2.154034233093261719e+01 2.606009721755981445e+00 -1.994084954261779785e+00 -7.659061551094055176e-01 -8.279973268508911133e-01 -1.257167577743530273e+00
8.645000000000000000e+03 2.183447265625000000e+01 2.533674716949462891e+00 -1.904407143592834473e+00 -7.029979825019836426e-01 -7.822215557098388672e-01 -1.185050368309020996e+00
8.646000000000000000e+03 2.136129570007324219e+01 2.078829288482666016e+00 -1.788244009017944336e+00 -7.452559471130371094e-01 -7.600499391555786133e-01 -1.180927753448486328e+00
8.647000000000000000e+03 2.154104804992675781e+01 2.237478971481323242e+00 -1.834480285644531250e+00 -7.055645585060119629e-01 -7.620134353637695312e-01 -1.182162404060363770e+00
8.648000000000000000e+03 2.077692985534667969e+01 1.859538793563842773e+00 -1.697017073631286621e+00 -7.813299298286437988e-01 -7.435041069984436035e-01 -1.179238557815551758e+00
8.649000000000000000e+03 2.049374771118164062e+01 1.987400770187377930e+00 -1.811496257781982422e+00 -7.407016754150390625e-01 -7.656593918800354004e-01 -1.168340802192687988e+00
8.650000000000000000e+03 2.048386955261230469e+01 1.801054954528808594e+00 -1.653356909751892090e+00 -7.766296267509460449e-01 -7.289959788322448730e-01 -1.166992306709289551e+00
8.651000000000000000e+03 2.034474945068359375e+01 1.374484896659851074e+00 -1.454576849937438965e+00 -8.273757100105285645e-01 -6.845857501029968262e-01 -1.173916220664978027e+00
8.652000000000000000e+03 1.986848831176757812e+01 1.354785084724426270e+00 -1.342134594917297363e+00 -7.325893640518188477e-01 -6.224172115325927734e-01 -1.048428058624267578e+00
8.653000000000000000e+03 1.977758979797363281e+01 1.160026073455810547e+00 -1.432520270347595215e+00 -8.190600275993347168e-01 -6.754741072654724121e-01 -1.043308734893798828e+00
8.654000000000000000e+03 1.899002265930175781e+01 1.033178091049194336e+00 -1.227617144584655762e+00 -5.103380680084228516e-01 -5.213865637779235840e-01 -7.734866142272949219e-01
8.655000000000000000e+03 1.865701293945312500e+01 8.324456810951232910e-01 -1.270403504371643066e+00 -4.786107540130615234e-01 -5.247042775154113770e-01 -7.561890482902526855e-01
8.656000000000000000e+03 1.796325874328613281e+01 6.934621185064315796e-02 -1.663543939590454102e+00 -4.501714706420898438e-01 -6.341146230697631836e-01 -9.059612751007080078e-01
8.657000000000000000e+03 1.781099510192871094e+01 -4.681610688567161560e-02 -1.711805701255798340e+00 -4.956248104572296143e-01 -6.622291803359985352e-01 -9.152362942695617676e-01
8.658000000000000000e+03 1.731255149841308594e+01 -4.446045309305191040e-02 -1.726189494132995605e+00 -6.019185781478881836e-01 -6.984324455261230469e-01 -1.019554138183593750e+00
8.659000000000000000e+03 1.716968917846679688e+01 -5.165702104568481445e-01 -1.900259137153625488e+00 -5.354980826377868652e-01 -7.307271361351013184e-01 -9.903148412704467773e-01
8.660000000000000000e+03 1.733124160766601562e+01 -3.948403298854827881e-01 -1.832068443298339844e+00 -5.110873579978942871e-01 -7.029467225074768066e-01 -9.823091030120849609e-01
8.661000000000000000e+03 1.700969696044921875e+01 -6.479260325431823730e-01 -1.957467794418334961e+00 -5.288304090499877930e-01 -7.458894848823547363e-01 -9.819673299789428711e-01
8.662000000000000000e+03 1.667558479309082031e+01 -9.449340701103210449e-01 -2.148207426071166992e+00 -5.231221318244934082e-01 -8.013988733291625977e-01 -8.672834634780883789e-01
8.663000000000000000e+03 2.749036979675292969e+01 7.732102394104003906e+00 -1.778117418289184570e+00 -7.595216631889343262e-01 -7.612917423248291016e-01 -1.372548460960388184e+00
8.664000000000000000e+03 2.737743186950683594e+01 7.516111850738525391e+00 -1.204990029335021973e+00 -4.986720085144042969e-01 -5.110986232757568359e-01 -9.207266569137573242e-01
8.665000000000000000e+03 2.775899505615234375e+01 7.781839847564697266e+00 -1.354574084281921387e+00 -2.276037037372589111e-01 -4.746533632278442383e-01 -1.015096068382263184e+00
8.666000000000000000e+03 2.767353057861328125e+01 8.236301422119140625e+00 -2.959102630615234375e+00 -1.502707600593566895e+00 -1.338543057441711426e+00 -2.139504671096801758e+00
8.667000000000000000e+03 2.705670928955078125e+01 7.836090087890625000e+00 -3.368578195571899414e+00 -2.129214763641357422e+00 -1.649337887763977051e+00 -2.689481258392333984e+00
8.668000000000000000e+03 2.657050704956054688e+01 7.504411220550537109e+00 -3.915782451629638672e+00 -2.495534181594848633e+00 -1.923395037651062012e+00 -3.074106454849243164e+00
8.669000000000000000e+03 2.671600341796875000e+01 7.279695510864257812e+00 -2.382481575012207031e+00 -1.396777868270874023e+00 -1.133777856826782227e+00 -1.691694259643554688e+00
8.670000000000000000e+03 2.589096641540527344e+01 7.078425884246826172e+00 -4.650568962097167969e+00 -2.534499645233154297e+00 -2.155520677566528320e+00 -3.414861679077148438e+00
8.671000000000000000e+03 2.600694847106933594e+01 6.826173305511474609e+00 -2.810960054397583008e+00 -1.666530966758728027e+00 -1.343247294425964355e+00 -2.064091444015502930e+00
8.672000000000000000e+03 2.562108039855957031e+01 6.621604919433593750e+00 -3.017812252044677734e+00 -1.739873170852661133e+00 -1.427305698394775391e+00 -2.339002132415771484e+00
8.673000000000000000e+03 2.579959106445312500e+01 6.754337787628173828e+00 -3.174025297164916992e+00 -1.852379083633422852e+00 -1.507921338081359863e+00 -2.287303209304809570e+00
8.674000000000000000e+03 2.861095428466796875e+01 8.252856254577636719e+00 -1.588651180267333984e+00 3.780542314052581787e-02 -4.652537107467651367e-01 -5.909385681152343750e-01
8.675000000000000000e+03 2.853674888610839844e+01 8.360008239746093750e+00 -1.732774138450622559e+00 1.964442729949951172e-01 -4.608989655971527100e-01 -6.737349629402160645e-01
8.676000000000000000e+03 2.883415985107421875e+01 8.333746910095214844e+00 -1.243237733840942383e+00 -1.366025805473327637e-01 -4.139521121978759766e-01 3.750108182430267334e-02
8.677000000000000000e+03 2.870514488220214844e+01 8.375977516174316406e+00 -1.785029768943786621e+00 -3.148299455642700195e-01 -6.299579143524169922e-01 -6.685769557952880859e-01
8.678000000000000000e+03 1.971903610229492188e+01 2.516002416610717773e+00 -2.269760817289352417e-01 -7.324633598327636719e-01 -2.878318428993225098e-01 -6.256438493728637695e-01
8.679000000000000000e+03 2.373731422424316406e+01 5.086797237396240234e+00 -1.577571272850036621e+00 -1.109547376632690430e+00 -8.061355948448181152e-01 -1.343961238861083984e+00
8.680000000000000000e+03 2.900718116760253906e+01 8.279201507568359375e+00 -1.199299097061157227e+00 -2.551380021031945944e-04 -3.598662614822387695e-01 -9.642896056175231934e-02
8.681000000000000000e+03 2.995883560180664062e+01 7.631362438201904297e+00 -1.899422854185104370e-01 -8.565778136253356934e-01 -3.139560222625732422e-01 -5.423098206520080566e-01
8.682000000000000000e+03 2.986109924316406250e+01 7.173797130584716797e+00 -1.975606828927993774e-01 -8.008267879486083984e-01 -2.995162606239318848e-01 -8.087162971496582031e-01
8.683000000000000000e+03 2.977012825012207031e+01 7.303269386291503906e+00 5.273011978715658188e-03 -8.664530515670776367e-01 -2.583540081977844238e-01 -8.137417435646057129e-01
8.684000000000000000e+03 1.753824615478515625e+01 -1.313276886940002441e+00 -1.603890419006347656e+00 -5.184479951858520508e-01 -6.367015242576599121e-01 -7.742780447006225586e-01
8.685000000000000000e+03 1.770430946350097656e+01 -1.205825805664062500e+00 -1.623701333999633789e+00 -4.351696372032165527e-01 -6.176612973213195801e-01 -8.272866606712341309e-01
8.686000000000000000e+03 1.803942489624023438e+01 -9.887551069259643555e-01 -1.680891990661621094e+00 -4.029599428176879883e-01 -6.251555681228637695e-01 -8.888397216796875000e-01
8.687000000000000000e+03 1.769699668884277344e+01 -8.576623797416687012e-01 -1.760062456130981445e+00 -4.082066416740417480e-01 -6.504807472229003906e-01 -8.778625726699829102e-01
8.688000000000000000e+03 1.871887207031250000e+01 -5.354961752891540527e-01 -1.822252392768859863e+00 -4.318464994430541992e-01 -6.762296557426452637e-01 -9.471875429153442383e-01
8.689000000000000000e+03 1.851503944396972656e+01 -2.948162555694580078e-01 -1.816003322601318359e+00 -4.461295604705810547e-01 -6.786398887634277344e-01 -8.803191184997558594e-01
8.690000000000000000e+03 1.856393241882324219e+01 1.237389743328094482e-01 -1.621212005615234375e+00 -4.521112143993377686e-01 -6.219969391822814941e-01 -8.687961697578430176e-01
8.691000000000000000e+03 1.924990653991699219e+01 -5.019795522093772888e-02 -1.574852824211120605e+00 -7.150240540504455566e-01 -6.869630813598632812e-01 -8.497398495674133301e-01
8.692000000000000000e+03 1.943012428283691406e+01 -4.136993363499641418e-02 -1.928244590759277344e+00 -1.053858160972595215e+00 -8.946307897567749023e-01 -9.986118078231811523e-01
8.693000000000000000e+03 1.920506477355957031e+01 2.889018356800079346e-01 -1.701507091522216797e+00 -7.567886114120483398e-01 -7.374887466430664062e-01 -9.215778112411499023e-01
8.694000000000000000e+03 1.935403060913085938e+01 1.091038063168525696e-01 -1.675019383430480957e+00 -8.215755224227905273e-01 -7.489784955978393555e-01 -7.266397476196289062e-01
8.695000000000000000e+03 1.970587158203125000e+01 3.779152035713195801e-01 -1.645707249641418457e+00 -1.034615874290466309e+00 -8.040969371795654297e-01 -9.871304035186767578e-01
8.696000000000000000e+03 2.085043907165527344e+01 1.039960861206054688e+00 -1.432393789291381836e+00 -8.445146083831787109e-01 -6.830725073814392090e-01 -1.254397034645080566e+00
8.697000000000000000e+03 2.049315261840820312e+01 8.613141179084777832e-01 -1.351064801216125488e+00 -1.013206839561462402e+00 -7.092815041542053223e-01 -1.267928123474121094e+00
8.698000000000000000e+03 2.152845191955566406e+01 1.460379362106323242e+00 -1.599545717239379883e+00 -6.063332557678222656e-01 -6.617636680603027344e-01 -1.119410872459411621e+00
8.699000000000000000e+03 2.228789710998535156e+01 2.100796222686767578e+00 -1.689700007438659668e+00 -5.522548556327819824e-01 -6.725864410400390625e-01 -1.037602186203002930e+00
8.700000000000000000e+03 2.268266296386718750e+01 2.183539867401123047e+00 -1.639161348342895508e+00 -4.597148299217224121e-01 -6.296628117561340332e-01 -9.406877756118774414e-01
8.701000000000000000e+03 2.282362365722656250e+01 2.349183797836303711e+00 -1.677370071411132812e+00 -4.867169857025146484e-01 -6.492261290550231934e-01 -9.519481062889099121e-01
8.702000000000000000e+03 2.291903305053710938e+01 2.602031946182250977e+00 -1.716625452041625977e+00 -5.328155755996704102e-01 -6.748322844505310059e-01 -9.686620831489562988e-01
8.703000000000000000e+03 2.312372589111328125e+01 2.517670631408691406e+00 -1.653243899345397949e+00 -4.619988203048706055e-01 -6.345728039741516113e-01 -9.233916401863098145e-01
8.704000000000000000e+03 2.329864883422851562e+01 2.554312467575073242e+00 -1.630046486854553223e+00 -4.743425250053405762e-01 -6.313167214393615723e-01 -8.877362608909606934e-01
8.705000000000000000e+03 2.370875740051269531e+01 2.486496210098266602e+00 -1.543046116828918457e+00 -3.896629810333251953e-01 -5.798127651214599609e-01 -8.047443628311157227e-01
8.706000000000000000e+03 2.360039710998535156e+01 2.670200109481811523e+00 -1.591765284538269043e+00 -4.564697742462158203e-01 -6.144705414772033691e-01 -8.490625619888305664e-01
8.707000000000000000e+03 2.383144950866699219e+01 2.970955133438110352e+00 -1.610847592353820801e+00 -4.742329418659210205e-01 -6.255241632461547852e-01 -8.731069564819335938e-01
8.708000000000000000e+03 2.428691291809082031e+01 3.261617898941040039e+00 -1.583463430404663086e+00 -4.904504716396331787e-01 -6.221741437911987305e-01 -8.606010079383850098e-01
8.709000000000000000e+03 2.491758537292480469e+01 3.217509746551513672e+00 -1.452793240547180176e+00 -4.408943951129913330e-01 -5.681062936782836914e-01 -7.569029927253723145e-01
8.710000000000000000e+03 2.506211090087890625e+01 3.325509548187255859e+00 -1.430514454841613770e+00 -4.563199281692504883e-01 -5.660502910614013672e-01 -7.689656615257263184e-01
8.711000000000000000e+03 2.508978843688964844e+01 3.686359405517578125e+00 -1.485436081886291504e+00 -4.923830032348632812e-01 -5.933457016944885254e-01 -8.319886922836303711e-01
8.712000000000000000e+03 2.592293930053710938e+01 3.904886245727539062e+00 -1.379271864891052246e+00 -5.167963504791259766e-01 -5.688204765319824219e-01 -7.824460268020629883e-01
8.713000000000000000e+03 2.642688369750976562e+01 4.173763751983642578e+00 -1.324394941329956055e+00 -5.384736061096191406e-01 -5.588605403900146484e-01 -7.775136828422546387e-01
8.714000000000000000e+03 2.612514495849609375e+01 4.211234092712402344e+00 -1.393893480300903320e+00 -5.370720624923706055e-01 -5.792896747589111328e-01 -8.166350722312927246e-01
8.715000000000000000e+03 2.628206062316894531e+01 4.349055767059326172e+00 -1.389600157737731934e+00 -5.600355863571166992e-01 -5.848907232284545898e-01 -8.255816698074340820e-01
8.716000000000000000e+03 2.674450492858886719e+01 4.412423610687255859e+00 -1.296880602836608887e+00 -5.772475004196166992e-01 -5.622384548187255859e-01 -7.902026176452636719e-01
8.717000000000000000e+03 2.653885078430175781e+01 4.620157718658447266e+00 -1.378516316413879395e+00 -5.920058488845825195e-01 -5.911566615104675293e-01 -8.532134890556335449e-01
8.718000000000000000e+03 2.699238395690917969e+01 4.901086807250976562e+00 -1.370793819427490234e+00 -6.391935348510742188e-01 -6.029962301254272461e-01 -8.634353280067443848e-01
8.719000000000000000e+03 2.765724372863769531e+01 5.295273303985595703e+00 -1.292339086532592773e+00 -7.544912695884704590e-01 -6.140490770339965820e-01 -8.749688267707824707e-01
8.720000000000000000e+03 2.831085968017578125e+01 5.369943618774414062e+00 -1.129494309425354004e+00 -7.771881818771362305e-01 -5.720047354698181152e-01 -7.485083341598510742e-01
8.721000000000000000e+03 2.837192344665527344e+01 5.715072154998779297e+00 -1.186104178428649902e+00 -8.722674250602722168e-01 -6.175114512443542480e-01 -8.235216736793518066e-01
8.722000000000000000e+03 2.900979804992675781e+01 5.785435676574707031e+00 -1.058986186981201172e+00 -6.736237406730651855e-01 -5.197829604148864746e-01 -6.805055737495422363e-01
8.723000000000000000e+03 2.888737106323242188e+01 5.938385963439941406e+00 -1.097176074981689453e+00 -7.331553101539611816e-01 -5.490994453430175781e-01 -7.190440893173217773e-01
8.724000000000000000e+03 2.932737922668457031e+01 6.294694900512695312e+00 -9.465008378028869629e-01 -5.269430875778198242e-01 -4.420331716537475586e-01 -8.523384332656860352e-01
8.725000000000000000e+03 2.987050247192382812e+01 6.886860370635986328e+00 -3.842351436614990234e-01 -6.707080006599426270e-01 -3.164829611778259277e-01 -9.041218757629394531e-01
8.726000000000000000e+03 2.857546615600585938e+01 5.763775825500488281e+00 -1.126670002937316895e+00 -8.297197818756103516e-01 -5.869169235229492188e-01 -7.647888064384460449e-01
8.727000000000000000e+03 2.832865715026855469e+01 5.965070724487304688e+00 -1.244425654411315918e+00 -9.512524604797363281e-01 -6.587034463882446289e-01 -9.081491231918334961e-01
8.728000000000000000e+03 1.585226917266845703e+01 -1.314679533243179321e-01 -4.253874778747558594e+00 1.196187853813171387e+00 -9.173060655593872070e-01 -1.545658349990844727e+00
8.729000000000000000e+03 2.700904464721679688e+01 6.986386775970458984e+00 -1.008126232773065567e-02 3.267861530184745789e-02 6.779206451028585434e-03 2.825970388948917389e-02
8.730000000000000000e+03 1.915440750122070312e+01 1.539692163467407227e+00 -1.968901395797729492e+00 -1.113352775573730469e+00 -9.246762394905090332e-01 -1.598110795021057129e+00
8.731000000000000000e+03 1.895336532592773438e+01 1.434279918670654297e+00 -2.247713565826416016e+00 -1.312307596206665039e+00 -1.068006396293640137e+00 -1.835491776466369629e+00
8.732000000000000000e+03 1.832626342773437500e+01 1.212554574012756348e+00 -2.015964269638061523e+00 -1.315654993057250977e+00 -9.994857907295227051e-01 -1.662093043327331543e+00
8.733000000000000000e+03 1.881803703308105469e+01 1.581102371215820312e+00 -1.131529331207275391e+00 -1.045075654983520508e+00 -6.529815196990966797e-01 -1.251990199089050293e+00
8.734000000000000000e+03 1.720338821411132812e+01 7.016548514366149902e-01 -1.238085150718688965e+00 -6.667296886444091797e-01 -5.714444518089294434e-01 -1.129610300064086914e+00
8.735000000000000000e+03 1.766154289245605469e+01 9.660823345184326172e-01 -1.012918949127197266e+00 -1.034866333007812500e+00 -6.143355965614318848e-01 -1.170368671417236328e+00
8.736000000000000000e+03 2.660479927062988281e+01 6.350921630859375000e+00 2.110885858535766602e+00 6.432350277900695801e-01 8.262362480163574219e-01 1.311476945877075195e+00
8.737000000000000000e+03 2.639602661132812500e+01 6.356693744659423828e+00 1.233980059623718262e+00 2.063863128423690796e-01 4.321099221706390381e-01 7.123049497604370117e-01
8.738000000000000000e+03 2.637787246704101562e+01 6.789946079254150391e+00 -1.213612675666809082e+00 -8.027950525283813477e-01 -6.049223542213439941e-01 -9.125861525535583496e-01
8.739000000000000000e+03 2.639554023742675781e+01 6.124566555023193359e+00 2.862372636795043945e+00 8.593352437019348145e-01 1.116512298583984375e+00 1.697671055793762207e+00
8.740000000000000000e+03 2.626122474670410156e+01 6.240300655364990234e+00 1.546980381011962891e+00 3.221298754215240479e-01 5.607330799102783203e-01 8.282465338706970215e-01
8.741000000000000000e+03 2.605123901367187500e+01 6.284544944763183594e+00 7.481292486190795898e-01 -4.451726377010345459e-02 2.110835909843444824e-01 2.467867434024810791e-01
8.742000000000000000e+03 2.451865959167480469e+01 5.238244056701660156e+00 8.355302214622497559e-01 -5.448082461953163147e-02 2.343148291110992432e-01 2.686688303947448730e-01
8.743000000000000000e+03 2.402710723876953125e+01 5.146443367004394531e+00 -9.770972728729248047e-01 -9.763222336769104004e-01 -5.860258340835571289e-01 -8.940001726150512695e-01
8.744000000000000000e+03 2.145628166198730469e+01 3.227499723434448242e+00 9.038514643907546997e-02 -3.110363185405731201e-01 -6.619534641504287720e-02 -2.656672000885009766e-01
8.745000000000000000e+03 2.426770591735839844e+01 5.176071166992187500e+00 2.800496518611907959e-01 -5.144205093383789062e-01 -7.031126320362091064e-02 -2.299130558967590332e-01
8.746000000000000000e+03 2.872770690917968750e+01 5.972564697265625000e+00 -1.131323933601379395e+00 -8.322351574897766113e-01 -5.890676975250244141e-01 -7.598277330398559570e-01
8.747000000000000000e+03 2.875193977355957031e+01 5.821742534637451172e+00 -1.105276226997375488e+00 -7.841879725456237793e-01 -5.668392777442932129e-01 -7.258414626121520996e-01
8.748000000000000000e+03 2.641004180908203125e+01 4.976247310638427734e+00 -1.462943911552429199e+00 -6.277606487274169922e-01 -6.272113919258117676e-01 -9.358314275741577148e-01
8.749000000000000000e+03 2.677645301818847656e+01 4.986546516418457031e+00 -1.402969837188720703e+00 -6.425799727439880371e-01 -6.136649250984191895e-01 -9.038784503936767578e-01
8.750000000000000000e+03 2.664482498168945312e+01 5.213761329650878906e+00 -1.491583347320556641e+00 -6.331047415733337402e-01 -6.374064087867736816e-01 -9.572423100471496582e-01
8.751000000000000000e+03 2.723494148254394531e+01 7.353139877319335938e+00 -1.000402331352233887e+00 -5.112962722778320312e-01 -4.535095989704132080e-01 -8.020244240760803223e-01
8.752000000000000000e+03 2.647268295288085938e+01 6.952697277069091797e+00 -1.796740055084228516e+00 -1.156267404556274414e+00 -8.859022259712219238e-01 -1.316340804100036621e+00
8.753000000000000000e+03 2.488064193725585938e+01 5.748773574829101562e+00 -9.726107716560363770e-01 -7.256741523742675781e-01 -5.094854831695556641e-01 -8.408188819885253906e-01
8.754000000000000000e+03 2.606977462768554688e+01 6.554043769836425781e+00 -1.061170816421508789e+00 -6.921387314796447754e-01 -5.259928703308105469e-01 -7.419006824493408203e-01
8.755000000000000000e+03 1.970203399658203125e+01 9.767117500305175781e-01 -1.270762324333190918e+00 -7.413390278816223145e-01 -6.036303639411926270e-01 -1.028683781623840332e+00
8.756000000000000000e+03 2.451392555236816406e+01 4.150055408477783203e+00 -1.651949405670166016e+00 -5.954256653785705566e-01 -6.742125153541564941e-01 -9.880945086479187012e-01
8.757000000000000000e+03 2.222106933593750000e+01 1.953441381454467773e+00 -1.666500926017761230e+00 -5.246604681015014648e-01 -6.573483943939208984e-01 -1.011361360549926758e+00
8.758000000000000000e+03 2.499477386474609375e+01 4.285282135009765625e+00 -1.598917603492736816e+00 -5.777041912078857422e-01 -6.529865264892578125e-01 -9.510404467582702637e-01
8.759000000000000000e+03 2.772571945190429688e+01 5.587497234344482422e+00 -1.329643011093139648e+00 -8.137418627738952637e-01 -6.430154442787170410e-01 -9.374948143959045410e-01
8.760000000000000000e+03 2.786710739135742188e+01 5.700411319732666016e+00 -1.336109399795532227e+00 -8.328405022621154785e-01 -6.506849527359008789e-01 -9.437715411186218262e-01
8.761000000000000000e+03 2.761308097839355469e+01 6.036466598510742188e+00 -1.565859317779541016e+00 -8.275812864303588867e-01 -7.180321812629699707e-01 -1.106811165809631348e+00
8.762000000000000000e+03 2.683716011047363281e+01 5.168988704681396484e+00 -1.435116410255432129e+00 -6.771309375762939453e-01 -6.336742043495178223e-01 -9.410247206687927246e-01
8.763000000000000000e+03 2.701836776733398438e+01 5.092906475067138672e+00 -1.380910396575927734e+00 -6.691740751266479492e-01 -6.150253415107727051e-01 -9.144396185874938965e-01
8.764000000000000000e+03 2.715846061706542969e+01 4.960176944732666016e+00 -1.332206010818481445e+00 -6.517041921615600586e-01 -5.951730608940124512e-01 -8.561649918556213379e-01
8.765000000000000000e+03 2.239185333251953125e+01 1.953694581985473633e+00 -1.621073246002197266e+00 -4.450193345546722412e-01 -6.198277473449707031e-01 -9.565186500549316406e-01
8.766000000000000000e+03 2.253596496582031250e+01 2.679699420928955078e+00 -1.823036551475524902e+00 -6.343777775764465332e-01 -7.372242808341979980e-01 -1.080877542495727539e+00
8.767000000000000000e+03 2.059241485595703125e+01 1.542418837547302246e+00 -1.518735289573669434e+00 -8.180014491081237793e-01 -7.010210156440734863e-01 -1.201382279396057129e+00
8.768000000000000000e+03 1.705965614318847656e+01 -1.238278031349182129e+00 -1.790952444076538086e+00 -4.969663023948669434e-01 -6.863756179809570312e-01 -7.239605188369750977e-01
8.769000000000000000e+03 1.735778236389160156e+01 -7.449176907539367676e-01 -1.857381105422973633e+00 -4.478558301925659180e-01 -6.915710568428039551e-01 -9.086628556251525879e-01
8.770000000000000000e+03 1.751641082763671875e+01 -6.253772377967834473e-01 -1.849599242210388184e+00 -4.668585360050201416e-01 -6.949373483657836914e-01 -9.158979654312133789e-01
8.771000000000000000e+03 1.767763137817382812e+01 -5.077363848686218262e-01 -1.800736546516418457e+00 -4.226676225662231445e-01 -6.670212745666503906e-01 -9.255875945091247559e-01
8.772000000000000000e+03 1.858691024780273438e+01 -9.391445666551589966e-02 -1.843951106071472168e+00 -4.993296563625335693e-01 -7.029842138290405273e-01 -8.740755319595336914e-01
8.773000000000000000e+03 1.897811508178710938e+01 2.083240002393722534e-01 -1.546518564224243164e+00 -5.813804268836975098e-01 -6.383697390556335449e-01 -7.836791276931762695e-01
8.774000000000000000e+03 1.828685569763183594e+01 2.713023126125335693e-01 -1.581641316413879395e+00 -4.342170357704162598e-01 -6.047574877738952637e-01 -8.684964776039123535e-01
8.775000000000000000e+03 2.410520935058593750e+01 3.153629302978515625e+00 -1.591908216476440430e+00 -4.658692777156829834e-01 -6.173332333564758301e-01 -8.590854406356811523e-01
8.776000000000000000e+03 2.391318130493164062e+01 3.180729627609252930e+00 -1.643482923507690430e+00 -5.068267583847045898e-01 -6.450929045677185059e-01 -9.000110030174255371e-01
8.777000000000000000e+03 2.399816131591796875e+01 3.385308742523193359e+00 -1.665522813796997070e+00 -5.344072580337524414e-01 -6.599790453910827637e-01 -9.418783187866210938e-01
8.778000000000000000e+03 2.488282585144042969e+01 3.632354021072387695e+00 -1.526112437248229980e+00 -5.024930238723754883e-01 -6.085816621780395508e-01 -8.446351885795593262e-01
8.779000000000000000e+03 2.444554328918457031e+01 3.841858625411987305e+00 -1.613470435142517090e+00 -5.621606707572937012e-01 -6.526893377304077148e-01 -9.411154985427856445e-01
8.780000000000000000e+03 2.601859092712402344e+01 4.594632148742675781e+00 -1.476952552795410156e+00 -5.773782134056091309e-01 -6.162992119789123535e-01 -8.929276466369628906e-01
8.781000000000000000e+03 2.623686027526855469e+01 4.541726589202880859e+00 -1.415661931037902832e+00 -5.742521286010742188e-01 -5.969741940498352051e-01 -8.643592000007629395e-01
8.782000000000000000e+03 1.928930854797363281e+01 8.976932168006896973e-01 -1.287621021270751953e+00 -5.893211364746093750e-01 -5.630826354026794434e-01 -8.859764337539672852e-01
8.783000000000000000e+03 1.927956962585449219e+01 6.948968768119812012e-01 -1.630883574485778809e+00 -6.924207806587219238e-01 -6.969913244247436523e-01 -9.773049354553222656e-01
8.784000000000000000e+03 1.991943740844726562e+01 6.985806822776794434e-01 -1.440381169319152832e+00 -1.064894199371337891e+00 -7.515826225280761719e-01 -1.055111169815063477e+00
8.785000000000000000e+03 2.460322952270507812e+01 3.955327272415161133e+00 -1.616360902786254883e+00 -5.662910938262939453e-01 -6.547955870628356934e-01 -9.540175199508666992e-01
8.786000000000000000e+03 2.382778739929199219e+01 3.521178722381591797e+00 -1.703616857528686523e+00 -5.778289437294006348e-01 -6.844337582588195801e-01 -9.783796072006225586e-01
8.787000000000000000e+03 2.198137664794921875e+01 2.655979156494140625e+00 -1.925001740455627441e+00 -7.233171463012695312e-01 -7.944957017898559570e-01 -1.175015091896057129e+00
8.788000000000000000e+03 2.185815811157226562e+01 2.212323427200317383e+00 -1.782906293869018555e+00 -6.450997591018676758e-01 -7.284018397331237793e-01 -1.123079538345336914e+00
8.789000000000000000e+03 2.198051834106445312e+01 2.364504098892211914e+00 -1.821440935134887695e+00 -6.631175279617309570e-01 -7.453675270080566406e-01 -1.127036213874816895e+00
8.790000000000000000e+03 2.148756027221679688e+01 1.866619586944580078e+00 -1.674011230468750000e+00 -6.530987620353698730e-01 -6.981329917907714844e-01 -1.132791876792907715e+00
8.791000000000000000e+03 2.106024551391601562e+01 1.529556989669799805e+00 -1.557450413703918457e+00 -7.168489098548889160e-01 -6.822898387908935547e-01 -1.211661934852600098e+00
8.792000000000000000e+03 2.125181007385253906e+01 1.653330326080322266e+00 -1.636418342590332031e+00 -7.304485440254211426e-01 -7.100600600242614746e-01 -1.171594738960266113e+00
8.793000000000000000e+03 2.094637107849121094e+01 1.918027877807617188e+00 -1.729508042335510254e+00 -7.893142104148864746e-01 -7.556466460227966309e-01 -1.187691807746887207e+00
8.794000000000000000e+03 2.076650810241699219e+01 1.574730277061462402e+00 -1.540221691131591797e+00 -7.797821760177612305e-01 -6.960011720657348633e-01 -1.195163130760192871e+00
8.795000000000000000e+03 2.587970352172851562e+01 4.881956577301025391e+00 -1.554651737213134766e+00 -6.016399860382080078e-01 -6.468874812126159668e-01 -9.575485587120056152e-01
8.796000000000000000e+03 1.765451049804687500e+01 -1.619453579187393188e-01 -1.741335034370422363e+00 -4.743529260158538818e-01 -6.647064089775085449e-01 -9.419705271720886230e-01
8.797000000000000000e+03 1.812890052795410156e+01 -1.340038925409317017e-01 -1.753347992897033691e+00 -4.230708181858062744e-01 -6.529256701469421387e-01 -8.706040382385253906e-01
8.798000000000000000e+03 1.826277923583984375e+01 -2.977999858558177948e-02 -1.695114135742187500e+00 -4.019427895545959473e-01 -6.291170716285705566e-01 -8.748956322669982910e-01
8.799000000000000000e+03 1.880193901062011719e+01 6.758607029914855957e-01 -1.334759712219238281e+00 -5.047690272331237793e-01 -5.518586039543151855e-01 -7.809540033340454102e-01
8.800000000000000000e+03 1.894854354858398438e+01 7.549192905426025391e-01 -1.312445878982543945e+00 -5.312275886535644531e-01 -5.531020164489746094e-01 -7.942868471145629883e-01
8.801000000000000000e+03 2.678519821166992188e+01 7.062376022338867188e+00 -1.251997828483581543e+00 -7.599921226501464844e-01 -6.035969853401184082e-01 -8.878308534622192383e-01
8.802000000000000000e+03 2.690731239318847656e+01 6.818960189819335938e+00 6.028947830200195312e-01 3.196587860584259033e-01 2.767660617828369141e-01 3.998660147190093994e-01
8.803000000000000000e+03 2.660069084167480469e+01 7.038652420043945312e+00 -1.812715411186218262e+00 -1.124921083450317383e+00 -8.812909126281738281e-01 -1.276832222938537598e+00
8.804000000000000000e+03 2.659112930297851562e+01 6.734062194824218750e+00 2.245838195085525513e-01 -1.552939116954803467e-01 2.078697085380554199e-02 7.867311686277389526e-02
8.805000000000000000e+03 2.661147308349609375e+01 6.894548892974853516e+00 -9.511917233467102051e-01 -6.408246159553527832e-01 -4.776048958301544189e-01 -6.740480661392211914e-01
8.806000000000000000e+03 2.073003196716308594e+01 1.245025277137756348e+00 -1.465916395187377930e+00 -7.621795535087585449e-01 -6.684287786483764648e-01 -1.246994137763977051e+00
8.807000000000000000e+03 2.058207511901855469e+01 1.154570817947387695e+00 -1.404500484466552734e+00 -9.153033494949340820e-01 -6.959411501884460449e-01 -1.238034605979919434e+00
8.808000000000000000e+03 2.174007797241210938e+01 2.035988092422485352e+00 -1.730020761489868164e+00 -6.525415182113647461e-01 -7.147687077522277832e-01 -1.118245601654052734e+00
8.809000000000000000e+03 1.986181449890136719e+01 8.778309226036071777e-01 -1.299657106399536133e+00 -9.871544837951660156e-01 -6.860434412956237793e-01 -1.069196462631225586e+00
8.810000000000000000e+03 1.949866867065429688e+01 5.670157074928283691e-01 -1.283240914344787598e+00 -8.620494604110717773e-01 -6.435871124267578125e-01 -8.830569982528686523e-01
8.811000000000000000e+03 1.954581260681152344e+01 2.329013496637344360e-01 -1.489215612411499023e+00 -9.684932827949523926e-01 -7.373126745223999023e-01 -9.222096204757690430e-01
8.812000000000000000e+03 2.056551742553710938e+01 1.350121736526489258e+00 -1.466758251190185547e+00 -8.718619346618652344e-01 -7.015860676765441895e-01 -1.196887612342834473e+00
8.813000000000000000e+03 2.213665390014648438e+01 2.220813751220703125e+00 -1.742430567741394043e+00 -5.877997875213623047e-01 -6.990690827369689941e-01 -1.057022094726562500e+00
8.814000000000000000e+03 2.759283638000488281e+01 5.736433982849121094e+00 -1.450003147125244141e+00 -7.945853471755981445e-01 -6.733765602111816406e-01 -9.991606473922729492e-01
8.815000000000000000e+03 1.647349929809570312e+01 -1.049277424812316895e+00 -2.439406871795654297e+00 -5.492550730705261230e-01 -8.965986371040344238e-01 -7.102748155593872070e-01
8.816000000000000000e+03 2.371811103820800781e+01 3.334536314010620117e+00 -1.699785351753234863e+00 -5.505411028861999512e-01 -6.750979423522949219e-01 -9.699252843856811523e-01
8.817000000000000000e+03 1.918312644958496094e+01 5.033789277076721191e-01 -1.294143915176391602e+00 -6.868171095848083496e-01 -5.942882895469665527e-01 -7.758709788322448730e-01
8.818000000000000000e+03 2.467941284179687500e+01 3.614620447158813477e+00 -1.555337548255920410e+00 -4.952095746994018555e-01 -6.151641011238098145e-01 -8.696463108062744141e-01
8.819000000000000000e+03 1.937634086608886719e+01 4.028036594390869141e-01 -1.624379158020019531e+00 -8.121325969696044922e-01 -7.309535145759582520e-01 -9.052258133888244629e-01
8.820000000000000000e+03 1.885597801208496094e+01 4.195890128612518311e-01 -1.506933212280273438e+00 -6.231088042259216309e-01 -6.390125751495361328e-01 -8.862658739089965820e-01
8.821000000000000000e+03 2.240024375915527344e+01 2.218441963195800781e+00 -1.704977035522460938e+00 -5.242364406585693359e-01 -6.687640547752380371e-01 -1.002189040184020996e+00
8.822000000000000000e+03 2.447861862182617188e+01 3.615789175033569336e+00 -1.618646979331970215e+00 -5.214865207672119141e-01 -6.420400738716125488e-01 -9.035056829452514648e-01
8.823000000000000000e+03 2.235301589965820312e+01 2.481110811233520508e+00 -1.805472254753112793e+00 -5.981739163398742676e-01 -7.210938334465026855e-01 -1.065182328224182129e+00
8.824000000000000000e+03 2.166055107116699219e+01 1.858121275901794434e+00 -1.688103795051574707e+00 -6.394279599189758301e-01 -6.982595324516296387e-01 -1.119988083839416504e+00
8.825000000000000000e+03 2.237258148193359375e+01 2.643537998199462891e+00 -1.822844028472900391e+00 -6.195007562637329102e-01 -7.327034473419189453e-01 -1.098926305770874023e+00
8.826000000000000000e+03 2.353147506713867188e+01 2.949220895767211914e+00 -1.671997904777526855e+00 -5.068349838256835938e-01 -6.536498665809631348e-01 -9.352602362632751465e-01
8.827000000000000000e+03 2.845718574523925781e+01 7.030216693878173828e+00 -3.472790956497192383e+00 -1.820954918861389160e+00 -1.588123679161071777e+00 -2.504341840744018555e+00
8.828000000000000000e+03 2.829931449890136719e+01 6.909000873565673828e+00 -2.595290899276733398e+00 -1.282916188240051270e+00 -1.163462162017822266e+00 -1.808490514755249023e+00
8.829000000000000000e+03 2.814144515991210938e+01 6.787785530090332031e+00 -2.254120826721191406e+00 -1.053752541542053223e+00 -9.923619627952575684e-01 -1.528464436531066895e+00
8.830000000000000000e+03 2.798357582092285156e+01 6.666570186614990234e+00 -2.045947790145874023e+00 -9.372600317001342773e-01 -8.949623107910156250e-01 -1.389716267585754395e+00
8.831000000000000000e+03 2.849719047546386719e+01 6.987525463104248047e+00 -2.528150081634521484e+00 -2.046733379364013672e+00 -1.372465133666992188e+00 -2.257177114486694336e+00
8.832000000000000000e+03 2.836599349975585938e+01 6.837849140167236328e+00 -2.150056838989257812e+00 -1.585792422294616699e+00 -1.120754837989807129e+00 -1.707809805870056152e+00
8.833000000000000000e+03 2.823479461669921875e+01 6.688172817230224609e+00 -1.911510348320007324e+00 -1.241447925567626953e+00 -9.458875060081481934e-01 -1.498642683029174805e+00
8.834000000000000000e+03 2.810359573364257812e+01 6.538496494293212891e+00 -1.777925252914428711e+00 -1.098322033882141113e+00 -8.628742098808288574e-01 -1.338552832603454590e+00
8.835000000000000000e+03 2.854475593566894531e+01 6.953455924987792969e+00 -1.953121781349182129e+00 -2.141677379608154297e+00 -1.228439688682556152e+00 -1.919194817543029785e+00
8.836000000000000000e+03 2.844526672363281250e+01 6.781066894531250000e+00 -1.786879897117614746e+00 -1.630771517753601074e+00 -1.025295376777648926e+00 -1.486602425575256348e+00
8.837000000000000000e+03 2.834577941894531250e+01 6.608678340911865234e+00 -1.619919538497924805e+00 -1.367938876152038574e+00 -8.963574767112731934e-01 -1.336422204971313477e+00
8.838000000000000000e+03 2.824629020690917969e+01 6.436289310455322266e+00 -1.543556451797485352e+00 -1.174869060516357422e+00 -8.155276179313659668e-01 -1.225759744644165039e+00
8.839000000000000000e+03 2.859805107116699219e+01 6.929316997528076172e+00 -1.609554529190063477e+00 -2.040357828140258789e+00 -1.094973683357238770e+00 -1.532758355140686035e+00
8.840000000000000000e+03 2.853409385681152344e+01 6.740835666656494141e+00 -1.547092437744140625e+00 -1.548196434974670410e+00 -9.285866618156433105e-01 -1.270392894744873047e+00
8.841000000000000000e+03 2.847013473510742188e+01 6.552354335784912109e+00 -1.438819527626037598e+00 -1.330411791801452637e+00 -8.307693600654602051e-01 -1.144162416458129883e+00
8.842000000000000000e+03 2.840617561340332031e+01 6.363872528076171875e+00 -1.355302691459655762e+00 -1.174464225769042969e+00 -7.589300870895385742e-01 -1.058935642242431641e+00
8.843000000000000000e+03 2.865503120422363281e+01 6.916035652160644531e+00 -1.455779910087585449e+00 -1.727286577224731445e+00 -9.549199342727661133e-01 -1.220940351486206055e+00
8.844000000000000000e+03 2.862905883789062500e+01 6.718699932098388672e+00 -1.429615259170532227e+00 -1.365010738372802734e+00 -8.383877873420715332e-01 -1.095616579055786133e+00
8.845000000000000000e+03 2.860308647155761719e+01 6.521364212036132812e+00 -1.311495900154113770e+00 -1.194225907325744629e+00 -7.517165541648864746e-01 -9.857350587844848633e-01
8.846000000000000000e+03 2.857711601257324219e+01 6.324028491973876953e+00 -1.271323800086975098e+00 -1.074828028678894043e+00 -7.038455605506896973e-01 -9.201951622962951660e-01
8.847000000000000000e+03 2.871350669860839844e+01 6.914121627807617188e+00 -1.467085599899291992e+00 -1.299863934516906738e+00 -8.300848603248596191e-01 -1.075773596763610840e+00
8.848000000000000000e+03 2.872651863098144531e+01 6.715509891510009766e+00 -1.335239291191101074e+00 -1.109263420104980469e+00 -7.333508133888244629e-01 -1.000673055648803711e+00
8.849000000000000000e+03 2.873953056335449219e+01 6.516898155212402344e+00 -1.272909283638000488e+00 -1.006958127021789551e+00 -6.839601993560791016e-01 -9.033017754554748535e-01
8.850000000000000000e+03 2.875254249572753906e+01 6.318286418914794922e+00 -1.190745472908020020e+00 -9.124944210052490234e-01 -6.309719681739807129e-01 -8.228681683540344238e-01
8.851000000000000000e+03 2.877123260498046875e+01 6.923648357391357422e+00 -1.436808347702026367e+00 -8.451787233352661133e-01 -6.845961213111877441e-01 -1.128149867057800293e+00
8.852000000000000000e+03 2.882272911071777344e+01 6.731388092041015625e+00 -1.298350214958190918e+00 -8.627362847328186035e-01 -6.483259201049804688e-01 -1.011485695838928223e+00
8.853000000000000000e+03 2.887422561645507812e+01 6.539127349853515625e+00 -1.200813770294189453e+00 -7.947960495948791504e-01 -5.986829400062561035e-01 -8.919720649719238281e-01
8.854000000000000000e+03 2.892572212219238281e+01 6.346867084503173828e+00 -1.155875325202941895e+00 -7.576405405998229980e-01 -5.740547776222229004e-01 -8.130468130111694336e-01
8.855000000000000000e+03 2.882599258422851562e+01 6.944250583648681641e+00 -1.352072954177856445e+00 -5.320537686347961426e-01 -5.652379989624023438e-01 -1.360508680343627930e+00
8.856000000000000000e+03 2.891399574279785156e+01 6.765724658966064453e+00 -1.166113138198852539e+00 -6.448824405670166016e-01 -5.432986617088317871e-01 -1.092641830444335938e+00
8.857000000000000000e+03 2.900199890136718750e+01 6.587198734283447266e+00 -1.150295376777648926e+00 -6.326313018798828125e-01 -5.348780155181884766e-01 -9.627099037170410156e-01
8.858000000000000000e+03 2.909000015258789062e+01 6.408672809600830078e+00 -1.064749121665954590e+00 -6.123247742652893066e-01 -5.031222105026245117e-01 -8.664878606796264648e-01
8.859000000000000000e+03 2.887568473815917969e+01 6.975136280059814453e+00 -1.054364800453186035e+00 -3.723919093608856201e-01 -4.280270338058471680e-01 -1.635180234909057617e+00
8.860000000000000000e+03 2.899681282043457031e+01 6.817201137542724609e+00 -9.957388043403625488e-01 -5.412038564682006836e-01 -4.610828161239624023e-01 -1.253680825233459473e+00
8.861000000000000000e+03 2.911794281005859375e+01 6.659265518188476562e+00 -9.834703207015991211e-01 -5.333290100097656250e-01 -4.550397992134094238e-01 -1.044756650924682617e+00
8.862000000000000000e+03 2.923907279968261719e+01 6.501330375671386719e+00 -1.004195809364318848e+00 -5.208732485771179199e-01 -4.575207233428955078e-01 -9.632743000984191895e-01
8.863000000000000000e+03 2.891839790344238281e+01 7.015120029449462891e+00 -5.715046525001525879e-01 -4.570280611515045166e-01 -3.085598051548004150e-01 -1.880954504013061523e+00
8.864000000000000000e+03 2.906800079345703125e+01 6.883840560913085938e+00 -7.403838038444519043e-01 -5.049312114715576172e-01 -3.735945224761962891e-01 -1.379366636276245117e+00
8.865000000000000000e+03 2.921760559082031250e+01 6.752560615539550781e+00 -7.522829174995422363e-01 -5.439315438270568848e-01 -3.888643383979797363e-01 -1.181845545768737793e+00
8.866000000000000000e+03 2.936721229553222656e+01 6.621281147003173828e+00 -8.125796318054199219e-01 -5.121844410896301270e-01 -3.974292278289794922e-01 -9.954136013984680176e-01
8.867000000000000000e+03 2.895249176025390625e+01 7.062665939331054688e+00 -2.613080292940139771e-02 -6.514964699745178223e-01 -2.032881975173950195e-01 -1.989819645881652832e+00
8.868000000000000000e+03 2.912482643127441406e+01 6.963083744049072266e+00 -3.544154763221740723e-01 -5.915215015411376953e-01 -2.837810814380645752e-01 -1.448699355125427246e+00
8.869000000000000000e+03 2.929716110229492188e+01 6.863501071929931641e+00 -5.341659188270568848e-01 -5.869495272636413574e-01 -3.363346159458160400e-01 -1.265449762344360352e+00
8.870000000000000000e+03 2.946949577331542969e+01 6.763918876647949219e+00 -4.895245730876922607e-01 -6.229146122932434082e-01 -3.337317407131195068e-01 -1.088647484779357910e+00
8.871000000000000000e+03 2.897665977478027344e+01 7.115948200225830078e+00 6.113483309745788574e-01 -8.787889480590820312e-01 -8.023217320442199707e-02 -1.872728466987609863e+00
8.872000000000000000e+03 2.916510581970214844e+01 7.051887512207031250e+00 -4.512251354753971100e-03 -7.440418004989624023e-01 -2.245662063360214233e-01 -1.467102050781250000e+00
8.873000000000000000e+03 2.935355186462402344e+01 6.987826824188232422e+00 -2.013472616672515869e-01 -6.789422631263732910e-01 -2.640868425369262695e-01 -1.225700497627258301e+00
8.874000000000000000e+03 2.954199981689453125e+01 6.923766136169433594e+00 -3.412140011787414551e-01 -7.037442922592163086e-01 -3.134874701499938965e-01 -1.176127910614013672e+00
8.875000000000000000e+03 2.898997116088867188e+01 7.172920703887939453e+00 1.094008684158325195e+00 -1.117509126663208008e+00 -7.050131913274526596e-03 -1.645925521850585938e+00
8.876000000000000000e+03 2.918729400634765625e+01 7.146841526031494141e+00 4.030229747295379639e-01 -8.440662026405334473e-01 -1.323129683732986450e-01 -1.321222066879272461e+00
8.877000000000000000e+03 2.938461494445800781e+01 7.120762348175048828e+00 7.242019474506378174e-02 -8.498375415802001953e-01 -2.332251965999603271e-01 -1.160599470138549805e+00
8.878000000000000000e+03 2.958193588256835938e+01 7.094683170318603516e+00 -1.651921421289443970e-01 -7.252001166343688965e-01 -2.671176791191101074e-01 -1.021951794624328613e+00
8.879000000000000000e+03 2.899191665649414062e+01 7.231395721435546875e+00 1.501503825187683105e+00 -1.125364303588867188e+00 1.128418594598770142e-01 -1.264016270637512207e+00
8.880000000000000000e+03 2.919053649902343750e+01 7.244299411773681641e+00 7.021529078483581543e-01 -1.021178245544433594e+00 -9.570761024951934814e-02 -1.131743550300598145e+00
8.881000000000000000e+03 2.938915443420410156e+01 7.257203578948974609e+00 3.393535315990447998e-01 -8.867833018302917480e-01 -1.642289310693740845e-01 -9.570243954658508301e-01
8.882000000000000000e+03 2.958777427673339844e+01 7.270107746124267578e+00 5.301228538155555725e-02 -8.988255858421325684e-01 -2.537439763545989990e-01 -8.253315091133117676e-01
8.883000000000000000e+03 2.898242187500000000e+01 7.289126873016357422e+00 1.703613162040710449e+00 -1.162428498268127441e+00 1.623553782701492310e-01 -9.039609432220458984e-01
8.884000000000000000e+03 2.917471122741699219e+01 7.340518474578857422e+00 9.667592644691467285e-01 -9.773551821708679199e-01 -3.178776940330862999e-03 -8.265548944473266602e-01
8.885000000000000000e+03 2.936699867248535156e+01 7.391910076141357422e+00 4.820651412010192871e-01 -1.005532979965209961e+00 -1.570403426885604858e-01 -7.233632802963256836e-01
8.886000000000000000e+03 2.955928802490234375e+01 7.443301677703857422e+00 2.540295720100402832e-01 -9.061967730522155762e-01 -1.956501603126525879e-01 -6.268566846847534180e-01
8.887000000000000000e+03 2.896185111999511719e+01 7.343897819519042969e+00 1.841954588890075684e+00 -9.134920239448547363e-01 2.785387933254241943e-01 -5.568194389343261719e-01
8.888000000000000000e+03 2.914042282104492188e+01 7.431803703308105469e+00 1.081782102584838867e+00 -1.024373412132263184e+00 1.722261868417263031e-02 -5.118860602378845215e-01
8.889000000000000000e+03 2.931899642944335938e+01 7.519709587097167969e+00 5.833889245986938477e-01 -8.754903674125671387e-01 -8.763043582439422607e-02 -4.232184886932373047e-01
8.890000000000000000e+03 2.949757194519042969e+01 7.607614994049072266e+00 1.857656389474868774e-01 -9.211542606353759766e-01 -2.206165790557861328e-01 -4.449457824230194092e-01
8.891000000000000000e+03 2.893099212646484375e+01 7.393605232238769531e+00 1.881734609603881836e+00 -8.204520344734191895e-01 3.183847665786743164e-01 -2.729961276054382324e-01
8.892000000000000000e+03 2.908899307250976562e+01 7.514648914337158203e+00 1.126518249511718750e+00 -7.770950794219970703e-01 1.048269495368003845e-01 -1.859737783670425415e-01
8.893000000000000000e+03 2.924699401855468750e+01 7.635693073272705078e+00 5.521376729011535645e-01 -8.430617451667785645e-01 -8.727723360061645508e-02 -1.562417745590209961e-01
8.894000000000000000e+03 2.940499496459960938e+01 7.756736755371093750e+00 5.750930681824684143e-02 -6.703389286994934082e-01 -1.838488876819610596e-01 -1.270906031131744385e-01
8.895000000000000000e+03 2.889103126525878906e+01 7.436339855194091797e+00 1.953789591789245605e+00 -4.690938591957092285e-01 4.454087316989898682e-01 -6.671932339668273926e-02
8.896000000000000000e+03 2.902239227294921875e+01 7.585873603820800781e+00 1.042076587677001953e+00 -6.755003333091735840e-01 1.099728643894195557e-01 1.313153058290481567e-01
8.897000000000000000e+03 2.915375137329101562e+01 7.735406875610351562e+00 4.083271026611328125e-01 -5.016133785247802734e-01 -2.798588946461677551e-02 5.023435875773429871e-02
8.898000000000000000e+03 2.928511238098144531e+01 7.884940624237060547e+00 5.923159793019294739e-02 -6.522774696350097656e-01 -1.779137700796127319e-01 1.231511384248733521e-01
8.899000000000000000e+03 2.884350395202636719e+01 7.470460414886474609e+00 1.917688488960266113e+00 -3.424399793148040771e-01 4.725745618343353271e-01 2.116633653640747070e-01
8.900000000000000000e+03 2.894317817687988281e+01 7.642741680145263672e+00 9.576798081398010254e-01 -2.633213400840759277e-01 2.083075344562530518e-01 2.741521596908569336e-01
8.901000000000000000e+03 2.904285430908203125e+01 7.815021991729736328e+00 1.608390510082244873e-01 -3.652783334255218506e-01 -6.133178621530532837e-02 3.032944202423095703e-01
8.902000000000000000e+03 2.914253044128417969e+01 7.987303256988525391e+00 -9.739496558904647827e-02 -3.308203518390655518e-01 -1.284645944833755493e-01 3.128622472286224365e-02
8.903000000000000000e+03 2.879023361206054688e+01 7.494657516479492188e+00 2.031896591186523438e+00 -1.414690446108579636e-02 6.053249239921569824e-01 3.860695660114288330e-01
8.904000000000000000e+03 2.885439682006835938e+01 7.683069229125976562e+00 6.713007688522338867e-01 4.493607580661773682e-02 2.148710638284683228e-01 4.659728407859802246e-01
8.905000000000000000e+03 2.891856002807617188e+01 7.871481418609619141e+00 2.114544995129108429e-02 -3.078761883080005646e-02 -2.892650431022047997e-03 2.666738629341125488e-01
8.906000000000000000e+03 2.898272323608398438e+01 8.059893608093261719e+00 -6.583806276321411133e-01 -1.594062298536300659e-01 -2.453360557556152344e-01 3.879619017243385315e-02
8.907000000000000000e+03 2.873326873779296875e+01 7.508000850677490234e+00 1.990352153778076172e+00 3.382807970046997070e-01 6.985899209976196289e-01 5.641975402832031250e-01
8.908000000000000000e+03 2.875945472717285156e+01 7.705308437347412109e+00 5.118193626403808594e-01 3.831577301025390625e-01 2.684931159019470215e-01 4.958603084087371826e-01
8.909000000000000000e+03 2.878564071655273438e+01 7.902615547180175781e+00 -2.887145876884460449e-01 2.797198593616485596e-01 -2.698420779779553413e-03 2.227316498756408691e-01
8.910000000000000000e+03 2.881182670593261719e+01 8.099923133850097656e+00 -1.017703294754028320e+00 1.662037521600723267e-01 -2.554498612880706787e-01 -4.539483040571212769e-02
8.911000000000000000e+03 2.867479515075683594e+01 7.509978294372558594e+00 1.790097713470458984e+00 6.951068639755249023e-01 7.455613613128662109e-01 6.963559985160827637e-01
8.912000000000000000e+03 2.866199874877929688e+01 7.708603858947753906e+00 5.362714529037475586e-01 7.251019477844238281e-01 3.784120380878448486e-01 4.193748831748962402e-01
8.913000000000000000e+03 2.864920234680175781e+01 7.907229900360107422e+00 -6.616837382316589355e-01 5.278124213218688965e-01 -4.016139358282089233e-02 1.324143260717391968e-01
8.914000000000000000e+03 2.863640785217285156e+01 8.105855941772460938e+00 -1.130236387252807617e+00 3.868204653263092041e-01 -2.230247855186462402e-01 -1.505507230758666992e-01
8.915000000000000000e+03 2.861705780029296875e+01 7.500514030456542969e+00 1.954885959625244141e+00 1.172292470932006836e+00 9.381535053253173828e-01 7.464313507080078125e-01
8.916000000000000000e+03 2.856577110290527344e+01 7.692830562591552734e+00 2.917040288448333740e-01 9.401752948760986328e-01 3.695637881755828857e-01 2.373058348894119263e-01
8.917000000000000000e+03 2.851448440551757812e+01 7.885146617889404297e+00 -4.824881553649902344e-01 7.513819336891174316e-01 8.066814392805099487e-02 5.582267418503761292e-02
8.918000000000000000e+03 2.846319770812988281e+01 8.077463150024414062e+00 -1.589313030242919922e+00 3.433214128017425537e-01 -3.737974762916564941e-01 -4.172183275222778320e-01
8.919000000000000000e+03 2.856227684020996094e+01 7.479971885681152344e+00 1.939095139503479004e+00 1.406934499740600586e+00 1.003808856010437012e+00 5.421636700630187988e-01
8.920000000000000000e+03 2.847446632385253906e+01 7.658593177795410156e+00 5.091384649276733398e-01 1.171408414840698242e+00 5.041640400886535645e-01 2.024728357791900635e-01
8.921000000000000000e+03 2.838665962219238281e+01 7.837214469909667969e+00 -5.179805755615234375e-01 7.449901700019836426e-01 6.810288131237030029e-02 -2.061779052019119263e-01
8.922000000000000000e+03 2.829885101318359375e+01 8.015835762023925781e+00 -1.435617566108703613e+00 6.511842608451843262e-01 -2.353300154209136963e-01 -4.686613380908966064e-01
8.923000000000000000e+03 2.851255226135253906e+01 7.449139595031738281e+00 2.107436895370483398e+00 1.613742709159851074e+00 1.116353869438171387e+00 3.669390082359313965e-01
8.924000000000000000e+03 2.839159393310546875e+01 7.607206821441650391e+00 8.989381194114685059e-01 1.160359621047973633e+00 6.177893280982971191e-01 1.284725815057754517e-01
8.925000000000000000e+03 2.827063560485839844e+01 7.765273571014404297e+00 -4.218278229236602783e-01 8.471834063529968262e-01 1.276066750288009644e-01 -3.140034675598144531e-01
8.926000000000000000e+03 2.814967727661132812e+01 7.923340797424316406e+00 -1.061627388000488281e+00 5.232624411582946777e-01 -1.615094691514968872e-01 -4.665993750095367432e-01
8.927000000000000000e+03 2.846979522705078125e+01 7.409202575683593750e+00 2.752957344055175781e+00 1.648901343345642090e+00 1.320557594299316406e+00 2.941602766513824463e-01
8.928000000000000000e+03 2.832033348083496094e+01 7.540644645690917969e+00 1.218543171882629395e+00 1.031182408332824707e+00 6.749176383018493652e-01 5.227958783507347107e-02
8.929000000000000000e+03 2.817087173461914062e+01 7.672087192535400391e+00 9.943219274282455444e-02 9.264631867408752441e-01 3.077686131000518799e-01 -1.234410330653190613e-01
8.930000000000000000e+03 2.802140998840332031e+01 7.803529262542724609e+00 -8.819622993469238281e-01 1.165048852562904358e-01 -2.296372205018997192e-01 -6.656763553619384766e-01
8.931000000000000000e+03 2.843564987182617188e+01 7.361693859100341797e+00 3.312101364135742188e+00 1.248125910758972168e+00 1.368068218231201172e+00 2.564924061298370361e-01
8.932000000000000000e+03 2.826342201232910156e+01 7.461463451385498047e+00 1.883216619491577148e+00 1.128238201141357422e+00 9.034364223480224609e-01 2.975349426269531250e-01
8.933000000000000000e+03 2.809119606018066406e+01 7.561233043670654297e+00 6.171551346778869629e-01 6.352045536041259766e-01 3.757078945636749268e-01 -1.381826773285865784e-02
8.934000000000000000e+03 2.791897010803222656e+01 7.661002635955810547e+00 -4.092324078083038330e-01 3.549677729606628418e-01 -1.627939380705356598e-02 -4.975787997245788574e-01
8.935000000000000000e+03 2.841142272949218750e+01 7.308437824249267578e+00 4.154373168945312500e+00 1.155988693237304688e+00 1.593108534812927246e+00 5.831148624420166016e-01
8.936000000000000000e+03 2.822304725646972656e+01 7.372703552246093750e+00 2.436652660369873047e+00 8.658255338668823242e-01 9.907433986663818359e-01 5.768852233886718750e-01
8.937000000000000000e+03 2.803466987609863281e+01 7.436968803405761719e+00 1.362898588180541992e+00 7.616239786148071289e-01 6.373567581176757812e-01 3.269756734371185303e-01
8.938000000000000000e+03 2.784629249572753906e+01 7.501234531402587891e+00 2.284497767686843872e-01 3.865265250205993652e-01 1.844928860664367676e-01 -1.093786731362342834e-01
8.939000000000000000e+03 2.839804840087890625e+01 7.251480102539062500e+00 4.753259181976318359e+00 7.913882136344909668e-01 1.663394212722778320e+00 1.125910758972167969e+00
8.940000000000000000e+03 2.820075607299804688e+01 7.277773380279541016e+00 3.117078065872192383e+00 1.008864760398864746e+00 1.237782835960388184e+00 1.035228967666625977e+00
8.941000000000000000e+03 2.800346374511718750e+01 7.304067134857177734e+00 2.030519723892211914e+00 6.835936307907104492e-01 8.142339587211608887e-01 7.435638308525085449e-01
8.942000000000000000e+03 2.780616950988769531e+01 7.330360889434814453e+00 1.187850475311279297e+00 6.642740964889526367e-01 5.556373596191406250e-01 4.871509969234466553e-01
8.943000000000000000e+03 2.839603996276855469e+01 7.193007469177246094e+00 5.232501506805419922e+00 9.364482760429382324e-01 1.850684881210327148e+00 1.836508512496948242e+00
8.944000000000000000e+03 2.819740867614746094e+01 7.180319309234619141e+00 3.629016637802124023e+00 9.773499369621276855e-01 1.381909966468811035e+00 1.555357694625854492e+00
8.945000000000000000e+03 2.799877548217773438e+01 7.167631149291992188e+00 2.784581899642944336e+00 9.760075211524963379e-01 1.128176808357238770e+00 1.295084476470947266e+00
8.946000000000000000e+03 2.780014228820800781e+01 7.154942989349365234e+00 2.086757421493530273e+00 7.229051589965820312e-01 8.428987860679626465e-01 1.063091516494750977e+00
8.947000000000000000e+03 2.840547180175781250e+01 7.135265827178955078e+00 5.306046485900878906e+00 1.133606195449829102e+00 1.931895732879638672e+00 2.593595027923583984e+00
8.948000000000000000e+03 2.821312904357910156e+01 7.084083080291748047e+00 4.106942653656005859e+00 1.289110898971557617e+00 1.618816137313842773e+00 2.044932842254638672e+00
8.949000000000000000e+03 2.802078437805175781e+01 7.032900810241699219e+00 3.494050502777099609e+00 1.112728476524353027e+00 1.382033705711364746e+00 1.886893391609191895e+00
8.950000000000000000e+03 2.782843971252441406e+01 6.981718063354492188e+00 2.952579259872436523e+00 1.105267763137817383e+00 1.217354059219360352e+00 1.737150788307189941e+00
8.951000000000000000e+03 2.842598533630371094e+01 7.080472469329833984e+00 5.171059131622314453e+00 1.709032058715820312e+00 2.064027309417724609e+00 3.072262287139892578e+00
8.952000000000000000e+03 2.824731636047363281e+01 6.992761135101318359e+00 4.522851467132568359e+00 1.517500996589660645e+00 1.812105655670166016e+00 2.552793741226196289e+00
8.953000000000000000e+03 2.806864738464355469e+01 6.905049324035644531e+00 4.064211368560791016e+00 1.480055093765258789e+00 1.663280010223388672e+00 2.434193372726440430e+00
8.954000000000000000e+03 2.788997840881347656e+01 6.817337989807128906e+00 3.930284738540649414e+00 1.385758519172668457e+00 1.594812989234924316e+00 2.363500833511352539e+00
8.955000000000000000e+03 2.861505317687988281e+01 7.151432037353515625e+00 -5.355988502502441406e+00 -2.179977655410766602e+00 -2.260789871215820312e+00 -3.510457992553710938e+00
8.956000000000000000e+03 2.862838935852050781e+01 7.137201309204101562e+00 -4.810755729675292969e+00 -2.389154672622680664e+00 -2.159973144531250000e+00 -3.600906372070312500e+00
8.957000000000000000e+03 2.864424514770507812e+01 7.125844955444335938e+00 -3.934189081192016602e+00 -2.562409162521362305e+00 -1.948979496955871582e+00 -3.568750858306884766e+00
8.958000000000000000e+03 2.866201019287109375e+01 7.117798805236816406e+00 -3.034262895584106445e+00 -2.553666114807128906e+00 -1.676378607749938965e+00 -3.416790485382080078e+00
8.959000000000000000e+03 2.868100357055664062e+01 7.113371372222900391e+00 -2.202275753021240234e+00 -2.369021415710449219e+00 -1.371389150619506836e+00 -3.216364860534667969e+00
8.960000000000000000e+03 2.870049476623535156e+01 7.112733364105224609e+00 -1.388211727142333984e+00 -2.035301446914672852e+00 -1.027053952217102051e+00 -3.047216653823852539e+00
8.961000000000000000e+03 2.871973609924316406e+01 7.115909099578857422e+00 -6.454020738601684570e-01 -1.684728264808654785e+00 -6.990391016006469727e-01 -2.945179462432861328e+00
8.962000000000000000e+03 2.873798942565917969e+01 7.122776508331298828e+00 1.671556979417800903e-01 -1.355360746383666992e+00 -3.564615249633789062e-01 -2.873519659042358398e+00
8.963000000000000000e+03 2.875455474853515625e+01 7.133071899414062500e+00 9.711029529571533203e-01 -1.182168841361999512e+00 -6.331977993249893188e-02 -2.809918880462646484e+00
8.964000000000000000e+03 2.876879119873046875e+01 7.146399497985839844e+00 1.761585235595703125e+00 -1.076164245605468750e+00 2.056262940168380737e-01 -2.651412487030029297e+00
8.965000000000000000e+03 2.878015708923339844e+01 7.162248134613037109e+00 2.528441190719604492e+00 -1.080155968666076660e+00 4.344855546951293945e-01 -2.357919216156005859e+00
8.966000000000000000e+03 2.878821182250976562e+01 7.180008888244628906e+00 3.055532217025756836e+00 -1.104535698890686035e+00 5.852989554405212402e-01 -1.980842113494873047e+00
8.967000000000000000e+03 2.879265022277832031e+01 7.198999881744384766e+00 3.436191320419311523e+00 -1.010030865669250488e+00 7.278481125831604004e-01 -1.473607540130615234e+00
8.968000000000000000e+03 2.879329872131347656e+01 7.218491554260253906e+00 3.503620386123657227e+00 -9.483147859573364258e-01 7.665916681289672852e-01 -1.025893449783325195e+00
8.969000000000000000e+03 2.879013252258300781e+01 7.237735271453857422e+00 3.429043292999267578e+00 -6.536889672279357910e-01 8.326062560081481934e-01 -6.201732754707336426e-01
8.970000000000000000e+03 2.878327560424804688e+01 7.255992412567138672e+00 3.186404943466186523e+00 -5.224025249481201172e-01 7.992007136344909668e-01 -3.734311461448669434e-01
8.971000000000000000e+03 2.877298927307128906e+01 7.272561550140380859e+00 2.974901914596557617e+00 -2.066172957420349121e-01 8.304853439331054688e-01 -2.667324542999267578e-01
8.972000000000000000e+03 2.875966835021972656e+01 7.286806106567382812e+00 2.793143987655639648e+00 -1.970916688442230225e-01 7.788156867027282715e-01 -2.259470820426940918e-01
8.973000000000000000e+03 2.874382781982421875e+01 7.298179626464843750e+00 2.862093925476074219e+00 2.652981551364064217e-03 8.594240546226501465e-01 -3.048948943614959717e-01
8.974000000000000000e+03 2.872607040405273438e+01 7.306245326995849609e+00 2.904725313186645508e+00 1.343374606221914291e-03 8.718206286430358887e-01 -2.966194152832031250e-01
8.975000000000000000e+03 2.870708084106445312e+01 7.310693264007568359e+00 3.203279256820678711e+00 9.090191870927810669e-02 9.882543683052062988e-01 -2.602034509181976318e-01
8.976000000000000000e+03 2.868759155273437500e+01 7.311352252960205078e+00 3.747802019119262695e+00 3.222625255584716797e-01 1.221019387245178223e+00 -2.437633872032165527e-01
8.977000000000000000e+03 2.866834640502929688e+01 7.308197498321533203e+00 4.089405536651611328e+00 4.588550925254821777e-01 1.364478111267089844e+00 -2.481574416160583496e-01
8.978000000000000000e+03 2.865008544921875000e+01 7.301350116729736328e+00 4.854046344757080078e+00 8.240855336189270020e-01 1.703439593315124512e+00 -1.331205219030380249e-01
8.979000000000000000e+03 2.863351058959960938e+01 7.291072845458984375e+00 5.802312374114990234e+00 9.828060269355773926e-01 2.035535573959350586e+00 -8.075218647718429565e-02
8.980000000000000000e+03 2.861925697326660156e+01 7.277760505676269531e+00 6.612505435943603516e+00 1.010050177574157715e+00 2.286766767501831055e+00 6.162210926413536072e-02
8.981000000000000000e+03 2.860787582397460938e+01 7.261924266815185547e+00 7.762816429138183594e+00 1.231513381004333496e+00 2.698298931121826172e+00 5.091890096664428711e-01
8.982000000000000000e+03 2.859980010986328125e+01 7.244172573089599609e+00 8.562424659729003906e+00 1.069000244140625000e+00 2.889427423477172852e+00 1.100505828857421875e+00
8.983000000000000000e+03 2.859534263610839844e+01 7.225186347961425781e+00 9.245453834533691406e+00 1.362413048744201660e+00 3.182359933853149414e+00 1.936019778251647949e+00
8.984000000000000000e+03 2.859467124938964844e+01 7.205695629119873047e+00 9.401323318481445312e+00 1.516302466392517090e+00 3.275287628173828125e+00 2.880304098129272461e+00
8.985000000000000000e+03 2.859781646728515625e+01 7.186448097229003906e+00 9.214334487915039062e+00 2.067337751388549805e+00 3.384501457214355469e+00 3.747044086456298828e+00
8.986000000000000000e+03 2.860465431213378906e+01 7.168183803558349609e+00 8.474919319152832031e+00 2.609578371047973633e+00 3.325349092483520508e+00 4.542353630065917969e+00
8.987000000000000000e+03 5.845055007934570312e+01 3.472088623046875000e+01 3.470368576049804688e+01 3.434845209121704102e+00 1.144155883789062500e+01 8.024066925048828125e+00
8.988000000000000000e+03 5.845165252685546875e+01 3.470145034790039062e+01 3.541013336181640625e+01 1.232123947143554688e+01 1.431941223144531250e+01 2.088867950439453125e+01
8.989000000000000000e+03 5.845652389526367188e+01 3.468259811401367188e+01 3.459984970092773438e+01 2.306592750549316406e+01 1.729973411560058594e+01 2.644975852966308594e+01
8.990000000000000000e+03 5.846496963500976562e+01 3.466505813598632812e+01 3.139282989501953125e+01 3.502126693725585938e+01 1.992422866821289062e+01 2.979689216613769531e+01
8.991000000000000000e+03 5.847666549682617188e+01 3.464949798583984375e+01 2.797910118103027344e+01 4.643204498291015625e+01 2.232334327697753906e+01 2.997166061401367188e+01
8.992000000000000000e+03 5.849117279052734375e+01 3.463650894165039062e+01 2.395738792419433594e+01 5.757120513916015625e+01 2.445857810974121094e+01 2.741869926452636719e+01
8.993000000000000000e+03 5.850792694091796875e+01 3.462659454345703125e+01 2.073284912109375000e+01 6.597483825683593750e+01 2.601230621337890625e+01 2.278991127014160156e+01
8.994000000000000000e+03 5.852629089355468750e+01 3.462013244628906250e+01 1.912247657775878906e+01 7.215150451660156250e+01 2.738219451904296875e+01 1.618151283264160156e+01
8.995000000000000000e+03 5.854556274414062500e+01 3.461737060546875000e+01 1.930083274841308594e+01 7.494784545898437500e+01 2.827460289001464844e+01 9.089276313781738281e+00
8.996000000000000000e+03 5.856500244140625000e+01 3.461841201782226562e+01 2.135074615478515625e+01 7.461946868896484375e+01 2.879106521606445312e+01 2.218368291854858398e+00
8.997000000000000000e+03 5.858386993408203125e+01 3.462321853637695312e+01 2.525374603271484375e+01 7.187522888183593750e+01 2.913869285583496094e+01 -3.252785682678222656e+00
8.998000000000000000e+03 5.860144042968750000e+01 3.463160705566406250e+01 3.008629989624023438e+01 6.721736145019531250e+01 2.919109725952148438e+01 -6.987500667572021484e+00
8.999000000000000000e+03 5.861703872680664062e+01 3.464325332641601562e+01 3.533299255371093750e+01 6.198752212524414062e+01 2.919615364074707031e+01 -8.508469581604003906e+00
9.000000000000000000e+03 5.863007354736328125e+01 3.465771484375000000e+01 3.998099899291992188e+01 5.661716461181640625e+01 2.897944831848144531e+01 -8.115739822387695312e+00
9.001000000000000000e+03 5.864004135131835938e+01 3.467443847656250000e+01 4.417535781860351562e+01 5.264482498168945312e+01 2.904605484008789062e+01 -5.845048427581787109e+00
9.002000000000000000e+03 5.864656448364257812e+01 3.469278335571289062e+01 4.666106414794921875e+01 4.927541351318359375e+01 2.878094291687011719e+01 -2.514569759368896484e+00
9.003000000000000000e+03 5.864939117431640625e+01 3.471204376220703125e+01 4.807458877563476562e+01 4.846931838989257812e+01 2.896317291259765625e+01 1.639191746711730957e+00
9.004000000000000000e+03 5.864841461181640625e+01 3.473148727416992188e+01 4.755868530273437500e+01 4.878446197509765625e+01 2.890294456481933594e+01 6.068408966064453125e+00
9.005000000000000000e+03 5.864366912841796875e+01 3.475037002563476562e+01 4.562305068969726562e+01 5.143009948730468750e+01 2.911594581604003906e+01 1.002000141143798828e+01
9.006000000000000000e+03 5.863534164428710938e+01 3.476796722412109375e+01 4.182576370239257812e+01 5.534354400634765625e+01 2.915079307556152344e+01 1.314211463928222656e+01
9.007000000000000000e+03 5.862374496459960938e+01 3.478360366821289062e+01 3.695652008056640625e+01 6.094207000732421875e+01 2.936957740783691406e+01 1.457953739166259766e+01
9.008000000000000000e+03 5.860932540893554688e+01 3.479668807983398438e+01 3.081275749206542969e+01 6.642002868652343750e+01 2.916983604431152344e+01 1.416139507293701172e+01
9.009000000000000000e+03 5.859263610839843750e+01 3.480670928955078125e+01 2.496102714538574219e+01 7.204291534423828125e+01 2.910118293762207031e+01 1.120106410980224609e+01
9.010000000000000000e+03 5.857431411743164062e+01 3.481329345703125000e+01 1.942578506469726562e+01 7.574399566650390625e+01 2.855093383789062500e+01 6.281812667846679688e+00
9.011000000000000000e+03 5.855506134033203125e+01 3.481618499755859375e+01 1.531393337249755859e+01 7.717352294921875000e+01 2.774623680114746094e+01 -5.552053451538085938e-01
9.012000000000000000e+03 5.853561401367187500e+01 3.481526947021484375e+01 1.338896656036376953e+01 7.556684875488281250e+01 2.668674468994140625e+01 -7.915169239044189453e+00
9.013000000000000000e+03 5.851671600341796875e+01 3.481058883666992188e+01 1.310020065307617188e+01 7.030238342285156250e+01 2.502077484130859375e+01 -1.542202377319335938e+01
9.014000000000000000e+03 5.849909210205078125e+01 3.480231857299804688e+01 1.511147212982177734e+01 6.244805908203125000e+01 2.326786041259765625e+01 -2.133670616149902344e+01
9.015000000000000000e+03 5.848341751098632812e+01 3.479077148437500000e+01 1.782438850402832031e+01 5.146324920654296875e+01 2.078629112243652344e+01 -2.548567390441894531e+01
9.016000000000000000e+03 5.847028732299804688e+01 3.477639770507812500e+01 2.215460205078125000e+01 3.948212051391601562e+01 1.849101638793945312e+01 -2.660383415222167969e+01
9.017000000000000000e+03 5.846020889282226562e+01 3.475974273681640625e+01 2.536109161376953125e+01 2.570869255065917969e+01 1.532093524932861328e+01 -2.495549392700195312e+01
9.018000000000000000e+03 5.845356369018554688e+01 3.474143981933593750e+01 3.153085708618164062e+01 1.134954166412353516e+01 1.286411952972412109e+01 -1.621436119079589844e+01
